<?xml version="1.0"?>
<VTKFile type="UnstructuredGrid" version="0.1" byte_order="LittleEndian">
<UnstructuredGrid>
<Piece NumberOfPoints="31654" NumberOfCells="11073">
<Points>
<DataArray type="Float64" NumberOfComponents="3" format="ascii">
-0.5 -0.5 0 -0.49999999999999961 -0.4955045412525596 0 -0.48963209310728212 -0.50000000000000422 0 -0.49999999999999961 -0.4955045412525596 0 -0.48203849089195971 -0.47713094086527608 0 -0.49999999999999961 -0.4955045412525596 0 -0.48963209310728212 -0.50000000000000422 0 -0.48203849089195971 -0.47713094086527608 0 -0.49999999999999961 -0.4955045412525596 0 -0.48203849089195971 -0.47713094086527608 0 -0.5 -0.46595673819470768 0 -0.46990870762866721 -0.47934720221353289 0 -0.48203849089195971 -0.47713094086527608 0 -0.46407698178391998 -0.45875734047799233 0 -0.48963209310728212 -0.50000000000000422 0 -0.46990870762866721 -0.47934720221353289 0 -0.48963209310728212 -0.50000000000000422 0 -0.46990870762866721 -0.47934720221353289 0 -0.48203849089195971 -0.47713094086527608 0 -0.48963209310728212 -0.50000000000000422 0 -0.46990870762866721 -0.47934720221353289 0 -0.46243590185244349 -0.5 0 -0.46990870762866721 -0.47934720221353289 0 -0.45363353302438197 -0.48971701633361631 0 -0.46243590185244349 -0.5 0 -0.46990870762866721 -0.47934720221353289 0 -0.45363353302438197 -0.48971701633361631 0 -0.44694981201881268 -0.47952086312093228 0 -0.46990870762866721 -0.47934720221353289 0 -0.44694981201881268 -0.47952086312093228 0 -0.45018532215005441 -0.45869440442705972 0 -0.46990870762866721 -0.47934720221353289 0 -0.45018532215005441 -0.45869440442705972 0 -0.44694981201881268 -0.47952086312093228 0 -0.45018532215005441 -0.45869440442705972 0 -0.43676142814697039 -0.46882345795161567 0 -0.45363353302438197 -0.48971701633361631 0 -0.46243590185244349 -0.5 0 -0.43523971059760491 -0.5 0 -0.45363353302438197 -0.48971701633361631 0 -0.44694981201881268 -0.47952086312093228 0 -0.43523971059760491 -0.5 0 -0.45018532215005441 -0.45869440442705972 0 -0.43046193667144161 -0.43804160664058639 0 -0.44611547267588031 -0.44038374009070869 0 -0.45018532215005441 -0.45869440442705972 0 -0.43046193667144161 -0.43804160664058639 0 -0.45018532215005441 -0.45869440442705972 0 -0.43676142814697039 -0.46882345795161567 0 -0.43177850281690772 -0.45628229593173408 0 -0.46990870762866721 -0.47934720221353289 0 -0.45018532215005441 -0.45869440442705972 0 -0.46407698178391998 -0.45875734047799233 0 -0.46407698178391998 -0.45875734047799233 0 -0.46250953793196992 -0.4412457854006509 0 -0.47684596925265937 -0.44496942617860208 0 -0.44611547267588031 -0.44038374009070869 0 -0.46407698178391998 -0.45875734047799233 0 -0.46250953793196992 -0.4412457854006509 0 -0.44611547267588031 -0.44038374009070869 0 -0.46407698178391998 -0.45875734047799233 0 -0.44611547267588031 -0.44038374009070869 0 -0.45018532215005441 -0.45869440442705972 0 -0.46407698178391998 -0.45875734047799233 0 -0.46250953793196992 -0.4412457854006509 0 -0.47684596925265937 -0.44496942617860208 0 -0.47376596402009991 -0.43093597365180991 0 -0.48203849089195971 -0.47713094086527608 0 -0.46407698178391998 -0.45875734047799233 0 -0.48203849089195971 -0.47713094086527608 0 -0.46407698178391998 -0.45875734047799233 0 -0.4838773625273069 -0.45749909622570117 0 -0.46407698178391998 -0.45875734047799233 0 -0.47684596925265937 -0.44496942617860208 0 -0.4838773625273069 -0.45749909622570117 0 -0.48203849089195971 -0.47713094086527608 0 -0.4838773625273069 -0.45749909622570117 0 -0.5 -0.46595673819470768 0 -0.4838773625273069 -0.45749909622570117 0 -0.5 -0.46595673819470768 0 -0.5 -0.43640893513685569 0 -0.47684596925265937 -0.44496942617860208 0 -0.4838773625273069 -0.45749909622570117 0 -0.5 -0.43640893513685569 0 -0.5 -0.43640893513685569 0 -0.48807352787942693 -0.42163503360792981 0 -0.47376596402009991 -0.43093597365180991 0 -0.5 -0.43640893513685569 0 -0.48807352787942693 -0.42163503360792981 0 -0.5 -0.40686113207900387 0 -0.48807352787942693 -0.42163503360792981 0 -0.5 -0.40686113207900387 0 -0.48647090372502799 -0.39376645540432531 0 -0.48807352787942693 -0.42163503360792981 0 -0.48647090372502799 -0.39376645540432531 0 -0.4667787485529945 -0.405586497379263 0 -0.48807352787942693 -0.42163503360792981 0 -0.47376596402009991 -0.43093597365180991 0 -0.4667787485529945 -0.405586497379263 0 -0.47684596925265937 -0.44496942617860208 0 -0.5 -0.43640893513685569 0 -0.47376596402009991 -0.43093597365180991 0 -0.5 -0.377313329021152 0 -0.48647090372502799 -0.39376645540432531 0 -0.47048170016765112 -0.38129471166342299 0 -0.5 -0.40686113207900387 0 -0.5 -0.377313329021152 0 -0.48647090372502799 -0.39376645540432531 0 -0.48647090372502799 -0.39376645540432531 0 -0.47048170016765112 -0.38129471166342299 0 -0.4667787485529945 -0.405586497379263 0 -0.47048170016765112 -0.38129471166342299 0 -0.44746665090917243 -0.39413820001010119 0 -0.44808162225674392 -0.37692182579735289 0 -0.47048170016765112 -0.38129471166342299 0 -0.4667787485529945 -0.405586497379263 0 -0.44746665090917243 -0.39413820001010119 0 -0.47048170016765112 -0.38129471166342299 0 -0.4667787485529945 -0.405586497379263 0 -0.4667787485529945 -0.405586497379263 0 -0.44746665090917243 -0.39413820001010119 0 -0.44389815475070749 -0.41309320310289299 0 -0.44746665090917243 -0.39413820001010119 0 -0.44389815475070749 -0.41309320310289299 0 -0.4268810438033932 -0.40405875814065001 0 -0.44808162225674392 -0.37692182579735289 0 -0.43026145018299999 -0.38326351845830642 0 -0.43543039476948919 -0.36685570225466702 0 -0.44746665090917243 -0.39413820001010119 0 -0.44808162225674392 -0.37692182579735289 0 -0.43026145018299999 -0.38326351845830642 0 -0.44611547267588031 -0.44038374009070869 0 -0.46250953793196992 -0.4412457854006509 0 -0.45531793121929531 -0.42691034632906982 0 -0.46250953793196992 -0.4412457854006509 0 -0.47376596402009991 -0.43093597365180991 0 -0.45531793121929531 -0.42691034632906982 0 -0.4667787485529945 -0.405586497379263 0 -0.45531793121929531 -0.42691034632906982 0 -0.44389815475070749 -0.41309320310289299 0 -0.47376596402009991 -0.43093597365180991 0 -0.4667787485529945 -0.405586497379263 0 -0.45531793121929531 -0.42691034632906982 0 -0.44389815475070749 -0.41309320310289299 0 -0.44123627706134622 -0.4277108435848444 0 -0.43038788998940619 -0.42012532176096379 0 -0.44611547267588031 -0.44038374009070869 0 -0.44123627706134622 -0.4277108435848444 0 -0.43046193667144161 -0.43804160664058639 0 -0.45531793121929531 -0.42691034632906982 0 -0.44389815475070749 -0.41309320310289299 0 -0.44123627706134622 -0.4277108435848444 0 -0.44611547267588031 -0.44038374009070869 0 -0.45531793121929531 -0.42691034632906982 0 -0.44123627706134622 -0.4277108435848444 0 -0.44123627706134622 -0.4277108435848444 0 -0.43038788998940619 -0.42012532176096379 0 -0.43046193667144161 -0.43804160664058639 0 -0.43038788998940619 -0.42012532176096379 0 -0.41073855119282882 -0.41738880885411322 0 -0.43046193667144161 -0.43804160664058639 0 -0.44389815475070749 -0.41309320310289299 0 -0.43038788998940619 -0.42012532176096379 0 -0.4268810438033932 -0.40405875814065001 0 -0.43038788998940619 -0.42012532176096379 0 -0.41073855119282882 -0.41738880885411322 0 -0.4268810438033932 -0.40405875814065001 0 -0.41073855119282882 -0.41738880885411322 0 -0.4061748184439441 -0.43549875007120742 0 -0.43046193667144161 -0.43804160664058639 0 -0.41073855119282882 -0.41738880885411322 0 -0.43046193667144161 -0.43804160664058639 0 -0.43026145018299999 -0.38326351845830642 0 -0.4268810438033932 -0.40405875814065001 0 -0.41111747537830812 -0.39127236395216508 0 -0.44746665090917243 -0.39413820001010119 0 -0.43026145018299999 -0.38326351845830642 0 -0.4268810438033932 -0.40405875814065001 0 -0.41073855119282882 -0.41738880885411322 0 -0.4268810438033932 -0.40405875814065001 0 -0.41111747537830812 -0.39127236395216508 0 -0.43026145018299999 -0.38326351845830642 0 -0.41111747537830812 -0.39127236395216508 0 -0.41634473552900092 -0.37082329016511723 0 -0.41111747537830812 -0.39127236395216508 0 -0.41634473552900092 -0.37082329016511723 0 -0.39304672010686581 -0.37475311150844498 0 -0.41111747537830812 -0.39127236395216508 0 -0.39101516571421591 -0.39673601106763989 0 -0.39304672010686581 -0.37475311150844498 0 -0.41073855119282882 -0.41738880885411322 0 -0.41111747537830812 -0.39127236395216508 0 -0.39101516571421591 -0.39673601106763989 0 -0.39101516571421591 -0.39673601106763989 0 -0.36842202000709551 -0.4069503877282013 0 -0.37121257174217581 -0.38460265902015978 0 -0.39101516571421591 -0.39673601106763989 0 -0.38512768531393771 -0.40976189400084922 0 -0.36842202000709551 -0.4069503877282013 0 -0.39101516571421591 -0.39673601106763989 0 -0.39304672010686581 -0.37475311150844498 0 -0.37121257174217581 -0.38460265902015978 0 -0.41073855119282882 -0.41738880885411322 0 -0.4061748184439441 -0.43549875007120742 0 -0.38590425447482968 -0.42403540064749051 0 -0.39235059255532651 -0.43725519633794602 0 -0.4061748184439441 -0.43549875007120742 0 -0.38590425447482968 -0.42403540064749051 0 -0.41073855119282882 -0.41738880885411322 0 -0.39101516571421591 -0.39673601106763989 0 -0.41073855119282882 -0.41738880885411322 0 -0.39101516571421591 -0.39673601106763989 0 -0.38512768531393771 -0.40976189400084922 0 -0.41073855119282882 -0.41738880885411322 0 -0.38512768531393771 -0.40976189400084922 0 -0.38590425447482968 -0.42403540064749051 0 -0.38512768531393771 -0.40976189400084922 0 -0.37222584211108473 -0.42374855568549852 0 -0.36842202000709551 -0.4069503877282013 0 -0.38512768531393771 -0.40976189400084922 0 -0.38590425447482968 -0.42403540064749051 0 -0.37222584211108473 -0.42374855568549852 0 -0.38590425447482968 -0.42403540064749051 0 -0.37969946268683807 -0.44093739067353832 0 -0.37222584211108473 -0.42374855568549852 0 -0.38590425447482968 -0.42403540064749051 0 -0.37969946268683807 -0.44093739067353832 0 -0.39235059255532651 -0.43725519633794602 0 -0.38590425447482968 -0.42403540064749051 0 -0.37969946268683807 -0.44093739067353832 0 -0.37969946268683807 -0.44093739067353832 0 -0.37349467089884719 -0.45783938069958652 0 -0.39235059255532651 -0.43725519633794602 0 -0.37969946268683807 -0.44093739067353832 0 -0.39762383461569439 -0.44854924395954793 0 -0.37969946268683807 -0.44093739067353832 0 -0.39762383461569439 -0.44854924395954793 0 -0.37349467089884719 -0.45783938069958652 0 -0.39235059255532651 -0.43725519633794602 0 -0.4061748184439441 -0.43549875007120742 0 -0.39762383461569439 -0.44854924395954793 0 -0.39762383461569439 -0.44854924395954793 0 -0.40480880063287922 -0.46465520859447418 0 -0.4158175686356223 -0.45129695524469998 0 -0.39762383461569439 -0.44854924395954793 0 -0.40480880063287922 -0.46465520859447418 0 -0.38967595846051922 -0.46407966395753569 0 -0.39762383461569439 -0.44854924395954793 0 -0.38967595846051922 -0.46407966395753569 0 -0.37349467089884719 -0.45783938069958652 0 -0.39762383461569439 -0.44854924395954793 0 -0.37349467089884719 -0.45783938069958652 0 -0.38967595846051922 -0.46407966395753569 0 -0.37977069260572971 -0.47103743603700798 0 -0.37349467089884719 -0.45783938069958652 0 -0.37977069260572971 -0.47103743603700798 0 -0.37824661550928201 -0.48343057916569632 0 -0.3925915345037938 -0.47925758194389678 0 -0.38967595846051922 -0.46407966395753569 0 -0.37977069260572971 -0.47103743603700798 0 -0.3925915345037938 -0.47925758194389678 0 -0.37824661550928201 -0.48343057916569632 0 -0.38084732808792798 -0.5 0 -0.3925915345037938 -0.47925758194389678 0 -0.37824661550928201 -0.48343057916569632 0 -0.38084732808792798 -0.5 0 -0.37157748043598571 -0.48981787593663523 0 -0.3925915345037938 -0.47925758194389678 0 -0.41068017467584461 -0.48034324331306061 0 -0.40804351934276639 -0.5 0 -0.38084732808792798 -0.5 0 -0.3925915345037938 -0.47925758194389678 0 -0.40804351934276639 -0.5 0 -0.40480880063287922 -0.46465520859447418 0 -0.3925915345037938 -0.47925758194389678 0 -0.41068017467584461 -0.48034324331306061 0 -0.40480880063287922 -0.46465520859447418 0 -0.38967595846051922 -0.46407966395753569 0 -0.3925915345037938 -0.47925758194389678 0 -0.41068017467584461 -0.48034324331306061 0 -0.42760563386300671 -0.48300252558437479 0 -0.42224711119623609 -0.46666183862050931 0 -0.40480880063287922 -0.46465520859447418 0 -0.41068017467584461 -0.48034324331306061 0 -0.42224711119623609 -0.46666183862050931 0 -0.41068017467584461 -0.48034324331306061 0 -0.40804351934276639 -0.5 0 -0.42760563386300671 -0.48300252558437479 0 -0.44694981201881268 -0.47952086312093228 0 -0.43523971059760491 -0.5 0 -0.42760563386300671 -0.48300252558437479 0 -0.40804351934276639 -0.5 0 -0.43523971059760491 -0.5 0 -0.42760563386300671 -0.48300252558437479 0 -0.44694981201881268 -0.47952086312093228 0 -0.42760563386300671 -0.48300252558437479 0 -0.43676142814697039 -0.46882345795161567 0 -0.42760563386300671 -0.48300252558437479 0 -0.43676142814697039 -0.46882345795161567 0 -0.42224711119623609 -0.46666183862050931 0 -0.42224711119623609 -0.46666183862050931 0 -0.43177850281690772 -0.45628229593173408 0 -0.4158175686356223 -0.45129695524469998 0 -0.43676142814697039 -0.46882345795161567 0 -0.42224711119623609 -0.46666183862050931 0 -0.43177850281690772 -0.45628229593173408 0 -0.45018532215005441 -0.45869440442705972 0 -0.43177850281690772 -0.45628229593173408 0 -0.43046193667144161 -0.43804160664058639 0 -0.43177850281690772 -0.45628229593173408 0 -0.43046193667144161 -0.43804160664058639 0 -0.4158175686356223 -0.45129695524469998 0 -0.4061748184439441 -0.43549875007120742 0 -0.43046193667144161 -0.43804160664058639 0 -0.4158175686356223 -0.45129695524469998 0 -0.4061748184439441 -0.43549875007120742 0 -0.39762383461569439 -0.44854924395954793 0 -0.4158175686356223 -0.45129695524469998 0 -0.40480880063287922 -0.46465520859447418 0 -0.42224711119623609 -0.46666183862050931 0 -0.4158175686356223 -0.45129695524469998 0 -0.43978426832496842 -0.25595267217095202 0 -0.44492860647738708 -0.2581125008386993 0 -0.44621521508720452 -0.23618731695651429 0 -0.44492860647738708 -0.2581125008386993 0 -0.43426817646393762 -0.2757660644535741 0 -0.43387501832978109 -0.26196842385737701 0 -0.44492860647738708 -0.2581125008386993 0 -0.45210769146844049 -0.26818687722025841 0 -0.45328796924433162 -0.25902648129984679 0 -0.44856495240922428 -0.25209074898137163 0 -0.44492860647738708 -0.2581125008386993 0 -0.45328796924433162 -0.25902648129984679 0 -0.44856495240922428 -0.25209074898137163 0 -0.45328796924433162 -0.25902648129984679 0 -0.45717515575802498 -0.25173532694221612 0 -0.44856495240922428 -0.25209074898137163 0 -0.44492860647738708 -0.2581125008386993 0 -0.43978426832496842 -0.25595267217095202 0 -0.44492860647738708 -0.2581125008386993 0 -0.43387501832978109 -0.26196842385737701 0 -0.44492860647738708 -0.2581125008386993 0 -0.44356537844224458 -0.28134336150278721 0 -0.43426817646393762 -0.2757660644535741 0 -0.44492860647738708 -0.2581125008386993 0 -0.43426817646393762 -0.2757660644535741 0 -0.44492860647738708 -0.2581125008386993 0 -0.45210769146844049 -0.26818687722025841 0 -0.44356537844224458 -0.28134336150278721 0 -0.44492860647738708 -0.2581125008386993 0 -0.44356537844224458 -0.28134336150278721 0 -0.45210769146844049 -0.26818687722025841 0 -0.45766727826398351 -0.27900022115322443 0 -0.44356537844224458 -0.28134336150278721 0 -0.45766727826398351 -0.27900022115322443 0 -0.46089159682461961 -0.26330731821400738 0 -0.47590017520925493 -0.27127157601289797 0 -0.45210769146844049 -0.26818687722025841 0 -0.45766727826398351 -0.27900022115322443 0 -0.46089159682461961 -0.26330731821400738 0 -0.46089159682461961 -0.26330731821400738 0 -0.45717515575802498 -0.25173532694221612 0 -0.46804319132689648 -0.246018173434604 0 -0.46089159682461961 -0.26330731821400738 0 -0.47590017520925493 -0.27127157601289797 0 -0.46804319132689648 -0.246018173434604 0 -0.46089159682461961 -0.26330731821400738 0 -0.45328796924433162 -0.25902648129984679 0 -0.45717515575802498 -0.25173532694221612 0 -0.45210769146844049 -0.26818687722025841 0 -0.46089159682461961 -0.26330731821400738 0 -0.45328796924433162 -0.25902648129984679 0 -0.47590017520925493 -0.27127157601289797 0 -0.48614690839338193 -0.24626533862775701 0 -0.46804319132689648 -0.246018173434604 0 -0.47590017520925493 -0.27127157601289797 0 -0.46804319132689648 -0.246018173434604 0 -0.5 -0.25912211678974428 0 -0.47590017520925493 -0.27127157601289797 0 -0.48614690839338193 -0.24626533862775701 0 -0.5 -0.25912211678974428 0 -0.47590017520925493 -0.27127157601289797 0 -0.5 -0.28866991984759632 0 -0.47590017520925493 -0.27127157601289797 0 -0.48375715909161332 -0.29652497859119209 0 -0.47590017520925493 -0.27127157601289797 0 -0.48375715909161332 -0.29652497859119209 0 -0.46804671203192461 -0.29361236792080098 0 -0.47590017520925493 -0.27127157601289797 0 -0.48375715909161332 -0.29652497859119209 0 -0.5 -0.28866991984759632 0 -0.48375715909161332 -0.29652497859119209 0 -0.5 -0.28866991984759632 0 -0.5 -0.31821772290544809 0 -0.48375715909161332 -0.29652497859119209 0 -0.48159055501162068 -0.30841935451590302 0 -0.5 -0.31821772290544809 0 -0.48159055501162068 -0.30841935451590302 0 -0.46147920760846362 -0.30964070732682919 0 -0.46804671203192461 -0.29361236792080098 0 -0.48375715909161332 -0.29652497859119209 0 -0.48159055501162068 -0.30841935451590302 0 -0.46804671203192461 -0.29361236792080098 0 -0.46147920760846362 -0.30964070732682919 0 -0.46804671203192461 -0.29361236792080098 0 -0.44787369203620059 -0.29270338589020162 0 -0.46147920760846362 -0.30964070732682919 0 -0.44787369203620059 -0.29270338589020162 0 -0.45766727826398351 -0.27900022115322443 0 -0.46804671203192461 -0.29361236792080098 0 -0.44787369203620059 -0.29270338589020162 0 -0.45766727826398351 -0.27900022115322443 0 -0.47590017520925493 -0.27127157601289797 0 -0.46804671203192461 -0.29361236792080098 0 -0.44787369203620059 -0.29270338589020162 0 -0.43426817646393762 -0.2757660644535741 0 -0.44787369203620059 -0.29270338589020162 0 -0.44356537844224458 -0.28134336150278721 0 -0.43426817646393762 -0.2757660644535741 0 -0.45766727826398351 -0.27900022115322443 0 -0.44787369203620059 -0.29270338589020162 0 -0.44356537844224458 -0.28134336150278721 0 -0.46147920760846362 -0.30964070732682919 0 -0.44787369203620059 -0.29270338589020162 0 -0.43972290206812747 -0.31404433696105499 0 -0.43972290206812747 -0.31404433696105499 0 -0.45418191945286968 -0.33408860372456151 0 -0.42299818234826803 -0.33010441368656501 0 -0.46147920760846362 -0.30964070732682919 0 -0.43972290206812747 -0.31404433696105499 0 -0.45418191945286968 -0.33408860372456151 0 -0.45418191945286968 -0.33408860372456151 0 -0.47093334472894388 -0.32006824344776419 0 -0.47788760339696412 -0.33271114023174297 0 -0.46147920760846362 -0.30964070732682919 0 -0.45418191945286968 -0.33408860372456151 0 -0.47093334472894388 -0.32006824344776419 0 -0.48159055501162068 -0.30841935451590302 0 -0.47093334472894388 -0.32006824344776419 0 -0.47788760339696412 -0.33271114023174297 0 -0.48159055501162068 -0.30841935451590302 0 -0.47788760339696412 -0.33271114023174297 0 -0.48159055501162068 -0.30841935451590302 0 -0.46147920760846362 -0.30964070732682919 0 -0.47093334472894388 -0.32006824344776419 0 -0.48159055501162068 -0.30841935451590302 0 -0.5 -0.31821772290544809 0 -0.47788760339696412 -0.33271114023174297 0 -0.5 -0.31821772290544809 0 -0.47788760339696412 -0.33271114023174297 0 -0.5 -0.34776552596330002 0 -0.45418191945286968 -0.33408860372456151 0 -0.47788760339696412 -0.33271114023174297 0 -0.47418465178230762 -0.35700292594758298 0 -0.47788760339696412 -0.33271114023174297 0 -0.47418465178230762 -0.35700292594758298 0 -0.47788760339696412 -0.33271114023174297 0 -0.47418465178230762 -0.35700292594758298 0 -0.5 -0.34776552596330002 0 -0.5 -0.377313329021152 0 -0.47418465178230762 -0.35700292594758298 0 -0.5 -0.34776552596330002 0 -0.47048170016765112 -0.38129471166342299 0 -0.47418465178230762 -0.35700292594758298 0 -0.5 -0.377313329021152 0 -0.47048170016765112 -0.38129471166342299 0 -0.47418465178230762 -0.35700292594758298 0 -0.47048170016765112 -0.38129471166342299 0 -0.44808162225674392 -0.37692182579735289 0 -0.45516677492798019 -0.36238975740582102 0 -0.47048170016765112 -0.38129471166342299 0 -0.47418465178230762 -0.35700292594758298 0 -0.45516677492798019 -0.36238975740582102 0 -0.45418191945286968 -0.33408860372456151 0 -0.47418465178230762 -0.35700292594758298 0 -0.45516677492798019 -0.36238975740582102 0 -0.45516677492798019 -0.36238975740582102 0 -0.43543039476948919 -0.36685570225466702 0 -0.42985073729317308 -0.34740482084532182 0 -0.45516677492798019 -0.36238975740582102 0 -0.42985073729317308 -0.34740482084532182 0 -0.45418191945286968 -0.33408860372456151 0 -0.45516677492798019 -0.36238975740582102 0 -0.42985073729317308 -0.34740482084532182 0 -0.44808162225674392 -0.37692182579735289 0 -0.45516677492798019 -0.36238975740582102 0 -0.43543039476948919 -0.36685570225466702 0 -0.43543039476948919 -0.36685570225466702 0 -0.42985073729317308 -0.34740482084532182 0 -0.41634473552900092 -0.37082329016511723 0 -0.43026145018299999 -0.38326351845830642 0 -0.43543039476948919 -0.36685570225466702 0 -0.41634473552900092 -0.37082329016511723 0 -0.42985073729317308 -0.34740482084532182 0 -0.40396953454954398 -0.35361611148851008 0 -0.40453469965836619 -0.33241988428482261 0 -0.42985073729317308 -0.34740482084532182 0 -0.41634473552900092 -0.37082329016511723 0 -0.40396953454954398 -0.35361611148851008 0 -0.39304672010686581 -0.37475311150844498 0 -0.38678236955283363 -0.3546674392385083 0 -0.40396953454954398 -0.35361611148851008 0 -0.41634473552900092 -0.37082329016511723 0 -0.39304672010686581 -0.37475311150844498 0 -0.40396953454954398 -0.35361611148851008 0 -0.39304672010686581 -0.37475311150844498 0 -0.38678236955283363 -0.3546674392385083 0 -0.36895057713182872 -0.36137438315582421 0 -0.39304672010686581 -0.37475311150844498 0 -0.38678236955283363 -0.3546674392385083 0 -0.39304672010686581 -0.37475311150844498 0 -0.36895057713182872 -0.36137438315582421 0 -0.37121257174217581 -0.38460265902015978 0 -0.38678236955283363 -0.3546674392385083 0 -0.3805180189988015 -0.33458176696857173 0 -0.38678236955283363 -0.3546674392385083 0 -0.36955918105770619 -0.3442268408339102 0 -0.36895057713182872 -0.36137438315582421 0 -0.38678236955283363 -0.3546674392385083 0 -0.3805180189988015 -0.33458176696857173 0 -0.36955918105770619 -0.3442268408339102 0 -0.38678236955283363 -0.3546674392385083 0 -0.40396953454954398 -0.35361611148851008 0 -0.39325794515702472 -0.34162812288884598 0 -0.40396953454954398 -0.35361611148851008 0 -0.40453469965836619 -0.33241988428482261 0 -0.39325794515702472 -0.34162812288884598 0 -0.40453469965836619 -0.33241988428482261 0 -0.39209358962776292 -0.32869312177584198 0 -0.39325794515702472 -0.34162812288884598 0 -0.38678236955283363 -0.3546674392385083 0 -0.39325794515702472 -0.34162812288884598 0 -0.3805180189988015 -0.33458176696857173 0 -0.39209358962776292 -0.32869312177584198 0 -0.39325794515702472 -0.34162812288884598 0 -0.3805180189988015 -0.33458176696857173 0 -0.3805180189988015 -0.33458176696857173 0 -0.37425366844476837 -0.31449609469863532 0 -0.3805180189988015 -0.33458176696857173 0 -0.37186361675358581 -0.32300302659276309 0 -0.37425366844476837 -0.31449609469863532 0 -0.3805180189988015 -0.33458176696857173 0 -0.38042312134317502 -0.3201556296673696 0 -0.37425366844476837 -0.31449609469863532 0 -0.37921866202355869 -0.31743494772432368 0 -0.38042312134317502 -0.3201556296673696 0 -0.37921866202355869 -0.31743494772432368 0 -0.37425366844476837 -0.31449609469863532 0 -0.37921866202355869 -0.31743494772432368 0 -0.38042312134317502 -0.3201556296673696 0 -0.37425366844476837 -0.31449609469863532 0 -0.39209358962776292 -0.32869312177584198 0 -0.37921866202355869 -0.31743494772432368 0 -0.38042312134317502 -0.3201556296673696 0 -0.39209358962776292 -0.32869312177584198 0 -0.3805180189988015 -0.33458176696857173 0 -0.38042312134317502 -0.3201556296673696 0 -0.40453469965836619 -0.33241988428482261 0 -0.39209358962776292 -0.32869312177584198 0 -0.37921866202355869 -0.31743494772432368 0 -0.40453469965836619 -0.33241988428482261 0 -0.37921866202355869 -0.31743494772432368 0 -0.40453469965836619 -0.33241988428482261 0 -0.39570323381900618 -0.31335793664190892 0 -0.40592776081445231 -0.32269750435881162 0 -0.40453469965836619 -0.33241988428482261 0 -0.37921866202355869 -0.31743494772432368 0 -0.39570323381900618 -0.31335793664190892 0 -0.39570323381900618 -0.31335793664190892 0 -0.40592776081445231 -0.32269750435881162 0 -0.40472424015597119 -0.30492911817165541 0 -0.40592776081445231 -0.32269750435881162 0 -0.42299818234826803 -0.33010441368656501 0 -0.42009796863919469 -0.29923178440619269 0 -0.42985073729317308 -0.34740482084532182 0 -0.40453469965836619 -0.33241988428482261 0 -0.42299818234826803 -0.33010441368656501 0 -0.42985073729317308 -0.34740482084532182 0 -0.40453469965836619 -0.33241988428482261 0 -0.40453469965836619 -0.33241988428482261 0 -0.40592776081445231 -0.32269750435881162 0 -0.42299818234826803 -0.33010441368656501 0 -0.45418191945286968 -0.33408860372456151 0 -0.42985073729317308 -0.34740482084532182 0 -0.42299818234826803 -0.33010441368656501 0 -0.43972290206812747 -0.31404433696105499 0 -0.42299818234826803 -0.33010441368656501 0 -0.42009796863919469 -0.29923178440619269 0 -0.44787369203620059 -0.29270338589020162 0 -0.43972290206812747 -0.31404433696105499 0 -0.42009796863919469 -0.29923178440619269 0 -0.44787369203620059 -0.29270338589020162 0 -0.42009796863919469 -0.29923178440619269 0 -0.43426817646393762 -0.2757660644535741 0 -0.42009796863919469 -0.29923178440619269 0 -0.41237947063372088 -0.27862490741284379 0 -0.43426817646393762 -0.2757660644535741 0 -0.42009796863919469 -0.29923178440619269 0 -0.43426817646393762 -0.2757660644535741 0 -0.42009796863919469 -0.29923178440619269 0 -0.40595517511564699 -0.29262078054082857 0 -0.41237947063372088 -0.27862490741284379 0 -0.42009796863919469 -0.29923178440619269 0 -0.40472424015597119 -0.30492911817165541 0 -0.40595517511564699 -0.29262078054082857 0 -0.40592776081445231 -0.32269750435881162 0 -0.42009796863919469 -0.29923178440619269 0 -0.40472424015597119 -0.30492911817165541 0 -0.40592776081445231 -0.32269750435881162 0 -0.42009796863919469 -0.29923178440619269 0 -0.40472424015597119 -0.30492911817165541 0 -0.39458134842478798 -0.29782561801467072 0 -0.40595517511564699 -0.29262078054082857 0 -0.39570323381900618 -0.31335793664190892 0 -0.39458134842478798 -0.29782561801467072 0 -0.38586953461271678 -0.30340289788163832 0 -0.39570323381900618 -0.31335793664190892 0 -0.40472424015597119 -0.30492911817165541 0 -0.39458134842478798 -0.29782561801467072 0 -0.37921866202355869 -0.31743494772432368 0 -0.39570323381900618 -0.31335793664190892 0 -0.38586953461271678 -0.30340289788163832 0 -0.37921866202355869 -0.31743494772432368 0 -0.38586953461271678 -0.30340289788163832 0 -0.37853455158755228 -0.2988953810748684 0 -0.37921866202355869 -0.31743494772432368 0 -0.37853455158755228 -0.2988953810748684 0 -0.36920518518592149 -0.29481609694576028 0 -0.39458134842478798 -0.29782561801467072 0 -0.38586953461271678 -0.30340289788163832 0 -0.38428053169028209 -0.2914419377424925 0 -0.38586953461271678 -0.30340289788163832 0 -0.37853455158755228 -0.2988953810748684 0 -0.38428053169028209 -0.2914419377424925 0 -0.38428053169028209 -0.2914419377424925 0 -0.38006784644117542 -0.27801537009126498 0 -0.37425596465064309 -0.28707320640431661 0 -0.37853455158755228 -0.2988953810748684 0 -0.38428053169028209 -0.2914419377424925 0 -0.37425596465064309 -0.28707320640431661 0 -0.38428053169028209 -0.2914419377424925 0 -0.39528141979102438 -0.28466854090705163 0 -0.38006784644117542 -0.27801537009126498 0 -0.39528141979102438 -0.28466854090705163 0 -0.40595517511564699 -0.29262078054082857 0 -0.41237947063372088 -0.27862490741284379 0 -0.39458134842478798 -0.29782561801467072 0 -0.38428053169028209 -0.2914419377424925 0 -0.39528141979102438 -0.28466854090705163 0 -0.39458134842478798 -0.29782561801467072 0 -0.39528141979102438 -0.28466854090705163 0 -0.40595517511564699 -0.29262078054082857 0 -0.39306843247376549 -0.27057066474434449 0 -0.40500544837150798 -0.26083237581601892 0 -0.41237947063372088 -0.27862490741284379 0 -0.39528141979102438 -0.28466854090705163 0 -0.39306843247376549 -0.27057066474434449 0 -0.41237947063372088 -0.27862490741284379 0 -0.39528141979102438 -0.28466854090705163 0 -0.39306843247376549 -0.27057066474434449 0 -0.38006784644117542 -0.27801537009126498 0 -0.39306843247376549 -0.27057066474434449 0 -0.38006784644117542 -0.27801537009126498 0 -0.37740410478643921 -0.26299349797254662 0 -0.37740410478643921 -0.26299349797254662 0 -0.39186305465216531 -0.25425052695649591 0 -0.37582382025708527 -0.246023115539172 0 -0.39306843247376549 -0.27057066474434449 0 -0.37740410478643921 -0.26299349797254662 0 -0.39186305465216531 -0.25425052695649591 0 -0.39306843247376549 -0.27057066474434449 0 -0.40500544837150798 -0.26083237581601892 0 -0.39186305465216531 -0.25425052695649591 0 -0.40500544837150798 -0.26083237581601892 0 -0.39186305465216531 -0.25425052695649591 0 -0.40705479724394628 -0.24188849849308219 0 -0.420661486853942 -0.25882728147332812 0 -0.40705479724394628 -0.24188849849308219 0 -0.40500544837150798 -0.26083237581601892 0 -0.420661486853942 -0.25882728147332812 0 -0.40705479724394628 -0.24188849849308219 0 -0.40500544837150798 -0.26083237581601892 0 -0.420661486853942 -0.25882728147332812 0 -0.41237947063372088 -0.27862490741284379 0 -0.420661486853942 -0.25882728147332812 0 -0.43426817646393762 -0.2757660644535741 0 -0.420661486853942 -0.25882728147332812 0 -0.41237947063372088 -0.27862490741284379 0 -0.43426817646393762 -0.2757660644535741 0 -0.420661486853942 -0.25882728147332812 0 -0.43426817646393762 -0.2757660644535741 0 -0.43387501832978109 -0.26196842385737701 0 -0.43978426832496842 -0.25595267217095202 0 -0.43387501832978109 -0.26196842385737701 0 -0.42996602305475529 -0.25522131411260801 0 -0.43978426832496842 -0.25595267217095202 0 -0.42996602305475529 -0.25522131411260801 0 -0.42707331057603581 -0.24532875095080739 0 -0.420661486853942 -0.25882728147332812 0 -0.42996602305475529 -0.25522131411260801 0 -0.42707331057603581 -0.24532875095080739 0 -0.420661486853942 -0.25882728147332812 0 -0.43387501832978109 -0.26196842385737701 0 -0.42996602305475529 -0.25522131411260801 0 -0.32438864613447121 -0.25933717352790842 0 -0.33368442547674693 -0.24785125579902459 0 -0.31927486322503718 -0.24452010099714019 0 -0.32438864613447121 -0.25933717352790842 0 -0.31594769265599698 -0.25376434042267809 0 -0.31927486322503718 -0.24452010099714019 0 -0.32438864613447121 -0.25933717352790842 0 -0.31305156941253082 -0.26107875653336537 0 -0.31937965865869788 -0.26787122749346393 0 -0.32438864613447121 -0.25933717352790842 0 -0.31594769265599698 -0.25376434042267809 0 -0.31305156941253082 -0.26107875653336537 0 -0.31937965865869788 -0.26787122749346393 0 -0.32794471080023119 -0.27492771754297562 0 -0.31164362251163419 -0.27458401323054837 0 -0.32794471080023119 -0.27492771754297562 0 -0.32310293493033282 -0.29007313177926441 0 -0.31164362251163419 -0.27458401323054837 0 -0.31305156941253082 -0.26107875653336537 0 -0.31937965865869788 -0.26787122749346393 0 -0.31164362251163419 -0.27458401323054837 0 -0.32438864613447121 -0.25933717352790842 0 -0.31937965865869788 -0.26787122749346393 0 -0.32794471080023119 -0.27492771754297562 0 -0.32438864613447121 -0.25933717352790842 0 -0.32794471080023119 -0.27492771754297562 0 -0.3414661993928032 -0.26511780554518471 0 -0.32794471080023119 -0.27492771754297562 0 -0.3414661993928032 -0.26511780554518471 0 -0.34440846089439547 -0.28287895850317968 0 -0.32438864613447121 -0.25933717352790842 0 -0.3414661993928032 -0.26511780554518471 0 -0.33368442547674693 -0.24785125579902459 0 -0.3414661993928032 -0.26511780554518471 0 -0.34917823151064831 -0.24957839538863319 0 -0.33368442547674693 -0.24785125579902459 0 -0.3591917083482849 -0.27219724616719682 0 -0.34917823151064831 -0.24957839538863319 0 -0.36338572988622991 -0.25681459894990649 0 -0.3591917083482849 -0.27219724616719682 0 -0.34917823151064831 -0.24957839538863319 0 -0.3414661993928032 -0.26511780554518471 0 -0.3591917083482849 -0.27219724616719682 0 -0.34917823151064831 -0.24957839538863319 0 -0.37740410478643921 -0.26299349797254662 0 -0.36338572988622991 -0.25681459894990649 0 -0.37582382025708527 -0.246023115539172 0 -0.37740410478643921 -0.26299349797254662 0 -0.36338572988622991 -0.25681459894990649 0 -0.3591917083482849 -0.27219724616719682 0 -0.38006784644117542 -0.27801537009126498 0 -0.3591917083482849 -0.27219724616719682 0 -0.37425596465064309 -0.28707320640431661 0 -0.38006784644117542 -0.27801537009126498 0 -0.37740410478643921 -0.26299349797254662 0 -0.3591917083482849 -0.27219724616719682 0 -0.3414661993928032 -0.26511780554518471 0 -0.3591917083482849 -0.27219724616719682 0 -0.34440846089439547 -0.28287895850317968 0 -0.3591917083482849 -0.27219724616719682 0 -0.34440846089439547 -0.28287895850317968 0 -0.35931343731742282 -0.28566928934174513 0 -0.35931343731742282 -0.28566928934174513 0 -0.3615758831202498 -0.29450514233450542 0 -0.3548673048902718 -0.2970699430880423 0 -0.34440846089439547 -0.28287895850317968 0 -0.35931343731742282 -0.28566928934174513 0 -0.3548673048902718 -0.2970699430880423 0 -0.3591917083482849 -0.27219724616719682 0 -0.36920518518592149 -0.29481609694576028 0 -0.3591917083482849 -0.27219724616719682 0 -0.36920518518592149 -0.29481609694576028 0 -0.37425596465064309 -0.28707320640431661 0 -0.3591917083482849 -0.27219724616719682 0 -0.35931343731742282 -0.28566928934174513 0 -0.36920518518592149 -0.29481609694576028 0 -0.35931343731742282 -0.28566928934174513 0 -0.3615758831202498 -0.29450514233450542 0 -0.36920518518592149 -0.29481609694576028 0 -0.3615758831202498 -0.29450514233450542 0 -0.36920518518592149 -0.29481609694576028 0 -0.36291760508738319 -0.3004652399624741 0 -0.37853455158755228 -0.2988953810748684 0 -0.36920518518592149 -0.29481609694576028 0 -0.37425596465064309 -0.28707320640431661 0 -0.37921866202355869 -0.31743494772432368 0 -0.36920518518592149 -0.29481609694576028 0 -0.37016236830383042 -0.30137797286301199 0 -0.37921866202355869 -0.31743494772432368 0 -0.37016236830383042 -0.30137797286301199 0 -0.37425366844476837 -0.31449609469863532 0 -0.37921866202355869 -0.31743494772432368 0 -0.36920518518592149 -0.29481609694576028 0 -0.36501980475802243 -0.30903043441047379 0 -0.37425366844476837 -0.31449609469863532 0 -0.37016236830383042 -0.30137797286301199 0 -0.37425366844476837 -0.31449609469863532 0 -0.37016236830383042 -0.30137797286301199 0 -0.36501980475802243 -0.30903043441047379 0 -0.37425366844476837 -0.31449609469863532 0 -0.36920518518592149 -0.29481609694576028 0 -0.37016236830383042 -0.30137797286301199 0 -0.36291760508738319 -0.3004652399624741 0 -0.37016236830383042 -0.30137797286301199 0 -0.36291760508738319 -0.3004652399624741 0 -0.36501980475802243 -0.30903043441047379 0 -0.3615758831202498 -0.29450514233450542 0 -0.36291760508738319 -0.3004652399624741 0 -0.3548673048902718 -0.2970699430880423 0 -0.36291760508738319 -0.3004652399624741 0 -0.36501980475802243 -0.30903043441047379 0 -0.35767172217189902 -0.30804212803452918 0 -0.36501980475802243 -0.30903043441047379 0 -0.35767172217189902 -0.30804212803452918 0 -0.36102752117867798 -0.31421766568033438 0 -0.35767172217189902 -0.30804212803452918 0 -0.3548673048902718 -0.2970699430880423 0 -0.34684046456643219 -0.31174240759667821 0 -0.34440846089439547 -0.28287895850317968 0 -0.3548673048902718 -0.2970699430880423 0 -0.34684046456643219 -0.31174240759667821 0 -0.35767172217189902 -0.30804212803452918 0 -0.34684046456643219 -0.31174240759667821 0 -0.35567292848205112 -0.31587360613775389 0 -0.34440846089439547 -0.28287895850317968 0 -0.34684046456643219 -0.31174240759667821 0 -0.36291760508738319 -0.3004652399624741 0 -0.35767172217189902 -0.30804212803452918 0 -0.3548673048902718 -0.2970699430880423 0 -0.34684046456643219 -0.31174240759667821 0 -0.33493591154826857 -0.31217552393010473 0 -0.33310708373359399 -0.30040431493761649 0 -0.34440846089439547 -0.28287895850317968 0 -0.34684046456643219 -0.31174240759667821 0 -0.33310708373359399 -0.30040431493761649 0 -0.33493591154826857 -0.31217552393010473 0 -0.33310708373359399 -0.30040431493761649 0 -0.31851294718041051 -0.30488473567073249 0 -0.32794471080023119 -0.27492771754297562 0 -0.34440846089439547 -0.28287895850317968 0 -0.33214079758963833 -0.28707103069075901 0 -0.34440846089439547 -0.28287895850317968 0 -0.33310708373359399 -0.30040431493761649 0 -0.33214079758963833 -0.28707103069075901 0 -0.33310708373359399 -0.30040431493761649 0 -0.33214079758963833 -0.28707103069075901 0 -0.32310293493033282 -0.29007313177926441 0 -0.33310708373359399 -0.30040431493761649 0 -0.31224471992999159 -0.28680577537315011 0 -0.33310708373359399 -0.30040431493761649 0 -0.32310293493033282 -0.29007313177926441 0 -0.31224471992999159 -0.28680577537315011 0 -0.32794471080023119 -0.27492771754297562 0 -0.33214079758963833 -0.28707103069075901 0 -0.32310293493033282 -0.29007313177926441 0 -0.32310293493033282 -0.29007313177926441 0 -0.31224471992999159 -0.28680577537315011 0 -0.31164362251163419 -0.27458401323054837 0 -0.32310293493033282 -0.29007313177926441 0 -0.31164362251163419 -0.27458401323054837 0 -0.33310708373359399 -0.30040431493761649 0 -0.31851294718041051 -0.30488473567073249 0 -0.31224471992999159 -0.28680577537315011 0 -0.32669486992668179 -0.32077733800109148 0 -0.30897235038299048 -0.33116051973598087 0 -0.30553880375356629 -0.31573383989816922 0 -0.32669486992668179 -0.32077733800109148 0 -0.30553880375356629 -0.31573383989816922 0 -0.33493591154826857 -0.31217552393010473 0 -0.31851294718041051 -0.30488473567073249 0 -0.32669486992668179 -0.32077733800109148 0 -0.31851294718041051 -0.30488473567073249 0 -0.32669486992668179 -0.32077733800109148 0 -0.30553880375356629 -0.31573383989816922 0 -0.32669486992668179 -0.32077733800109148 0 -0.32466896406783291 -0.33404407862442559 0 -0.30897235038299048 -0.33116051973598087 0 -0.31690568287675702 -0.34041947479709889 0 -0.32466896406783291 -0.33404407862442559 0 -0.30897235038299048 -0.33116051973598087 0 -0.31690568287675702 -0.34041947479709889 0 -0.32766118629826679 -0.33907698792869861 0 -0.32466896406783291 -0.33404407862442559 0 -0.31690568287675702 -0.34041947479709889 0 -0.32766118629826679 -0.33907698792869861 0 -0.32571390489420571 -0.34742386935466929 0 -0.32766118629826679 -0.33907698792869861 0 -0.32466896406783291 -0.33404407862442559 0 -0.33386890728616853 -0.33166887323221578 0 -0.32669486992668179 -0.32077733800109148 0 -0.32466896406783291 -0.33404407862442559 0 -0.33386890728616853 -0.33166887323221578 0 -0.32766118629826679 -0.33907698792869861 0 -0.33482018057890961 -0.33908227502133559 0 -0.32571390489420571 -0.34742386935466929 0 -0.33482018057890961 -0.33908227502133559 0 -0.33979536867864918 -0.34199013916993037 0 -0.32571390489420571 -0.34742386935466929 0 -0.32766118629826679 -0.33907698792869861 0 -0.33386890728616853 -0.33166887323221578 0 -0.33482018057890961 -0.33908227502133559 0 -0.33979536867864918 -0.34199013916993037 0 -0.34206491982001902 -0.33525703898560028 0 -0.34927246823846908 -0.34060585669017662 0 -0.33482018057890961 -0.33908227502133559 0 -0.33979536867864918 -0.34199013916993037 0 -0.34206491982001902 -0.33525703898560028 0 -0.33386890728616853 -0.33166887323221578 0 -0.34206491982001902 -0.33525703898560028 0 -0.34802545901457432 -0.32580613098792688 0 -0.33386890728616853 -0.33166887323221578 0 -0.33482018057890961 -0.33908227502133559 0 -0.34206491982001902 -0.33525703898560028 0 -0.32669486992668179 -0.32077733800109148 0 -0.34802545901457432 -0.32580613098792688 0 -0.32669486992668179 -0.32077733800109148 0 -0.33386890728616853 -0.33166887323221578 0 -0.34802545901457432 -0.32580613098792688 0 -0.33493591154826857 -0.31217552393010473 0 -0.32669486992668179 -0.32077733800109148 0 -0.34802545901457432 -0.32580613098792688 0 -0.34684046456643219 -0.31174240759667821 0 -0.33493591154826857 -0.31217552393010473 0 -0.34802545901457432 -0.32580613098792688 0 -0.34684046456643219 -0.31174240759667821 0 -0.34802545901457432 -0.32580613098792688 0 -0.34684046456643219 -0.31174240759667821 0 -0.34802545901457432 -0.32580613098792688 0 -0.35487175791761078 -0.32425660775548393 0 -0.35487175791761078 -0.32425660775548393 0 -0.36090906592089339 -0.32047710756848868 0 -0.36082373171806692 -0.32665224072081012 0 -0.35487175791761078 -0.32425660775548393 0 -0.36082373171806692 -0.32665224072081012 0 -0.35606581187324221 -0.33202738471594129 0 -0.34684046456643219 -0.31174240759667821 0 -0.35487175791761078 -0.32425660775548393 0 -0.35567292848205112 -0.31587360613775389 0 -0.35487175791761078 -0.32425660775548393 0 -0.35567292848205112 -0.31587360613775389 0 -0.36090906592089339 -0.32047710756848868 0 -0.35767172217189902 -0.30804212803452918 0 -0.35567292848205112 -0.31587360613775389 0 -0.36102752117867798 -0.31421766568033438 0 -0.35567292848205112 -0.31587360613775389 0 -0.36102752117867798 -0.31421766568033438 0 -0.36090906592089339 -0.32047710756848868 0 -0.36501980475802243 -0.30903043441047379 0 -0.36102752117867798 -0.31421766568033438 0 -0.3664768308978244 -0.31731180076395271 0 -0.36102752117867798 -0.31421766568033438 0 -0.3664768308978244 -0.31731180076395271 0 -0.36090906592089339 -0.32047710756848868 0 -0.36090906592089339 -0.32047710756848868 0 -0.36082373171806692 -0.32665224072081012 0 -0.36658162533112981 -0.32455072435259741 0 -0.3664768308978244 -0.31731180076395271 0 -0.36090906592089339 -0.32047710756848868 0 -0.36658162533112981 -0.32455072435259741 0 -0.3664768308978244 -0.31731180076395271 0 -0.36658162533112981 -0.32455072435259741 0 -0.37186361675358581 -0.32300302659276309 0 -0.36658162533112981 -0.32455072435259741 0 -0.37186361675358581 -0.32300302659276309 0 -0.3712204895581776 -0.32829668925499589 0 -0.3664768308978244 -0.31731180076395271 0 -0.37186361675358581 -0.32300302659276309 0 -0.37425366844476837 -0.31449609469863532 0 -0.36501980475802243 -0.30903043441047379 0 -0.3664768308978244 -0.31731180076395271 0 -0.37425366844476837 -0.31449609469863532 0 -0.3805180189988015 -0.33458176696857173 0 -0.36578497188057968 -0.33316221064352031 0 -0.36955918105770619 -0.3442268408339102 0 -0.3805180189988015 -0.33458176696857173 0 -0.3712204895581776 -0.32829668925499589 0 -0.36578497188057968 -0.33316221064352031 0 -0.3805180189988015 -0.33458176696857173 0 -0.37186361675358581 -0.32300302659276309 0 -0.3712204895581776 -0.32829668925499589 0 -0.36658162533112981 -0.32455072435259741 0 -0.3712204895581776 -0.32829668925499589 0 -0.36578497188057968 -0.33316221064352031 0 -0.36082373171806692 -0.32665224072081012 0 -0.36578497188057968 -0.33316221064352031 0 -0.35929528961882212 -0.33659483369729493 0 -0.36082373171806692 -0.32665224072081012 0 -0.36658162533112981 -0.32455072435259741 0 -0.36578497188057968 -0.33316221064352031 0 -0.36578497188057968 -0.33316221064352031 0 -0.35929528961882212 -0.33659483369729493 0 -0.36955918105770619 -0.3442268408339102 0 -0.35929528961882212 -0.33659483369729493 0 -0.35606581187324221 -0.33202738471594129 0 -0.34927246823846908 -0.34060585669017662 0 -0.35929528961882212 -0.33659483369729493 0 -0.34927246823846908 -0.34060585669017662 0 -0.35975639759146638 -0.35045424403217618 0 -0.34802545901457432 -0.32580613098792688 0 -0.35487175791761078 -0.32425660775548393 0 -0.34927246823846908 -0.34060585669017662 0 -0.35487175791761078 -0.32425660775548393 0 -0.35606581187324221 -0.33202738471594129 0 -0.34927246823846908 -0.34060585669017662 0 -0.36082373171806692 -0.32665224072081012 0 -0.35929528961882212 -0.33659483369729493 0 -0.35606581187324221 -0.33202738471594129 0 -0.34802545901457432 -0.32580613098792688 0 -0.34927246823846908 -0.34060585669017662 0 -0.34206491982001902 -0.33525703898560028 0 -0.34802545901457432 -0.32580613098792688 0 -0.34927246823846908 -0.34060585669017662 0 -0.33979536867864918 -0.34199013916993037 0 -0.34927246823846908 -0.34060585669017662 0 -0.34710536986164281 -0.34758165579787009 0 -0.34927246823846908 -0.34060585669017662 0 -0.35170447191050602 -0.36946930578367509 0 -0.34927246823846908 -0.34060585669017662 0 -0.34710536986164281 -0.34758165579787009 0 -0.35170447191050602 -0.36946930578367509 0 -0.34927246823846908 -0.34060585669017662 0 -0.35975639759146638 -0.35045424403217618 0 -0.35170447191050602 -0.36946930578367509 0 -0.35929528961882212 -0.33659483369729493 0 -0.35975639759146638 -0.35045424403217618 0 -0.36955918105770619 -0.3442268408339102 0 -0.35975639759146638 -0.35045424403217618 0 -0.36955918105770619 -0.3442268408339102 0 -0.36895057713182872 -0.36137438315582421 0 -0.35975639759146638 -0.35045424403217618 0 -0.36895057713182872 -0.36137438315582421 0 -0.35170447191050602 -0.36946930578367509 0 -0.36895057713182872 -0.36137438315582421 0 -0.35170447191050602 -0.36946930578367509 0 -0.37121257174217581 -0.38460265902015978 0 -0.34710536986164281 -0.34758165579787009 0 -0.35170447191050602 -0.36946930578367509 0 -0.33839464566177829 -0.36319284962808851 0 -0.32828419651358193 -0.36370913570116742 0 -0.33839464566177829 -0.36319284962808851 0 -0.33468256793477691 -0.37993867994153241 0 -0.35170447191050602 -0.36946930578367509 0 -0.33839464566177829 -0.36319284962808851 0 -0.33468256793477691 -0.37993867994153241 0 -0.32828419651358193 -0.36370913570116742 0 -0.33839464566177829 -0.36319284962808851 0 -0.33225673815553719 -0.35468559542367828 0 -0.34710536986164281 -0.34758165579787009 0 -0.32571390489420571 -0.34742386935466929 0 -0.33979536867864918 -0.34199013916993037 0 -0.34710536986164281 -0.34758165579787009 0 -0.32571390489420571 -0.34742386935466929 0 -0.34710536986164281 -0.34758165579787009 0 -0.33225673815553719 -0.35468559542367828 0 -0.32571390489420571 -0.34742386935466929 0 -0.34710536986164281 -0.34758165579787009 0 -0.33839464566177829 -0.36319284962808851 0 -0.33225673815553719 -0.35468559542367828 0 -0.32571390489420571 -0.34742386935466929 0 -0.30432243992676872 -0.34726608291146849 0 -0.32571390489420571 -0.34742386935466929 0 -0.32245933395017973 -0.35152424837016749 0 -0.30432243992676872 -0.34726608291146849 0 -0.31690568287675702 -0.34041947479709889 0 -0.32571390489420571 -0.34742386935466929 0 -0.30432243992676872 -0.34726608291146849 0 -0.32245933395017973 -0.35152424837016749 0 -0.30432243992676872 -0.34726608291146849 0 -0.31141707899331911 -0.35875942499126512 0 -0.32828419651358193 -0.36370913570116742 0 -0.33225673815553719 -0.35468559542367828 0 -0.32245933395017973 -0.35152424837016749 0 -0.33225673815553719 -0.35468559542367828 0 -0.32571390489420571 -0.34742386935466929 0 -0.32245933395017973 -0.35152424837016749 0 -0.32828419651358193 -0.36370913570116742 0 -0.32245933395017973 -0.35152424837016749 0 -0.31950288496992463 -0.36923728185911098 0 -0.32828419651358193 -0.36370913570116742 0 -0.31950288496992463 -0.36923728185911098 0 -0.33468256793477691 -0.37993867994153241 0 -0.32245933395017973 -0.35152424837016749 0 -0.31950288496992463 -0.36923728185911098 0 -0.32245933395017973 -0.35152424837016749 0 -0.31950288496992463 -0.36923728185911098 0 -0.31141707899331911 -0.35875942499126512 0 -0.31950288496992463 -0.36923728185911098 0 -0.29973870547450249 -0.3670293059081598 0 -0.31654643598967069 -0.38695031534805469 0 -0.31950288496992463 -0.36923728185911098 0 -0.29973870547450249 -0.3670293059081598 0 -0.31141707899331911 -0.35875942499126512 0 -0.29973870547450249 -0.3670293059081598 0 -0.30432243992676872 -0.34726608291146849 0 -0.31141707899331911 -0.35875942499126512 0 -0.29973870547450249 -0.3670293059081598 0 -0.28293097495933178 -0.34710829646826702 0 -0.29973870547450249 -0.3670293059081598 0 -0.28293097495933178 -0.34710829646826702 0 -0.28437724806866832 -0.36194082386397258 0 -0.30432243992676872 -0.34726608291146849 0 -0.28293097495933178 -0.34710829646826702 0 -0.29973870547450249 -0.3670293059081598 0 -0.30432243992676872 -0.34726608291146849 0 -0.28293097495933178 -0.34710829646826702 0 -0.28293097495933178 -0.34710829646826702 0 -0.28437724806866832 -0.36194082386397258 0 -0.27758938369523278 -0.34706889614257169 0 -0.29973870547450249 -0.3670293059081598 0 -0.28437724806866832 -0.36194082386397258 0 -0.28696793062362141 -0.37687916830780172 0 -0.28437724806866832 -0.36194082386397258 0 -0.27292197199808038 -0.37206298491741918 0 -0.28696793062362141 -0.37687916830780172 0 -0.28437724806866832 -0.36194082386397258 0 -0.27292197199808038 -0.37206298491741918 0 -0.27758938369523278 -0.34706889614257169 0 -0.27292197199808038 -0.37206298491741918 0 -0.27758938369523278 -0.34706889614257169 0 -0.27292197199808038 -0.37206298491741918 0 -0.25635584899492952 -0.36479531241394392 0 -0.25562605699951518 -0.38151667329357147 0 -0.25635584899492952 -0.36479531241394392 0 -0.25562605699951518 -0.38151667329357147 0 -0.23850542149377901 -0.37277319836461681 0 -0.27292197199808038 -0.37206298491741918 0 -0.25635584899492952 -0.36479531241394392 0 -0.26725347085765999 -0.35654043001898839 0 -0.2527798654172162 -0.34575467121188358 0 -0.26053307457693781 -0.35177039744945299 0 -0.24563489547392939 -0.35247447718499841 0 -0.25635584899492952 -0.36479531241394392 0 -0.26053307457693781 -0.35177039744945299 0 -0.24563489547392939 -0.35247447718499841 0 -0.26053307457693781 -0.35177039744945299 0 -0.26886707502312163 -0.34700455917155398 0 -0.26725347085765999 -0.35654043001898839 0 -0.25635584899492952 -0.36479531241394392 0 -0.26053307457693781 -0.35177039744945299 0 -0.26725347085765999 -0.35654043001898839 0 -0.2527798654172162 -0.34575467121188358 0 -0.26053307457693781 -0.35177039744945299 0 -0.26165275908460328 -0.33821114604683128 0 -0.26053307457693781 -0.35177039744945299 0 -0.26886707502312163 -0.34700455917155398 0 -0.26165275908460328 -0.33821114604683128 0 -0.27292197199808038 -0.37206298491741918 0 -0.26725347085765999 -0.35654043001898839 0 -0.27758938369523278 -0.34706889614257169 0 -0.26886707502312163 -0.34700455917155398 0 -0.27758938369523278 -0.34706889614257169 0 -0.27071566949151088 -0.34046620651206178 0 -0.26886707502312163 -0.34700455917155398 0 -0.27758938369523278 -0.34706889614257169 0 -0.26886707502312163 -0.34700455917155398 0 -0.26725347085765999 -0.35654043001898839 0 -0.27758938369523278 -0.34706889614257169 0 -0.28293097495933178 -0.34710829646826702 0 -0.27855136653470769 -0.34191745760448838 0 -0.28293097495933178 -0.34710829646826702 0 -0.27758938369523278 -0.34706889614257169 0 -0.27855136653470769 -0.34191745760448838 0 -0.28293097495933178 -0.34710829646826702 0 -0.27758938369523278 -0.34706889614257169 0 -0.27758938369523278 -0.34706889614257169 0 -0.27855136653470769 -0.34191745760448838 0 -0.27758938369523278 -0.34706889614257169 0 -0.27855136653470769 -0.34191745760448838 0 -0.27071566949151088 -0.34046620651206178 0 -0.27855136653470769 -0.34191745760448838 0 -0.28146705205757949 -0.32630389969986778 0 -0.27855136653470769 -0.34191745760448838 0 -0.26691776311989002 -0.32812897359486359 0 -0.28146705205757949 -0.32630389969986778 0 -0.26691776311989002 -0.32812897359486359 0 -0.27071566949151088 -0.34046620651206178 0 -0.26165275908460328 -0.33821114604683128 0 -0.27855136653470769 -0.34191745760448838 0 -0.26691776311989002 -0.32812897359486359 0 -0.27855136653470769 -0.34191745760448838 0 -0.26691776311989002 -0.32812897359486359 0 -0.27071566949151088 -0.34046620651206178 0 -0.26886707502312163 -0.34700455917155398 0 -0.27071566949151088 -0.34046620651206178 0 -0.26165275908460328 -0.33821114604683128 0 -0.26691776311989002 -0.32812897359486359 0 -0.26165275908460328 -0.33821114604683128 0 -0.25862354825437001 -0.32986076705003192 0 -0.26165275908460328 -0.33821114604683128 0 -0.25063194343948531 -0.33006763904785308 0 -0.24712733145617671 -0.33863049128807332 0 -0.26165275908460328 -0.33821114604683128 0 -0.25862354825437001 -0.32986076705003192 0 -0.25063194343948531 -0.33006763904785308 0 -0.2527798654172162 -0.34575467121188358 0 -0.26165275908460328 -0.33821114604683128 0 -0.24712733145617671 -0.33863049128807332 0 -0.25528415970507401 -0.31434048958523719 0 -0.25160910495539901 -0.3181674073992361 0 -0.25495470656815672 -0.32345776102078871 0 -0.25690221598922031 -0.31545436760316881 0 -0.25528415970507401 -0.31434048958523719 0 -0.25525044645500711 -0.31014451684388361 0 -0.25528415970507401 -0.31434048958523719 0 -0.25018784659082388 -0.31305552398611491 0 -0.25160910495539901 -0.3181674073992361 0 -0.25528415970507401 -0.31434048958523719 0 -0.25018784659082388 -0.31305552398611491 0 -0.25525044645500711 -0.31014451684388361 0 -0.25862354825437001 -0.32986076705003192 0 -0.25063194343948531 -0.33006763904785308 0 -0.25495470656815672 -0.32345776102078871 0 -0.25063194343948531 -0.33006763904785308 0 -0.25495470656815672 -0.32345776102078871 0 -0.24645108193138171 -0.32044532164139122 0 -0.25160910495539901 -0.3181674073992361 0 -0.25495470656815672 -0.32345776102078871 0 -0.24645108193138171 -0.32044532164139122 0 -0.26691776311989002 -0.32812897359486359 0 -0.25862354825437001 -0.32986076705003192 0 -0.25495470656815672 -0.32345776102078871 0 -0.26691776311989002 -0.32812897359486359 0 -0.25528415970507401 -0.31434048958523719 0 -0.25495470656815672 -0.32345776102078871 0 -0.26691776311989002 -0.32812897359486359 0 -0.25528415970507401 -0.31434048958523719 0 -0.26691776311989002 -0.32812897359486359 0 -0.25690221598922031 -0.31545436760316881 0 -0.27078339583856209 -0.31729354353578648 0 -0.25690221598922031 -0.31545436760316881 0 -0.27078339583856209 -0.31729354353578648 0 -0.26424721044567018 -0.30589013498578432 0 -0.26691776311989002 -0.32812897359486359 0 -0.25690221598922031 -0.31545436760316881 0 -0.25528415970507401 -0.31434048958523719 0 -0.26691776311989002 -0.32812897359486359 0 -0.27078339583856209 -0.31729354353578648 0 -0.28146705205757949 -0.32630389969986778 0 -0.27078339583856209 -0.31729354353578648 0 -0.28146705205757949 -0.32630389969986778 0 -0.28438273758045091 -0.31069034179524702 0 -0.29397244907265541 -0.32377513474573738 0 -0.28146705205757949 -0.32630389969986778 0 -0.28438273758045091 -0.31069034179524702 0 -0.29397244907265541 -0.32377513474573738 0 -0.30553880375356629 -0.31573383989816922 0 -0.28438273758045091 -0.31069034179524702 0 -0.28146705205757949 -0.32630389969986778 0 -0.28438273758045091 -0.31069034179524702 0 -0.30553880375356629 -0.31573383989816922 0 -0.28438273758045091 -0.31069034179524702 0 -0.27855136653470769 -0.34191745760448838 0 -0.28146705205757949 -0.32630389969986778 0 -0.29070324305667111 -0.3361076891738749 0 -0.30432243992676872 -0.34726608291146849 0 -0.28293097495933178 -0.34710829646826702 0 -0.29070324305667111 -0.3361076891738749 0 -0.29397244907265541 -0.32377513474573738 0 -0.28146705205757949 -0.32630389969986778 0 -0.29070324305667111 -0.3361076891738749 0 -0.28293097495933178 -0.34710829646826702 0 -0.27855136653470769 -0.34191745760448838 0 -0.29070324305667111 -0.3361076891738749 0 -0.30432243992676872 -0.34726608291146849 0 -0.29070324305667111 -0.3361076891738749 0 -0.30897235038299048 -0.33116051973598087 0 -0.29397244907265541 -0.32377513474573738 0 -0.29070324305667111 -0.3361076891738749 0 -0.30897235038299048 -0.33116051973598087 0 -0.31690568287675702 -0.34041947479709889 0 -0.30432243992676872 -0.34726608291146849 0 -0.30897235038299048 -0.33116051973598087 0 -0.29397244907265541 -0.32377513474573738 0 -0.30897235038299048 -0.33116051973598087 0 -0.30553880375356629 -0.31573383989816922 0 -0.31851294718041051 -0.30488473567073249 0 -0.30121170752838311 -0.2995856542569047 0 -0.31224471992999159 -0.28680577537315011 0 -0.30553880375356629 -0.31573383989816922 0 -0.30121170752838311 -0.2995856542569047 0 -0.28438273758045091 -0.31069034179524702 0 -0.31851294718041051 -0.30488473567073249 0 -0.30553880375356629 -0.31573383989816922 0 -0.30121170752838311 -0.2995856542569047 0 -0.31224471992999159 -0.28680577537315011 0 -0.29870848987246151 -0.28745044400216307 0 -0.29138235612638741 -0.273207235808686 0 -0.30121170752838311 -0.2995856542569047 0 -0.31224471992999159 -0.28680577537315011 0 -0.29870848987246151 -0.28745044400216307 0 -0.28788254685341819 -0.29194878880196629 0 -0.27713643449208653 -0.289106522994172 0 -0.29138235612638741 -0.273207235808686 0 -0.30121170752838311 -0.2995856542569047 0 -0.29870848987246151 -0.28745044400216307 0 -0.28788254685341819 -0.29194878880196629 0 -0.28788254685341819 -0.29194878880196629 0 -0.29138235612638741 -0.273207235808686 0 -0.29870848987246151 -0.28745044400216307 0 -0.28788254685341819 -0.29194878880196629 0 -0.29138235612638741 -0.273207235808686 0 -0.28788254685341819 -0.29194878880196629 0 -0.27995998845109238 -0.30016688009176951 0 -0.27713643449208653 -0.289106522994172 0 -0.28788254685341819 -0.29194878880196629 0 -0.28438273758045091 -0.31069034179524702 0 -0.27995998845109238 -0.30016688009176951 0 -0.28788254685341819 -0.29194878880196629 0 -0.28438273758045091 -0.31069034179524702 0 -0.30121170752838311 -0.2995856542569047 0 -0.28788254685341819 -0.29194878880196629 0 -0.28438273758045091 -0.31069034179524702 0 -0.26424721044567018 -0.30589013498578432 0 -0.27713643449208653 -0.289106522994172 0 -0.28438273758045091 -0.31069034179524702 0 -0.26424721044567018 -0.30589013498578432 0 -0.27078339583856209 -0.31729354353578648 0 -0.28438273758045091 -0.31069034179524702 0 -0.26424721044567018 -0.30589013498578432 0 -0.28438273758045091 -0.31069034179524702 0 -0.27995998845109238 -0.30016688009176951 0 -0.26424721044567018 -0.30589013498578432 0 -0.27995998845109238 -0.30016688009176951 0 -0.26424721044567018 -0.30589013498578432 0 -0.27713643449208653 -0.289106522994172 0 -0.26424721044567018 -0.30589013498578432 0 -0.25629685870081231 -0.30399481174304988 0 -0.25525044645500711 -0.31014451684388361 0 -0.26424721044567018 -0.30589013498578432 0 -0.25629685870081231 -0.30399481174304988 0 -0.25690221598922031 -0.31545436760316881 0 -0.26424721044567018 -0.30589013498578432 0 -0.25525044645500711 -0.31014451684388361 0 -0.25690221598922031 -0.31545436760316881 0 -0.26424721044567018 -0.30589013498578432 0 -0.26424721044567018 -0.30589013498578432 0 -0.25629685870081231 -0.30399481174304988 0 -0.2629834147314965 -0.29356899073828341 0 -0.25629685870081231 -0.30399481174304988 0 -0.25202261165186851 -0.29264279131426502 0 -0.24394850283411801 -0.29960231044352581 0 -0.25629685870081231 -0.30399481174304988 0 -0.25525044645500711 -0.31014451684388361 0 -0.24858438729844209 -0.30813177315994572 0 -0.25018784659082388 -0.31305552398611491 0 -0.25525044645500711 -0.31014451684388361 0 -0.24858438729844209 -0.30813177315994572 0 -0.25629685870081231 -0.30399481174304988 0 -0.25202261165186851 -0.29264279131426502 0 -0.2629834147314965 -0.29356899073828341 0 -0.25742061831072638 -0.28203843270396911 0 -0.25202261165186851 -0.29264279131426502 0 -0.2629834147314965 -0.29356899073828341 0 -0.25742061831072638 -0.28203843270396911 0 -0.2629834147314965 -0.29356899073828341 0 -0.27713643449208653 -0.289106522994172 0 -0.25742061831072638 -0.28203843270396911 0 -0.27713643449208653 -0.289106522994172 0 -0.27524676773154277 -0.27431428385186651 0 -0.26424721044567018 -0.30589013498578432 0 -0.2629834147314965 -0.29356899073828341 0 -0.27713643449208653 -0.289106522994172 0 -0.27524676773154277 -0.27431428385186651 0 -0.25796732377402332 -0.26763035487599091 0 -0.27110343040962043 -0.25998899379735718 0 -0.27110343040962043 -0.25998899379735718 0 -0.29138235612638741 -0.273207235808686 0 -0.27524676773154277 -0.27431428385186651 0 -0.27110343040962043 -0.25998899379735718 0 -0.29138235612638741 -0.273207235808686 0 -0.25742061831072638 -0.28203843270396911 0 -0.27524676773154277 -0.27431428385186651 0 -0.25796732377402332 -0.26763035487599091 0 -0.25742061831072638 -0.28203843270396911 0 -0.25796732377402332 -0.26763035487599091 0 -0.2436696497673328 -0.26582093126575779 0 -0.27110343040962043 -0.25998899379735718 0 -0.25218120228073287 -0.24765507659215041 0 -0.27110343040962043 -0.25998899379735718 0 -0.26566085027026393 -0.24523659071420251 0 -0.25218120228073287 -0.24765507659215041 0 -0.25796732377402332 -0.26763035487599091 0 -0.27110343040962043 -0.25998899379735718 0 -0.25218120228073287 -0.24765507659215041 0 -0.25796732377402332 -0.26763035487599091 0 -0.2436696497673328 -0.26582093126575779 0 -0.25218120228073287 -0.24765507659215041 0 -0.27110343040962043 -0.25998899379735718 0 -0.27523815199516338 -0.24593723721268851 0 -0.26566085027026393 -0.24523659071420251 0 -0.27110343040962043 -0.25998899379735718 0 -0.2827280564874855 -0.25085307071156082 0 -0.28670977544150522 -0.2605802480696579 0 -0.27110343040962043 -0.25998899379735718 0 -0.2827280564874855 -0.25085307071156082 0 -0.27523815199516338 -0.24593723721268851 0 -0.29526051877429971 -0.25243959245627218 0 -0.29203644410522939 -0.26970458078900289 0 -0.30018431009293578 -0.25909489468183239 0 -0.27110343040962043 -0.25998899379735718 0 -0.28670977544150522 -0.2605802480696579 0 -0.29138235612638741 -0.273207235808686 0 -0.29526051877429971 -0.25243959245627218 0 -0.28670977544150522 -0.2605802480696579 0 -0.29203644410522939 -0.26970458078900289 0 -0.29526051877429971 -0.25243959245627218 0 -0.29203644410522939 -0.26970458078900289 0 -0.2827280564874855 -0.25085307071156082 0 -0.29526051877429971 -0.25243959245627218 0 -0.28670977544150522 -0.2605802480696579 0 -0.29203644410522939 -0.26970458078900289 0 -0.30018431009293578 -0.25909489468183239 0 -0.27713643449208653 -0.289106522994172 0 -0.27524676773154277 -0.27431428385186651 0 -0.29138235612638741 -0.273207235808686 0 -0.27713643449208653 -0.289106522994172 0 -0.29138235612638741 -0.273207235808686 0 -0.28670977544150522 -0.2605802480696579 0 -0.29138235612638741 -0.273207235808686 0 -0.29203644410522939 -0.26970458078900289 0 -0.29138235612638741 -0.273207235808686 0 -0.29203644410522939 -0.26970458078900289 0 -0.30179557180659428 -0.27172422035808591 0 -0.29138235612638741 -0.273207235808686 0 -0.29203644410522939 -0.26970458078900289 0 -0.31224471992999159 -0.28680577537315011 0 -0.29138235612638741 -0.273207235808686 0 -0.31224471992999159 -0.28680577537315011 0 -0.29138235612638741 -0.273207235808686 0 -0.30179557180659428 -0.27172422035808591 0 -0.29203644410522939 -0.26970458078900289 0 -0.30179557180659428 -0.27172422035808591 0 -0.30018431009293578 -0.25909489468183239 0 -0.30179557180659428 -0.27172422035808591 0 -0.31164362251163419 -0.27458401323054837 0 -0.30018431009293578 -0.25909489468183239 0 -0.31224471992999159 -0.28680577537315011 0 -0.30179557180659428 -0.27172422035808591 0 -0.31164362251163419 -0.27458401323054837 0 -0.31164362251163419 -0.27458401323054837 0 -0.30018431009293578 -0.25909489468183239 0 -0.31305156941253082 -0.26107875653336537 0 -0.31164362251163419 -0.27458401323054837 0 -0.30018431009293578 -0.25909489468183239 0 -0.31305156941253082 -0.26107875653336537 0 -0.307075691851949 -0.25012133063229841 0 -0.30018431009293578 -0.25909489468183239 0 -0.31594769265599698 -0.25376434042267809 0 -0.31305156941253082 -0.26107875653336537 0 -0.307075691851949 -0.25012133063229841 0 -0.29526051877429971 -0.25243959245627218 0 -0.307075691851949 -0.25012133063229841 0 -0.30018431009293578 -0.25909489468183239 0 -0.307075691851949 -0.25012133063229841 0 -0.30018431009293578 -0.25909489468183239 0 -0.29526051877429971 -0.25243959245627218 0 -0.30018431009293578 -0.25909489468183239 0 -0.34190594272395269 -0.4496315599303235 0 -0.32325126658471459 -0.45588280466781639 0 -0.34002108281179599 -0.47072727910160977 0 -0.34190594272395269 -0.4496315599303235 0 -0.32325126658471459 -0.45588280466781639 0 -0.33596891467132761 -0.430492581765546 0 -0.34190594272395269 -0.4496315599303235 0 -0.35297547948862101 -0.43972780922279531 0 -0.33596891467132761 -0.430492581765546 0 -0.32325126658471459 -0.45588280466781639 0 -0.33596891467132761 -0.430492581765546 0 -0.30773696786790111 -0.43973066261695781 0 -0.32325126658471459 -0.45588280466781639 0 -0.3148778572191957 -0.48040784684038479 0 -0.30333223380701679 -0.46612083625140949 0 -0.32325126658471459 -0.45588280466781639 0 -0.3148778572191957 -0.48040784684038479 0 -0.34002108281179599 -0.47072727910160977 0 -0.3148778572191957 -0.48040784684038479 0 -0.34002108281179599 -0.47072727910160977 0 -0.3148778572191957 -0.48040784684038479 0 -0.32772569726156492 -0.48764342010196748 0 -0.34002108281179599 -0.47072727910160977 0 -0.32772569726156492 -0.48764342010196748 0 -0.33141235347140863 -0.5 0 -0.30917357010972779 -0.50000000000000067 0 -0.3148778572191957 -0.48040784684038479 0 -0.32772569726156492 -0.48764342010196748 0 -0.30917357010972779 -0.50000000000000067 0 -0.33141235347140863 -0.5 0 -0.34314362269569632 -0.48708197456784269 0 -0.35365113683308957 -0.49999999999999928 0 -0.32772569726156492 -0.48764342010196748 0 -0.33141235347140863 -0.5 0 -0.34314362269569632 -0.48708197456784269 0 -0.32772569726156492 -0.48764342010196748 0 -0.34314362269569632 -0.48708197456784269 0 -0.34002108281179599 -0.47072727910160977 0 -0.34314362269569632 -0.48708197456784269 0 -0.34002108281179599 -0.47072727910160977 0 -0.35940772261874282 -0.48052335568141691 0 -0.34002108281179599 -0.47072727910160977 0 -0.35940772261874282 -0.48052335568141691 0 -0.36516430840439629 -0.46104671136283459 0 -0.34314362269569632 -0.48708197456784269 0 -0.35365113683308957 -0.49999999999999928 0 -0.35940772261874282 -0.48052335568141691 0 -0.35365113683308957 -0.49999999999999928 0 -0.35939741292709843 -0.49624062312229639 0 -0.35940772261874282 -0.48052335568141691 0 -0.35365113683308957 -0.49999999999999928 0 -0.35940772261874282 -0.48052335568141691 0 -0.35939741292709843 -0.49624062312229639 0 -0.35940772261874282 -0.48052335568141691 0 -0.36644604191297242 -0.47704000191094131 0 -0.38084732808792798 -0.5 0 -0.35365113683308957 -0.49999999999999928 0 -0.35939741292709843 -0.49624062312229639 0 -0.38084732808792798 -0.5 0 -0.35939741292709843 -0.49624062312229639 0 -0.37157748043598571 -0.48981787593663523 0 -0.35939741292709843 -0.49624062312229639 0 -0.36644604191297242 -0.47704000191094131 0 -0.35939741292709843 -0.49624062312229639 0 -0.37157748043598571 -0.48981787593663523 0 -0.36644604191297242 -0.47704000191094131 0 -0.35940772261874282 -0.48052335568141691 0 -0.36516430840439629 -0.46104671136283459 0 -0.35940772261874282 -0.48052335568141691 0 -0.36644604191297242 -0.47704000191094131 0 -0.36516430840439629 -0.46104671136283459 0 -0.37824661550928201 -0.48343057916569632 0 -0.37157748043598571 -0.48981787593663523 0 -0.36644604191297242 -0.47704000191094131 0 -0.37977069260572971 -0.47103743603700798 0 -0.37824661550928201 -0.48343057916569632 0 -0.36644604191297242 -0.47704000191094131 0 -0.36644604191297242 -0.47704000191094131 0 -0.37349467089884719 -0.45783938069958652 0 -0.36644604191297242 -0.47704000191094131 0 -0.37349467089884719 -0.45783938069958652 0 -0.36516430840439629 -0.46104671136283459 0 -0.37977069260572971 -0.47103743603700798 0 -0.36644604191297242 -0.47704000191094131 0 -0.37349467089884719 -0.45783938069958652 0 -0.37349467089884719 -0.45783938069958652 0 -0.36516430840439629 -0.46104671136283459 0 -0.37349467089884719 -0.45783938069958652 0 -0.36516430840439629 -0.46104671136283459 0 -0.36831208868892468 -0.45039661436478418 0 -0.36516430840439629 -0.46104671136283459 0 -0.35492436133373029 -0.45236997165903309 0 -0.36831208868892468 -0.45039661436478418 0 -0.36516430840439629 -0.46104671136283459 0 -0.36831208868892468 -0.45039661436478418 0 -0.34002108281179599 -0.47072727910160977 0 -0.36516430840439629 -0.46104671136283459 0 -0.34002108281179599 -0.47072727910160977 0 -0.36516430840439629 -0.46104671136283459 0 -0.35492436133373029 -0.45236997165903309 0 -0.34190594272395269 -0.4496315599303235 0 -0.34002108281179599 -0.47072727910160977 0 -0.35492436133373029 -0.45236997165903309 0 -0.34190594272395269 -0.4496315599303235 0 -0.35492436133373029 -0.45236997165903309 0 -0.35297547948862101 -0.43972780922279531 0 -0.35492436133373029 -0.45236997165903309 0 -0.35297547948862101 -0.43972780922279531 0 -0.36075856035828441 -0.44458982922376911 0 -0.36075856035828441 -0.44458982922376911 0 -0.36831208868892468 -0.45039661436478418 0 -0.36627748403022381 -0.43636339047411071 0 -0.35297547948862101 -0.43972780922279531 0 -0.36075856035828441 -0.44458982922376911 0 -0.36627748403022381 -0.43636339047411071 0 -0.37969946268683807 -0.44093739067353832 0 -0.37349467089884719 -0.45783938069958652 0 -0.36831208868892468 -0.45039661436478418 0 -0.35492436133373029 -0.45236997165903309 0 -0.36075856035828441 -0.44458982922376911 0 -0.36831208868892468 -0.45039661436478418 0 -0.37969946268683807 -0.44093739067353832 0 -0.36831208868892468 -0.45039661436478418 0 -0.36627748403022381 -0.43636339047411071 0 -0.37969946268683807 -0.44093739067353832 0 -0.36627748403022381 -0.43636339047411071 0 -0.37222584211108473 -0.42374855568549852 0 -0.36627748403022381 -0.43636339047411071 0 -0.37222584211108473 -0.42374855568549852 0 -0.35767709638193401 -0.42523106530001958 0 -0.37222584211108473 -0.42374855568549852 0 -0.36842202000709551 -0.4069503877282013 0 -0.35767709638193401 -0.42523106530001958 0 -0.36842202000709551 -0.4069503877282013 0 -0.34940092819215179 -0.41260701060950838 0 -0.35767709638193401 -0.42523106530001958 0 -0.34940092819215179 -0.41260701060950838 0 -0.3541364755825428 -0.39833275487717362 0 -0.33488262501913668 -0.40868289812702829 0 -0.34940092819215179 -0.41260701060950838 0 -0.35767709638193401 -0.42523106530001958 0 -0.33596891467132761 -0.430492581765546 0 -0.35297547948862101 -0.43972780922279531 0 -0.35767709638193401 -0.42523106530001958 0 -0.33596891467132761 -0.430492581765546 0 -0.35297547948862101 -0.43972780922279531 0 -0.36627748403022381 -0.43636339047411071 0 -0.35767709638193401 -0.42523106530001958 0 -0.36842202000709551 -0.4069503877282013 0 -0.37121257174217581 -0.38460265902015978 0 -0.3541364755825428 -0.39833275487717362 0 -0.36842202000709551 -0.4069503877282013 0 -0.34940092819215179 -0.41260701060950838 0 -0.3541364755825428 -0.39833275487717362 0 -0.35170447191050602 -0.36946930578367509 0 -0.3541364755825428 -0.39833275487717362 0 -0.35170447191050602 -0.36946930578367509 0 -0.37121257174217581 -0.38460265902015978 0 -0.3541364755825428 -0.39833275487717362 0 -0.35170447191050602 -0.36946930578367509 0 -0.3541364755825428 -0.39833275487717362 0 -0.33468256793477691 -0.37993867994153241 0 -0.3541364755825428 -0.39833275487717362 0 -0.33468256793477691 -0.37993867994153241 0 -0.33488262501913668 -0.40868289812702829 0 -0.33468256793477691 -0.37993867994153241 0 -0.31654643598967069 -0.38695031534805469 0 -0.33488262501913668 -0.40868289812702829 0 -0.31654643598967069 -0.38695031534805469 0 -0.33488262501913668 -0.40868289812702829 0 -0.31654643598967069 -0.38695031534805469 0 -0.31214170192878521 -0.41334048898250619 0 -0.31654643598967069 -0.38695031534805469 0 -0.33488262501913668 -0.40868289812702829 0 -0.31214170192878521 -0.41334048898250619 0 -0.31950288496992463 -0.36923728185911098 0 -0.33468256793477691 -0.37993867994153241 0 -0.31654643598967069 -0.38695031534805469 0 -0.31950288496992463 -0.36923728185911098 0 -0.31654643598967069 -0.38695031534805469 0 -0.34940092819215179 -0.41260701060950838 0 -0.33596891467132761 -0.430492581765546 0 -0.33488262501913668 -0.40868289812702829 0 -0.33596891467132761 -0.430492581765546 0 -0.33488262501913668 -0.40868289812702829 0 -0.31214170192878521 -0.41334048898250619 0 -0.33596891467132761 -0.430492581765546 0 -0.31214170192878521 -0.41334048898250619 0 -0.30773696786790111 -0.43973066261695781 0 -0.31214170192878521 -0.41334048898250619 0 -0.29030182915789932 -0.41430157553180952 0 -0.30773696786790111 -0.43973066261695781 0 -0.31214170192878521 -0.41334048898250619 0 -0.30773696786790111 -0.43973066261695781 0 -0.31214170192878521 -0.41334048898250619 0 -0.29030182915789932 -0.41430157553180952 0 -0.30334702715625711 -0.40119358893998791 0 -0.29030182915789932 -0.41430157553180952 0 -0.28021400053524298 -0.43903362819494302 0 -0.30773696786790111 -0.43973066261695781 0 -0.29973870547450249 -0.3670293059081598 0 -0.31654643598967069 -0.38695031534805469 0 -0.29439814154867328 -0.39018197589758152 0 -0.29973870547450249 -0.3670293059081598 0 -0.31654643598967069 -0.38695031534805469 0 -0.31654643598967069 -0.38695031534805469 0 -0.30334702715625711 -0.40119358893998791 0 -0.29439814154867328 -0.39018197589758152 0 -0.31654643598967069 -0.38695031534805469 0 -0.31214170192878521 -0.41334048898250619 0 -0.30334702715625711 -0.40119358893998791 0 -0.29030182915789932 -0.41430157553180952 0 -0.30334702715625711 -0.40119358893998791 0 -0.29439814154867328 -0.39018197589758152 0 -0.29030182915789932 -0.41430157553180952 0 -0.29439814154867328 -0.39018197589758152 0 -0.26825456030092998 -0.39705707369226712 0 -0.29973870547450249 -0.3670293059081598 0 -0.29439814154867328 -0.39018197589758152 0 -0.28696793062362141 -0.37687916830780172 0 -0.29439814154867328 -0.39018197589758152 0 -0.28696793062362141 -0.37687916830780172 0 -0.26825456030092998 -0.39705707369226712 0 -0.27292197199808038 -0.37206298491741918 0 -0.26825456030092998 -0.39705707369226712 0 -0.27292197199808038 -0.37206298491741918 0 -0.28696793062362141 -0.37687916830780172 0 -0.26825456030092998 -0.39705707369226712 0 -0.26825456030092998 -0.39705707369226712 0 -0.25562605699951518 -0.38151667329357147 0 -0.24209248220985749 -0.4008947970796109 0 -0.27292197199808038 -0.37206298491741918 0 -0.26825456030092998 -0.39705707369226712 0 -0.25562605699951518 -0.38151667329357147 0 -0.26358714860377958 -0.42205116246711499 0 -0.24533987795080009 -0.43245027066675962 0 -0.24209248220985749 -0.4008947970796109 0 -0.26358714860377958 -0.42205116246711499 0 -0.25891973690662912 -0.44704525124196298 0 -0.28021400053524298 -0.43903362819494302 0 -0.29030182915789932 -0.41430157553180952 0 -0.26358714860377958 -0.42205116246711499 0 -0.28021400053524298 -0.43903362819494302 0 -0.29030182915789932 -0.41430157553180952 0 -0.26825456030092998 -0.39705707369226712 0 -0.26358714860377958 -0.42205116246711499 0 -0.26825456030092998 -0.39705707369226712 0 -0.26358714860377958 -0.42205116246711499 0 -0.26825456030092998 -0.39705707369226712 0 -0.26358714860377958 -0.42205116246711499 0 -0.24209248220985749 -0.4008947970796109 0 -0.26358714860377958 -0.42205116246711499 0 -0.25891973690662912 -0.44704525124196298 0 -0.24533987795080009 -0.43245027066675962 0 -0.26358714860377958 -0.42205116246711499 0 -0.25891973690662912 -0.44704525124196298 0 -0.25891973690662912 -0.44704525124196298 0 -0.25425232520947871 -0.47203934001681092 0 -0.2402021719740291 -0.45648276358474638 0 -0.25891973690662912 -0.44704525124196298 0 -0.25425232520947871 -0.47203934001681092 0 -0.25891973690662912 -0.44704525124196298 0 -0.2665641931969861 -0.46676477845497039 0 -0.25425232520947871 -0.47203934001681092 0 -0.25891973690662912 -0.44704525124196298 0 -0.2665641931969861 -0.46676477845497039 0 -0.27505224488941371 -0.45530053328513448 0 -0.2665641931969861 -0.46676477845497039 0 -0.27505224488941371 -0.45530053328513448 0 -0.27837770533245992 -0.46733041494830979 0 -0.27505224488941371 -0.45530053328513448 0 -0.27837770533245992 -0.46733041494830979 0 -0.2889297124655309 -0.45678523365857521 0 -0.25891973690662912 -0.44704525124196298 0 -0.27505224488941371 -0.45530053328513448 0 -0.28021400053524298 -0.43903362819494302 0 -0.27505224488941371 -0.45530053328513448 0 -0.28021400053524298 -0.43903362819494302 0 -0.2889297124655309 -0.45678523365857521 0 -0.28021400053524298 -0.43903362819494302 0 -0.2889297124655309 -0.45678523365857521 0 -0.30773696786790111 -0.43973066261695781 0 -0.27837770533245992 -0.46733041494830979 0 -0.2889297124655309 -0.45678523365857521 0 -0.28886512236115153 -0.47319532665469649 0 -0.2889297124655309 -0.45678523365857521 0 -0.30333223380701679 -0.46612083625140949 0 -0.28886512236115153 -0.47319532665469649 0 -0.2889297124655309 -0.45678523365857521 0 -0.30333223380701679 -0.46612083625140949 0 -0.30773696786790111 -0.43973066261695781 0 -0.32325126658471459 -0.45588280466781639 0 -0.30333223380701679 -0.46612083625140949 0 -0.30773696786790111 -0.43973066261695781 0 -0.30333223380701679 -0.46612083625140949 0 -0.30773696786790111 -0.43973066261695781 0 -0.30917357010972779 -0.50000000000000067 0 -0.28499289578986708 -0.49006938405136918 0 -0.30917357010972779 -0.50000000000000067 0 -0.29981410949455589 -0.48289083770438002 0 -0.28499289578986708 -0.49006938405136918 0 -0.3148778572191957 -0.48040784684038479 0 -0.30917357010972779 -0.50000000000000067 0 -0.29981410949455589 -0.48289083770438002 0 -0.30333223380701679 -0.46612083625140949 0 -0.29981410949455589 -0.48289083770438002 0 -0.28886512236115153 -0.47319532665469649 0 -0.3148778572191957 -0.48040784684038479 0 -0.30333223380701679 -0.46612083625140949 0 -0.29981410949455589 -0.48289083770438002 0 -0.28886512236115153 -0.47319532665469649 0 -0.28499289578986708 -0.49006938405136918 0 -0.27548820126725843 -0.47643189338722458 0 -0.29981410949455589 -0.48289083770438002 0 -0.28886512236115153 -0.47319532665469649 0 -0.28499289578986708 -0.49006938405136918 0 -0.30917357010972779 -0.50000000000000067 0 -0.28499289578986708 -0.49006938405136918 0 -0.28112254055999719 -0.5 0 -0.28112254055999719 -0.5 0 -0.26794975686176631 -0.4922743655074065 0 -0.25307151101026648 -0.5 0 -0.28499289578986708 -0.49006938405136918 0 -0.26794975686176631 -0.4922743655074065 0 -0.26081222147000671 -0.48013876810273709 0 -0.28499289578986708 -0.49006938405136918 0 -0.26081222147000671 -0.48013876810273709 0 -0.28499289578986708 -0.49006938405136918 0 -0.28112254055999719 -0.5 0 -0.26794975686176631 -0.4922743655074065 0 -0.28499289578986708 -0.49006938405136918 0 -0.27548820126725843 -0.47643189338722458 0 -0.26081222147000671 -0.48013876810273709 0 -0.2665641931969861 -0.46676477845497039 0 -0.27837770533245992 -0.46733041494830979 0 -0.27548820126725843 -0.47643189338722458 0 -0.27837770533245992 -0.46733041494830979 0 -0.28886512236115153 -0.47319532665469649 0 -0.27548820126725843 -0.47643189338722458 0 -0.2665641931969861 -0.46676477845497039 0 -0.27548820126725843 -0.47643189338722458 0 -0.26081222147000671 -0.48013876810273709 0 -0.2665641931969861 -0.46676477845497039 0 -0.26081222147000671 -0.48013876810273709 0 -0.25425232520947871 -0.47203934001681092 0 -0.26081222147000671 -0.48013876810273709 0 -0.25425232520947871 -0.47203934001681092 0 -0.2456868940065689 -0.48568287460708431 0 -0.26794975686176631 -0.4922743655074065 0 -0.2568800958371521 -0.48952400205430702 0 -0.25307151101026648 -0.5 0 -0.26794975686176631 -0.4922743655074065 0 -0.26081222147000671 -0.48013876810273709 0 -0.2568800958371521 -0.48952400205430702 0 -0.2568800958371521 -0.48952400205430702 0 -0.25307151101026648 -0.5 0 -0.2456868940065689 -0.48568287460708431 0 -0.26081222147000671 -0.48013876810273709 0 -0.2568800958371521 -0.48952400205430702 0 -0.2456868940065689 -0.48568287460708431 0 -0.25307151101026648 -0.5 0 -0.2456868940065689 -0.48568287460708431 0 -0.22502048146053591 -0.5 0 -0.25425232520947871 -0.47203934001681092 0 -0.2456868940065689 -0.48568287460708431 0 -0.24136008721403271 -0.47211825685644732 0 -0.2456868940065689 -0.48568287460708431 0 -0.24136008721403271 -0.47211825685644732 0 -0.2266080646054501 -0.47294946119818881 0 -0.2266080646054501 -0.47294946119818881 0 -0.22502048146053591 -0.5 0 -0.2098256249934283 -0.48405703731831962 0 -0.2456868940065689 -0.48568287460708431 0 -0.2266080646054501 -0.47294946119818881 0 -0.22502048146053591 -0.5 0 -0.2402021719740291 -0.45648276358474638 0 -0.22668793987535801 -0.43858277085085978 0 -0.24533987795080009 -0.43245027066675962 0 -0.25891973690662912 -0.44704525124196298 0 -0.2402021719740291 -0.45648276358474638 0 -0.24533987795080009 -0.43245027066675962 0 -0.25425232520947871 -0.47203934001681092 0 -0.24136008721403271 -0.47211825685644732 0 -0.2402021719740291 -0.45648276358474638 0 -0.24136008721403271 -0.47211825685644732 0 -0.2266080646054501 -0.47294946119818881 0 -0.2402021719740291 -0.45648276358474638 0 -0.2266080646054501 -0.47294946119818881 0 -0.2402021719740291 -0.45648276358474638 0 -0.21005852446678769 -0.45085372008420221 0 -0.2402021719740291 -0.45648276358474638 0 -0.22668793987535801 -0.43858277085085978 0 -0.21005852446678769 -0.45085372008420221 0 -0.22668793987535801 -0.43858277085085978 0 -0.21005852446678769 -0.45085372008420221 0 -0.21038839911631099 -0.43042131210923568 0 -0.2266080646054501 -0.47294946119818881 0 -0.21005852446678769 -0.45085372008420221 0 -0.20983730427944719 -0.47011220399306269 0 -0.21005852446678769 -0.45085372008420221 0 -0.20983730427944719 -0.47011220399306269 0 -0.19285700305212289 -0.47258859737154019 0 -0.21005852446678769 -0.45085372008420221 0 -0.19285700305212289 -0.47258859737154019 0 -0.18660091951987831 -0.44549526894099439 0 -0.21005852446678769 -0.45085372008420221 0 -0.18660091951987831 -0.44549526894099439 0 -0.21038839911631099 -0.43042131210923568 0 -0.22502048146053591 -0.5 0 -0.2098256249934283 -0.48405703731831962 0 -0.1969694519108052 -0.5 0 -0.20983730427944719 -0.47011220399306269 0 -0.2098256249934283 -0.48405703731831962 0 -0.19285700305212289 -0.47258859737154019 0 -0.2266080646054501 -0.47294946119818881 0 -0.20983730427944719 -0.47011220399306269 0 -0.2098256249934283 -0.48405703731831962 0 -0.2098256249934283 -0.48405703731831962 0 -0.19285700305212289 -0.47258859737154019 0 -0.1969694519108052 -0.5 0 -0.19285700305212289 -0.47258859737154019 0 -0.1969694519108052 -0.5 0 -0.16891842236107479 -0.49999999999999251 0 -0.16891842236107479 -0.49999999999999251 0 -0.16513895760653641 -0.47267336972092222 0 -0.16891842236107479 -0.49999999999999251 0 -0.16513895760653641 -0.47267336972092222 0 -0.14782272540013591 -0.48288307219666848 0 -0.19285700305212289 -0.47258859737154019 0 -0.16891842236107479 -0.49999999999999251 0 -0.16513895760653641 -0.47267336972092222 0 -0.19285700305212289 -0.47258859737154019 0 -0.16513895760653641 -0.47267336972092222 0 -0.18660091951987831 -0.44549526894099439 0 -0.18660091951987831 -0.44549526894099439 0 -0.16135949285199691 -0.44534673944185188 0 -0.17431315279231391 -0.42697612250539291 0 -0.16513895760653641 -0.47267336972092222 0 -0.16135949285199691 -0.44534673944185188 0 -0.16513895760653641 -0.47267336972092222 0 -0.18660091951987831 -0.44549526894099439 0 -0.16135949285199691 -0.44534673944185188 0 -0.16513895760653641 -0.47267336972092222 0 -0.16135949285199691 -0.44534673944185188 0 -0.13577391542103959 -0.45987739019960588 0 -0.16135949285199691 -0.44534673944185188 0 -0.13577391542103959 -0.45987739019960588 0 -0.13803620093773211 -0.43137629061263782 0 -0.13577391542103959 -0.45987739019960588 0 -0.13803620093773211 -0.43137629061263782 0 -0.11872382667374071 -0.43964584133713308 0 -0.13577391542103959 -0.45987739019960588 0 -0.12896729501594389 -0.48186460106281431 0 -0.14782272540013591 -0.48288307219666848 0 -0.13577391542103959 -0.45987739019960588 0 -0.12896729501594389 -0.48186460106281431 0 -0.1109877335600462 -0.47305378788334362 0 -0.12896729501594389 -0.48186460106281431 0 -0.14031503659608491 -0.5 0 -0.11171165083109511 -0.5 0 -0.12896729501594389 -0.48186460106281431 0 -0.14031503659608491 -0.5 0 -0.14782272540013591 -0.48288307219666848 0 -0.16891842236107479 -0.49999999999999251 0 -0.14031503659608491 -0.5 0 -0.14782272540013591 -0.48288307219666848 0 -0.16513895760653641 -0.47267336972092222 0 -0.13577391542103959 -0.45987739019960588 0 -0.14782272540013591 -0.48288307219666848 0 -0.153800563342918 -0.39069347888371148 0 -0.12957281029114509 -0.40914772216104478 0 -0.1575800280974575 -0.41802010916278171 0 -0.153800563342918 -0.39069347888371148 0 -0.1575800280974575 -0.41802010916278171 0 -0.153800563342918 -0.39069347888371148 0 -0.13111919527464341 -0.38402542691014502 0 -0.15002109858837859 -0.3633668486046413 0 -0.153800563342918 -0.39069347888371148 0 -0.15002109858837859 -0.3633668486046413 0 -0.153800563342918 -0.39069347888371148 0 -0.13111919527464341 -0.38402542691014502 0 -0.12957281029114509 -0.40914772216104478 0 -0.12957281029114509 -0.40914772216104478 0 -0.13803620093773211 -0.43137629061263782 0 -0.11349617631517731 -0.42159282191060488 0 -0.16135949285199691 -0.44534673944185188 0 -0.13803620093773211 -0.43137629061263782 0 -0.1575800280974575 -0.41802010916278171 0 -0.12957281029114509 -0.40914772216104478 0 -0.13803620093773211 -0.43137629061263782 0 -0.1575800280974575 -0.41802010916278171 0 -0.1575800280974575 -0.41802010916278171 0 -0.17431315279231391 -0.42697612250539291 0 -0.1740752362591188 -0.39979429122124599 0 -0.16135949285199691 -0.44534673944185188 0 -0.1575800280974575 -0.41802010916278171 0 -0.16135949285199691 -0.44534673944185188 0 -0.1575800280974575 -0.41802010916278171 0 -0.17431315279231391 -0.42697612250539291 0 -0.18660091951987831 -0.44549526894099439 0 -0.17431315279231391 -0.42697612250539291 0 -0.19212796452148989 -0.41786565756269212 0 -0.17431315279231391 -0.42697612250539291 0 -0.1740752362591188 -0.39979429122124599 0 -0.19212796452148989 -0.41786565756269212 0 -0.1740752362591188 -0.39979429122124599 0 -0.1936896789342773 -0.39219667620899762 0 -0.19212796452148989 -0.41786565756269212 0 -0.153800563342918 -0.39069347888371148 0 -0.1575800280974575 -0.41802010916278171 0 -0.1740752362591188 -0.39979429122124599 0 -0.153800563342918 -0.39069347888371148 0 -0.1652913631480562 -0.37413467769965919 0 -0.15002109858837859 -0.3633668486046413 0 -0.153800563342918 -0.39069347888371148 0 -0.1740752362591188 -0.39979429122124599 0 -0.1652913631480562 -0.37413467769965919 0 -0.1740752362591188 -0.39979429122124599 0 -0.18328979851033331 -0.376650521782189 0 -0.1652913631480562 -0.37413467769965919 0 -0.1740752362591188 -0.39979429122124599 0 -0.18328979851033331 -0.376650521782189 0 -0.1936896789342773 -0.39219667620899762 0 -0.18328979851033331 -0.376650521782189 0 -0.1936896789342773 -0.39219667620899762 0 -0.20069446976265901 -0.37376867766630772 0 -0.1936896789342773 -0.39219667620899762 0 -0.21067648538916861 -0.38714916020921392 0 -0.20069446976265901 -0.37376867766630772 0 -0.1936896789342773 -0.39219667620899762 0 -0.2147748150311547 -0.40538734995193809 0 -0.19212796452148989 -0.41786565756269212 0 -0.1936896789342773 -0.39219667620899762 0 -0.2147748150311547 -0.40538734995193809 0 -0.21067648538916861 -0.38714916020921392 0 -0.2147748150311547 -0.40538734995193809 0 -0.21067648538916861 -0.38714916020921392 0 -0.22577663701451159 -0.38738102689899118 0 -0.21067648538916861 -0.38714916020921392 0 -0.22577663701451159 -0.38738102689899118 0 -0.21880762012783239 -0.37163433357834791 0 -0.21067648538916861 -0.38714916020921392 0 -0.21880762012783239 -0.37163433357834791 0 -0.20069446976265901 -0.37376867766630772 0 -0.18660091951987831 -0.44549526894099439 0 -0.19212796452148989 -0.41786565756269212 0 -0.21038839911631099 -0.43042131210923568 0 -0.2147748150311547 -0.40538734995193809 0 -0.21038839911631099 -0.43042131210923568 0 -0.22745072586886189 -0.42270578780935503 0 -0.2147748150311547 -0.40538734995193809 0 -0.19212796452148989 -0.41786565756269212 0 -0.21038839911631099 -0.43042131210923568 0 -0.22745072586886189 -0.42270578780935503 0 -0.24533987795080009 -0.43245027066675962 0 -0.24209248220985749 -0.4008947970796109 0 -0.22668793987535801 -0.43858277085085978 0 -0.22745072586886189 -0.42270578780935503 0 -0.24533987795080009 -0.43245027066675962 0 -0.22668793987535801 -0.43858277085085978 0 -0.21038839911631099 -0.43042131210923568 0 -0.22745072586886189 -0.42270578780935503 0 -0.2147748150311547 -0.40538734995193809 0 -0.22745072586886189 -0.42270578780935503 0 -0.24209248220985749 -0.4008947970796109 0 -0.22577663701451159 -0.38738102689899118 0 -0.23850542149377901 -0.37277319836461681 0 -0.21880762012783239 -0.37163433357834791 0 -0.2147748150311547 -0.40538734995193809 0 -0.22577663701451159 -0.38738102689899118 0 -0.24209248220985749 -0.4008947970796109 0 -0.22577663701451159 -0.38738102689899118 0 -0.24209248220985749 -0.4008947970796109 0 -0.23850542149377901 -0.37277319836461681 0 -0.25562605699951518 -0.38151667329357147 0 -0.24209248220985749 -0.4008947970796109 0 -0.23850542149377901 -0.37277319836461681 0 -0.25635584899492952 -0.36479531241394392 0 -0.23850542149377901 -0.37277319836461681 0 -0.24563489547392939 -0.35247447718499841 0 -0.23850542149377901 -0.37277319836461681 0 -0.21880762012783239 -0.37163433357834791 0 -0.22642208968097979 -0.35247498945294531 0 -0.23850542149377901 -0.37277319836461681 0 -0.22642208968097979 -0.35247498945294531 0 -0.24563489547392939 -0.35247447718499841 0 -0.22642208968097979 -0.35247498945294531 0 -0.24563489547392939 -0.35247447718499841 0 -0.237720636697487 -0.34112228011407308 0 -0.24563489547392939 -0.35247447718499841 0 -0.24712733145617671 -0.33863049128807332 0 -0.237720636697487 -0.34112228011407308 0 -0.2527798654172162 -0.34575467121188358 0 -0.24563489547392939 -0.35247447718499841 0 -0.24712733145617671 -0.33863049128807332 0 -0.25063194343948531 -0.33006763904785308 0 -0.24712733145617671 -0.33863049128807332 0 -0.24094362287457169 -0.3302347487648436 0 -0.24094362287457169 -0.3302347487648436 0 -0.237720636697487 -0.34112228011407308 0 -0.22854878252149971 -0.33140299421641528 0 -0.24712733145617671 -0.33863049128807332 0 -0.24094362287457169 -0.3302347487648436 0 -0.237720636697487 -0.34112228011407308 0 -0.24645108193138171 -0.32044532164139122 0 -0.23624082636370261 -0.31725897574752537 0 -0.24445686766025709 -0.31231585374876702 0 -0.25018784659082388 -0.31305552398611491 0 -0.24645108193138171 -0.32044532164139122 0 -0.24445686766025709 -0.31231585374876702 0 -0.25018784659082388 -0.31305552398611491 0 -0.25160910495539901 -0.3181674073992361 0 -0.24645108193138171 -0.32044532164139122 0 -0.25063194343948531 -0.33006763904785308 0 -0.24094362287457169 -0.3302347487648436 0 -0.24645108193138171 -0.32044532164139122 0 -0.24094362287457169 -0.3302347487648436 0 -0.24645108193138171 -0.32044532164139122 0 -0.23624082636370261 -0.31725897574752537 0 -0.24094362287457169 -0.3302347487648436 0 -0.23624082636370261 -0.31725897574752537 0 -0.22854878252149971 -0.33140299421641528 0 -0.23624082636370261 -0.31725897574752537 0 -0.22854878252149971 -0.33140299421641528 0 -0.2181426659633961 -0.31054690636838411 0 -0.22854878252149971 -0.33140299421641528 0 -0.2118228535488608 -0.33678006485072032 0 -0.2181426659633961 -0.31054690636838411 0 -0.22642208968097979 -0.35247498945294531 0 -0.237720636697487 -0.34112228011407308 0 -0.22854878252149971 -0.33140299421641528 0 -0.22642208968097979 -0.35247498945294531 0 -0.22854878252149971 -0.33140299421641528 0 -0.2118228535488608 -0.33678006485072032 0 -0.2118228535488608 -0.33678006485072032 0 -0.19233682909267419 -0.32149150229324241 0 -0.2181426659633961 -0.31054690636838411 0 -0.19233682909267419 -0.32149150229324241 0 -0.2181426659633961 -0.31054690636838411 0 -0.19233682909267419 -0.32149150229324241 0 -0.19623572110868381 -0.34323737091042172 0 -0.17767996070576081 -0.34481068671233878 0 -0.2118228535488608 -0.33678006485072032 0 -0.19233682909267419 -0.32149150229324241 0 -0.19623572110868381 -0.34323737091042172 0 -0.19623572110868381 -0.34323737091042172 0 -0.19022216786557261 -0.35908851427606742 0 -0.2082729159955477 -0.35632897581317408 0 -0.19623572110868381 -0.34323737091042172 0 -0.19022216786557261 -0.35908851427606742 0 -0.17767996070576081 -0.34481068671233878 0 -0.18328979851033331 -0.376650521782189 0 -0.19022216786557261 -0.35908851427606742 0 -0.20069446976265901 -0.37376867766630772 0 -0.19022216786557261 -0.35908851427606742 0 -0.20069446976265901 -0.37376867766630772 0 -0.2082729159955477 -0.35632897581317408 0 -0.21880762012783239 -0.37163433357834791 0 -0.20069446976265901 -0.37376867766630772 0 -0.2082729159955477 -0.35632897581317408 0 -0.21880762012783239 -0.37163433357834791 0 -0.22642208968097979 -0.35247498945294531 0 -0.2082729159955477 -0.35632897581317408 0 -0.2118228535488608 -0.33678006485072032 0 -0.19623572110868381 -0.34323737091042172 0 -0.2082729159955477 -0.35632897581317408 0 -0.22642208968097979 -0.35247498945294531 0 -0.2118228535488608 -0.33678006485072032 0 -0.2082729159955477 -0.35632897581317408 0 -0.23091907112554011 -0.25550322216676979 0 -0.2436696497673328 -0.26582093126575779 0 -0.22617588079031109 -0.27064603318513142 0 -0.23091907112554011 -0.25550322216676979 0 -0.2174722169472417 -0.26129665494036408 0 -0.2179523242608912 -0.24845533205632031 0 -0.23091907112554011 -0.25550322216676979 0 -0.22617588079031109 -0.27064603318513142 0 -0.2174722169472417 -0.26129665494036408 0 -0.23091907112554011 -0.25550322216676979 0 -0.2436696497673328 -0.26582093126575779 0 -0.25218120228073287 -0.24765507659215041 0 -0.2436696497673328 -0.26582093126575779 0 -0.22617588079031109 -0.27064603318513142 0 -0.23946366368218941 -0.28400941094249671 0 -0.25742061831072638 -0.28203843270396911 0 -0.2436696497673328 -0.26582093126575779 0 -0.23946366368218941 -0.28400941094249671 0 -0.22617588079031109 -0.27064603318513142 0 -0.2209795564606872 -0.28851948197813021 0 -0.23946366368218941 -0.28400941094249671 0 -0.2209795564606872 -0.28851948197813021 0 -0.23063359723509769 -0.29566952743313413 0 -0.23946366368218941 -0.28400941094249671 0 -0.25742061831072638 -0.28203843270396911 0 -0.25202261165186851 -0.29264279131426502 0 -0.23946366368218941 -0.28400941094249671 0 -0.25202261165186851 -0.29264279131426502 0 -0.23946366368218941 -0.28400941094249671 0 -0.24394850283411801 -0.29960231044352581 0 -0.23063359723509769 -0.29566952743313413 0 -0.23946366368218941 -0.28400941094249671 0 -0.24394850283411801 -0.29960231044352581 0 -0.23624082636370261 -0.31725897574752537 0 -0.24394850283411801 -0.29960231044352581 0 -0.24445686766025709 -0.31231585374876702 0 -0.25629685870081231 -0.30399481174304988 0 -0.24394850283411801 -0.29960231044352581 0 -0.24858438729844209 -0.30813177315994572 0 -0.24394850283411801 -0.29960231044352581 0 -0.24858438729844209 -0.30813177315994572 0 -0.24445686766025709 -0.31231585374876702 0 -0.25018784659082388 -0.31305552398611491 0 -0.24858438729844209 -0.30813177315994572 0 -0.24445686766025709 -0.31231585374876702 0 -0.23063359723509769 -0.29566952743313413 0 -0.24394850283411801 -0.29960231044352581 0 -0.2181426659633961 -0.31054690636838411 0 -0.2209795564606872 -0.28851948197813021 0 -0.23063359723509769 -0.29566952743313413 0 -0.2181426659633961 -0.31054690636838411 0 -0.23624082636370261 -0.31725897574752537 0 -0.24394850283411801 -0.29960231044352581 0 -0.2181426659633961 -0.31054690636838411 0 -0.24394850283411801 -0.29960231044352581 0 -0.2181426659633961 -0.31054690636838411 0 -0.2209795564606872 -0.28851948197813021 0 -0.2181426659633961 -0.31054690636838411 0 -0.20622298314854359 -0.29335157640145632 0 -0.2181426659633961 -0.31054690636838411 0 -0.1957495619571753 -0.30417547044209192 0 -0.20622298314854359 -0.29335157640145632 0 -0.1957495619571753 -0.30417547044209192 0 -0.18978929358213589 -0.28827480391876531 0 -0.17937197063049201 -0.30572842090364438 0 -0.19233682909267419 -0.32149150229324241 0 -0.2181426659633961 -0.31054690636838411 0 -0.1957495619571753 -0.30417547044209192 0 -0.19233682909267419 -0.32149150229324241 0 -0.1957495619571753 -0.30417547044209192 0 -0.17937197063049201 -0.30572842090364438 0 -0.1957495619571753 -0.30417547044209192 0 -0.18978929358213589 -0.28827480391876531 0 -0.20622298314854359 -0.29335157640145632 0 -0.18978929358213589 -0.28827480391876531 0 -0.20622298314854359 -0.29335157640145632 0 -0.2079363237441916 -0.27493202298220842 0 -0.2209795564606872 -0.28851948197813021 0 -0.20622298314854359 -0.29335157640145632 0 -0.2079363237441916 -0.27493202298220842 0 -0.22617588079031109 -0.27064603318513142 0 -0.2209795564606872 -0.28851948197813021 0 -0.2079363237441916 -0.27493202298220842 0 -0.22617588079031109 -0.27064603318513142 0 -0.2079363237441916 -0.27493202298220842 0 -0.2174722169472417 -0.26129665494036408 0 -0.18978929358213589 -0.28827480391876531 0 -0.2079363237441916 -0.27493202298220842 0 -0.19076038479295621 -0.26797741047830842 0 -0.2079363237441916 -0.27493202298220842 0 -0.19076038479295621 -0.26797741047830842 0 -0.20437748481527421 -0.25694666431139068 0 -0.19076038479295621 -0.26797741047830842 0 -0.1880279212736167 -0.25014340261270551 0 -0.20437748481527421 -0.25694666431139068 0 -0.2079363237441916 -0.27493202298220842 0 -0.20437748481527421 -0.25694666431139068 0 -0.2174722169472417 -0.26129665494036408 0 -0.20437748481527421 -0.25694666431139068 0 -0.2174722169472417 -0.26129665494036408 0 -0.2179523242608912 -0.24845533205632031 0 -0.15655054532119131 -0.25594852806874291 0 -0.1732428370772805 -0.25959841858885668 0 -0.1625503268871073 -0.26590827161395891 0 -0.15655054532119131 -0.25594852806874291 0 -0.1625503268871073 -0.26590827161395891 0 -0.15244743197094801 -0.27315371652195092 0 -0.15655054532119131 -0.25594852806874291 0 -0.1732428370772805 -0.25959841858885668 0 -0.15655054532119131 -0.25594852806874291 0 -0.1732428370772805 -0.25959841858885668 0 -0.17147871473588791 -0.24130402352345789 0 -0.19076038479295621 -0.26797741047830842 0 -0.1880279212736167 -0.25014340261270551 0 -0.1732428370772805 -0.25959841858885668 0 -0.1880279212736167 -0.25014340261270551 0 -0.1732428370772805 -0.25959841858885668 0 -0.17147871473588791 -0.24130402352345789 0 -0.19076038479295621 -0.26797741047830842 0 -0.1732428370772805 -0.25959841858885668 0 -0.18067268197964351 -0.27722603466820678 0 -0.18978929358213589 -0.28827480391876531 0 -0.19076038479295621 -0.26797741047830842 0 -0.18067268197964351 -0.27722603466820678 0 -0.1732428370772805 -0.25959841858885668 0 -0.18067268197964351 -0.27722603466820678 0 -0.1679604931790093 -0.2749324232762852 0 -0.18067268197964351 -0.27722603466820678 0 -0.1679604931790093 -0.2749324232762852 0 -0.17283612453368341 -0.28942742219083861 0 -0.1732428370772805 -0.25959841858885668 0 -0.1679604931790093 -0.2749324232762852 0 -0.1625503268871073 -0.26590827161395891 0 -0.1679604931790093 -0.2749324232762852 0 -0.1625503268871073 -0.26590827161395891 0 -0.15244743197094801 -0.27315371652195092 0 -0.1679604931790093 -0.2749324232762852 0 -0.15976839788960021 -0.28561556360426787 0 -0.15244743197094801 -0.27315371652195092 0 -0.15976839788960021 -0.28561556360426787 0 -0.16278737047646599 -0.29420372918243409 0 -0.15494621744832679 -0.29495785470712621 0 -0.15976839788960021 -0.28561556360426787 0 -0.16278737047646599 -0.29420372918243409 0 -0.17283612453368341 -0.28942742219083861 0 -0.16278737047646599 -0.29420372918243409 0 -0.17283612453368341 -0.28942742219083861 0 -0.16790862999613479 -0.30010339920433921 0 -0.1679604931790093 -0.2749324232762852 0 -0.15976839788960021 -0.28561556360426787 0 -0.17283612453368341 -0.28942742219083861 0 -0.18978929358213589 -0.28827480391876531 0 -0.18067268197964351 -0.27722603466820678 0 -0.17283612453368341 -0.28942742219083861 0 -0.18978929358213589 -0.28827480391876531 0 -0.17283612453368341 -0.28942742219083861 0 -0.17937197063049201 -0.30572842090364438 0 -0.17283612453368341 -0.28942742219083861 0 -0.17937197063049201 -0.30572842090364438 0 -0.16790862999613479 -0.30010339920433921 0 -0.17937197063049201 -0.30572842090364438 0 -0.16624177890124189 -0.30866209935785471 0 -0.173130857891234 -0.31701940473820189 0 -0.17937197063049201 -0.30572842090364438 0 -0.16624177890124189 -0.30866209935785471 0 -0.16790862999613479 -0.30010339920433921 0 -0.16624177890124189 -0.30866209935785471 0 -0.16790862999613479 -0.30010339920433921 0 -0.15830590543879069 -0.30249532438692411 0 -0.16278737047646599 -0.29420372918243409 0 -0.16790862999613479 -0.30010339920433921 0 -0.15830590543879069 -0.30249532438692411 0 -0.16278737047646599 -0.29420372918243409 0 -0.15830590543879069 -0.30249532438692411 0 -0.15494621744832679 -0.29495785470712621 0 -0.16624177890124189 -0.30866209935785471 0 -0.15830590543879069 -0.30249532438692411 0 -0.1563280729051657 -0.30977312572016408 0 -0.16624177890124189 -0.30866209935785471 0 -0.1563280729051657 -0.30977312572016408 0 -0.1620541590512562 -0.3166245176725363 0 -0.1463989009099233 -0.30490427433925271 0 -0.14698778975663049 -0.31074448713145703 0 -0.13097713687326751 -0.29020440782051249 0 -0.1563280729051657 -0.30977312572016408 0 -0.1515700344601266 -0.30704756192871979 0 -0.14698778975663049 -0.31074448713145703 0 -0.1563280729051657 -0.30977312572016408 0 -0.14698778975663049 -0.31074448713145703 0 -0.1620541590512562 -0.3166245176725363 0 -0.1515700344601266 -0.30704756192871979 0 -0.15059032038081069 -0.30265460827929702 0 -0.1463989009099233 -0.30490427433925271 0 -0.15830590543879069 -0.30249532438692411 0 -0.1563280729051657 -0.30977312572016408 0 -0.1515700344601266 -0.30704756192871979 0 -0.15830590543879069 -0.30249532438692411 0 -0.1515700344601266 -0.30704756192871979 0 -0.15059032038081069 -0.30265460827929702 0 -0.15830590543879069 -0.30249532438692411 0 -0.15059032038081069 -0.30265460827929702 0 -0.15494621744832679 -0.29495785470712621 0 -0.15059032038081069 -0.30265460827929702 0 -0.14932010372001761 -0.2966878906792591 0 -0.15494621744832679 -0.29495785470712621 0 -0.15059032038081069 -0.30265460827929702 0 -0.1442296581259517 -0.29746681894468541 0 -0.1463989009099233 -0.30490427433925271 0 -0.15059032038081069 -0.30265460827929702 0 -0.1442296581259517 -0.29746681894468541 0 -0.14932010372001761 -0.2966878906792591 0 -0.1515700344601266 -0.30704756192871979 0 -0.1463989009099233 -0.30490427433925271 0 -0.14698778975663049 -0.31074448713145703 0 -0.14246216907929971 -0.30871358804650079 0 -0.12686712875989051 -0.30313635815196188 0 -0.1363500007268422 -0.32102390474885473 0 -0.14698778975663049 -0.31074448713145703 0 -0.12744458729130911 -0.28905287604481639 0 -0.14246216907929971 -0.30871358804650079 0 -0.14698778975663049 -0.31074448713145703 0 -0.12744458729130911 -0.28905287604481639 0 -0.14246216907929971 -0.30871358804650079 0 -0.12686712875989051 -0.30313635815196188 0 -0.12744458729130911 -0.28905287604481639 0 -0.12686712875989051 -0.30313635815196188 0 -0.1363500007268422 -0.32102390474885473 0 -0.1442296581259517 -0.29746681894468541 0 -0.1463989009099233 -0.30490427433925271 0 -0.13097713687326751 -0.29020440782051249 0 -0.1442296581259517 -0.29746681894468541 0 -0.13097713687326751 -0.29020440782051249 0 -0.14341261091279611 -0.29189038788665089 0 -0.12744458729130911 -0.28905287604481639 0 -0.13097713687326751 -0.29020440782051249 0 -0.13541769521918459 -0.27125152268457148 0 -0.13097713687326751 -0.29020440782051249 0 -0.142205861672451 -0.28251361428813188 0 -0.13541769521918459 -0.27125152268457148 0 -0.14698778975663049 -0.31074448713145703 0 -0.12744458729130911 -0.28905287604481639 0 -0.13097713687326751 -0.29020440782051249 0 -0.13097713687326751 -0.29020440782051249 0 -0.142205861672451 -0.28251361428813188 0 -0.14341261091279611 -0.29189038788665089 0 -0.142205861672451 -0.28251361428813188 0 -0.14341261091279611 -0.29189038788665089 0 -0.14950453222893531 -0.28781495931361128 0 -0.14341261091279611 -0.29189038788665089 0 -0.14932010372001761 -0.2966878906792591 0 -0.14950453222893531 -0.28781495931361128 0 -0.1442296581259517 -0.29746681894468541 0 -0.14341261091279611 -0.29189038788665089 0 -0.14932010372001761 -0.2966878906792591 0 -0.15976839788960021 -0.28561556360426787 0 -0.15494621744832679 -0.29495785470712621 0 -0.14950453222893531 -0.28781495931361128 0 -0.14932010372001761 -0.2966878906792591 0 -0.15494621744832679 -0.29495785470712621 0 -0.14950453222893531 -0.28781495931361128 0 -0.15976839788960021 -0.28561556360426787 0 -0.14950453222893531 -0.28781495931361128 0 -0.15244743197094801 -0.27315371652195092 0 -0.142205861672451 -0.28251361428813188 0 -0.15244743197094801 -0.27315371652195092 0 -0.13541769521918459 -0.27125152268457148 0 -0.15244743197094801 -0.27315371652195092 0 -0.13541769521918459 -0.27125152268457148 0 -0.1460684815191064 -0.26316310120597391 0 -0.142205861672451 -0.28251361428813188 0 -0.14950453222893531 -0.28781495931361128 0 -0.15244743197094801 -0.27315371652195092 0 -0.12744458729130911 -0.28905287604481639 0 -0.13541769521918459 -0.27125152268457148 0 -0.12275987696257511 -0.27238067418420397 0 -0.13097713687326751 -0.29020440782051249 0 -0.13541769521918459 -0.27125152268457148 0 -0.13541769521918459 -0.27125152268457148 0 -0.12067125428484581 -0.26197281544286061 0 -0.12275987696257511 -0.27238067418420397 0 -0.13541769521918459 -0.27125152268457148 0 -0.13985825356510179 -0.25229863754863058 0 -0.1460684815191064 -0.26316310120597391 0 -0.13541769521918459 -0.27125152268457148 0 -0.13985825356510179 -0.25229863754863058 0 -0.13007594383485011 -0.2583159744489088 0 -0.13985825356510179 -0.25229863754863058 0 -0.13007594383485011 -0.2583159744489088 0 -0.12392833461937661 -0.24881544536652669 0 -0.13985825356510179 -0.25229863754863058 0 -0.12392833461937661 -0.24881544536652669 0 -0.13541769521918459 -0.27125152268457148 0 -0.13985825356510179 -0.25229863754863058 0 -0.13541769521918459 -0.27125152268457148 0 -0.13007594383485011 -0.2583159744489088 0 -0.12067125428484581 -0.26197281544286061 0 -0.15655054532119131 -0.25594852806874291 0 -0.13985825356510179 -0.25229863754863058 0 -0.1460684815191064 -0.26316310120597391 0 -0.15655054532119131 -0.25594852806874291 0 -0.13985825356510179 -0.25229863754863058 0 -0.15655054532119131 -0.25594852806874291 0 -0.15244743197094801 -0.27315371652195092 0 -0.1460684815191064 -0.26316310120597391 0 -0.16078236446877989 -0.35182678770392661 0 -0.1740241773414867 -0.35834306830569351 0 -0.16761639886824389 -0.34282967483766308 0 -0.16078236446877989 -0.35182678770392661 0 -0.1652913631480562 -0.37413467769965919 0 -0.1740241773414867 -0.35834306830569351 0 -0.16078236446877989 -0.35182678770392661 0 -0.1652913631480562 -0.37413467769965919 0 -0.15002109858837859 -0.3633668486046413 0 -0.18328979851033331 -0.376650521782189 0 -0.1652913631480562 -0.37413467769965919 0 -0.1740241773414867 -0.35834306830569351 0 -0.18328979851033331 -0.376650521782189 0 -0.19022216786557261 -0.35908851427606742 0 -0.1740241773414867 -0.35834306830569351 0 -0.19022216786557261 -0.35908851427606742 0 -0.1740241773414867 -0.35834306830569351 0 -0.17767996070576081 -0.34481068671233878 0 -0.1740241773414867 -0.35834306830569351 0 -0.17767996070576081 -0.34481068671233878 0 -0.16761639886824389 -0.34282967483766308 0 -0.19233682909267419 -0.32149150229324241 0 -0.17767996070576081 -0.34481068671233878 0 -0.16653099222195131 -0.33243609821809822 0 -0.17767996070576081 -0.34481068671233878 0 -0.16653099222195131 -0.33243609821809822 0 -0.19233682909267419 -0.32149150229324241 0 -0.16653099222195131 -0.33243609821809822 0 -0.19233682909267419 -0.32149150229324241 0 -0.17937197063049201 -0.30572842090364438 0 -0.173130857891234 -0.31701940473820189 0 -0.19233682909267419 -0.32149150229324241 0 -0.173130857891234 -0.31701940473820189 0 -0.16653099222195131 -0.33243609821809822 0 -0.14698778975663049 -0.31074448713145703 0 -0.1620541590512562 -0.3166245176725363 0 -0.16653099222195131 -0.33243609821809822 0 -0.173130857891234 -0.31701940473820189 0 -0.1620541590512562 -0.3166245176725363 0 -0.16653099222195131 -0.33243609821809822 0 -0.14698778975663049 -0.31074448713145703 0 -0.16653099222195131 -0.33243609821809822 0 -0.16624177890124189 -0.30866209935785471 0 -0.173130857891234 -0.31701940473820189 0 -0.1620541590512562 -0.3166245176725363 0 -0.16078236446877989 -0.35182678770392661 0 -0.16761639886824389 -0.34282967483766308 0 -0.1615850618015027 -0.33453373257095909 0 -0.16761639886824389 -0.34282967483766308 0 -0.16653099222195131 -0.33243609821809822 0 -0.1615850618015027 -0.33453373257095909 0 -0.17767996070576081 -0.34481068671233878 0 -0.16761639886824389 -0.34282967483766308 0 -0.16653099222195131 -0.33243609821809822 0 -0.16653099222195131 -0.33243609821809822 0 -0.1615850618015027 -0.33453373257095909 0 -0.16653099222195131 -0.33243609821809822 0 -0.1615850618015027 -0.33453373257095909 0 -0.15276328840759079 -0.32357371917413458 0 -0.16078236446877989 -0.35182678770392661 0 -0.1615850618015027 -0.33453373257095909 0 -0.14624163383383909 -0.33604021832557102 0 -0.1615850618015027 -0.33453373257095909 0 -0.14624163383383909 -0.33604021832557102 0 -0.15276328840759079 -0.32357371917413458 0 -0.14246216907929971 -0.30871358804650079 0 -0.14624163383383909 -0.33604021832557102 0 -0.14246216907929971 -0.30871358804650079 0 -0.14624163383383909 -0.33604021832557102 0 -0.15276328840759079 -0.32357371917413458 0 -0.14698778975663049 -0.31074448713145703 0 -0.16653099222195131 -0.33243609821809822 0 -0.15276328840759079 -0.32357371917413458 0 -0.14246216907929971 -0.30871358804650079 0 -0.14624163383383909 -0.33604021832557102 0 -0.1363500007268422 -0.32102390474885473 0 -0.14246216907929971 -0.30871358804650079 0 -0.14698778975663049 -0.31074448713145703 0 -0.15276328840759079 -0.32357371917413458 0 -0.12686712875989051 -0.30313635815196188 0 -0.1363500007268422 -0.32102390474885473 0 -0.12288883648924739 -0.3157348334364638 0 -0.1363500007268422 -0.32102390474885473 0 -0.12687128613383919 -0.33111054837442938 0 -0.12288883648924739 -0.3157348334364638 0 -0.14624163383383909 -0.33604021832557102 0 -0.1363500007268422 -0.32102390474885473 0 -0.12687128613383919 -0.33111054837442938 0 -0.14624163383383909 -0.33604021832557102 0 -0.12687128613383919 -0.33111054837442938 0 -0.12427614837407031 -0.3479258825153998 0 -0.14624163383383909 -0.33604021832557102 0 -0.13355319818649891 -0.36065321629738578 0 -0.12427614837407031 -0.3479258825153998 0 -0.14624163383383909 -0.33604021832557102 0 -0.15002109858837859 -0.3633668486046413 0 -0.16078236446877989 -0.35182678770392661 0 -0.14624163383383909 -0.33604021832557102 0 -0.15002109858837859 -0.3633668486046413 0 -0.14624163383383909 -0.33604021832557102 0 -0.15002109858837859 -0.3633668486046413 0 -0.13355319818649891 -0.36065321629738578 0 -0.13111919527464341 -0.38402542691014502 0 -0.15002109858837859 -0.3633668486046413 0 -0.13355319818649891 -0.36065321629738578 0 -0.13111919527464341 -0.38402542691014502 0 -0.13355319818649891 -0.36065321629738578 0 -0.1161079148615633 -0.37190770513117222 0 -0.13355319818649891 -0.36065321629738578 0 -0.1161079148615633 -0.37190770513117222 0 -0.12427614837407031 -0.3479258825153998 0 -0.1161079148615633 -0.37190770513117222 0 -0.10416430545910441 -0.3549968067000116 0 -0.099141066207919515 -0.37624812255434859 0 -0.10416430545910441 -0.3549968067000116 0 -0.088263090783689269 -0.36613754223582379 0 -0.099141066207919515 -0.37624812255434859 0 -0.10416430545910441 -0.3549968067000116 0 -0.10062137726918539 -0.33694609360430411 0 -0.08354745957996626 -0.34681903807742798 0 -0.10416430545910441 -0.3549968067000116 0 -0.113751857360376 -0.33936835802878268 0 -0.10062137726918539 -0.33694609360430411 0 -0.1161079148615633 -0.37190770513117222 0 -0.10416430545910441 -0.3549968067000116 0 -0.12427614837407031 -0.3479258825153998 0 -0.10416430545910441 -0.3549968067000116 0 -0.12427614837407031 -0.3479258825153998 0 -0.113751857360376 -0.33936835802878268 0 -0.12687128613383919 -0.33111054837442938 0 -0.12427614837407031 -0.3479258825153998 0 -0.113751857360376 -0.33936835802878268 0 -0.12687128613383919 -0.33111054837442938 0 -0.113751857360376 -0.33936835802878268 0 -0.1128261695656807 -0.32586245894976879 0 -0.12687128613383919 -0.33111054837442938 0 -0.12288883648924739 -0.3157348334364638 0 -0.1128261695656807 -0.32586245894976879 0 -0.12288883648924739 -0.3157348334364638 0 -0.1128261695656807 -0.32586245894976879 0 -0.1097109930112472 -0.31302981184260997 0 -0.1128261695656807 -0.32586245894976879 0 -0.098207907366630126 -0.31942083123976539 0 -0.10062137726918539 -0.33694609360430411 0 -0.1128261695656807 -0.32586245894976879 0 -0.1097109930112472 -0.31302981184260997 0 -0.098207907366630126 -0.31942083123976539 0 -0.098207907366630126 -0.31942083123976539 0 -0.10062137726918539 -0.33694609360430411 0 -0.082574997342810527 -0.32984560541325542 0 -0.113751857360376 -0.33936835802878268 0 -0.1128261695656807 -0.32586245894976879 0 -0.10062137726918539 -0.33694609360430411 0 -0.10062137726918539 -0.33694609360430411 0 -0.082574997342810527 -0.32984560541325542 0 -0.08354745957996626 -0.34681903807742798 0 -0.098207907366630126 -0.31942083123976539 0 -0.082574997342810527 -0.32984560541325542 0 -0.084270918660434638 -0.31067131936535741 0 -0.082574997342810527 -0.32984560541325542 0 -0.070015214384394092 -0.31838720451062669 0 -0.084270918660434638 -0.31067131936535741 0 -0.082574997342810527 -0.32984560541325542 0 -0.064084453882915421 -0.34074578992250198 0 -0.08354745957996626 -0.34681903807742798 0 -0.082574997342810527 -0.32984560541325542 0 -0.070015214384394092 -0.31838720451062669 0 -0.064084453882915421 -0.34074578992250198 0 -0.070015214384394092 -0.31838720451062669 0 -0.064084453882915421 -0.34074578992250198 0 -0.064084453882915421 -0.34074578992250198 0 -0.074172529629499093 -0.35977598013852119 0 -0.058153693381436757 -0.36310437533437728 0 -0.064084453882915421 -0.34074578992250198 0 -0.074172529629499093 -0.35977598013852119 0 -0.08354745957996626 -0.34681903807742798 0 -0.074172529629499093 -0.35977598013852119 0 -0.058153693381436757 -0.36310437533437728 0 -0.076813950519487764 -0.38207315512247447 0 -0.074172529629499093 -0.35977598013852119 0 -0.088263090783689269 -0.36613754223582379 0 -0.076813950519487764 -0.38207315512247447 0 -0.088263090783689269 -0.36613754223582379 0 -0.099141066207919515 -0.37624812255434859 0 -0.076813950519487764 -0.38207315512247447 0 -0.10416430545910441 -0.3549968067000116 0 -0.088263090783689269 -0.36613754223582379 0 -0.08354745957996626 -0.34681903807742798 0 -0.074172529629499093 -0.35977598013852119 0 -0.088263090783689269 -0.36613754223582379 0 -0.08354745957996626 -0.34681903807742798 0 -0.111590285685638 -0.25422648743766318 0 -0.1079013848259873 -0.26736126495817603 0 -0.097452039024329376 -0.24765065823633031 0 -0.1079013848259873 -0.26736126495817603 0 -0.097452039024329376 -0.24765065823633031 0 -0.099070065752275227 -0.25755910796425813 0 -0.1079013848259873 -0.26736126495817603 0 -0.097452039024329376 -0.24765065823633031 0 -0.099070065752275227 -0.25755910796425813 0 -0.090004745522084956 -0.25820572201722269 0 -0.097452039024329376 -0.24765065823633031 0 -0.099070065752275227 -0.25755910796425813 0 -0.1079013848259873 -0.26736126495817603 0 -0.095527191966038927 -0.26817412105299859 0 -0.099070065752275227 -0.25755910796425813 0 -0.095527191966038927 -0.26817412105299859 0 -0.090004745522084956 -0.25820572201722269 0 -0.099070065752275227 -0.25755910796425813 0 -0.1079013848259873 -0.26736126495817603 0 -0.13007594383485011 -0.2583159744489088 0 -0.12067125428484581 -0.26197281544286061 0 -0.12392833461937661 -0.24881544536652669 0 -0.111590285685638 -0.25422648743766318 0 -0.12067125428484581 -0.26197281544286061 0 -0.12392833461937661 -0.24881544536652669 0 -0.111590285685638 -0.25422648743766318 0 -0.12067125428484581 -0.26197281544286061 0 -0.1079013848259873 -0.26736126495817603 0 -0.103576969040994 -0.27735146343964018 0 -0.1079013848259873 -0.26736126495817603 0 -0.11738425679293869 -0.28524881155506909 0 -0.12744458729130911 -0.28905287604481639 0 -0.1079013848259873 -0.26736126495817603 0 -0.1079013848259873 -0.26736126495817603 0 -0.11738425679293869 -0.28524881155506909 0 -0.12744458729130911 -0.28905287604481639 0 -0.1079013848259873 -0.26736126495817603 0 -0.11738425679293869 -0.28524881155506909 0 -0.12744458729130911 -0.28905287604481639 0 -0.12275987696257511 -0.27238067418420397 0 -0.1079013848259873 -0.26736126495817603 0 -0.12067125428484581 -0.26197281544286061 0 -0.12275987696257511 -0.27238067418420397 0 -0.1079013848259873 -0.26736126495817603 0 -0.103576969040994 -0.27735146343964018 0 -0.1079013848259873 -0.26736126495817603 0 -0.095527191966038927 -0.26817412105299859 0 -0.103576969040994 -0.27735146343964018 0 -0.095527191966038927 -0.26817412105299859 0 -0.094527941106368668 -0.27868610332017879 0 -0.103576969040994 -0.27735146343964018 0 -0.094527941106368668 -0.27868610332017879 0 -0.1025440705136365 -0.28728701631177861 0 -0.094527941106368668 -0.27868610332017879 0 -0.1025440705136365 -0.28728701631177861 0 -0.090570175274794287 -0.28844075799243651 0 -0.1025440705136365 -0.28728701631177861 0 -0.096859342173517549 -0.30005318489526811 0 -0.090570175274794287 -0.28844075799243651 0 -0.1025440705136365 -0.28728701631177861 0 -0.111781173473776 -0.2953890800013535 0 -0.096859342173517549 -0.30005318489526811 0 -0.103576969040994 -0.27735146343964018 0 -0.1025440705136365 -0.28728701631177861 0 -0.11738425679293869 -0.28524881155506909 0 -0.12686712875989051 -0.30313635815196188 0 -0.11738425679293869 -0.28524881155506909 0 -0.12686712875989051 -0.30313635815196188 0 -0.12744458729130911 -0.28905287604481639 0 -0.11738425679293869 -0.28524881155506909 0 -0.12686712875989051 -0.30313635815196188 0 -0.11738425679293869 -0.28524881155506909 0 -0.111781173473776 -0.2953890800013535 0 -0.1025440705136365 -0.28728701631177861 0 -0.11738425679293869 -0.28524881155506909 0 -0.111781173473776 -0.2953890800013535 0 -0.12686712875989051 -0.30313635815196188 0 -0.111781173473776 -0.2953890800013535 0 -0.1177727094611601 -0.30407775069178411 0 -0.12686712875989051 -0.30313635815196188 0 -0.12288883648924739 -0.3157348334364638 0 -0.1177727094611601 -0.30407775069178411 0 -0.12288883648924739 -0.3157348334364638 0 -0.1097109930112472 -0.31302981184260997 0 -0.1177727094611601 -0.30407775069178411 0 -0.111781173473776 -0.2953890800013535 0 -0.1177727094611601 -0.30407775069178411 0 -0.096859342173517549 -0.30005318489526811 0 -0.1097109930112472 -0.31302981184260997 0 -0.1177727094611601 -0.30407775069178411 0 -0.096859342173517549 -0.30005318489526811 0 -0.1097109930112472 -0.31302981184260997 0 -0.098207907366630126 -0.31942083123976539 0 -0.096859342173517549 -0.30005318489526811 0 -0.1177727094611601 -0.30407775069178411 0 -0.096859342173517549 -0.30005318489526811 0 -0.098207907366630126 -0.31942083123976539 0 -0.096859342173517549 -0.30005318489526811 0 -0.084270918660434638 -0.31067131936535741 0 -0.096859342173517549 -0.30005318489526811 0 -0.084270918660434638 -0.31067131936535741 0 -0.07594597488587515 -0.296028619098752 0 -0.096859342173517549 -0.30005318489526811 0 -0.07594597488587515 -0.296028619098752 0 -0.070015214384394092 -0.31838720451062669 0 -0.084270918660434638 -0.31067131936535741 0 -0.07594597488587515 -0.296028619098752 0 -0.070015214384394092 -0.31838720451062669 0 -0.07594597488587515 -0.296028619098752 0 -0.070015214384394092 -0.31838720451062669 0 -0.07594597488587515 -0.296028619098752 0 -0.060697731147791333 -0.30489326026231323 0 -0.07594597488587515 -0.296028619098752 0 -0.051893481132305443 -0.29139996019604508 0 -0.060697731147791333 -0.30489326026231323 0 -0.07594597488587515 -0.296028619098752 0 -0.051893481132305443 -0.29139996019604508 0 -0.07594597488587515 -0.296028619098752 0 -0.080090233202966613 -0.28040503195027111 0 -0.071924828490649143 -0.27881092538746749 0 -0.07594597488587515 -0.296028619098752 0 -0.062841185942207986 -0.2812947373565709 0 -0.051893481132305443 -0.29139996019604508 0 -0.07594597488587515 -0.296028619098752 0 -0.062841185942207986 -0.2812947373565709 0 -0.071924828490649143 -0.27881092538746749 0 -0.07594597488587515 -0.296028619098752 0 -0.080090233202966613 -0.28040503195027111 0 -0.07594597488587515 -0.296028619098752 0 -0.083537208174602889 -0.28659648022601142 0 -0.080090233202966613 -0.28040503195027111 0 -0.096859342173517549 -0.30005318489526811 0 -0.07594597488587515 -0.296028619098752 0 -0.090570175274794287 -0.28844075799243651 0 -0.083537208174602889 -0.28659648022601142 0 -0.08754244933477548 -0.28151151186258588 0 -0.080090233202966613 -0.28040503195027111 0 -0.07594597488587515 -0.296028619098752 0 -0.083537208174602889 -0.28659648022601142 0 -0.090570175274794287 -0.28844075799243651 0 -0.094527941106368668 -0.27868610332017879 0 -0.090570175274794287 -0.28844075799243651 0 -0.08754244933477548 -0.28151151186258588 0 -0.083537208174602889 -0.28659648022601142 0 -0.090570175274794287 -0.28844075799243651 0 -0.08754244933477548 -0.28151151186258588 0 -0.095527191966038927 -0.26817412105299859 0 -0.094527941106368668 -0.27868610332017879 0 -0.088138455352306494 -0.27424467798692642 0 -0.094527941106368668 -0.27868610332017879 0 -0.08754244933477548 -0.28151151186258588 0 -0.088138455352306494 -0.27424467798692642 0 -0.095527191966038927 -0.26817412105299859 0 -0.088138455352306494 -0.27424467798692642 0 -0.08423449152006042 -0.26478144480179078 0 -0.088138455352306494 -0.27424467798692642 0 -0.080090233202966613 -0.28040503195027111 0 -0.08423449152006042 -0.26478144480179078 0 -0.079304024245341637 -0.27496872811722772 0 -0.080090233202966613 -0.28040503195027111 0 -0.08423449152006042 -0.26478144480179078 0 -0.080090233202966613 -0.28040503195027111 0 -0.08423449152006042 -0.26478144480179078 0 -0.08754244933477548 -0.28151151186258588 0 -0.088138455352306494 -0.27424467798692642 0 -0.080090233202966613 -0.28040503195027111 0 -0.079304024245341637 -0.27496872811722772 0 -0.071924828490649143 -0.27881092538746749 0 -0.066993724312258113 -0.2670932674520976 0 -0.079304024245341637 -0.27496872811722772 0 -0.080090233202966613 -0.28040503195027111 0 -0.071924828490649143 -0.27881092538746749 0 -0.062841185942207986 -0.2812947373565709 0 -0.071924828490649143 -0.27881092538746749 0 -0.066993724312258113 -0.2670932674520976 0 -0.066993724312258113 -0.2670932674520976 0 -0.073739939347721106 -0.25286327803073722 0 -0.053303352711674121 -0.25735584332364658 0 -0.079304024245341637 -0.27496872811722772 0 -0.073739939347721106 -0.25286327803073722 0 -0.073739939347721106 -0.25286327803073722 0 -0.053303352711674121 -0.25735584332364658 0 -0.079304024245341637 -0.27496872811722772 0 -0.066993724312258113 -0.2670932674520976 0 -0.073739939347721106 -0.25286327803073722 0 -0.079304024245341637 -0.27496872811722772 0 -0.073739939347721106 -0.25286327803073722 0 -0.08423449152006042 -0.26478144480179078 0 -0.073739939347721106 -0.25286327803073722 0 -0.090004745522084956 -0.25820572201722269 0 -0.097452039024329376 -0.24765065823633031 0 -0.073739939347721106 -0.25286327803073722 0 -0.08423449152006042 -0.26478144480179078 0 -0.090004745522084956 -0.25820572201722269 0 -0.073739939347721106 -0.25286327803073722 0 -0.097452039024329376 -0.24765065823633031 0 -0.095527191966038927 -0.26817412105299859 0 -0.08423449152006042 -0.26478144480179078 0 -0.090004745522084956 -0.25820572201722269 0 -0.032866766075627447 -0.26184840861655723 0 -0.053303352711674121 -0.25735584332364658 0 -0.047309779577936688 -0.27417268798260153 0 -0.032866766075627447 -0.26184840861655723 0 -0.053303352711674121 -0.25735584332364658 0 -0.033409875725189032 -0.24714682933774931 0 -0.032866766075627447 -0.26184840861655723 0 -0.053303352711674121 -0.25735584332364658 0 -0.073739939347721106 -0.25286327803073722 0 -0.053303352711674121 -0.25735584332364658 0 -0.059463529516841633 -0.2444935303323712 0 -0.062841185942207986 -0.2812947373565709 0 -0.066993724312258113 -0.2670932674520976 0 -0.047309779577936688 -0.27417268798260153 0 -0.066993724312258113 -0.2670932674520976 0 -0.053303352711674121 -0.25735584332364658 0 -0.047309779577936688 -0.27417268798260153 0 -0.032866766075627447 -0.26184840861655723 0 -0.047309779577936688 -0.27417268798260153 0 -0.027840987378735749 -0.28677130129333811 0 -0.051893481132305443 -0.29139996019604508 0 -0.037369415246219687 -0.30678561135837662 0 -0.027840987378735749 -0.28677130129333811 0 -0.047309779577936688 -0.27417268798260153 0 -0.051893481132305443 -0.29139996019604508 0 -0.027840987378735749 -0.28677130129333811 0 -0.051893481132305443 -0.29139996019604508 0 -0.027840987378735749 -0.28677130129333811 0 -0.062841185942207986 -0.2812947373565709 0 -0.047309779577936688 -0.27417268798260153 0 -0.051893481132305443 -0.29139996019604508 0 -0.060697731147791333 -0.30489326026231323 0 -0.037369415246219687 -0.30678561135837662 0 -0.051336348141894542 -0.32077923693006621 0 -0.051893481132305443 -0.29139996019604508 0 -0.060697731147791333 -0.30489326026231323 0 -0.037369415246219687 -0.30678561135837662 0 -0.037369415246219687 -0.30678561135837662 0 -0.016454122502099999 -0.3020627145310863 0 -0.019498493816837138 -0.31852792261051271 0 -0.037369415246219687 -0.30678561135837662 0 -0.016454122502099999 -0.3020627145310863 0 -0.027840987378735749 -0.28677130129333811 0 -0.0039570117367291246 -0.28663325809943901 0 -0.0050046504452801862 -0.31455039292922921 0 -0.016454122502099999 -0.3020627145310863 0 -0.0039570117367291246 -0.28663325809943901 0 -0.0050046504452801862 -0.31455039292922921 0 -0.0039570117367291246 -0.28663325809943901 0 -0.0050046504452801862 -0.31455039292922921 0 0.0014857439162202829 -0.30163961953822932 0 -0.016454122502099999 -0.3020627145310863 0 -0.019498493816837138 -0.31852792261051271 0 -0.0050046504452801862 -0.31455039292922921 0 -0.0037884936251661042 -0.28214264239063092 0 -0.0039570117367291246 -0.28663325809943901 0 -0.027840987378735749 -0.28677130129333811 0 -0.016454122502099999 -0.3020627145310863 0 -0.0039570117367291246 -0.28663325809943901 0 -0.0039570117367291246 -0.28663325809943901 0 0.0014857439162202829 -0.30163961953822932 0 0.0014310531297864919 -0.29324006875599529 0 -0.0037884936251661042 -0.28214264239063092 0 -0.0039570117367291246 -0.28663325809943901 0 0.000320648496330543 -0.28135187959247648 0 -0.0037884936251661042 -0.28214264239063092 0 0.000320648496330543 -0.28135187959247648 0 -0.0039570117367291246 -0.28663325809943901 0 0.000320648496330543 -0.28135187959247648 0 0.0015919351063143729 -0.28595620194625088 0 -0.0039570117367291246 -0.28663325809943901 0 0.000320648496330543 -0.28135187959247648 0 -0.0037884936251661042 -0.28214264239063092 0 -0.0039570117367291246 -0.28663325809943901 0 -0.0039570117367291246 -0.28663325809943901 0 0.0015919351063143729 -0.28595620194625088 0 0.0014310531297864919 -0.29324006875599529 0 -0.0037884936251661042 -0.28214264239063092 0 -0.027840987378735749 -0.28677130129333811 0 -0.016454122502099999 -0.3020627145310863 0 -0.0039570117367291246 -0.28663325809943901 0 -0.027840987378735749 -0.28677130129333811 0 -0.032866766075627447 -0.26184840861655723 0 -0.027840987378735749 -0.28677130129333811 0 -0.017039146829940899 -0.27220829649971828 0 -0.0037884936251661042 -0.28214264239063092 0 -0.027840987378735749 -0.28677130129333811 0 -0.017039146829940899 -0.27220829649971828 0 -0.0037884936251661042 -0.28214264239063092 0 -0.017039146829940899 -0.27220829649971828 0 -0.0031700831309584491 -0.26566344111058909 0 -0.0037884936251661042 -0.28214264239063092 0 -0.0031700831309584491 -0.26566344111058909 0 -0.0037884936251661042 -0.28214264239063092 0 -0.0031700831309584491 -0.26566344111058909 0 0.000320648496330543 -0.28135187959247648 0 -0.0031700831309584491 -0.26566344111058909 0 -0.002551672636748862 -0.24918423983054741 0 -0.017039146829940899 -0.27220829649971828 0 -0.0031700831309584491 -0.26566344111058909 0 -0.016464216111145132 -0.25837858969154631 0 -0.0031700831309584491 -0.26566344111058909 0 -0.016464216111145132 -0.25837858969154631 0 -0.0077953493217402248 -0.2488817209900118 0 -0.0031700831309584491 -0.26566344111058909 0 -0.0077953493217402248 -0.2488817209900118 0 -0.002551672636748862 -0.24918423983054741 0 -0.016464216111145132 -0.25837858969154631 0 -0.01512674604055105 -0.24763354146040639 0 -0.0077953493217402248 -0.2488817209900118 0 -0.032866766075627447 -0.26184840861655723 0 -0.017039146829940899 -0.27220829649971828 0 -0.016464216111145132 -0.25837858969154631 0 -0.023277962165551749 -0.25018495043514821 0 -0.016464216111145132 -0.25837858969154631 0 -0.01512674604055105 -0.24763354146040639 0 -0.032866766075627447 -0.26184840861655723 0 -0.023277962165551749 -0.25018495043514821 0 -0.016464216111145132 -0.25837858969154631 0 -0.032866766075627447 -0.26184840861655723 0 -0.023277962165551749 -0.25018495043514821 0 -0.033409875725189032 -0.24714682933774931 0 -0.034577269990089372 -0.35037677229683672 0 -0.036542548243423512 -0.37398017811882178 0 -0.034577269990089372 -0.35037677229683672 0 -0.036542548243423512 -0.37398017811882178 0 -0.058153693381436757 -0.36310437533437728 0 -0.036542548243423512 -0.37398017811882178 0 -0.058153693381436757 -0.36310437533437728 0 -0.055980648636277427 -0.38470280053580103 0 -0.034577269990089372 -0.35037677229683672 0 -0.058153693381436757 -0.36310437533437728 0 -0.048152751426618262 -0.34035590819172667 0 -0.064084453882915421 -0.34074578992250198 0 -0.058153693381436757 -0.36310437533437728 0 -0.064084453882915421 -0.34074578992250198 0 -0.058153693381436757 -0.36310437533437728 0 -0.048152751426618262 -0.34035590819172667 0 -0.064084453882915421 -0.34074578992250198 0 -0.048152751426618262 -0.34035590819172667 0 -0.051336348141894542 -0.32077923693006621 0 -0.070015214384394092 -0.31838720451062669 0 -0.060697731147791333 -0.30489326026231323 0 -0.051336348141894542 -0.32077923693006621 0 -0.070015214384394092 -0.31838720451062669 0 -0.064084453882915421 -0.34074578992250198 0 -0.051336348141894542 -0.32077923693006621 0 -0.037369415246219687 -0.30678561135837662 0 -0.051336348141894542 -0.32077923693006621 0 -0.032611991736755219 -0.32677336647485139 0 -0.048152751426618262 -0.34035590819172667 0 -0.051336348141894542 -0.32077923693006621 0 -0.032611991736755219 -0.32677336647485139 0 -0.034577269990089372 -0.35037677229683672 0 -0.032611991736755219 -0.32677336647485139 0 -0.034577269990089372 -0.35037677229683672 0 -0.048152751426618262 -0.34035590819172667 0 -0.032611991736755219 -0.32677336647485139 0 -0.034577269990089372 -0.35037677229683672 0 -0.032611991736755219 -0.32677336647485139 0 -0.006052289153830593 -0.34246752775901951 0 -0.032611991736755219 -0.32677336647485139 0 -0.019498493816837138 -0.31852792261051271 0 -0.006052289153830593 -0.34246752775901951 0 -0.037369415246219687 -0.30678561135837662 0 -0.032611991736755219 -0.32677336647485139 0 -0.019498493816837138 -0.31852792261051271 0 -0.019498493816837138 -0.31852792261051271 0 -0.0050046504452801862 -0.31455039292922921 0 -0.006052289153830593 -0.34246752775901951 0 -0.0050046504452801862 -0.31455039292922921 0 -0.006052289153830593 -0.34246752775901951 0 0.0061281706768574404 -0.3253655865646834 0 -0.0050046504452801862 -0.31455039292922921 0 -0.006052289153830593 -0.34246752775901951 0 -0.006052289153830593 -0.34246752775901951 0 -0.0070999278623810006 -0.37038466258880981 0 -0.034577269990089372 -0.35037677229683672 0 -0.006052289153830593 -0.34246752775901951 0 -0.0070999278623810006 -0.37038466258880981 0 -0.034577269990089372 -0.35037677229683672 0 -0.036542548243423512 -0.37398017811882178 0 -0.0070999278623810006 -0.37038466258880981 0 -0.0070999278623810006 -0.37038466258880981 0 -0.01216542415599588 -0.38671944024233462 0 -0.023073579713287991 -0.38803718823356548 0 -0.0070999278623810006 -0.37038466258880981 0 -0.0032689191707280219 -0.38784704684875643 0 -0.01216542415599588 -0.38671944024233462 0 -0.0032689191707280219 -0.38784704684875643 0 -0.01216542415599588 -0.38671944024233462 0 -0.014666816596663379 -0.39511527881692848 0 -0.010095241589031939 -0.4043639430644913 0 -0.0095337109306492807 -0.40272904022114497 0 0.0081381410838362658 -0.39426642413936558 0 -0.010095241589031939 -0.4043639430644913 0 0.0081381410838362658 -0.39426642413936558 0 -0.0032689191707280219 -0.38784704684875643 0 -0.0095337109306492807 -0.40272904022114497 0 0.0081381410838362658 -0.39426642413936558 0 -0.0032689191707280219 -0.38784704684875643 0 -0.014666816596663379 -0.39511527881692848 0 -0.0095337109306492807 -0.40272904022114497 0 -0.014666816596663379 -0.39511527881692848 0 -0.0095337109306492807 -0.40272904022114497 0 -0.01575745655659087 -0.40151489597590828 0 -0.010095241589031939 -0.4043639430644913 0 -0.0095337109306492807 -0.40272904022114497 0 -0.01575745655659087 -0.40151489597590828 0 -0.010095241589031939 -0.4043639430644913 0 -0.0095337109306492807 -0.40272904022114497 0 -0.010095241589031939 -0.4043639430644913 0 -0.02108549491961078 -0.40443439002349862 0 -0.01575745655659087 -0.40151489597590828 0 -0.014666816596663379 -0.39511527881692848 0 -0.01575745655659087 -0.40151489597590828 0 -0.022974710195633109 -0.39902642192949772 0 -0.02108549491961078 -0.40443439002349862 0 -0.01575745655659087 -0.40151489597590828 0 -0.022974710195633109 -0.39902642192949772 0 -0.014666816596663379 -0.39511527881692848 0 -0.022974710195633109 -0.39902642192949772 0 -0.023073579713287991 -0.38803718823356548 0 -0.022974710195633109 -0.39902642192949772 0 -0.023073579713287991 -0.38803718823356548 0 -0.038507826496757651 -0.39758358394080701 0 -0.02108549491961078 -0.40443439002349862 0 -0.022974710195633109 -0.39902642192949772 0 -0.030473632280652072 -0.40577191032583809 0 -0.022974710195633109 -0.39902642192949772 0 -0.030473632280652072 -0.40577191032583809 0 -0.038507826496757651 -0.39758358394080701 0 -0.036542548243423512 -0.37398017811882178 0 -0.0070999278623810006 -0.37038466258880981 0 -0.023073579713287991 -0.38803718823356548 0 -0.01216542415599588 -0.38671944024233462 0 -0.014666816596663379 -0.39511527881692848 0 -0.023073579713287991 -0.38803718823356548 0 -0.036542548243423512 -0.37398017811882178 0 -0.038507826496757651 -0.39758358394080701 0 -0.036542548243423512 -0.37398017811882178 0 -0.038507826496757651 -0.39758358394080701 0 -0.055980648636277427 -0.38470280053580103 0 -0.036542548243423512 -0.37398017811882178 0 -0.023073579713287991 -0.38803718823356548 0 -0.038507826496757651 -0.39758358394080701 0 -0.052706794026096647 -0.39855316680617181 0 -0.055980648636277427 -0.38470280053580103 0 -0.067103533805515758 -0.40066667366291581 0 -0.038507826496757651 -0.39758358394080701 0 -0.052706794026096647 -0.39855316680617181 0 -0.054555520476286562 -0.41266461536202148 0 -0.038507826496757651 -0.39758358394080701 0 -0.052706794026096647 -0.39855316680617181 0 -0.055980648636277427 -0.38470280053580103 0 -0.052706794026096647 -0.39855316680617181 0 -0.054555520476286562 -0.41266461536202148 0 -0.067103533805515758 -0.40066667366291581 0 -0.054803678750457642 -0.42912316072858647 0 -0.040473104750091193 -0.42118698976279212 0 -0.054803678750457642 -0.42912316072858647 0 -0.05537297556633633 -0.44169932571716342 0 -0.069134252750824632 -0.43705933169437999 0 -0.054803678750457642 -0.42912316072858647 0 -0.069134252750824632 -0.43705933169437999 0 -0.054803678750457642 -0.42912316072858647 0 -0.054555520476286562 -0.41266461536202148 0 -0.040473104750091193 -0.42118698976279212 0 -0.054803678750457642 -0.42912316072858647 0 -0.054555520476286562 -0.41266461536202148 0 -0.072750681953317242 -0.42000813505098661 0 -0.030473632280652072 -0.40577191032583809 0 -0.038507826496757651 -0.39758358394080701 0 -0.040473104750091193 -0.42118698976279212 0 -0.040473104750091193 -0.42118698976279212 0 -0.028120846759602129 -0.43004187398067562 0 -0.025284173169561299 -0.41277546641364221 0 -0.038507826496757651 -0.39758358394080701 0 -0.040473104750091193 -0.42118698976279212 0 -0.038507826496757651 -0.39758358394080701 0 -0.054555520476286562 -0.41266461536202148 0 -0.040473104750091193 -0.42118698976279212 0 -0.030473632280652072 -0.40577191032583809 0 -0.040473104750091193 -0.42118698976279212 0 -0.025284173169561299 -0.41277546641364221 0 -0.040473104750091193 -0.42118698976279212 0 -0.025284173169561299 -0.41277546641364221 0 -0.040473104750091193 -0.42118698976279212 0 -0.042369428678535548 -0.44396223961713871 0 -0.033767272479226007 -0.43922137658094368 0 -0.054803678750457642 -0.42912316072858647 0 -0.040473104750091193 -0.42118698976279212 0 -0.042369428678535548 -0.44396223961713871 0 -0.040473104750091193 -0.42118698976279212 0 -0.042369428678535548 -0.44396223961713871 0 -0.040473104750091193 -0.42118698976279212 0 -0.028120846759602129 -0.43004187398067562 0 -0.033767272479226007 -0.43922137658094368 0 -0.01652887059874477 -0.4230955264678119 0 -0.022962499608458951 -0.44182710987113188 0 -0.028120846759602129 -0.43004187398067562 0 -0.01652887059874477 -0.4230955264678119 0 -0.025284173169561299 -0.41277546641364221 0 -0.028120846759602129 -0.43004187398067562 0 -0.02840915487679058 -0.43898758023187162 0 -0.022962499608458951 -0.44182710987113188 0 -0.028120846759602129 -0.43004187398067562 0 -0.01652887059874477 -0.4230955264678119 0 -0.022962499608458951 -0.44182710987113188 0 -0.01652887059874477 -0.4230955264678119 0 -0.01099706258334647 -0.43546615713206432 0 -0.022962499608458951 -0.44182710987113188 0 -0.028120846759602129 -0.43004187398067562 0 -0.02840915487679058 -0.43898758023187162 0 -0.033767272479226007 -0.43922137658094368 0 -0.010095241589031939 -0.4043639430644913 0 -0.01652887059874477 -0.4230955264678119 0 -0.025284173169561299 -0.41277546641364221 0 -0.02108549491961078 -0.40443439002349862 0 -0.030473632280652072 -0.40577191032583809 0 -0.025284173169561299 -0.41277546641364221 0 -0.010095241589031939 -0.4043639430644913 0 -0.02108549491961078 -0.40443439002349862 0 -0.025284173169561299 -0.41277546641364221 0 -0.010095241589031939 -0.4043639430644913 0 -0.025284173169561299 -0.41277546641364221 0 -0.010095241589031939 -0.4043639430644913 0 -0.01652887059874477 -0.4230955264678119 0 -0.0074445245816875351 -0.41687716278326509 0 -0.010095241589031939 -0.4043639430644913 0 -0.01652887059874477 -0.4230955264678119 0 -0.0074445245816875351 -0.41687716278326509 0 -0.001979991684668675 -0.42759904443131869 0 0.00025612791897663132 -0.41717800300300478 0 -0.0074445245816875351 -0.41687716278326509 0 -0.0040919387093841259 -0.41132293406626153 0 0.00025612791897663132 -0.41717800300300478 0 -0.0040919387093841259 -0.41132293406626153 0 0.00025612791897663132 -0.41717800300300478 0 0.0033072375369987321 -0.40645944597256622 0 -0.010095241589031939 -0.4043639430644913 0 -0.0074445245816875351 -0.41687716278326509 0 -0.0040919387093841259 -0.41132293406626153 0 -0.010095241589031939 -0.4043639430644913 0 -0.0040919387093841259 -0.41132293406626153 0 0.0033072375369987321 -0.40645944597256622 0 -0.01652887059874477 -0.4230955264678119 0 -0.01099706258334647 -0.43546615713206432 0 -0.001979991684668675 -0.42759904443131869 0 -0.01652887059874477 -0.4230955264678119 0 -0.0074445245816875351 -0.41687716278326509 0 -0.001979991684668675 -0.42759904443131869 0 -0.01099706258334647 -0.43546615713206432 0 -0.001979991684668675 -0.42759904443131869 0 -0.0016826269874589291 -0.44126704767427422 0 -0.01099706258334647 -0.43546615713206432 0 -0.0016826269874589291 -0.44126704767427422 0 -0.009360797471870257 -0.44891814729841312 0 -0.01099706258334647 -0.43546615713206432 0 -0.009360797471870257 -0.44891814729841312 0 -0.022962499608458951 -0.44182710987113188 0 -0.009360797471870257 -0.44891814729841312 0 0.0042409046647181644 -0.45600918472569513 0 -0.0016826269874589291 -0.44126704767427422 0 -0.009360797471870257 -0.44891814729841312 0 0.0042409046647181644 -0.45600918472569513 0 -0.009360797471870257 -0.44891814729841312 0 -0.0082919734208918572 -0.46099984523745441 0 0.0042409046647181644 -0.45600918472569513 0 -0.0082919734208918572 -0.46099984523745441 0 -0.001841178523428006 -0.47575028838721822 0 0.0042409046647181644 -0.45600918472569513 0 -0.0082919734208918572 -0.46099984523745441 0 -0.01733273373154488 -0.4682277352404457 0 -0.001841178523428006 -0.47575028838721822 0 -0.0082919734208918572 -0.46099984523745441 0 -0.017166062042334319 -0.45609387053549988 0 -0.01733273373154488 -0.4682277352404457 0 -0.009360797471870257 -0.44891814729841312 0 -0.0082919734208918572 -0.46099984523745441 0 -0.017166062042334319 -0.45609387053549988 0 -0.017166062042334319 -0.45609387053549988 0 -0.02977321650088716 -0.46165658889678718 0 -0.022962499608458951 -0.44182710987113188 0 -0.017166062042334319 -0.45609387053549988 0 -0.01733273373154488 -0.4682277352404457 0 -0.02977321650088716 -0.46165658889678718 0 -0.01733273373154488 -0.4682277352404457 0 -0.02977321650088716 -0.46165658889678718 0 -0.026350202463418959 -0.47378943370535509 0 -0.02977321650088716 -0.46165658889678718 0 -0.022962499608458951 -0.44182710987113188 0 -0.02977321650088716 -0.46165658889678718 0 -0.03080108369692543 -0.45021919491933338 0 -0.022962499608458951 -0.44182710987113188 0 -0.03080108369692543 -0.45021919491933338 0 -0.029310003934035229 -0.44335311403978528 0 -0.022962499608458951 -0.44182710987113188 0 -0.029310003934035229 -0.44335311403978528 0 -0.02840915487679058 -0.43898758023187162 0 -0.033767272479226007 -0.43922137658094368 0 -0.029310003934035229 -0.44335311403978528 0 -0.02840915487679058 -0.43898758023187162 0 -0.022962499608458951 -0.44182710987113188 0 -0.02840915487679058 -0.43898758023187162 0 -0.022962499608458951 -0.44182710987113188 0 -0.009360797471870257 -0.44891814729841312 0 -0.022962499608458951 -0.44182710987113188 0 -0.009360797471870257 -0.44891814729841312 0 -0.017166062042334319 -0.45609387053549988 0 -0.022962499608458951 -0.44182710987113188 0 -0.0079232617115688429 -0.49549139204874321 0 -0.001841178523428006 -0.47575028838721822 0 -0.021710926227927169 -0.48378734276174568 0 -0.0079232617115688429 -0.49549139204874321 0 -0.001841178523428006 -0.47575028838721822 0 -0.0079232617115688429 -0.49549139204874321 0 -0.025901493536125419 -0.5 0 0.002701892228864633 -0.5 0 -0.0079232617115688429 -0.49549139204874321 0 -0.001841178523428006 -0.47575028838721822 0 0.0019752836915401168 -0.48835755068953651 0 -0.0079232617115688429 -0.49549139204874321 0 0.002701892228864633 -0.5 0 0.0019752836915401168 -0.48835755068953651 0 -0.01733273373154488 -0.4682277352404457 0 -0.001841178523428006 -0.47575028838721822 0 -0.021710926227927169 -0.48378734276174568 0 -0.02977321650088716 -0.46165658889678718 0 -0.026350202463418959 -0.47378943370535509 0 -0.036583933393316642 -0.48148606792244208 0 -0.01733273373154488 -0.4682277352404457 0 -0.026350202463418959 -0.47378943370535509 0 -0.021710926227927169 -0.48378734276174568 0 -0.026350202463418959 -0.47378943370535509 0 -0.021710926227927169 -0.48378734276174568 0 -0.036583933393316642 -0.48148606792244208 0 -0.021710926227927169 -0.48378734276174568 0 -0.025901493536125419 -0.5 0 -0.036440237788198111 -0.49153343948585387 0 -0.0079232617115688429 -0.49549139204874321 0 -0.021710926227927169 -0.48378734276174568 0 -0.025901493536125419 -0.5 0 -0.036440237788198111 -0.49153343948585387 0 -0.046162076535423043 -0.48951273932583172 0 -0.054504879301115423 -0.5 0 -0.025901493536125419 -0.5 0 -0.036440237788198111 -0.49153343948585387 0 -0.054504879301115423 -0.5 0 -0.021710926227927169 -0.48378734276174568 0 -0.036440237788198111 -0.49153343948585387 0 -0.036583933393316642 -0.48148606792244208 0 -0.036440237788198111 -0.49153343948585387 0 -0.046162076535423043 -0.48951273932583172 0 -0.036583933393316642 -0.48148606792244208 0 -0.02977321650088716 -0.46165658889678718 0 -0.036583933393316642 -0.48148606792244208 0 -0.044265752606979292 -0.46673748947148508 0 -0.02977321650088716 -0.46165658889678718 0 -0.036583933393316642 -0.48148606792244208 0 -0.046162076535423043 -0.48951273932583172 0 -0.036583933393316642 -0.48148606792244208 0 -0.044265752606979292 -0.46673748947148508 0 -0.046162076535423043 -0.48951273932583172 0 -0.044265752606979292 -0.46673748947148508 0 -0.046162076535423043 -0.48951273932583172 0 -0.053544161986655688 -0.47732536682247823 0 -0.064461401220446427 -0.48351735489433872 0 -0.046162076535423043 -0.48951273932583172 0 -0.053544161986655688 -0.47732536682247823 0 -0.044265752606979292 -0.46673748947148508 0 -0.059287417583774052 -0.46953388359825737 0 -0.053544161986655688 -0.47732536682247823 0 -0.044265752606979292 -0.46673748947148508 0 -0.059287417583774052 -0.46953388359825737 0 -0.053544161986655688 -0.47732536682247823 0 -0.064461401220446427 -0.48351735489433872 0 -0.046162076535423043 -0.48951273932583172 0 -0.054504879301115423 -0.5 0 -0.064461401220446427 -0.48351735489433872 0 -0.03080108369692543 -0.45021919491933338 0 -0.042369428678535548 -0.44396223961713871 0 -0.033767272479226007 -0.43922137658094368 0 -0.03080108369692543 -0.45021919491933338 0 -0.029310003934035229 -0.44335311403978528 0 -0.033767272479226007 -0.43922137658094368 0 -0.02977321650088716 -0.46165658889678718 0 -0.03080108369692543 -0.45021919491933338 0 -0.044265752606979292 -0.46673748947148508 0 -0.03080108369692543 -0.45021919491933338 0 -0.042369428678535548 -0.44396223961713871 0 -0.044265752606979292 -0.46673748947148508 0 -0.042369428678535548 -0.44396223961713871 0 -0.044265752606979292 -0.46673748947148508 0 -0.042369428678535548 -0.44396223961713871 0 -0.044265752606979292 -0.46673748947148508 0 -0.059237123901245872 -0.45402436462484741 0 -0.059287417583774052 -0.46953388359825737 0 -0.044265752606979292 -0.46673748947148508 0 -0.059237123901245872 -0.45402436462484741 0 -0.042369428678535548 -0.44396223961713871 0 -0.059237123901245872 -0.45402436462484741 0 -0.05537297556633633 -0.44169932571716342 0 -0.059237123901245872 -0.45402436462484741 0 -0.05537297556633633 -0.44169932571716342 0 -0.069134252750824632 -0.43705933169437999 0 -0.054803678750457642 -0.42912316072858647 0 -0.042369428678535548 -0.44396223961713871 0 -0.05537297556633633 -0.44169932571716342 0 -0.077766578236155209 -0.4509780466006591 0 -0.069134252750824632 -0.43705933169437999 0 -0.08424433749071554 -0.43518735446900042 0 -0.059237123901245872 -0.45402436462484741 0 -0.077766578236155209 -0.4509780466006591 0 -0.069134252750824632 -0.43705933169437999 0 -0.059237123901245872 -0.45402436462484741 0 -0.077766578236155209 -0.4509780466006591 0 -0.075756384525736631 -0.46814450398627572 0 -0.059287417583774052 -0.46953388359825737 0 -0.059237123901245872 -0.45402436462484741 0 -0.075756384525736631 -0.46814450398627572 0 -0.077766578236155209 -0.4509780466006591 0 -0.075756384525736631 -0.46814450398627572 0 -0.092396136558077768 -0.46262876633192968 0 -0.077766578236155209 -0.4509780466006591 0 -0.092396136558077768 -0.46262876633192968 0 -0.091934375661522044 -0.44714782161470479 0 -0.077766578236155209 -0.4509780466006591 0 -0.091934375661522044 -0.44714782161470479 0 -0.08424433749071554 -0.43518735446900042 0 -0.091934375661522044 -0.44714782161470479 0 -0.1013926998180085 -0.43630473585034479 0 -0.08424433749071554 -0.43518735446900042 0 -0.054504879301115423 -0.5 0 -0.064461401220446427 -0.48351735489433872 0 -0.083108265066105247 -0.5 0 -0.059287417583774052 -0.46953388359825737 0 -0.075756384525736631 -0.46814450398627572 0 -0.064461401220446427 -0.48351735489433872 0 -0.075756384525736631 -0.46814450398627572 0 -0.064461401220446427 -0.48351735489433872 0 -0.091921744035980926 -0.48166859949508672 0 -0.075756384525736631 -0.46814450398627572 0 -0.092396136558077768 -0.46262876633192968 0 -0.091921744035980926 -0.48166859949508672 0 -0.064461401220446427 -0.48351735489433872 0 -0.091921744035980926 -0.48166859949508672 0 -0.083108265066105247 -0.5 0 -0.091921744035980926 -0.48166859949508672 0 -0.1109877335600462 -0.47305378788334362 0 -0.11171165083109511 -0.5 0 -0.091921744035980926 -0.48166859949508672 0 -0.083108265066105247 -0.5 0 -0.11171165083109511 -0.5 0 -0.092396136558077768 -0.46262876633192968 0 -0.091921744035980926 -0.48166859949508672 0 -0.1109877335600462 -0.47305378788334362 0 -0.12896729501594389 -0.48186460106281431 0 -0.1109877335600462 -0.47305378788334362 0 -0.11171165083109511 -0.5 0 -0.091934375661522044 -0.44714782161470479 0 -0.1071222525824482 -0.45260331638971191 0 -0.1013926998180085 -0.43630473585034479 0 -0.1071222525824482 -0.45260331638971191 0 -0.11872382667374071 -0.43964584133713308 0 -0.1013926998180085 -0.43630473585034479 0 -0.092396136558077768 -0.46262876633192968 0 -0.091934375661522044 -0.44714782161470479 0 -0.1071222525824482 -0.45260331638971191 0 -0.092396136558077768 -0.46262876633192968 0 -0.1109877335600462 -0.47305378788334362 0 -0.1071222525824482 -0.45260331638971191 0 -0.13577391542103959 -0.45987739019960588 0 -0.1109877335600462 -0.47305378788334362 0 -0.1071222525824482 -0.45260331638971191 0 -0.13577391542103959 -0.45987739019960588 0 -0.1071222525824482 -0.45260331638971191 0 -0.11872382667374071 -0.43964584133713308 0 -0.11872382667374071 -0.43964584133713308 0 -0.1013926998180085 -0.43630473585034479 0 -0.11349617631517731 -0.42159282191060488 0 -0.13803620093773211 -0.43137629061263782 0 -0.11872382667374071 -0.43964584133713308 0 -0.11349617631517731 -0.42159282191060488 0 -0.1013926998180085 -0.43630473585034479 0 -0.11349617631517731 -0.42159282191060488 0 -0.092835230184447073 -0.42165125938091408 0 -0.11349617631517731 -0.42159282191060488 0 -0.10521444695570301 -0.39705663325774848 0 -0.092835230184447073 -0.42165125938091408 0 -0.10521444695570301 -0.39705663325774848 0 -0.084102881099029997 -0.40454318406603618 0 -0.092835230184447073 -0.42165125938091408 0 -0.12957281029114509 -0.40914772216104478 0 -0.11349617631517731 -0.42159282191060488 0 -0.10521444695570301 -0.39705663325774848 0 -0.13111919527464341 -0.38402542691014502 0 -0.12957281029114509 -0.40914772216104478 0 -0.10521444695570301 -0.39705663325774848 0 -0.13111919527464341 -0.38402542691014502 0 -0.1161079148615633 -0.37190770513117222 0 -0.10521444695570301 -0.39705663325774848 0 -0.1161079148615633 -0.37190770513117222 0 -0.099141066207919515 -0.37624812255434859 0 -0.10521444695570301 -0.39705663325774848 0 -0.10521444695570301 -0.39705663325774848 0 -0.084102881099029997 -0.40454318406603618 0 -0.076813950519487764 -0.38207315512247447 0 -0.099141066207919515 -0.37624812255434859 0 -0.10521444695570301 -0.39705663325774848 0 -0.076813950519487764 -0.38207315512247447 0 -0.055980648636277427 -0.38470280053580103 0 -0.076813950519487764 -0.38207315512247447 0 -0.067103533805515758 -0.40066667366291581 0 -0.058153693381436757 -0.36310437533437728 0 -0.055980648636277427 -0.38470280053580103 0 -0.076813950519487764 -0.38207315512247447 0 -0.084102881099029997 -0.40454318406603618 0 -0.076813950519487764 -0.38207315512247447 0 -0.067103533805515758 -0.40066667366291581 0 -0.084102881099029997 -0.40454318406603618 0 -0.067103533805515758 -0.40066667366291581 0 -0.072750681953317242 -0.42000813505098661 0 -0.054555520476286562 -0.41266461536202148 0 -0.067103533805515758 -0.40066667366291581 0 -0.072750681953317242 -0.42000813505098661 0 -0.054803678750457642 -0.42912316072858647 0 -0.072750681953317242 -0.42000813505098661 0 -0.069134252750824632 -0.43705933169437999 0 -0.072750681953317242 -0.42000813505098661 0 -0.069134252750824632 -0.43705933169437999 0 -0.08424433749071554 -0.43518735446900042 0 -0.072750681953317242 -0.42000813505098661 0 -0.08424433749071554 -0.43518735446900042 0 -0.092835230184447073 -0.42165125938091408 0 -0.1013926998180085 -0.43630473585034479 0 -0.08424433749071554 -0.43518735446900042 0 -0.092835230184447073 -0.42165125938091408 0 -0.084102881099029997 -0.40454318406603618 0 -0.072750681953317242 -0.42000813505098661 0 -0.092835230184447073 -0.42165125938091408 0 -0.080453507918830686 -0.084071323991046623 0 -0.083637709780514796 -0.067964454877960628 0 -0.095332560500188596 -0.085096901398002467 0 -0.080453507918830686 -0.084071323991046623 0 -0.07966438873163742 -0.091669399391028306 0 -0.092178839589099559 -0.093288406607507229 0 -0.080453507918830686 -0.084071323991046623 0 -0.092178839589099559 -0.093288406607507229 0 -0.095332560500188596 -0.085096901398002467 0 -0.083637709780514796 -0.067964454877960628 0 -0.095332560500188596 -0.085096901398002467 0 -0.099337523467208561 -0.069805298281691991 0 -0.083637709780514796 -0.067964454877960628 0 -0.095332560500188596 -0.085096901398002467 0 -0.083637709780514796 -0.067964454877960628 0 -0.065713022691063716 -0.086342030926442687 0 -0.062980515516116234 -0.060020796382159597 0 -0.065713022691063716 -0.086342030926442687 0 -0.062980515516116234 -0.060020796382159597 0 -0.080453507918830686 -0.084071323991046623 0 -0.083637709780514796 -0.067964454877960628 0 -0.065713022691063716 -0.086342030926442687 0 -0.07966438873163742 -0.091669399391028306 0 -0.065713022691063716 -0.086342030926442687 0 -0.080312184727555677 -0.1029758360391167 0 -0.080453507918830686 -0.084071323991046623 0 -0.07966438873163742 -0.091669399391028306 0 -0.065713022691063716 -0.086342030926442687 0 -0.065713022691063716 -0.086342030926442687 0 -0.06844552986601149 -0.11266326547072569 0 -0.065713022691063716 -0.086342030926442687 0 -0.06844552986601149 -0.11266326547072569 0 -0.056420316685233618 -0.1021235592443772 0 -0.065713022691063716 -0.086342030926442687 0 -0.06844552986601149 -0.11266326547072569 0 -0.080312184727555677 -0.1029758360391167 0 -0.06844552986601149 -0.11266326547072569 0 -0.080312184727555677 -0.1029758360391167 0 -0.06844552986601149 -0.11266326547072569 0 -0.070729328769619293 -0.13466225860969211 0 -0.06844552986601149 -0.11266326547072569 0 -0.050330724342698113 -0.12745141783733169 0 -0.070729328769619293 -0.13466225860969211 0 -0.06844552986601149 -0.11266326547072569 0 -0.083915119944456829 -0.1179996920943223 0 -0.070729328769619293 -0.13466225860969211 0 -0.06844552986601149 -0.11266326547072569 0 -0.083915119944456829 -0.1179996920943223 0 -0.080312184727555677 -0.1029758360391167 0 -0.083915119944456829 -0.1179996920943223 0 -0.089619269339755919 -0.1088926294269319 0 -0.1002804833808965 -0.11664823327993221 0 -0.083915119944456829 -0.1179996920943223 0 -0.1002804833808965 -0.11664823327993221 0 -0.093213328287597874 -0.13085961013338551 0 -0.083915119944456829 -0.1179996920943223 0 -0.080312184727555677 -0.1029758360391167 0 -0.089619269339755919 -0.1088926294269319 0 -0.07966438873163742 -0.091669399391028306 0 -0.092178839589099559 -0.093288406607507229 0 -0.080312184727555677 -0.1029758360391167 0 -0.092178839589099559 -0.093288406607507229 0 -0.080312184727555677 -0.1029758360391167 0 -0.089619269339755919 -0.1088926294269319 0 -0.092178839589099559 -0.093288406607507229 0 -0.089619269339755919 -0.1088926294269319 0 -0.098118140554617816 -0.1031606711844375 0 -0.092178839589099559 -0.093288406607507229 0 -0.080312184727555677 -0.1029758360391167 0 -0.092178839589099559 -0.093288406607507229 0 -0.098118140554617816 -0.1031606711844375 0 -0.1024471446333886 -0.094186844366760891 0 -0.098118140554617816 -0.1031606711844375 0 -0.10807763400774829 -0.1064421622021465 0 -0.1002804833808965 -0.11664823327993221 0 -0.098118140554617816 -0.1031606711844375 0 -0.10807763400774829 -0.1064421622021465 0 -0.1024471446333886 -0.094186844366760891 0 -0.10807763400774829 -0.1064421622021465 0 -0.1024471446333886 -0.094186844366760891 0 -0.11390386430501891 -0.095344785472267685 0 -0.1002804833808965 -0.11664823327993221 0 -0.11821568245561059 -0.1136071370108379 0 -0.1086675953805302 -0.13367601023245521 0 -0.10807763400774829 -0.1064421622021465 0 -0.1002804833808965 -0.11664823327993221 0 -0.11821568245561059 -0.1136071370108379 0 -0.089619269339755919 -0.1088926294269319 0 -0.098118140554617816 -0.1031606711844375 0 -0.1002804833808965 -0.11664823327993221 0 -0.11821568245561059 -0.1136071370108379 0 -0.11390386430501891 -0.095344785472267685 0 -0.1244918998790102 -0.098597789864215385 0 -0.10807763400774829 -0.1064421622021465 0 -0.11821568245561059 -0.1136071370108379 0 -0.11390386430501891 -0.095344785472267685 0 -0.11390386430501891 -0.095344785472267685 0 -0.1244918998790102 -0.098597789864215385 0 -0.12776216479548941 -0.088274220775726886 0 -0.11390386430501891 -0.095344785472267685 0 -0.1123104451600047 -0.07958598034044384 0 -0.10424393223372511 -0.083920027762676902 0 -0.11390386430501891 -0.095344785472267685 0 -0.1123104451600047 -0.07958598034044384 0 -0.12776216479548941 -0.088274220775726886 0 -0.1024471446333886 -0.094186844366760891 0 -0.11390386430501891 -0.095344785472267685 0 -0.10424393223372511 -0.083920027762676902 0 -0.10424393223372511 -0.083920027762676902 0 -0.095332560500188596 -0.085096901398002467 0 -0.099337523467208561 -0.069805298281691991 0 -0.1024471446333886 -0.094186844366760891 0 -0.10424393223372511 -0.083920027762676902 0 -0.095332560500188596 -0.085096901398002467 0 -0.092178839589099559 -0.093288406607507229 0 -0.1024471446333886 -0.094186844366760891 0 -0.095332560500188596 -0.085096901398002467 0 -0.1123104451600047 -0.07958598034044384 0 -0.10424393223372511 -0.083920027762676902 0 -0.099337523467208561 -0.069805298281691991 0 -0.1123104451600047 -0.07958598034044384 0 -0.099337523467208561 -0.069805298281691991 0 -0.1224892812973684 -0.065922536236909704 0 -0.1123104451600047 -0.07958598034044384 0 -0.1224892812973684 -0.065922536236909704 0 -0.12776216479548941 -0.088274220775726886 0 -0.099337523467208561 -0.069805298281691991 0 -0.1224892812973684 -0.065922536236909704 0 -0.1140844819342722 -0.051354354326794187 0 -0.1224892812973684 -0.065922536236909704 0 -0.1140844819342722 -0.051354354326794187 0 -0.13383949580465801 -0.044496257040711647 0 -0.1140844819342722 -0.051354354326794187 0 -0.11609523705097009 -0.029329697001540551 0 -0.13383949580465801 -0.044496257040711647 0 -0.1140844819342722 -0.051354354326794187 0 -0.098660872051155882 -0.047217983073117031 0 -0.11609523705097009 -0.029329697001540551 0 -0.098660872051155882 -0.047217983073117031 0 -0.11609523705097009 -0.029329697001540551 0 -0.094513941359242321 -0.02934048108520752 0 -0.099337523467208561 -0.069805298281691991 0 -0.1140844819342722 -0.051354354326794187 0 -0.098660872051155882 -0.047217983073117031 0 -0.083637709780514796 -0.067964454877960628 0 -0.099337523467208561 -0.069805298281691991 0 -0.098660872051155882 -0.047217983073117031 0 -0.11609523705097009 -0.029329697001540551 0 -0.1054185501667486 -0.01352855997925336 0 -0.12787206249873251 -0.0031963116537159961 0 -0.1054185501667486 -0.01352855997925336 0 -0.12787206249873251 -0.0031963116537159961 0 -0.10216785683878001 0.0048525866166629558 0 -0.11609523705097009 -0.029329697001540551 0 -0.094513941359242321 -0.02934048108520752 0 -0.1054185501667486 -0.01352855997925336 0 -0.1054185501667486 -0.01352855997925336 0 -0.081095530215644571 -0.01334075696485762 0 -0.10216785683878001 0.0048525866166629558 0 -0.081095530215644571 -0.01334075696485762 0 -0.10216785683878001 0.0048525866166629558 0 -0.077149446155853077 0.0072569184755020763 0 -0.081095530215644571 -0.01334075696485762 0 -0.10216785683878001 0.0048525866166629558 0 -0.094513941359242321 -0.02934048108520752 0 -0.1054185501667486 -0.01352855997925336 0 -0.081095530215644571 -0.01334075696485762 0 -0.094513941359242321 -0.02934048108520752 0 -0.081095530215644571 -0.01334075696485762 0 -0.079589511256629095 -0.030611449738942569 0 -0.081095530215644571 -0.01334075696485762 0 -0.060023203592510198 -0.031534100546379402 0 -0.057566748591418748 -0.0078719748531606328 0 -0.081095530215644571 -0.01334075696485762 0 -0.068662095828300268 -0.031209573847101421 0 -0.060023203592510198 -0.031534100546379402 0 -0.081095530215644571 -0.01334075696485762 0 -0.060023203592510198 -0.031534100546379402 0 -0.081095530215644571 -0.01334075696485762 0 -0.079589511256629095 -0.030611449738942569 0 -0.068662095828300268 -0.031209573847101421 0 -0.081095530215644571 -0.01334075696485762 0 -0.057566748591418748 -0.0078719748531606328 0 -0.077149446155853077 0.0072569184755020763 0 -0.083637709780514796 -0.067964454877960628 0 -0.083549885979118957 -0.043370369849729987 0 -0.071942859060840997 -0.050832008357918797 0 -0.083637709780514796 -0.067964454877960628 0 -0.098660872051155882 -0.047217983073117031 0 -0.083549885979118957 -0.043370369849729987 0 -0.098660872051155882 -0.047217983073117031 0 -0.094513941359242321 -0.02934048108520752 0 -0.083549885979118957 -0.043370369849729987 0 -0.094513941359242321 -0.02934048108520752 0 -0.079589511256629095 -0.030611449738942569 0 -0.083549885979118957 -0.043370369849729987 0 -0.079589511256629095 -0.030611449738942569 0 -0.083549885979118957 -0.043370369849729987 0 -0.071895285196126785 -0.038453650472282982 0 -0.071942859060840997 -0.050832008357918797 0 -0.060248008341167933 -0.03369956183787641 0 -0.071895285196126785 -0.038453650472282982 0 -0.071942859060840997 -0.050832008357918797 0 -0.060248008341167933 -0.03369956183787641 0 -0.083549885979118957 -0.043370369849729987 0 -0.071895285196126785 -0.038453650472282982 0 -0.071942859060840997 -0.050832008357918797 0 -0.079589511256629095 -0.030611449738942569 0 -0.068662095828300268 -0.031209573847101421 0 -0.071895285196126785 -0.038453650472282982 0 -0.068662095828300268 -0.031209573847101421 0 -0.060023203592510198 -0.031534100546379402 0 -0.060248008341167933 -0.03369956183787641 0 -0.068662095828300268 -0.031209573847101421 0 -0.071895285196126785 -0.038453650472282982 0 -0.060248008341167933 -0.03369956183787641 0 -0.071942859060840997 -0.050832008357918797 0 -0.062980515516116234 -0.060020796382159597 0 -0.060248008341167933 -0.03369956183787641 0 -0.083637709780514796 -0.067964454877960628 0 -0.071942859060840997 -0.050832008357918797 0 -0.062980515516116234 -0.060020796382159597 0 -0.083637709780514796 -0.067964454877960628 0 -0.071942859060840997 -0.050832008357918797 0 -0.062980515516116234 -0.060020796382159597 0 -0.053505882015831931 -0.057545009272693737 0 -0.050940698327275227 -0.066995831163940534 0 -0.062980515516116234 -0.060020796382159597 0 -0.053505882015831931 -0.057545009272693737 0 -0.052283369133884552 -0.047828854476192201 0 -0.062980515516116234 -0.060020796382159597 0 -0.052283369133884552 -0.047828854476192201 0 -0.060248008341167933 -0.03369956183787641 0 -0.053505882015831931 -0.057545009272693737 0 -0.047482009981432372 -0.055352836544679533 0 -0.050940698327275227 -0.066995831163940534 0 -0.053505882015831931 -0.057545009272693737 0 -0.047482009981432372 -0.055352836544679533 0 -0.052283369133884552 -0.047828854476192201 0 -0.060023203592510198 -0.031534100546379402 0 -0.039854569872736507 -0.041460969231238501 0 -0.04402444996085713 -0.034118483485863382 0 -0.062980515516116234 -0.060020796382159597 0 -0.060248008341167933 -0.03369956183787641 0 -0.052283369133884552 -0.047828854476192201 0 -0.060023203592510198 -0.031534100546379402 0 -0.060248008341167933 -0.03369956183787641 0 -0.060023203592510198 -0.031534100546379402 0 -0.036556236100000097 -0.051794919868476688 0 -0.052283369133884552 -0.047828854476192201 0 -0.060023203592510198 -0.031534100546379402 0 -0.036556236100000097 -0.051794919868476688 0 -0.060023203592510198 -0.031534100546379402 0 -0.060248008341167933 -0.03369956183787641 0 -0.060023203592510198 -0.031534100546379402 0 -0.039854569872736507 -0.041460969231238501 0 -0.036556236100000097 -0.051794919868476688 0 -0.04402444996085713 -0.034118483485863382 0 -0.03637601110207711 -0.035537101087416187 0 -0.039650043247066433 -0.025002983544905499 0 -0.039854569872736507 -0.041460969231238501 0 -0.04402444996085713 -0.034118483485863382 0 -0.03637601110207711 -0.035537101087416187 0 -0.03637601110207711 -0.035537101087416187 0 -0.029762631086511591 -0.030565951026801388 0 -0.031133756643264229 -0.039514543433774363 0 -0.039854569872736507 -0.041460969231238501 0 -0.03637601110207711 -0.035537101087416187 0 -0.031133756643264229 -0.039514543433774363 0 -0.035249382854796701 -0.046017504124236469 0 -0.032051717244741942 -0.049253174703526761 0 -0.031133756643264229 -0.039514543433774363 0 -0.039854569872736507 -0.041460969231238501 0 -0.035249382854796701 -0.046017504124236469 0 -0.036556236100000097 -0.051794919868476688 0 -0.039854569872736507 -0.041460969231238501 0 -0.035249382854796701 -0.046017504124236469 0 -0.031133756643264229 -0.039514543433774363 0 -0.032051717244741942 -0.049253174703526761 0 -0.050940698327275227 -0.066995831163940534 0 -0.035249382854796701 -0.046017504124236469 0 -0.032051717244741942 -0.049253174703526761 0 -0.036556236100000097 -0.051794919868476688 0 -0.032051717244741942 -0.049253174703526761 0 -0.036556236100000097 -0.051794919868476688 0 -0.050940698327275227 -0.066995831163940534 0 -0.047482009981432372 -0.055352836544679533 0 -0.052283369133884552 -0.047828854476192201 0 -0.036556236100000097 -0.051794919868476688 0 -0.032051717244741942 -0.049253174703526761 0 -0.033653420939448959 -0.061351119253756498 0 -0.050940698327275227 -0.066995831163940534 0 -0.047482009981432372 -0.055352836544679533 0 -0.036556236100000097 -0.051794919868476688 0 -0.050940698327275227 -0.066995831163940534 0 -0.057566748591418748 -0.0078719748531606328 0 -0.050834022615698547 -0.019908483110321611 0 -0.041868970084843048 -0.0131895406628828 0 -0.060023203592510198 -0.031534100546379402 0 -0.057566748591418748 -0.0078719748531606328 0 -0.060023203592510198 -0.031534100546379402 0 -0.04402444996085713 -0.034118483485863382 0 -0.048435778876728543 -0.027811228117540408 0 -0.060023203592510198 -0.031534100546379402 0 -0.057566748591418748 -0.0078719748531606328 0 -0.050834022615698547 -0.019908483110321611 0 -0.060023203592510198 -0.031534100546379402 0 -0.050834022615698547 -0.019908483110321611 0 -0.060023203592510198 -0.031534100546379402 0 -0.050834022615698547 -0.019908483110321611 0 -0.048435778876728543 -0.027811228117540408 0 -0.050834022615698547 -0.019908483110321611 0 -0.048435778876728543 -0.027811228117540408 0 -0.039650043247066433 -0.025002983544905499 0 -0.04402444996085713 -0.034118483485863382 0 -0.048435778876728543 -0.027811228117540408 0 -0.039650043247066433 -0.025002983544905499 0 -0.03637601110207711 -0.035537101087416187 0 -0.039650043247066433 -0.025002983544905499 0 -0.029762631086511591 -0.030565951026801388 0 -0.039650043247066433 -0.025002983544905499 0 -0.02919269758072621 -0.017534950840122202 0 -0.029762631086511591 -0.030565951026801388 0 -0.039650043247066433 -0.025002983544905499 0 -0.041868970084843048 -0.0131895406628828 0 -0.02919269758072621 -0.017534950840122202 0 -0.050834022615698547 -0.019908483110321611 0 -0.039650043247066433 -0.025002983544905499 0 -0.041868970084843048 -0.0131895406628828 0 -0.057566748591418748 -0.0078719748531606328 0 -0.041868970084843048 -0.0131895406628828 0 -0.037944320861429709 0.00047776945039190331 0 -0.041868970084843048 -0.0131895406628828 0 -0.02919269758072621 -0.017534950840122202 0 -0.037944320861429709 0.00047776945039190331 0 -0.01626918420181778 -0.0024443268281072392 0 -0.02919269758072621 -0.017534950840122202 0 -0.037944320861429709 0.00047776945039190331 0 -0.01626918420181778 -0.0024443268281072392 0 -0.02919269758072621 -0.017534950840122202 0 -0.01316273616220448 -0.031510518243117222 0 -0.02919269758072621 -0.017534950840122202 0 -0.029762631086511591 -0.030565951026801388 0 -0.01316273616220448 -0.031510518243117222 0 -0.01626918420181778 -0.0024443268281072392 0 -0.01316273616220448 -0.031510518243117222 0 0.0001562072125391549 -0.018999867950155999 0 -0.01626918420181778 -0.0024443268281072392 0 -0.01316273616220448 -0.031510518243117222 0 -0.01316273616220448 -0.031510518243117222 0 0.0001562072125391549 -0.018999867950155999 0 0.0029138699203563249 -0.030526754590547031 0 -0.01316273616220448 -0.031510518243117222 0 0.0001562072125391549 -0.018999867950155999 0 -0.01626918420181778 -0.0024443268281072392 0 0.0020542870866122722 -0.002457931916927811 0 0.0001562072125391549 -0.018999867950155999 0 -0.020991323271545889 -0.04919565070784554 0 -0.022944818035704698 -0.059110135847644983 0 -0.01083000976401156 -0.053337206197949343 0 -0.033653420939448959 -0.061351119253756498 0 -0.022944818035704698 -0.059110135847644983 0 -0.026998038523776479 -0.054167433962135143 0 -0.032051717244741942 -0.049253174703526761 0 -0.033653420939448959 -0.061351119253756498 0 -0.026998038523776479 -0.054167433962135143 0 -0.032051717244741942 -0.049253174703526761 0 -0.020991323271545889 -0.04919565070784554 0 -0.026998038523776479 -0.054167433962135143 0 -0.020991323271545889 -0.04919565070784554 0 -0.022944818035704698 -0.059110135847644983 0 -0.026998038523776479 -0.054167433962135143 0 -0.032051717244741942 -0.049253174703526761 0 -0.01316273616220448 -0.031510518243117222 0 -0.032051717244741942 -0.049253174703526761 0 -0.031133756643264229 -0.039514543433774363 0 -0.01316273616220448 -0.031510518243117222 0 -0.032051717244741942 -0.049253174703526761 0 -0.020991323271545889 -0.04919565070784554 0 -0.01316273616220448 -0.031510518243117222 0 -0.029762631086511591 -0.030565951026801388 0 -0.031133756643264229 -0.039514543433774363 0 -0.01316273616220448 -0.031510518243117222 0 -0.020991323271545889 -0.04919565070784554 0 -0.01316273616220448 -0.031510518243117222 0 -0.01083000976401156 -0.053337206197949343 0 -0.01316273616220448 -0.031510518243117222 0 -0.01083000976401156 -0.053337206197949343 0 -0.01316273616220448 -0.031510518243117222 0 -6.9695087766884393e-05 -0.042547024606407399 0 0.0029138699203563249 -0.030526754590547031 0 -0.01316273616220448 -0.031510518243117222 0 -6.9695087766884393e-05 -0.042547024606407399 0 -0.01083000976401156 -0.053337206197949343 0 -6.9695087766884393e-05 -0.042547024606407399 0 -0.01083000976401156 -0.053337206197949343 0 0.002974761349226791 -0.057600111844622673 0 -0.01083000976401156 -0.053337206197949343 0 -0.008497283365819109 -0.075163894152781574 0 0.002974761349226791 -0.057600111844622673 0 -0.022944818035704698 -0.059110135847644983 0 -0.01083000976401156 -0.053337206197949343 0 -0.008497283365819109 -0.075163894152781574 0 -0.01083000976401156 -0.053337206197949343 0 -0.008497283365819109 -0.075163894152781574 0 -0.008497283365819109 -0.075163894152781574 0 0.002974761349226791 -0.057600111844622673 0 -0.008497283365819109 -0.075163894152781574 0 -0.024891910687713559 -0.1002641855531199 0 -0.0063575468247982752 -0.095184828379244052 0 -0.008497283365819109 -0.075163894152781574 0 -0.0063575468247982752 -0.095184828379244052 0 -0.008497283365819109 -0.075163894152781574 0 -0.0063575468247982752 -0.095184828379244052 0 0.0093292929231258565 -0.083383488769817202 0 -0.026330557614860299 -0.083417342870486424 0 -0.031467522511207359 -0.093263716997115123 0 -0.024891910687713559 -0.1002641855531199 0 -0.008497283365819109 -0.075163894152781574 0 -0.026330557614860299 -0.083417342870486424 0 -0.024891910687713559 -0.1002641855531199 0 -0.008497283365819109 -0.075163894152781574 0 -0.024891910687713559 -0.1002641855531199 0 -0.022944818035704698 -0.059110135847644983 0 -0.008497283365819109 -0.075163894152781574 0 -0.02965234907454559 -0.070733574390658221 0 -0.008497283365819109 -0.075163894152781574 0 -0.026330557614860299 -0.083417342870486424 0 -0.02965234907454559 -0.070733574390658221 0 -0.033653420939448959 -0.061351119253756498 0 -0.022944818035704698 -0.059110135847644983 0 -0.02965234907454559 -0.070733574390658221 0 -0.033653420939448959 -0.061351119253756498 0 -0.040393798830505208 -0.072080788334064061 0 -0.050940698327275227 -0.066995831163940534 0 -0.033653420939448959 -0.061351119253756498 0 -0.02965234907454559 -0.070733574390658221 0 -0.040393798830505208 -0.072080788334064061 0 -0.040393798830505208 -0.072080788334064061 0 -0.048972475074602652 -0.079826925053822273 0 -0.050940698327275227 -0.066995831163940534 0 -0.02965234907454559 -0.070733574390658221 0 -0.040393798830505208 -0.072080788334064061 0 -0.038181223639061949 -0.082751921349188615 0 -0.026330557614860299 -0.083417342870486424 0 -0.02965234907454559 -0.070733574390658221 0 -0.038181223639061949 -0.082751921349188615 0 -0.026330557614860299 -0.083417342870486424 0 -0.038181223639061949 -0.082751921349188615 0 -0.031467522511207359 -0.093263716997115123 0 -0.038181223639061949 -0.082751921349188615 0 -0.031467522511207359 -0.093263716997115123 0 -0.040343522138522353 -0.094249036293018104 0 -0.038181223639061949 -0.082751921349188615 0 -0.049633631885107138 -0.090964053495475483 0 -0.040343522138522353 -0.094249036293018104 0 -0.038181223639061949 -0.082751921349188615 0 -0.048972475074602652 -0.079826925053822273 0 -0.049633631885107138 -0.090964053495475483 0 -0.040393798830505208 -0.072080788334064061 0 -0.038181223639061949 -0.082751921349188615 0 -0.048972475074602652 -0.079826925053822273 0 -0.065713022691063716 -0.086342030926442687 0 -0.048972475074602652 -0.079826925053822273 0 -0.049633631885107138 -0.090964053495475483 0 -0.065713022691063716 -0.086342030926442687 0 -0.049633631885107138 -0.090964053495475483 0 -0.056420316685233618 -0.1021235592443772 0 -0.065713022691063716 -0.086342030926442687 0 -0.048972475074602652 -0.079826925053822273 0 -0.050940698327275227 -0.066995831163940534 0 -0.065713022691063716 -0.086342030926442687 0 -0.062980515516116234 -0.060020796382159597 0 -0.050940698327275227 -0.066995831163940534 0 -0.06844552986601149 -0.11266326547072569 0 -0.050330724342698113 -0.12745141783733169 0 -0.06844552986601149 -0.11266326547072569 0 -0.052361271392276157 -0.1129372739394479 0 -0.050330724342698113 -0.12745141783733169 0 -0.052361271392276157 -0.1129372739394479 0 -0.041836428760536948 -0.1180803183434207 0 -0.050330724342698113 -0.12745141783733169 0 -0.06844552986601149 -0.11266326547072569 0 -0.052361271392276157 -0.1129372739394479 0 -0.056420316685233618 -0.1021235592443772 0 -0.049633631885107138 -0.090964053495475483 0 -0.056420316685233618 -0.1021235592443772 0 -0.044773357306900588 -0.1043678088013843 0 -0.052361271392276157 -0.1129372739394479 0 -0.056420316685233618 -0.1021235592443772 0 -0.044773357306900588 -0.1043678088013843 0 -0.049633631885107138 -0.090964053495475483 0 -0.044773357306900588 -0.1043678088013843 0 -0.040343522138522353 -0.094249036293018104 0 -0.044773357306900588 -0.1043678088013843 0 -0.040343522138522353 -0.094249036293018104 0 -0.035499156922514909 -0.10163125406896829 0 -0.031467522511207359 -0.093263716997115123 0 -0.035499156922514909 -0.10163125406896829 0 -0.029743983565416261 -0.10062277297473519 0 -0.031467522511207359 -0.093263716997115123 0 -0.040343522138522353 -0.094249036293018104 0 -0.035499156922514909 -0.10163125406896829 0 -0.035499156922514909 -0.10163125406896829 0 -0.034678440124800668 -0.110598474477138 0 -0.03069611822382937 -0.10574109316299619 0 -0.044773357306900588 -0.1043678088013843 0 -0.035499156922514909 -0.10163125406896829 0 -0.034678440124800668 -0.110598474477138 0 -0.035499156922514909 -0.10163125406896829 0 -0.029743983565416261 -0.10062277297473519 0 -0.03069611822382937 -0.10574109316299619 0 -0.034678440124800668 -0.110598474477138 0 -0.041836428760536948 -0.1180803183434207 0 -0.033457208023052729 -0.11964247462693819 0 -0.034678440124800668 -0.110598474477138 0 -0.033457208023052729 -0.11964247462693819 0 -0.02971407469741413 -0.1145646552802899 0 -0.044773357306900588 -0.1043678088013843 0 -0.034678440124800668 -0.110598474477138 0 -0.041836428760536948 -0.1180803183434207 0 -0.052361271392276157 -0.1129372739394479 0 -0.044773357306900588 -0.1043678088013843 0 -0.041836428760536948 -0.1180803183434207 0 -0.041836428760536948 -0.1180803183434207 0 -0.033457208023052729 -0.11964247462693819 0 -0.034242801088684521 -0.13014109678987409 0 -0.0087428495734456942 -0.1174566533529136 0 -0.034242801088684521 -0.13014109678987409 0 -0.033457208023052729 -0.11964247462693819 0 -0.025002089037425301 -0.1180565655724486 0 -0.02971407469741413 -0.1145646552802899 0 -0.025002089037425301 -0.1180565655724486 0 -0.0087428495734456942 -0.1174566533529136 0 -0.034242801088684521 -0.13014109678987409 0 -0.033457208023052729 -0.11964247462693819 0 -0.025002089037425301 -0.1180565655724486 0 -0.034242801088684521 -0.13014109678987409 0 -0.025002089037425301 -0.1180565655724486 0 -0.02571856160437783 -0.1099611064446346 0 -0.0087428495734456942 -0.1174566533529136 0 -0.034678440124800668 -0.110598474477138 0 -0.02971407469741413 -0.1145646552802899 0 -0.02571856160437783 -0.1099611064446346 0 -0.025002089037425301 -0.1180565655724486 0 -0.02971407469741413 -0.1145646552802899 0 -0.02571856160437783 -0.1099611064446346 0 -0.024891910687713559 -0.1002641855531199 0 -0.0087428495734456942 -0.1174566533529136 0 -0.02571856160437783 -0.1099611064446346 0 -0.024891910687713559 -0.1002641855531199 0 -0.0087428495734456942 -0.1174566533529136 0 -0.031467522511207359 -0.093263716997115123 0 -0.024891910687713559 -0.1002641855531199 0 -0.031467522511207359 -0.093263716997115123 0 -0.029743983565416261 -0.10062277297473519 0 -0.024891910687713559 -0.1002641855531199 0 -0.029743983565416261 -0.10062277297473519 0 -0.024891910687713559 -0.1002641855531199 0 -0.0261652094818162 -0.1022136150914764 0 -0.024891910687713559 -0.1002641855531199 0 -0.0261652094818162 -0.1022136150914764 0 -0.034678440124800668 -0.110598474477138 0 -0.02571856160437783 -0.1099611064446346 0 -0.03069611822382937 -0.10574109316299619 0 -0.02571856160437783 -0.1099611064446346 0 -0.024891910687713559 -0.1002641855531199 0 -0.0261652094818162 -0.1022136150914764 0 -0.029743983565416261 -0.10062277297473519 0 -0.0261652094818162 -0.1022136150914764 0 -0.03069611822382937 -0.10574109316299619 0 -0.02571856160437783 -0.1099611064446346 0 -0.0261652094818162 -0.1022136150914764 0 -0.03069611822382937 -0.10574109316299619 0 -0.024891910687713559 -0.1002641855531199 0 -0.0063575468247982752 -0.095184828379244052 0 -0.0087428495734456942 -0.1174566533529136 0 -0.0063575468247982752 -0.095184828379244052 0 -0.0042178102837748012 -0.1152057626057062 0 -0.0063575468247982752 -0.095184828379244052 0 -0.0087428495734456942 -0.1174566533529136 0 -0.0042178102837748012 -0.1152057626057062 0 -0.0087428495734456942 -0.1174566533529136 0 -0.003365398688040238 -0.12318154661688729 0 -0.01687790987372282 -0.12872613392754451 0 -0.0087428495734456942 -0.1174566533529136 0 -0.0042178102837748012 -0.1152057626057062 0 -0.0087428495734456942 -0.1174566533529136 0 -0.0042178102837748012 -0.1152057626057062 0 -0.003365398688040238 -0.12318154661688729 0 -0.0042178102837748012 -0.1152057626057062 0 -0.003365398688040238 -0.12318154661688729 0 -0.0087428495734456942 -0.1174566533529136 0 -0.003365398688040238 -0.12318154661688729 0 -0.003365398688040238 -0.12318154661688729 0 -0.00029321598637492558 -0.1519271265621164 0 -0.003365398688040238 -0.12318154661688729 0 -0.01401243906613432 -0.13843012333062771 0 -0.00029321598637492558 -0.1519271265621164 0 -0.003365398688040238 -0.12318154661688729 0 -0.01401243906613432 -0.13843012333062771 0 -0.01687790987372282 -0.12872613392754451 0 -0.0087428495734456942 -0.1174566533529136 0 -0.01687790987372282 -0.12872613392754451 0 -0.034242801088684521 -0.13014109678987409 0 -0.01687790987372282 -0.12872613392754451 0 -0.024026060952302759 -0.13442124954741499 0 -0.034242801088684521 -0.13014109678987409 0 -0.01401243906613432 -0.13843012333062771 0 -0.024026060952302759 -0.13442124954741499 0 -0.032215918819384501 -0.1422395702039371 0 -0.01401243906613432 -0.13843012333062771 0 -0.01687790987372282 -0.12872613392754451 0 -0.024026060952302759 -0.13442124954741499 0 -0.024026060952302759 -0.13442124954741499 0 -0.034242801088684521 -0.13014109678987409 0 -0.032215918819384501 -0.1422395702039371 0 -0.02895731266195032 -0.15335694981413719 0 -0.01410111329607132 -0.15702772257054309 0 -0.032215918819384501 -0.1422395702039371 0 -0.01401243906613432 -0.13843012333062771 0 -0.01247485438968244 -0.1475744514967848 0 -0.032215918819384501 -0.1422395702039371 0 -0.01410111329607132 -0.15702772257054309 0 -0.032215918819384501 -0.1422395702039371 0 -0.01247485438968244 -0.1475744514967848 0 -0.01410111329607132 -0.15702772257054309 0 -0.032215918819384501 -0.1422395702039371 0 -0.01247485438968244 -0.1475744514967848 0 -0.00029321598637492558 -0.1519271265621164 0 -0.01410111329607132 -0.15702772257054309 0 -0.01401243906613432 -0.13843012333062771 0 -0.01247485438968244 -0.1475744514967848 0 -0.00029321598637492558 -0.1519271265621164 0 -0.00029321598637492558 -0.1519271265621164 0 -0.01410111329607132 -0.15702772257054309 0 -0.00029321598637492558 -0.1519271265621164 0 -0.0020754700083592879 -0.16684494335252939 0 -0.01410111329607132 -0.15702772257054309 0 -0.00029321598637492558 -0.1519271265621164 0 -0.0020754700083592879 -0.16684494335252939 0 0.002326261016831655 -0.17643686212229309 0 -0.0020754700083592879 -0.16684494335252939 0 -0.01099110509921649 -0.16930144674867539 0 -0.0037559499648733901 -0.17299417869332279 0 -0.0020754700083592879 -0.16684494335252939 0 -0.01099110509921649 -0.16930144674867539 0 -0.01410111329607132 -0.15702772257054309 0 -0.0020754700083592879 -0.16684494335252939 0 -0.01410111329607132 -0.15702772257054309 0 -0.0058592016631992556 -0.1837809552243648 0 -0.0032576715288819692 -0.1901455010361584 0 0.00013481440495943361 -0.17759560879793659 0 -0.0058592016631992556 -0.1837809552243648 0 -0.0081663413867417035 -0.17676838778953061 0 0.00013481440495943361 -0.17759560879793659 0 -0.0020754700083592879 -0.16684494335252939 0 -0.0037559499648733901 -0.17299417869332279 0 0.002326261016831655 -0.17643686212229309 0 -0.0037559499648733901 -0.17299417869332279 0 -0.0081663413867417035 -0.17676838778953061 0 0.00013481440495943361 -0.17759560879793659 0 -0.0037559499648733901 -0.17299417869332279 0 0.00013481440495943361 -0.17759560879793659 0 0.002326261016831655 -0.17643686212229309 0 -0.01099110509921649 -0.16930144674867539 0 -0.0037559499648733901 -0.17299417869332279 0 -0.0081663413867417035 -0.17676838778953061 0 -0.0081663413867417035 -0.17676838778953061 0 -0.012065395130817509 -0.1835148769342258 0 -0.01624536079073606 -0.1755580562395932 0 -0.01099110509921649 -0.16930144674867539 0 -0.0081663413867417035 -0.17676838778953061 0 -0.01624536079073606 -0.1755580562395932 0 -0.0058592016631992556 -0.1837809552243648 0 -0.0081663413867417035 -0.17676838778953061 0 -0.012065395130817509 -0.1835148769342258 0 -0.0058592016631992556 -0.1837809552243648 0 -0.012065395130817509 -0.1835148769342258 0 -0.0072650254982307644 -0.19050667573254099 0 -0.012065395130817509 -0.1835148769342258 0 -0.021212840782492019 -0.18569689902199141 0 -0.01624536079073606 -0.1755580562395932 0 -0.012065395130817509 -0.1835148769342258 0 -0.021212840782492019 -0.18569689902199141 0 -0.01387755850610233 -0.19064196007471629 0 -0.021212840782492019 -0.18569689902199141 0 -0.01624536079073606 -0.1755580562395932 0 -0.02837706371744372 -0.17668369492203459 0 -0.01624536079073606 -0.1755580562395932 0 -0.02837706371744372 -0.17668369492203459 0 -0.021966406928512271 -0.1690417957144032 0 -0.021212840782492019 -0.18569689902199141 0 -0.02837706371744372 -0.17668369492203459 0 -0.031337289591171019 -0.1877528890355071 0 -0.01410111329607132 -0.15702772257054309 0 -0.021966406928512271 -0.1690417957144032 0 -0.040117391739093747 -0.16663805809116949 0 -0.02895731266195032 -0.15335694981413719 0 -0.01410111329607132 -0.15702772257054309 0 -0.030954726198497349 -0.16223848538235711 0 -0.01410111329607132 -0.15702772257054309 0 -0.030954726198497349 -0.16223848538235711 0 -0.040117391739093747 -0.16663805809116949 0 -0.02837706371744372 -0.17668369492203459 0 -0.021966406928512271 -0.1690417957144032 0 -0.040117391739093747 -0.16663805809116949 0 -0.01410111329607132 -0.15702772257054309 0 -0.040117391739093747 -0.16663805809116949 0 -0.01099110509921649 -0.16930144674867539 0 -0.01624536079073606 -0.1755580562395932 0 -0.021966406928512271 -0.1690417957144032 0 -0.01099110509921649 -0.16930144674867539 0 -0.01410111329607132 -0.15702772257054309 0 -0.021966406928512271 -0.1690417957144032 0 -0.030954726198497349 -0.16223848538235711 0 -0.051983926935862207 -0.15944986856550691 0 -0.038557492333848108 -0.1519220210997114 0 -0.030954726198497349 -0.16223848538235711 0 -0.040117391739093747 -0.16663805809116949 0 -0.051983926935862207 -0.15944986856550691 0 -0.030954726198497349 -0.16223848538235711 0 -0.051983926935862207 -0.15944986856550691 0 -0.037811074375092922 -0.17818442462078529 0 -0.048966991365686927 -0.18270086860344689 0 -0.031337289591171019 -0.1877528890355071 0 -0.040117391739093747 -0.16663805809116949 0 -0.037811074375092922 -0.17818442462078529 0 -0.048966991365686927 -0.18270086860344689 0 -0.02837706371744372 -0.17668369492203459 0 -0.037811074375092922 -0.17818442462078529 0 -0.031337289591171019 -0.1877528890355071 0 -0.02837706371744372 -0.17668369492203459 0 -0.040117391739093747 -0.16663805809116949 0 -0.037811074375092922 -0.17818442462078529 0 -0.048966991365686927 -0.18270086860344689 0 -0.060288228409170072 -0.19942122417976149 0 -0.066133670182116147 -0.17624839361179551 0 -0.040117391739093747 -0.16663805809116949 0 -0.048966991365686927 -0.18270086860344689 0 -0.066133670182116147 -0.17624839361179551 0 -0.040117391739093747 -0.16663805809116949 0 -0.051983926935862207 -0.15944986856550691 0 -0.061323652630454972 -0.1646195685307637 0 -0.040117391739093747 -0.16663805809116949 0 -0.061323652630454972 -0.1646195685307637 0 -0.066133670182116147 -0.17624839361179551 0 -0.040117391739093747 -0.16663805809116949 0 -0.066133670182116147 -0.17624839361179551 0 -0.051983926935862207 -0.15944986856550691 0 -0.061323652630454972 -0.1646195685307637 0 -0.07301312767322736 -0.15666125174865839 0 -0.051983926935862207 -0.15944986856550691 0 -0.061300587108231663 -0.14902178946925559 0 -0.07301312767322736 -0.15666125174865839 0 -0.051983926935862207 -0.15944986856550691 0 -0.048413906905979527 -0.14359238215630041 0 -0.061300587108231663 -0.14902178946925559 0 -0.048413906905979527 -0.14359238215630041 0 -0.061300587108231663 -0.14902178946925559 0 -0.070729328769619293 -0.13466225860969211 0 -0.048413906905979527 -0.14359238215630041 0 -0.050330724342698113 -0.12745141783733169 0 -0.070729328769619293 -0.13466225860969211 0 -0.050330724342698113 -0.12745141783733169 0 -0.032215918819384501 -0.1422395702039371 0 -0.048413906905979527 -0.14359238215630041 0 -0.050330724342698113 -0.12745141783733169 0 -0.032215918819384501 -0.1422395702039371 0 -0.041836428760536948 -0.1180803183434207 0 -0.050330724342698113 -0.12745141783733169 0 -0.034242801088684521 -0.13014109678987409 0 -0.050330724342698113 -0.12745141783733169 0 -0.034242801088684521 -0.13014109678987409 0 -0.032215918819384501 -0.1422395702039371 0 -0.051983926935862207 -0.15944986856550691 0 -0.048413906905979527 -0.14359238215630041 0 -0.038557492333848108 -0.1519220210997114 0 -0.048413906905979527 -0.14359238215630041 0 -0.032215918819384501 -0.1422395702039371 0 -0.038557492333848108 -0.1519220210997114 0 -0.02895731266195032 -0.15335694981413719 0 -0.032215918819384501 -0.1422395702039371 0 -0.038557492333848108 -0.1519220210997114 0 -0.02895731266195032 -0.15335694981413719 0 -0.030954726198497349 -0.16223848538235711 0 -0.038557492333848108 -0.1519220210997114 0 -0.023277962165551749 -0.25018495043514821 0 -0.025780300371818742 -0.24039847095970859 0 -0.033409875725189032 -0.24714682933774931 0 -0.025780300371818742 -0.24039847095970859 0 -0.024213451227755031 -0.23274839607840939 0 -0.033340168819619397 -0.23619700495466789 0 -0.025780300371818742 -0.24039847095970859 0 -0.033340168819619397 -0.23619700495466789 0 -0.033409875725189032 -0.24714682933774931 0 -0.025780300371818742 -0.24039847095970859 0 -0.01843719931622561 -0.23800980792100901 0 -0.019078131263328361 -0.24356427647012141 0 -0.025780300371818742 -0.24039847095970859 0 -0.01843719931622561 -0.23800980792100901 0 -0.024213451227755031 -0.23274839607840939 0 -0.01843719931622561 -0.23800980792100901 0 -0.019078131263328361 -0.24356427647012141 0 -0.01500262491169454 -0.24203803227875631 0 -0.023277962165551749 -0.25018495043514821 0 -0.019078131263328361 -0.24356427647012141 0 -0.01512674604055105 -0.24763354146040639 0 -0.023277962165551749 -0.25018495043514821 0 -0.025780300371818742 -0.24039847095970859 0 -0.019078131263328361 -0.24356427647012141 0 -0.019078131263328361 -0.24356427647012141 0 -0.01512674604055105 -0.24763354146040639 0 -0.01500262491169454 -0.24203803227875631 0 -0.01512674604055105 -0.24763354146040639 0 -0.010208434186529889 -0.24299984259821661 0 -0.01500262491169454 -0.24203803227875631 0 -0.01512674604055105 -0.24763354146040639 0 -0.010208434186529889 -0.24299984259821661 0 -0.0077953493217402248 -0.2488817209900118 0 -0.0077953493217402248 -0.2488817209900118 0 -0.0044520979039900307 -0.2451285445353388 0 -0.002551672636748862 -0.24918423983054741 0 -0.0077953493217402248 -0.2488817209900118 0 -0.0044520979039900307 -0.2451285445353388 0 -0.010208434186529889 -0.24299984259821661 0 -0.0077953493217402248 -0.2488817209900118 0 -0.0044520979039900307 -0.2451285445353388 0 -0.0044520979039900307 -0.2451285445353388 0 -0.002309199691408137 -0.24272289981668541 0 -0.002551672636748862 -0.24918423983054741 0 -0.002309199691408137 -0.24272289981668541 0 -0.002551672636748862 -0.24918423983054741 0 -0.0044520979039900307 -0.2451285445353388 0 -0.002309199691408137 -0.24272289981668541 0 -0.0044520979039900307 -0.2451285445353388 0 -0.002551672636748862 -0.24918423983054741 0 -0.002309199691408137 -0.24272289981668541 0 -0.0031065021843879131 -0.23223243465240129 0 0.0031312501796658611 -0.2366153817728677 0 -0.0044520979039900307 -0.2451285445353388 0 -0.002309199691408137 -0.24272289981668541 0 -0.0088007657175838173 -0.23584805774323811 0 -0.0044520979039900307 -0.2451285445353388 0 -0.0088007657175838173 -0.23584805774323811 0 -0.002309199691408137 -0.24272289981668541 0 -0.0031065021843879131 -0.23223243465240129 0 -0.002309199691408137 -0.24272289981668541 0 -0.004597677636665496 -0.2358919538722882 0 -0.0031065021843879131 -0.23223243465240129 0 -0.002309199691408137 -0.24272289981668541 0 -0.004597677636665496 -0.2358919538722882 0 -0.0088007657175838173 -0.23584805774323811 0 -0.004597677636665496 -0.2358919538722882 0 -0.0088007657175838173 -0.23584805774323811 0 -0.0031065021843879131 -0.23223243465240129 0 -0.010208434186529889 -0.24299984259821661 0 -0.0044520979039900307 -0.2451285445353388 0 -0.0088007657175838173 -0.23584805774323811 0 -0.0088007657175838173 -0.23584805774323811 0 -0.0121626137518378 -0.23798269294402799 0 -0.010208434186529889 -0.24299984259821661 0 -0.0088007657175838173 -0.23584805774323811 0 -0.0121626137518378 -0.23798269294402799 0 -0.01843719931622561 -0.23800980792100901 0 -0.01500262491169454 -0.24203803227875631 0 -0.0121626137518378 -0.23798269294402799 0 -0.010208434186529889 -0.24299984259821661 0 -0.01500262491169454 -0.24203803227875631 0 -0.0121626137518378 -0.23798269294402799 0 -0.0088007657175838173 -0.23584805774323811 0 -0.0121626137518378 -0.23798269294402799 0 -0.015452316087602769 -0.2315731424963926 0 -0.01843719931622561 -0.23800980792100901 0 -0.0121626137518378 -0.23798269294402799 0 -0.015452316087602769 -0.2315731424963926 0 -0.0031065021843879131 -0.23223243465240129 0 -0.0065621018957443319 -0.2254421243241593 0 -0.00087582063982097553 -0.20452668205685129 0 -0.0031065021843879131 -0.23223243465240129 0 -0.0065621018957443319 -0.2254421243241593 0 -0.014121724743390971 -0.22449260543530589 0 -0.0088007657175838173 -0.23584805774323811 0 -0.015452316087602769 -0.2315731424963926 0 -0.014121724743390971 -0.22449260543530589 0 -0.0088007657175838173 -0.23584805774323811 0 -0.014121724743390971 -0.22449260543530589 0 -0.0031065021843879131 -0.23223243465240129 0 -0.014121724743390971 -0.22449260543530589 0 -0.0088007657175838173 -0.23584805774323811 0 -0.0031065021843879131 -0.23223243465240129 0 -0.014121724743390971 -0.22449260543530589 0 -0.0088007657175838173 -0.23584805774323811 0 -0.0031065021843879131 -0.23223243465240129 0 -0.0065621018957443319 -0.2254421243241593 0 -0.014121724743390971 -0.22449260543530589 0 -0.0083484100354005251 -0.21452323437281889 0 -0.014121724743390971 -0.22449260543530589 0 -0.021598227342069159 -0.21923925236459149 0 -0.014121724743390971 -0.22449260543530589 0 -0.021598227342069159 -0.21923925236459149 0 -0.02107617633778662 -0.22644443761711819 0 -0.01843719931622561 -0.23800980792100901 0 -0.015452316087602769 -0.2315731424963926 0 -0.024213451227755031 -0.23274839607840939 0 -0.015452316087602769 -0.2315731424963926 0 -0.014121724743390971 -0.22449260543530589 0 -0.02107617633778662 -0.22644443761711819 0 -0.015452316087602769 -0.2315731424963926 0 -0.02107617633778662 -0.22644443761711819 0 -0.024213451227755031 -0.23274839607840939 0 -0.024213451227755031 -0.23274839607840939 0 -0.030589331334502132 -0.225016915240556 0 -0.033340168819619397 -0.23619700495466789 0 -0.02107617633778662 -0.22644443761711819 0 -0.024213451227755031 -0.23274839607840939 0 -0.030589331334502132 -0.225016915240556 0 -0.021598227342069159 -0.21923925236459149 0 -0.030589331334502132 -0.225016915240556 0 -0.031115110556178781 -0.21404170412966281 0 -0.021598227342069159 -0.21923925236459149 0 -0.02107617633778662 -0.22644443761711819 0 -0.030589331334502132 -0.225016915240556 0 -0.014121724743390971 -0.22449260543530589 0 -0.022729507167280869 -0.20612274723540641 0 -0.031115110556178781 -0.21404170412966281 0 -0.022729507167280869 -0.20612274723540641 0 -0.038853269744173267 -0.20247639550936339 0 -0.014121724743390971 -0.22449260543530589 0 -0.021598227342069159 -0.21923925236459149 0 -0.022729507167280869 -0.20612274723540641 0 -0.014121724743390971 -0.22449260543530589 0 -0.022729507167280869 -0.20612274723540641 0 -0.01295615817336087 -0.21148665870234271 0 -0.021598227342069159 -0.21923925236459149 0 -0.031115110556178781 -0.21404170412966281 0 -0.022729507167280869 -0.20612274723540641 0 -0.022729507167280869 -0.20612274723540641 0 -0.01295615817336087 -0.21148665870234271 0 -0.012223262880156051 -0.20243778577695659 0 -0.014121724743390971 -0.22449260543530589 0 -0.01295615817336087 -0.21148665870234271 0 -0.0083484100354005251 -0.21452323437281889 0 -0.0031065021843879131 -0.23223243465240129 0 -0.00087582063982097553 -0.20452668205685129 0 -0.0065621018957443319 -0.2254421243241593 0 -0.0083484100354005251 -0.21452323437281889 0 -0.00087582063982097553 -0.20452668205685129 0 -0.0083484100354005251 -0.21452323437281889 0 -0.00087582063982097553 -0.20452668205685129 0 -0.0078090003716520494 -0.2066155020372045 0 -0.00087582063982097553 -0.20452668205685129 0 -0.0078090003716520494 -0.2066155020372045 0 -0.0069424654494259644 -0.2010158714434846 0 -0.0078090003716520494 -0.2066155020372045 0 -0.012223262880156051 -0.20243778577695659 0 -0.0069424654494259644 -0.2010158714434846 0 -0.01295615817336087 -0.21148665870234271 0 -0.0078090003716520494 -0.2066155020372045 0 -0.012223262880156051 -0.20243778577695659 0 -0.01295615817336087 -0.21148665870234271 0 -0.0083484100354005251 -0.21452323437281889 0 -0.0078090003716520494 -0.2066155020372045 0 -0.00087582063982097553 -0.20452668205685129 0 -0.0032576715288819692 -0.1901455010361584 0 0.00013481440495943361 -0.17759560879793659 0 -0.00087582063982097553 -0.20452668205685129 0 0.00013481440495943361 -0.17759560879793659 0 -0.012223262880156051 -0.20243778577695659 0 -0.009461742257762449 -0.19585041854447749 0 -0.018425740901064389 -0.19482836899658221 0 -0.012223262880156051 -0.20243778577695659 0 -0.009461742257762449 -0.19585041854447749 0 -0.0069424654494259644 -0.2010158714434846 0 -0.00087582063982097553 -0.20452668205685129 0 -0.0069424654494259644 -0.2010158714434846 0 -0.0043425010977382961 -0.19564896880193311 0 -0.00087582063982097553 -0.20452668205685129 0 -0.0043425010977382961 -0.19564896880193311 0 -0.0032576715288819692 -0.1901455010361584 0 -0.009461742257762449 -0.19585041854447749 0 -0.0069424654494259644 -0.2010158714434846 0 -0.0043425010977382961 -0.19564896880193311 0 -0.009461742257762449 -0.19585041854447749 0 -0.0043425010977382961 -0.19564896880193311 0 -0.0072650254982307644 -0.19050667573254099 0 -0.0043425010977382961 -0.19564896880193311 0 -0.0032576715288819692 -0.1901455010361584 0 -0.0072650254982307644 -0.19050667573254099 0 -0.0058592016631992556 -0.1837809552243648 0 -0.0032576715288819692 -0.1901455010361584 0 -0.0072650254982307644 -0.19050667573254099 0 -0.009461742257762449 -0.19585041854447749 0 -0.01387755850610233 -0.19064196007471629 0 -0.018425740901064389 -0.19482836899658221 0 -0.012065395130817509 -0.1835148769342258 0 -0.0072650254982307644 -0.19050667573254099 0 -0.01387755850610233 -0.19064196007471629 0 -0.009461742257762449 -0.19585041854447749 0 -0.0072650254982307644 -0.19050667573254099 0 -0.01387755850610233 -0.19064196007471629 0 -0.022729507167280869 -0.20612274723540641 0 -0.031337289591171019 -0.1877528890355071 0 -0.022729507167280869 -0.20612274723540641 0 -0.031337289591171019 -0.1877528890355071 0 -0.038853269744173267 -0.20247639550936339 0 -0.021212840782492019 -0.18569689902199141 0 -0.01387755850610233 -0.19064196007471629 0 -0.018425740901064389 -0.19482836899658221 0 -0.022729507167280869 -0.20612274723540641 0 -0.018425740901064389 -0.19482836899658221 0 -0.031337289591171019 -0.1877528890355071 0 -0.022729507167280869 -0.20612274723540641 0 -0.012223262880156051 -0.20243778577695659 0 -0.018425740901064389 -0.19482836899658221 0 -0.021212840782492019 -0.18569689902199141 0 -0.018425740901064389 -0.19482836899658221 0 -0.031337289591171019 -0.1877528890355071 0 -0.048966991365686927 -0.18270086860344689 0 -0.031337289591171019 -0.1877528890355071 0 -0.038853269744173267 -0.20247639550936339 0 -0.048966991365686927 -0.18270086860344689 0 -0.038853269744173267 -0.20247639550936339 0 -0.060288228409170072 -0.19942122417976149 0 -0.060288228409170072 -0.19942122417976149 0 -0.051445340026487818 -0.21094352770352459 0 -0.065013419058792044 -0.2181938468079746 0 -0.038853269744173267 -0.20247639550936339 0 -0.060288228409170072 -0.19942122417976149 0 -0.051445340026487818 -0.21094352770352459 0 -0.051445340026487818 -0.21094352770352459 0 -0.05108066455899804 -0.2217938036237187 0 -0.065013419058792044 -0.2181938468079746 0 -0.051445340026487818 -0.21094352770352459 0 -0.041241205998469872 -0.21701698094810121 0 -0.05108066455899804 -0.2217938036237187 0 -0.038853269744173267 -0.20247639550936339 0 -0.051445340026487818 -0.21094352770352459 0 -0.041241205998469872 -0.21701698094810121 0 -0.030589331334502132 -0.225016915240556 0 -0.031115110556178781 -0.21404170412966281 0 -0.041241205998469872 -0.21701698094810121 0 -0.031115110556178781 -0.21404170412966281 0 -0.038853269744173267 -0.20247639550936339 0 -0.041241205998469872 -0.21701698094810121 0 -0.030589331334502132 -0.225016915240556 0 -0.041241205998469872 -0.21701698094810121 0 -0.043165724895692009 -0.22917199694421431 0 -0.030589331334502132 -0.225016915240556 0 -0.043165724895692009 -0.22917199694421431 0 -0.033340168819619397 -0.23619700495466789 0 -0.041241205998469872 -0.21701698094810121 0 -0.043165724895692009 -0.22917199694421431 0 -0.05108066455899804 -0.2217938036237187 0 -0.05108066455899804 -0.2217938036237187 0 -0.054537632815548437 -0.23364266571477851 0 -0.065013419058792044 -0.2181938468079746 0 -0.043165724895692009 -0.22917199694421431 0 -0.05108066455899804 -0.2217938036237187 0 -0.054537632815548437 -0.23364266571477851 0 -0.054537632815548437 -0.23364266571477851 0 -0.059463529516841633 -0.2444935303323712 0 -0.04599811300085048 -0.24163939515650609 0 -0.043165724895692009 -0.22917199694421431 0 -0.054537632815548437 -0.23364266571477851 0 -0.04599811300085048 -0.24163939515650609 0 -0.053303352711674121 -0.25735584332364658 0 -0.059463529516841633 -0.2444935303323712 0 -0.04599811300085048 -0.24163939515650609 0 -0.054537632815548437 -0.23364266571477851 0 -0.069738609708413973 -0.23696646943618771 0 -0.054537632815548437 -0.23364266571477851 0 -0.059463529516841633 -0.2444935303323712 0 -0.069738609708413973 -0.23696646943618771 0 -0.053303352711674121 -0.25735584332364658 0 -0.04599811300085048 -0.24163939515650609 0 -0.033409875725189032 -0.24714682933774931 0 -0.043165724895692009 -0.22917199694421431 0 -0.04599811300085048 -0.24163939515650609 0 -0.033340168819619397 -0.23619700495466789 0 -0.04599811300085048 -0.24163939515650609 0 -0.033340168819619397 -0.23619700495466789 0 -0.033409875725189032 -0.24714682933774931 0 -0.088868512691032575 -0.24114936131030601 0 -0.069738609708413973 -0.23696646943618771 0 -0.073739939347721106 -0.25286327803073722 0 -0.088868512691032575 -0.24114936131030601 0 -0.097452039024329376 -0.24765065823633031 0 -0.073739939347721106 -0.25286327803073722 0 -0.059463529516841633 -0.2444935303323712 0 -0.069738609708413973 -0.23696646943618771 0 -0.073739939347721106 -0.25286327803073722 0 -0.088868512691032575 -0.24114936131030601 0 -0.069738609708413973 -0.23696646943618771 0 -0.073739939347721106 -0.25286327803073722 0 -0.069738609708413973 -0.23696646943618771 0 -0.054537632815548437 -0.23364266571477851 0 -0.069738609708413973 -0.23696646943618771 0 -0.065013419058792044 -0.2181938468079746 0 -0.069738609708413973 -0.23696646943618771 0 -0.065013419058792044 -0.2181938468079746 0 -0.069738609708413973 -0.23696646943618771 0 -0.0814601996283362 -0.22334703532402531 0 -0.065013419058792044 -0.2181938468079746 0 -0.088868512691032575 -0.24114936131030601 0 -0.0814601996283362 -0.22334703532402531 0 -0.094473060955391264 -0.226375654220663 0 -0.088868512691032575 -0.24114936131030601 0 -0.069738609708413973 -0.23696646943618771 0 -0.0814601996283362 -0.22334703532402531 0 -0.0814601996283362 -0.22334703532402531 0 -0.092543618041914993 -0.2105929625604408 0 -0.094473060955391264 -0.226375654220663 0 -0.0814601996283362 -0.22334703532402531 0 -0.092543618041914993 -0.2105929625604408 0 -0.077382450772501221 -0.20461289927408521 0 -0.060288228409170072 -0.19942122417976149 0 -0.065013419058792044 -0.2181938468079746 0 -0.060288228409170072 -0.19942122417976149 0 -0.077382450772501221 -0.20461289927408521 0 -0.065013419058792044 -0.2181938468079746 0 -0.0814601996283362 -0.22334703532402531 0 -0.077382450772501221 -0.20461289927408521 0 -0.065013419058792044 -0.2181938468079746 0 -0.060288228409170072 -0.19942122417976149 0 -0.077382450772501221 -0.20461289927408521 0 -0.073660207747066928 -0.1911719647181935 0 -0.060288228409170072 -0.19942122417976149 0 -0.073660207747066928 -0.1911719647181935 0 -0.066133670182116147 -0.17624839361179551 0 -0.077382450772501221 -0.20461289927408521 0 -0.073660207747066928 -0.1911719647181935 0 -0.092149948625138645 -0.18585872913242149 0 -0.092543618041914993 -0.2105929625604408 0 -0.077382450772501221 -0.20461289927408521 0 -0.092149948625138645 -0.18585872913242149 0 -0.092543618041914993 -0.2105929625604408 0 -0.1063402526842615 -0.20455734236804129 0 -0.092149948625138645 -0.18585872913242149 0 -0.1128579409168646 -0.18910010024534971 0 -0.1063402526842615 -0.20455734236804129 0 -0.092149948625138645 -0.18585872913242149 0 -0.1128579409168646 -0.18910010024534971 0 -0.12093852719705719 -0.20477642003494981 0 -0.12803777364160129 -0.1922953823640553 0 -0.1128579409168646 -0.18910010024534971 0 -0.12093852719705719 -0.20477642003494981 0 -0.1063402526842615 -0.20455734236804129 0 -0.12093852719705719 -0.20477642003494981 0 -0.1165982046127521 -0.2165615571290366 0 -0.13354320637065781 -0.21301642817491459 0 -0.12093852719705719 -0.20477642003494981 0 -0.1165982046127521 -0.2165615571290366 0 -0.1063402526842615 -0.20455734236804129 0 -0.1165982046127521 -0.2165615571290366 0 -0.1063402526842615 -0.20455734236804129 0 -0.10361602631599311 -0.21953904449523809 0 -0.092543618041914993 -0.2105929625604408 0 -0.1063402526842615 -0.20455734236804129 0 -0.10361602631599311 -0.21953904449523809 0 -0.088868512691032575 -0.24114936131030601 0 -0.094473060955391264 -0.226375654220663 0 -0.1050518653979613 -0.23367539598245041 0 -0.092543618041914993 -0.2105929625604408 0 -0.094473060955391264 -0.226375654220663 0 -0.10361602631599311 -0.21953904449523809 0 -0.094473060955391264 -0.226375654220663 0 -0.1050518653979613 -0.23367539598245041 0 -0.10361602631599311 -0.21953904449523809 0 -0.1050518653979613 -0.23367539598245041 0 -0.10361602631599311 -0.21953904449523809 0 -0.1129434161665115 -0.22676301512578281 0 -0.1165982046127521 -0.2165615571290366 0 -0.1228410660181867 -0.22788514638776711 0 -0.13354320637065781 -0.21301642817491459 0 -0.1165982046127521 -0.2165615571290366 0 -0.10361602631599311 -0.21953904449523809 0 -0.1129434161665115 -0.22676301512578281 0 -0.1165982046127521 -0.2165615571290366 0 -0.1228410660181867 -0.22788514638776711 0 -0.1129434161665115 -0.22676301512578281 0 -0.1228410660181867 -0.22788514638776711 0 -0.11469525454004779 -0.2348831941912648 0 -0.1217811127749458 -0.23844541997881541 0 -0.1050518653979613 -0.23367539598245041 0 -0.1129434161665115 -0.22676301512578281 0 -0.11469525454004779 -0.2348831941912648 0 -0.1228410660181867 -0.22788514638776711 0 -0.1129434161665115 -0.22676301512578281 0 -0.11469525454004779 -0.2348831941912648 0 -0.111590285685638 -0.25422648743766318 0 -0.12392833461937661 -0.24881544536652669 0 -0.1079984156736512 -0.245332253184424 0 -0.12392833461937661 -0.24881544536652669 0 -0.1104551340193662 -0.24479219393818219 0 -0.1079984156736512 -0.245332253184424 0 -0.12392833461937661 -0.24881544536652669 0 -0.1079984156736512 -0.245332253184424 0 -0.1050518653979613 -0.23367539598245041 0 -0.1105079481693194 -0.23995091286429421 0 -0.11469525454004779 -0.2348831941912648 0 -0.1105079481693194 -0.23995091286429421 0 -0.1163545901475021 -0.24192104784080221 0 -0.11469525454004779 -0.2348831941912648 0 -0.1163545901475021 -0.24192104784080221 0 -0.11469525454004779 -0.2348831941912648 0 -0.1217811127749458 -0.23844541997881541 0 -0.1163545901475021 -0.24192104784080221 0 -0.1217811127749458 -0.23844541997881541 0 -0.12392833461937661 -0.24881544536652669 0 -0.1163545901475021 -0.24192104784080221 0 -0.12392833461937661 -0.24881544536652669 0 -0.1104551340193662 -0.24479219393818219 0 -0.1105079481693194 -0.23995091286429421 0 -0.1104551340193662 -0.24479219393818219 0 -0.1079984156736512 -0.245332253184424 0 -0.1105079481693194 -0.23995091286429421 0 -0.1163545901475021 -0.24192104784080221 0 -0.1104551340193662 -0.24479219393818219 0 -0.088868512691032575 -0.24114936131030601 0 -0.1079984156736512 -0.245332253184424 0 -0.095655273472869867 -0.24426141839027679 0 -0.088868512691032575 -0.24114936131030601 0 -0.1050518653979613 -0.23367539598245041 0 -0.1079984156736512 -0.245332253184424 0 -0.1079984156736512 -0.245332253184424 0 -0.097452039024329376 -0.24765065823633031 0 -0.088868512691032575 -0.24114936131030601 0 -0.1079984156736512 -0.245332253184424 0 -0.111590285685638 -0.25422648743766318 0 -0.1079984156736512 -0.245332253184424 0 -0.097452039024329376 -0.24765065823633031 0 -0.1104551340193662 -0.24479219393818219 0 -0.1079984156736512 -0.245332253184424 0 -0.1050518653979613 -0.23367539598245041 0 -0.1105079481693194 -0.23995091286429421 0 -0.1079984156736512 -0.245332253184424 0 -0.088868512691032575 -0.24114936131030601 0 -0.095655273472869867 -0.24426141839027679 0 -0.097452039024329376 -0.24765065823633031 0 -0.1079984156736512 -0.245332253184424 0 -0.095655273472869867 -0.24426141839027679 0 -0.097452039024329376 -0.24765065823633031 0 -0.095655273472869867 -0.24426141839027679 0 -0.097452039024329376 -0.24765065823633031 0 -0.084768767720129992 -0.1431966969956415 0 -0.093213328287597874 -0.13085961013338551 0 -0.1002706751458992 -0.1530467132686788 0 -0.084768767720129992 -0.1431966969956415 0 -0.07301312767322736 -0.15666125174865839 0 -0.1002706751458992 -0.1530467132686788 0 -0.07301312767322736 -0.15666125174865839 0 -0.1002706751458992 -0.1530467132686788 0 -0.083915119944456829 -0.1179996920943223 0 -0.093213328287597874 -0.13085961013338551 0 -0.070729328769619293 -0.13466225860969211 0 -0.084768767720129992 -0.1431966969956415 0 -0.093213328287597874 -0.13085961013338551 0 -0.070729328769619293 -0.13466225860969211 0 -0.070729328769619293 -0.13466225860969211 0 -0.07301312767322736 -0.15666125174865839 0 -0.084768767720129992 -0.1431966969956415 0 -0.070729328769619293 -0.13466225860969211 0 -0.07301312767322736 -0.15666125174865839 0 -0.061300587108231663 -0.14902178946925559 0 -0.070729328769619293 -0.13466225860969211 0 -0.07301312767322736 -0.15666125174865839 0 -0.073660455285824974 -0.16289672006668721 0 -0.066133670182116147 -0.17624839361179551 0 -0.085330847331451645 -0.16801099677977391 0 -0.051983926935862207 -0.15944986856550691 0 -0.07301312767322736 -0.15666125174865839 0 -0.061323652630454972 -0.1646195685307637 0 -0.07301312767322736 -0.15666125174865839 0 -0.073660455285824974 -0.16289672006668721 0 -0.061323652630454972 -0.1646195685307637 0 -0.073660455285824974 -0.16289672006668721 0 -0.066133670182116147 -0.17624839361179551 0 -0.07301312767322736 -0.15666125174865839 0 -0.073660455285824974 -0.16289672006668721 0 -0.085330847331451645 -0.16801099677977391 0 -0.07301312767322736 -0.15666125174865839 0 -0.073660455285824974 -0.16289672006668721 0 -0.073660207747066928 -0.1911719647181935 0 -0.066133670182116147 -0.17624839361179551 0 -0.092149948625138645 -0.18585872913242149 0 -0.066133670182116147 -0.17624839361179551 0 -0.092149948625138645 -0.18585872913242149 0 -0.066133670182116147 -0.17624839361179551 0 -0.092149948625138645 -0.18585872913242149 0 -0.085330847331451645 -0.16801099677977391 0 -0.07301312767322736 -0.15666125174865839 0 -0.085330847331451645 -0.16801099677977391 0 -0.1002706751458992 -0.1530467132686788 0 -0.1052895902586205 -0.17270678190518429 0 -0.1178890420936653 -0.16378792846729379 0 -0.1002706751458992 -0.1530467132686788 0 -0.085330847331451645 -0.16801099677977391 0 -0.1052895902586205 -0.17270678190518429 0 -0.1002706751458992 -0.1530467132686788 0 -0.092149948625138645 -0.18585872913242149 0 -0.085330847331451645 -0.16801099677977391 0 -0.1052895902586205 -0.17270678190518429 0 -0.1128579409168646 -0.18910010024534971 0 -0.092149948625138645 -0.18585872913242149 0 -0.1052895902586205 -0.17270678190518429 0 -0.1128579409168646 -0.18910010024534971 0 -0.1052895902586205 -0.17270678190518429 0 -0.1229263216757949 -0.1773604230389085 0 -0.1128579409168646 -0.18910010024534971 0 -0.1229263216757949 -0.1773604230389085 0 -0.12803777364160129 -0.1922953823640553 0 -0.1052895902586205 -0.17270678190518429 0 -0.1229263216757949 -0.1773604230389085 0 -0.1178890420936653 -0.16378792846729379 0 -0.1229263216757949 -0.1773604230389085 0 -0.1178890420936653 -0.16378792846729379 0 -0.13343040076944029 -0.16639354933499639 0 -0.1178890420936653 -0.16378792846729379 0 -0.1002706751458992 -0.1530467132686788 0 -0.12752822261857141 -0.1494321747887008 0 -0.1002706751458992 -0.1530467132686788 0 -0.1086675953805302 -0.13367601023245521 0 -0.12752822261857141 -0.1494321747887008 0 -0.1002706751458992 -0.1530467132686788 0 -0.12752822261857141 -0.1494321747887008 0 -0.1002804833808965 -0.11664823327993221 0 -0.093213328287597874 -0.13085961013338551 0 -0.1086675953805302 -0.13367601023245521 0 -0.093213328287597874 -0.13085961013338551 0 -0.1002706751458992 -0.1530467132686788 0 -0.1086675953805302 -0.13367601023245521 0 -0.1086675953805302 -0.13367601023245521 0 -0.1251917416359716 -0.13051157050874909 0 -0.12752822261857141 -0.1494321747887008 0 -0.11821568245561059 -0.1136071370108379 0 -0.1086675953805302 -0.13367601023245521 0 -0.1251917416359716 -0.13051157050874909 0 -0.1251917416359716 -0.13051157050874909 0 -0.13692065148046401 -0.13613203077077099 0 -0.13462655624468181 -0.11971049974098059 0 -0.13692065148046401 -0.13613203077077099 0 -0.14830316583950101 -0.12602600163290989 0 -0.13462655624468181 -0.11971049974098059 0 -0.1251917416359716 -0.13051157050874909 0 -0.13692065148046401 -0.13613203077077099 0 -0.12752822261857141 -0.1494321747887008 0 -0.13692065148046401 -0.13613203077077099 0 -0.14830316583950101 -0.12602600163290989 0 -0.15028403452590289 -0.14046665024937119 0 -0.13692065148046401 -0.13613203077077099 0 -0.15028403452590289 -0.14046665024937119 0 -0.14397180753590261 -0.15340815894959781 0 -0.15028403452590289 -0.14046665024937119 0 -0.14397180753590261 -0.15340815894959781 0 -0.16278066249216999 -0.14811231437191549 0 -0.13692065148046401 -0.13613203077077099 0 -0.14397180753590261 -0.15340815894959781 0 -0.12752822261857141 -0.1494321747887008 0 -0.14397180753590261 -0.15340815894959781 0 -0.12752822261857141 -0.1494321747887008 0 -0.13343040076944029 -0.16639354933499639 0 -0.1178890420936653 -0.16378792846729379 0 -0.12752822261857141 -0.1494321747887008 0 -0.13343040076944029 -0.16639354933499639 0 -0.13343040076944029 -0.16639354933499639 0 -0.13568451278876739 -0.1816649557061589 0 -0.15226973214103159 -0.17363185456063901 0 -0.1229263216757949 -0.1773604230389085 0 -0.13568451278876739 -0.1816649557061589 0 -0.12803777364160129 -0.1922953823640553 0 -0.1229263216757949 -0.1773604230389085 0 -0.13343040076944029 -0.16639354933499639 0 -0.13568451278876739 -0.1816649557061589 0 -0.13568451278876739 -0.1816649557061589 0 -0.15226973214103159 -0.17363185456063901 0 -0.14175880178989331 -0.19915139474936261 0 -0.15226973214103159 -0.17363185456063901 0 -0.14175880178989331 -0.19915139474936261 0 -0.14397180753590261 -0.15340815894959781 0 -0.15226973214103159 -0.17363185456063901 0 -0.16278066249216999 -0.14811231437191549 0 -0.14397180753590261 -0.15340815894959781 0 -0.13343040076944029 -0.16639354933499639 0 -0.15226973214103159 -0.17363185456063901 0 -0.15226973214103159 -0.17363185456063901 0 -0.17451704290679881 -0.1653332090914392 0 -0.16278066249216999 -0.14811231437191549 0 -0.15226973214103159 -0.17363185456063901 0 -0.16278066249216999 -0.14811231437191549 0 -0.15226973214103159 -0.17363185456063901 0 -0.16456216552100711 -0.1828551966254589 0 -0.17451704290679881 -0.1653332090914392 0 -0.15226973214103159 -0.17363185456063901 0 -0.16456216552100711 -0.1828551966254589 0 -0.1533770647469275 -0.1945985792351986 0 -0.16456216552100711 -0.1828551966254589 0 -0.17782050055730461 -0.1829673475842433 0 -0.16927289151329589 -0.19623005858244111 0 -0.17782050055730461 -0.1829673475842433 0 -0.19441026159111671 -0.1685669266028583 0 -0.16456216552100711 -0.1828551966254589 0 -0.17782050055730461 -0.1829673475842433 0 -0.17451704290679881 -0.1653332090914392 0 -0.17782050055730461 -0.1829673475842433 0 -0.17451704290679881 -0.1653332090914392 0 -0.19441026159111671 -0.1685669266028583 0 -0.17451704290679881 -0.1653332090914392 0 -0.19103288441533481 -0.15504220637101929 0 -0.19441026159111671 -0.1685669266028583 0 -0.17451704290679881 -0.1653332090914392 0 -0.18096629575978859 -0.1453991504872737 0 -0.19103288441533481 -0.15504220637101929 0 -0.17451704290679881 -0.1653332090914392 0 -0.18096629575978859 -0.1453991504872737 0 -0.16278066249216999 -0.14811231437191549 0 -0.18096629575978859 -0.1453991504872737 0 -0.19972217829856401 -0.1245951864467454 0 -0.1732915928433085 -0.12259277418319189 0 -0.18096629575978859 -0.1453991504872737 0 -0.16278066249216999 -0.14811231437191549 0 -0.1732915928433085 -0.12259277418319189 0 -0.16278066249216999 -0.14811231437191549 0 -0.1732915928433085 -0.12259277418319189 0 -0.14830316583950101 -0.12602600163290989 0 -0.15028403452590289 -0.14046665024937119 0 -0.1732915928433085 -0.12259277418319189 0 -0.15028403452590289 -0.14046665024937119 0 -0.16278066249216999 -0.14811231437191549 0 -0.1732915928433085 -0.12259277418319189 0 -0.15655054532119131 -0.25594852806874291 0 -0.13985825356510179 -0.25229863754863058 0 -0.1555506051919201 -0.2395575461362964 0 -0.13985825356510179 -0.25229863754863058 0 -0.1555506051919201 -0.2395575461362964 0 -0.14661765915601471 -0.2234486083919146 0 -0.13985825356510179 -0.25229863754863058 0 -0.14661765915601471 -0.2234486083919146 0 -0.13985825356510179 -0.25229863754863058 0 -0.13108631854961611 -0.23872226610771649 0 -0.14661765915601471 -0.2234486083919146 0 -0.13985825356510179 -0.25229863754863058 0 -0.12392833461937661 -0.24881544536652669 0 -0.13108631854961611 -0.23872226610771649 0 -0.1228410660181867 -0.22788514638776711 0 -0.1217811127749458 -0.23844541997881541 0 -0.13108631854961611 -0.23872226610771649 0 -0.1217811127749458 -0.23844541997881541 0 -0.12392833461937661 -0.24881544536652669 0 -0.13108631854961611 -0.23872226610771649 0 -0.1228410660181867 -0.22788514638776711 0 -0.14661765915601471 -0.2234486083919146 0 -0.13354320637065781 -0.21301642817491459 0 -0.1228410660181867 -0.22788514638776711 0 -0.13108631854961611 -0.23872226610771649 0 -0.14661765915601471 -0.2234486083919146 0 -0.1555506051919201 -0.2395575461362964 0 -0.14661765915601471 -0.2234486083919146 0 -0.16362970412737671 -0.2248803397138443 0 -0.14661765915601471 -0.2234486083919146 0 -0.1533770647469275 -0.1945985792351986 0 -0.14175880178989331 -0.19915139474936261 0 -0.14661765915601471 -0.2234486083919146 0 -0.1533770647469275 -0.1945985792351986 0 -0.14661765915601471 -0.2234486083919146 0 -0.13354320637065781 -0.21301642817491459 0 -0.14175880178989331 -0.19915139474936261 0 -0.14661765915601471 -0.2234486083919146 0 -0.1533770647469275 -0.1945985792351986 0 -0.16153614477637171 -0.2100090462304719 0 -0.12093852719705719 -0.20477642003494981 0 -0.13354320637065781 -0.21301642817491459 0 -0.13106957724980239 -0.20230990633082049 0 -0.13354320637065781 -0.21301642817491459 0 -0.13106957724980239 -0.20230990633082049 0 -0.14175880178989331 -0.19915139474936261 0 -0.13106957724980239 -0.20230990633082049 0 -0.12803777364160129 -0.1922953823640553 0 -0.14175880178989331 -0.19915139474936261 0 -0.13568451278876739 -0.1816649557061589 0 -0.12803777364160129 -0.1922953823640553 0 -0.14175880178989331 -0.19915139474936261 0 -0.12093852719705719 -0.20477642003494981 0 -0.13106957724980239 -0.20230990633082049 0 -0.12803777364160129 -0.1922953823640553 0 -0.15226973214103159 -0.17363185456063901 0 -0.1533770647469275 -0.1945985792351986 0 -0.14175880178989331 -0.19915139474936261 0 -0.1533770647469275 -0.1945985792351986 0 -0.16927289151329589 -0.19623005858244111 0 -0.16153614477637171 -0.2100090462304719 0 -0.16456216552100711 -0.1828551966254589 0 -0.1533770647469275 -0.1945985792351986 0 -0.16927289151329589 -0.19623005858244111 0 -0.16927289151329589 -0.19623005858244111 0 -0.18663001683737199 -0.19950531036418279 0 -0.17536331493959681 -0.211122109272981 0 -0.17782050055730461 -0.1829673475842433 0 -0.16927289151329589 -0.19623005858244111 0 -0.18663001683737199 -0.19950531036418279 0 -0.18663001683737199 -0.19950531036418279 0 -0.17536331493959681 -0.211122109272981 0 -0.19133106578394851 -0.21644294818789489 0 -0.17536331493959681 -0.211122109272981 0 -0.17774219185290721 -0.22541619970041701 0 -0.19133106578394851 -0.21644294818789489 0 -0.17536331493959681 -0.211122109272981 0 -0.16153614477637171 -0.2100090462304719 0 -0.16362970412737671 -0.2248803397138443 0 -0.16927289151329589 -0.19623005858244111 0 -0.17536331493959681 -0.211122109272981 0 -0.16153614477637171 -0.2100090462304719 0 -0.14661765915601471 -0.2234486083919146 0 -0.16153614477637171 -0.2100090462304719 0 -0.16362970412737671 -0.2248803397138443 0 -0.16362970412737671 -0.2248803397138443 0 -0.17774219185290721 -0.22541619970041701 0 -0.17147871473588791 -0.24130402352345789 0 -0.17536331493959681 -0.211122109272981 0 -0.16362970412737671 -0.2248803397138443 0 -0.17774219185290721 -0.22541619970041701 0 -0.17774219185290721 -0.22541619970041701 0 -0.17147871473588791 -0.24130402352345789 0 -0.19068773296012631 -0.2333969854059588 0 -0.17774219185290721 -0.22541619970041701 0 -0.19068773296012631 -0.2333969854059588 0 -0.19133106578394851 -0.21644294818789489 0 -0.1880279212736167 -0.25014340261270551 0 -0.17147871473588791 -0.24130402352345789 0 -0.19068773296012631 -0.2333969854059588 0 -0.15655054532119131 -0.25594852806874291 0 -0.1555506051919201 -0.2395575461362964 0 -0.17147871473588791 -0.24130402352345789 0 -0.1555506051919201 -0.2395575461362964 0 -0.16362970412737671 -0.2248803397138443 0 -0.17147871473588791 -0.24130402352345789 0 -0.20437748481527421 -0.25694666431139068 0 -0.2179523242608912 -0.24845533205632031 0 -0.20598248785940701 -0.24054144766818461 0 -0.2179523242608912 -0.24845533205632031 0 -0.20598248785940701 -0.24054144766818461 0 -0.2220524822324195 -0.23606006563144649 0 -0.1880279212736167 -0.25014340261270551 0 -0.20437748481527421 -0.25694666431139068 0 -0.20598248785940701 -0.24054144766818461 0 -0.1880279212736167 -0.25014340261270551 0 -0.20598248785940701 -0.24054144766818461 0 -0.19068773296012631 -0.2333969854059588 0 -0.19068773296012631 -0.2333969854059588 0 -0.20617161790729341 -0.22566188038004159 0 -0.19133106578394851 -0.21644294818789489 0 -0.20598248785940701 -0.24054144766818461 0 -0.19068773296012631 -0.2333969854059588 0 -0.20617161790729341 -0.22566188038004159 0 -0.20598248785940701 -0.24054144766818461 0 -0.20617161790729341 -0.22566188038004159 0 -0.2220524822324195 -0.23606006563144649 0 -0.20617161790729341 -0.22566188038004159 0 -0.219028192610533 -0.22060657509247369 0 -0.2220524822324195 -0.23606006563144649 0 -0.20488005176876911 -0.20530040945736611 0 -0.21649604131031799 -0.1961873016553875 0 -0.22523357544213429 -0.20808837068868019 0 -0.20488005176876911 -0.20530040945736611 0 -0.22523357544213429 -0.20808837068868019 0 -0.20617161790729341 -0.22566188038004159 0 -0.20488005176876911 -0.20530040945736611 0 -0.219028192610533 -0.22060657509247369 0 -0.20488005176876911 -0.20530040945736611 0 -0.22523357544213429 -0.20808837068868019 0 -0.219028192610533 -0.22060657509247369 0 -0.18663001683737199 -0.19950531036418279 0 -0.20488005176876911 -0.20530040945736611 0 -0.19133106578394851 -0.21644294818789489 0 -0.20617161790729341 -0.22566188038004159 0 -0.20488005176876911 -0.20530040945736611 0 -0.19133106578394851 -0.21644294818789489 0 -0.17782050055730461 -0.1829673475842433 0 -0.18663001683737199 -0.19950531036418279 0 -0.20016738251935079 -0.18785864468644961 0 -0.18663001683737199 -0.19950531036418279 0 -0.20488005176876911 -0.20530040945736611 0 -0.20016738251935079 -0.18785864468644961 0 -0.20488005176876911 -0.20530040945736611 0 -0.20016738251935079 -0.18785864468644961 0 -0.21649604131031799 -0.1961873016553875 0 -0.20016738251935079 -0.18785864468644961 0 -0.21649604131031799 -0.1961873016553875 0 -0.2184996775905052 -0.1815597458617294 0 -0.21649604131031799 -0.1961873016553875 0 -0.23491939453818711 -0.1958230071233078 0 -0.2184996775905052 -0.1815597458617294 0 -0.21649604131031799 -0.1961873016553875 0 -0.23491939453818711 -0.1958230071233078 0 -0.22523357544213429 -0.20808837068868019 0 -0.23491939453818711 -0.1958230071233078 0 -0.24699794624001389 -0.17924373397363971 0 -0.25670202753065169 -0.19898255864041631 0 -0.23491939453818711 -0.1958230071233078 0 -0.24558709911549961 -0.21087633191999369 0 -0.25670202753065169 -0.19898255864041631 0 -0.24558709911549961 -0.21087633191999369 0 -0.22523357544213429 -0.20808837068868019 0 -0.2338197906739595 -0.22346819877572 0 -0.23491939453818711 -0.1958230071233078 0 -0.24558709911549961 -0.21087633191999369 0 -0.22523357544213429 -0.20808837068868019 0 -0.24558709911549961 -0.21087633191999369 0 -0.22523357544213429 -0.20808837068868019 0 -0.24558709911549961 -0.21087633191999369 0 -0.2338197906739595 -0.22346819877572 0 -0.24911422868170541 -0.22017811325298789 0 -0.24558709911549961 -0.21087633191999369 0 -0.2338197906739595 -0.22346819877572 0 -0.22523357544213429 -0.20808837068868019 0 -0.219028192610533 -0.22060657509247369 0 -0.2338197906739595 -0.22346819877572 0 -0.219028192610533 -0.22060657509247369 0 -0.2338197906739595 -0.22346819877572 0 -0.2220524822324195 -0.23606006563144649 0 -0.2338197906739595 -0.22346819877572 0 -0.23325897415184541 -0.23532115938694359 0 -0.2220524822324195 -0.23606006563144649 0 -0.2338197906739595 -0.22346819877572 0 -0.2220524822324195 -0.23606006563144649 0 -0.2338197906739595 -0.22346819877572 0 -0.24911422868170541 -0.22017811325298789 0 -0.24830814250465799 -0.23009345510381779 0 -0.2338197906739595 -0.22346819877572 0 -0.24830814250465799 -0.23009345510381779 0 -0.23325897415184541 -0.23532115938694359 0 -0.24830814250465799 -0.23009345510381779 0 -0.23325897415184541 -0.23532115938694359 0 -0.25218120228073287 -0.24765507659215041 0 -0.23127281081028589 -0.2445989711667261 0 -0.23325897415184541 -0.23532115938694359 0 -0.25218120228073287 -0.24765507659215041 0 -0.23091907112554011 -0.25550322216676979 0 -0.23127281081028589 -0.2445989711667261 0 -0.25218120228073287 -0.24765507659215041 0 -0.23325897415184541 -0.23532115938694359 0 -0.25218120228073287 -0.24765507659215041 0 -0.23091907112554011 -0.25550322216676979 0 -0.2179523242608912 -0.24845533205632031 0 -0.23127281081028589 -0.2445989711667261 0 -0.23127281081028589 -0.2445989711667261 0 -0.23325897415184541 -0.23532115938694359 0 -0.2220524822324195 -0.23606006563144649 0 -0.2179523242608912 -0.24845533205632031 0 -0.23127281081028589 -0.2445989711667261 0 -0.2220524822324195 -0.23606006563144649 0 -0.21100002262492881 -0.15416650562147319 0 -0.2144834031818883 -0.14064963439898101 0 -0.22758978365873919 -0.139766084640086 0 -0.21100002262492881 -0.15416650562147319 0 -0.2144834031818883 -0.14064963439898101 0 -0.19944095685610089 -0.14397053666509849 0 -0.2144834031818883 -0.14064963439898101 0 -0.21737421239473059 -0.1236632837885074 0 -0.19972217829856401 -0.1245951864467454 0 -0.2144834031818883 -0.14064963439898101 0 -0.19944095685610089 -0.14397053666509849 0 -0.19972217829856401 -0.1245951864467454 0 -0.18096629575978859 -0.1453991504872737 0 -0.19944095685610089 -0.14397053666509849 0 -0.19972217829856401 -0.1245951864467454 0 -0.18096629575978859 -0.1453991504872737 0 -0.19972217829856401 -0.1245951864467454 0 -0.18096629575978859 -0.1453991504872737 0 -0.19103288441533481 -0.15504220637101929 0 -0.19944095685610089 -0.14397053666509849 0 -0.21100002262492881 -0.15416650562147319 0 -0.19103288441533481 -0.15504220637101929 0 -0.19944095685610089 -0.14397053666509849 0 -0.21100002262492881 -0.15416650562147319 0 -0.19441026159111671 -0.1685669266028583 0 -0.21100002262492881 -0.15416650562147319 0 -0.19103288441533481 -0.15504220637101929 0 -0.19441026159111671 -0.1685669266028583 0 -0.17782050055730461 -0.1829673475842433 0 -0.20016738251935079 -0.18785864468644961 0 -0.19441026159111671 -0.1685669266028583 0 -0.20016738251935079 -0.18785864468644961 0 -0.19441026159111671 -0.1685669266028583 0 -0.2184996775905052 -0.1815597458617294 0 -0.21100002262492881 -0.15416650562147319 0 -0.2184996775905052 -0.1815597458617294 0 -0.2261451005368981 -0.16728287650766879 0 -0.21100002262492881 -0.15416650562147319 0 -0.19441026159111671 -0.1685669266028583 0 -0.2184996775905052 -0.1815597458617294 0 -0.21100002262492881 -0.15416650562147319 0 -0.2261451005368981 -0.16728287650766879 0 -0.22485113780916971 -0.15336726115100999 0 -0.2261451005368981 -0.16728287650766879 0 -0.23729386494937629 -0.15950490930686301 0 -0.22485113780916971 -0.15336726115100999 0 -0.2184996775905052 -0.1815597458617294 0 -0.2261451005368981 -0.16728287650766879 0 -0.24699794624001389 -0.17924373397363971 0 -0.23491939453818711 -0.1958230071233078 0 -0.2184996775905052 -0.1815597458617294 0 -0.24699794624001389 -0.17924373397363971 0 -0.24699794624001389 -0.17924373397363971 0 -0.23729386494937629 -0.15950490930686301 0 -0.251064607594914 -0.16497388850394279 0 -0.23729386494937629 -0.15950490930686301 0 -0.24606608051875911 -0.14598770838649369 0 -0.251064607594914 -0.16497388850394279 0 -0.2261451005368981 -0.16728287650766879 0 -0.24699794624001389 -0.17924373397363971 0 -0.23729386494937629 -0.15950490930686301 0 -0.24699794624001389 -0.17924373397363971 0 -0.23729386494937629 -0.15950490930686301 0 -0.23729386494937629 -0.15950490930686301 0 -0.24606608051875911 -0.14598770838649369 0 -0.22758978365873919 -0.139766084640086 0 -0.21100002262492881 -0.15416650562147319 0 -0.22485113780916971 -0.15336726115100999 0 -0.22758978365873919 -0.139766084640086 0 -0.21100002262492881 -0.15416650562147319 0 -0.22758978365873919 -0.139766084640086 0 -0.23729386494937629 -0.15950490930686301 0 -0.22485113780916971 -0.15336726115100999 0 -0.22758978365873919 -0.139766084640086 0 -0.23729386494937629 -0.15950490930686301 0 -0.22758978365873919 -0.139766084640086 0 -0.22465971514282959 -0.13380610687764011 0 -0.22758978365873919 -0.139766084640086 0 -0.2436798139825718 -0.12579944522954009 0 -0.2144834031818883 -0.14064963439898101 0 -0.22465971514282959 -0.13380610687764011 0 -0.21737421239473059 -0.1236632837885074 0 -0.22465971514282959 -0.13380610687764011 0 -0.2436798139825718 -0.12579944522954009 0 -0.2295277045130312 -0.1154742688129534 0 -0.2144834031818883 -0.14064963439898101 0 -0.22465971514282959 -0.13380610687764011 0 -0.22758978365873919 -0.139766084640086 0 -0.22465971514282959 -0.13380610687764011 0 -0.22758978365873919 -0.139766084640086 0 -0.24606608051875911 -0.14598770838649369 0 -0.2436798139825718 -0.12579944522954009 0 -0.26013140884650421 -0.1371804659279291 0 -0.24606608051875911 -0.14598770838649369 0 -0.22758978365873919 -0.139766084640086 0 -0.2436798139825718 -0.12579944522954009 0 -0.22758978365873919 -0.139766084640086 0 -0.2436798139825718 -0.12579944522954009 0 -0.2436798139825718 -0.12579944522954009 0 -0.24308289196064389 -0.1078683283926664 0 -0.2295277045130312 -0.1154742688129534 0 -0.2436798139825718 -0.12579944522954009 0 -0.24308289196064389 -0.1078683283926664 0 -0.25976984430640249 -0.1118328058189921 0 -0.24308289196064389 -0.1078683283926664 0 -0.23257824536631549 -0.099139001506213048 0 -0.2295277045130312 -0.1154742688129534 0 -0.24308289196064389 -0.1078683283926664 0 -0.24221187145694759 -0.097322295862043107 0 -0.25091980139663123 -0.09890296816179335 0 -0.24221187145694759 -0.097322295862043107 0 -0.2455175823904838 -0.091115928542589611 0 -0.25091980139663123 -0.09890296816179335 0 -0.24308289196064389 -0.1078683283926664 0 -0.24221187145694759 -0.097322295862043107 0 -0.23257824536631549 -0.099139001506213048 0 -0.24221187145694759 -0.097322295862043107 0 -0.23257824536631549 -0.099139001506213048 0 -0.2379382131263556 -0.090211591795872806 0 -0.23257824536631549 -0.099139001506213048 0 -0.23723394337611489 -0.082987258365688821 0 -0.21847806083733959 -0.1037912224062171 0 -0.23257824536631549 -0.099139001506213048 0 -0.2295277045130312 -0.1154742688129534 0 -0.21847806083733959 -0.1037912224062171 0 -0.2295277045130312 -0.1154742688129534 0 -0.21737421239473059 -0.1236632837885074 0 -0.21847806083733959 -0.1037912224062171 0 -0.22465971514282959 -0.13380610687764011 0 -0.2295277045130312 -0.1154742688129534 0 -0.21737421239473059 -0.1236632837885074 0 -0.24009845831519849 -0.079809947691927244 0 -0.25812862611481419 -0.073978427002453717 0 -0.2401822080263325 -0.066208697425509583 0 -0.24009845831519849 -0.079809947691927244 0 -0.25316805942387588 -0.065313188559061319 0 -0.24009845831519849 -0.079809947691927244 0 -0.25316805942387588 -0.065313188559061319 0 -0.2401822080263325 -0.066208697425509583 0 -0.2363150994346859 -0.08103360438955684 0 -0.24009845831519849 -0.079809947691927244 0 -0.23257824536631549 -0.099139001506213048 0 -0.23723394337611489 -0.082987258365688821 0 -0.2379382131263556 -0.090211591795872806 0 -0.2363150994346859 -0.08103360438955684 0 -0.23723394337611489 -0.082987258365688821 0 -0.2363150994346859 -0.08103360438955684 0 -0.24009845831519849 -0.079809947691927244 0 -0.2363150994346859 -0.08103360438955684 0 -0.23723394337611489 -0.082987258365688821 0 -0.24009845831519849 -0.079809947691927244 0 -0.23808813151529201 -0.084803440612995967 0 -0.23723394337611489 -0.082987258365688821 0 -0.23808813151529201 -0.084803440612995967 0 -0.23723394337611489 -0.082987258365688821 0 -0.24021066326607629 -0.082960694581743502 0 -0.23808813151529201 -0.084803440612995967 0 -0.24021066326607629 -0.082960694581743502 0 -0.2420667073110517 -0.085990379249522964 0 -0.24021066326607629 -0.082960694581743502 0 -0.24009845831519849 -0.079809947691927244 0 -0.24429465424558799 -0.082705907046128346 0 -0.23723394337611489 -0.082987258365688821 0 -0.24021066326607629 -0.082960694581743502 0 -0.24009845831519849 -0.079809947691927244 0 -0.23723394337611489 -0.082987258365688821 0 -0.24009845831519849 -0.079809947691927244 0 -0.24009845831519849 -0.079809947691927244 0 -0.24429465424558799 -0.082705907046128346 0 -0.25189407492121679 -0.079475402485211358 0 -0.24720336741439641 -0.085293111222236262 0 -0.24429465424558799 -0.082705907046128346 0 -0.25189407492121679 -0.079475402485211358 0 -0.24720336741439641 -0.085293111222236262 0 -0.24429465424558799 -0.082705907046128346 0 -0.2420667073110517 -0.085990379249522964 0 -0.24021066326607629 -0.082960694581743502 0 -0.24429465424558799 -0.082705907046128346 0 -0.2420667073110517 -0.085990379249522964 0 -0.24720336741439641 -0.085293111222236262 0 -0.2455175823904838 -0.091115928542589611 0 -0.2420667073110517 -0.085990379249522964 0 -0.2455175823904838 -0.091115928542589611 0 -0.25276553363752058 -0.088975224964069191 0 -0.25091980139663123 -0.09890296816179335 0 -0.24720336741439641 -0.085293111222236262 0 -0.2455175823904838 -0.091115928542589611 0 -0.25276553363752058 -0.088975224964069191 0 -0.24221187145694759 -0.097322295862043107 0 -0.2455175823904838 -0.091115928542589611 0 -0.2379382131263556 -0.090211591795872806 0 -0.2455175823904838 -0.091115928542589611 0 -0.2420667073110517 -0.085990379249522964 0 -0.2379382131263556 -0.090211591795872806 0 -0.23808813151529201 -0.084803440612995967 0 -0.2420667073110517 -0.085990379249522964 0 -0.2379382131263556 -0.090211591795872806 0 -0.23808813151529201 -0.084803440612995967 0 -0.23723394337611489 -0.082987258365688821 0 -0.2379382131263556 -0.090211591795872806 0 -0.23723394337611489 -0.082987258365688821 0 -0.21847806083733959 -0.1037912224062171 0 -0.23723394337611489 -0.082987258365688821 0 -0.22632942380937821 -0.084263284482084574 0 -0.21847806083733959 -0.1037912224062171 0 -0.2363150994346859 -0.08103360438955684 0 -0.22632942380937821 -0.084263284482084574 0 -0.21910570965623541 -0.074568706566803908 0 -0.2363150994346859 -0.08103360438955684 0 -0.22632942380937821 -0.084263284482084574 0 -0.2363150994346859 -0.08103360438955684 0 -0.23723394337611489 -0.082987258365688821 0 -0.22632942380937821 -0.084263284482084574 0 -0.2363150994346859 -0.08103360438955684 0 -0.22466476587360679 -0.056262563891128353 0 -0.2401822080263325 -0.066208697425509583 0 -0.2363150994346859 -0.08103360438955684 0 -0.22466476587360679 -0.056262563891128353 0 -0.2363150994346859 -0.08103360438955684 0 -0.21910570965623541 -0.074568706566803908 0 -0.22466476587360679 -0.056262563891128353 0 -0.21910570965623541 -0.074568706566803908 0 -0.20523074089733229 -0.08712271144699256 0 -0.2029885182661737 -0.064161368624257281 0 -0.21910570965623541 -0.074568706566803908 0 -0.2029885182661737 -0.064161368624257281 0 -0.22466476587360679 -0.056262563891128353 0 -0.22632942380937821 -0.084263284482084574 0 -0.21910570965623541 -0.074568706566803908 0 -0.20523074089733229 -0.08712271144699256 0 -0.22632942380937821 -0.084263284482084574 0 -0.20523074089733229 -0.08712271144699256 0 -0.21847806083733959 -0.1037912224062171 0 -0.20523074089733229 -0.08712271144699256 0 -0.18732659778249849 -0.1031157529861986 0 -0.1854760688456249 -0.079180188213145639 0 -0.20523074089733229 -0.08712271144699256 0 -0.2029885182661737 -0.064161368624257281 0 -0.1854760688456249 -0.079180188213145639 0 -0.2029885182661737 -0.064161368624257281 0 -0.1854760688456249 -0.079180188213145639 0 -0.17664085954406611 -0.06344637277368731 0 -0.21737421239473059 -0.1236632837885074 0 -0.21847806083733959 -0.1037912224062171 0 -0.19972217829856401 -0.1245951864467454 0 -0.21847806083733959 -0.1037912224062171 0 -0.19972217829856401 -0.1245951864467454 0 -0.21847806083733959 -0.1037912224062171 0 -0.2029217861226863 -0.102556173671147 0 -0.19972217829856401 -0.1245951864467454 0 -0.20523074089733229 -0.08712271144699256 0 -0.21847806083733959 -0.1037912224062171 0 -0.2029217861226863 -0.102556173671147 0 -0.20523074089733229 -0.08712271144699256 0 -0.2029217861226863 -0.102556173671147 0 -0.18732659778249849 -0.1031157529861986 0 -0.2029217861226863 -0.102556173671147 0 -0.19972217829856401 -0.1245951864467454 0 -0.18732659778249849 -0.1031157529861986 0 -0.19972217829856401 -0.1245951864467454 0 -0.1732915928433085 -0.12259277418319189 0 -0.18732659778249849 -0.1031157529861986 0 -0.14830316583950101 -0.12602600163290989 0 -0.1732915928433085 -0.12259277418319189 0 -0.15074871113799179 -0.1096552244084366 0 -0.1732915928433085 -0.12259277418319189 0 -0.1658892083747813 -0.096853727721791918 0 -0.15074871113799179 -0.1096552244084366 0 -0.1732915928433085 -0.12259277418319189 0 -0.1658892083747813 -0.096853727721791918 0 -0.18732659778249849 -0.1031157529861986 0 -0.1658892083747813 -0.096853727721791918 0 -0.18732659778249849 -0.1031157529861986 0 -0.1854760688456249 -0.079180188213145639 0 -0.1854760688456249 -0.079180188213145639 0 -0.17664085954406611 -0.06344637277368731 0 -0.15944534420669951 -0.075260465116129466 0 -0.17664085954406611 -0.06344637277368731 0 -0.15944534420669951 -0.075260465116129466 0 -0.1530140320565562 -0.053861210212861207 0 -0.1658892083747813 -0.096853727721791918 0 -0.15944534420669951 -0.075260465116129466 0 -0.14593510235219631 -0.095037602496780976 0 -0.1658892083747813 -0.096853727721791918 0 -0.1854760688456249 -0.079180188213145639 0 -0.15944534420669951 -0.075260465116129466 0 -0.15944534420669951 -0.075260465116129466 0 -0.14091651509436859 -0.07943342675695525 0 -0.14593510235219631 -0.095037602496780976 0 -0.15944534420669951 -0.075260465116129466 0 -0.14091651509436859 -0.07943342675695525 0 -0.13950308642355899 -0.063451238307080118 0 -0.15944534420669951 -0.075260465116129466 0 -0.13950308642355899 -0.063451238307080118 0 -0.1530140320565562 -0.053861210212861207 0 -0.1224892812973684 -0.065922536236909704 0 -0.14091651509436859 -0.07943342675695525 0 -0.12776216479548941 -0.088274220775726886 0 -0.1224892812973684 -0.065922536236909704 0 -0.14091651509436859 -0.07943342675695525 0 -0.13950308642355899 -0.063451238307080118 0 -0.14091651509436859 -0.07943342675695525 0 -0.12776216479548941 -0.088274220775726886 0 -0.14593510235219631 -0.095037602496780976 0 -0.1244918998790102 -0.098597789864215385 0 -0.12776216479548941 -0.088274220775726886 0 -0.13392168469180829 -0.1046565159495511 0 -0.12776216479548941 -0.088274220775726886 0 -0.13392168469180829 -0.1046565159495511 0 -0.14593510235219631 -0.095037602496780976 0 -0.11821568245561059 -0.1136071370108379 0 -0.1244918998790102 -0.098597789864215385 0 -0.13392168469180829 -0.1046565159495511 0 -0.11821568245561059 -0.1136071370108379 0 -0.1251917416359716 -0.13051157050874909 0 -0.13462655624468181 -0.11971049974098059 0 -0.11821568245561059 -0.1136071370108379 0 -0.13392168469180829 -0.1046565159495511 0 -0.13462655624468181 -0.11971049974098059 0 -0.13392168469180829 -0.1046565159495511 0 -0.13462655624468181 -0.11971049974098059 0 -0.15074871113799179 -0.1096552244084366 0 -0.14830316583950101 -0.12602600163290989 0 -0.13462655624468181 -0.11971049974098059 0 -0.15074871113799179 -0.1096552244084366 0 -0.13392168469180829 -0.1046565159495511 0 -0.15074871113799179 -0.1096552244084366 0 -0.14593510235219631 -0.095037602496780976 0 -0.1658892083747813 -0.096853727721791918 0 -0.15074871113799179 -0.1096552244084366 0 -0.14593510235219631 -0.095037602496780976 0 -0.15606723565920699 -0.02699709753395475 0 -0.13859889405508499 -0.020830469616994269 0 -0.1591204392618577 -0.00013298485504840629 0 -0.15606723565920699 -0.02699709753395475 0 -0.13859889405508499 -0.020830469616994269 0 -0.13383949580465801 -0.044496257040711647 0 -0.12787206249873251 -0.0031963116537159961 0 -0.13859889405508499 -0.020830469616994269 0 -0.1591204392618577 -0.00013298485504840629 0 -0.11609523705097009 -0.029329697001540551 0 -0.12787206249873251 -0.0031963116537159961 0 -0.13859889405508499 -0.020830469616994269 0 -0.11609523705097009 -0.029329697001540551 0 -0.13859889405508499 -0.020830469616994269 0 -0.13383949580465801 -0.044496257040711647 0 -0.1224892812973684 -0.065922536236909704 0 -0.13950308642355899 -0.063451238307080118 0 -0.13383949580465801 -0.044496257040711647 0 -0.13950308642355899 -0.063451238307080118 0 -0.13383949580465801 -0.044496257040711647 0 -0.1530140320565562 -0.053861210212861207 0 -0.15606723565920699 -0.02699709753395475 0 -0.1530140320565562 -0.053861210212861207 0 -0.15606723565920699 -0.02699709753395475 0 -0.13383949580465801 -0.044496257040711647 0 -0.1530140320565562 -0.053861210212861207 0 -0.15606723565920699 -0.02699709753395475 0 -0.1530140320565562 -0.053861210212861207 0 -0.18228033434527641 -0.044768631702042982 0 -0.17664085954406611 -0.06344637277368731 0 -0.1530140320565562 -0.053861210212861207 0 -0.18228033434527641 -0.044768631702042982 0 -0.2029885182661737 -0.064161368624257281 0 -0.17664085954406611 -0.06344637277368731 0 -0.18228033434527641 -0.044768631702042982 0 -0.15606723565920699 -0.02699709753395475 0 -0.18228033434527641 -0.044768631702042982 0 -0.18608545933040499 -0.02342381034277605 0 -0.15606723565920699 -0.02699709753395475 0 -0.18608545933040499 -0.02342381034277605 0 -0.18056157430543551 -0.001379124261014261 0 -0.15606723565920699 -0.02699709753395475 0 -0.1591204392618577 -0.00013298485504840629 0 -0.15606723565920699 -0.02699709753395475 0 -0.1591204392618577 -0.00013298485504840629 0 -0.18056157430543551 -0.001379124261014261 0 -0.18608545933040499 -0.02342381034277605 0 -0.18056157430543551 -0.001379124261014261 0 -0.20136409875144851 -0.0067204828942713842 0 -0.18608545933040499 -0.02342381034277605 0 -0.20136409875144851 -0.0067204828942713842 0 -0.2130144323125277 -0.031491523392699873 0 -0.20136409875144851 -0.0067204828942713842 0 -0.2130144323125277 -0.031491523392699873 0 -0.2244252935352663 -0.01285869911836935 0 -0.20136409875144851 -0.0067204828942713842 0 -0.2130144323125277 -0.031491523392699873 0 -0.20136409875144851 -0.0067204828942713842 0 -0.2244252935352663 -0.01285869911836935 0 -0.21631877362206239 0.001625407428068355 0 -0.2029885182661737 -0.064161368624257281 0 -0.18228033434527641 -0.044768631702042982 0 -0.2130144323125277 -0.031491523392699873 0 -0.2029885182661737 -0.064161368624257281 0 -0.2130144323125277 -0.031491523392699873 0 -0.22466476587360679 -0.056262563891128353 0 -0.18228033434527641 -0.044768631702042982 0 -0.18608545933040499 -0.02342381034277605 0 -0.2130144323125277 -0.031491523392699873 0 -0.2130144323125277 -0.031491523392699873 0 -0.22466476587360679 -0.056262563891128353 0 -0.2130144323125277 -0.031491523392699873 0 -0.22466476587360679 -0.056262563891128353 0 -0.23462570898078669 -0.032180744015881307 0 -0.23462570898078669 -0.032180744015881307 0 -0.2476418689072212 -0.033052400000039922 0 -0.24666465708429461 -0.048624182595873679 0 -0.22466476587360679 -0.056262563891128353 0 -0.23462570898078669 -0.032180744015881307 0 -0.24666465708429461 -0.048624182595873679 0 -0.2401822080263325 -0.066208697425509583 0 -0.22466476587360679 -0.056262563891128353 0 -0.24666465708429461 -0.048624182595873679 0 -0.2401822080263325 -0.066208697425509583 0 -0.24666465708429461 -0.048624182595873679 0 -0.25316805942387588 -0.065313188559061319 0 -0.2244252935352663 -0.01285869911836935 0 -0.21631877362206239 0.001625407428068355 0 -0.23269332792851949 0.0073657786636318751 0 -0.2130144323125277 -0.031491523392699873 0 -0.23462570898078669 -0.032180744015881307 0 -0.2244252935352663 -0.01285869911836935 0 -0.23462570898078669 -0.032180744015881307 0 -0.2476418689072212 -0.033052400000039922 0 -0.24732347916410771 -0.01467963157492426 0 -0.23462570898078669 -0.032180744015881307 0 -0.2244252935352663 -0.01285869911836935 0 -0.24732347916410771 -0.01467963157492426 0 -0.24732347916410771 -0.01467963157492426 0 -0.23269332792851949 0.0073657786636318751 0 -0.2244252935352663 -0.01285869911836935 0 -0.24732347916410771 -0.01467963157492426 0 -0.23269332792851949 0.0073657786636318751 0 -0.24732347916410771 -0.01467963157492426 0 -0.26308809303082348 -0.0061578822087555102 0 -0.26314563906708738 -0.021464649856099031 0 -0.24732347916410771 -0.01467963157492426 0 -0.26308809303082348 -0.0061578822087555102 0 -0.25634800387939422 0.010446769574923199 0 -0.24732347916410771 -0.01467963157492426 0 -0.26314563906708738 -0.021464649856099031 0 -0.26195363039969588 -0.036725041813480422 0 -0.2476418689072212 -0.033052400000039922 0 -0.24732347916410771 -0.01467963157492426 0 -0.26195363039969588 -0.036725041813480422 0 -0.24732347916410771 -0.01467963157492426 0 -0.26195363039969588 -0.036725041813480422 0 -0.27804777409022702 -0.017967962980187799 0 -0.27727982269183199 -0.038367853988106632 0 -0.27804777409022702 -0.017967962980187799 0 -0.28800640170776598 -0.029684003402906532 0 -0.27727982269183199 -0.038367853988106632 0 -0.26314563906708738 -0.021464649856099031 0 -0.27804777409022702 -0.017967962980187799 0 -0.27727982269183199 -0.038367853988106632 0 -0.26308809303082348 -0.0061578822087555102 0 -0.27804777409022702 -0.017967962980187799 0 -0.27881572548862182 0.0024319280277310261 0 -0.27804777409022702 -0.017967962980187799 0 -0.27881572548862182 0.0024319280277310261 0 -0.26308809303082348 -0.0061578822087555102 0 -0.26314563906708738 -0.021464649856099031 0 -0.27804777409022702 -0.017967962980187799 0 -0.30132554700541658 -0.018951858364780961 0 -0.28853647752776818 0.0069181716844335106 0 -0.27804777409022702 -0.017967962980187799 0 -0.27881572548862182 0.0024319280277310261 0 -0.28853647752776818 0.0069181716844335106 0 -0.27804777409022702 -0.017967962980187799 0 -0.30132554700541658 -0.018951858364780961 0 -0.28853647752776818 0.0069181716844335106 0 -0.27804777409022702 -0.017967962980187799 0 -0.28800640170776598 -0.029684003402906532 0 -0.30132554700541658 -0.018951858364780961 0 -0.28800640170776598 -0.029684003402906532 0 -0.30132554700541658 -0.018951858364780961 0 -0.29537246304358838 -0.043448338278550713 0 -0.30132554700541658 -0.018951858364780961 0 -0.31721456152409722 -0.026819779637135239 0 -0.3141146164830651 -0.044821888413995419 0 -0.30132554700541658 -0.018951858364780961 0 -0.30418814435295449 -0.0017308923959753141 0 -0.31946808805463989 -0.01181948638859691 0 -0.30132554700541658 -0.018951858364780961 0 -0.30418814435295449 -0.0017308923959753141 0 -0.28853647752776818 0.0069181716844335106 0 -0.3070847924470555 -0.058144470268572682 0 -0.29537246304358838 -0.043448338278550713 0 -0.3141146164830651 -0.044821888413995419 0 -0.3070847924470555 -0.058144470268572682 0 -0.29537246304358838 -0.043448338278550713 0 -0.29162179318074288 -0.063145688290776811 0 -0.3070847924470555 -0.058144470268572682 0 -0.29162179318074288 -0.063145688290776811 0 -0.30132554700541658 -0.018951858364780961 0 -0.29537246304358838 -0.043448338278550713 0 -0.3141146164830651 -0.044821888413995419 0 -0.30132554700541658 -0.018951858364780961 0 -0.3141146164830651 -0.044821888413995419 0 -0.28800640170776598 -0.029684003402906532 0 -0.29537246304358838 -0.043448338278550713 0 -0.27727982269183199 -0.038367853988106632 0 -0.29537246304358838 -0.043448338278550713 0 -0.28410615978640569 -0.048813908489164913 0 -0.27727982269183199 -0.038367853988106632 0 -0.29537246304358838 -0.043448338278550713 0 -0.28410615978640569 -0.048813908489164913 0 -0.29162179318074288 -0.063145688290776811 0 -0.28410615978640569 -0.048813908489164913 0 -0.27658378163528402 -0.058770452052036598 0 -0.29162179318074288 -0.063145688290776811 0 -0.28410615978640569 -0.048813908489164913 0 -0.27658378163528402 -0.058770452052036598 0 -0.27727982269183199 -0.038367853988106632 0 -0.27658378163528402 -0.058770452052036598 0 -0.27727982269183199 -0.038367853988106632 0 -0.27658378163528402 -0.058770452052036598 0 -0.26623766053255282 -0.050816429426194923 0 -0.26195363039969588 -0.036725041813480422 0 -0.27658378163528402 -0.058770452052036598 0 -0.26195363039969588 -0.036725041813480422 0 -0.27658378163528402 -0.058770452052036598 0 -0.26623766053255282 -0.050816429426194923 0 -0.27142740887988909 -0.062531119575351471 0 -0.26623766053255282 -0.050816429426194923 0 -0.26496115090150069 -0.064314528541153715 0 -0.27142740887988909 -0.062531119575351471 0 -0.26314563906708738 -0.021464649856099031 0 -0.27727982269183199 -0.038367853988106632 0 -0.26195363039969588 -0.036725041813480422 0 -0.27658378163528402 -0.058770452052036598 0 -0.27727982269183199 -0.038367853988106632 0 -0.26195363039969588 -0.036725041813480422 0 -0.24666465708429461 -0.048624182595873679 0 -0.26623766053255282 -0.050816429426194923 0 -0.26195363039969588 -0.036725041813480422 0 -0.2476418689072212 -0.033052400000039922 0 -0.24666465708429461 -0.048624182595873679 0 -0.26195363039969588 -0.036725041813480422 0 -0.24666465708429461 -0.048624182595873679 0 -0.26623766053255282 -0.050816429426194923 0 -0.25316805942387588 -0.065313188559061319 0 -0.26623766053255282 -0.050816429426194923 0 -0.25316805942387588 -0.065313188559061319 0 -0.26623766053255282 -0.050816429426194923 0 -0.25316805942387588 -0.065313188559061319 0 -0.26496115090150069 -0.064314528541153715 0 -0.24009845831519849 -0.079809947691927244 0 -0.25316805942387588 -0.065313188559061319 0 -0.25812862611481419 -0.073978427002453717 0 -0.24009845831519849 -0.079809947691927244 0 -0.25812862611481419 -0.073978427002453717 0 -0.25189407492121679 -0.079475402485211358 0 -0.25316805942387588 -0.065313188559061319 0 -0.26496115090150069 -0.064314528541153715 0 -0.25812862611481419 -0.073978427002453717 0 -0.24720336741439641 -0.085293111222236262 0 -0.25189407492121679 -0.079475402485211358 0 -0.25276553363752058 -0.088975224964069191 0 -0.25812862611481419 -0.073978427002453717 0 -0.25189407492121679 -0.079475402485211358 0 -0.2596926086273964 -0.083489971529615459 0 -0.25189407492121679 -0.079475402485211358 0 -0.25276553363752058 -0.088975224964069191 0 -0.2596926086273964 -0.083489971529615459 0 -0.2596926086273964 -0.083489971529615459 0 -0.26713595882166008 -0.087950517337585979 0 -0.26210501120326513 -0.095332217561340526 0 -0.25276553363752058 -0.088975224964069191 0 -0.2596926086273964 -0.083489971529615459 0 -0.26210501120326513 -0.095332217561340526 0 -0.2596926086273964 -0.083489971529615459 0 -0.26806884706336848 -0.078885312857366177 0 -0.26713595882166008 -0.087950517337585979 0 -0.25812862611481419 -0.073978427002453717 0 -0.2596926086273964 -0.083489971529615459 0 -0.26806884706336848 -0.078885312857366177 0 -0.26806884706336848 -0.078885312857366177 0 -0.26713595882166008 -0.087950517337585979 0 -0.27514744335541469 -0.084963085636920954 0 -0.26806884706336848 -0.078885312857366177 0 -0.27514744335541469 -0.084963085636920954 0 -0.27585009018042328 -0.076347324387116514 0 -0.26713595882166008 -0.087950517337585979 0 -0.27514744335541469 -0.084963085636920954 0 -0.27312613975623001 -0.094036204044909449 0 -0.26713595882166008 -0.087950517337585979 0 -0.26210501120326513 -0.095332217561340526 0 -0.27312613975623001 -0.094036204044909449 0 -0.27514744335541469 -0.084963085636920954 0 -0.27312613975623001 -0.094036204044909449 0 -0.28126992402043499 -0.091237035212696785 0 -0.27514744335541469 -0.084963085636920954 0 -0.28375978112886768 -0.082380840750552631 0 -0.28126992402043499 -0.091237035212696785 0 -0.27514744335541469 -0.084963085636920954 0 -0.27585009018042328 -0.076347324387116514 0 -0.28375978112886768 -0.082380840750552631 0 -0.26496115090150069 -0.064314528541153715 0 -0.25812862611481419 -0.073978427002453717 0 -0.2761587939144301 -0.068146906312980635 0 -0.27585009018042328 -0.076347324387116514 0 -0.2761587939144301 -0.068146906312980635 0 -0.28636738811785373 -0.073004255911461202 0 -0.25812862611481419 -0.073978427002453717 0 -0.26806884706336848 -0.078885312857366177 0 -0.2761587939144301 -0.068146906312980635 0 -0.27585009018042328 -0.076347324387116514 0 -0.2761587939144301 -0.068146906312980635 0 -0.25812862611481419 -0.073978427002453717 0 -0.2761587939144301 -0.068146906312980635 0 -0.27658378163528402 -0.058770452052036598 0 -0.2761587939144301 -0.068146906312980635 0 -0.27658378163528402 -0.058770452052036598 0 -0.2761587939144301 -0.068146906312980635 0 -0.27142740887988909 -0.062531119575351471 0 -0.26496115090150069 -0.064314528541153715 0 -0.2761587939144301 -0.068146906312980635 0 -0.27142740887988909 -0.062531119575351471 0 -0.26806884706336848 -0.078885312857366177 0 -0.27585009018042328 -0.076347324387116514 0 -0.2761587939144301 -0.068146906312980635 0 -0.2436798139825718 -0.12579944522954009 0 -0.25976984430640249 -0.1118328058189921 0 -0.26013140884650421 -0.1371804659279291 0 -0.2436798139825718 -0.12579944522954009 0 -0.25976984430640249 -0.1118328058189921 0 -0.25976984430640249 -0.1118328058189921 0 -0.25091980139663123 -0.09890296816179335 0 -0.26210501120326513 -0.095332217561340526 0 -0.25976984430640249 -0.1118328058189921 0 -0.26210501120326513 -0.095332217561340526 0 -0.27097372977637468 -0.1034608709225272 0 -0.24308289196064389 -0.1078683283926664 0 -0.25976984430640249 -0.1118328058189921 0 -0.25091980139663123 -0.09890296816179335 0 -0.25276553363752058 -0.088975224964069191 0 -0.25091980139663123 -0.09890296816179335 0 -0.26210501120326513 -0.095332217561340526 0 -0.26210501120326513 -0.095332217561340526 0 -0.27312613975623001 -0.094036204044909449 0 -0.27097372977637468 -0.1034608709225272 0 -0.27312613975623001 -0.094036204044909449 0 -0.28212477136023018 -0.1012734975983853 0 -0.28126992402043499 -0.091237035212696785 0 -0.27312613975623001 -0.094036204044909449 0 -0.27097372977637468 -0.1034608709225272 0 -0.28212477136023018 -0.1012734975983853 0 -0.27097372977637468 -0.1034608709225272 0 -0.27772654384344769 -0.1140175693778288 0 -0.28212477136023018 -0.1012734975983853 0 -0.25976984430640249 -0.1118328058189921 0 -0.27097372977637468 -0.1034608709225272 0 -0.27772654384344769 -0.1140175693778288 0 -0.25976984430640249 -0.1118328058189921 0 -0.27772654384344769 -0.1140175693778288 0 -0.27389855975733329 -0.12728610436067861 0 -0.27772654384344769 -0.1140175693778288 0 -0.2875618097775286 -0.120778785147376 0 -0.27389855975733329 -0.12728610436067861 0 -0.2875618097775286 -0.120778785147376 0 -0.29719690223397133 -0.1182404986265662 0 -0.29673161151198951 -0.12761573601248671 0 -0.27772654384344769 -0.1140175693778288 0 -0.2875618097775286 -0.120778785147376 0 -0.28891109345432958 -0.1112047556647002 0 -0.28891109345432958 -0.1112047556647002 0 -0.2970043510740441 -0.1097981188159861 0 -0.29719690223397133 -0.1182404986265662 0 -0.2875618097775286 -0.120778785147376 0 -0.28891109345432958 -0.1112047556647002 0 -0.29719690223397133 -0.1182404986265662 0 -0.28891109345432958 -0.1112047556647002 0 -0.2921847370939446 -0.1027237642028436 0 -0.2970043510740441 -0.1097981188159861 0 -0.28891109345432958 -0.1112047556647002 0 -0.2921847370939446 -0.1027237642028436 0 -0.28212477136023018 -0.1012734975983853 0 -0.27772654384344769 -0.1140175693778288 0 -0.28891109345432958 -0.1112047556647002 0 -0.28212477136023018 -0.1012734975983853 0 -0.2921847370939446 -0.1027237642028436 0 -0.28212477136023018 -0.1012734975983853 0 -0.28997331019322009 -0.093243929811965304 0 -0.28212477136023018 -0.1012734975983853 0 -0.28126992402043499 -0.091237035212696785 0 -0.28997331019322009 -0.093243929811965304 0 -0.2921847370939446 -0.1027237642028436 0 -0.28997331019322009 -0.093243929811965304 0 -0.29968186408758529 -0.093610842996288163 0 -0.2921847370939446 -0.1027237642028436 0 -0.30330065382253768 -0.1036745169248415 0 -0.29968186408758529 -0.093610842996288163 0 -0.31015325702911828 -0.095625964339458913 0 -0.30330065382253768 -0.1036745169248415 0 -0.29968186408758529 -0.093610842996288163 0 -0.31015325702911828 -0.095625964339458913 0 -0.30330065382253768 -0.1036745169248415 0 -0.31365438427178938 -0.1052526069136427 0 -0.30330065382253768 -0.1036745169248415 0 -0.30636304145808602 -0.1136520566307031 0 -0.31365438427178938 -0.1052526069136427 0 -0.30330065382253768 -0.1036745169248415 0 -0.2970043510740441 -0.1097981188159861 0 -0.30636304145808602 -0.1136520566307031 0 -0.2921847370939446 -0.1027237642028436 0 -0.30330065382253768 -0.1036745169248415 0 -0.2970043510740441 -0.1097981188159861 0 -0.2970043510740441 -0.1097981188159861 0 -0.30636304145808602 -0.1136520566307031 0 -0.29719690223397133 -0.1182404986265662 0 -0.30636304145808602 -0.1136520566307031 0 -0.31246568441631228 -0.1171068142960809 0 -0.31365438427178938 -0.1052526069136427 0 -0.30636304145808602 -0.1136520566307031 0 -0.31246568441631228 -0.1171068142960809 0 -0.30501241601462709 -0.1230728154596903 0 -0.31246568441631228 -0.1171068142960809 0 -0.30501241601462709 -0.1230728154596903 0 -0.31190542547158567 -0.12611780418129509 0 -0.30501241601462709 -0.1230728154596903 0 -0.29719690223397133 -0.1182404986265662 0 -0.29673161151198951 -0.12761573601248671 0 -0.30636304145808602 -0.1136520566307031 0 -0.30501241601462709 -0.1230728154596903 0 -0.29719690223397133 -0.1182404986265662 0 -0.28636738811785373 -0.073004255911461202 0 -0.29474129527700399 -0.08289435915579367 0 -0.29987553562178848 -0.07196264014920678 0 -0.29162179318074288 -0.063145688290776811 0 -0.28636738811785373 -0.073004255911461202 0 -0.29987553562178848 -0.07196264014920678 0 -0.2761587939144301 -0.068146906312980635 0 -0.29162179318074288 -0.063145688290776811 0 -0.27658378163528402 -0.058770452052036598 0 -0.2761587939144301 -0.068146906312980635 0 -0.29162179318074288 -0.063145688290776811 0 -0.2761587939144301 -0.068146906312980635 0 -0.29162179318074288 -0.063145688290776811 0 -0.28636738811785373 -0.073004255911461202 0 -0.27585009018042328 -0.076347324387116514 0 -0.28636738811785373 -0.073004255911461202 0 -0.28375978112886768 -0.082380840750552631 0 -0.28636738811785373 -0.073004255911461202 0 -0.28375978112886768 -0.082380840750552631 0 -0.29474129527700399 -0.08289435915579367 0 -0.28375978112886768 -0.082380840750552631 0 -0.28126992402043499 -0.091237035212696785 0 -0.28997331019322009 -0.093243929811965304 0 -0.28997331019322009 -0.093243929811965304 0 -0.29474129527700399 -0.08289435915579367 0 -0.29968186408758529 -0.093610842996288163 0 -0.28375978112886768 -0.082380840750552631 0 -0.28997331019322009 -0.093243929811965304 0 -0.29474129527700399 -0.08289435915579367 0 -0.29474129527700399 -0.08289435915579367 0 -0.30743261659146531 -0.08483754081906128 0 -0.29987553562178848 -0.07196264014920678 0 -0.29474129527700399 -0.08289435915579367 0 -0.29968186408758529 -0.093610842996288163 0 -0.30743261659146531 -0.08483754081906128 0 -0.31015325702911828 -0.095625964339458913 0 -0.29968186408758529 -0.093610842996288163 0 -0.30743261659146531 -0.08483754081906128 0 -0.3070847924470555 -0.058144470268572682 0 -0.31158023474555219 -0.07511321175367347 0 -0.31815612534719628 -0.064320442769649447 0 -0.3070847924470555 -0.058144470268572682 0 -0.31158023474555219 -0.07511321175367347 0 -0.29987553562178848 -0.07196264014920678 0 -0.30743261659146531 -0.08483754081906128 0 -0.31158023474555219 -0.07511321175367347 0 -0.29987553562178848 -0.07196264014920678 0 -0.3070847924470555 -0.058144470268572682 0 -0.29162179318074288 -0.063145688290776811 0 -0.29987553562178848 -0.07196264014920678 0 -0.31815612534719628 -0.064320442769649447 0 -0.32637903320084011 -0.085799286739695363 0 -0.33162194985946858 -0.057723356672310308 0 -0.31158023474555219 -0.07511321175367347 0 -0.31815612534719628 -0.064320442769649447 0 -0.32637903320084011 -0.085799286739695363 0 -0.30743261659146531 -0.08483754081906128 0 -0.31158023474555219 -0.07511321175367347 0 -0.32637903320084011 -0.085799286739695363 0 -0.31015325702911828 -0.095625964339458913 0 -0.30743261659146531 -0.08483754081906128 0 -0.32637903320084011 -0.085799286739695363 0 -0.34098611195057937 -0.077197903652815536 0 -0.32750020649577849 -0.1027316276716182 0 -0.32637903320084011 -0.085799286739695363 0 -0.34098611195057937 -0.077197903652815536 0 -0.32750020649577849 -0.1027316276716182 0 -0.34098611195057937 -0.077197903652815536 0 -0.32750020649577849 -0.1027316276716182 0 -0.34372830023849199 -0.094974442858687252 0 -0.32637903320084011 -0.085799286739695363 0 -0.34098611195057937 -0.077197903652815536 0 -0.33162194985946858 -0.057723356672310308 0 -0.32637903320084011 -0.085799286739695363 0 -0.33162194985946858 -0.057723356672310308 0 -0.32113611654221152 -0.1138752168070804 0 -0.31190542547158567 -0.12611780418129509 0 -0.31354397338132639 -0.1344069233588733 0 -0.32113611654221152 -0.1138752168070804 0 -0.32407542189213578 -0.1301292893403144 0 -0.32932524266715801 -0.12572742906770129 0 -0.32113611654221152 -0.1138752168070804 0 -0.33333008640029899 -0.11345012137750191 0 -0.32932524266715801 -0.12572742906770129 0 -0.31246568441631228 -0.1171068142960809 0 -0.32113611654221152 -0.1138752168070804 0 -0.31190542547158567 -0.12611780418129509 0 -0.31246568441631228 -0.1171068142960809 0 -0.32113611654221152 -0.1138752168070804 0 -0.31365438427178938 -0.1052526069136427 0 -0.32113611654221152 -0.1138752168070804 0 -0.32750020649577849 -0.1027316276716182 0 -0.33333008640029899 -0.11345012137750191 0 -0.32637903320084011 -0.085799286739695363 0 -0.32113611654221152 -0.1138752168070804 0 -0.32750020649577849 -0.1027316276716182 0 -0.32637903320084011 -0.085799286739695363 0 -0.32113611654221152 -0.1138752168070804 0 -0.31365438427178938 -0.1052526069136427 0 -0.31015325702911828 -0.095625964339458913 0 -0.32637903320084011 -0.085799286739695363 0 -0.31365438427178938 -0.1052526069136427 0 -0.32637903320084011 -0.085799286739695363 0 -0.32113611654221152 -0.1138752168070804 0 -0.32750020649577849 -0.1027316276716182 0 -0.34372830023849199 -0.094974442858687252 0 -0.33744844826583847 -0.1056269800088044 0 -0.34372830023849199 -0.094974442858687252 0 -0.33744844826583847 -0.1056269800088044 0 -0.3452351999287846 -0.1113517281274104 0 -0.32750020649577849 -0.1027316276716182 0 -0.33744844826583847 -0.1056269800088044 0 -0.33333008640029899 -0.11345012137750191 0 -0.33744844826583847 -0.1056269800088044 0 -0.33333008640029899 -0.11345012137750191 0 -0.3452351999287846 -0.1113517281274104 0 -0.33333008640029899 -0.11345012137750191 0 -0.34137201608007789 -0.1246756993789075 0 -0.3452351999287846 -0.1113517281274104 0 -0.33333008640029899 -0.11345012137750191 0 -0.34137201608007789 -0.1246756993789075 0 -0.32932524266715801 -0.12572742906770129 0 -0.35307643793722832 -0.1196084156075037 0 -0.36498890652998722 -0.11982427007552281 0 -0.35361906204481541 -0.133930851263666 0 -0.34137201608007789 -0.1246756993789075 0 -0.35307643793722832 -0.1196084156075037 0 -0.3452351999287846 -0.1113517281274104 0 -0.35307643793722832 -0.1196084156075037 0 -0.3452351999287846 -0.1113517281274104 0 -0.35942150800038108 -0.1046743665651431 0 -0.35307643793722832 -0.1196084156075037 0 -0.35942150800038108 -0.1046743665651431 0 -0.36498890652998722 -0.11982427007552281 0 -0.34372830023849199 -0.094974442858687252 0 -0.3452351999287846 -0.1113517281274104 0 -0.35942150800038108 -0.1046743665651431 0 -0.34372830023849199 -0.094974442858687252 0 -0.35942150800038108 -0.1046743665651431 0 -0.35318680977740979 -0.086997625940830103 0 -0.37094449256260992 -0.099372935251941033 0 -0.35942150800038108 -0.1046743665651431 0 -0.36528613045035813 -0.088361620833482382 0 -0.37094449256260992 -0.099372935251941033 0 -0.35942150800038108 -0.1046743665651431 0 -0.37942546501910679 -0.10976488385335979 0 -0.37094449256260992 -0.099372935251941033 0 -0.36528613045035813 -0.088361620833482382 0 -0.37964486678059328 -0.094690869755778839 0 -0.36498890652998722 -0.11982427007552281 0 -0.37729099561403823 -0.12889833791531941 0 -0.37942546501910679 -0.10976488385335979 0 -0.35942150800038108 -0.1046743665651431 0 -0.36498890652998722 -0.11982427007552281 0 -0.37942546501910679 -0.10976488385335979 0 -0.36498890652998722 -0.11982427007552281 0 -0.37942546501910679 -0.10976488385335979 0 -0.34098611195057937 -0.077197903652815536 0 -0.35883811200077581 -0.071932121829837645 0 -0.3544720174053802 -0.051664179634012861 0 -0.34098611195057937 -0.077197903652815536 0 -0.3544720174053802 -0.051664179634012861 0 -0.34098611195057937 -0.077197903652815536 0 -0.34372830023849199 -0.094974442858687252 0 -0.35318680977740979 -0.086997625940830103 0 -0.35883811200077581 -0.071932121829837645 0 -0.35318680977740979 -0.086997625940830103 0 -0.36528613045035813 -0.088361620833482382 0 -0.35942150800038108 -0.1046743665651431 0 -0.35318680977740979 -0.086997625940830103 0 -0.36528613045035813 -0.088361620833482382 0 -0.34098611195057937 -0.077197903652815536 0 -0.35883811200077581 -0.071932121829837645 0 -0.35318680977740979 -0.086997625940830103 0 -0.36528613045035813 -0.088361620833482382 0 -0.37236779851361068 -0.070972408819564667 0 -0.3766707962849673 -0.082841217428955172 0 -0.36528613045035813 -0.088361620833482382 0 -0.3766707962849673 -0.082841217428955172 0 -0.37964486678059328 -0.094690869755778839 0 -0.35883811200077581 -0.071932121829837645 0 -0.36528613045035813 -0.088361620833482382 0 -0.37236779851361068 -0.070972408819564667 0 -0.35883811200077581 -0.071932121829837645 0 -0.37236779851361068 -0.070972408819564667 0 -0.368161404256522 -0.056797864533857767 0 -0.368161404256522 -0.056797864533857767 0 -0.3544720174053802 -0.051664179634012861 0 -0.37039764751197168 -0.041496099240644888 0 -0.368161404256522 -0.056797864533857767 0 -0.37039764751197168 -0.041496099240644888 0 -0.3847314458508716 -0.047924513145228803 0 -0.35883811200077581 -0.071932121829837645 0 -0.368161404256522 -0.056797864533857767 0 -0.3544720174053802 -0.051664179634012861 0 -0.3544720174053802 -0.051664179634012861 0 -0.35242824688827279 -0.028037929082583891 0 -0.33686486651809711 -0.02964742660492525 0 -0.3544720174053802 -0.051664179634012861 0 -0.36795792286018109 -0.026130455615210189 0 -0.35242824688827279 -0.028037929082583891 0 -0.3544720174053802 -0.051664179634012861 0 -0.36795792286018109 -0.026130455615210189 0 -0.3544720174053802 -0.051664179634012861 0 -0.37039764751197168 -0.041496099240644888 0 -0.36795792286018109 -0.026130455615210189 0 -0.37039764751197168 -0.041496099240644888 0 -0.36795792286018109 -0.026130455615210189 0 -0.37693399065934052 -0.024286192692544568 0 -0.36795792286018109 -0.026130455615210189 0 -0.36584859458541752 -0.01386254039818546 0 -0.37693399065934052 -0.024286192692544568 0 -0.36122324399748151 -0.01988370512602896 0 -0.36584859458541752 -0.01386254039818546 0 -0.3552766676943816 -0.01348386446461605 0 -0.36795792286018109 -0.026130455615210189 0 -0.36122324399748151 -0.01988370512602896 0 -0.36584859458541752 -0.01386254039818546 0 -0.36795792286018109 -0.026130455615210189 0 -0.36122324399748151 -0.01988370512602896 0 -0.35242824688827279 -0.028037929082583891 0 -0.36913653546780928 -0.00064787223986029208 0 -0.36584859458541752 -0.01386254039818546 0 -0.37693399065934052 -0.024286192692544568 0 -0.36913653546780928 -0.00064787223986029208 0 -0.37693399065934052 -0.024286192692544568 0 -0.36584859458541752 -0.01386254039818546 0 -0.35902896314898358 -0.0017027207110311359 0 -0.3552766676943816 -0.01348386446461605 0 -0.36913653546780928 -0.00064787223986029208 0 -0.36584859458541752 -0.01386254039818546 0 -0.35902896314898358 -0.0017027207110311359 0 -0.35902896314898358 -0.0017027207110311359 0 -0.3552766676943816 -0.01348386446461605 0 -0.34210778317672558 -0.001571496537540198 0 -0.3552766676943816 -0.01348386446461605 0 -0.33686486651809711 -0.02964742660492525 0 -0.34210778317672558 -0.001571496537540198 0 -0.3552766676943816 -0.01348386446461605 0 -0.35242824688827279 -0.028037929082583891 0 -0.33686486651809711 -0.02964742660492525 0 -0.36122324399748151 -0.01988370512602896 0 -0.3552766676943816 -0.01348386446461605 0 -0.35242824688827279 -0.028037929082583891 0 -0.33686486651809711 -0.02964742660492525 0 -0.34210778317672558 -0.001571496537540198 0 -0.33686486651809711 -0.02964742660492525 0 -0.34210778317672558 -0.001571496537540198 0 -0.31946808805463989 -0.01181948638859691 0 -0.34210778317672558 -0.001571496537540198 0 -0.31946808805463989 -0.01181948638859691 0 -0.3155368564668059 0.00791962896903276 0 -0.30418814435295449 -0.0017308923959753141 0 -0.31946808805463989 -0.01181948638859691 0 -0.3155368564668059 0.00791962896903276 0 -0.30132554700541658 -0.018951858364780961 0 -0.31946808805463989 -0.01181948638859691 0 -0.31721456152409722 -0.026819779637135239 0 -0.33686486651809711 -0.02964742660492525 0 -0.31946808805463989 -0.01181948638859691 0 -0.31721456152409722 -0.026819779637135239 0 -0.33686486651809711 -0.02964742660492525 0 -0.3141146164830651 -0.044821888413995419 0 -0.33162194985946858 -0.057723356672310308 0 -0.33686486651809711 -0.02964742660492525 0 -0.31721456152409722 -0.026819779637135239 0 -0.3141146164830651 -0.044821888413995419 0 -0.31815612534719628 -0.064320442769649447 0 -0.3141146164830651 -0.044821888413995419 0 -0.33162194985946858 -0.057723356672310308 0 -0.3070847924470555 -0.058144470268572682 0 -0.31815612534719628 -0.064320442769649447 0 -0.3141146164830651 -0.044821888413995419 0 -0.34098611195057937 -0.077197903652815536 0 -0.3544720174053802 -0.051664179634012861 0 -0.33162194985946858 -0.057723356672310308 0 -0.3544720174053802 -0.051664179634012861 0 -0.33686486651809711 -0.02964742660492525 0 -0.33162194985946858 -0.057723356672310308 0 -0.33686486651809711 -0.02964742660492525 0 -0.33162194985946858 -0.057723356672310308 0 -0.29526051877429971 -0.25243959245627218 0 -0.29842504581110352 -0.2354934829591154 0 -0.30656167854946192 -0.24082003241795111 0 -0.29842504581110352 -0.2354934829591154 0 -0.30656167854946192 -0.24082003241795111 0 -0.30524469928948339 -0.22846824781556621 0 -0.29526051877429971 -0.25243959245627218 0 -0.307075691851949 -0.25012133063229841 0 -0.30656167854946192 -0.24082003241795111 0 -0.307075691851949 -0.25012133063229841 0 -0.30656167854946192 -0.24082003241795111 0 -0.31927486322503718 -0.24452010099714019 0 -0.30656167854946192 -0.24082003241795111 0 -0.30524469928948339 -0.22846824781556621 0 -0.31408925234489671 -0.23387743964731361 0 -0.29842504581110352 -0.2354934829591154 0 -0.30158957284790477 -0.2185473734619581 0 -0.29842504581110352 -0.2354934829591154 0 -0.30524469928948339 -0.22846824781556621 0 -0.30158957284790477 -0.2185473734619581 0 -0.29842504581110352 -0.2354934829591154 0 -0.29199105075532672 -0.22738359332890551 0 -0.30158957284790477 -0.2185473734619581 0 -0.30524469928948339 -0.22846824781556621 0 -0.31473610879951402 -0.22440799353969271 0 -0.31408925234489671 -0.23387743964731361 0 -0.30647245128427247 -0.21921621469044439 0 -0.31472739505410291 -0.21683490162393429 0 -0.31473610879951402 -0.22440799353969271 0 -0.30524469928948339 -0.22846824781556621 0 -0.30647245128427247 -0.21921621469044439 0 -0.31473610879951402 -0.22440799353969271 0 -0.30524469928948339 -0.22846824781556621 0 -0.30647245128427247 -0.21921621469044439 0 -0.30158957284790477 -0.2185473734619581 0 -0.30647245128427247 -0.21921621469044439 0 -0.30158957284790477 -0.2185473734619581 0 -0.29842504581110352 -0.2354934829591154 0 -0.29199105075532672 -0.22738359332890551 0 -0.28426874970581822 -0.23758243454477779 0 -0.29199105075532672 -0.22738359332890551 0 -0.28698779017963227 -0.219982653840401 0 -0.30158957284790477 -0.2185473734619581 0 -0.29199105075532672 -0.22738359332890551 0 -0.28698779017963227 -0.219982653840401 0 -0.28315167862201318 -0.22643196303254931 0 -0.28698779017963227 -0.219982653840401 0 -0.28315167862201318 -0.22643196303254931 0 -0.27924926585259158 -0.2213543721344213 0 -0.29199105075532672 -0.22738359332890551 0 -0.28315167862201318 -0.22643196303254931 0 -0.28426874970581822 -0.23758243454477779 0 -0.29526051877429971 -0.25243959245627218 0 -0.29842504581110352 -0.2354934829591154 0 -0.29526051877429971 -0.25243959245627218 0 -0.29842504581110352 -0.2354934829591154 0 -0.28426874970581822 -0.23758243454477779 0 -0.29526051877429971 -0.25243959245627218 0 -0.28426874970581822 -0.23758243454477779 0 -0.2827280564874855 -0.25085307071156082 0 -0.29526051877429971 -0.25243959245627218 0 -0.28426874970581822 -0.23758243454477779 0 -0.2827280564874855 -0.25085307071156082 0 -0.28426874970581822 -0.23758243454477779 0 -0.27523815199516338 -0.24593723721268851 0 -0.28426874970581822 -0.23758243454477779 0 -0.27523815199516338 -0.24593723721268851 0 -0.27242967310262911 -0.2360250962955443 0 -0.27242967310262911 -0.2360250962955443 0 -0.26566085027026393 -0.24523659071420251 0 -0.26264397679354201 -0.2309070948957212 0 -0.27523815199516338 -0.24593723721268851 0 -0.27242967310262911 -0.2360250962955443 0 -0.26566085027026393 -0.24523659071420251 0 -0.24830814250465799 -0.23009345510381779 0 -0.25218120228073287 -0.24765507659215041 0 -0.26264397679354201 -0.2309070948957212 0 -0.26566085027026393 -0.24523659071420251 0 -0.25218120228073287 -0.24765507659215041 0 -0.26264397679354201 -0.2309070948957212 0 -0.24911422868170541 -0.22017811325298789 0 -0.24830814250465799 -0.23009345510381779 0 -0.25885379267416658 -0.21815211419563479 0 -0.24830814250465799 -0.23009345510381779 0 -0.26264397679354201 -0.2309070948957212 0 -0.25885379267416658 -0.21815211419563479 0 -0.26264397679354201 -0.2309070948957212 0 -0.2669773534118749 -0.22071912668525531 0 -0.25885379267416658 -0.21815211419563479 0 -0.2732769806373393 -0.22272527663328129 0 -0.2669773534118749 -0.22071912668525531 0 -0.27358833598170251 -0.2147118526909739 0 -0.26264397679354201 -0.2309070948957212 0 -0.2732769806373393 -0.22272527663328129 0 -0.2669773534118749 -0.22071912668525531 0 -0.27242967310262911 -0.2360250962955443 0 -0.26264397679354201 -0.2309070948957212 0 -0.2732769806373393 -0.22272527663328129 0 -0.28315167862201318 -0.22643196303254931 0 -0.28426874970581822 -0.23758243454477779 0 -0.2732769806373393 -0.22272527663328129 0 -0.28426874970581822 -0.23758243454477779 0 -0.27242967310262911 -0.2360250962955443 0 -0.2732769806373393 -0.22272527663328129 0 -0.28426874970581822 -0.23758243454477779 0 -0.2732769806373393 -0.22272527663328129 0 -0.28315167862201318 -0.22643196303254931 0 -0.2732769806373393 -0.22272527663328129 0 -0.27924926585259158 -0.2213543721344213 0 -0.2732769806373393 -0.22272527663328129 0 -0.27924926585259158 -0.2213543721344213 0 -0.27358833598170251 -0.2147118526909739 0 -0.28698779017963227 -0.219982653840401 0 -0.27924926585259158 -0.2213543721344213 0 -0.27358833598170251 -0.2147118526909739 0 -0.28045243871569658 -0.20743969809253171 0 -0.27123324897967283 -0.20552095966041301 0 -0.27570048257116803 -0.19881230601184979 0 -0.27358833598170251 -0.2147118526909739 0 -0.28045243871569658 -0.20743969809253171 0 -0.27123324897967283 -0.20552095966041301 0 -0.27123324897967283 -0.20552095966041301 0 -0.26057125708013029 -0.2068528599482134 0 -0.2658537305496666 -0.19978808155849639 0 -0.27358833598170251 -0.2147118526909739 0 -0.27123324897967283 -0.20552095966041301 0 -0.26057125708013029 -0.2068528599482134 0 -0.2669773534118749 -0.22071912668525531 0 -0.27358833598170251 -0.2147118526909739 0 -0.25885379267416658 -0.21815211419563479 0 -0.24558709911549961 -0.21087633191999369 0 -0.27358833598170251 -0.2147118526909739 0 -0.26057125708013029 -0.2068528599482134 0 -0.24558709911549961 -0.21087633191999369 0 -0.27358833598170251 -0.2147118526909739 0 -0.25885379267416658 -0.21815211419563479 0 -0.24558709911549961 -0.21087633191999369 0 -0.27358833598170251 -0.2147118526909739 0 -0.24558709911549961 -0.21087633191999369 0 -0.25670202753065169 -0.19898255864041631 0 -0.24558709911549961 -0.21087633191999369 0 -0.26057125708013029 -0.2068528599482134 0 -0.25670202753065169 -0.19898255864041631 0 -0.24558709911549961 -0.21087633191999369 0 -0.24911422868170541 -0.22017811325298789 0 -0.25885379267416658 -0.21815211419563479 0 -0.24699794624001389 -0.17924373397363971 0 -0.25670202753065169 -0.19898255864041631 0 -0.24699794624001389 -0.17924373397363971 0 -0.25670202753065169 -0.19898255864041631 0 -0.26763218554371732 -0.18728650298790031 0 -0.26057125708013029 -0.2068528599482134 0 -0.25670202753065169 -0.19898255864041631 0 -0.2658537305496666 -0.19978808155849639 0 -0.26057125708013029 -0.2068528599482134 0 -0.25670202753065169 -0.19898255864041631 0 -0.25670202753065169 -0.19898255864041631 0 -0.2658537305496666 -0.19978808155849639 0 -0.26763218554371732 -0.18728650298790031 0 -0.25670202753065169 -0.19898255864041631 0 -0.26763218554371732 -0.18728650298790031 0 -0.27570048257116803 -0.19881230601184979 0 -0.28539914484343248 -0.18818534812050169 0 -0.26763218554371732 -0.18728650298790031 0 -0.2658537305496666 -0.19978808155849639 0 -0.27570048257116803 -0.19881230601184979 0 -0.26763218554371732 -0.18728650298790031 0 -0.27123324897967283 -0.20552095966041301 0 -0.2658537305496666 -0.19978808155849639 0 -0.27570048257116803 -0.19881230601184979 0 -0.28539914484343248 -0.18818534812050169 0 -0.28903065898709518 -0.20179460469286539 0 -0.30635744852646429 -0.19301529793279401 0 -0.27570048257116803 -0.19881230601184979 0 -0.28539914484343248 -0.18818534812050169 0 -0.28903065898709518 -0.20179460469286539 0 -0.28045243871569658 -0.20743969809253171 0 -0.27570048257116803 -0.19881230601184979 0 -0.28903065898709518 -0.20179460469286539 0 -0.27358833598170251 -0.2147118526909739 0 -0.28045243871569658 -0.20743969809253171 0 -0.30158957284790477 -0.2185473734619581 0 -0.28698779017963227 -0.219982653840401 0 -0.27358833598170251 -0.2147118526909739 0 -0.30158957284790477 -0.2185473734619581 0 -0.28045243871569658 -0.20743969809253171 0 -0.28903065898709518 -0.20179460469286539 0 -0.30158957284790477 -0.2185473734619581 0 -0.27358833598170251 -0.2147118526909739 0 -0.30158957284790477 -0.2185473734619581 0 -0.30158957284790477 -0.2185473734619581 0 -0.30635744852646429 -0.19301529793279401 0 -0.28903065898709518 -0.20179460469286539 0 -0.30158957284790477 -0.2185473734619581 0 -0.30635744852646429 -0.19301529793279401 0 -0.30158957284790477 -0.2185473734619581 0 -0.30635744852646429 -0.19301529793279401 0 -0.31481525144795292 -0.2060788851649813 0 -0.30647245128427247 -0.21921621469044439 0 -0.31481525144795292 -0.2060788851649813 0 -0.31472739505410291 -0.21683490162393429 0 -0.30647245128427247 -0.21921621469044439 0 -0.30158957284790477 -0.2185473734619581 0 -0.31481525144795292 -0.2060788851649813 0 -0.30635744852646429 -0.19301529793279401 0 -0.31112532420502359 -0.16748322240362981 0 -0.29511174987536792 -0.17261292976221651 0 -0.30635744852646429 -0.19301529793279401 0 -0.31112532420502359 -0.16748322240362981 0 -0.31112532420502359 -0.16748322240362981 0 -0.29511174987536792 -0.17261292976221651 0 -0.30557820876316699 -0.153912769923953 0 -0.28801005250051498 -0.15844750365784879 0 -0.29511174987536792 -0.17261292976221651 0 -0.27856234355678272 -0.17559044733538429 0 -0.28801005250051498 -0.15844750365784879 0 -0.29511174987536792 -0.17261292976221651 0 -0.30557820876316699 -0.153912769923953 0 -0.28539914484343248 -0.18818534812050169 0 -0.30635744852646429 -0.19301529793279401 0 -0.29511174987536792 -0.17261292976221651 0 -0.28539914484343248 -0.18818534812050169 0 -0.29511174987536792 -0.17261292976221651 0 -0.27856234355678272 -0.17559044733538429 0 -0.27856234355678272 -0.17559044733538429 0 -0.26763218554371732 -0.18728650298790031 0 -0.26306429532772918 -0.17139500447097281 0 -0.28539914484343248 -0.18818534812050169 0 -0.27856234355678272 -0.17559044733538429 0 -0.26763218554371732 -0.18728650298790031 0 -0.27856234355678272 -0.17559044733538429 0 -0.26763218554371732 -0.18728650298790031 0 -0.24699794624001389 -0.17924373397363971 0 -0.251064607594914 -0.16497388850394279 0 -0.26306429532772918 -0.17139500447097281 0 -0.24699794624001389 -0.17924373397363971 0 -0.26763218554371732 -0.18728650298790031 0 -0.26306429532772918 -0.17139500447097281 0 -0.251064607594914 -0.16497388850394279 0 -0.26306429532772918 -0.17139500447097281 0 -0.2610775330216541 -0.15582566590558261 0 -0.26306429532772918 -0.17139500447097281 0 -0.27303651197794948 -0.1632295561390073 0 -0.2610775330216541 -0.15582566590558261 0 -0.28801005250051498 -0.15844750365784879 0 -0.27856234355678272 -0.17559044733538429 0 -0.27303651197794948 -0.1632295561390073 0 -0.27303651197794948 -0.1632295561390073 0 -0.27455494239743777 -0.15226632212070501 0 -0.2610775330216541 -0.15582566590558261 0 -0.27856234355678272 -0.17559044733538429 0 -0.26306429532772918 -0.17139500447097281 0 -0.27303651197794948 -0.1632295561390073 0 -0.28801005250051498 -0.15844750365784879 0 -0.27303651197794948 -0.1632295561390073 0 -0.27455494239743777 -0.15226632212070501 0 -0.27455494239743777 -0.15226632212070501 0 -0.26013140884650421 -0.1371804659279291 0 -0.27843439307571322 -0.13897901274378269 0 -0.27455494239743777 -0.15226632212070501 0 -0.27843439307571322 -0.13897901274378269 0 -0.28741217025826299 -0.14433701373388461 0 -0.27455494239743777 -0.15226632212070501 0 -0.2610775330216541 -0.15582566590558261 0 -0.26013140884650421 -0.1371804659279291 0 -0.24606608051875911 -0.14598770838649369 0 -0.2610775330216541 -0.15582566590558261 0 -0.26013140884650421 -0.1371804659279291 0 -0.24606608051875911 -0.14598770838649369 0 -0.251064607594914 -0.16497388850394279 0 -0.2610775330216541 -0.15582566590558261 0 -0.25976984430640249 -0.1118328058189921 0 -0.26013140884650421 -0.1371804659279291 0 -0.27389855975733329 -0.12728610436067861 0 -0.26013140884650421 -0.1371804659279291 0 -0.27843439307571322 -0.13897901274378269 0 -0.27389855975733329 -0.12728610436067861 0 -0.27843439307571322 -0.13897901274378269 0 -0.27389855975733329 -0.12728610436067861 0 -0.28716833410126591 -0.13280293843081981 0 -0.2875618097775286 -0.120778785147376 0 -0.27389855975733329 -0.12728610436067861 0 -0.28716833410126591 -0.13280293843081981 0 -0.2875618097775286 -0.120778785147376 0 -0.28716833410126591 -0.13280293843081981 0 -0.29673161151198951 -0.12761573601248671 0 -0.28716833410126591 -0.13280293843081981 0 -0.29673161151198951 -0.12761573601248671 0 -0.29747655536843209 -0.1370538883901477 0 -0.28716833410126591 -0.13280293843081981 0 -0.28741217025826299 -0.14433701373388461 0 -0.29747655536843209 -0.1370538883901477 0 -0.27843439307571322 -0.13897901274378269 0 -0.28716833410126591 -0.13280293843081981 0 -0.28741217025826299 -0.14433701373388461 0 -0.28801005250051498 -0.15844750365784879 0 -0.27455494239743777 -0.15226632212070501 0 -0.28741217025826299 -0.14433701373388461 0 -0.28801005250051498 -0.15844750365784879 0 -0.28741217025826299 -0.14433701373388461 0 -0.29882874410621463 -0.1464724170600038 0 -0.28741217025826299 -0.14433701373388461 0 -0.29882874410621463 -0.1464724170600038 0 -0.29747655536843209 -0.1370538883901477 0 -0.31112532420502359 -0.16748322240362981 0 -0.30557820876316699 -0.153912769923953 0 -0.31589319988358172 -0.14195114687446531 0 -0.28801005250051498 -0.15844750365784879 0 -0.29882874410621463 -0.1464724170600038 0 -0.30557820876316699 -0.153912769923953 0 -0.29882874410621463 -0.1464724170600038 0 -0.30674294927751822 -0.14534982886907899 0 -0.30569479710247283 -0.13939603685940419 0 -0.29882874410621463 -0.1464724170600038 0 -0.30569479710247283 -0.13939603685940419 0 -0.29747655536843209 -0.1370538883901477 0 -0.29882874410621463 -0.1464724170600038 0 -0.30557820876316699 -0.153912769923953 0 -0.30674294927751822 -0.14534982886907899 0 -0.30557820876316699 -0.153912769923953 0 -0.31446692397789522 -0.14225436471312319 0 -0.31589319988358172 -0.14195114687446531 0 -0.30557820876316699 -0.153912769923953 0 -0.30674294927751822 -0.14534982886907899 0 -0.31446692397789522 -0.14225436471312319 0 -0.30674294927751822 -0.14534982886907899 0 -0.309723415400536 -0.14069776643868731 0 -0.30569479710247283 -0.13939603685940419 0 -0.309723415400536 -0.14069776643868731 0 -0.31257540941979178 -0.13984775964306501 0 -0.31446692397789522 -0.14225436471312319 0 -0.30674294927751822 -0.14534982886907899 0 -0.309723415400536 -0.14069776643868731 0 -0.31446692397789522 -0.14225436471312319 0 -0.309723415400536 -0.14069776643868731 0 -0.31036490726141552 -0.13739671825967359 0 -0.30569479710247283 -0.13939603685940419 0 -0.309723415400536 -0.14069776643868731 0 -0.31036490726141552 -0.13739671825967359 0 -0.31257540941979178 -0.13984775964306501 0 -0.31036490726141552 -0.13739671825967359 0 -0.31406778074957842 -0.1383312286316081 0 -0.31257540941979178 -0.13984775964306501 0 -0.31036490726141552 -0.13739671825967359 0 -0.30569479710247283 -0.13939603685940419 0 -0.30657130270750038 -0.13185021379973319 0 -0.31036490726141552 -0.13739671825967359 0 -0.30657130270750038 -0.13185021379973319 0 -0.31354397338132639 -0.1344069233588733 0 -0.30501241601462709 -0.1230728154596903 0 -0.31190542547158567 -0.12611780418129509 0 -0.30657130270750038 -0.13185021379973319 0 -0.31190542547158567 -0.12611780418129509 0 -0.30657130270750038 -0.13185021379973319 0 -0.31354397338132639 -0.1344069233588733 0 -0.30501241601462709 -0.1230728154596903 0 -0.29673161151198951 -0.12761573601248671 0 -0.30657130270750038 -0.13185021379973319 0 -0.29673161151198951 -0.12761573601248671 0 -0.30657130270750038 -0.13185021379973319 0 -0.29747655536843209 -0.1370538883901477 0 -0.30569479710247283 -0.13939603685940419 0 -0.30657130270750038 -0.13185021379973319 0 -0.29747655536843209 -0.1370538883901477 0 -0.32113611654221152 -0.1138752168070804 0 -0.31589319988358172 -0.14195114687446531 0 -0.32113611654221152 -0.1138752168070804 0 -0.31354397338132639 -0.1344069233588733 0 -0.31589319988358172 -0.14195114687446531 0 -0.32113611654221152 -0.1138752168070804 0 -0.32407542189213578 -0.1301292893403144 0 -0.31589319988358172 -0.14195114687446531 0 -0.31589319988358172 -0.14195114687446531 0 -0.3299471284755921 -0.13896336461201039 0 -0.32407542189213578 -0.1301292893403144 0 -0.31589319988358172 -0.14195114687446531 0 -0.3299471284755921 -0.13896336461201039 0 -0.32407542189213578 -0.1301292893403144 0 -0.3299471284755921 -0.13896336461201039 0 -0.32932524266715801 -0.12572742906770129 0 -0.31354397338132639 -0.1344069233588733 0 -0.31406778074957842 -0.1383312286316081 0 -0.31589319988358172 -0.14195114687446531 0 -0.31036490726141552 -0.13739671825967359 0 -0.31354397338132639 -0.1344069233588733 0 -0.31406778074957842 -0.1383312286316081 0 -0.31406778074957842 -0.1383312286316081 0 -0.31425401970953371 -0.14055872017223309 0 -0.31589319988358172 -0.14195114687446531 0 -0.31406778074957842 -0.1383312286316081 0 -0.31257540941979178 -0.13984775964306501 0 -0.31425401970953371 -0.14055872017223309 0 -0.31112532420502359 -0.16748322240362981 0 -0.31589319988358172 -0.14195114687446531 0 -0.32199070558441389 -0.15242742533267739 0 -0.31112532420502359 -0.16748322240362981 0 -0.31589319988358172 -0.14195114687446531 0 -0.31257540941979178 -0.13984775964306501 0 -0.31425401970953371 -0.14055872017223309 0 -0.31446692397789522 -0.14225436471312319 0 -0.32199070558441389 -0.15242742533267739 0 -0.3299471284755921 -0.13896336461201039 0 -0.33099716977345839 -0.16131196744060389 0 -0.31425401970953371 -0.14055872017223309 0 -0.31446692397789522 -0.14225436471312319 0 -0.31589319988358172 -0.14195114687446531 0 -0.31446692397789522 -0.14225436471312319 0 -0.31589319988358172 -0.14195114687446531 0 -0.31589319988358172 -0.14195114687446531 0 -0.32199070558441389 -0.15242742533267739 0 -0.3299471284755921 -0.13896336461201039 0 -0.3299471284755921 -0.13896336461201039 0 -0.34454084556209208 -0.14941901231803811 0 -0.33099716977345839 -0.16131196744060389 0 -0.3299471284755921 -0.13896336461201039 0 -0.33099716977345839 -0.16131196744060389 0 -0.3299471284755921 -0.13896336461201039 0 -0.35361906204481541 -0.133930851263666 0 -0.34454084556209208 -0.14941901231803811 0 -0.34137201608007789 -0.1246756993789075 0 -0.3299471284755921 -0.13896336461201039 0 -0.35361906204481541 -0.133930851263666 0 -0.3299471284755921 -0.13896336461201039 0 -0.35361906204481541 -0.133930851263666 0 -0.3299471284755921 -0.13896336461201039 0 -0.32932524266715801 -0.12572742906770129 0 -0.34137201608007789 -0.1246756993789075 0 -0.3299471284755921 -0.13896336461201039 0 -0.32932524266715801 -0.12572742906770129 0 -0.34137201608007789 -0.1246756993789075 0 -0.35307643793722832 -0.1196084156075037 0 -0.35361906204481541 -0.133930851263666 0 -0.35361906204481541 -0.133930851263666 0 -0.37729099561403823 -0.12889833791531941 0 -0.36498890652998722 -0.11982427007552281 0 -0.35361906204481541 -0.133930851263666 0 -0.37729099561403823 -0.12889833791531941 0 -0.35361906204481541 -0.133930851263666 0 -0.37188938379582309 -0.14468672267800631 0 -0.37729099561403823 -0.12889833791531941 0 -0.35361906204481541 -0.133930851263666 0 -0.37188938379582309 -0.14468672267800631 0 -0.35946169825150859 -0.15265514424548191 0 -0.37188938379582309 -0.14468672267800631 0 -0.35946169825150859 -0.15265514424548191 0 -0.37355341533807679 -0.15970729828915231 0 -0.35361906204481541 -0.133930851263666 0 -0.35946169825150859 -0.15265514424548191 0 -0.34454084556209208 -0.14941901231803811 0 -0.35946169825150859 -0.15265514424548191 0 -0.34454084556209208 -0.14941901231803811 0 -0.34942456728790039 -0.16131505410932101 0 -0.34942456728790039 -0.16131505410932101 0 -0.36141592244074427 -0.168183244328625 0 -0.34801041601813121 -0.1757147097058146 0 -0.35946169825150859 -0.15265514424548191 0 -0.34942456728790039 -0.16131505410932101 0 -0.36141592244074427 -0.168183244328625 0 -0.35946169825150859 -0.15265514424548191 0 -0.36141592244074427 -0.168183244328625 0 -0.37355341533807679 -0.15970729828915231 0 -0.36141592244074427 -0.168183244328625 0 -0.37355341533807679 -0.15970729828915231 0 -0.37510807876285279 -0.17496250536680411 0 -0.36293735898599588 -0.18474475425517661 0 -0.37779025821724282 -0.1915363362940995 0 -0.37510807876285279 -0.17496250536680411 0 -0.36141592244074427 -0.168183244328625 0 -0.36293735898599588 -0.18474475425517661 0 -0.37510807876285279 -0.17496250536680411 0 -0.36293735898599588 -0.18474475425517661 0 -0.34801041601813121 -0.1757147097058146 0 -0.348255428918956 -0.1940874593267502 0 -0.36141592244074427 -0.168183244328625 0 -0.36293735898599588 -0.18474475425517661 0 -0.34801041601813121 -0.1757147097058146 0 -0.34801041601813121 -0.1757147097058146 0 -0.33204721107132501 -0.18366057026919741 0 -0.348255428918956 -0.1940874593267502 0 -0.33204721107132501 -0.18366057026919741 0 -0.33099716977345839 -0.16131196744060389 0 -0.34801041601813121 -0.1757147097058146 0 -0.33204721107132501 -0.18366057026919741 0 -0.33099716977345839 -0.16131196744060389 0 -0.34942456728790039 -0.16131505410932101 0 -0.34801041601813121 -0.1757147097058146 0 -0.33099716977345839 -0.16131196744060389 0 -0.34454084556209208 -0.14941901231803811 0 -0.34942456728790039 -0.16131505410932101 0 -0.33099716977345839 -0.16131196744060389 0 -0.31112532420502359 -0.16748322240362981 0 -0.33204721107132501 -0.18366057026919741 0 -0.33099716977345839 -0.16131196744060389 0 -0.31112532420502359 -0.16748322240362981 0 -0.32199070558441389 -0.15242742533267739 0 -0.33099716977345839 -0.16131196744060389 0 -0.30635744852646429 -0.19301529793279401 0 -0.31112532420502359 -0.16748322240362981 0 -0.33204721107132501 -0.18366057026919741 0 -0.33204721107132501 -0.18366057026919741 0 -0.31481525144795292 -0.2060788851649813 0 -0.33309725236919152 -0.20600917309779079 0 -0.30635744852646429 -0.19301529793279401 0 -0.33204721107132501 -0.18366057026919741 0 -0.31481525144795292 -0.2060788851649813 0 -0.31481525144795292 -0.2060788851649813 0 -0.32288576868467211 -0.21763651310061891 0 -0.33309725236919152 -0.20600917309779079 0 -0.31481525144795292 -0.2060788851649813 0 -0.31472739505410291 -0.21683490162393429 0 -0.32288576868467211 -0.21763651310061891 0 -0.33309725236919152 -0.20600917309779079 0 -0.35010237461149102 -0.20879592922003359 0 -0.33795857308980931 -0.2205733703874008 0 -0.32288576868467211 -0.21763651310061891 0 -0.33309725236919152 -0.20600917309779079 0 -0.33795857308980931 -0.2205733703874008 0 -0.33204721107132501 -0.18366057026919741 0 -0.33309725236919152 -0.20600917309779079 0 -0.348255428918956 -0.1940874593267502 0 -0.33204721107132501 -0.18366057026919741 0 -0.33309725236919152 -0.20600917309779079 0 -0.33309725236919152 -0.20600917309779079 0 -0.348255428918956 -0.1940874593267502 0 -0.35010237461149102 -0.20879592922003359 0 -0.348255428918956 -0.1940874593267502 0 -0.3643472651644809 -0.20469307800092479 0 -0.35010237461149102 -0.20879592922003359 0 -0.36293735898599588 -0.18474475425517661 0 -0.348255428918956 -0.1940874593267502 0 -0.3643472651644809 -0.20469307800092479 0 -0.36293735898599588 -0.18474475425517661 0 -0.3643472651644809 -0.20469307800092479 0 -0.37779025821724282 -0.1915363362940995 0 -0.3643472651644809 -0.20469307800092479 0 -0.37416790128274602 -0.22634429062424319 0 -0.38423512137933552 -0.20886252837845279 0 -0.3643472651644809 -0.20469307800092479 0 -0.353867430275979 -0.22244454757068069 0 -0.37416790128274602 -0.22634429062424319 0 -0.3643472651644809 -0.20469307800092479 0 -0.35010237461149102 -0.20879592922003359 0 -0.353867430275979 -0.22244454757068069 0 -0.35010237461149102 -0.20879592922003359 0 -0.353867430275979 -0.22244454757068069 0 -0.33795857308980931 -0.2205733703874008 0 -0.353867430275979 -0.22244454757068069 0 -0.35990219531396977 -0.2394160439223523 0 -0.3429900586711308 -0.2352913154614785 0 -0.353867430275979 -0.22244454757068069 0 -0.3429900586711308 -0.2352913154614785 0 -0.33795857308980931 -0.2205733703874008 0 -0.353867430275979 -0.22244454757068069 0 -0.37416790128274602 -0.22634429062424319 0 -0.35990219531396977 -0.2394160439223523 0 -0.36338572988622991 -0.25681459894990649 0 -0.35990219531396977 -0.2394160439223523 0 -0.37582382025708527 -0.246023115539172 0 -0.37416790128274602 -0.22634429062424319 0 -0.35990219531396977 -0.2394160439223523 0 -0.37582382025708527 -0.246023115539172 0 -0.36338572988622991 -0.25681459894990649 0 -0.35990219531396977 -0.2394160439223523 0 -0.34917823151064831 -0.24957839538863319 0 -0.35990219531396977 -0.2394160439223523 0 -0.34917823151064831 -0.24957839538863319 0 -0.3429900586711308 -0.2352913154614785 0 -0.33368442547674693 -0.24785125579902459 0 -0.3429900586711308 -0.2352913154614785 0 -0.32548293711330401 -0.23231729798997819 0 -0.34917823151064831 -0.24957839538863319 0 -0.33368442547674693 -0.24785125579902459 0 -0.3429900586711308 -0.2352913154614785 0 -0.3429900586711308 -0.2352913154614785 0 -0.33795857308980931 -0.2205733703874008 0 -0.32548293711330401 -0.23231729798997819 0 -0.32288576868467211 -0.21763651310061891 0 -0.33795857308980931 -0.2205733703874008 0 -0.32548293711330401 -0.23231729798997819 0 -0.32288576868467211 -0.21763651310061891 0 -0.32548293711330401 -0.23231729798997819 0 -0.31473610879951402 -0.22440799353969271 0 -0.31472739505410291 -0.21683490162393429 0 -0.32288576868467211 -0.21763651310061891 0 -0.31473610879951402 -0.22440799353969271 0 -0.32548293711330401 -0.23231729798997819 0 -0.31473610879951402 -0.22440799353969271 0 -0.31408925234489671 -0.23387743964731361 0 -0.30656167854946192 -0.24082003241795111 0 -0.31408925234489671 -0.23387743964731361 0 -0.31927486322503718 -0.24452010099714019 0 -0.32548293711330401 -0.23231729798997819 0 -0.31408925234489671 -0.23387743964731361 0 -0.31927486322503718 -0.24452010099714019 0 -0.31594769265599698 -0.25376434042267809 0 -0.307075691851949 -0.25012133063229841 0 -0.31927486322503718 -0.24452010099714019 0 -0.33368442547674693 -0.24785125579902459 0 -0.32548293711330401 -0.23231729798997819 0 -0.31927486322503718 -0.24452010099714019 0 -0.43978426832496842 -0.25595267217095202 0 -0.43202000049662648 -0.2295353026501564 0 -0.42707331057603581 -0.24532875095080739 0 -0.43202000049662648 -0.2295353026501564 0 -0.41966924173429149 -0.23474975895620631 0 -0.43978426832496842 -0.25595267217095202 0 -0.42707331057603581 -0.24532875095080739 0 -0.43202000049662648 -0.2295353026501564 0 -0.43202000049662648 -0.2295353026501564 0 -0.41324014892828598 -0.2229854671260591 0 -0.41966924173429149 -0.23474975895620631 0 -0.41324014892828598 -0.2229854671260591 0 -0.41966924173429149 -0.23474975895620631 0 -0.40705479724394628 -0.24188849849308219 0 -0.420661486853942 -0.25882728147332812 0 -0.42707331057603581 -0.24532875095080739 0 -0.40705479724394628 -0.24188849849308219 0 -0.42707331057603581 -0.24532875095080739 0 -0.41966924173429149 -0.23474975895620631 0 -0.40705479724394628 -0.24188849849308219 0 -0.39186305465216531 -0.25425052695649591 0 -0.40705479724394628 -0.24188849849308219 0 -0.38983080214586269 -0.2395811594697729 0 -0.40705479724394628 -0.24188849849308219 0 -0.38983080214586269 -0.2395811594697729 0 -0.39344810763395061 -0.22494971551283621 0 -0.37416790128274602 -0.22634429062424319 0 -0.38983080214586269 -0.2395811594697729 0 -0.37582382025708527 -0.246023115539172 0 -0.39186305465216531 -0.25425052695649591 0 -0.38983080214586269 -0.2395811594697729 0 -0.37582382025708527 -0.246023115539172 0 -0.37416790128274602 -0.22634429062424319 0 -0.39344810763395061 -0.22494971551283621 0 -0.38423512137933552 -0.20886252837845279 0 -0.37416790128274602 -0.22634429062424319 0 -0.38983080214586269 -0.2395811594697729 0 -0.39344810763395061 -0.22494971551283621 0 -0.40705479724394628 -0.24188849849308219 0 -0.39344810763395061 -0.22494971551283621 0 -0.41324014892828598 -0.2229854671260591 0 -0.39344810763395061 -0.22494971551283621 0 -0.40231054485997231 -0.2100525876791999 0 -0.41324014892828598 -0.2229854671260591 0 -0.40705479724394628 -0.24188849849308219 0 -0.39344810763395061 -0.22494971551283621 0 -0.40231054485997231 -0.2100525876791999 0 -0.38423512137933552 -0.20886252837845279 0 -0.39364125420039969 -0.1950671513775232 0 -0.39344810763395061 -0.22494971551283621 0 -0.40231054485997231 -0.2100525876791999 0 -0.38423512137933552 -0.20886252837845279 0 -0.38423512137933552 -0.20886252837845279 0 -0.37779025821724282 -0.1915363362940995 0 -0.39364125420039969 -0.1950671513775232 0 -0.3643472651644809 -0.20469307800092479 0 -0.38423512137933552 -0.20886252837845279 0 -0.37779025821724282 -0.1915363362940995 0 -0.37779025821724282 -0.1915363362940995 0 -0.39364125420039969 -0.1950671513775232 0 -0.38841275020019828 -0.17931143967027791 0 -0.40231054485997231 -0.2100525876791999 0 -0.39364125420039969 -0.1950671513775232 0 -0.40780022411296279 -0.19320281491484359 0 -0.39364125420039969 -0.1950671513775232 0 -0.40780022411296279 -0.19320281491484359 0 -0.40230212399621479 -0.18107583877956901 0 -0.40780022411296279 -0.19320281491484359 0 -0.42425573266828448 -0.20311793312936069 0 -0.41649146483994259 -0.17670056360856509 0 -0.40231054485997231 -0.2100525876791999 0 -0.40780022411296279 -0.19320281491484359 0 -0.42425573266828448 -0.20311793312936069 0 -0.42425573266828448 -0.20311793312936069 0 -0.41649146483994259 -0.17670056360856509 0 -0.41324014892828598 -0.2229854671260591 0 -0.40231054485997231 -0.2100525876791999 0 -0.42425573266828448 -0.20311793312936069 0 -0.43202000049662648 -0.2295353026501564 0 -0.42425573266828448 -0.20311793312936069 0 -0.44750182369702118 -0.21426213307432929 0 -0.43202000049662648 -0.2295353026501564 0 -0.41324014892828598 -0.2229854671260591 0 -0.42425573266828448 -0.20311793312936069 0 -0.43202000049662648 -0.2295353026501564 0 -0.42425573266828448 -0.20311793312936069 0 -0.42425573266828448 -0.20311793312936069 0 -0.43306883517049211 -0.1793893031513803 0 -0.4487884323068379 -0.19233694919214431 0 -0.43306883517049211 -0.1793893031513803 0 -0.42353624856406508 -0.16556293992758719 0 -0.41649146483994259 -0.17670056360856509 0 -0.42425573266828448 -0.20311793312936069 0 -0.43306883517049211 -0.1793893031513803 0 -0.41649146483994259 -0.17670056360856509 0 -0.43306883517049211 -0.1793893031513803 0 -0.42353624856406508 -0.16556293992758719 0 -0.43935444537578588 -0.16150746967356819 0 -0.42353624856406508 -0.16556293992758719 0 -0.43017037753414972 -0.15002336677940911 0 -0.43935444537578588 -0.16150746967356819 0 -0.42353624856406508 -0.16556293992758719 0 -0.41649146483994259 -0.17670056360856509 0 -0.40872719701160071 -0.15028319408776949 0 -0.41649146483994259 -0.17670056360856509 0 -0.40872719701160071 -0.15028319408776949 0 -0.41649146483994259 -0.17670056360856509 0 -0.40574183023188648 -0.1619832577582567 0 -0.40872719701160071 -0.15028319408776949 0 -0.41649146483994259 -0.17670056360856509 0 -0.40554240537349051 -0.17216943429625009 0 -0.40574183023188648 -0.1619832577582567 0 -0.41649146483994259 -0.17670056360856509 0 -0.40230212399621479 -0.18107583877956901 0 -0.40554240537349051 -0.17216943429625009 0 -0.40780022411296279 -0.19320281491484359 0 -0.41649146483994259 -0.17670056360856509 0 -0.40230212399621479 -0.18107583877956901 0 -0.39364125420039969 -0.1950671513775232 0 -0.40230212399621479 -0.18107583877956901 0 -0.38841275020019828 -0.17931143967027791 0 -0.40230212399621479 -0.18107583877956901 0 -0.40554240537349051 -0.17216943429625009 0 -0.39763420242591813 -0.16891807703860959 0 -0.40230212399621479 -0.18107583877956901 0 -0.38841275020019828 -0.17931143967027791 0 -0.39763420242591813 -0.16891807703860959 0 -0.37779025821724282 -0.1915363362940995 0 -0.38841275020019828 -0.17931143967027791 0 -0.37510807876285279 -0.17496250536680411 0 -0.38841275020019828 -0.17931143967027791 0 -0.37510807876285279 -0.17496250536680411 0 -0.38537385117305861 -0.16544148656857161 0 -0.37355341533807679 -0.15970729828915231 0 -0.38537385117305861 -0.16544148656857161 0 -0.38419835455786761 -0.1525427470687544 0 -0.37355341533807679 -0.15970729828915231 0 -0.37510807876285279 -0.17496250536680411 0 -0.38537385117305861 -0.16544148656857161 0 -0.38841275020019828 -0.17931143967027791 0 -0.38537385117305861 -0.16544148656857161 0 -0.39763420242591813 -0.16891807703860959 0 -0.38537385117305861 -0.16544148656857161 0 -0.39639310018077739 -0.15511052255376739 0 -0.38419835455786761 -0.1525427470687544 0 -0.38537385117305861 -0.16544148656857161 0 -0.39763420242591813 -0.16891807703860959 0 -0.39639310018077739 -0.15511052255376739 0 -0.40554240537349051 -0.17216943429625009 0 -0.39763420242591813 -0.16891807703860959 0 -0.40574183023188648 -0.1619832577582567 0 -0.39763420242591813 -0.16891807703860959 0 -0.40574183023188648 -0.1619832577582567 0 -0.39639310018077739 -0.15511052255376739 0 -0.39974533788639183 -0.1424609512738072 0 -0.39639310018077739 -0.15511052255376739 0 -0.40872719701160071 -0.15028319408776949 0 -0.40574183023188648 -0.1619832577582567 0 -0.39639310018077739 -0.15511052255376739 0 -0.40872719701160071 -0.15028319408776949 0 -0.39974533788639183 -0.1424609512738072 0 -0.39639310018077739 -0.15511052255376739 0 -0.392898125169928 -0.14058426388671891 0 -0.39639310018077739 -0.15511052255376739 0 -0.38419835455786761 -0.1525427470687544 0 -0.392898125169928 -0.14058426388671891 0 -0.38419835455786761 -0.1525427470687544 0 -0.38156921478441419 -0.14167801788719969 0 -0.392898125169928 -0.14058426388671891 0 -0.37188938379582309 -0.14468672267800631 0 -0.38419835455786761 -0.1525427470687544 0 -0.38156921478441419 -0.14167801788719969 0 -0.37188938379582309 -0.14468672267800631 0 -0.37355341533807679 -0.15970729828915231 0 -0.38419835455786761 -0.1525427470687544 0 -0.37729099561403823 -0.12889833791531941 0 -0.392898125169928 -0.14058426388671891 0 -0.4009629291832611 -0.12386582456697311 0 -0.37188938379582309 -0.14468672267800631 0 -0.38156921478441419 -0.14167801788719969 0 -0.37729099561403823 -0.12889833791531941 0 -0.37729099561403823 -0.12889833791531941 0 -0.4009629291832611 -0.12386582456697311 0 -0.38156921478441419 -0.14167801788719969 0 -0.37729099561403823 -0.12889833791531941 0 -0.392898125169928 -0.14058426388671891 0 -0.40872719701160071 -0.15028319408776949 0 -0.4009629291832611 -0.12386582456697311 0 -0.39974533788639183 -0.1424609512738072 0 -0.40872719701160071 -0.15028319408776949 0 -0.4009629291832611 -0.12386582456697311 0 -0.39974533788639183 -0.1424609512738072 0 -0.392898125169928 -0.14058426388671891 0 -0.4009629291832611 -0.12386582456697311 0 -0.41637007942813792 -0.14383839027744461 0 -0.4009629291832611 -0.12386582456697311 0 -0.40920391029221093 -0.122113840627302 0 -0.40872719701160071 -0.15028319408776949 0 -0.41637007942813792 -0.14383839027744461 0 -0.4009629291832611 -0.12386582456697311 0 -0.41637007942813792 -0.14383839027744461 0 -0.40920391029221093 -0.122113840627302 0 -0.42092805186964272 -0.13020502700165629 0 -0.41637007942813792 -0.14383839027744461 0 -0.40920391029221093 -0.122113840627302 0 -0.42353624856406508 -0.16556293992758719 0 -0.40872719701160071 -0.15028319408776949 0 -0.41637007942813792 -0.14383839027744461 0 -0.42353624856406508 -0.16556293992758719 0 -0.41637007942813792 -0.14383839027744461 0 -0.42353624856406508 -0.16556293992758719 0 -0.41637007942813792 -0.14383839027744461 0 -0.43017037753414972 -0.15002336677940911 0 -0.41637007942813792 -0.14383839027744461 0 -0.43017037753414972 -0.15002336677940911 0 -0.43133827787148588 -0.13575030520140099 0 -0.43017037753414972 -0.15002336677940911 0 -0.43133827787148588 -0.13575030520140099 0 -0.44545086730546768 -0.1442035216626488 0 -0.42092805186964272 -0.13020502700165629 0 -0.43133827787148588 -0.13575030520140099 0 -0.43198043737197539 -0.1172716854132916 0 -0.43133827787148588 -0.13575030520140099 0 -0.44636766464781669 -0.12780616101946399 0 -0.43198043737197539 -0.1172716854132916 0 -0.42092805186964272 -0.13020502700165629 0 -0.41637007942813792 -0.14383839027744461 0 -0.43133827787148588 -0.13575030520140099 0 -0.43133827787148588 -0.13575030520140099 0 -0.44636766464781669 -0.12780616101946399 0 -0.44545086730546768 -0.1442035216626488 0 -0.44636766464781669 -0.12780616101946399 0 -0.44545086730546768 -0.1442035216626488 0 -0.46607648064170581 -0.13208324853690259 0 -0.44545086730546768 -0.1442035216626488 0 -0.45756216947195177 -0.15818341851843989 0 -0.43935444537578588 -0.16150746967356819 0 -0.43017037753414972 -0.15002336677940911 0 -0.44545086730546768 -0.1442035216626488 0 -0.43935444537578588 -0.16150746967356819 0 -0.44545086730546768 -0.1442035216626488 0 -0.46607648064170581 -0.13208324853690259 0 -0.45756216947195177 -0.15818341851843989 0 -0.46607648064170581 -0.13208324853690259 0 -0.48085960131626487 -0.15193045745878031 0 -0.45756216947195177 -0.15818341851843989 0 -0.46607648064170581 -0.13208324853690259 0 -0.48565596786896659 -0.12604806504480931 0 -0.48085960131626487 -0.15193045745878031 0 -0.48565596786896659 -0.12604806504480931 0 -0.5 -0.14093090455833729 0 -0.48085960131626487 -0.15193045745878031 0 -0.48565596786896659 -0.12604806504480931 0 -0.5 -0.14093090455833729 0 -0.5 -0.1113831015004856 0 -0.5 -0.14093090455833729 0 -0.48085960131626487 -0.15193045745878031 0 -0.5 -0.170478707616189 0 -0.48085960131626487 -0.15193045745878031 0 -0.46973476017287141 -0.16794308735306529 0 -0.45756216947195177 -0.15818341851843989 0 -0.48085960131626487 -0.15193045745878031 0 -0.46973476017287141 -0.16794308735306529 0 -0.48300025145156161 -0.18065341125775089 0 -0.48085960131626487 -0.15193045745878031 0 -0.5 -0.170478707616189 0 -0.48300025145156161 -0.18065341125775089 0 -0.5 -0.170478707616189 0 -0.48300025145156161 -0.18065341125775089 0 -0.5 -0.20002651067404081 0 -0.48300025145156161 -0.18065341125775089 0 -0.4603598952704735 -0.18050311645781961 0 -0.47513418538114649 -0.19613670525034249 0 -0.46973476017287141 -0.16794308735306529 0 -0.48300025145156161 -0.18065341125775089 0 -0.4603598952704735 -0.18050311645781961 0 -0.4603598952704735 -0.18050311645781961 0 -0.45756216947195177 -0.15818341851843989 0 -0.44633817420858929 -0.171682268001944 0 -0.46973476017287141 -0.16794308735306529 0 -0.4603598952704735 -0.18050311645781961 0 -0.45756216947195177 -0.15818341851843989 0 -0.45756216947195177 -0.15818341851843989 0 -0.43935444537578588 -0.16150746967356819 0 -0.44633817420858929 -0.171682268001944 0 -0.43306883517049211 -0.1793893031513803 0 -0.43935444537578588 -0.16150746967356819 0 -0.44633817420858929 -0.171682268001944 0 -0.4603598952704735 -0.18050311645781961 0 -0.44633817420858929 -0.171682268001944 0 -0.4487884323068379 -0.19233694919214431 0 -0.43306883517049211 -0.1793893031513803 0 -0.44633817420858929 -0.171682268001944 0 -0.4487884323068379 -0.19233694919214431 0 -0.4487884323068379 -0.19233694919214431 0 -0.44750182369702118 -0.21426213307432929 0 -0.4487884323068379 -0.19233694919214431 0 -0.44750182369702118 -0.21426213307432929 0 -0.46042121654948948 -0.203563283093502 0 -0.42425573266828448 -0.20311793312936069 0 -0.4487884323068379 -0.19233694919214431 0 -0.44750182369702118 -0.21426213307432929 0 -0.46042121654948948 -0.203563283093502 0 -0.47892766724433239 -0.21355590426914239 0 -0.46018620744453809 -0.22076477085630999 0 -0.44750182369702118 -0.21426213307432929 0 -0.46042121654948948 -0.203563283093502 0 -0.46018620744453809 -0.22076477085630999 0 -0.4603598952704735 -0.18050311645781961 0 -0.4487884323068379 -0.19233694919214431 0 -0.46042121654948948 -0.203563283093502 0 -0.4603598952704735 -0.18050311645781961 0 -0.46042121654948948 -0.203563283093502 0 -0.47513418538114649 -0.19613670525034249 0 -0.48300025145156161 -0.18065341125775089 0 -0.47513418538114649 -0.19613670525034249 0 -0.5 -0.20002651067404081 0 -0.5 -0.20002651067404081 0 -0.47892766724433239 -0.21355590426914239 0 -0.5 -0.22957431373189241 0 -0.47513418538114649 -0.19613670525034249 0 -0.5 -0.20002651067404081 0 -0.47892766724433239 -0.21355590426914239 0 -0.46042121654948948 -0.203563283093502 0 -0.47513418538114649 -0.19613670525034249 0 -0.47892766724433239 -0.21355590426914239 0 -0.47892766724433239 -0.21355590426914239 0 -0.47782439409082111 -0.2312698420087673 0 -0.46018620744453809 -0.22076477085630999 0 -0.47892766724433239 -0.21355590426914239 0 -0.47782439409082111 -0.2312698420087673 0 -0.5 -0.22957431373189241 0 -0.47782439409082111 -0.2312698420087673 0 -0.5 -0.22957431373189241 0 -0.48614690839338193 -0.24626533862775701 0 -0.5 -0.25912211678974428 0 -0.5 -0.22957431373189241 0 -0.48614690839338193 -0.24626533862775701 0 -0.47782439409082111 -0.2312698420087673 0 -0.48614690839338193 -0.24626533862775701 0 -0.46804319132689648 -0.246018173434604 0 -0.44856495240922428 -0.25209074898137163 0 -0.45717515575802498 -0.25173532694221612 0 -0.45560036135097159 -0.24325595257704549 0 -0.45717515575802498 -0.25173532694221612 0 -0.46804319132689648 -0.246018173434604 0 -0.45560036135097159 -0.24325595257704549 0 -0.46804319132689648 -0.246018173434604 0 -0.45560036135097159 -0.24325595257704549 0 -0.45550935978132628 -0.23209766937976059 0 -0.46804319132689648 -0.246018173434604 0 -0.46018620744453809 -0.22076477085630999 0 -0.44750182369702118 -0.21426213307432929 0 -0.46018620744453809 -0.22076477085630999 0 -0.45550935978132628 -0.23209766937976059 0 -0.47782439409082111 -0.2312698420087673 0 -0.46804319132689648 -0.246018173434604 0 -0.46018620744453809 -0.22076477085630999 0 -0.46804319132689648 -0.246018173434604 0 -0.46018620744453809 -0.22076477085630999 0 -0.45550935978132628 -0.23209766937976059 0 -0.43202000049662648 -0.2295353026501564 0 -0.44750182369702118 -0.21426213307432929 0 -0.44621521508720452 -0.23618731695651429 0 -0.44750182369702118 -0.21426213307432929 0 -0.44621521508720452 -0.23618731695651429 0 -0.44750182369702118 -0.21426213307432929 0 -0.45550935978132628 -0.23209766937976059 0 -0.44621521508720452 -0.23618731695651429 0 -0.44492860647738708 -0.2581125008386993 0 -0.44621521508720452 -0.23618731695651429 0 -0.44856495240922428 -0.25209074898137163 0 -0.45560036135097159 -0.24325595257704549 0 -0.44621521508720452 -0.23618731695651429 0 -0.43978426832496842 -0.25595267217095202 0 -0.43202000049662648 -0.2295353026501564 0 -0.44621521508720452 -0.23618731695651429 0 -0.44856495240922428 -0.25209074898137163 0 -0.44492860647738708 -0.2581125008386993 0 -0.44621521508720452 -0.23618731695651429 0 -0.45560036135097159 -0.24325595257704549 0 -0.45550935978132628 -0.23209766937976059 0 -0.44621521508720452 -0.23618731695651429 0 -0.42092813200641971 -0.046736947896220141 0 -0.40777063509683581 -0.033924454059109613 0 -0.42014112847889412 -0.025771953523232589 0 -0.42092813200641971 -0.046736947896220141 0 -0.40777063509683581 -0.033924454059109613 0 -0.40318032111001451 -0.047439370479043327 0 -0.42092813200641971 -0.046736947896220141 0 -0.411193977930709 -0.061222971465780297 0 -0.40318032111001451 -0.047439370479043327 0 -0.42092813200641971 -0.046736947896220141 0 -0.411193977930709 -0.061222971465780297 0 -0.42556378613350992 -0.061770648574362617 0 -0.42092813200641971 -0.046736947896220141 0 -0.42556378613350992 -0.061770648574362617 0 -0.43979090961297729 -0.057538978545256941 0 -0.42092813200641971 -0.046736947896220141 0 -0.4384817319502689 -0.036349626810617437 0 -0.43979090961297729 -0.057538978545256941 0 -0.42092813200641971 -0.046736947896220141 0 -0.42014112847889412 -0.025771953523232589 0 -0.4384817319502689 -0.036349626810617437 0 -0.4347471527390982 -0.015930199706157281 0 -0.42014112847889412 -0.025771953523232589 0 -0.4384817319502689 -0.036349626810617437 0 -0.4347471527390982 -0.015930199706157281 0 -0.417246584304724 -0.0047950850409023494 0 -0.4341451012022296 0.00028732052076382142 0 -0.4347471527390982 -0.015930199706157281 0 -0.417246584304724 -0.0047950850409023494 0 -0.42014112847889412 -0.025771953523232589 0 -0.417246584304724 -0.0047950850409023494 0 -0.42014112847889412 -0.025771953523232589 0 -0.40093270166223199 -0.016918342473457391 0 -0.40777063509683581 -0.033924454059109613 0 -0.42014112847889412 -0.025771953523232589 0 -0.40093270166223199 -0.016918342473457391 0 -0.40777063509683581 -0.033924454059109613 0 -0.40093270166223199 -0.016918342473457391 0 -0.39367089222661839 -0.032755655923594598 0 -0.40093270166223199 -0.016918342473457391 0 -0.38871777476375879 -0.022869078480443939 0 -0.39367089222661839 -0.032755655923594598 0 -0.40093270166223199 -0.016918342473457391 0 -0.38875902912346832 -0.013657647543360929 0 -0.38871777476375879 -0.022869078480443939 0 -0.39178021248303041 -0.004980771230133265 0 -0.38086869050235261 0.00024865887516311441 0 -0.39985494521273601 0.0035144738199298399 0 -0.40093270166223199 -0.016918342473457391 0 -0.39178021248303041 -0.004980771230133265 0 -0.39985494521273601 0.0035144738199298399 0 -0.417246584304724 -0.0047950850409023494 0 -0.40093270166223199 -0.016918342473457391 0 -0.39985494521273601 0.0035144738199298399 0 -0.40093270166223199 -0.016918342473457391 0 -0.39178021248303041 -0.004980771230133265 0 -0.38875902912346832 -0.013657647543360929 0 -0.36913653546780928 -0.00064787223986029208 0 -0.37693399065934052 -0.024286192692544568 0 -0.38086869050235261 0.00024865887516311441 0 -0.38875902912346832 -0.013657647543360929 0 -0.37693399065934052 -0.024286192692544568 0 -0.38086869050235261 0.00024865887516311441 0 -0.39178021248303041 -0.004980771230133265 0 -0.38875902912346832 -0.013657647543360929 0 -0.38086869050235261 0.00024865887516311441 0 -0.38871777476375879 -0.022869078480443939 0 -0.37693399065934052 -0.024286192692544568 0 -0.39367089222661839 -0.032755655923594598 0 -0.38875902912346832 -0.013657647543360929 0 -0.38871777476375879 -0.022869078480443939 0 -0.37693399065934052 -0.024286192692544568 0 -0.37039764751197168 -0.041496099240644888 0 -0.37693399065934052 -0.024286192692544568 0 -0.3847314458508716 -0.047924513145228803 0 -0.37693399065934052 -0.024286192692544568 0 -0.3847314458508716 -0.047924513145228803 0 -0.37693399065934052 -0.024286192692544568 0 -0.39367089222661839 -0.032755655923594598 0 -0.3847314458508716 -0.047924513145228803 0 -0.39367089222661839 -0.032755655923594598 0 -0.40318032111001451 -0.047439370479043327 0 -0.3847314458508716 -0.047924513145228803 0 -0.40777063509683581 -0.033924454059109613 0 -0.39367089222661839 -0.032755655923594598 0 -0.40318032111001451 -0.047439370479043327 0 -0.39903451089719377 -0.059801199781147597 0 -0.40318032111001451 -0.047439370479043327 0 -0.3847314458508716 -0.047924513145228803 0 -0.39903451089719377 -0.059801199781147597 0 -0.3847314458508716 -0.047924513145228803 0 -0.39252890104240279 -0.071562833597912989 0 -0.411193977930709 -0.061222971465780297 0 -0.39903451089719377 -0.059801199781147597 0 -0.40318032111001451 -0.047439370479043327 0 -0.37236779851361068 -0.070972408819564667 0 -0.368161404256522 -0.056797864533857767 0 -0.3847314458508716 -0.047924513145228803 0 -0.3847314458508716 -0.047924513145228803 0 -0.39252890104240279 -0.071562833597912989 0 -0.37236779851361068 -0.070972408819564667 0 -0.3847314458508716 -0.047924513145228803 0 -0.38273885535634777 -0.074585353899597306 0 -0.3847314458508716 -0.047924513145228803 0 -0.38273885535634777 -0.074585353899597306 0 -0.39252890104240279 -0.071562833597912989 0 -0.38273885535634777 -0.074585353899597306 0 -0.3888878231578472 -0.082781134428946829 0 -0.39252890104240279 -0.071562833597912989 0 -0.37236779851361068 -0.070972408819564667 0 -0.38273885535634777 -0.074585353899597306 0 -0.3766707962849673 -0.082841217428955172 0 -0.38273885535634777 -0.074585353899597306 0 -0.3766707962849673 -0.082841217428955172 0 -0.3888878231578472 -0.082781134428946829 0 -0.3888878231578472 -0.082781134428946829 0 -0.37964486678059328 -0.094690869755778839 0 -0.39386202350822619 -0.099705497631196294 0 -0.3766707962849673 -0.082841217428955172 0 -0.3888878231578472 -0.082781134428946829 0 -0.37964486678059328 -0.094690869755778839 0 -0.3888878231578472 -0.082781134428946829 0 -0.39386202350822619 -0.099705497631196294 0 -0.3888878231578472 -0.082781134428946829 0 -0.39386202350822619 -0.099705497631196294 0 -0.4003263562339332 -0.095201154050597425 0 -0.40500371927583739 -0.079424866500496072 0 -0.39252890104240279 -0.071562833597912989 0 -0.4003263562339332 -0.095201154050597425 0 -0.3888878231578472 -0.082781134428946829 0 -0.39252890104240279 -0.071562833597912989 0 -0.4003263562339332 -0.095201154050597425 0 -0.39252890104240279 -0.071562833597912989 0 -0.4003263562339332 -0.095201154050597425 0 -0.40500371927583739 -0.079424866500496072 0 -0.404357682313227 -0.069251862988790311 0 -0.39252890104240279 -0.071562833597912989 0 -0.39903451089719377 -0.059801199781147597 0 -0.404357682313227 -0.069251862988790311 0 -0.39252890104240279 -0.071562833597912989 0 -0.411193977930709 -0.061222971465780297 0 -0.39903451089719377 -0.059801199781147597 0 -0.404357682313227 -0.069251862988790311 0 -0.37729099561403823 -0.12889833791531941 0 -0.38722509804457161 -0.1187528876273901 0 -0.37942546501910679 -0.10976488385335979 0 -0.37729099561403823 -0.12889833791531941 0 -0.38722509804457161 -0.1187528876273901 0 -0.4009629291832611 -0.12386582456697311 0 -0.38722509804457161 -0.1187528876273901 0 -0.37942546501910679 -0.10976488385335979 0 -0.3903251823594891 -0.1121192720190448 0 -0.37942546501910679 -0.10976488385335979 0 -0.3903251823594891 -0.1121192720190448 0 -0.39386202350822619 -0.099705497631196294 0 -0.37942546501910679 -0.10976488385335979 0 -0.39386202350822619 -0.099705497631196294 0 -0.37094449256260992 -0.099372935251941033 0 -0.37942546501910679 -0.10976488385335979 0 -0.37964486678059328 -0.094690869755778839 0 -0.37942546501910679 -0.10976488385335979 0 -0.37964486678059328 -0.094690869755778839 0 -0.39386202350822619 -0.099705497631196294 0 -0.39386202350822619 -0.099705497631196294 0 -0.4003263562339332 -0.095201154050597425 0 -0.40920391029221093 -0.122113840627302 0 -0.4003263562339332 -0.095201154050597425 0 -0.40920391029221093 -0.122113840627302 0 -0.39386202350822619 -0.099705497631196294 0 -0.4003263562339332 -0.095201154050597425 0 -0.39386202350822619 -0.099705497631196294 0 -0.4009629291832611 -0.12386582456697311 0 -0.3903251823594891 -0.1121192720190448 0 -0.39386202350822619 -0.099705497631196294 0 -0.4009629291832611 -0.12386582456697311 0 -0.39386202350822619 -0.099705497631196294 0 -0.4009629291832611 -0.12386582456697311 0 -0.40920391029221093 -0.122113840627302 0 -0.4009629291832611 -0.12386582456697311 0 -0.40920391029221093 -0.122113840627302 0 -0.38722509804457161 -0.1187528876273901 0 -0.3903251823594891 -0.1121192720190448 0 -0.4009629291832611 -0.12386582456697311 0 -0.42092805186964272 -0.13020502700165629 0 -0.40920391029221093 -0.122113840627302 0 -0.43198043737197539 -0.1172716854132916 0 -0.40920391029221093 -0.122113840627302 0 -0.41880293320144529 -0.10311611480355649 0 -0.43198043737197539 -0.1172716854132916 0 -0.40920391029221093 -0.122113840627302 0 -0.43198043737197539 -0.1172716854132916 0 -0.4003263562339332 -0.095201154050597425 0 -0.41880293320144529 -0.10311611480355649 0 -0.41459812813088748 -0.08525659103758304 0 -0.4003263562339332 -0.095201154050597425 0 -0.40920391029221093 -0.122113840627302 0 -0.41880293320144529 -0.10311611480355649 0 -0.41880293320144529 -0.10311611480355649 0 -0.43198043737197539 -0.1172716854132916 0 -0.43984882439842049 -0.092839281978585583 0 -0.41493119896866892 -0.072039828098597158 0 -0.41459812813088748 -0.08525659103758304 0 -0.42886990002784298 -0.075312028024570626 0 -0.411193977930709 -0.061222971465780297 0 -0.42556378613350992 -0.061770648574362617 0 -0.41493119896866892 -0.072039828098597158 0 -0.411193977930709 -0.061222971465780297 0 -0.404357682313227 -0.069251862988790311 0 -0.41493119896866892 -0.072039828098597158 0 -0.40500371927583739 -0.079424866500496072 0 -0.404357682313227 -0.069251862988790311 0 -0.41493119896866892 -0.072039828098597158 0 -0.40500371927583739 -0.079424866500496072 0 -0.41493119896866892 -0.072039828098597158 0 -0.41459812813088748 -0.08525659103758304 0 -0.40500371927583739 -0.079424866500496072 0 -0.4003263562339332 -0.095201154050597425 0 -0.41459812813088748 -0.08525659103758304 0 -0.4003263562339332 -0.095201154050597425 0 -0.41459812813088748 -0.08525659103758304 0 -0.41459812813088748 -0.08525659103758304 0 -0.42886990002784298 -0.075312028024570626 0 -0.41459812813088748 -0.08525659103758304 0 -0.42886990002784298 -0.075312028024570626 0 -0.43984882439842049 -0.092839281978585583 0 -0.41880293320144529 -0.10311611480355649 0 -0.41459812813088748 -0.08525659103758304 0 -0.43984882439842049 -0.092839281978585583 0 -0.42556378613350992 -0.061770648574362617 0 -0.42886990002784298 -0.075312028024570626 0 -0.43979090961297729 -0.057538978545256941 0 -0.42556378613350992 -0.061770648574362617 0 -0.41493119896866892 -0.072039828098597158 0 -0.42886990002784298 -0.075312028024570626 0 -0.44570181937220099 -0.07165208004111645 0 -0.45995054971207078 -0.064211822405253208 0 -0.43979090961297729 -0.057538978545256941 0 -0.42886990002784298 -0.075312028024570626 0 -0.44570181937220099 -0.07165208004111645 0 -0.43979090961297729 -0.057538978545256941 0 -0.44570181937220099 -0.07165208004111645 0 -0.43984882439842049 -0.092839281978585583 0 -0.46061485573723893 -0.080272409178196974 0 -0.42886990002784298 -0.075312028024570626 0 -0.44570181937220099 -0.07165208004111645 0 -0.43984882439842049 -0.092839281978585583 0 -0.43984882439842049 -0.092839281978585583 0 -0.46061485573723893 -0.080272409178196974 0 -0.46346555689403363 -0.097403817131087145 0 -0.46061485573723893 -0.080272409178196974 0 -0.46346555689403363 -0.097403817131087145 0 -0.48000475835729639 -0.087970011571378876 0 -0.44570181937220099 -0.07165208004111645 0 -0.46061485573723893 -0.080272409178196974 0 -0.45995054971207078 -0.064211822405253208 0 -0.46061485573723893 -0.080272409178196974 0 -0.45995054971207078 -0.064211822405253208 0 -0.47735924258662882 -0.063809146401063679 0 -0.43198043737197539 -0.1172716854132916 0 -0.45475696445174019 -0.1124295301992823 0 -0.44636766464781669 -0.12780616101946399 0 -0.43198043737197539 -0.1172716854132916 0 -0.45475696445174019 -0.1124295301992823 0 -0.43984882439842049 -0.092839281978585583 0 -0.46346555689403363 -0.097403817131087145 0 -0.45475696445174019 -0.1124295301992823 0 -0.43198043737197539 -0.1172716854132916 0 -0.43984882439842049 -0.092839281978585583 0 -0.45475696445174019 -0.1124295301992823 0 -0.46346555689403363 -0.097403817131087145 0 -0.45475696445174019 -0.1124295301992823 0 -0.47753349153150487 -0.1075873749852731 0 -0.46607648064170581 -0.13208324853690259 0 -0.45475696445174019 -0.1124295301992823 0 -0.47753349153150487 -0.1075873749852731 0 -0.44636766464781669 -0.12780616101946399 0 -0.46607648064170581 -0.13208324853690259 0 -0.45475696445174019 -0.1124295301992823 0 -0.45475696445174019 -0.1124295301992823 0 -0.47753349153150487 -0.1075873749852731 0 -0.46607648064170581 -0.13208324853690259 0 -0.48565596786896659 -0.12604806504480931 0 -0.47753349153150487 -0.1075873749852731 0 -0.46346555689403363 -0.097403817131087145 0 -0.47753349153150487 -0.1075873749852731 0 -0.48000475835729639 -0.087970011571378876 0 -0.47753349153150487 -0.1075873749852731 0 -0.5 -0.1113831015004856 0 -0.48000475835729639 -0.087970011571378876 0 -0.48565596786896659 -0.12604806504480931 0 -0.47753349153150487 -0.1075873749852731 0 -0.5 -0.1113831015004856 0 -0.46061485573723893 -0.080272409178196974 0 -0.47735924258662882 -0.063809146401063679 0 -0.48000475835729639 -0.087970011571378876 0 -0.5 -0.1113831015004856 0 -0.48000475835729639 -0.087970011571378876 0 -0.5 -0.08183529844263393 0 -0.47735924258662882 -0.063809146401063679 0 -0.5 -0.08183529844263393 0 -0.5 -0.052287495384782168 0 -0.47735924258662882 -0.063809146401063679 0 -0.48000475835729639 -0.087970011571378876 0 -0.5 -0.08183529844263393 0 -0.47735924258662882 -0.063809146401063679 0 -0.5 -0.052287495384782168 0 -0.48140193087367189 -0.042271835393501662 0 -0.5 -0.052287495384782168 0 -0.48140193087367189 -0.042271835393501662 0 -0.5 -0.022739692326930409 0 -0.48140193087367189 -0.042271835393501662 0 -0.45886415204159281 -0.047263182045768792 0 -0.47078625974013782 -0.02525966080896325 0 -0.47735924258662882 -0.063809146401063679 0 -0.48140193087367189 -0.042271835393501662 0 -0.45886415204159281 -0.047263182045768792 0 -0.45995054971207078 -0.064211822405253208 0 -0.47735924258662882 -0.063809146401063679 0 -0.45886415204159281 -0.047263182045768792 0 -0.45886415204159281 -0.047263182045768792 0 -0.45288736724508111 -0.026787180924565331 0 -0.47078625974013782 -0.02525966080896325 0 -0.45886415204159281 -0.047263182045768792 0 -0.4384817319502689 -0.036349626810617437 0 -0.45288736724508111 -0.026787180924565331 0 -0.45886415204159281 -0.047263182045768792 0 -0.4384817319502689 -0.036349626810617437 0 -0.43979090961297729 -0.057538978545256941 0 -0.45995054971207078 -0.064211822405253208 0 -0.45886415204159281 -0.047263182045768792 0 -0.43979090961297729 -0.057538978545256941 0 -0.4347471527390982 -0.015930199706157281 0 -0.45649810182606543 -0.0083507628937977314 0 -0.4347471527390982 -0.015930199706157281 0 -0.45649810182606543 -0.0083507628937977314 0 -0.4341451012022296 0.00028732052076382142 0 -0.4347471527390982 -0.015930199706157281 0 -0.4384817319502689 -0.036349626810617437 0 -0.45288736724508111 -0.026787180924565331 0 -0.4347471527390982 -0.015930199706157281 0 -0.45288736724508111 -0.026787180924565331 0 -0.45649810182606543 -0.0083507628937977314 0 -0.45288736724508111 -0.026787180924565331 0 -0.45649810182606543 -0.0083507628937977314 0 -0.47078625974013782 -0.02525966080896325 0 -0.45649810182606543 -0.0083507628937977314 0 -0.4782490509130326 -0.0007713260814381992 0 -0.45649810182606543 -0.0083507628937977314 0 -0.4782490509130326 -0.0007713260814381992 0 -0.47078625974013782 -0.02525966080896325 0 -0.48140193087367189 -0.042271835393501662 0 -0.47078625974013782 -0.02525966080896325 0 -0.5 -0.022739692326930409 0 -0.4782490509130326 -0.0007713260814381992 0 -0.47078625974013782 -0.02525966080896325 0 -0.5 -0.022739692326930409 0 -0.4782490509130326 -0.0007713260814381992 0 -0.5 -0.022739692326930409 0 -0.49999999999999989 0.0068081107309213027 0 -0.4782490509130326 -0.0007713260814381992 0 -0.49999999999999989 0.0068081107309213027 0 -0.4782490509130326 -0.0007713260814381992 0 -0.49999999999999989 0.0068081107309213027 0 -0.4832302994820068 0.016404646853477409 0 -0.49999999999999989 0.0068081107309213027 0 -0.4832302994820068 0.016404646853477409 0 -0.5 0.036375486822679437 0 -0.46942861793881591 0.031112679857753209 0 -0.4832302994820068 0.016404646853477409 0 -0.46551800707546132 0.0099235135186449362 0 -0.46942861793881591 0.031112679857753209 0 -0.4832302994820068 0.016404646853477409 0 -0.5 0.036375486822679437 0 -0.4782490509130326 -0.0007713260814381992 0 -0.4832302994820068 0.016404646853477409 0 -0.46551800707546132 0.0099235135186449362 0 -0.4848580405601659 0.05148110160183493 0 -0.5 0.036375486822679437 0 -0.50000000000000078 0.065942862914437461 0 -0.46942861793881591 0.031112679857753209 0 -0.4848580405601659 0.05148110160183493 0 -0.5 0.036375486822679437 0 -0.46942861793881591 0.031112679857753209 0 -0.4848580405601659 0.05148110160183493 0 -0.46552817349695469 0.052403934598396602 0 -0.4848580405601659 0.05148110160183493 0 -0.46552817349695469 0.052403934598396602 0 -0.47436300781350521 0.076144478842300273 0 -0.46942861793881591 0.031112679857753209 0 -0.46552817349695469 0.052403934598396602 0 -0.44270247258515888 0.039536093979575637 0 -0.44270247258515888 0.039536093979575637 0 -0.42871982900566891 0.064652719629256353 0 -0.4502750030120819 0.065195838306442627 0 -0.46552817349695469 0.052403934598396602 0 -0.44270247258515888 0.039536093979575637 0 -0.4502750030120819 0.065195838306442627 0 -0.45649810182606543 -0.0083507628937977314 0 -0.4782490509130326 -0.0007713260814381992 0 -0.46551800707546132 0.0099235135186449362 0 -0.45649810182606543 -0.0083507628937977314 0 -0.46551800707546132 0.0099235135186449362 0 -0.44455746846542232 0.01346210215923683 0 -0.46942861793881591 0.031112679857753209 0 -0.46551800707546132 0.0099235135186449362 0 -0.44455746846542232 0.01346210215923683 0 -0.46942861793881591 0.031112679857753209 0 -0.44270247258515888 0.039536093979575637 0 -0.44455746846542232 0.01346210215923683 0 -0.45649810182606543 -0.0083507628937977314 0 -0.44455746846542232 0.01346210215923683 0 -0.4341451012022296 0.00028732052076382142 0 -0.44455746846542232 0.01346210215923683 0 -0.4341451012022296 0.00028732052076382142 0 -0.42020520201796763 0.01557287694761776 0 -0.417246584304724 -0.0047950850409023494 0 -0.4341451012022296 0.00028732052076382142 0 -0.42020520201796763 0.01557287694761776 0 -0.417246584304724 -0.0047950850409023494 0 -0.42020520201796763 0.01557287694761776 0 -0.39985494521273601 0.0035144738199298399 0 -0.42020520201796763 0.01557287694761776 0 -0.41677263444045842 0.040617269085249381 0 -0.38987128007464278 0.028474933410388509 0 -0.44270247258515888 0.039536093979575637 0 -0.44455746846542232 0.01346210215923683 0 -0.42020520201796763 0.01557287694761776 0 -0.44270247258515888 0.039536093979575637 0 -0.42020520201796763 0.01557287694761776 0 -0.41677263444045842 0.040617269085249381 0 -0.44270247258515888 0.039536093979575637 0 -0.41677263444045842 0.040617269085249381 0 -0.42871982900566891 0.064652719629256353 0 -0.41677263444045842 0.040617269085249381 0 -0.398873869646933 0.056701207945613993 0 -0.42871982900566891 0.064652719629256353 0 -0.398873869646933 0.056701207945613993 0 -0.38987128007464278 0.028474933410388509 0 -0.41677263444045842 0.040617269085249381 0 -0.398873869646933 0.056701207945613993 0 -0.38987128007464278 0.028474933410388509 0 -0.398873869646933 0.056701207945613993 0 -0.37572270983714429 0.048872920353502949 0 -0.38503139596208391 0.070056563675861508 0 -0.37572270983714429 0.048872920353502949 0 -0.38503139596208391 0.070056563675861508 0 -0.36646259154152272 0.065038684961889331 0 -0.398873869646933 0.056701207945613993 0 -0.37572270983714429 0.048872920353502949 0 -0.38987128007464278 0.028474933410388509 0 -0.37572270983714429 0.048872920353502949 0 -0.38987128007464278 0.028474933410388509 0 -0.3745175543435747 0.032412733095474107 0 -0.38987128007464278 0.028474933410388509 0 -0.37573497748791151 0.01108081694060346 0 -0.37358602706579958 0.019684991208363731 0 -0.38987128007464278 0.028474933410388509 0 -0.37358602706579958 0.019684991208363731 0 -0.3745175543435747 0.032412733095474107 0 -0.38987128007464278 0.028474933410388509 0 -0.37573497748791151 0.01108081694060346 0 -0.38086869050235261 0.00024865887516311441 0 -0.38987128007464278 0.028474933410388509 0 -0.38086869050235261 0.00024865887516311441 0 -0.38987128007464278 0.028474933410388509 0 -0.38086869050235261 0.00024865887516311441 0 -0.39985494521273601 0.0035144738199298399 0 -0.36913653546780928 -0.00064787223986029208 0 -0.37573497748791151 0.01108081694060346 0 -0.38086869050235261 0.00024865887516311441 0 -0.42020520201796763 0.01557287694761776 0 -0.38987128007464278 0.028474933410388509 0 -0.39985494521273601 0.0035144738199298399 0 -0.40583870300786168 0.1129520271102431 0 -0.38966860486041699 0.1010221889350168 0 -0.40787645921922322 0.084927482480839478 0 -0.40583870300786168 0.1129520271102431 0 -0.38463230277678639 0.116186697035543 0 -0.3942400301772398 0.1342828402430527 0 -0.40583870300786168 0.1129520271102431 0 -0.38463230277678639 0.116186697035543 0 -0.38966860486041699 0.1010221889350168 0 -0.38463230277678639 0.116186697035543 0 -0.37922935614630698 0.13437690567525251 0 -0.3644920967513347 0.11829697810106619 0 -0.38463230277678639 0.116186697035543 0 -0.38966860486041699 0.1010221889350168 0 -0.3758661085835856 0.10053044475925529 0 -0.38966860486041699 0.1010221889350168 0 -0.3758661085835856 0.10053044475925529 0 -0.38551528765648169 0.086582812329141834 0 -0.3758661085835856 0.10053044475925529 0 -0.38551528765648169 0.086582812329141834 0 -0.36999097683252652 0.082046784558081981 0 -0.38551528765648169 0.086582812329141834 0 -0.38503139596208391 0.070056563675861508 0 -0.36999097683252652 0.082046784558081981 0 -0.398873869646933 0.056701207945613993 0 -0.40787645921922322 0.084927482480839478 0 -0.398873869646933 0.056701207945613993 0 -0.38503139596208391 0.070056563675861508 0 -0.40787645921922322 0.084927482480839478 0 -0.38551528765648169 0.086582812329141834 0 -0.38503139596208391 0.070056563675861508 0 -0.40787645921922322 0.084927482480839478 0 -0.38966860486041699 0.1010221889350168 0 -0.38551528765648169 0.086582812329141834 0 -0.40787645921922322 0.084927482480839478 0 -0.40787645921922322 0.084927482480839478 0 -0.42871982900566891 0.064652719629256353 0 -0.42773584199730641 0.095587519838837454 0 -0.398873869646933 0.056701207945613993 0 -0.40787645921922322 0.084927482480839478 0 -0.42871982900566891 0.064652719629256353 0 -0.42871982900566891 0.064652719629256353 0 -0.42773584199730641 0.095587519838837454 0 -0.44872601562700931 0.086346094770162848 0 -0.40583870300786168 0.1129520271102431 0 -0.42773584199730641 0.095587519838837454 0 -0.42460677859801532 0.1186291890060085 0 -0.40583870300786168 0.1129520271102431 0 -0.40787645921922322 0.084927482480839478 0 -0.42773584199730641 0.095587519838837454 0 -0.40583870300786168 0.1129520271102431 0 -0.42460677859801532 0.1186291890060085 0 -0.41418570800388699 0.13758571035592509 0 -0.42773584199730641 0.095587519838837454 0 -0.42460677859801532 0.1186291890060085 0 -0.44805695009367807 0.11436898267917039 0 -0.42460677859801532 0.1186291890060085 0 -0.44805695009367807 0.11436898267917039 0 -0.43752835560722741 0.13148030609849859 0 -0.42773584199730641 0.095587519838837454 0 -0.44805695009367807 0.11436898267917039 0 -0.44872601562700931 0.086346094770162848 0 -0.44805695009367807 0.11436898267917039 0 -0.44872601562700931 0.086346094770162848 0 -0.4731790028920897 0.103770780436285 0 -0.44805695009367807 0.11436898267917039 0 -0.47078678666502749 0.12394957325677031 0 -0.4731790028920897 0.103770780436285 0 -0.42871982900566891 0.064652719629256353 0 -0.4502750030120819 0.065195838306442627 0 -0.44872601562700931 0.086346094770162848 0 -0.44872601562700931 0.086346094770162848 0 -0.47436300781350521 0.076144478842300273 0 -0.44872601562700931 0.086346094770162848 0 -0.47436300781350521 0.076144478842300273 0 -0.4731790028920897 0.103770780436285 0 -0.46552817349695469 0.052403934598396602 0 -0.4502750030120819 0.065195838306442627 0 -0.47436300781350521 0.076144478842300273 0 -0.4502750030120819 0.065195838306442627 0 -0.44872601562700931 0.086346094770162848 0 -0.47436300781350521 0.076144478842300273 0 -0.47436300781350521 0.076144478842300273 0 -0.4731790028920897 0.103770780436285 0 -0.5 0.094496953942109108 0 -0.47436300781350521 0.076144478842300273 0 -0.50000000000000078 0.065942862914437461 0 -0.5 0.094496953942109108 0 -0.47436300781350521 0.076144478842300273 0 -0.50000000000000078 0.065942862914437461 0 -0.4848580405601659 0.05148110160183493 0 -0.47436300781350521 0.076144478842300273 0 -0.50000000000000078 0.065942862914437461 0 -0.47078678666502749 0.12394957325677031 0 -0.4731790028920897 0.103770780436285 0 -0.5 0.12305104496978091 0 -0.4731790028920897 0.103770780436285 0 -0.5 0.094496953942109108 0 -0.5 0.12305104496978091 0 -0.5 0.12305104496978091 0 -0.47757089225090787 0.1404798010810899 0 -0.48848495018587301 0.147322231169319 0 -0.47078678666502749 0.12394957325677031 0 -0.5 0.12305104496978091 0 -0.47757089225090787 0.1404798010810899 0 -0.47757089225090787 0.1404798010810899 0 -0.48848495018587301 0.147322231169319 0 -0.47458193242396629 0.15856484020243489 0 -0.47757089225090787 0.1404798010810899 0 -0.47458193242396629 0.15856484020243489 0 -0.45512708808846208 0.138077257117525 0 -0.5 0.12305104496978091 0 -0.48848495018587301 0.147322231169319 0 -0.5 0.15160513599745279 0 -0.48848495018587301 0.147322231169319 0 -0.5 0.15160513599745279 0 -0.49027192625449068 0.1629103335958367 0 -0.48848495018587301 0.147322231169319 0 -0.49027192625449068 0.1629103335958367 0 -0.47458193242396629 0.15856484020243489 0 -0.5 0.15160513599745279 0 -0.49027192625449068 0.1629103335958367 0 -0.5 0.1801592270251248 0 -0.49027192625449068 0.1629103335958367 0 -0.5 0.1801592270251248 0 -0.48279847434161832 0.18740485568868351 0 -0.49027192625449068 0.1629103335958367 0 -0.48279847434161832 0.18740485568868351 0 -0.46829703916888321 0.17358347316306741 0 -0.49027192625449068 0.1629103335958367 0 -0.46829703916888321 0.17358347316306741 0 -0.49027192625449068 0.1629103335958367 0 -0.47458193242396629 0.15856484020243489 0 -0.46829703916888321 0.17358347316306741 0 -0.47458193242396629 0.15856484020243489 0 -0.46829703916888321 0.17358347316306741 0 -0.45092056481310588 0.1627437871156979 0 -0.46829703916888321 0.17358347316306741 0 -0.44632215208327569 0.18425661273029811 0 -0.45092056481310588 0.1627437871156979 0 -0.46829703916888321 0.17358347316306741 0 -0.44632215208327569 0.18425661273029811 0 -0.46905753894739161 0.20310783945658389 0 -0.46829703916888321 0.17358347316306741 0 -0.44632215208327569 0.18425661273029811 0 -0.44632215208327569 0.18425661273029811 0 -0.45092056481310588 0.1627437871156979 0 -0.42868351575901842 0.17238758789713829 0 -0.45092056481310588 0.1627437871156979 0 -0.45512708808846208 0.138077257117525 0 -0.43251166135502978 0.14959295158372371 0 -0.45512708808846208 0.138077257117525 0 -0.43251166135502978 0.14959295158372371 0 -0.43752835560722741 0.13148030609849859 0 -0.45512708808846208 0.138077257117525 0 -0.43251166135502978 0.14959295158372371 0 -0.44805695009367807 0.11436898267917039 0 -0.43752835560722741 0.13148030609849859 0 -0.45512708808846208 0.138077257117525 0 -0.44805695009367807 0.11436898267917039 0 -0.47078678666502749 0.12394957325677031 0 -0.45512708808846208 0.138077257117525 0 -0.47078678666502749 0.12394957325677031 0 -0.47757089225090787 0.1404798010810899 0 -0.45512708808846208 0.138077257117525 0 -0.47458193242396629 0.15856484020243489 0 -0.45092056481310588 0.1627437871156979 0 -0.45512708808846208 0.138077257117525 0 -0.47270440485640153 0.24030257685668199 0 -0.48066999489751339 0.25852732013788748 0 -0.45574066329194513 0.25003258838346459 0 -0.47270440485640153 0.24030257685668199 0 -0.5 0.23726740908046881 0 -0.48066999489751339 0.25852732013788748 0 -0.5 0.23726740908046881 0 -0.48173840038224941 0.22131352525649431 0 -0.5 0.2087133180527968 0 -0.47270440485640153 0.24030257685668199 0 -0.5 0.23726740908046881 0 -0.48173840038224941 0.22131352525649431 0 -0.47270440485640153 0.24030257685668199 0 -0.48173840038224941 0.22131352525649431 0 -0.45197045005162251 0.2261622464473019 0 -0.48173840038224941 0.22131352525649431 0 -0.5 0.2087133180527968 0 -0.46905753894739161 0.20310783945658389 0 -0.5 0.1801592270251248 0 -0.48279847434161832 0.18740485568868351 0 -0.5 0.2087133180527968 0 -0.48279847434161832 0.18740485568868351 0 -0.5 0.2087133180527968 0 -0.46905753894739161 0.20310783945658389 0 -0.48279847434161832 0.18740485568868351 0 -0.46829703916888321 0.17358347316306741 0 -0.46905753894739161 0.20310783945658389 0 -0.44632215208327569 0.18425661273029811 0 -0.46905753894739161 0.20310783945658389 0 -0.44120658029497539 0.20684002971290111 0 -0.48173840038224941 0.22131352525649431 0 -0.46905753894739161 0.20310783945658389 0 -0.45197045005162251 0.2261622464473019 0 -0.46905753894739161 0.20310783945658389 0 -0.44120658029497539 0.20684002971290111 0 -0.45197045005162251 0.2261622464473019 0 -0.44120658029497539 0.20684002971290111 0 -0.45197045005162251 0.2261622464473019 0 -0.43155170666471421 0.22801356138262319 0 -0.45197045005162251 0.2261622464473019 0 -0.43680818869299493 0.24410097083118909 0 -0.43155170666471421 0.22801356138262319 0 -0.45197045005162251 0.2261622464473019 0 -0.43680818869299493 0.24410097083118909 0 -0.45574066329194513 0.25003258838346459 0 -0.47270440485640153 0.24030257685668199 0 -0.45197045005162251 0.2261622464473019 0 -0.45574066329194513 0.25003258838346459 0 -0.41882121896155328 0.24890347203934621 0 -0.41688075780333422 0.23434273274439121 0 -0.40561910075761998 0.24135040249912559 0 -0.41688075780333422 0.23434273274439121 0 -0.40375541215413402 0.23075393127945579 0 -0.40561910075761998 0.24135040249912559 0 -0.41882121896155328 0.24890347203934621 0 -0.4260154680306491 0.23884018424938741 0 -0.41688075780333422 0.23434273274439121 0 -0.43680818869299493 0.24410097083118909 0 -0.4260154680306491 0.23884018424938741 0 -0.43155170666471421 0.22801356138262319 0 -0.41882121896155328 0.24890347203934621 0 -0.43680818869299493 0.24410097083118909 0 -0.4260154680306491 0.23884018424938741 0 -0.4260154680306491 0.23884018424938741 0 -0.43155170666471421 0.22801356138262319 0 -0.41688075780333422 0.23434273274439121 0 -0.41688075780333422 0.23434273274439121 0 -0.41526564195581528 0.21631274728658931 0 -0.40375541215413402 0.23075393127945579 0 -0.43155170666471421 0.22801356138262319 0 -0.41688075780333422 0.23434273274439121 0 -0.41526564195581528 0.21631274728658931 0 -0.41526564195581528 0.21631274728658931 0 -0.42434726499766823 0.19492975229752879 0 -0.4023723779120606 0.20560289186475961 0 -0.44120658029497539 0.20684002971290111 0 -0.43155170666471421 0.22801356138262319 0 -0.41526564195581528 0.21631274728658931 0 -0.44120658029497539 0.20684002971290111 0 -0.41526564195581528 0.21631274728658931 0 -0.42434726499766823 0.19492975229752879 0 -0.44632215208327569 0.18425661273029811 0 -0.42434726499766823 0.19492975229752879 0 -0.44632215208327569 0.18425661273029811 0 -0.44120658029497539 0.20684002971290111 0 -0.42434726499766823 0.19492975229752879 0 -0.42434726499766823 0.19492975229752879 0 -0.4023723779120606 0.20560289186475961 0 -0.42434726499766823 0.19492975229752879 0 -0.4023723779120606 0.20560289186475961 0 -0.4094966623953592 0.18154083354754119 0 -0.39422598592507391 0.1908276543046423 0 -0.3835598467298138 0.19855673644498781 0 -0.4023723779120606 0.20560289186475961 0 -0.39422598592507391 0.1908276543046423 0 -0.4023723779120606 0.20560289186475961 0 -0.4094966623953592 0.18154083354754119 0 -0.39422598592507391 0.1908276543046423 0 -0.38500085637543058 0.18862520516751771 0 -0.3835598467298138 0.19855673644498781 0 -0.38500085637543058 0.18862520516751771 0 -0.3760914519314511 0.19076299683388651 0 -0.3835598467298138 0.19855673644498781 0 -0.3760914519314511 0.19076299683388651 0 -0.3835598467298138 0.19855673644498781 0 -0.36839083600486 0.2021088386476641 0 -0.3835598467298138 0.19855673644498781 0 -0.38039749082645302 0.2162760314319904 0 -0.4023723779120606 0.20560289186475961 0 -0.3835598467298138 0.19855673644498781 0 -0.38039749082645302 0.2162760314319904 0 -0.36839083600486 0.2021088386476641 0 -0.38039749082645302 0.2162760314319904 0 -0.4023723779120606 0.20560289186475961 0 -0.41526564195581528 0.21631274728658931 0 -0.4023723779120606 0.20560289186475961 0 -0.39531400495239227 0.22072680658980789 0 -0.38039749082645302 0.2162760314319904 0 -0.4023723779120606 0.20560289186475961 0 -0.39531400495239227 0.22072680658980789 0 -0.41526564195581528 0.21631274728658931 0 -0.40375541215413402 0.23075393127945579 0 -0.39531400495239227 0.22072680658980789 0 -0.40375541215413402 0.23075393127945579 0 -0.389388262611015 0.23260301391291011 0 -0.39585635211503889 0.23966136001776611 0 -0.40375541215413402 0.23075393127945579 0 -0.39531400495239227 0.22072680658980789 0 -0.389388262611015 0.23260301391291011 0 -0.38039749082645302 0.2162760314319904 0 -0.389388262611015 0.23260301391291011 0 -0.3764761072459768 0.23446319673484939 0 -0.38039749082645302 0.2162760314319904 0 -0.39531400495239227 0.22072680658980789 0 -0.389388262611015 0.23260301391291011 0 -0.389388262611015 0.23260301391291011 0 -0.38667860140357319 0.24093324761214741 0 -0.3764761072459768 0.23446319673484939 0 -0.37828296759451591 0.24648715286559111 0 -0.39293825125378617 0.2502368242740497 0 -0.37406840350984721 0.2512088980308913 0 -0.38667860140357319 0.24093324761214741 0 -0.3764761072459768 0.23446319673484939 0 -0.37828296759451591 0.24648715286559111 0 -0.38667860140357319 0.24093324761214741 0 -0.37828296759451591 0.24648715286559111 0 -0.39293825125378617 0.2502368242740497 0 -0.37828296759451591 0.24648715286559111 0 -0.39293825125378617 0.2502368242740497 0 -0.38667860140357319 0.24093324761214741 0 -0.39585635211503889 0.23966136001776611 0 -0.39293825125378617 0.2502368242740497 0 -0.41882121896155328 0.24890347203934621 0 -0.39293825125378617 0.2502368242740497 0 -0.41882121896155328 0.24890347203934621 0 -0.40561910075761998 0.24135040249912559 0 -0.39293825125378617 0.2502368242740497 0 -0.39585635211503889 0.23966136001776611 0 -0.40561910075761998 0.24135040249912559 0 -0.39293825125378617 0.2502368242740497 0 -0.389388262611015 0.23260301391291011 0 -0.38667860140357319 0.24093324761214741 0 -0.39585635211503889 0.23966136001776611 0 -0.40375541215413402 0.23075393127945579 0 -0.39585635211503889 0.23966136001776611 0 -0.40561910075761998 0.24135040249912559 0 -0.43251166135502978 0.14959295158372371 0 -0.40989623462159752 0.16110864604992239 0 -0.41418570800388699 0.13758571035592509 0 -0.43251166135502978 0.14959295158372371 0 -0.40989623462159752 0.16110864604992239 0 -0.41418570800388699 0.13758571035592509 0 -0.40989623462159752 0.16110864604992239 0 -0.40088431700101862 0.14700810081911919 0 -0.43752835560722741 0.13148030609849859 0 -0.41418570800388699 0.13758571035592509 0 -0.43251166135502978 0.14959295158372371 0 -0.42460677859801532 0.1186291890060085 0 -0.43752835560722741 0.13148030609849859 0 -0.41418570800388699 0.13758571035592509 0 -0.45092056481310588 0.1627437871156979 0 -0.43251166135502978 0.14959295158372371 0 -0.42868351575901842 0.17238758789713829 0 -0.43251166135502978 0.14959295158372371 0 -0.42868351575901842 0.17238758789713829 0 -0.40989623462159752 0.16110864604992239 0 -0.44632215208327569 0.18425661273029811 0 -0.42434726499766823 0.19492975229752879 0 -0.42868351575901842 0.17238758789713829 0 -0.42434726499766823 0.19492975229752879 0 -0.42868351575901842 0.17238758789713829 0 -0.4094966623953592 0.18154083354754119 0 -0.4094966623953592 0.18154083354754119 0 -0.40989623462159752 0.16110864604992239 0 -0.40279607636393311 0.17339977450768559 0 -0.42868351575901842 0.17238758789713829 0 -0.4094966623953592 0.18154083354754119 0 -0.40989623462159752 0.16110864604992239 0 -0.40989623462159752 0.16110864604992239 0 -0.40279607636393311 0.17339977450768559 0 -0.39230485564852319 0.17406517818015349 0 -0.40989623462159752 0.16110864604992239 0 -0.39727675264542239 0.15855943888986071 0 -0.38728080788816532 0.17262434051612141 0 -0.40989623462159752 0.16110864604992239 0 -0.38728080788816532 0.17262434051612141 0 -0.40989623462159752 0.16110864604992239 0 -0.39230485564852319 0.17406517818015349 0 -0.38728080788816532 0.17262434051612141 0 -0.39422598592507391 0.1908276543046423 0 -0.4094966623953592 0.18154083354754119 0 -0.39733752639613917 0.17998073022432959 0 -0.4094966623953592 0.18154083354754119 0 -0.40279607636393311 0.17339977450768559 0 -0.39733752639613917 0.17998073022432959 0 -0.39230485564852319 0.17406517818015349 0 -0.39733752639613917 0.17998073022432959 0 -0.38786405164780657 0.18007021058162531 0 -0.40279607636393311 0.17339977450768559 0 -0.39230485564852319 0.17406517818015349 0 -0.39733752639613917 0.17998073022432959 0 -0.39422598592507391 0.1908276543046423 0 -0.39733752639613917 0.17998073022432959 0 -0.38786405164780657 0.18007021058162531 0 -0.38500085637543058 0.18862520516751771 0 -0.38786405164780657 0.18007021058162531 0 -0.38046242796889918 0.18106877015989661 0 -0.39422598592507391 0.1908276543046423 0 -0.38500085637543058 0.18862520516751771 0 -0.38786405164780657 0.18007021058162531 0 -0.38786405164780657 0.18007021058162531 0 -0.38728080788816532 0.17262434051612141 0 -0.38046242796889918 0.18106877015989661 0 -0.39230485564852319 0.17406517818015349 0 -0.38728080788816532 0.17262434051612141 0 -0.39230485564852319 0.17406517818015349 0 -0.38786405164780657 0.18007021058162531 0 -0.38728080788816532 0.17262434051612141 0 -0.38728080788816532 0.17262434051612141 0 -0.38046242796889918 0.18106877015989661 0 -0.37345183806867488 0.17966600252412179 0 -0.38728080788816532 0.17262434051612141 0 -0.37345183806867488 0.17966600252412179 0 -0.38728080788816532 0.17262434051612141 0 -0.38124832888552901 0.17089429666122999 0 -0.37345183806867488 0.17966600252412179 0 -0.38500085637543058 0.18862520516751771 0 -0.3760914519314511 0.19076299683388651 0 -0.38046242796889918 0.18106877015989661 0 -0.39727675264542239 0.15855943888986071 0 -0.3865625706867562 0.16569779216274549 0 -0.38459809467692102 0.1561956428510855 0 -0.39727675264542239 0.15855943888986071 0 -0.38728080788816532 0.17262434051612141 0 -0.3865625706867562 0.16569779216274549 0 -0.38728080788816532 0.17262434051612141 0 -0.38124832888552901 0.17089429666122999 0 -0.38728080788816532 0.17262434051612141 0 -0.3865625706867562 0.16569779216274549 0 -0.38124832888552901 0.17089429666122999 0 -0.3865625706867562 0.16569779216274549 0 -0.38124832888552901 0.17089429666122999 0 -0.3865625706867562 0.16569779216274549 0 -0.38124832888552901 0.17089429666122999 0 -0.37504034410299431 0.15923008185823059 0 -0.3865625706867562 0.16569779216274549 0 -0.37504034410299431 0.15923008185823059 0 -0.38459809467692102 0.1561956428510855 0 -0.37504034410299431 0.15923008185823059 0 -0.37840750718518401 0.14799283354603371 0 -0.38459809467692102 0.1561956428510855 0 -0.37840750718518401 0.14799283354603371 0 -0.38869788931212201 0.14655806605992799 0 -0.37922935614630698 0.13437690567525251 0 -0.39727675264542239 0.15855943888986071 0 -0.38869788931212201 0.14655806605992799 0 -0.38459809467692102 0.1561956428510855 0 -0.37840750718518401 0.14799283354603371 0 -0.38869788931212201 0.14655806605992799 0 -0.38459809467692102 0.1561956428510855 0 -0.39727675264542239 0.15855943888986071 0 -0.38869788931212201 0.14655806605992799 0 -0.40088431700101862 0.14700810081911919 0 -0.38869788931212201 0.14655806605992799 0 -0.40088431700101862 0.14700810081911919 0 -0.3942400301772398 0.1342828402430527 0 -0.40989623462159752 0.16110864604992239 0 -0.39727675264542239 0.15855943888986071 0 -0.40088431700101862 0.14700810081911919 0 -0.41418570800388699 0.13758571035592509 0 -0.40088431700101862 0.14700810081911919 0 -0.3942400301772398 0.1342828402430527 0 -0.40583870300786168 0.1129520271102431 0 -0.41418570800388699 0.13758571035592509 0 -0.3942400301772398 0.1342828402430527 0 -0.38463230277678639 0.116186697035543 0 -0.3942400301772398 0.1342828402430527 0 -0.37922935614630698 0.13437690567525251 0 -0.38869788931212201 0.14655806605992799 0 -0.3942400301772398 0.1342828402430527 0 -0.37922935614630698 0.13437690567525251 0 -0.35479205013033921 0.12890720630666769 0 -0.36490631067517509 0.1429440190658911 0 -0.3644920967513347 0.11829697810106619 0 -0.37922935614630698 0.13437690567525251 0 -0.36490631067517509 0.1429440190658911 0 -0.3644920967513347 0.11829697810106619 0 -0.35479205013033921 0.12890720630666769 0 -0.35284114559022739 0.138834833842164 0 -0.36490631067517509 0.1429440190658911 0 -0.35479205013033921 0.12890720630666769 0 -0.35284114559022739 0.138834833842164 0 -0.34702903982506211 0.13141836406696181 0 -0.35284114559022739 0.138834833842164 0 -0.34702903982506211 0.13141836406696181 0 -0.34357223232268652 0.13739307355826691 0 -0.34702903982506211 0.13141836406696181 0 -0.34189496946591552 0.13278985824030121 0 -0.34357223232268652 0.13739307355826691 0 -0.34702903982506211 0.13141836406696181 0 -0.34129577494332308 0.12608128486744111 0 -0.34777806649788068 0.1245039275869301 0 -0.35479205013033921 0.12890720630666769 0 -0.34702903982506211 0.13141836406696181 0 -0.34777806649788068 0.1245039275869301 0 -0.34593979080592269 0.16076822422847989 0 -0.34357223232268652 0.13739307355826691 0 -0.35417070784794769 0.1491542822279307 0 -0.34593979080592269 0.16076822422847989 0 -0.34357223232268652 0.13739307355826691 0 -0.35284114559022739 0.138834833842164 0 -0.35417070784794769 0.1491542822279307 0 -0.34357223232268652 0.13739307355826691 0 -0.35284114559022739 0.138834833842164 0 -0.35417070784794769 0.1491542822279307 0 -0.36490631067517509 0.1429440190658911 0 -0.37504034410299431 0.15923008185823059 0 -0.36490631067517509 0.1429440190658911 0 -0.36359405984572613 0.16583126044485441 0 -0.35417070784794769 0.1491542822279307 0 -0.36490631067517509 0.1429440190658911 0 -0.36359405984572613 0.16583126044485441 0 -0.37504034410299431 0.15923008185823059 0 -0.37840750718518401 0.14799283354603371 0 -0.36490631067517509 0.1429440190658911 0 -0.37840750718518401 0.14799283354603371 0 -0.37922935614630698 0.13437690567525251 0 -0.36490631067517509 0.1429440190658911 0 -0.38124832888552901 0.17089429666122999 0 -0.36359405984572613 0.16583126044485441 0 -0.38124832888552901 0.17089429666122999 0 -0.37504034410299431 0.15923008185823059 0 -0.36359405984572613 0.16583126044485441 0 -0.38124832888552901 0.17089429666122999 0 -0.36541382004222112 0.18637799113981321 0 -0.38124832888552901 0.17089429666122999 0 -0.37345183806867488 0.17966600252412179 0 -0.36541382004222112 0.18637799113981321 0 -0.38124832888552901 0.17089429666122999 0 -0.36359405984572613 0.16583126044485441 0 -0.36541382004222112 0.18637799113981321 0 -0.38046242796889918 0.18106877015989661 0 -0.37345183806867488 0.17966600252412179 0 -0.36541382004222112 0.18637799113981321 0 -0.3760914519314511 0.19076299683388651 0 -0.38046242796889918 0.18106877015989661 0 -0.36541382004222112 0.18637799113981321 0 -0.38046242796889918 0.18106877015989661 0 -0.36541382004222112 0.18637799113981321 0 -0.34752792830128021 0.1764480705773192 0 -0.34911606579663818 0.19212791692615841 0 -0.36541382004222112 0.18637799113981321 0 -0.34752792830128021 0.1764480705773192 0 -0.34911606579663818 0.19212791692615841 0 -0.36359405984572613 0.16583126044485441 0 -0.36541382004222112 0.18637799113981321 0 -0.34752792830128021 0.1764480705773192 0 -0.34752792830128021 0.1764480705773192 0 -0.33934578106182189 0.18474014059780619 0 -0.34911606579663818 0.19212791692615841 0 -0.34752792830128021 0.1764480705773192 0 -0.34593979080592269 0.16076822422847989 0 -0.34188080404753718 0.17144761049537949 0 -0.36359405984572613 0.16583126044485441 0 -0.34752792830128021 0.1764480705773192 0 -0.34593979080592269 0.16076822422847989 0 -0.36359405984572613 0.16583126044485441 0 -0.34593979080592269 0.16076822422847989 0 -0.34752792830128021 0.1764480705773192 0 -0.34593979080592269 0.16076822422847989 0 -0.35417070784794769 0.1491542822279307 0 -0.36359405984572613 0.16583126044485441 0 -0.34593979080592269 0.16076822422847989 0 -0.34593979080592269 0.16076822422847989 0 -0.34188080404753718 0.17144761049537949 0 -0.33313444774496198 0.15928375568978079 0 -0.34593979080592269 0.16076822422847989 0 -0.33336045005990111 0.15716061761323549 0 -0.34048977364881311 0.15156429715605829 0 -0.34188080404753718 0.17144761049537949 0 -0.33313444774496198 0.15928375568978079 0 -0.33128695969483379 0.17663964970453411 0 -0.33313444774496198 0.15928375568978079 0 -0.33128695969483379 0.17663964970453411 0 -0.33313444774496198 0.15928375568978079 0 -0.33128695969483379 0.17663964970453411 0 -0.32313258086698488 0.163293033803597 0 -0.34593979080592269 0.16076822422847989 0 -0.33313444774496198 0.15928375568978079 0 -0.33336045005990111 0.15716061761323549 0 -0.34593979080592269 0.16076822422847989 0 -0.33336045005990111 0.15716061761323549 0 -0.34188080404753718 0.17144761049537949 0 -0.33313444774496198 0.15928375568978079 0 -0.33115250899467852 0.15652740614740471 0 -0.33313444774496198 0.15928375568978079 0 -0.32313258086698488 0.163293033803597 0 -0.33313444774496198 0.15928375568978079 0 -0.33336045005990111 0.15716061761323549 0 -0.33115250899467852 0.15652740614740471 0 -0.33336045005990111 0.15716061761323549 0 -0.33115250899467852 0.15652740614740471 0 -0.33313444774496198 0.15928375568978079 0 -0.33115250899467852 0.15652740614740471 0 -0.33313444774496198 0.15928375568978079 0 -0.33336045005990111 0.15716061761323549 0 -0.33934578106182189 0.18474014059780619 0 -0.33128695969483379 0.17663964970453411 0 -0.32459354091855519 0.2007795811995304 0 -0.34752792830128021 0.1764480705773192 0 -0.34188080404753718 0.17144761049537949 0 -0.33934578106182189 0.18474014059780619 0 -0.34188080404753718 0.17144761049537949 0 -0.33934578106182189 0.18474014059780619 0 -0.33128695969483379 0.17663964970453411 0 -0.33128695969483379 0.17663964970453411 0 -0.31489417627300131 0.17493131289193259 0 -0.32459354091855519 0.2007795811995304 0 -0.33115250899467852 0.15652740614740471 0 -0.32313258086698488 0.163293033803597 0 -0.30519481162744982 0.149083044584334 0 -0.33128695969483379 0.17663964970453411 0 -0.31489417627300131 0.17493131289193259 0 -0.32313258086698488 0.163293033803597 0 -0.31489417627300131 0.17493131289193259 0 -0.32313258086698488 0.163293033803597 0 -0.30519481162744982 0.149083044584334 0 -0.33115250899467852 0.15652740614740471 0 -0.30519481162744982 0.149083044584334 0 -0.33115250899467852 0.15652740614740471 0 -0.31885284022203109 0.1394218389910083 0 -0.33115250899467852 0.15652740614740471 0 -0.31885284022203109 0.1394218389910083 0 -0.30519481162744982 0.149083044584334 0 -0.31885284022203109 0.1394218389910083 0 -0.32617091320368358 0.12648479797181461 0 -0.31807351005499201 0.1236561856628164 0 -0.31885284022203109 0.1394218389910083 0 -0.30655317144938349 0.12231627183461199 0 -0.31807351005499201 0.1236561856628164 0 -0.31885284022203109 0.1394218389910083 0 -0.32617091320368358 0.12648479797181461 0 -0.33560055169287167 0.13611638594881939 0 -0.31885284022203109 0.1394218389910083 0 -0.30655317144938349 0.12231627183461199 0 -0.33560055169287167 0.13611638594881939 0 -0.33784065332584229 0.1150721542844033 0 -0.33560055169287167 0.13611638594881939 0 -0.34129577494332308 0.12608128486744111 0 -0.33784065332584229 0.1150721542844033 0 -0.32617091320368358 0.12648479797181461 0 -0.33560055169287167 0.13611638594881939 0 -0.33205797715154362 0.12084499274016861 0 -0.33560055169287167 0.13611638594881939 0 -0.34189496946591552 0.13278985824030121 0 -0.34129577494332308 0.12608128486744111 0 -0.34702903982506211 0.13141836406696181 0 -0.34189496946591552 0.13278985824030121 0 -0.34129577494332308 0.12608128486744111 0 -0.33560055169287167 0.13611638594881939 0 -0.34357223232268652 0.13739307355826691 0 -0.33836803158994277 0.14628517190087309 0 -0.33560055169287167 0.13611638594881939 0 -0.34189496946591552 0.13278985824030121 0 -0.34357223232268652 0.13739307355826691 0 -0.34357223232268652 0.13739307355826691 0 -0.33836803158994277 0.14628517190087309 0 -0.34048977364881311 0.15156429715605829 0 -0.33115250899467852 0.15652740614740471 0 -0.33336045005990111 0.15716061761323549 0 -0.33560055169287167 0.13611638594881939 0 -0.33336045005990111 0.15716061761323549 0 -0.33560055169287167 0.13611638594881939 0 -0.33836803158994277 0.14628517190087309 0 -0.33336045005990111 0.15716061761323549 0 -0.33560055169287167 0.13611638594881939 0 -0.33115250899467852 0.15652740614740471 0 -0.31885284022203109 0.1394218389910083 0 -0.33560055169287167 0.13611638594881939 0 -0.34593979080592269 0.16076822422847989 0 -0.34357223232268652 0.13739307355826691 0 -0.34048977364881311 0.15156429715605829 0 -0.33336045005990111 0.15716061761323549 0 -0.33836803158994277 0.14628517190087309 0 -0.34048977364881311 0.15156429715605829 0 -0.33784686720994228 0.23609895999049049 0 -0.34409613407375822 0.25275290924641147 0 -0.35519855576590831 0.25218097178773291 0 -0.35262670526004247 0.22678882477149739 0 -0.33784686720994228 0.23609895999049049 0 -0.35519855576590831 0.25218097178773291 0 -0.36414828862742121 0.23622484297030719 0 -0.35262670526004247 0.22678882477149739 0 -0.35519855576590831 0.25218097178773291 0 -0.35262670526004247 0.22678882477149739 0 -0.35519855576590831 0.25218097178773291 0 -0.36963486454873362 0.2441130124778744 0 -0.35519855576590831 0.25218097178773291 0 -0.37406840350984721 0.2512088980308913 0 -0.36963486454873362 0.2441130124778744 0 -0.36414828862742121 0.23622484297030719 0 -0.35519855576590831 0.25218097178773291 0 -0.37828296759451591 0.24648715286559111 0 -0.36963486454873362 0.2441130124778744 0 -0.37406840350984721 0.2512088980308913 0 -0.3764761072459768 0.23446319673484939 0 -0.36963486454873362 0.2441130124778744 0 -0.36414828862742121 0.23622484297030719 0 -0.3764761072459768 0.23446319673484939 0 -0.37828296759451591 0.24648715286559111 0 -0.36963486454873362 0.2441130124778744 0 -0.36414828862742121 0.23622484297030719 0 -0.36534904711982219 0.21954306871859511 0 -0.35262670526004247 0.22678882477149739 0 -0.3764761072459768 0.23446319673484939 0 -0.36414828862742121 0.23622484297030719 0 -0.36534904711982219 0.21954306871859511 0 -0.38039749082645302 0.2162760314319904 0 -0.3764761072459768 0.23446319673484939 0 -0.36534904711982219 0.21954306871859511 0 -0.35262670526004247 0.22678882477149739 0 -0.35005485475417958 0.20139667775526171 0 -0.35262670526004247 0.22678882477149739 0 -0.35005485475417958 0.20139667775526171 0 -0.33159760034612612 0.21944501073456979 0 -0.36534904711982219 0.21954306871859511 0 -0.35262670526004247 0.22678882477149739 0 -0.35005485475417958 0.20139667775526171 0 -0.38039749082645302 0.2162760314319904 0 -0.36534904711982219 0.21954306871859511 0 -0.36839083600486 0.2021088386476641 0 -0.36534904711982219 0.21954306871859511 0 -0.36839083600486 0.2021088386476641 0 -0.35005485475417958 0.20139667775526171 0 -0.3760914519314511 0.19076299683388651 0 -0.36541382004222112 0.18637799113981321 0 -0.36839083600486 0.2021088386476641 0 -0.36541382004222112 0.18637799113981321 0 -0.36839083600486 0.2021088386476641 0 -0.35005485475417958 0.20139667775526171 0 -0.36541382004222112 0.18637799113981321 0 -0.35005485475417958 0.20139667775526171 0 -0.35005485475417958 0.20139667775526171 0 -0.34911606579663818 0.19212791692615841 0 -0.34045477879513802 0.20809498165798249 0 -0.36541382004222112 0.18637799113981321 0 -0.35005485475417958 0.20139667775526171 0 -0.34911606579663818 0.19212791692615841 0 -0.36541382004222112 0.18637799113981321 0 -0.34911606579663818 0.19212791692615841 0 -0.35005485475417958 0.20139667775526171 0 -0.34911606579663818 0.19212791692615841 0 -0.34911606579663818 0.19212791692615841 0 -0.32459354091855519 0.2007795811995304 0 -0.34045477879513802 0.20809498165798249 0 -0.33934578106182189 0.18474014059780619 0 -0.34911606579663818 0.19212791692615841 0 -0.32459354091855519 0.2007795811995304 0 -0.34911606579663818 0.19212791692615841 0 -0.32459354091855519 0.2007795811995304 0 -0.31489417627300131 0.17493131289193259 0 -0.32459354091855519 0.2007795811995304 0 -0.29986840644034368 0.19444400665379261 0 -0.31489417627300131 0.17493131289193259 0 -0.32459354091855519 0.2007795811995304 0 -0.32048326099787039 0.2109831967138992 0 -0.31018745987552759 0.22287519556074101 0 -0.31013867106201393 0.2058793285434867 0 -0.32459354091855519 0.2007795811995304 0 -0.32865905665115519 0.21161395492453411 0 -0.32459354091855519 0.2007795811995304 0 -0.32048326099787039 0.2109831967138992 0 -0.32865905665115519 0.21161395492453411 0 -0.32048326099787039 0.2109831967138992 0 -0.32883757648209949 0.2137679233412034 0 -0.31018745987552759 0.22287519556074101 0 -0.32459354091855519 0.2007795811995304 0 -0.32865905665115519 0.21161395492453411 0 -0.328249070177973 0.20666717724820791 0 -0.32883757648209949 0.2137679233412034 0 -0.31018745987552759 0.22287519556074101 0 -0.32459354091855519 0.2007795811995304 0 -0.32048326099787039 0.2109831967138992 0 -0.31013867106201393 0.2058793285434867 0 -0.32459354091855519 0.2007795811995304 0 -0.31013867106201393 0.2058793285434867 0 -0.32048326099787039 0.2109831967138992 0 -0.32883757648209949 0.2137679233412034 0 -0.32865905665115519 0.21161395492453411 0 -0.35005485475417958 0.20139667775526171 0 -0.34045477879513802 0.20809498165798249 0 -0.33159760034612612 0.21944501073456979 0 -0.35005485475417958 0.20139667775526171 0 -0.33159760034612612 0.21944501073456979 0 -0.32883757648209949 0.2137679233412034 0 -0.329479729879123 0.2215159596715261 0 -0.32883757648209949 0.2137679233412034 0 -0.33159760034612612 0.21944501073456979 0 -0.32459354091855519 0.2007795811995304 0 -0.328249070177973 0.20666717724820791 0 -0.34045477879513802 0.20809498165798249 0 -0.32883757648209949 0.2137679233412034 0 -0.33159760034612612 0.21944501073456979 0 -0.329479729879123 0.2215159596715261 0 -0.32883757648209949 0.2137679233412034 0 -0.32865905665115519 0.21161395492453411 0 -0.34045477879513802 0.20809498165798249 0 -0.32883757648209949 0.2137679233412034 0 -0.34045477879513802 0.20809498165798249 0 -0.33159760034612612 0.21944501073456979 0 -0.32883757648209949 0.2137679233412034 0 -0.32865905665115519 0.21161395492453411 0 -0.32865905665115519 0.21161395492453411 0 -0.328249070177973 0.20666717724820791 0 -0.34045477879513802 0.20809498165798249 0 -0.32865905665115519 0.21161395492453411 0 -0.328249070177973 0.20666717724820791 0 -0.32883757648209949 0.2137679233412034 0 -0.34045477879513802 0.20809498165798249 0 -0.35262670526004247 0.22678882477149739 0 -0.33159760034612612 0.21944501073456979 0 -0.33784686720994228 0.23609895999049049 0 -0.329479729879123 0.2215159596715261 0 -0.33121304248314659 0.24242960599044419 0 -0.33159760034612612 0.21944501073456979 0 -0.33784686720994228 0.23609895999049049 0 -0.33159760034612612 0.21944501073456979 0 -0.329479729879123 0.2215159596715261 0 -0.33784686720994228 0.23609895999049049 0 -0.329479729879123 0.2215159596715261 0 -0.33784686720994228 0.23609895999049049 0 -0.33121304248314659 0.24242960599044419 0 -0.33159760034612612 0.21944501073456979 0 -0.329479729879123 0.2215159596715261 0 -0.329479729879123 0.2215159596715261 0 -0.3225898406062408 0.22825320309020589 0 -0.33121304248314659 0.24242960599044419 0 -0.32883757648209949 0.2137679233412034 0 -0.329479729879123 0.2215159596715261 0 -0.3225898406062408 0.22825320309020589 0 -0.32883757648209949 0.2137679233412034 0 -0.3225898406062408 0.22825320309020589 0 -0.31018745987552759 0.22287519556074101 0 -0.329479729879123 0.2215159596715261 0 -0.3225898406062408 0.22825320309020589 0 -0.3225898406062408 0.22825320309020589 0 -0.30853649538476002 0.237738658308662 0 -0.31018745987552759 0.22287519556074101 0 -0.3225898406062408 0.22825320309020589 0 -0.31881650602159739 0.24108672056554031 0 -0.33121304248314659 0.24242960599044419 0 -0.31881650602159739 0.24108672056554031 0 -0.30853649538476002 0.237738658308662 0 -0.31292664561224232 0.25592541487284931 0 -0.31881650602159739 0.24108672056554031 0 -0.33121304248314659 0.24242960599044419 0 -0.31292664561224232 0.25592541487284931 0 -0.3225898406062408 0.22825320309020589 0 -0.31881650602159739 0.24108672056554031 0 -0.30853649538476002 0.237738658308662 0 -0.33784686720994228 0.23609895999049049 0 -0.34409613407375822 0.25275290924641147 0 -0.33784686720994228 0.23609895999049049 0 -0.34409613407375822 0.25275290924641147 0 -0.3379494868404348 0.25306955167772099 0 -0.33784686720994228 0.23609895999049049 0 -0.33121304248314659 0.24242960599044419 0 -0.3379494868404348 0.25306955167772099 0 -0.29290693613731411 0.24850757743633481 0 -0.29153734326895669 0.23198246778028039 0 -0.27288722666238591 0.24108973999982011 0 -0.29153734326895669 0.23198246778028039 0 -0.27288722666238591 0.24108973999982011 0 -0.29290693613731411 0.24850757743633481 0 -0.27288722666238591 0.24108973999982011 0 -0.29290693613731411 0.24850757743633481 0 -0.30853649538476002 0.237738658308662 0 -0.31292664561224232 0.25592541487284931 0 -0.29290693613731411 0.24850757743633481 0 -0.30853649538476002 0.237738658308662 0 -0.29153734326895669 0.23198246778028039 0 -0.30853649538476002 0.237738658308662 0 -0.31018745987552759 0.22287519556074101 0 -0.29153734326895669 0.23198246778028039 0 -0.31018745987552759 0.22287519556074101 0 -0.29153734326895669 0.23198246778028039 0 -0.31018745987552759 0.22287519556074101 0 -0.29153734326895669 0.23198246778028039 0 -0.29568380120547261 0.21097907588744291 0 -0.29153734326895669 0.23198246778028039 0 -0.29568380120547261 0.21097907588744291 0 -0.27631695907674753 0.21726858605765129 0 -0.29568380120547261 0.21097907588744291 0 -0.28057878005774478 0.1983635310851978 0 -0.27631695907674753 0.21726858605765129 0 -0.29568380120547261 0.21097907588744291 0 -0.31013867106201393 0.2058793285434867 0 -0.29986840644034368 0.19444400665379261 0 -0.31018745987552759 0.22287519556074101 0 -0.29568380120547261 0.21097907588744291 0 -0.31013867106201393 0.2058793285434867 0 -0.29568380120547261 0.21097907588744291 0 -0.31013867106201393 0.2058793285434867 0 -0.32459354091855519 0.2007795811995304 0 -0.31013867106201393 0.2058793285434867 0 -0.29986840644034368 0.19444400665379261 0 -0.29986840644034368 0.19444400665379261 0 -0.28057878005774478 0.1983635310851978 0 -0.28583789091812312 0.18033156556271909 0 -0.29568380120547261 0.21097907588744291 0 -0.29986840644034368 0.19444400665379261 0 -0.28057878005774478 0.1983635310851978 0 -0.28057878005774478 0.1983635310851978 0 -0.26241158266142728 0.2035212326105251 0 -0.26596910576257399 0.18461147854214779 0 -0.28057878005774478 0.1983635310851978 0 -0.28583789091812312 0.18033156556271909 0 -0.26596910576257399 0.18461147854214779 0 -0.26241158266142728 0.2035212326105251 0 -0.26596910576257399 0.18461147854214779 0 -0.24857413935887121 0.1938346731499348 0 -0.26241158266142728 0.2035212326105251 0 -0.25011019429849579 0.20945026987687509 0 -0.24857413935887121 0.1938346731499348 0 -0.25011019429849579 0.20945026987687509 0 -0.25997233925852359 0.21888794906974049 0 -0.24393802492032279 0.2219519397728941 0 -0.26241158266142728 0.2035212326105251 0 -0.25011019429849579 0.20945026987687509 0 -0.25997233925852359 0.21888794906974049 0 -0.26241158266142728 0.2035212326105251 0 -0.27631695907674753 0.21726858605765129 0 -0.25997233925852359 0.21888794906974049 0 -0.28057878005774478 0.1983635310851978 0 -0.26241158266142728 0.2035212326105251 0 -0.27631695907674753 0.21726858605765129 0 -0.27631695907674753 0.21726858605765129 0 -0.2700529186456998 0.22964549279823729 0 -0.25997233925852359 0.21888794906974049 0 -0.29153734326895669 0.23198246778028039 0 -0.2700529186456998 0.22964549279823729 0 -0.27288722666238591 0.24108973999982011 0 -0.29153734326895669 0.23198246778028039 0 -0.27631695907674753 0.21726858605765129 0 -0.2700529186456998 0.22964549279823729 0 -0.25997233925852359 0.21888794906974049 0 -0.25564953007324148 0.23090544455198059 0 -0.24393802492032279 0.2219519397728941 0 -0.2700529186456998 0.22964549279823729 0 -0.25997233925852359 0.21888794906974049 0 -0.25564953007324148 0.23090544455198059 0 -0.2700529186456998 0.22964549279823729 0 -0.25564953007324148 0.23090544455198059 0 -0.26347546649134179 0.23760243130397241 0 -0.27288722666238591 0.24108973999982011 0 -0.25359680925970529 0.25050968552728381 0 -0.27288722666238591 0.24108973999982011 0 -0.26542126265953442 0.25470793440585782 0 -0.25359680925970529 0.25050968552728381 0 -0.26347546649134179 0.23760243130397241 0 -0.27288722666238591 0.24108973999982011 0 -0.25359680925970529 0.25050968552728381 0 -0.25564953007324148 0.23090544455198059 0 -0.25162939880835072 0.24125374225886609 0 -0.24368027941200501 0.23576390084582491 0 -0.25564953007324148 0.23090544455198059 0 -0.26347546649134179 0.23760243130397241 0 -0.25162939880835072 0.24125374225886609 0 -0.26347546649134179 0.23760243130397241 0 -0.25162939880835072 0.24125374225886609 0 -0.25359680925970529 0.25050968552728381 0 -0.29290693613731411 0.24850757743633481 0 -0.27288722666238591 0.24108973999982011 0 -0.27650373764531211 0.25956298974931619 0 -0.26347546649134179 0.23760243130397241 0 -0.27288722666238591 0.24108973999982011 0 -0.2700529186456998 0.22964549279823729 0 -0.26347546649134179 0.23760243130397241 0 -0.27288722666238591 0.24108973999982011 0 -0.28383263286614863 0.1429566235761707 0 -0.30519481162744982 0.149083044584334 0 -0.29137488182862031 0.16139913198361691 0 -0.28383263286614863 0.1429566235761707 0 -0.29137488182862031 0.16139913198361691 0 -0.27166712248419872 0.16220009768498209 0 -0.28383263286614863 0.1429566235761707 0 -0.30519481162744982 0.149083044584334 0 -0.28383263286614863 0.1429566235761707 0 -0.28926944493458551 0.1250750389119854 0 -0.27284487120628759 0.12777343588798021 0 -0.28383263286614863 0.1429566235761707 0 -0.28926944493458551 0.1250750389119854 0 -0.30177152152121789 0.13996016649961901 0 -0.31885284022203109 0.1394218389910083 0 -0.30177152152121789 0.13996016649961901 0 -0.30655317144938349 0.12231627183461199 0 -0.28926944493458551 0.1250750389119854 0 -0.30177152152121789 0.13996016649961901 0 -0.30655317144938349 0.12231627183461199 0 -0.28383263286614863 0.1429566235761707 0 -0.30177152152121789 0.13996016649961901 0 -0.30519481162744982 0.149083044584334 0 -0.31885284022203109 0.1394218389910083 0 -0.30177152152121789 0.13996016649961901 0 -0.30519481162744982 0.149083044584334 0 -0.30177152152121789 0.13996016649961901 0 -0.30519481162744982 0.149083044584334 0 -0.31489417627300131 0.17493131289193259 0 -0.30519481162744982 0.149083044584334 0 -0.29137488182862031 0.16139913198361691 0 -0.31489417627300131 0.17493131289193259 0 -0.30519481162744982 0.149083044584334 0 -0.31489417627300131 0.17493131289193259 0 -0.28583789091812312 0.18033156556271909 0 -0.29137488182862031 0.16139913198361691 0 -0.31489417627300131 0.17493131289193259 0 -0.29986840644034368 0.19444400665379261 0 -0.28583789091812312 0.18033156556271909 0 -0.28583789091812312 0.18033156556271909 0 -0.29137488182862031 0.16139913198361691 0 -0.27166712248419872 0.16220009768498209 0 -0.28583789091812312 0.18033156556271909 0 -0.27166712248419872 0.16220009768498209 0 -0.26596910576257399 0.18461147854214779 0 -0.27166712248419872 0.16220009768498209 0 -0.26596910576257399 0.18461147854214779 0 -0.25137100051351241 0.17126033524202469 0 -0.26596910576257399 0.18461147854214779 0 -0.25137100051351241 0.17126033524202469 0 -0.24857413935887121 0.1938346731499348 0 -0.27166712248419872 0.16220009768498209 0 -0.25137100051351241 0.17126033524202469 0 -0.25557465584018968 0.14338654667308429 0 -0.28383263286614863 0.1429566235761707 0 -0.27166712248419872 0.16220009768498209 0 -0.25557465584018968 0.14338654667308429 0 -0.28383263286614863 0.1429566235761707 0 -0.25557465584018968 0.14338654667308429 0 -0.27284487120628759 0.12777343588798021 0 -0.25557465584018968 0.14338654667308429 0 -0.25856821657022228 0.1162694354221659 0 -0.24138835164683159 0.1223831451018326 0 -0.25557465584018968 0.14338654667308429 0 -0.27284487120628759 0.12777343588798021 0 -0.25856821657022228 0.1162694354221659 0 -0.25856821657022228 0.1162694354221659 0 -0.25895491275748472 0.096660090682144206 0 -0.2752979966821591 0.10686119118117569 0 -0.25856821657022228 0.1162694354221659 0 -0.25895491275748472 0.096660090682144206 0 -0.2401659045882438 0.097821620661967645 0 -0.25895491275748472 0.096660090682144206 0 -0.2752979966821591 0.10686119118117569 0 -0.27030017083997232 0.082810548335021869 0 -0.28926944493458551 0.1250750389119854 0 -0.27284487120628759 0.12777343588798021 0 -0.2752979966821591 0.10686119118117569 0 -0.27284487120628759 0.12777343588798021 0 -0.25856821657022228 0.1162694354221659 0 -0.2752979966821591 0.10686119118117569 0 -0.28926944493458551 0.1250750389119854 0 -0.29425350267673611 0.10521070467821581 0 -0.30655317144938349 0.12231627183461199 0 -0.28926944493458551 0.1250750389119854 0 -0.2752979966821591 0.10686119118117569 0 -0.29425350267673611 0.10521070467821581 0 -0.2752979966821591 0.10686119118117569 0 -0.29425350267673611 0.10521070467821581 0 -0.28652887010179362 0.090943016020021555 0 -0.29425350267673611 0.10521070467821581 0 -0.3015661496665315 0.088679399320652164 0 -0.28652887010179362 0.090943016020021555 0 -0.29425350267673611 0.10521070467821581 0 -0.30833934501231719 0.1057362034842368 0 -0.3015661496665315 0.088679399320652164 0 -0.30833934501231719 0.1057362034842368 0 -0.3015661496665315 0.088679399320652164 0 -0.31680928515935092 0.095856311715039555 0 -0.30833934501231719 0.1057362034842368 0 -0.30655317144938349 0.12231627183461199 0 -0.31584582057886479 0.1141864407106782 0 -0.29425350267673611 0.10521070467821581 0 -0.30655317144938349 0.12231627183461199 0 -0.29425350267673611 0.10521070467821581 0 -0.30833934501231719 0.1057362034842368 0 -0.30655317144938349 0.12231627183461199 0 -0.2948875524394774 0.068732661598678885 0 -0.31580827006023948 0.053949206886910288 0 -0.32007940561707338 0.073198602179848776 0 -0.3015661496665315 0.088679399320652164 0 -0.2948875524394774 0.068732661598678885 0 -0.32007940561707338 0.073198602179848776 0 -0.2948875524394774 0.068732661598678885 0 -0.32007940561707338 0.073198602179848776 0 -0.3015661496665315 0.088679399320652164 0 -0.28652887010179362 0.090943016020021555 0 -0.2948875524394774 0.068732661598678885 0 -0.28652887010179362 0.090943016020021555 0 -0.2948875524394774 0.068732661598678885 0 -0.27030017083997232 0.082810548335021869 0 -0.2948875524394774 0.068732661598678885 0 -0.27030017083997232 0.082810548335021869 0 -0.27760064380829619 0.058123340855494948 0 -0.27030017083997232 0.082810548335021869 0 -0.25440848379326342 0.059602881396810997 0 -0.27760064380829619 0.058123340855494948 0 -0.2752979966821591 0.10686119118117569 0 -0.28652887010179362 0.090943016020021555 0 -0.27030017083997232 0.082810548335021869 0 -0.25895491275748472 0.096660090682144206 0 -0.27030017083997232 0.082810548335021869 0 -0.25044227510682571 0.079537657810389961 0 -0.27030017083997232 0.082810548335021869 0 -0.25044227510682571 0.079537657810389961 0 -0.25440848379326342 0.059602881396810997 0 -0.25440848379326342 0.059602881396810997 0 -0.27574740805011982 0.032788201733647757 0 -0.25192898378361739 0.030380811532505918 0 -0.25440848379326342 0.059602881396810997 0 -0.27574740805011982 0.032788201733647757 0 -0.27760064380829619 0.058123340855494948 0 -0.26308809303082348 -0.0061578822087555102 0 -0.25634800387939422 0.010446769574923199 0 -0.26740120420284308 0.0059329096692866236 0 -0.25634800387939422 0.010446769574923199 0 -0.27135299441253291 0.017010823283247791 0 -0.26740120420284308 0.0059329096692866236 0 -0.25634800387939422 0.010446769574923199 0 -0.25192898378361739 0.030380811532505918 0 -0.27135299441253291 0.017010823283247791 0 -0.27574740805011982 0.032788201733647757 0 -0.27135299441253291 0.017010823283247791 0 -0.28853647752776818 0.0069181716844335106 0 -0.27574740805011982 0.032788201733647757 0 -0.25192898378361739 0.030380811532505918 0 -0.27135299441253291 0.017010823283247791 0 -0.26308809303082348 -0.0061578822087555102 0 -0.27881572548862182 0.0024319280277310261 0 -0.26740120420284308 0.0059329096692866236 0 -0.27135299441253291 0.017010823283247791 0 -0.27881572548862182 0.0024319280277310261 0 -0.28853647752776818 0.0069181716844335106 0 -0.27135299441253291 0.017010823283247791 0 -0.27881572548862182 0.0024319280277310261 0 -0.26740120420284308 0.0059329096692866236 0 -0.28853647752776818 0.0069181716844335106 0 -0.30141269447713948 0.02040695743548197 0 -0.30028364258201701 0.0084003729508178721 0 -0.27574740805011982 0.032788201733647757 0 -0.28853647752776818 0.0069181716844335106 0 -0.27574740805011982 0.032788201733647757 0 -0.28853647752776818 0.0069181716844335106 0 -0.30141269447713948 0.02040695743548197 0 -0.30141269447713948 0.02040695743548197 0 -0.31377106770342977 0.034528578112579533 0 -0.3146516730449494 0.021378986672248891 0 -0.30141269447713948 0.02040695743548197 0 -0.3155368564668059 0.00791962896903276 0 -0.3146516730449494 0.021378986672248891 0 -0.30418814435295449 -0.0017308923959753141 0 -0.28853647752776818 0.0069181716844335106 0 -0.30028364258201701 0.0084003729508178721 0 -0.30141269447713948 0.02040695743548197 0 -0.30028364258201701 0.0084003729508178721 0 -0.3155368564668059 0.00791962896903276 0 -0.30418814435295449 -0.0017308923959753141 0 -0.30028364258201701 0.0084003729508178721 0 -0.3155368564668059 0.00791962896903276 0 -0.2948875524394774 0.068732661598678885 0 -0.27760064380829619 0.058123340855494948 0 -0.29623960592277332 0.044903100342992462 0 -0.27574740805011982 0.032788201733647757 0 -0.27760064380829619 0.058123340855494948 0 -0.29623960592277332 0.044903100342992462 0 -0.27574740805011982 0.032788201733647757 0 -0.30141269447713948 0.02040695743548197 0 -0.29623960592277332 0.044903100342992462 0 -0.30141269447713948 0.02040695743548197 0 -0.29623960592277332 0.044903100342992462 0 -0.31377106770342977 0.034528578112579533 0 -0.29623960592277332 0.044903100342992462 0 -0.31580827006023948 0.053949206886910288 0 -0.31377106770342977 0.034528578112579533 0 -0.2948875524394774 0.068732661598678885 0 -0.29623960592277332 0.044903100342992462 0 -0.31580827006023948 0.053949206886910288 0 -0.31580827006023948 0.053949206886910288 0 -0.33269442469291077 0.043768853267798488 0 -0.33502350706113521 0.062185790285478861 0 -0.31580827006023948 0.053949206886910288 0 -0.31377106770342977 0.034528578112579533 0 -0.33269442469291077 0.043768853267798488 0 -0.31377106770342977 0.034528578112579533 0 -0.33269442469291077 0.043768853267798488 0 -0.32788607353242222 0.02266078217190132 0 -0.33269442469291077 0.043768853267798488 0 -0.33502350706113521 0.062185790285478861 0 -0.35259361649398552 0.054580363597229363 0 -0.3155368564668059 0.00791962896903276 0 -0.32788607353242222 0.02266078217190132 0 -0.3146516730449494 0.021378986672248891 0 -0.31377106770342977 0.034528578112579533 0 -0.32788607353242222 0.02266078217190132 0 -0.3146516730449494 0.021378986672248891 0 -0.34210778317672558 -0.001571496537540198 0 -0.32788607353242222 0.02266078217190132 0 -0.34735069983535422 0.02650443352984479 0 -0.33269442469291077 0.043768853267798488 0 -0.32788607353242222 0.02266078217190132 0 -0.34735069983535422 0.02650443352984479 0 -0.34210778317672558 -0.001571496537540198 0 -0.3155368564668059 0.00791962896903276 0 -0.32788607353242222 0.02266078217190132 0 -0.35902896314898358 -0.0017027207110311359 0 -0.34210778317672558 -0.001571496537540198 0 -0.35659184364061491 0.01170607592505294 0 -0.34210778317672558 -0.001571496537540198 0 -0.34735069983535422 0.02650443352984479 0 -0.34210778317672558 -0.001571496537540198 0 -0.35659184364061491 0.01170607592505294 0 -0.34735069983535422 0.02650443352984479 0 -0.34735069983535422 0.02650443352984479 0 -0.36309688450263999 0.02124667988455908 0 -0.35994777681948481 0.031395924715099041 0 -0.35659184364061491 0.01170607592505294 0 -0.34735069983535422 0.02650443352984479 0 -0.36309688450263999 0.02124667988455908 0 -0.36309688450263999 0.02124667988455908 0 -0.35994777681948481 0.031395924715099041 0 -0.3745175543435747 0.032412733095474107 0 -0.37358602706579958 0.019684991208363731 0 -0.36309688450263999 0.02124667988455908 0 -0.3745175543435747 0.032412733095474107 0 -0.37358602706579958 0.019684991208363731 0 -0.36309688450263999 0.02124667988455908 0 -0.36591486686943397 0.0094895318196663286 0 -0.35659184364061491 0.01170607592505294 0 -0.36309688450263999 0.02124667988455908 0 -0.36591486686943397 0.0094895318196663286 0 -0.37573497748791151 0.01108081694060346 0 -0.37358602706579958 0.019684991208363731 0 -0.36591486686943397 0.0094895318196663286 0 -0.36913653546780928 -0.00064787223986029208 0 -0.37573497748791151 0.01108081694060346 0 -0.36591486686943397 0.0094895318196663286 0 -0.36913653546780928 -0.00064787223986029208 0 -0.35902896314898358 -0.0017027207110311359 0 -0.36591486686943397 0.0094895318196663286 0 -0.35902896314898358 -0.0017027207110311359 0 -0.35659184364061491 0.01170607592505294 0 -0.36591486686943397 0.0094895318196663286 0 -0.33269442469291077 0.043768853267798488 0 -0.34735069983535422 0.02650443352984479 0 -0.35259361649398552 0.054580363597229363 0 -0.35259361649398552 0.054580363597229363 0 -0.35994777681948481 0.031395924715099041 0 -0.34735069983535422 0.02650443352984479 0 -0.35259361649398552 0.054580363597229363 0 -0.35994777681948481 0.031395924715099041 0 -0.34735069983535422 0.02650443352984479 0 -0.35259361649398552 0.054580363597229363 0 -0.37572270983714429 0.048872920353502949 0 -0.35259361649398552 0.054580363597229363 0 -0.35994777681948481 0.031395924715099041 0 -0.37572270983714429 0.048872920353502949 0 -0.35994777681948481 0.031395924715099041 0 -0.3745175543435747 0.032412733095474107 0 -0.37572270983714429 0.048872920353502949 0 -0.35259361649398552 0.054580363597229363 0 -0.36646259154152272 0.065038684961889331 0 -0.36646259154152272 0.065038684961889331 0 -0.35730266849660441 0.079797437092297405 0 -0.36999097683252652 0.082046784558081981 0 -0.38503139596208391 0.070056563675861508 0 -0.36646259154152272 0.065038684961889331 0 -0.36999097683252652 0.082046784558081981 0 -0.35259361649398552 0.054580363597229363 0 -0.34527125879466941 0.077664542761018612 0 -0.35259361649398552 0.054580363597229363 0 -0.36646259154152272 0.065038684961889331 0 -0.35730266849660441 0.079797437092297405 0 -0.33502350706113521 0.062185790285478861 0 -0.35259361649398552 0.054580363597229363 0 -0.34527125879466941 0.077664542761018612 0 -0.35259361649398552 0.054580363597229363 0 -0.34527125879466941 0.077664542761018612 0 -0.35730266849660441 0.079797437092297405 0 -0.35259361649398552 0.054580363597229363 0 -0.35730266849660441 0.079797437092297405 0 -0.34963430903372589 0.088053423035538994 0 -0.35730266849660441 0.079797437092297405 0 -0.3608973826239672 0.099047207596682271 0 -0.34527125879466941 0.077664542761018612 0 -0.34963430903372589 0.088053423035538994 0 -0.3400807549588134 0.094027922619987228 0 -0.35730266849660441 0.079797437092297405 0 -0.3608973826239672 0.099047207596682271 0 -0.34963430903372589 0.088053423035538994 0 -0.34871735711010982 0.096738339487153574 0 -0.3400807549588134 0.094027922619987228 0 -0.34527125879466941 0.077664542761018612 0 -0.35730266849660441 0.079797437092297405 0 -0.34527125879466941 0.077664542761018612 0 -0.34963430903372589 0.088053423035538994 0 -0.35730266849660441 0.079797437092297405 0 -0.35730266849660441 0.079797437092297405 0 -0.36999097683252652 0.082046784558081981 0 -0.3608973826239672 0.099047207596682271 0 -0.35730266849660441 0.079797437092297405 0 -0.36999097683252652 0.082046784558081981 0 -0.3608973826239672 0.099047207596682271 0 -0.3644920967513347 0.11829697810106619 0 -0.3758661085835856 0.10053044475925529 0 -0.3608973826239672 0.099047207596682271 0 -0.3644920967513347 0.11829697810106619 0 -0.3758661085835856 0.10053044475925529 0 -0.36999097683252652 0.082046784558081981 0 -0.3608973826239672 0.099047207596682271 0 -0.38463230277678639 0.116186697035543 0 -0.3758661085835856 0.10053044475925529 0 -0.3644920967513347 0.11829697810106619 0 -0.3608973826239672 0.099047207596682271 0 -0.3644920967513347 0.11829697810106619 0 -0.35113465807578892 0.1169466899203369 0 -0.35479205013033921 0.12890720630666769 0 -0.3644920967513347 0.11829697810106619 0 -0.35113465807578892 0.1169466899203369 0 -0.3448824286281959 0.1140834346244366 0 -0.35113465807578892 0.1169466899203369 0 -0.3459978726759807 0.1052991260394785 0 -0.3448824286281959 0.1140834346244366 0 -0.35113465807578892 0.1169466899203369 0 -0.34455653043517159 0.1190157682535275 0 -0.35479205013033921 0.12890720630666769 0 -0.35113465807578892 0.1169466899203369 0 -0.34777806649788068 0.1245039275869301 0 -0.35113465807578892 0.1169466899203369 0 -0.34455653043517159 0.1190157682535275 0 -0.34777806649788068 0.1245039275869301 0 -0.34129577494332308 0.12608128486744111 0 -0.34455653043517159 0.1190157682535275 0 -0.34777806649788068 0.1245039275869301 0 -0.3608973826239672 0.099047207596682271 0 -0.35113465807578892 0.1169466899203369 0 -0.3459978726759807 0.1052991260394785 0 -0.34963430903372589 0.088053423035538994 0 -0.3608973826239672 0.099047207596682271 0 -0.34871735711010982 0.096738339487153574 0 -0.3608973826239672 0.099047207596682271 0 -0.3459978726759807 0.1052991260394785 0 -0.34871735711010982 0.096738339487153574 0 -0.3459978726759807 0.1052991260394785 0 -0.34871735711010982 0.096738339487153574 0 -0.3400807549588134 0.094027922619987228 0 -0.3459978726759807 0.1052991260394785 0 -0.3400807549588134 0.094027922619987228 0 -0.33784065332584229 0.1150721542844033 0 -0.3400807549588134 0.094027922619987228 0 -0.32969368388928011 0.1049087988893203 0 -0.33419651050672528 0.1125783620758689 0 -0.3400807549588134 0.094027922619987228 0 -0.33784065332584229 0.1150721542844033 0 -0.33419651050672528 0.1125783620758689 0 -0.3400807549588134 0.094027922619987228 0 -0.33784065332584229 0.1150721542844033 0 -0.3400807549588134 0.094027922619987228 0 -0.33419651050672528 0.1125783620758689 0 -0.3400807549588134 0.094027922619987228 0 -0.32969368388928011 0.1049087988893203 0 -0.32730847478462011 0.098064143688394917 0 -0.33560055169287167 0.13611638594881939 0 -0.33784065332584229 0.1150721542844033 0 -0.33205797715154362 0.12084499274016861 0 -0.34129577494332308 0.12608128486744111 0 -0.34455653043517159 0.1190157682535275 0 -0.33784065332584229 0.1150721542844033 0 -0.3448824286281959 0.1140834346244366 0 -0.3459978726759807 0.1052991260394785 0 -0.33784065332584229 0.1150721542844033 0 -0.3448824286281959 0.1140834346244366 0 -0.34455653043517159 0.1190157682535275 0 -0.33784065332584229 0.1150721542844033 0 -0.32969368388928011 0.1049087988893203 0 -0.33419651050672528 0.1125783620758689 0 -0.32556901223611889 0.1152321344365401 0 -0.33419651050672528 0.1125783620758689 0 -0.33205797715154362 0.12084499274016861 0 -0.32556901223611889 0.1152321344365401 0 -0.33784065332584229 0.1150721542844033 0 -0.33419651050672528 0.1125783620758689 0 -0.33205797715154362 0.12084499274016861 0 -0.32617091320368358 0.12648479797181461 0 -0.32556901223611889 0.1152321344365401 0 -0.31807351005499201 0.1236561856628164 0 -0.32617091320368358 0.12648479797181461 0 -0.33205797715154362 0.12084499274016861 0 -0.32556901223611889 0.1152321344365401 0 -0.32556901223611889 0.1152321344365401 0 -0.31584582057886479 0.1141864407106782 0 -0.32068253388475132 0.10542846413990099 0 -0.32556901223611889 0.1152321344365401 0 -0.31584582057886479 0.1141864407106782 0 -0.31807351005499201 0.1236561856628164 0 -0.30655317144938349 0.12231627183461199 0 -0.31584582057886479 0.1141864407106782 0 -0.31807351005499201 0.1236561856628164 0 -0.32730847478462011 0.098064143688394917 0 -0.31680928515935092 0.095856311715039555 0 -0.32906877180057698 0.089183954699540852 0 -0.32730847478462011 0.098064143688394917 0 -0.32068253388475132 0.10542846413990099 0 -0.31680928515935092 0.095856311715039555 0 -0.32969368388928011 0.1049087988893203 0 -0.32556901223611889 0.1152321344365401 0 -0.32068253388475132 0.10542846413990099 0 -0.32969368388928011 0.1049087988893203 0 -0.32730847478462011 0.098064143688394917 0 -0.32068253388475132 0.10542846413990099 0 -0.30833934501231719 0.1057362034842368 0 -0.32068253388475132 0.10542846413990099 0 -0.31680928515935092 0.095856311715039555 0 -0.30833934501231719 0.1057362034842368 0 -0.31584582057886479 0.1141864407106782 0 -0.32068253388475132 0.10542846413990099 0 -0.3015661496665315 0.088679399320652164 0 -0.31680928515935092 0.095856311715039555 0 -0.32007940561707338 0.073198602179848776 0 -0.31680928515935092 0.095856311715039555 0 -0.32007940561707338 0.073198602179848776 0 -0.32906877180057698 0.089183954699540852 0 -0.31580827006023948 0.053949206886910288 0 -0.33502350706113521 0.062185790285478861 0 -0.32007940561707338 0.073198602179848776 0 -0.34527125879466941 0.077664542761018612 0 -0.32007940561707338 0.073198602179848776 0 -0.33502350706113521 0.062185790285478861 0 -0.34527125879466941 0.077664542761018612 0 -0.32007940561707338 0.073198602179848776 0 -0.34527125879466941 0.077664542761018612 0 -0.3400807549588134 0.094027922619987228 0 -0.34527125879466941 0.077664542761018612 0 -0.3400807549588134 0.094027922619987228 0 -0.34106593848302719 0.084772793294433796 0 -0.32007940561707338 0.073198602179848776 0 -0.34106593848302719 0.084772793294433796 0 -0.32906877180057698 0.089183954699540852 0 -0.34527125879466941 0.077664542761018612 0 -0.32007940561707338 0.073198602179848776 0 -0.34106593848302719 0.084772793294433796 0 -0.3400807549588134 0.094027922619987228 0 -0.34106593848302719 0.084772793294433796 0 -0.3400807549588134 0.094027922619987228 0 -0.34106593848302719 0.084772793294433796 0 -0.32906877180057698 0.089183954699540852 0 -0.3400807549588134 0.094027922619987228 0 -0.32730847478462011 0.098064143688394917 0 -0.32906877180057698 0.089183954699540852 0 -0.39434395026331071 0.47779347008593193 0 -0.40714832453319699 0.46448701685076532 0 -0.41562967847157362 0.47213136248463111 0 -0.39024968796281212 0.48142090832308859 0 -0.41562967847157362 0.47213136248463111 0 -0.40560226685632422 0.48677968859304599 0 -0.39024968796281212 0.48142090832308859 0 -0.41562967847157362 0.47213136248463111 0 -0.39434395026331071 0.47779347008593193 0 -0.39024968796281212 0.48142090832308859 0 -0.41562967847157362 0.47213136248463111 0 -0.39434395026331071 0.47779347008593193 0 -0.39277142524151792 0.47165021676647118 0 -0.38849784736498622 0.47156157293376311 0 -0.39434395026331071 0.47779347008593193 0 -0.39277142524151792 0.47165021676647118 0 -0.3964961410284823 0.46849443223709192 0 -0.39277142524151792 0.47165021676647118 0 -0.38849784736498622 0.47156157293376311 0 -0.39193303577126309 0.46846132409760682 0 -0.39277142524151792 0.47165021676647118 0 -0.3964961410284823 0.46849443223709192 0 -0.39193303577126309 0.46846132409760682 0 -0.39434395026331071 0.47779347008593193 0 -0.3964961410284823 0.46849443223709192 0 -0.40714832453319699 0.46448701685076532 0 -0.40560226685632422 0.48677968859304599 0 -0.39932518772944192 0.5 0 -0.39024968796281212 0.48142090832308859 0 -0.39932518772944192 0.5 0 -0.39024968796281212 0.48142090832308859 0 -0.36940744733736541 0.5 0 -0.39024968796281212 0.48142090832308859 0 -0.36486969745405118 0.49071045416154729 0 -0.39024968796281212 0.48142090832308859 0 -0.38321256863770647 0.47653276635862801 0 -0.37284258001029952 0.4792311464255623 0 -0.39024968796281212 0.48142090832308859 0 -0.37284258001029952 0.4792311464255623 0 -0.36486969745405118 0.49071045416154729 0 -0.39434395026331071 0.47779347008593193 0 -0.39024968796281212 0.48142090832308859 0 -0.38321256863770647 0.47653276635862801 0 -0.39434395026331071 0.47779347008593193 0 -0.37957362181831039 0.46646410460957188 0 -0.39434395026331071 0.47779347008593193 0 -0.38281900935997681 0.47209772395228972 0 -0.37957362181831039 0.46646410460957188 0 -0.39434395026331071 0.47779347008593193 0 -0.38849784736498622 0.47156157293376311 0 -0.37957362181831039 0.46646410460957188 0 -0.39434395026331071 0.47779347008593193 0 -0.38321256863770647 0.47653276635862801 0 -0.38281900935997681 0.47209772395228972 0 -0.38849784736498622 0.47156157293376311 0 -0.38844368689226128 0.46678245511872341 0 -0.38525775881178898 0.46805018967201012 0 -0.38849784736498622 0.47156157293376311 0 -0.38844368689226128 0.46678245511872341 0 -0.39193303577126309 0.46846132409760682 0 -0.38321256863770647 0.47653276635862801 0 -0.37727068166745942 0.47264893556906828 0 -0.37284258001029952 0.4792311464255623 0 -0.38281900935997681 0.47209772395228972 0 -0.37727068166745942 0.47264893556906828 0 -0.37957362181831039 0.46646410460957188 0 -0.38321256863770647 0.47653276635862801 0 -0.38281900935997681 0.47209772395228972 0 -0.37727068166745942 0.47264893556906828 0 -0.37727068166745942 0.47264893556906828 0 -0.37957362181831039 0.46646410460957188 0 -0.37177404296113059 0.46843018538421222 0 -0.37957362181831039 0.46646410460957188 0 -0.37477896583113562 0.44319746245818942 0 -0.37957362181831039 0.46646410460957188 0 -0.38175903504851177 0.4592131427674675 0 -0.37477896583113562 0.44319746245818942 0 -0.37957362181831039 0.46646410460957188 0 -0.38525775881178898 0.46805018967201012 0 -0.38288360332517202 0.46655206594269139 0 -0.37957362181831039 0.46646410460957188 0 -0.38144465480983453 0.46564645072704702 0 -0.38288360332517202 0.46655206594269139 0 -0.38144465480983453 0.46564645072704702 0 -0.38174985636075581 0.46398249256542717 0 -0.38288360332517202 0.46655206594269139 0 -0.37957362181831039 0.46646410460957188 0 -0.38144465480983453 0.46564645072704702 0 -0.38174985636075581 0.46398249256542717 0 -0.37957362181831039 0.46646410460957188 0 -0.38174985636075581 0.46398249256542717 0 -0.38175903504851177 0.4592131427674675 0 -0.38174985636075581 0.46398249256542717 0 -0.38175903504851177 0.4592131427674675 0 -0.38377874631464798 0.46341140187061702 0 -0.38175903504851177 0.4592131427674675 0 -0.38613353313860482 0.45993032321677829 0 -0.38377874631464798 0.46341140187061702 0 -0.38503501187249578 0.45240001445280231 0 -0.39349656380716619 0.4493436321088492 0 -0.39064356579812398 0.45772863621219773 0 -0.38175903504851177 0.4592131427674675 0 -0.38613353313860482 0.45993032321677829 0 -0.38503501187249578 0.45240001445280231 0 -0.38613353313860482 0.45993032321677829 0 -0.38503501187249578 0.45240001445280231 0 -0.39064356579812398 0.45772863621219773 0 -0.38613353313860482 0.45993032321677829 0 -0.38885486965304511 0.46240585205278228 0 -0.39064356579812398 0.45772863621219773 0 -0.38613353313860482 0.45993032321677829 0 -0.38885486965304511 0.46240585205278228 0 -0.38666871865183411 0.46426696783253169 0 -0.38849784736498622 0.47156157293376311 0 -0.37957362181831039 0.46646410460957188 0 -0.38525775881178898 0.46805018967201012 0 -0.38885486965304511 0.46240585205278228 0 -0.38844368689226128 0.46678245511872341 0 -0.39333777091600891 0.46333438533976889 0 -0.38885486965304511 0.46240585205278228 0 -0.38844368689226128 0.46678245511872341 0 -0.38666871865183411 0.46426696783253169 0 -0.38844368689226128 0.46678245511872341 0 -0.38500748008868829 0.46595369394948971 0 -0.38666871865183411 0.46426696783253169 0 -0.38844368689226128 0.46678245511872341 0 -0.38500748008868829 0.46595369394948971 0 -0.38525775881178898 0.46805018967201012 0 -0.38500748008868829 0.46595369394948971 0 -0.38525775881178898 0.46805018967201012 0 -0.38288360332517202 0.46655206594269139 0 -0.38174985636075581 0.46398249256542717 0 -0.38500748008868829 0.46595369394948971 0 -0.38288360332517202 0.46655206594269139 0 -0.38613353313860482 0.45993032321677829 0 -0.38377874631464798 0.46341140187061702 0 -0.38666871865183411 0.46426696783253169 0 -0.38174985636075581 0.46398249256542717 0 -0.38500748008868829 0.46595369394948971 0 -0.38377874631464798 0.46341140187061702 0 -0.38500748008868829 0.46595369394948971 0 -0.38377874631464798 0.46341140187061702 0 -0.38666871865183411 0.46426696783253169 0 -0.38175903504851177 0.4592131427674675 0 -0.38503501187249578 0.45240001445280231 0 -0.37477896583113562 0.44319746245818942 0 -0.3856886260903214 0.44297597697938262 0 -0.38441080564905672 0.43065320780626543 0 -0.37477896583113562 0.44319746245818942 0 -0.38503501187249578 0.45240001445280231 0 -0.3856886260903214 0.44297597697938262 0 -0.37477896583113562 0.44319746245818942 0 -0.38503501187249578 0.45240001445280231 0 -0.3856886260903214 0.44297597697938262 0 -0.39349656380716619 0.4493436321088492 0 -0.3856886260903214 0.44297597697938262 0 -0.39700779200613018 0.44043732119473827 0 -0.38441080564905672 0.43065320780626543 0 -0.39700779200613018 0.44043732119473827 0 -0.41382071108215762 0.44750945593888058 0 -0.39977824891931257 0.42801053716093629 0 -0.39700779200613018 0.44043732119473827 0 -0.40311357181934032 0.45083729470001338 0 -0.41382071108215762 0.44750945593888058 0 -0.3856886260903214 0.44297597697938262 0 -0.39700779200613018 0.44043732119473827 0 -0.39349656380716619 0.4493436321088492 0 -0.39349656380716619 0.4493436321088492 0 -0.40311357181934032 0.45083729470001338 0 -0.39793676571944658 0.45786525838509162 0 -0.39700779200613018 0.44043732119473827 0 -0.39349656380716619 0.4493436321088492 0 -0.40311357181934032 0.45083729470001338 0 -0.39333777091600891 0.46333438533976889 0 -0.39793676571944658 0.45786525838509162 0 -0.39866917880462138 0.46349428742654641 0 -0.3964961410284823 0.46849443223709192 0 -0.39333777091600891 0.46333438533976889 0 -0.39866917880462138 0.46349428742654641 0 -0.38844368689226128 0.46678245511872341 0 -0.39193303577126309 0.46846132409760682 0 -0.39333777091600891 0.46333438533976889 0 -0.3964961410284823 0.46849443223709192 0 -0.39193303577126309 0.46846132409760682 0 -0.39333777091600891 0.46333438533976889 0 -0.38885486965304511 0.46240585205278228 0 -0.39333777091600891 0.46333438533976889 0 -0.39064356579812398 0.45772863621219773 0 -0.39349656380716619 0.4493436321088492 0 -0.39064356579812398 0.45772863621219773 0 -0.39793676571944658 0.45786525838509162 0 -0.39333777091600891 0.46333438533976889 0 -0.39064356579812398 0.45772863621219773 0 -0.39793676571944658 0.45786525838509162 0 -0.40311357181934032 0.45083729470001338 0 -0.39793676571944658 0.45786525838509162 0 -0.40714832453319699 0.46448701685076532 0 -0.3964961410284823 0.46849443223709192 0 -0.39866917880462138 0.46349428742654641 0 -0.40714832453319699 0.46448701685076532 0 -0.39793676571944658 0.45786525838509162 0 -0.39866917880462138 0.46349428742654641 0 -0.40714832453319699 0.46448701685076532 0 -0.40311357181934032 0.45083729470001338 0 -0.40714832453319699 0.46448701685076532 0 -0.41382071108215762 0.44750945593888058 0 -0.40714832453319699 0.46448701685076532 0 -0.41382071108215762 0.44750945593888058 0 -0.41562967847157362 0.47213136248463111 0 -0.41382071108215762 0.44750945593888058 0 -0.41562967847157362 0.47213136248463111 0 -0.41382071108215762 0.44750945593888058 0 -0.42885073075022412 0.46729221287451461 0 -0.41562967847157362 0.47213136248463111 0 -0.41382071108215762 0.44750945593888058 0 -0.42855389758430812 0.44253744215658058 0 -0.41201174369273708 0.42288754939313039 0 -0.41382071108215762 0.44750945593888058 0 -0.42855389758430812 0.44253744215658058 0 -0.42885073075022412 0.46729221287451461 0 -0.42855389758430812 0.44253744215658058 0 -0.42885073075022412 0.46729221287451461 0 -0.447662405913063 0.46040679191019029 0 -0.42855389758430812 0.44253744215658058 0 -0.42885073075022412 0.46729221287451461 0 -0.42885073075022412 0.46729221287451461 0 -0.42904682943587102 0.48364610643725903 0 -0.42885073075022412 0.46729221287451461 0 -0.42904682943587102 0.48364610643725903 0 -0.41562967847157362 0.47213136248463111 0 -0.42885073075022412 0.46729221287451461 0 -0.42904682943587102 0.48364610643725903 0 -0.44333173088923111 0.47571023635040249 0 -0.42885073075022412 0.46729221287451461 0 -0.41562967847157362 0.47213136248463111 0 -0.41562967847157362 0.47213136248463111 0 -0.41720451326146968 0.49356648356446592 0 -0.40560226685632422 0.48677968859304599 0 -0.41562967847157362 0.47213136248463111 0 -0.41720451326146968 0.49356648356446592 0 -0.42904682943587102 0.48364610643725903 0 -0.41562967847157362 0.47213136248463111 0 -0.41720451326146968 0.49356648356446592 0 -0.40560226685632422 0.48677968859304599 0 -0.39932518772944192 0.5 0 -0.41720451326146968 0.49356648356446592 0 -0.39932518772944192 0.5 0 -0.41720451326146968 0.49356648356446592 0 -0.4292429281215181 0.50000000000000333 0 -0.42904682943587102 0.48364610643725903 0 -0.4292429281215181 0.50000000000000333 0 -0.42904682943587102 0.48364610643725903 0 -0.4292429281215181 0.50000000000000333 0 -0.44333173088923111 0.47571023635040249 0 -0.42904682943587102 0.48364610643725903 0 -0.41720451326146968 0.49356648356446592 0 -0.4292429281215181 0.50000000000000333 0 -0.4292429281215181 0.50000000000000333 0 -0.46583114591273073 0.47943025521157367 0 -0.5 0.5 0 -0.4292429281215181 0.50000000000000333 0 -0.44333173088923111 0.47571023635040249 0 -0.46583114591273073 0.47943025521157367 0 -0.44333173088923111 0.47571023635040249 0 -0.46583114591273073 0.47943025521157367 0 -0.45935634520197999 0.46348605166887441 0 -0.46583114591273073 0.47943025521157367 0 -0.5 0.5 0 -0.48467092542610962 0.4759064233209005 0 -0.5 0.5 0 -0.48467092542610962 0.4759064233209005 0 -0.50000000000000555 0.44125026467754541 0 -0.46583114591273073 0.47943025521157367 0 -0.48467092542610962 0.4759064233209005 0 -0.47857619370934762 0.46144652308181922 0 -0.48467092542610962 0.4759064233209005 0 -0.50000000000000555 0.44125026467754541 0 -0.47857619370934762 0.46144652308181922 0 -0.50000000000000555 0.44125026467754541 0 -0.48323704053795402 0.44738581781170639 0 -0.50000000000000555 0.44125026467754541 0 -0.48323704053795402 0.44738581781170639 0 -0.48516331910766192 0.42991938013392311 0 -0.50000000000000555 0.44125026467754541 0 -0.47857619370934762 0.46144652308181922 0 -0.48323704053795402 0.44738581781170639 0 -0.47857619370934762 0.46144652308181922 0 -0.48323704053795402 0.44738581781170639 0 -0.46647408107590171 0.45352137094586559 0 -0.48323704053795402 0.44738581781170639 0 -0.47214081574576688 0.4359832515207111 0 -0.48516331910766192 0.42991938013392311 0 -0.48323704053795402 0.44738581781170639 0 -0.46647408107590171 0.45352137094586559 0 -0.48323704053795402 0.44738581781170639 0 -0.46647408107590171 0.45352137094586559 0 -0.47214081574576688 0.4359832515207111 0 -0.46647408107590171 0.45352137094586559 0 -0.45450385945471272 0.42595785431964639 0 -0.47214081574576688 0.4359832515207111 0 -0.46647408107590171 0.45352137094586559 0 -0.447662405913063 0.46040679191019029 0 -0.44759895091819413 0.44123113647447909 0 -0.46647408107590171 0.45352137094586559 0 -0.44759895091819413 0.44123113647447909 0 -0.45450385945471272 0.42595785431964639 0 -0.46647408107590171 0.45352137094586559 0 -0.45450385945471272 0.42595785431964639 0 -0.45935634520197999 0.46348605166887441 0 -0.46647408107590171 0.45352137094586559 0 -0.447662405913063 0.46040679191019029 0 -0.47857619370934762 0.46144652308181922 0 -0.45935634520197999 0.46348605166887441 0 -0.46647408107590171 0.45352137094586559 0 -0.46583114591273073 0.47943025521157367 0 -0.47857619370934762 0.46144652308181922 0 -0.45935634520197999 0.46348605166887441 0 -0.46647408107590171 0.45352137094586559 0 -0.447662405913063 0.46040679191019029 0 -0.42885073075022412 0.46729221287451461 0 -0.447662405913063 0.46040679191019029 0 -0.44333173088923111 0.47571023635040249 0 -0.45935634520197999 0.46348605166887441 0 -0.447662405913063 0.46040679191019029 0 -0.42885073075022412 0.46729221287451461 0 -0.44333173088923111 0.47571023635040249 0 -0.447662405913063 0.46040679191019029 0 -0.42855389758430812 0.44253744215658058 0 -0.447662405913063 0.46040679191019029 0 -0.44759895091819413 0.44123113647447909 0 -0.42855389758430812 0.44253744215658058 0 -0.44759895091819413 0.44123113647447909 0 -0.440538201062181 0.42753626010714468 0 -0.44759895091819413 0.44123113647447909 0 -0.440538201062181 0.42753626010714468 0 -0.45450385945471272 0.42595785431964639 0 -0.440538201062181 0.42753626010714468 0 -0.44377723293529753 0.4101721961463709 0 -0.45450385945471272 0.42595785431964639 0 -0.440538201062181 0.42753626010714468 0 -0.44377723293529753 0.4101721961463709 0 -0.42825706441839229 0.41778267143864672 0 -0.45707202217347648 0.40869434447945652 0 -0.45450385945471272 0.42595785431964639 0 -0.44253363783352362 0.39839433769342741 0 -0.45450385945471272 0.42595785431964639 0 -0.44253363783352362 0.39839433769342741 0 -0.44377723293529753 0.4101721961463709 0 -0.45450385945471272 0.42595785431964639 0 -0.44253363783352362 0.39839433769342741 0 -0.45707202217347648 0.40869434447945652 0 -0.45450385945471272 0.42595785431964639 0 -0.47004951276413892 0.42288255505927053 0 -0.45707202217347648 0.40869434447945652 0 -0.48248950770578769 0.41310748359842242 0 -0.45656713332128279 0.40356196055656668 0 -0.45450385945471272 0.42595785431964639 0 -0.47214081574576688 0.4359832515207111 0 -0.47004951276413892 0.42288255505927053 0 -0.47004951276413892 0.42288255505927053 0 -0.48248950770578769 0.41310748359842242 0 -0.48516331910766192 0.42991938013392311 0 -0.47214081574576688 0.4359832515207111 0 -0.47004951276413892 0.42288255505927053 0 -0.48516331910766192 0.42991938013392311 0 -0.48248950770578769 0.41310748359842242 0 -0.45656713332128279 0.40356196055656668 0 -0.45707202217347648 0.40869434447945652 0 -0.47004951276413892 0.42288255505927053 0 -0.48248950770578769 0.41310748359842242 0 -0.48248950770578769 0.41310748359842242 0 -0.5 0.41830863773633681 0 -0.49999999999999661 0.39536701079512809 0 -0.48248950770578769 0.41310748359842242 0 -0.5 0.41830863773633681 0 -0.48516331910766192 0.42991938013392311 0 -0.50000000000000555 0.44125026467754541 0 -0.5 0.41830863773633681 0 -0.48516331910766192 0.42991938013392311 0 -0.48459088128462358 0.37640258866550569 0 -0.49999999999999661 0.39536701079512809 0 -0.5 0.37342539199314218 0 -0.48459088128462358 0.37640258866550569 0 -0.49999999999999661 0.39536701079512809 0 -0.47726700896274898 0.38913079666161798 0 -0.49999999999999661 0.39536701079512809 0 -0.47726700896274898 0.38913079666161798 0 -0.48248950770578769 0.41310748359842242 0 -0.49999999999999661 0.39536701079512809 0 -0.47726700896274898 0.38913079666161798 0 -0.48248950770578769 0.41310748359842242 0 -0.47726700896274898 0.38913079666161798 0 -0.45656713332128279 0.40356196055656668 0 -0.48459088128462358 0.37640258866550569 0 -0.47726700896274898 0.38913079666161798 0 -0.46967153096785208 0.37493025056239182 0 -0.47726700896274898 0.38913079666161798 0 -0.45453401792550202 0.38289458252810671 0 -0.46967153096785208 0.37493025056239182 0 -0.47726700896274898 0.38913079666161798 0 -0.45453401792550202 0.38289458252810671 0 -0.45453401792550202 0.38289458252810671 0 -0.45474765059128519 0.36778856812317662 0 -0.46967153096785208 0.37493025056239182 0 -0.45453401792550202 0.38289458252810671 0 -0.45656713332128279 0.40356196055656668 0 -0.47726700896274898 0.38913079666161798 0 -0.45453401792550202 0.38289458252810671 0 -0.45656713332128279 0.40356196055656668 0 -0.45707202217347648 0.40869434447945652 0 -0.45656713332128279 0.40356196055656668 0 -0.44377723293529753 0.4101721961463709 0 -0.44253363783352362 0.39839433769342741 0 -0.43190583480743089 0.39448080966682442 0 -0.45453401792550202 0.38289458252810671 0 -0.45656713332128279 0.40356196055656668 0 -0.44381900182638301 0.38699409892108227 0 -0.45656713332128279 0.40356196055656668 0 -0.44253363783352362 0.39839433769342741 0 -0.44381900182638301 0.38699409892108227 0 -0.44377723293529753 0.4101721961463709 0 -0.43190583480743089 0.39448080966682442 0 -0.45656713332128279 0.40356196055656668 0 -0.44253363783352362 0.39839433769342741 0 -0.45707202217347648 0.40869434447945652 0 -0.45656713332128279 0.40356196055656668 0 -0.44253363783352362 0.39839433769342741 0 -0.45453401792550202 0.38289458252810671 0 -0.43461093013760199 0.38015092564876851 0 -0.42775062160123278 0.37554724339322842 0 -0.45453401792550202 0.38289458252810671 0 -0.42775062160123278 0.37554724339322842 0 -0.43409247381110522 0.36923562140634048 0 -0.44253363783352362 0.39839433769342741 0 -0.44381900182638301 0.38699409892108227 0 -0.43461093013760199 0.38015092564876851 0 -0.44253363783352362 0.39839433769342741 0 -0.43461093013760199 0.38015092564876851 0 -0.45453401792550202 0.38289458252810671 0 -0.44381900182638301 0.38699409892108227 0 -0.43461093013760199 0.38015092564876851 0 -0.45453401792550202 0.38289458252810671 0 -0.42775062160123278 0.37554724339322842 0 -0.42791439099818629 0.38920499575277528 0 -0.40982139219256553 0.3863485470615603 0 -0.42796023125247817 0.3930279007207127 0 -0.42791439099818629 0.38920499575277528 0 -0.42775062160123278 0.37554724339322842 0 -0.41491831209466801 0.37202702778326568 0 -0.43461093013760199 0.38015092564876851 0 -0.42791439099818629 0.38920499575277528 0 -0.42775062160123278 0.37554724339322842 0 -0.43461093013760199 0.38015092564876851 0 -0.42791439099818629 0.38920499575277528 0 -0.43190583480743089 0.39448080966682442 0 -0.42791439099818629 0.38920499575277528 0 -0.42775062160123278 0.37554724339322842 0 -0.40982139219256553 0.3863485470615603 0 -0.42796023125247817 0.3930279007207127 0 -0.42791439099818629 0.38920499575277528 0 -0.40982139219256553 0.3863485470615603 0 -0.41491831209466801 0.37202702778326568 0 -0.42791439099818629 0.38920499575277528 0 -0.41491831209466801 0.37202702778326568 0 -0.40982139219256553 0.3863485470615603 0 -0.40348115077865171 0.37632354287301201 0 -0.41491831209466801 0.37202702778326568 0 -0.40982139219256553 0.3863485470615603 0 -0.41020277630331647 0.39826564284738042 0 -0.42796023125247817 0.3930279007207127 0 -0.41020277630331647 0.39826564284738042 0 -0.42796023125247817 0.3930279007207127 0 -0.41960795391673061 0.40799094109996747 0 -0.44253363783352362 0.39839433769342741 0 -0.43461093013760199 0.38015092564876851 0 -0.43190583480743089 0.39448080966682442 0 -0.42796023125247817 0.3930279007207127 0 -0.42825706441839229 0.41778267143864672 0 -0.41960795391673061 0.40799094109996747 0 -0.42796023125247817 0.3930279007207127 0 -0.42825706441839229 0.41778267143864672 0 -0.42796023125247817 0.3930279007207127 0 -0.43190583480743089 0.39448080966682442 0 -0.42825706441839229 0.41778267143864672 0 -0.42791439099818629 0.38920499575277528 0 -0.42796023125247817 0.3930279007207127 0 -0.43190583480743089 0.39448080966682442 0 -0.42791439099818629 0.38920499575277528 0 -0.42796023125247817 0.3930279007207127 0 -0.44253363783352362 0.39839433769342741 0 -0.43190583480743089 0.39448080966682442 0 -0.42791439099818629 0.38920499575277528 0 -0.43190583480743089 0.39448080966682442 0 -0.42796023125247817 0.3930279007207127 0 -0.43190583480743089 0.39448080966682442 0 -0.44377723293529753 0.4101721961463709 0 -0.43190583480743089 0.39448080966682442 0 -0.42825706441839229 0.41778267143864672 0 -0.42855389758430812 0.44253744215658058 0 -0.42825706441839229 0.41778267143864672 0 -0.41201174369273708 0.42288754939313039 0 -0.42855389758430812 0.44253744215658058 0 -0.440538201062181 0.42753626010714468 0 -0.42825706441839229 0.41778267143864672 0 -0.42855389758430812 0.44253744215658058 0 -0.42825706441839229 0.41778267143864672 0 -0.41382071108215762 0.44750945593888058 0 -0.41201174369273708 0.42288754939313039 0 -0.39977824891931257 0.42801053716093629 0 -0.41382071108215762 0.44750945593888058 0 -0.41201174369273708 0.42288754939313039 0 -0.41020277630331647 0.39826564284738042 0 -0.41201174369273708 0.42288754939313039 0 -0.41020277630331647 0.39826564284738042 0 -0.41201174369273708 0.42288754939313039 0 -0.40032031383484462 0.41164510905342561 0 -0.42825706441839229 0.41778267143864672 0 -0.41201174369273708 0.42288754939313039 0 -0.41960795391673061 0.40799094109996747 0 -0.41020277630331647 0.39826564284738042 0 -0.41201174369273708 0.42288754939313039 0 -0.41960795391673061 0.40799094109996747 0 -0.40032031383484462 0.41164510905342561 0 -0.39977824891931257 0.42801053716093629 0 -0.39011227118362551 0.41777791253147362 0 -0.41201174369273708 0.42288754939313039 0 -0.40032031383484462 0.41164510905342561 0 -0.39977824891931257 0.42801053716093629 0 -0.40032031383484462 0.41164510905342561 0 -0.39041560395238001 0.40753124705200189 0 -0.39011227118362551 0.41777791253147362 0 -0.39977824891931257 0.42801053716093629 0 -0.38441080564905672 0.43065320780626543 0 -0.39011227118362551 0.41777791253147362 0 -0.39700779200613018 0.44043732119473827 0 -0.39977824891931257 0.42801053716093629 0 -0.38441080564905672 0.43065320780626543 0 -0.38441080564905672 0.43065320780626543 0 -0.36998430984396169 0.41993082030680662 0 -0.37477896583113562 0.44319746245818942 0 -0.38441080564905672 0.43065320780626543 0 -0.39011227118362551 0.41777791253147362 0 -0.38131901671393797 0.41999900640245891 0 -0.38441080564905672 0.43065320780626543 0 -0.38131901671393797 0.41999900640245891 0 -0.36998430984396169 0.41993082030680662 0 -0.39041560395238001 0.40753124705200189 0 -0.39011227118362551 0.41777791253147362 0 -0.38076868017910809 0.41163408496528991 0 -0.39011227118362551 0.41777791253147362 0 -0.38131901671393797 0.41999900640245891 0 -0.38076868017910809 0.41163408496528991 0 -0.38131901671393797 0.41999900640245891 0 -0.38076868017910809 0.41163408496528991 0 -0.36998430984396169 0.41993082030680662 0 -0.38076868017910809 0.41163408496528991 0 -0.38248163558547921 0.39914243916989428 0 -0.37073110605172371 0.40553545312138989 0 -0.38248163558547921 0.39914243916989428 0 -0.37564579323536912 0.39255488417451251 0 -0.37073110605172371 0.40553545312138989 0 -0.39041560395238001 0.40753124705200189 0 -0.38248163558547921 0.39914243916989428 0 -0.39839511897884239 0.39745668953992619 0 -0.39041560395238001 0.40753124705200189 0 -0.38076868017910809 0.41163408496528991 0 -0.38248163558547921 0.39914243916989428 0 -0.38248163558547921 0.39914243916989428 0 -0.37564579323536912 0.39255488417451251 0 -0.38033016278502008 0.38777501049138707 0 -0.38248163558547921 0.39914243916989428 0 -0.38033016278502008 0.38777501049138707 0 -0.39169149597464442 0.37964490770353643 0 -0.38248163558547921 0.39914243916989428 0 -0.39169149597464442 0.37964490770353643 0 -0.37817043039509712 0.38053108116313378 0 -0.38623040449959323 0.36503840079262367 0 -0.3695517893427171 0.38357097244323451 0 -0.37564579323536912 0.39255488417451251 0 -0.37513427241190511 0.38675054564665617 0 -0.38033016278502008 0.38777501049138707 0 -0.37513427241190511 0.38675054564665617 0 -0.38033016278502008 0.38777501049138707 0 -0.37817043039509712 0.38053108116313378 0 -0.38033016278502008 0.38777501049138707 0 -0.37817043039509712 0.38053108116313378 0 -0.38339908752388541 0.38114985384892353 0 -0.37817043039509712 0.38053108116313378 0 -0.38341320378277322 0.37662413033876052 0 -0.38339908752388541 0.38114985384892353 0 -0.38341320378277322 0.37662413033876052 0 -0.39169149597464442 0.37964490770353643 0 -0.38341320378277322 0.37662413033876052 0 -0.38339908752388541 0.38114985384892353 0 -0.39169149597464442 0.37964490770353643 0 -0.38033016278502008 0.38777501049138707 0 -0.38339908752388541 0.38114985384892353 0 -0.39169149597464442 0.37964490770353643 0 -0.40982139219256553 0.3863485470615603 0 -0.39169149597464442 0.37964490770353643 0 -0.40982139219256553 0.3863485470615603 0 -0.39169149597464442 0.37964490770353643 0 -0.40348115077865171 0.37632354287301201 0 -0.39169149597464442 0.37964490770353643 0 -0.39839511897884239 0.39745668953992619 0 -0.40982139219256553 0.3863485470615603 0 -0.39169149597464442 0.37964490770353643 0 -0.39839511897884239 0.39745668953992619 0 -0.40982139219256553 0.3863485470615603 0 -0.41020277630331647 0.39826564284738042 0 -0.39839511897884239 0.39745668953992619 0 -0.38248163558547921 0.39914243916989428 0 -0.39169149597464442 0.37964490770353643 0 -0.39839511897884239 0.39745668953992619 0 -0.41020277630331647 0.39826564284738042 0 -0.40032031383484462 0.41164510905342561 0 -0.39839511897884239 0.39745668953992619 0 -0.40032031383484462 0.41164510905342561 0 -0.39041560395238001 0.40753124705200189 0 -0.39839511897884239 0.39745668953992619 0 -0.39760478478441208 0.349142339272003 0 -0.39894363130603427 0.35091200093959152 0 -0.38623040449959323 0.36503840079262367 0 -0.39894363130603427 0.35091200093959152 0 -0.4027976119743229 0.3560061187089929 0 -0.41206189043698049 0.33633554630059159 0 -0.39760478478441208 0.349142339272003 0 -0.38623040449959323 0.36503840079262367 0 -0.39069117682594462 0.34257888208226628 0 -0.39894363130603427 0.35091200093959152 0 -0.4027976119743229 0.3560061187089929 0 -0.38915161705172452 0.36495859461767932 0 -0.39894363130603427 0.35091200093959152 0 -0.38623040449959323 0.36503840079262367 0 -0.39760478478441208 0.349142339272003 0 -0.39794985496066532 0.34349739842305299 0 -0.39069117682594462 0.34257888208226628 0 -0.39760478478441208 0.349142339272003 0 -0.39894363130603427 0.35091200093959152 0 -0.39794985496066532 0.34349739842305299 0 -0.39760478478441208 0.349142339272003 0 -0.39894363130603427 0.35091200093959152 0 -0.39894363130603427 0.35091200093959152 0 -0.39794985496066532 0.34349739842305299 0 -0.40218319867212038 0.33974730087293881 0 -0.39894363130603427 0.35091200093959152 0 -0.4027976119743229 0.3560061187089929 0 -0.40348115077865171 0.37632354287301201 0 -0.39750234569472243 0.3672494032448087 0 -0.41491831209466801 0.37202702778326568 0 -0.4027976119743229 0.3560061187089929 0 -0.39750234569472243 0.3672494032448087 0 -0.41491831209466801 0.37202702778326568 0 -0.4027976119743229 0.3560061187089929 0 -0.39750234569472243 0.3672494032448087 0 -0.39750234569472243 0.3672494032448087 0 -0.41491831209466801 0.37202702778326568 0 -0.39169149597464442 0.37964490770353643 0 -0.40348115077865171 0.37632354287301201 0 -0.39750234569472243 0.3672494032448087 0 -0.39169149597464442 0.37964490770353643 0 -0.39750234569472243 0.3672494032448087 0 -0.39169149597464442 0.37964490770353643 0 -0.39750234569472243 0.3672494032448087 0 -0.38915161705172452 0.36495859461767932 0 -0.39894363130603427 0.35091200093959152 0 -0.38915161705172452 0.36495859461767932 0 -0.38623040449959323 0.36503840079262367 0 -0.4027976119743229 0.3560061187089929 0 -0.39750234569472243 0.3672494032448087 0 -0.38915161705172452 0.36495859461767932 0 -0.39750234569472243 0.3672494032448087 0 -0.38915161705172452 0.36495859461767932 0 -0.38623040449959323 0.36503840079262367 0 -0.37342124140163752 0.36916697188085651 0 -0.3695517893427171 0.38357097244323451 0 -0.38623040449959323 0.36503840079262367 0 -0.3695517893427171 0.38357097244323451 0 -0.39169149597464442 0.37964490770353643 0 -0.38915161705172452 0.36495859461767932 0 -0.38623040449959323 0.36503840079262367 0 -0.38341320378277322 0.37662413033876052 0 -0.39169149597464442 0.37964490770353643 0 -0.38623040449959323 0.36503840079262367 0 -0.39169149597464442 0.37964490770353643 0 -0.38623040449959323 0.36503840079262367 0 -0.37817043039509712 0.38053108116313378 0 -0.38341320378277322 0.37662413033876052 0 -0.38623040449959323 0.36503840079262367 0 -0.38623040449959323 0.36503840079262367 0 -0.37626286886354471 0.35719234904210811 0 -0.37342124140163752 0.36916697188085651 0 -0.38623040449959323 0.36503840079262367 0 -0.37575078440700571 0.33711079503556779 0 -0.38623040449959323 0.36503840079262367 0 -0.37575078440700571 0.33711079503556779 0 -0.39069117682594462 0.34257888208226628 0 -0.38623040449959323 0.36503840079262367 0 -0.37626286886354471 0.35719234904210811 0 -0.37575078440700571 0.33711079503556779 0 -0.37575078440700571 0.33711079503556779 0 -0.38602451026342521 0.33345756233540869 0 -0.38440729521230721 0.32205560894411378 0 -0.38602451026342521 0.33345756233540869 0 -0.39017603084007968 0.32771922114051111 0 -0.39478451638687923 0.33178920626682268 0 -0.38602451026342521 0.33345756233540869 0 -0.39069117682594462 0.34257888208226628 0 -0.39478451638687923 0.33178920626682268 0 -0.37575078440700571 0.33711079503556779 0 -0.38602451026342521 0.33345756233540869 0 -0.39069117682594462 0.34257888208226628 0 -0.38440729521230721 0.32205560894411378 0 -0.38054818181112288 0.30817221377971671 0 -0.36527116431441742 0.30918318927851229 0 -0.37575078440700571 0.33711079503556779 0 -0.38440729521230721 0.32205560894411378 0 -0.36527116431441742 0.30918318927851229 0 -0.38602451026342521 0.33345756233540869 0 -0.38440729521230721 0.32205560894411378 0 -0.39017603084007968 0.32771922114051111 0 -0.38440729521230721 0.32205560894411378 0 -0.39017603084007968 0.32771922114051111 0 -0.39548780149770751 0.32357450701569918 0 -0.38440729521230721 0.32205560894411378 0 -0.39070082007018547 0.30841337705662958 0 -0.38054818181112288 0.30817221377971671 0 -0.38440729521230721 0.32205560894411378 0 -0.39641931005929698 0.31530433823597831 0 -0.39070082007018547 0.30841337705662958 0 -0.38440729521230721 0.32205560894411378 0 -0.39641931005929698 0.31530433823597831 0 -0.39548780149770751 0.32357450701569918 0 -0.39017603084007968 0.32771922114051111 0 -0.39548780149770751 0.32357450701569918 0 -0.39478451638687923 0.33178920626682268 0 -0.39548780149770751 0.32357450701569918 0 -0.39926946126211871 0.32746592166863497 0 -0.39478451638687923 0.33178920626682268 0 -0.40345101757558077 0.32277137794760541 0 -0.40335450958830738 0.33172859544441269 0 -0.40882053521354061 0.32838621346144881 0 -0.39641931005929698 0.31530433823597831 0 -0.39548780149770751 0.32357450701569918 0 -0.40345101757558077 0.32277137794760541 0 -0.39926946126211871 0.32746592166863497 0 -0.40345101757558077 0.32277137794760541 0 -0.40335450958830738 0.33172859544441269 0 -0.39548780149770751 0.32357450701569918 0 -0.39926946126211871 0.32746592166863497 0 -0.40345101757558077 0.32277137794760541 0 -0.39641931005929698 0.31530433823597831 0 -0.40345101757558077 0.32277137794760541 0 -0.40577568074148063 0.31331425589318318 0 -0.3975945416829213 0.33769727951369499 0 -0.39069117682594462 0.34257888208226628 0 -0.39478451638687923 0.33178920626682268 0 -0.3975945416829213 0.33769727951369499 0 -0.39794985496066532 0.34349739842305299 0 -0.39069117682594462 0.34257888208226628 0 -0.39926946126211871 0.32746592166863497 0 -0.39478451638687923 0.33178920626682268 0 -0.40335450958830738 0.33172859544441269 0 -0.40335450958830738 0.33172859544441269 0 -0.40218319867212038 0.33974730087293881 0 -0.41206189043698049 0.33633554630059159 0 -0.3975945416829213 0.33769727951369499 0 -0.39478451638687923 0.33178920626682268 0 -0.40335450958830738 0.33172859544441269 0 -0.3975945416829213 0.33769727951369499 0 -0.40335450958830738 0.33172859544441269 0 -0.40218319867212038 0.33974730087293881 0 -0.39894363130603427 0.35091200093959152 0 -0.40218319867212038 0.33974730087293881 0 -0.41206189043698049 0.33633554630059159 0 -0.39894363130603427 0.35091200093959152 0 -0.41206189043698049 0.33633554630059159 0 -0.3975945416829213 0.33769727951369499 0 -0.39794985496066532 0.34349739842305299 0 -0.40218319867212038 0.33974730087293881 0 -0.40335450958830738 0.33172859544441269 0 -0.41206189043698049 0.33633554630059159 0 -0.40882053521354061 0.32838621346144881 0 -0.41206189043698049 0.33633554630059159 0 -0.40882053521354061 0.32838621346144881 0 -0.41498723601133869 0.33012424531563478 0 -0.41206189043698049 0.33633554630059159 0 -0.41498723601133869 0.33012424531563478 0 -0.41206189043698049 0.33633554630059159 0 -0.41498723601133869 0.33012424531563478 0 -0.42538259075343349 0.32153414757959442 0 -0.41206189043698049 0.33633554630059159 0 -0.42538259075343349 0.32153414757959442 0 -0.42603597053219239 0.33525820926241168 0 -0.41206189043698049 0.33633554630059159 0 -0.42538259075343349 0.32153414757959442 0 -0.41206189043698049 0.33633554630059159 0 -0.42603597053219239 0.33525820926241168 0 -0.42230703970239791 0.34382632046549899 0 -0.40345101757558077 0.32277137794760541 0 -0.40577568074148063 0.31331425589318318 0 -0.41340882676895052 0.31945884172436267 0 -0.40577568074148063 0.31331425589318318 0 -0.41340882676895052 0.31945884172436267 0 -0.41335788929563788 0.30717700771415601 0 -0.40345101757558077 0.32277137794760541 0 -0.40882053521354061 0.32838621346144881 0 -0.41340882676895052 0.31945884172436267 0 -0.40882053521354061 0.32838621346144881 0 -0.41498723601133869 0.33012424531563478 0 -0.41340882676895052 0.31945884172436267 0 -0.41498723601133869 0.33012424531563478 0 -0.41340882676895052 0.31945884172436267 0 -0.42538259075343349 0.32153414757959442 0 -0.41340882676895052 0.31945884172436267 0 -0.42538259075343349 0.32153414757959442 0 -0.42182432547229198 0.31230017906904139 0 -0.41340882676895052 0.31945884172436267 0 -0.42182432547229198 0.31230017906904139 0 -0.41335788929563788 0.30717700771415601 0 -0.42538259075343349 0.32153414757959442 0 -0.43407604488207069 0.31468332821357953 0 -0.42182432547229198 0.31230017906904139 0 -0.42538259075343349 0.32153414757959442 0 -0.43407604488207069 0.31468332821357953 0 -0.43534218188903251 0.33013130148721009 0 -0.42603597053219239 0.33525820926241168 0 -0.43238516268859539 0.34195497587961732 0 -0.42230703970239791 0.34382632046549899 0 -0.42538259075343349 0.32153414757959442 0 -0.42603597053219239 0.33525820926241168 0 -0.43534218188903251 0.33013130148721009 0 -0.42603597053219239 0.33525820926241168 0 -0.43534218188903251 0.33013130148721009 0 -0.43238516268859539 0.34195497587961732 0 -0.43534218188903251 0.33013130148721009 0 -0.43238516268859539 0.34195497587961732 0 -0.44221762840643197 0.34032168644592659 0 -0.43238516268859539 0.34195497587961732 0 -0.42925700547697831 0.35087534442687007 0 -0.43915115012453942 0.35131699318978632 0 -0.43370421661393582 0.35697903907922851 0 -0.42925700547697831 0.35087534442687007 0 -0.43915115012453942 0.35131699318978632 0 -0.43370421661393582 0.35697903907922851 0 -0.42925700547697831 0.35087534442687007 0 -0.42752866071475593 0.36121726420224859 0 -0.42925700547697831 0.35087534442687007 0 -0.41631932137501321 0.3540999903152684 0 -0.42752866071475593 0.36121726420224859 0 -0.43238516268859539 0.34195497587961732 0 -0.42925700547697831 0.35087534442687007 0 -0.42230703970239791 0.34382632046549899 0 -0.42925700547697831 0.35087534442687007 0 -0.42230703970239791 0.34382632046549899 0 -0.41631932137501321 0.3540999903152684 0 -0.4027976119743229 0.3560061187089929 0 -0.41206189043698049 0.33633554630059159 0 -0.41631932137501321 0.3540999903152684 0 -0.41206189043698049 0.33633554630059159 0 -0.42230703970239791 0.34382632046549899 0 -0.41631932137501321 0.3540999903152684 0 -0.4027976119743229 0.3560061187089929 0 -0.41206189043698049 0.33633554630059159 0 -0.41631932137501321 0.3540999903152684 0 -0.41723685500906921 0.36224292648396922 0 -0.42752866071475593 0.36121726420224859 0 -0.4027976119743229 0.3560061187089929 0 -0.41631932137501321 0.3540999903152684 0 -0.41723685500906921 0.36224292648396922 0 -0.4027976119743229 0.3560061187089929 0 -0.41491831209466801 0.37202702778326568 0 -0.4027976119743229 0.3560061187089929 0 -0.41723685500906921 0.36224292648396922 0 -0.41491831209466801 0.37202702778326568 0 -0.41723685500906921 0.36224292648396922 0 -0.41491831209466801 0.37202702778326568 0 -0.42462036888658672 0.36786423141006919 0 -0.42775062160123278 0.37554724339322842 0 -0.41491831209466801 0.37202702778326568 0 -0.42462036888658672 0.36786423141006919 0 -0.42772005428128462 0.37299804376306722 0 -0.43409247381110522 0.36923562140634048 0 -0.41491831209466801 0.37202702778326568 0 -0.42462036888658672 0.36786423141006919 0 -0.42772005428128462 0.37299804376306722 0 -0.42775062160123278 0.37554724339322842 0 -0.41491831209466801 0.37202702778326568 0 -0.42772005428128462 0.37299804376306722 0 -0.42775062160123278 0.37554724339322842 0 -0.42772005428128462 0.37299804376306722 0 -0.42462036888658672 0.36786423141006919 0 -0.42752866071475593 0.36121726420224859 0 -0.43409247381110522 0.36923562140634048 0 -0.41723685500906921 0.36224292648396922 0 -0.42462036888658672 0.36786423141006919 0 -0.42752866071475593 0.36121726420224859 0 -0.42752866071475593 0.36121726420224859 0 -0.43409342430063169 0.36248865140564568 0 -0.43409247381110522 0.36923562140634048 0 -0.43370421661393582 0.35697903907922851 0 -0.42752866071475593 0.36121726420224859 0 -0.43409342430063169 0.36248865140564568 0 -0.43409342430063169 0.36248865140564568 0 -0.43409247381110522 0.36923562140634048 0 -0.44104834606273002 0.36252268093476531 0 -0.43370421661393582 0.35697903907922851 0 -0.43409342430063169 0.36248865140564568 0 -0.44104834606273002 0.36252268093476531 0 -0.42775062160123278 0.37554724339322842 0 -0.42772005428128462 0.37299804376306722 0 -0.43409247381110522 0.36923562140634048 0 -0.45453401792550202 0.38289458252810671 0 -0.44104834606273002 0.36252268093476531 0 -0.45171490062311509 0.35423720129140529 0 -0.45453401792550202 0.38289458252810671 0 -0.43409247381110522 0.36923562140634048 0 -0.44104834606273002 0.36252268093476531 0 -0.43238516268859539 0.34195497587961732 0 -0.43915115012453942 0.35131699318978632 0 -0.44221762840643197 0.34032168644592659 0 -0.43915115012453942 0.35131699318978632 0 -0.45171490062311509 0.35423720129140529 0 -0.44221762840643197 0.34032168644592659 0 -0.44104834606273002 0.36252268093476531 0 -0.43915115012453942 0.35131699318978632 0 -0.45171490062311509 0.35423720129140529 0 -0.43370421661393582 0.35697903907922851 0 -0.44104834606273002 0.36252268093476531 0 -0.43915115012453942 0.35131699318978632 0 -0.45171490062311509 0.35423720129140529 0 -0.4773738252956421 0.35963617065716619 0 -0.46779345204775941 0.33707023963406407 0 -0.45453401792550202 0.38289458252810671 0 -0.45171490062311509 0.35423720129140529 0 -0.45453401792550202 0.38289458252810671 0 -0.45171490062311509 0.35423720129140529 0 -0.45474765059128519 0.36778856812317662 0 -0.45171490062311509 0.35423720129140529 0 -0.45474765059128519 0.36778856812317662 0 -0.4773738252956421 0.35963617065716619 0 -0.45474765059128519 0.36778856812317662 0 -0.4773738252956421 0.35963617065716619 0 -0.45474765059128519 0.36778856812317662 0 -0.46967153096785208 0.37493025056239182 0 -0.4773738252956421 0.35963617065716619 0 -0.48459088128462358 0.37640258866550569 0 -0.46967153096785208 0.37493025056239182 0 -0.4773738252956421 0.35963617065716619 0 -0.4773738252956421 0.35963617065716619 0 -0.4862597303894628 0.33716487791562488 0 -0.46779345204775941 0.33707023963406407 0 -0.4773738252956421 0.35963617065716619 0 -0.49999999999999911 0.3514837731911562 0 -0.4773738252956421 0.35963617065716619 0 -0.49999999999999911 0.3514837731911562 0 -0.4862597303894628 0.33716487791562488 0 -0.4773738252956421 0.35963617065716619 0 -0.49999999999999911 0.3514837731911562 0 -0.5 0.37342539199314218 0 -0.48459088128462358 0.37640258866550569 0 -0.4773738252956421 0.35963617065716619 0 -0.5 0.37342539199314218 0 -0.5 0.32292968216348428 0 -0.4862597303894628 0.33716487791562488 0 -0.47553697458777783 0.31433959401027223 0 -0.49999999999999911 0.3514837731911562 0 -0.5 0.32292968216348428 0 -0.4862597303894628 0.33716487791562488 0 -0.4862597303894628 0.33716487791562488 0 -0.47553697458777783 0.31433959401027223 0 -0.46779345204775941 0.33707023963406407 0 -0.47553697458777783 0.31433959401027223 0 -0.46779345204775941 0.33707023963406407 0 -0.4488957833207271 0.32557982005470387 0 -0.45171490062311509 0.35423720129140529 0 -0.46779345204775941 0.33707023963406407 0 -0.4488957833207271 0.32557982005470387 0 -0.45171490062311509 0.35423720129140529 0 -0.4488957833207271 0.32557982005470387 0 -0.45171490062311509 0.35423720129140529 0 -0.44221762840643197 0.34032168644592659 0 -0.4488957833207271 0.32557982005470387 0 -0.43534218188903251 0.33013130148721009 0 -0.44221762840643197 0.34032168644592659 0 -0.4488957833207271 0.32557982005470387 0 -0.43407604488207069 0.31468332821357953 0 -0.43534218188903251 0.33013130148721009 0 -0.4488957833207271 0.32557982005470387 0 -0.47553697458777783 0.31433959401027223 0 -0.44607666601833912 0.2969224388180024 0 -0.47851823620786549 0.28629265858851849 0 -0.4488957833207271 0.32557982005470387 0 -0.44607666601833912 0.2969224388180024 0 -0.43407604488207069 0.31468332821357953 0 -0.4488957833207271 0.32557982005470387 0 -0.44607666601833912 0.2969224388180024 0 -0.44607666601833912 0.2969224388180024 0 -0.47851823620786549 0.28629265858851849 0 -0.46409093376866289 0.26844180654966732 0 -0.44607666601833912 0.2969224388180024 0 -0.44462505654103679 0.27776524193284791 0 -0.42795925344677449 0.2833232432392605 0 -0.47553697458777783 0.31433959401027223 0 -0.4488957833207271 0.32557982005470387 0 -0.44607666601833912 0.2969224388180024 0 -0.47851823620786549 0.28629265858851849 0 -0.5 0.29437559113581252 0 -0.5 0.26582150010814071 0 -0.47553697458777783 0.31433959401027223 0 -0.47851823620786549 0.28629265858851849 0 -0.5 0.29437559113581252 0 -0.5 0.32292968216348428 0 -0.47553697458777783 0.31433959401027223 0 -0.5 0.29437559113581252 0 -0.5 0.23726740908046881 0 -0.5 0.26582150010814071 0 -0.48066999489751339 0.25852732013788748 0 -0.47851823620786549 0.28629265858851849 0 -0.5 0.26582150010814071 0 -0.48066999489751339 0.25852732013788748 0 -0.47851823620786549 0.28629265858851849 0 -0.48066999489751339 0.25852732013788748 0 -0.46409093376866289 0.26844180654966732 0 -0.48066999489751339 0.25852732013788748 0 -0.45574066329194513 0.25003258838346459 0 -0.46409093376866289 0.26844180654966732 0 -0.45574066329194513 0.25003258838346459 0 -0.46409093376866289 0.26844180654966732 0 -0.44037337293037071 0.26237347912446141 0 -0.44462505654103679 0.27776524193284791 0 -0.44037337293037071 0.26237347912446141 0 -0.42795925344677449 0.2833232432392605 0 -0.44607666601833912 0.2969224388180024 0 -0.46409093376866289 0.26844180654966732 0 -0.44462505654103679 0.27776524193284791 0 -0.46409093376866289 0.26844180654966732 0 -0.44462505654103679 0.27776524193284791 0 -0.44037337293037071 0.26237347912446141 0 -0.43680818869299493 0.24410097083118909 0 -0.45574066329194513 0.25003258838346459 0 -0.44037337293037071 0.26237347912446141 0 -0.46409093376866289 0.26844180654966732 0 -0.44037337293037071 0.26237347912446141 0 -0.41882121896155328 0.24890347203934621 0 -0.43680818869299493 0.24410097083118909 0 -0.44037337293037071 0.26237347912446141 0 -0.44037337293037071 0.26237347912446141 0 -0.41665581209207853 0.25630515169925561 0 -0.41839189543763361 0.27040813782112871 0 -0.41882121896155328 0.24890347203934621 0 -0.44037337293037071 0.26237347912446141 0 -0.41665581209207853 0.25630515169925561 0 -0.44037337293037071 0.26237347912446141 0 -0.41665581209207853 0.25630515169925561 0 -0.41882121896155328 0.24890347203934621 0 -0.41665581209207853 0.25630515169925561 0 -0.39293825125378617 0.2502368242740497 0 -0.41665581209207853 0.25630515169925561 0 -0.41058953422092348 0.26428066329482042 0 -0.41839189543763361 0.27040813782112871 0 -0.41665581209207853 0.25630515169925561 0 -0.41058953422092348 0.26428066329482042 0 -0.40338799354876531 0.25896493643055479 0 -0.41839189543763361 0.27040813782112871 0 -0.41240141367407179 0.28209056442258928 0 -0.40615112027779288 0.27254421019779868 0 -0.41240141367407179 0.28209056442258928 0 -0.40615112027779288 0.27254421019779868 0 -0.40244968961238847 0.28093017919245888 0 -0.41058953422092348 0.26428066329482042 0 -0.41839189543763361 0.27040813782112871 0 -0.40615112027779288 0.27254421019779868 0 -0.41839189543763361 0.27040813782112871 0 -0.42795925344677449 0.2833232432392605 0 -0.41240141367407179 0.28209056442258928 0 -0.44037337293037071 0.26237347912446141 0 -0.41839189543763361 0.27040813782112871 0 -0.42795925344677449 0.2833232432392605 0 -0.44607666601833912 0.2969224388180024 0 -0.42795925344677449 0.2833232432392605 0 -0.42693472183860071 0.30163208227292532 0 -0.42795925344677449 0.2833232432392605 0 -0.42693472183860071 0.30163208227292532 0 -0.41634819144757251 0.29429923276961589 0 -0.43407604488207069 0.31468332821357953 0 -0.44607666601833912 0.2969224388180024 0 -0.42693472183860071 0.30163208227292532 0 -0.43407604488207069 0.31468332821357953 0 -0.42693472183860071 0.30163208227292532 0 -0.42182432547229198 0.31230017906904139 0 -0.42693472183860071 0.30163208227292532 0 -0.42182432547229198 0.31230017906904139 0 -0.41335788929563788 0.30717700771415601 0 -0.42693472183860071 0.30163208227292532 0 -0.41335788929563788 0.30717700771415601 0 -0.41634819144757251 0.29429923276961589 0 -0.41335788929563788 0.30717700771415601 0 -0.41634819144757251 0.29429923276961589 0 -0.40535941710686951 0.30165301483172768 0 -0.40577568074148063 0.31331425589318318 0 -0.41335788929563788 0.30717700771415601 0 -0.40535941710686951 0.30165301483172768 0 -0.42795925344677449 0.2833232432392605 0 -0.41634819144757251 0.29429923276961589 0 -0.41240141367407179 0.28209056442258928 0 -0.41634819144757251 0.29429923276961589 0 -0.41240141367407179 0.28209056442258928 0 -0.40289364632853369 0.29094345317180459 0 -0.41634819144757251 0.29429923276961589 0 -0.40289364632853369 0.29094345317180459 0 -0.40535941710686951 0.30165301483172768 0 -0.40289364632853369 0.29094345317180459 0 -0.39341881518664867 0.28348927493355952 0 -0.40244968961238847 0.28093017919245888 0 -0.41240141367407179 0.28209056442258928 0 -0.40289364632853369 0.29094345317180459 0 -0.40244968961238847 0.28093017919245888 0 -0.39385551932748092 0.29247594426434648 0 -0.39341881518664867 0.28348927493355952 0 -0.3848683527113575 0.29290229198813561 0 -0.40289364632853369 0.29094345317180459 0 -0.39385551932748092 0.29247594426434648 0 -0.39607386022220059 0.30065501758476781 0 -0.40289364632853369 0.29094345317180459 0 -0.39385551932748092 0.29247594426434648 0 -0.39341881518664867 0.28348927493355952 0 -0.39641931005929698 0.31530433823597831 0 -0.40577568074148063 0.31331425589318318 0 -0.39886581764000661 0.30786800072045728 0 -0.40577568074148063 0.31331425589318318 0 -0.39886581764000661 0.30786800072045728 0 -0.40535941710686951 0.30165301483172768 0 -0.40289364632853369 0.29094345317180459 0 -0.40535941710686951 0.30165301483172768 0 -0.39607386022220059 0.30065501758476781 0 -0.39886581764000661 0.30786800072045728 0 -0.40535941710686951 0.30165301483172768 0 -0.39607386022220059 0.30065501758476781 0 -0.39385551932748092 0.29247594426434648 0 -0.39607386022220059 0.30065501758476781 0 -0.38652333743834438 0.30111415663486141 0 -0.39607386022220059 0.30065501758476781 0 -0.39070082007018547 0.30841337705662958 0 -0.38652333743834438 0.30111415663486141 0 -0.39886581764000661 0.30786800072045728 0 -0.39607386022220059 0.30065501758476781 0 -0.39070082007018547 0.30841337705662958 0 -0.39641931005929698 0.31530433823597831 0 -0.39886581764000661 0.30786800072045728 0 -0.39070082007018547 0.30841337705662958 0 -0.39070082007018547 0.30841337705662958 0 -0.38652333743834438 0.30111415663486141 0 -0.38054818181112288 0.30817221377971671 0 -0.38652333743834438 0.30111415663486141 0 -0.37662671737014292 0.29820034360802372 0 -0.3848683527113575 0.29290229198813561 0 -0.38652333743834438 0.30111415663486141 0 -0.37662671737014292 0.29820034360802372 0 -0.38054818181112288 0.30817221377971671 0 -0.39341881518664867 0.28348927493355952 0 -0.3836948730370604 0.2835697523009712 0 -0.3848683527113575 0.29290229198813561 0 -0.39385551932748092 0.29247594426434648 0 -0.38652333743834438 0.30111415663486141 0 -0.3848683527113575 0.29290229198813561 0 -0.37662671737014292 0.29820034360802372 0 -0.3848683527113575 0.29290229198813561 0 -0.37915024460326729 0.28914095894694369 0 -0.37662671737014292 0.29820034360802372 0 -0.37915024460326729 0.28914095894694369 0 -0.37264379992894958 0.29023317886314642 0 -0.3836948730370604 0.2835697523009712 0 -0.3848683527113575 0.29290229198813561 0 -0.37915024460326729 0.28914095894694369 0 -0.37915024460326729 0.28914095894694369 0 -0.37430789959613919 0.2835178153812663 0 -0.37264379992894958 0.29023317886314642 0 -0.3836948730370604 0.2835697523009712 0 -0.37915024460326729 0.28914095894694369 0 -0.37430789959613919 0.2835178153812663 0 -0.3836948730370604 0.2835697523009712 0 -0.37663035468755812 0.27553453209175438 0 -0.38663594890360459 0.27329230202367899 0 -0.3836948730370604 0.2835697523009712 0 -0.37663035468755812 0.27553453209175438 0 -0.37430789959613919 0.2835178153812663 0 -0.39341881518664867 0.28348927493355952 0 -0.3836948730370604 0.2835697523009712 0 -0.38663594890360459 0.27329230202367899 0 -0.38663594890360459 0.27329230202367899 0 -0.38401094264450758 0.26057666355384279 0 -0.39264447540738201 0.26662697095049692 0 -0.38663594890360459 0.27329230202367899 0 -0.37848868081655052 0.2675105835208007 0 -0.38401094264450758 0.26057666355384279 0 -0.37663035468755812 0.27553453209175438 0 -0.38663594890360459 0.27329230202367899 0 -0.37848868081655052 0.2675105835208007 0 -0.37663035468755812 0.27553453209175438 0 -0.37848868081655052 0.2675105835208007 0 -0.37037682723861959 0.26727391500207881 0 -0.37848868081655052 0.2675105835208007 0 -0.38401094264450758 0.26057666355384279 0 -0.37486325442501678 0.26073283313956191 0 -0.38401094264450758 0.26057666355384279 0 -0.39293825125378617 0.2502368242740497 0 -0.37406840350984721 0.2512088980308913 0 -0.39293825125378617 0.2502368242740497 0 -0.37406840350984721 0.2512088980308913 0 -0.38401094264450758 0.26057666355384279 0 -0.37406840350984721 0.2512088980308913 0 -0.37486325442501678 0.26073283313956191 0 -0.38401094264450758 0.26057666355384279 0 -0.39495934991628462 0.26005324173829247 0 -0.39264447540738201 0.26662697095049692 0 -0.41665581209207853 0.25630515169925561 0 -0.39293825125378617 0.2502368242740497 0 -0.39495934991628462 0.26005324173829247 0 -0.40084064564293442 0.26592065812435339 0 -0.39264447540738201 0.26662697095049692 0 -0.41665581209207853 0.25630515169925561 0 -0.39293825125378617 0.2502368242740497 0 -0.40338799354876531 0.25896493643055479 0 -0.39495934991628462 0.26005324173829247 0 -0.39293825125378617 0.2502368242740497 0 -0.40338799354876531 0.25896493643055479 0 -0.38401094264450758 0.26057666355384279 0 -0.39495934991628462 0.26005324173829247 0 -0.39293825125378617 0.2502368242740497 0 -0.39495934991628462 0.26005324173829247 0 -0.40338799354876531 0.25896493643055479 0 -0.40084064564293442 0.26592065812435339 0 -0.41058953422092348 0.26428066329482042 0 -0.40338799354876531 0.25896493643055479 0 -0.40084064564293442 0.26592065812435339 0 -0.41058953422092348 0.26428066329482042 0 -0.40615112027779288 0.27254421019779868 0 -0.40084064564293442 0.26592065812435339 0 -0.40615112027779288 0.27254421019779868 0 -0.40084064564293442 0.26592065812435339 0 -0.39682417994443542 0.27408384845507489 0 -0.40615112027779288 0.27254421019779868 0 -0.40244968961238847 0.28093017919245888 0 -0.39682417994443542 0.27408384845507489 0 -0.39341881518664867 0.28348927493355952 0 -0.38663594890360459 0.27329230202367899 0 -0.39682417994443542 0.27408384845507489 0 -0.39341881518664867 0.28348927493355952 0 -0.40244968961238847 0.28093017919245888 0 -0.39682417994443542 0.27408384845507489 0 -0.40084064564293442 0.26592065812435339 0 -0.39682417994443542 0.27408384845507489 0 -0.39264447540738201 0.26662697095049692 0 -0.38663594890360459 0.27329230202367899 0 -0.39682417994443542 0.27408384845507489 0 -0.39264447540738201 0.26662697095049692 0 -0.35173936824764668 0.2731217039957694 0 -0.35729057909371892 0.27283573526643079 0 -0.35519855576590831 0.25218097178773291 0 -0.35173936824764668 0.2731217039957694 0 -0.35729057909371892 0.27283573526643079 0 -0.35938260242153269 0.29349049874512828 0 -0.35173936824764668 0.2731217039957694 0 -0.34567540571331978 0.27579181334323138 0 -0.34759360099627762 0.28653950875448547 0 -0.35173936824764668 0.2731217039957694 0 -0.34085362917079071 0.26627310869872423 0 -0.34143470612516769 0.26050274255936218 0 -0.35173936824764668 0.2731217039957694 0 -0.34567540571331978 0.27579181334323138 0 -0.34085362917079071 0.26627310869872423 0 -0.35173936824764668 0.2731217039957694 0 -0.34409613407375822 0.25275290924641147 0 -0.35519855576590831 0.25218097178773291 0 -0.35729057909371892 0.27283573526643079 0 -0.35519855576590831 0.25218097178773291 0 -0.35173936824764668 0.2731217039957694 0 -0.34409613407375822 0.25275290924641147 0 -0.34143470612516769 0.26050274255936218 0 -0.35173936824764668 0.2731217039957694 0 -0.34409613407375822 0.25275290924641147 0 -0.34409613407375822 0.25275290924641147 0 -0.35519855576590831 0.25218097178773291 0 -0.35519855576590831 0.25218097178773291 0 -0.37406840350984721 0.2512088980308913 0 -0.35729057909371892 0.27283573526643079 0 -0.35519855576590831 0.25218097178773291 0 -0.36672600020735052 0.25892223693520039 0 -0.35519855576590831 0.25218097178773291 0 -0.36672600020735052 0.25892223693520039 0 -0.37406840350984721 0.2512088980308913 0 -0.36672600020735052 0.25892223693520039 0 -0.37406840350984721 0.2512088980308913 0 -0.37486325442501678 0.26073283313956191 0 -0.36672600020735052 0.25892223693520039 0 -0.37486325442501678 0.26073283313956191 0 -0.37037682723861959 0.26727391500207881 0 -0.37848868081655052 0.2675105835208007 0 -0.37486325442501678 0.26073283313956191 0 -0.37037682723861959 0.26727391500207881 0 -0.37663035468755812 0.27553453209175438 0 -0.37037682723861959 0.26727391500207881 0 -0.3675382700360969 0.27561032731831903 0 -0.35729057909371892 0.27283573526643079 0 -0.36672600020735052 0.25892223693520039 0 -0.37037682723861959 0.26727391500207881 0 -0.35729057909371892 0.27283573526643079 0 -0.37037682723861959 0.26727391500207881 0 -0.3675382700360969 0.27561032731831903 0 -0.35729057909371892 0.27283573526643079 0 -0.3675382700360969 0.27561032731831903 0 -0.36638973218867571 0.28538528258850482 0 -0.37663035468755812 0.27553453209175438 0 -0.3675382700360969 0.27561032731831903 0 -0.37430789959613919 0.2835178153812663 0 -0.37430789959613919 0.2835178153812663 0 -0.37264379992894958 0.29023317886314642 0 -0.36638973218867571 0.28538528258850482 0 -0.3675382700360969 0.27561032731831903 0 -0.37430789959613919 0.2835178153812663 0 -0.36638973218867571 0.28538528258850482 0 -0.35729057909371892 0.27283573526643079 0 -0.35938260242153269 0.29349049874512828 0 -0.36638973218867571 0.28538528258850482 0 -0.37264379992894958 0.29023317886314642 0 -0.36633046318323331 0.29523325840186843 0 -0.36638973218867571 0.28538528258850482 0 -0.37662671737014292 0.29820034360802372 0 -0.37264379992894958 0.29023317886314642 0 -0.36633046318323331 0.29523325840186843 0 -0.36633046318323331 0.29523325840186843 0 -0.35938260242153269 0.29349049874512828 0 -0.36638973218867571 0.28538528258850482 0 -0.36633046318323331 0.29523325840186843 0 -0.35938260242153269 0.29349049874512828 0 -0.36527116431441742 0.30918318927851229 0 -0.35938260242153269 0.29349049874512828 0 -0.36140583790278652 0.31346611267422742 0 -0.35938260242153269 0.29349049874512828 0 -0.36527116431441742 0.30918318927851229 0 -0.35938260242153269 0.29349049874512828 0 -0.36527116431441742 0.30918318927851229 0 -0.36140583790278652 0.31346611267422742 0 -0.37662671737014292 0.29820034360802372 0 -0.38054818181112288 0.30817221377971671 0 -0.36527116431441742 0.30918318927851229 0 -0.37662671737014292 0.29820034360802372 0 -0.36633046318323331 0.29523325840186843 0 -0.36527116431441742 0.30918318927851229 0 -0.36633046318323331 0.29523325840186843 0 -0.36527116431441742 0.30918318927851229 0 -0.35938260242153269 0.29349049874512828 0 -0.34796839334054391 0.3080742640220086 0 -0.36140583790278652 0.31346611267422742 0 -0.35938260242153269 0.29349049874512828 0 -0.34796839334054391 0.3080742640220086 0 -0.34524932995517738 0.29601166707325599 0 -0.34796839334054391 0.3080742640220086 0 -0.33745571547703201 0.31068572242090708 0 -0.34968832810868122 0.31718648723179599 0 -0.35173936824764668 0.2731217039957694 0 -0.35938260242153269 0.29349049874512828 0 -0.34759360099627762 0.28653950875448547 0 -0.35173936824764668 0.2731217039957694 0 -0.35938260242153269 0.29349049874512828 0 -0.35729057909371892 0.27283573526643079 0 -0.35938260242153269 0.29349049874512828 0 -0.35938260242153269 0.29349049874512828 0 -0.34524932995517738 0.29601166707325599 0 -0.34759360099627762 0.28653950875448547 0 -0.34567540571331978 0.27579181334323138 0 -0.3353213806594873 0.29199962087348452 0 -0.34567540571331978 0.27579181334323138 0 -0.34759360099627762 0.28653950875448547 0 -0.3353213806594873 0.29199962087348452 0 -0.34524932995517738 0.29601166707325599 0 -0.3353213806594873 0.29199962087348452 0 -0.33598067235804779 0.2999544429711728 0 -0.34524932995517738 0.29601166707325599 0 -0.34759360099627762 0.28653950875448547 0 -0.3353213806594873 0.29199962087348452 0 -0.3353213806594873 0.29199962087348452 0 -0.33598067235804779 0.2999544429711728 0 -0.3353213806594873 0.29199962087348452 0 -0.33598067235804779 0.2999544429711728 0 -0.31997976884931401 0.31601481207983839 0 -0.33745571547703201 0.31068572242090708 0 -0.33598067235804779 0.2999544429711728 0 -0.31997976884931401 0.31601481207983839 0 -0.34796839334054391 0.3080742640220086 0 -0.33745571547703201 0.31068572242090708 0 -0.33598067235804779 0.2999544429711728 0 -0.34796839334054391 0.3080742640220086 0 -0.34524932995517738 0.29601166707325599 0 -0.33598067235804779 0.2999544429711728 0 -0.3353213806594873 0.29199962087348452 0 -0.31997976884931401 0.31601481207983839 0 -0.31274844065177482 0.29422045014397891 0 -0.30555696277876099 0.30893275765005251 0 -0.31997976884931401 0.31601481207983839 0 -0.3353213806594873 0.29199962087348452 0 -0.31274844065177482 0.29422045014397891 0 -0.31997976884931401 0.31601481207983839 0 -0.3353213806594873 0.29199962087348452 0 -0.31274844065177482 0.29422045014397891 0 -0.31898614301051648 0.27676953845067642 0 -0.3353213806594873 0.29199962087348452 0 -0.31898614301051648 0.27676953845067642 0 -0.33294635508717108 0.26334325230936212 0 -0.34567540571331978 0.27579181334323138 0 -0.3353213806594873 0.29199962087348452 0 -0.33294635508717108 0.26334325230936212 0 -0.3353213806594873 0.29199962087348452 0 -0.33294635508717108 0.26334325230936212 0 -0.34567540571331978 0.27579181334323138 0 -0.34085362917079071 0.26627310869872423 0 -0.33294635508717108 0.26334325230936212 0 -0.33121304248314659 0.24242960599044419 0 -0.3379494868404348 0.25306955167772099 0 -0.33294635508717108 0.26334325230936212 0 -0.33121304248314659 0.24242960599044419 0 -0.33294635508717108 0.26334325230936212 0 -0.34409613407375822 0.25275290924641147 0 -0.3379494868404348 0.25306955167772099 0 -0.34409613407375822 0.25275290924641147 0 -0.3379494868404348 0.25306955167772099 0 -0.34143470612516769 0.26050274255936218 0 -0.3379494868404348 0.25306955167772099 0 -0.34143470612516769 0.26050274255936218 0 -0.33294635508717108 0.26334325230936212 0 -0.34085362917079071 0.26627310869872423 0 -0.33294635508717108 0.26334325230936212 0 -0.34085362917079071 0.26627310869872423 0 -0.34143470612516769 0.26050274255936218 0 -0.33294635508717108 0.26334325230936212 0 -0.33294635508717108 0.26334325230936212 0 -0.31292664561224232 0.25592541487284931 0 -0.31898614301051648 0.27676953845067642 0 -0.33294635508717108 0.26334325230936212 0 -0.31292664561224232 0.25592541487284931 0 -0.33121304248314659 0.24242960599044419 0 -0.33294635508717108 0.26334325230936212 0 -0.31292664561224232 0.25592541487284931 0 -0.29290693613731411 0.24850757743633481 0 -0.31292664561224232 0.25592541487284931 0 -0.29290693613731411 0.24850757743633481 0 -0.31292664561224232 0.25592541487284931 0 -0.29186641398752 0.2644150317449242 0 -0.31292664561224232 0.25592541487284931 0 -0.30098789304190632 0.27835895405370709 0 -0.29186641398752 0.2644150317449242 0 -0.31898614301051648 0.27676953845067642 0 -0.31292664561224232 0.25592541487284931 0 -0.30098789304190632 0.27835895405370709 0 -0.30098789304190632 0.27835895405370709 0 -0.29186641398752 0.2644150317449242 0 -0.2761282923790106 0.28398773365473151 0 -0.29186641398752 0.2644150317449242 0 -0.27650373764531211 0.25956298974931619 0 -0.2761282923790106 0.28398773365473151 0 -0.29290693613731411 0.24850757743633481 0 -0.29186641398752 0.2644150317449242 0 -0.27650373764531211 0.25956298974931619 0 -0.27288722666238591 0.24108973999982011 0 -0.27650373764531211 0.25956298974931619 0 -0.26542126265953442 0.25470793440585782 0 -0.27650373764531211 0.25956298974931619 0 -0.2586972770707342 0.26766932234701102 0 -0.26542126265953442 0.25470793440585782 0 -0.27650373764531211 0.25956298974931619 0 -0.2586972770707342 0.26766932234701102 0 -0.2761282923790106 0.28398773365473151 0 -0.2586972770707342 0.26766932234701102 0 -0.2761282923790106 0.28398773365473151 0 -0.2586972770707342 0.26766932234701102 0 -0.25790854374248068 0.2850424150972381 0 -0.24900133351229239 0.27563227110277427 0 -0.2586972770707342 0.26766932234701102 0 -0.25790854374248068 0.2850424150972381 0 -0.2761282923790106 0.28398773365473151 0 -0.2586972770707342 0.26766932234701102 0 -0.25359680925970529 0.25050968552728381 0 -0.2412662617624578 0.25135091103929058 0 -0.2586972770707342 0.26766932234701102 0 -0.26542126265953442 0.25470793440585782 0 -0.25359680925970529 0.25050968552728381 0 -0.2620852301748845 0.30979072126604001 0 -0.24531862700545601 0.31417757358992798 0 -0.2620852301748845 0.30979072126604001 0 -0.25196061543158332 0.30526051510166191 0 -0.24531862700545601 0.31417757358992798 0 -0.25929942729798539 0.30077276878191911 0 -0.2620852301748845 0.30979072126604001 0 -0.266962910861614 0.30285448817196953 0 -0.25929942729798539 0.30077276878191911 0 -0.26761515262927288 0.29545059369776572 0 -0.266962910861614 0.30285448817196953 0 -0.25929942729798539 0.30077276878191911 0 -0.2620852301748845 0.30979072126604001 0 -0.25196061543158332 0.30526051510166191 0 -0.25929942729798539 0.30077276878191911 0 -0.25196061543158332 0.30526051510166191 0 -0.24993271077240739 0.29678087560504302 0 -0.25929942729798539 0.30077276878191911 0 -0.25790854374248068 0.2850424150972381 0 -0.26761515262927288 0.29545059369776572 0 -0.25929942729798539 0.30077276878191911 0 -0.25790854374248068 0.2850424150972381 0 -0.24993271077240739 0.29678087560504302 0 -0.25790854374248068 0.2850424150972381 0 -0.2469496641305429 0.28552353553695498 0 -0.24993271077240739 0.29678087560504302 0 -0.25790854374248068 0.2850424150972381 0 -0.2469496641305429 0.28552353553695498 0 -0.24900133351229239 0.27563227110277427 0 -0.26761515262927288 0.29545059369776572 0 -0.2761282923790106 0.28398773365473151 0 -0.27885183334431329 0.30540386894215321 0 -0.25790854374248068 0.2850424150972381 0 -0.26761515262927288 0.29545059369776572 0 -0.2761282923790106 0.28398773365473151 0 -0.2620852301748845 0.30979072126604001 0 -0.27885183334431329 0.30540386894215321 0 -0.2620852301748845 0.30979072126604001 0 -0.27898457963342771 0.31107572379960768 0 -0.26409695872260142 0.31448921566092092 0 -0.2620852301748845 0.30979072126604001 0 -0.27885183334431329 0.30540386894215321 0 -0.27898457963342771 0.31107572379960768 0 -0.2620852301748845 0.30979072126604001 0 -0.266962910861614 0.30285448817196953 0 -0.27885183334431329 0.30540386894215321 0 -0.26761515262927288 0.29545059369776572 0 -0.266962910861614 0.30285448817196953 0 -0.27885183334431329 0.30540386894215321 0 -0.27898457963342771 0.31107572379960768 0 -0.28742919147196921 0.30826929759074478 0 -0.284829507903546 0.31434772196399818 0 -0.28742919147196921 0.30826929759074478 0 -0.29346307855137582 0.31282029158276708 0 -0.284829507903546 0.31434772196399818 0 -0.27885183334431329 0.30540386894215321 0 -0.27898457963342771 0.31107572379960768 0 -0.28742919147196921 0.30826929759074478 0 -0.27885183334431329 0.30540386894215321 0 -0.28742919147196921 0.30826929759074478 0 -0.293559307687287 0.30030614496245178 0 -0.28742919147196921 0.30826929759074478 0 -0.293559307687287 0.30030614496245178 0 -0.29346307855137582 0.31282029158276708 0 -0.2761282923790106 0.28398773365473151 0 -0.293559307687287 0.30030614496245178 0 -0.2761282923790106 0.28398773365473151 0 -0.27885183334431329 0.30540386894215321 0 -0.293559307687287 0.30030614496245178 0 -0.30098789304190632 0.27835895405370709 0 -0.2761282923790106 0.28398773365473151 0 -0.293559307687287 0.30030614496245178 0 -0.31274844065177482 0.29422045014397891 0 -0.30098789304190632 0.27835895405370709 0 -0.293559307687287 0.30030614496245178 0 -0.31274844065177482 0.29422045014397891 0 -0.31898614301051648 0.27676953845067642 0 -0.30098789304190632 0.27835895405370709 0 -0.31274844065177482 0.29422045014397891 0 -0.293559307687287 0.30030614496245178 0 -0.30555696277876099 0.30893275765005251 0 -0.293559307687287 0.30030614496245178 0 -0.30555696277876099 0.30893275765005251 0 -0.29346307855137582 0.31282029158276708 0 -0.30555696277876099 0.30893275765005251 0 -0.30035013090832391 0.32267963823667911 0 -0.31997976884931401 0.31601481207983839 0 -0.30035013090832391 0.32267963823667911 0 -0.30463815703914032 0.34003000328619198 0 -0.31997976884931401 0.31601481207983839 0 -0.30463815703914032 0.34003000328619198 0 -0.31997976884931401 0.31601481207983839 0 -0.30555696277876099 0.30893275765005251 0 -0.30035013090832391 0.32267963823667911 0 -0.29346307855137582 0.31282029158276708 0 -0.30035013090832391 0.32267963823667911 0 -0.30463815703914032 0.34003000328619198 0 -0.28588889919231653 0.34540343495234982 0 -0.30035013090832391 0.32267963823667911 0 -0.28588889919231653 0.34540343495234982 0 -0.30035013090832391 0.32267963823667911 0 -0.28619062419134078 0.33602346985936649 0 -0.28588889919231653 0.34540343495234982 0 -0.28619062419134078 0.33602346985936649 0 -0.28282685966038068 0.32761399890220488 0 -0.2811532956342323 0.33301169002177489 0 -0.28619062419134078 0.33602346985936649 0 -0.2811532956342323 0.33301169002177489 0 -0.27791489012668941 0.33759140917954122 0 -0.28619062419134078 0.33602346985936649 0 -0.28905337055836788 0.3223861890926763 0 -0.28282685966038068 0.32761399890220488 0 -0.28619062419134078 0.33602346985936649 0 -0.2837319019792367 0.34055729630791443 0 -0.27791489012668941 0.33759140917954122 0 -0.28619062419134078 0.33602346985936649 0 -0.2837319019792367 0.34055729630791443 0 -0.28588889919231653 0.34540343495234982 0 -0.2837319019792367 0.34055729630791443 0 -0.28250858319164701 0.34300180804643282 0 -0.27791489012668941 0.33759140917954122 0 -0.2837319019792367 0.34055729630791443 0 -0.28250858319164701 0.34300180804643282 0 -0.28588889919231653 0.34540343495234982 0 -0.29346307855137582 0.31282029158276708 0 -0.28905337055836788 0.3223861890926763 0 -0.284829507903546 0.31434772196399818 0 -0.30035013090832391 0.32267963823667911 0 -0.29346307855137582 0.31282029158276708 0 -0.28905337055836788 0.3223861890926763 0 -0.30035013090832391 0.32267963823667911 0 -0.28619062419134078 0.33602346985936649 0 -0.28905337055836788 0.3223861890926763 0 -0.28905337055836788 0.3223861890926763 0 -0.28282685966038068 0.32761399890220488 0 -0.28263812119581422 0.32043468164821548 0 -0.28282685966038068 0.32761399890220488 0 -0.28263812119581422 0.32043468164821548 0 -0.27872373862396088 0.32398267441155021 0 -0.28905337055836788 0.3223861890926763 0 -0.28263812119581422 0.32043468164821548 0 -0.284829507903546 0.31434772196399818 0 -0.28263812119581422 0.32043468164821548 0 -0.284829507903546 0.31434772196399818 0 -0.27779811460791348 0.3175096728721376 0 -0.27898457963342771 0.31107572379960768 0 -0.284829507903546 0.31434772196399818 0 -0.27779811460791348 0.3175096728721376 0 -0.27779811460791348 0.3175096728721376 0 -0.27195319508714522 0.31749365904947402 0 -0.27357579967644258 0.32165806218324028 0 -0.27898457963342771 0.31107572379960768 0 -0.27779811460791348 0.3175096728721376 0 -0.27195319508714522 0.31749365904947402 0 -0.27898457963342771 0.31107572379960768 0 -0.26409695872260142 0.31448921566092092 0 -0.27195319508714522 0.31749365904947402 0 -0.26717392677520457 0.32265335496689668 0 -0.26409695872260142 0.31448921566092092 0 -0.27898457963342771 0.31107572379960768 0 -0.27195319508714522 0.31749365904947402 0 -0.26409695872260142 0.31448921566092092 0 -0.26717392677520457 0.32265335496689668 0 -0.27357579967644258 0.32165806218324028 0 -0.27534158298246147 0.32928856756701702 0 -0.27195319508714522 0.31749365904947402 0 -0.26717392677520457 0.32265335496689668 0 -0.27357579967644258 0.32165806218324028 0 -0.27357579967644258 0.32165806218324028 0 -0.27872373862396088 0.32398267441155021 0 -0.27534158298246147 0.32928856756701702 0 -0.27779811460791348 0.3175096728721376 0 -0.27357579967644258 0.32165806218324028 0 -0.27872373862396088 0.32398267441155021 0 -0.28263812119581422 0.32043468164821548 0 -0.27779811460791348 0.3175096728721376 0 -0.27872373862396088 0.32398267441155021 0 -0.28282685966038068 0.32761399890220488 0 -0.27872373862396088 0.32398267441155021 0 -0.27534158298246147 0.32928856756701702 0 -0.26509629863538747 0.33311356738596459 0 -0.26321499514493513 0.3480403108657884 0 -0.2809832594589996 0.34832442724969598 0 -0.28282685966038068 0.32761399890220488 0 -0.2811532956342323 0.33301169002177489 0 -0.27534158298246147 0.32928856756701702 0 -0.27791489012668941 0.33759140917954122 0 -0.26509629863538747 0.33311356738596459 0 -0.2809832594589996 0.34832442724969598 0 -0.26509629863538747 0.33311356738596459 0 -0.2809832594589996 0.34832442724969598 0 -0.2811532956342323 0.33301169002177489 0 -0.27534158298246147 0.32928856756701702 0 -0.27791489012668941 0.33759140917954122 0 -0.28250858319164701 0.34300180804643282 0 -0.27791489012668941 0.33759140917954122 0 -0.2809832594589996 0.34832442724969598 0 -0.26717392677520457 0.32265335496689668 0 -0.27534158298246147 0.32928856756701702 0 -0.26509629863538747 0.33311356738596459 0 -0.27534158298246147 0.32928856756701702 0 -0.27791489012668941 0.33759140917954122 0 -0.26509629863538747 0.33311356738596459 0 -0.26509629863538747 0.33311356738596459 0 -0.25295152442094759 0.34275484078600282 0 -0.26321499514493513 0.3480403108657884 0 -0.26509629863538747 0.33311356738596459 0 -0.25295152442094759 0.34275484078600282 0 -0.2502134517074236 0.33182082943189928 0 -0.2620852301748845 0.30979072126604001 0 -0.24531862700545601 0.31417757358992798 0 -0.24920933781177501 0.31790270752223371 0 -0.26509629863538747 0.33311356738596459 0 -0.24920933781177501 0.31790270752223371 0 -0.26509629863538747 0.33311356738596459 0 -0.2613941304862421 0.322039711384004 0 -0.24920933781177501 0.31790270752223371 0 -0.26509629863538747 0.33311356738596459 0 -0.2502134517074236 0.33182082943189928 0 -0.24920933781177501 0.31790270752223371 0 -0.26409695872260142 0.31448921566092092 0 -0.24920933781177501 0.31790270752223371 0 -0.2620852301748845 0.30979072126604001 0 -0.26409695872260142 0.31448921566092092 0 -0.24920933781177501 0.31790270752223371 0 -0.26409695872260142 0.31448921566092092 0 -0.2613941304862421 0.322039711384004 0 -0.24920933781177501 0.31790270752223371 0 -0.26717392677520457 0.32265335496689668 0 -0.26409695872260142 0.31448921566092092 0 -0.2613941304862421 0.322039711384004 0 -0.26717392677520457 0.32265335496689668 0 -0.26509629863538747 0.33311356738596459 0 -0.2613941304862421 0.322039711384004 0 -0.2714276674763087 0.36812723166802019 0 -0.2460231000790786 0.37393075161917277 0 -0.2519383555078234 0.35644269101866738 0 -0.26271747553342911 0.3589730824842689 0 -0.2460231000790786 0.37393075161917277 0 -0.26271747553342911 0.3589730824842689 0 -0.2714276674763087 0.36812723166802019 0 -0.2460231000790786 0.37393075161917277 0 -0.25295152442094759 0.34275484078600282 0 -0.2519383555078234 0.35644269101866738 0 -0.26321499514493513 0.3480403108657884 0 -0.2519383555078234 0.35644269101866738 0 -0.26321499514493513 0.3480403108657884 0 -0.26271747553342911 0.3589730824842689 0 -0.2714276674763087 0.36812723166802019 0 -0.28588889919231653 0.34540343495234982 0 -0.2809832594589996 0.34832442724969598 0 -0.2714276674763087 0.36812723166802019 0 -0.28588889919231653 0.34540343495234982 0 -0.26321499514493513 0.3480403108657884 0 -0.26271747553342911 0.3589730824842689 0 -0.2809832594589996 0.34832442724969598 0 -0.26271747553342911 0.3589730824842689 0 -0.2809832594589996 0.34832442724969598 0 -0.2714276674763087 0.36812723166802019 0 -0.2714276674763087 0.36812723166802019 0 -0.28929654522896753 0.36404519449254619 0 -0.27892727185264499 0.38027687118235598 0 -0.2714276674763087 0.36812723166802019 0 -0.28929654522896753 0.36404519449254619 0 -0.28929654522896753 0.36404519449254619 0 -0.29714222675297419 0.38022222088325419 0 -0.27892727185264499 0.38027687118235598 0 -0.28929654522896753 0.36404519449254619 0 -0.27892727185264499 0.38027687118235598 0 -0.30463815703914032 0.34003000328619198 0 -0.28929654522896753 0.36404519449254619 0 -0.28588889919231653 0.34540343495234982 0 -0.2714276674763087 0.36812723166802019 0 -0.28929654522896753 0.36404519449254619 0 -0.28588889919231653 0.34540343495234982 0 -0.28250858319164701 0.34300180804643282 0 -0.2809832594589996 0.34832442724969598 0 -0.28588889919231653 0.34540343495234982 0 -0.30463815703914032 0.34003000328619198 0 -0.30521538674455001 0.36040863131513251 0 -0.31781716973334451 0.34833101400278987 0 -0.30463815703914032 0.34003000328619198 0 -0.28929654522896753 0.36404519449254619 0 -0.30463815703914032 0.34003000328619198 0 -0.28929654522896753 0.36404519449254619 0 -0.30521538674455001 0.36040863131513251 0 -0.28929654522896753 0.36404519449254619 0 -0.30521538674455001 0.36040863131513251 0 -0.29714222675297419 0.38022222088325419 0 -0.30521538674455001 0.36040863131513251 0 -0.31287229142242762 0.37290820290685051 0 -0.29714222675297419 0.38022222088325419 0 -0.28929654522896753 0.36404519449254619 0 -0.30521538674455001 0.36040863131513251 0 -0.31287229142242762 0.37290820290685051 0 -0.3303427200115881 0.36236864927801288 0 -0.318788832180598 0.3886333101510025 0 -0.30521538674455001 0.36040863131513251 0 -0.31287229142242762 0.37290820290685051 0 -0.3303427200115881 0.36236864927801288 0 -0.3303427200115881 0.36236864927801288 0 -0.34468508758991351 0.36820356904013629 0 -0.34734068501163851 0.35815363948044621 0 -0.3303427200115881 0.36236864927801288 0 -0.34468508758991351 0.36820356904013629 0 -0.34013642781369169 0.38214078500880921 0 -0.3303427200115881 0.36236864927801288 0 -0.34269621637719128 0.34762612794026221 0 -0.33079504511066787 0.34312027716800758 0 -0.3303427200115881 0.36236864927801288 0 -0.34269621637719128 0.34762612794026221 0 -0.34734068501163851 0.35815363948044621 0 -0.3303427200115881 0.36236864927801288 0 -0.31781716973334451 0.34833101400278987 0 -0.33079504511066787 0.34312027716800758 0 -0.30521538674455001 0.36040863131513251 0 -0.3303427200115881 0.36236864927801288 0 -0.31781716973334451 0.34833101400278987 0 -0.30463815703914032 0.34003000328619198 0 -0.32076957035826997 0.33516718586289612 0 -0.31997976884931401 0.31601481207983839 0 -0.30463815703914032 0.34003000328619198 0 -0.31781716973334451 0.34833101400278987 0 -0.32076957035826997 0.33516718586289612 0 -0.32076957035826997 0.33516718586289612 0 -0.33079504511066787 0.34312027716800758 0 -0.33061771105888299 0.32833982277765228 0 -0.31781716973334451 0.34833101400278987 0 -0.32076957035826997 0.33516718586289612 0 -0.33079504511066787 0.34312027716800758 0 -0.32076957035826997 0.33516718586289612 0 -0.31997976884931401 0.31601481207983839 0 -0.33061771105888299 0.32833982277765228 0 -0.31997976884931401 0.31601481207983839 0 -0.3323057781465753 0.31931332326285877 0 -0.33061771105888299 0.32833982277765228 0 -0.33745571547703201 0.31068572242090708 0 -0.31997976884931401 0.31601481207983839 0 -0.3323057781465753 0.31931332326285877 0 -0.3323057781465753 0.31931332326285877 0 -0.34116991720107209 0.32221293577303761 0 -0.33061771105888299 0.32833982277765228 0 -0.33745571547703201 0.31068572242090708 0 -0.3323057781465753 0.31931332326285877 0 -0.34116991720107209 0.32221293577303761 0 -0.33745571547703201 0.31068572242090708 0 -0.34116991720107209 0.32221293577303761 0 -0.34968832810868122 0.31718648723179599 0 -0.33079504511066787 0.34312027716800758 0 -0.33061771105888299 0.32833982277765228 0 -0.34215987806229609 0.33433737758583321 0 -0.34116991720107209 0.32221293577303761 0 -0.33061771105888299 0.32833982277765228 0 -0.34215987806229609 0.33433737758583321 0 -0.34269621637719128 0.34762612794026221 0 -0.33079504511066787 0.34312027716800758 0 -0.34215987806229609 0.33433737758583321 0 -0.34269621637719128 0.34762612794026221 0 -0.34215987806229609 0.33433737758583321 0 -0.35324484427075559 0.33870055971271179 0 -0.34215987806229609 0.33433737758583321 0 -0.35324484427075559 0.33870055971271179 0 -0.35304844161899462 0.32582942797146552 0 -0.35324484427075559 0.33870055971271179 0 -0.35304844161899462 0.32582942797146552 0 -0.36342907338404029 0.33344172660332649 0 -0.35304844161899462 0.32582942797146552 0 -0.36140583790278652 0.31346611267422742 0 -0.36342907338404029 0.33344172660332649 0 -0.34116991720107209 0.32221293577303761 0 -0.34215987806229609 0.33433737758583321 0 -0.35304844161899462 0.32582942797146552 0 -0.34116991720107209 0.32221293577303761 0 -0.34968832810868122 0.31718648723179599 0 -0.35304844161899462 0.32582942797146552 0 -0.34796839334054391 0.3080742640220086 0 -0.34968832810868122 0.31718648723179599 0 -0.36140583790278652 0.31346611267422742 0 -0.34968832810868122 0.31718648723179599 0 -0.35304844161899462 0.32582942797146552 0 -0.36140583790278652 0.31346611267422742 0 -0.36527116431441742 0.30918318927851229 0 -0.36342907338404029 0.33344172660332649 0 -0.37575078440700571 0.33711079503556779 0 -0.36527116431441742 0.30918318927851229 0 -0.36342907338404029 0.33344172660332649 0 -0.37575078440700571 0.33711079503556779 0 -0.36527116431441742 0.30918318927851229 0 -0.36527116431441742 0.30918318927851229 0 -0.36140583790278652 0.31346611267422742 0 -0.36342907338404029 0.33344172660332649 0 -0.36140583790278652 0.31346611267422742 0 -0.36342907338404029 0.33344172660332649 0 -0.36342907338404029 0.33344172660332649 0 -0.36191203562682522 0.35341963130368392 0 -0.35324484427075559 0.33870055971271179 0 -0.36342907338404029 0.33344172660332649 0 -0.36191203562682522 0.35341963130368392 0 -0.37575078440700571 0.33711079503556779 0 -0.36342907338404029 0.33344172660332649 0 -0.37124039397333702 0.34711761920430378 0 -0.36342907338404029 0.33344172660332649 0 -0.36191203562682522 0.35341963130368392 0 -0.36586308427326919 0.35747296877601409 0 -0.36342907338404029 0.33344172660332649 0 -0.36586308427326919 0.35747296877601409 0 -0.37626286886354471 0.35719234904210811 0 -0.37575078440700571 0.33711079503556779 0 -0.37124039397333702 0.34711761920430378 0 -0.36342907338404029 0.33344172660332649 0 -0.37124039397333702 0.34711761920430378 0 -0.36586308427326919 0.35747296877601409 0 -0.37626286886354471 0.35719234904210811 0 -0.37124039397333702 0.34711761920430378 0 -0.36586308427326919 0.35747296877601409 0 -0.36191203562682522 0.35341963130368392 0 -0.36039499786961282 0.37339753600404141 0 -0.35681992107018468 0.35604904785837649 0 -0.36586308427326919 0.35747296877601409 0 -0.36829709516249642 0.38150421094870202 0 -0.36191203562682522 0.35341963130368392 0 -0.36586308427326919 0.35747296877601409 0 -0.36039499786961282 0.37339753600404141 0 -0.36191203562682522 0.35341963130368392 0 -0.36039499786961282 0.37339753600404141 0 -0.37626286886354471 0.35719234904210811 0 -0.36586308427326919 0.35747296877601409 0 -0.37342124140163752 0.36916697188085651 0 -0.36586308427326919 0.35747296877601409 0 -0.36039499786961282 0.37339753600404141 0 -0.36829709516249642 0.38150421094870202 0 -0.36586308427326919 0.35747296877601409 0 -0.37342124140163752 0.36916697188085651 0 -0.36829709516249642 0.38150421094870202 0 -0.36039499786961282 0.37339753600404141 0 -0.35681992107018468 0.35604904785837649 0 -0.36039499786961282 0.37339753600404141 0 -0.35214887931753242 0.36600430832439862 0 -0.35681992107018468 0.35604904785837649 0 -0.35214887931753242 0.36600430832439862 0 -0.34734068501163851 0.35815363948044621 0 -0.35681992107018468 0.35604904785837649 0 -0.36039499786961282 0.37339753600404141 0 -0.35214887931753242 0.36600430832439862 0 -0.3515037050463124 0.37421774923899259 0 -0.3515037050463124 0.37421774923899259 0 -0.34468508758991351 0.36820356904013629 0 -0.34013642781369169 0.38214078500880921 0 -0.35214887931753242 0.36600430832439862 0 -0.3515037050463124 0.37421774923899259 0 -0.34468508758991351 0.36820356904013629 0 -0.35214887931753242 0.36600430832439862 0 -0.34468508758991351 0.36820356904013629 0 -0.34734068501163851 0.35815363948044621 0 -0.35324484427075559 0.33870055971271179 0 -0.35002541668244253 0.35013234374794922 0 -0.35681992107018468 0.35604904785837649 0 -0.34269621637719128 0.34762612794026221 0 -0.34734068501163851 0.35815363948044621 0 -0.35002541668244253 0.35013234374794922 0 -0.35324484427075559 0.33870055971271179 0 -0.35681992107018468 0.35604904785837649 0 -0.34734068501163851 0.35815363948044621 0 -0.35002541668244253 0.35013234374794922 0 -0.35681992107018468 0.35604904785837649 0 -0.35324484427075559 0.33870055971271179 0 -0.36191203562682522 0.35341963130368392 0 -0.35681992107018468 0.35604904785837649 0 -0.34269621637719128 0.34762612794026221 0 -0.35324484427075559 0.33870055971271179 0 -0.35002541668244253 0.35013234374794922 0 -0.34973976012165853 0.39226128455568121 0 -0.34139453523964791 0.39962176895020229 0 -0.34013642781369169 0.38214078500880921 0 -0.35884246762940158 0.39384284201957082 0 -0.35629430285151992 0.40253832776501308 0 -0.34973976012165853 0.39226128455568121 0 -0.35629430285151992 0.40253832776501308 0 -0.35307711352818322 0.41295577425543772 0 -0.34139453523964791 0.39962176895020229 0 -0.35629430285151992 0.40253832776501308 0 -0.34973976012165853 0.39226128455568121 0 -0.34139453523964791 0.39962176895020229 0 -0.34973976012165853 0.39226128455568121 0 -0.35203106707403109 0.38316269903481032 0 -0.34013642781369169 0.38214078500880921 0 -0.36039499786961282 0.37339753600404141 0 -0.35884246762940158 0.39384284201957082 0 -0.35203106707403109 0.38316269903481032 0 -0.3515037050463124 0.37421774923899259 0 -0.35203106707403109 0.38316269903481032 0 -0.34013642781369169 0.38214078500880921 0 -0.36039499786961282 0.37339753600404141 0 -0.3515037050463124 0.37421774923899259 0 -0.35203106707403109 0.38316269903481032 0 -0.35884246762940158 0.39384284201957082 0 -0.34973976012165853 0.39226128455568121 0 -0.35203106707403109 0.38316269903481032 0 -0.36039499786961282 0.37339753600404141 0 -0.35884246762940158 0.39384284201957082 0 -0.3651896538567877 0.39666417815542387 0 -0.36039499786961282 0.37339753600404141 0 -0.36829709516249642 0.38150421094870202 0 -0.3651896538567877 0.39666417815542387 0 -0.36039499786961282 0.37339753600404141 0 -0.3651896538567877 0.39666417815542387 0 -0.36829709516249642 0.38150421094870202 0 -0.3695517893427171 0.38357097244323451 0 -0.37073110605172371 0.40553545312138989 0 -0.36039499786961282 0.37339753600404141 0 -0.35884246762940158 0.39384284201957082 0 -0.37342124140163752 0.36916697188085651 0 -0.36829709516249642 0.38150421094870202 0 -0.3695517893427171 0.38357097244323451 0 -0.37513427241190511 0.38675054564665617 0 -0.37817043039509712 0.38053108116313378 0 -0.3695517893427171 0.38357097244323451 0 -0.37564579323536912 0.39255488417451251 0 -0.37513427241190511 0.38675054564665617 0 -0.3695517893427171 0.38357097244323451 0 -0.37564579323536912 0.39255488417451251 0 -0.3695517893427171 0.38357097244323451 0 -0.37073110605172371 0.40553545312138989 0 -0.36829709516249642 0.38150421094870202 0 -0.3651896538567877 0.39666417815542387 0 -0.37073110605172371 0.40553545312138989 0 -0.36829709516249642 0.38150421094870202 0 -0.37073110605172371 0.40553545312138989 0 -0.35884246762940158 0.39384284201957082 0 -0.35629430285151992 0.40253832776501308 0 -0.3651896538567877 0.39666417815542387 0 -0.35629430285151992 0.40253832776501308 0 -0.3651896538567877 0.39666417815542387 0 -0.36998430984396169 0.41993082030680662 0 -0.38076868017910809 0.41163408496528991 0 -0.37073110605172371 0.40553545312138989 0 -0.36998430984396169 0.41993082030680662 0 -0.3651896538567877 0.39666417815542387 0 -0.36998430984396169 0.41993082030680662 0 -0.35629430285151992 0.40253832776501308 0 -0.36998430984396169 0.41993082030680662 0 -0.35307711352818322 0.41295577425543772 0 -0.3651896538567877 0.39666417815542387 0 -0.37073110605172371 0.40553545312138989 0 -0.36998430984396169 0.41993082030680662 0 -0.36998430984396169 0.41993082030680662 0 -0.36105981966045209 0.43691742854601529 0 -0.37477896583113562 0.44319746245818942 0 -0.36998430984396169 0.41993082030680662 0 -0.36105981966045209 0.43691742854601529 0 -0.35442559374386451 0.42651165881884551 0 -0.36998430984396169 0.41993082030680662 0 -0.37477896583113562 0.44319746245818942 0 -0.35442559374386451 0.42651165881884551 0 -0.34011651291796019 0.41814170448196952 0 -0.34294597407948457 0.43836940046553158 0 -0.36105981966045209 0.43691742854601529 0 -0.35442559374386451 0.42651165881884551 0 -0.34294597407948457 0.43836940046553158 0 -0.36998430984396169 0.41993082030680662 0 -0.35442559374386451 0.42651165881884551 0 -0.35307711352818322 0.41295577425543772 0 -0.35307711352818322 0.41295577425543772 0 -0.34011651291796019 0.41814170448196952 0 -0.34139453523964791 0.39962176895020229 0 -0.35442559374386451 0.42651165881884551 0 -0.35307711352818322 0.41295577425543772 0 -0.34011651291796019 0.41814170448196952 0 -0.34011651291796019 0.41814170448196952 0 -0.32643339497957707 0.40912336060013571 0 -0.34139453523964791 0.39962176895020229 0 -0.34011651291796019 0.41814170448196952 0 -0.32463215021007141 0.4243220483935119 0 -0.32643339497957707 0.40912336060013571 0 -0.32463215021007141 0.4243220483935119 0 -0.32300101249223689 0.44836779041384189 0 -0.34294597407948457 0.43836940046553158 0 -0.32463215021007141 0.4243220483935119 0 -0.34294597407948457 0.43836940046553158 0 -0.34011651291796019 0.41814170448196952 0 -0.32463215021007141 0.4243220483935119 0 -0.34294597407948457 0.43836940046553158 0 -0.32463215021007141 0.4243220483935119 0 -0.32643339497957707 0.40912336060013571 0 -0.30723494434960802 0.41489797102399201 0 -0.318788832180598 0.3886333101510025 0 -0.30723494434960802 0.41489797102399201 0 -0.32643339497957707 0.40912336060013571 0 -0.318788832180598 0.3886333101510025 0 -0.30723494434960802 0.41489797102399201 0 -0.32643339497957707 0.40912336060013571 0 -0.34139453523964791 0.39962176895020229 0 -0.318788832180598 0.3886333101510025 0 -0.34139453523964791 0.39962176895020229 0 -0.34013642781369169 0.38214078500880921 0 -0.318788832180598 0.3886333101510025 0 -0.3303427200115881 0.36236864927801288 0 -0.34013642781369169 0.38214078500880921 0 -0.318788832180598 0.3886333101510025 0 -0.3303427200115881 0.36236864927801288 0 -0.318788832180598 0.3886333101510025 0 -0.318788832180598 0.3886333101510025 0 -0.29714222675297419 0.38022222088325419 0 -0.29406718781665198 0.40009523058057211 0 -0.31287229142242762 0.37290820290685051 0 -0.318788832180598 0.3886333101510025 0 -0.29714222675297419 0.38022222088325419 0 -0.318788832180598 0.3886333101510025 0 -0.29406718781665198 0.40009523058057211 0 -0.30723494434960802 0.41489797102399201 0 -0.29714222675297419 0.38022222088325419 0 -0.29406718781665198 0.40009523058057211 0 -0.28269293765559822 0.39250193033824932 0 -0.29406718781665198 0.40009523058057211 0 -0.28269293765559822 0.39250193033824932 0 -0.27989382862225559 0.40545005626101432 0 -0.29714222675297419 0.38022222088325419 0 -0.28269293765559822 0.39250193033824932 0 -0.27892727185264499 0.38027687118235598 0 -0.27892727185264499 0.38027687118235598 0 -0.26855799847632411 0.39650854787216683 0 -0.28269293765559822 0.39250193033824932 0 -0.27892727185264499 0.38027687118235598 0 -0.26855799847632411 0.39650854787216683 0 -0.27892727185264499 0.38027687118235598 0 -0.26855799847632411 0.39650854787216683 0 -0.25613283422923111 0.39216091623459232 0 -0.2714276674763087 0.36812723166802019 0 -0.27892727185264499 0.38027687118235598 0 -0.25613283422923111 0.39216091623459232 0 -0.27989382862225559 0.40545005626101432 0 -0.26855799847632411 0.39650854787216683 0 -0.25615819412295449 0.41591874258652223 0 -0.28269293765559822 0.39250193033824932 0 -0.27989382862225559 0.40545005626101432 0 -0.26855799847632411 0.39650854787216683 0 -0.26855799847632411 0.39650854787216683 0 -0.25613283422923111 0.39216091623459232 0 -0.26855799847632411 0.39650854787216683 0 -0.25613283422923111 0.39216091623459232 0 -0.25615819412295449 0.41591874258652223 0 -0.26855799847632411 0.39650854787216683 0 -0.25615819412295449 0.41591874258652223 0 -0.2714276674763087 0.36812723166802019 0 -0.25613283422923111 0.39216091623459232 0 -0.2714276674763087 0.36812723166802019 0 -0.25613283422923111 0.39216091623459232 0 -0.2460231000790786 0.37393075161917277 0 -0.25615819412295449 0.41591874258652223 0 -0.25388069913311828 0.43903117891158872 0 -0.24375838976958461 0.43532893730087752 0 -0.25615819412295449 0.41591874258652223 0 -0.27036935360048192 0.43509565088004087 0 -0.25388069913311828 0.43903117891158872 0 -0.25613283422923111 0.39216091623459232 0 -0.25615819412295449 0.41591874258652223 0 -0.2438222341296708 0.4115052971009005 0 -0.27989382862225559 0.40545005626101432 0 -0.25615819412295449 0.41591874258652223 0 -0.27979675290022998 0.4185835597421656 0 -0.25615819412295449 0.41591874258652223 0 -0.27979675290022998 0.4185835597421656 0 -0.27036935360048192 0.43509565088004087 0 -0.27979675290022998 0.4185835597421656 0 -0.27036935360048192 0.43509565088004087 0 -0.29568105651861781 0.44116263189698168 0 -0.27979675290022998 0.4185835597421656 0 -0.30723494434960802 0.41489797102399201 0 -0.29568105651861781 0.44116263189698168 0 -0.29406718781665198 0.40009523058057211 0 -0.27989382862225559 0.40545005626101432 0 -0.27979675290022998 0.4185835597421656 0 -0.29406718781665198 0.40009523058057211 0 -0.27979675290022998 0.4185835597421656 0 -0.30723494434960802 0.41489797102399201 0 -0.32463215021007141 0.4243220483935119 0 -0.30723494434960802 0.41489797102399201 0 -0.29568105651861781 0.44116263189698168 0 -0.30723494434960802 0.41489797102399201 0 -0.29568105651861781 0.44116263189698168 0 -0.30766393081679339 0.46094382928779271 0 -0.29568105651861781 0.44116263189698168 0 -0.32300101249223689 0.44836779041384189 0 -0.30766393081679339 0.46094382928779271 0 -0.29568105651861781 0.44116263189698168 0 -0.28907918761623452 0.47021265101363813 0 -0.29568105651861781 0.44116263189698168 0 -0.27524501219726433 0.45214308988390811 0 -0.28907918761623452 0.47021265101363813 0 -0.27036935360048192 0.43509565088004087 0 -0.27524501219726433 0.45214308988390811 0 -0.26187144954376662 0.44861552423962098 0 -0.27036935360048192 0.43509565088004087 0 -0.29568105651861781 0.44116263189698168 0 -0.27524501219726433 0.45214308988390811 0 -0.27524501219726433 0.45214308988390811 0 -0.25939778154599591 0.46766266721448391 0 -0.28907918761623452 0.47021265101363813 0 -0.27524501219726433 0.45214308988390811 0 -0.25939778154599591 0.46766266721448391 0 -0.26187144954376662 0.44861552423962098 0 -0.25939778154599591 0.46766266721448391 0 -0.2415702072466622 0.46716176464722592 0 -0.25939778154599591 0.46766266721448391 0 -0.25084783260578469 0.45446288578966038 0 -0.2415702072466622 0.46716176464722592 0 -0.25939778154599591 0.46766266721448391 0 -0.25084783260578469 0.45446288578966038 0 -0.26187144954376662 0.44861552423962098 0 -0.25084783260578469 0.45446288578966038 0 -0.25388069913311828 0.43903117891158872 0 -0.24579279240924831 0.44545550951065738 0 -0.27036935360048192 0.43509565088004087 0 -0.25388069913311828 0.43903117891158872 0 -0.26187144954376662 0.44861552423962098 0 -0.25084783260578469 0.45446288578966038 0 -0.25388069913311828 0.43903117891158872 0 -0.26187144954376662 0.44861552423962098 0 -0.26319955483105661 0.5 0 -0.25120879073843522 0.48318033184719511 0 -0.27307791593346281 0.48244649368578502 0 -0.26319955483105661 0.5 0 -0.25120879073843522 0.48318033184719511 0 -0.23776950412631251 0.5 0 -0.25939778154599591 0.46766266721448391 0 -0.25120879073843522 0.48318033184719511 0 -0.2415702072466622 0.46716176464722592 0 -0.25939778154599591 0.46766266721448391 0 -0.25120879073843522 0.48318033184719511 0 -0.27307791593346281 0.48244649368578502 0 -0.25939778154599591 0.46766266721448391 0 -0.27307791593346281 0.48244649368578502 0 -0.28907918761623452 0.47021265101363813 0 -0.26319955483105661 0.5 0 -0.27307791593346281 0.48244649368578502 0 -0.28862960553580069 0.5 0 -0.28862960553580069 0.5 0 -0.28907918761623452 0.47021265101363813 0 -0.30863638686201023 0.48017506648785191 0 -0.27307791593346281 0.48244649368578502 0 -0.28862960553580069 0.5 0 -0.28907918761623452 0.47021265101363813 0 -0.30766393081679339 0.46094382928779271 0 -0.28907918761623452 0.47021265101363813 0 -0.30863638686201023 0.48017506648785191 0 -0.28862960553580069 0.5 0 -0.30863638686201023 0.48017506648785191 0 -0.31405965624054499 0.5 0 -0.32635147252958457 0.48587390449087747 0 -0.31405965624054499 0.5 0 -0.33948970694528913 0.50000000000000322 0 -0.30863638686201023 0.48017506648785191 0 -0.32635147252958457 0.48587390449087747 0 -0.31405965624054499 0.5 0 -0.32635147252958457 0.48587390449087747 0 -0.33948970694528913 0.50000000000000322 0 -0.34364993491160939 0.48008538547189089 0 -0.34364993491160939 0.48008538547189089 0 -0.32592167768846858 0.46910907049463912 0 -0.34451329815875659 0.46123354141004591 0 -0.32635147252958457 0.48587390449087747 0 -0.34364993491160939 0.48008538547189089 0 -0.32592167768846858 0.46910907049463912 0 -0.30766393081679339 0.46094382928779271 0 -0.30863638686201023 0.48017506648785191 0 -0.32592167768846858 0.46910907049463912 0 -0.30863638686201023 0.48017506648785191 0 -0.32635147252958457 0.48587390449087747 0 -0.32592167768846858 0.46910907049463912 0 -0.30766393081679339 0.46094382928779271 0 -0.32592167768846858 0.46910907049463912 0 -0.32300101249223689 0.44836779041384189 0 -0.32463215021007141 0.4243220483935119 0 -0.29568105651861781 0.44116263189698168 0 -0.32300101249223689 0.44836779041384189 0 -0.32300101249223689 0.44836779041384189 0 -0.34294597407948457 0.43836940046553158 0 -0.34451329815875659 0.46123354141004591 0 -0.32592167768846858 0.46910907049463912 0 -0.32300101249223689 0.44836779041384189 0 -0.34451329815875659 0.46123354141004591 0 -0.34451329815875659 0.46123354141004591 0 -0.36125979794889779 0.45241675253755148 0 -0.36033054763016931 0.47271488894376829 0 -0.34294597407948457 0.43836940046553158 0 -0.34451329815875659 0.46123354141004591 0 -0.36125979794889779 0.45241675253755148 0 -0.36105981966045209 0.43691742854601529 0 -0.34294597407948457 0.43836940046553158 0 -0.36125979794889779 0.45241675253755148 0 -0.34294597407948457 0.43836940046553158 0 -0.36125979794889779 0.45241675253755148 0 -0.36105981966045209 0.43691742854601529 0 -0.36125979794889779 0.45241675253755148 0 -0.37477896583113562 0.44319746245818942 0 -0.36125979794889779 0.45241675253755148 0 -0.37177404296113059 0.46843018538421222 0 -0.36033054763016931 0.47271488894376829 0 -0.37957362181831039 0.46646410460957188 0 -0.36125979794889779 0.45241675253755148 0 -0.37477896583113562 0.44319746245818942 0 -0.37957362181831039 0.46646410460957188 0 -0.36125979794889779 0.45241675253755148 0 -0.37177404296113059 0.46843018538421222 0 -0.37957362181831039 0.46646410460957188 0 -0.36125979794889779 0.45241675253755148 0 -0.36033054763016931 0.47271488894376829 0 -0.37284258001029952 0.4792311464255623 0 -0.36486969745405118 0.49071045416154729 0 -0.37727068166745942 0.47264893556906828 0 -0.37177404296113059 0.46843018538421222 0 -0.37284258001029952 0.4792311464255623 0 -0.37177404296113059 0.46843018538421222 0 -0.36033054763016931 0.47271488894376829 0 -0.37284258001029952 0.4792311464255623 0 -0.39024968796281212 0.48142090832308859 0 -0.36486969745405118 0.49071045416154729 0 -0.36940744733736541 0.5 0 -0.33948970694528913 0.50000000000000322 0 -0.36486969745405118 0.49071045416154729 0 -0.33948970694528913 0.50000000000000322 0 -0.36486969745405118 0.49071045416154729 0 -0.36940744733736541 0.5 0 -0.33948970694528913 0.50000000000000322 0 -0.34364993491160939 0.48008538547189089 0 -0.36486969745405118 0.49071045416154729 0 -0.34364993491160939 0.48008538547189089 0 -0.36033054763016931 0.47271488894376829 0 -0.36486969745405118 0.49071045416154729 0 -0.34364993491160939 0.48008538547189089 0 -0.34451329815875659 0.46123354141004591 0 -0.36033054763016931 0.47271488894376829 0 -0.1436782136542058 0.48422003666886559 0 -0.1506278400545599 0.47137287873976452 0 -0.13637930753563751 0.46988132563563528 0 -0.1506278400545599 0.47137287873976452 0 -0.15576298995963361 0.4803094215542113 0 -0.16214206079105339 0.47257270675073282 0 -0.1436782136542058 0.48422003666886559 0 -0.1506278400545599 0.47137287873976452 0 -0.15576298995963361 0.4803094215542113 0 -0.1436782136542058 0.48422003666886559 0 -0.1560104876583992 0.5 0 -0.1327934268760522 0.5 0 -0.1436782136542058 0.48422003666886559 0 -0.15576298995963361 0.4803094215542113 0 -0.1560104876583992 0.5 0 -0.1327934268760522 0.5 0 -0.13017353272746671 0.48330266525784871 0 -0.1181650350127386 0.48610645367248878 0 -0.1436782136542058 0.48422003666886559 0 -0.1327934268760522 0.5 0 -0.13017353272746671 0.48330266525784871 0 -0.13017353272746671 0.48330266525784871 0 -0.13637930753563751 0.46988132563563528 0 -0.12056819344390191 0.47241642683652102 0 -0.13637930753563751 0.46988132563563528 0 -0.12056819344390191 0.47241642683652102 0 -0.1436782136542058 0.48422003666886559 0 -0.13017353272746671 0.48330266525784871 0 -0.13637930753563751 0.46988132563563528 0 -0.13637930753563751 0.46988132563563528 0 -0.13620869205332259 0.45486918018778089 0 -0.1226927361633857 0.46018933214745478 0 -0.13620869205332259 0.45486918018778089 0 -0.120577686077101 0.44550746276719849 0 -0.1226927361633857 0.46018933214745478 0 -0.13637930753563751 0.46988132563563528 0 -0.1226927361633857 0.46018933214745478 0 -0.12056819344390191 0.47241642683652102 0 -0.13637930753563751 0.46988132563563528 0 -0.13620869205332259 0.45486918018778089 0 -0.1449880195903212 0.46187935591239893 0 -0.13620869205332259 0.45486918018778089 0 -0.14293894296835419 0.44275479514115462 0 -0.120577686077101 0.44550746276719849 0 -0.14293894296835419 0.44275479514115462 0 -0.13847433957310029 0.4268537492911661 0 -0.120577686077101 0.44550746276719849 0 -0.13620869205332259 0.45486918018778089 0 -0.14293894296835419 0.44275479514115462 0 -0.15076141868469839 0.45251643539627828 0 -0.14293894296835419 0.44275479514115462 0 -0.15076141868469839 0.45251643539627828 0 -0.15742609518037559 0.44345904886881499 0 -0.15076141868469839 0.45251643539627828 0 -0.15742609518037559 0.44345904886881499 0 -0.15833661622082759 0.45245514969510758 0 -0.14293894296835419 0.44275479514115462 0 -0.15742609518037559 0.44345904886881499 0 -0.15418542624152709 0.43332289433568888 0 -0.1506278400545599 0.47137287873976452 0 -0.13637930753563751 0.46988132563563528 0 -0.1449880195903212 0.46187935591239893 0 -0.13620869205332259 0.45486918018778089 0 -0.15076141868469839 0.45251643539627828 0 -0.1449880195903212 0.46187935591239893 0 -0.15076141868469839 0.45251643539627828 0 -0.15900881155023111 0.4604068165871042 0 -0.15833661622082759 0.45245514969510758 0 -0.15076141868469839 0.45251643539627828 0 -0.1449880195903212 0.46187935591239893 0 -0.15900881155023111 0.4604068165871042 0 -0.1506278400545599 0.47137287873976452 0 -0.1449880195903212 0.46187935591239893 0 -0.15900881155023111 0.4604068165871042 0 -0.15900881155023111 0.4604068165871042 0 -0.16944693403642369 0.46513531213588222 0 -0.16214206079105339 0.47257270675073282 0 -0.1506278400545599 0.47137287873976452 0 -0.15900881155023111 0.4604068165871042 0 -0.16214206079105339 0.47257270675073282 0 -0.15900881155023111 0.4604068165871042 0 -0.16648901584093229 0.45768596378464121 0 -0.15833661622082759 0.45245514969510758 0 -0.16648901584093229 0.45768596378464121 0 -0.15833661622082759 0.45245514969510758 0 -0.16567536555905049 0.45057628519778598 0 -0.16648901584093229 0.45768596378464121 0 -0.16567536555905049 0.45057628519778598 0 -0.17488604659981169 0.45481602994646458 0 -0.16648901584093229 0.45768596378464121 0 -0.16944693403642369 0.46513531213588222 0 -0.17488604659981169 0.45481602994646458 0 -0.15900881155023111 0.4604068165871042 0 -0.16648901584093229 0.45768596378464121 0 -0.16944693403642369 0.46513531213588222 0 -0.15742609518037559 0.44345904886881499 0 -0.1657535245793747 0.44317131439874968 0 -0.16541551973491761 0.43582437834574372 0 -0.15742609518037559 0.44345904886881499 0 -0.16541551973491761 0.43582437834574372 0 -0.15418542624152709 0.43332289433568888 0 -0.15742609518037559 0.44345904886881499 0 -0.16567536555905049 0.45057628519778598 0 -0.1657535245793747 0.44317131439874968 0 -0.15742609518037559 0.44345904886881499 0 -0.15833661622082759 0.45245514969510758 0 -0.16567536555905049 0.45057628519778598 0 -0.16567536555905049 0.45057628519778598 0 -0.1657535245793747 0.44317131439874968 0 -0.1737576873371813 0.44301398294784111 0 -0.16567536555905049 0.45057628519778598 0 -0.1737576873371813 0.44301398294784111 0 -0.17488604659981169 0.45481602994646458 0 -0.1657535245793747 0.44317131439874968 0 -0.1737576873371813 0.44301398294784111 0 -0.16541551973491761 0.43582437834574372 0 -0.1737576873371813 0.44301398294784111 0 -0.18390790890541231 0.44670438243721489 0 -0.17488604659981169 0.45481602994646458 0 -0.18390790890541231 0.44670438243721489 0 -0.18370406953841961 0.45683416585590408 0 -0.193684674658574 0.45161701765203333 0 -0.18390790890541231 0.44670438243721489 0 -0.17488604659981169 0.45481602994646458 0 -0.18370406953841961 0.45683416585590408 0 -0.18390790890541231 0.44670438243721489 0 -0.19304597632205919 0.44176960087071421 0 -0.18284098386406331 0.43169642736569558 0 -0.1737576873371813 0.44301398294784111 0 -0.18390790890541231 0.44670438243721489 0 -0.18284098386406331 0.43169642736569558 0 -0.16944693403642369 0.46513531213588222 0 -0.19659478349187609 0.46589808710792507 0 -0.16944693403642369 0.46513531213588222 0 -0.17728298677033019 0.46788400211347009 0 -0.19659478349187609 0.46589808710792507 0 -0.16944693403642369 0.46513531213588222 0 -0.18370406953841961 0.45683416585590408 0 -0.19659478349187609 0.46589808710792507 0 -0.16944693403642369 0.46513531213588222 0 -0.17488604659981169 0.45481602994646458 0 -0.18370406953841961 0.45683416585590408 0 -0.17728298677033019 0.46788400211347009 0 -0.19169030190198569 0.48108285945759688 0 -0.17728298677033019 0.46788400211347009 0 -0.1783948859090406 0.48082933086716578 0 -0.19169030190198569 0.48108285945759688 0 -0.1783948859090406 0.48082933086716578 0 -0.17088750322528229 0.47380966518303058 0 -0.16711828592019029 0.48440214630440442 0 -0.17728298677033019 0.46788400211347009 0 -0.1783948859090406 0.48082933086716578 0 -0.17088750322528229 0.47380966518303058 0 -0.16944693403642369 0.46513531213588222 0 -0.17728298677033019 0.46788400211347009 0 -0.17088750322528229 0.47380966518303058 0 -0.16944693403642369 0.46513531213588222 0 -0.17088750322528229 0.47380966518303058 0 -0.16214206079105339 0.47257270675073282 0 -0.17088750322528229 0.47380966518303058 0 -0.16214206079105339 0.47257270675073282 0 -0.16711828592019029 0.48440214630440442 0 -0.15576298995963361 0.4803094215542113 0 -0.16214206079105339 0.47257270675073282 0 -0.16711828592019029 0.48440214630440442 0 -0.1560104876583992 0.5 0 -0.16711828592019029 0.48440214630440442 0 -0.17922754844074629 0.5 0 -0.15576298995963361 0.4803094215542113 0 -0.1560104876583992 0.5 0 -0.16711828592019029 0.48440214630440442 0 -0.1783948859090406 0.48082933086716578 0 -0.16711828592019029 0.48440214630440442 0 -0.17922754844074629 0.5 0 -0.1783948859090406 0.48082933086716578 0 -0.17922754844074629 0.5 0 -0.19169030190198569 0.48108285945759688 0 -0.17922754844074629 0.5 0 -0.2024446092230934 0.50000000000000044 0 -0.19169030190198569 0.48108285945759688 0 -0.2024446092230934 0.50000000000000044 0 -0.19169030190198569 0.48108285945759688 0 -0.2060976170336411 0.49428171680172378 0 -0.19169030190198569 0.48108285945759688 0 -0.2060976170336411 0.49428171680172378 0 -0.19169030190198569 0.48108285945759688 0 -0.20232570685449691 0.48043348820202292 0 -0.2060976170336411 0.49428171680172378 0 -0.17728298677033019 0.46788400211347009 0 -0.19169030190198569 0.48108285945759688 0 -0.19659478349187609 0.46589808710792507 0 -0.19169030190198569 0.48108285945759688 0 -0.20232570685449691 0.48043348820202292 0 -0.19659478349187609 0.46589808710792507 0 -0.21492012499048499 0.48047128944084622 0 -0.22374263294732849 0.46666086207996832 0 -0.19659478349187609 0.46589808710792507 0 -0.20232570685449691 0.48043348820202292 0 -0.21492012499048499 0.48047128944084622 0 -0.19659478349187609 0.46589808710792507 0 -0.2060976170336411 0.49428171680172378 0 -0.2123394534215684 0.50000000000000056 0 -0.2227817955754906 0.49144506008682348 0 -0.21492012499048499 0.48047128944084622 0 -0.2060976170336411 0.49428171680172378 0 -0.2227817955754906 0.49144506008682348 0 -0.2024446092230934 0.50000000000000044 0 -0.2060976170336411 0.49428171680172378 0 -0.2123394534215684 0.50000000000000056 0 -0.2060976170336411 0.49428171680172378 0 -0.2123394534215684 0.50000000000000056 0 -0.2024446092230934 0.50000000000000044 0 -0.2060976170336411 0.49428171680172378 0 -0.20232570685449691 0.48043348820202292 0 -0.21492012499048499 0.48047128944084622 0 -0.2060976170336411 0.49428171680172378 0 -0.21492012499048499 0.48047128944084622 0 -0.2060976170336411 0.49428171680172378 0 -0.2227817955754906 0.49144506008682348 0 -0.2322377807471214 0.48181106553567538 0 -0.23776950412631251 0.5 0 -0.2123394534215684 0.50000000000000056 0 -0.2227817955754906 0.49144506008682348 0 -0.23776950412631251 0.5 0 -0.21492012499048499 0.48047128944084622 0 -0.2227817955754906 0.49144506008682348 0 -0.2322377807471214 0.48181106553567538 0 -0.21492012499048499 0.48047128944084622 0 -0.2322377807471214 0.48181106553567538 0 -0.22374263294732849 0.46666086207996832 0 -0.2322377807471214 0.48181106553567538 0 -0.2415702072466622 0.46716176464722592 0 -0.22374263294732849 0.46666086207996832 0 -0.21492012499048499 0.48047128944084622 0 -0.22374263294732849 0.46666086207996832 0 -0.25120879073843522 0.48318033184719511 0 -0.2322377807471214 0.48181106553567538 0 -0.2415702072466622 0.46716176464722592 0 -0.25120879073843522 0.48318033184719511 0 -0.2322377807471214 0.48181106553567538 0 -0.23776950412631251 0.5 0 -0.23375051135845731 0.45099489969042322 0 -0.2315116340301086 0.43084967796720741 0 -0.24375838976958461 0.43532893730087752 0 -0.25084783260578469 0.45446288578966038 0 -0.24579279240924831 0.44545550951065738 0 -0.23375051135845731 0.45099489969042322 0 -0.24579279240924831 0.44545550951065738 0 -0.23375051135845731 0.45099489969042322 0 -0.24375838976958461 0.43532893730087752 0 -0.23375051135845731 0.45099489969042322 0 -0.24375838976958461 0.43532893730087752 0 -0.25388069913311828 0.43903117891158872 0 -0.24579279240924831 0.44545550951065738 0 -0.24375838976958461 0.43532893730087752 0 -0.25084783260578469 0.45446288578966038 0 -0.2415702072466622 0.46716176464722592 0 -0.23375051135845731 0.45099489969042322 0 -0.2415702072466622 0.46716176464722592 0 -0.22374263294732849 0.46666086207996832 0 -0.22374263294732849 0.46666086207996832 0 -0.22152472570462661 0.44654270322695011 0 -0.23375051135845731 0.45099489969042322 0 -0.22374263294732849 0.46666086207996832 0 -0.22152472570462661 0.44654270322695011 0 -0.21153781737914451 0.46223572848669281 0 -0.2415702072466622 0.46716176464722592 0 -0.22374263294732849 0.46666086207996832 0 -0.23375051135845731 0.45099489969042322 0 -0.22374263294732849 0.46666086207996832 0 -0.23375051135845731 0.45099489969042322 0 -0.22152472570462661 0.44654270322695011 0 -0.23375051135845731 0.45099489969042322 0 -0.2315116340301086 0.43084967796720741 0 -0.22152472570462661 0.44654270322695011 0 -0.21296546783708459 0.43821923963809328 0 -0.2315116340301086 0.43084967796720741 0 -0.22152472570462661 0.44654270322695011 0 -0.2315116340301086 0.43084967796720741 0 -0.22152472570462661 0.44654270322695011 0 -0.2101176524450262 0.45016870951513782 0 -0.21153781737914451 0.46223572848669281 0 -0.22152472570462661 0.44654270322695011 0 -0.21296546783708459 0.43821923963809328 0 -0.2101176524450262 0.45016870951513782 0 -0.2101176524450262 0.45016870951513782 0 -0.2028061792924935 0.45607699340380697 0 -0.20243213544421379 0.44535152801554317 0 -0.21296546783708459 0.43821923963809328 0 -0.20243213544421379 0.44535152801554317 0 -0.19821672856980191 0.43249327143079208 0 -0.21296546783708459 0.43821923963809328 0 -0.2101176524450262 0.45016870951513782 0 -0.20243213544421379 0.44535152801554317 0 -0.22374263294732849 0.46666086207996832 0 -0.19659478349187609 0.46589808710792507 0 -0.22152472570462661 0.44654270322695011 0 -0.21153781737914451 0.46223572848669281 0 -0.22374263294732849 0.46666086207996832 0 -0.21153781737914451 0.46223572848669281 0 -0.19659478349187609 0.46589808710792507 0 -0.2101176524450262 0.45016870951513782 0 -0.21153781737914451 0.46223572848669281 0 -0.2028061792924935 0.45607699340380697 0 -0.21153781737914451 0.46223572848669281 0 -0.19659478349187609 0.46589808710792507 0 -0.2028061792924935 0.45607699340380697 0 -0.19659478349187609 0.46589808710792507 0 -0.2028061792924935 0.45607699340380697 0 -0.193684674658574 0.45161701765203333 0 -0.18370406953841961 0.45683416585590408 0 -0.19659478349187609 0.46589808710792507 0 -0.193684674658574 0.45161701765203333 0 -0.20243213544421379 0.44535152801554317 0 -0.19304597632205919 0.44176960087071421 0 -0.19821672856980191 0.43249327143079208 0 -0.2028061792924935 0.45607699340380697 0 -0.20243213544421379 0.44535152801554317 0 -0.193684674658574 0.45161701765203333 0 -0.20243213544421379 0.44535152801554317 0 -0.193684674658574 0.45161701765203333 0 -0.19304597632205919 0.44176960087071421 0 -0.18390790890541231 0.44670438243721489 0 -0.193684674658574 0.45161701765203333 0 -0.19304597632205919 0.44176960087071421 0 -0.19821672856980191 0.43249327143079208 0 -0.18817332729089051 0.41499866247406858 0 -0.20984248066049971 0.42292417022063772 0 -0.19821672856980191 0.43249327143079208 0 -0.18817332729089051 0.41499866247406858 0 -0.18284098386406331 0.43169642736569558 0 -0.19304597632205919 0.44176960087071421 0 -0.19821672856980191 0.43249327143079208 0 -0.18284098386406331 0.43169642736569558 0 -0.18817332729089051 0.41499866247406858 0 -0.20984248066049971 0.42292417022063772 0 -0.2080778918139721 0.40621147672409791 0 -0.18817332729089051 0.41499866247406858 0 -0.2080778918139721 0.40621147672409791 0 -0.1933275139795135 0.40140124271617361 0 -0.18817332729089051 0.41499866247406858 0 -0.20984248066049971 0.42292417022063772 0 -0.20984248066049971 0.42292417022063772 0 -0.22491423432169641 0.41423233859347469 0 -0.2080778918139721 0.40621147672409791 0 -0.22491423432169641 0.41423233859347469 0 -0.2227593928087834 0.40037379806053641 0 -0.2080778918139721 0.40621147672409791 0 -0.21296546783708459 0.43821923963809328 0 -0.20984248066049971 0.42292417022063772 0 -0.2315116340301086 0.43084967796720741 0 -0.21296546783708459 0.43821923963809328 0 -0.19821672856980191 0.43249327143079208 0 -0.20984248066049971 0.42292417022063772 0 -0.20984248066049971 0.42292417022063772 0 -0.2315116340301086 0.43084967796720741 0 -0.22491423432169641 0.41423233859347469 0 -0.20984248066049971 0.42292417022063772 0 -0.2315116340301086 0.43084967796720741 0 -0.2315116340301086 0.43084967796720741 0 -0.22491423432169641 0.41423233859347469 0 -0.2438222341296708 0.4115052971009005 0 -0.2315116340301086 0.43084967796720741 0 -0.2438222341296708 0.4115052971009005 0 -0.25615819412295449 0.41591874258652223 0 -0.2438222341296708 0.4115052971009005 0 -0.24375838976958461 0.43532893730087752 0 -0.22491423432169641 0.41423233859347469 0 -0.2438222341296708 0.4115052971009005 0 -0.23597913251922281 0.39914365332922241 0 -0.25615819412295449 0.41591874258652223 0 -0.24375838976958461 0.43532893730087752 0 -0.2315116340301086 0.43084967796720741 0 -0.2438222341296708 0.4115052971009005 0 -0.24375838976958461 0.43532893730087752 0 -0.25388069913311828 0.43903117891158872 0 -0.24375838976958461 0.43532893730087752 0 -0.2315116340301086 0.43084967796720741 0 -0.24375838976958461 0.43532893730087752 0 -0.25613283422923111 0.39216091623459232 0 -0.23837568345553989 0.3859475939024577 0 -0.23837568345553989 0.3859475939024577 0 -0.22061853268184831 0.37973427157032458 0 -0.2460231000790786 0.37393075161917277 0 -0.25613283422923111 0.39216091623459232 0 -0.23837568345553989 0.3859475939024577 0 -0.2460231000790786 0.37393075161917277 0 -0.25613283422923111 0.39216091623459232 0 -0.23837568345553989 0.3859475939024577 0 -0.23597913251922281 0.39914365332922241 0 -0.25613283422923111 0.39216091623459232 0 -0.2438222341296708 0.4115052971009005 0 -0.25613283422923111 0.39216091623459232 0 -0.2438222341296708 0.4115052971009005 0 -0.23597913251922281 0.39914365332922241 0 -0.23597913251922281 0.39914365332922241 0 -0.2227593928087834 0.40037379806053641 0 -0.22462253518840089 0.39066436965899032 0 -0.23837568345553989 0.3859475939024577 0 -0.23597913251922281 0.39914365332922241 0 -0.22462253518840089 0.39066436965899032 0 -0.22491423432169641 0.41423233859347469 0 -0.23597913251922281 0.39914365332922241 0 -0.2227593928087834 0.40037379806053641 0 -0.2227593928087834 0.40037379806053641 0 -0.22462253518840089 0.39066436965899032 0 -0.21458830996996259 0.39299096005305401 0 -0.22462253518840089 0.39066436965899032 0 -0.2173157160084658 0.38564624331732489 0 -0.21458830996996259 0.39299096005305401 0 -0.22462253518840089 0.39066436965899032 0 -0.22061853268184831 0.37973427157032458 0 -0.2173157160084658 0.38564624331732489 0 -0.22946160045274969 0.37555038649799571 0 -0.22061853268184831 0.37973427157032458 0 -0.2460231000790786 0.37393075161917277 0 -0.22061853268184831 0.37973427157032458 0 -0.2460231000790786 0.37393075161917277 0 -0.23837568345553989 0.3859475939024577 0 -0.22061853268184831 0.37973427157032458 0 -0.23837568345553989 0.3859475939024577 0 -0.22462253518840089 0.39066436965899032 0 -0.22061853268184831 0.37973427157032458 0 -0.22061853268184831 0.37973427157032458 0 -0.21792025010357241 0.38035067792482202 0 -0.22061853268184831 0.37973427157032458 0 -0.21792025010357241 0.38035067792482202 0 -0.2037700009656972 0.37383887992164022 0 -0.22061853268184831 0.37973427157032458 0 -0.2037700009656972 0.37383887992164022 0 -0.22061853268184831 0.37973427157032458 0 -0.21792025010357241 0.38035067792482202 0 -0.2173157160084658 0.38564624331732489 0 -0.21792025010357241 0.38035067792482202 0 -0.2173157160084658 0.38564624331732489 0 -0.20882895209854449 0.38449093737943468 0 -0.2173157160084658 0.38564624331732489 0 -0.20882895209854449 0.38449093737943468 0 -0.21458830996996259 0.39299096005305401 0 -0.20882895209854449 0.38449093737943468 0 -0.20352166581004799 0.39328585865271493 0 -0.20025696601511639 0.38530181315882578 0 -0.20882895209854449 0.38449093737943468 0 -0.21458830996996259 0.39299096005305401 0 -0.20352166581004799 0.39328585865271493 0 -0.21792025010357241 0.38035067792482202 0 -0.20882895209854449 0.38449093737943468 0 -0.2037700009656972 0.37383887992164022 0 -0.20882895209854449 0.38449093737943468 0 -0.20025696601511639 0.38530181315882578 0 -0.2037700009656972 0.37383887992164022 0 -0.2227593928087834 0.40037379806053641 0 -0.21458830996996259 0.39299096005305401 0 -0.2080778918139721 0.40621147672409791 0 -0.21458830996996259 0.39299096005305401 0 -0.20352166581004799 0.39328585865271493 0 -0.2080778918139721 0.40621147672409791 0 -0.20352166581004799 0.39328585865271493 0 -0.2080778918139721 0.40621147672409791 0 -0.1933275139795135 0.40140124271617361 0 -0.20352166581004799 0.39328585865271493 0 -0.19423353983585909 0.39157888812920189 0 -0.1933275139795135 0.40140124271617361 0 -0.19423353983585909 0.39157888812920189 0 -0.1933275139795135 0.40140124271617361 0 -0.18404541465797819 0.39148981957069617 0 -0.20025696601511639 0.38530181315882578 0 -0.191171337851958 0.38249839517522638 0 -0.2037700009656972 0.37383887992164022 0 -0.20352166581004799 0.39328585865271493 0 -0.19423353983585909 0.39157888812920189 0 -0.20025696601511639 0.38530181315882578 0 -0.19423353983585909 0.39157888812920189 0 -0.191171337851958 0.38249839517522638 0 -0.18404541465797819 0.39148981957069617 0 -0.19423353983585909 0.39157888812920189 0 -0.20025696601511639 0.38530181315882578 0 -0.191171337851958 0.38249839517522638 0 -0.191171337851958 0.38249839517522638 0 -0.18827341652571961 0.37482666901638878 0 -0.2037700009656972 0.37383887992164022 0 -0.191171337851958 0.38249839517522638 0 -0.17842853968084141 0.37850222178096282 0 -0.18827341652571961 0.37482666901638878 0 -0.191171337851958 0.38249839517522638 0 -0.17842853968084141 0.37850222178096282 0 -0.18404541465797819 0.39148981957069617 0 -0.17842853968084141 0.37850222178096282 0 -0.17171947397181661 0.38686736691741641 0 -0.18404541465797819 0.39148981957069617 0 -0.16184006952959709 0.37586212036549399 0 -0.17171947397181661 0.38686736691741641 0 -0.16237158390748591 0.39248234874691201 0 -0.17842853968084141 0.37850222178096282 0 -0.16184006952959709 0.37586212036549399 0 -0.17171947397181661 0.38686736691741641 0 -0.1626015871720416 0.4009575932343058 0 -0.16061471352705051 0.40749780870363761 0 -0.15363698222674221 0.39870045317569591 0 -0.1626015871720416 0.4009575932343058 0 -0.16650417392128139 0.40707315472749939 0 -0.16061471352705051 0.40749780870363761 0 -0.1626015871720416 0.4009575932343058 0 -0.16237158390748591 0.39248234874691201 0 -0.15363698222674221 0.39870045317569591 0 -0.1626015871720416 0.4009575932343058 0 -0.16237158390748591 0.39248234874691201 0 -0.16891916242552249 0.39944635973781462 0 -0.16237158390748591 0.39248234874691201 0 -0.16891916242552249 0.39944635973781462 0 -0.17394484985388789 0.39485280082274749 0 -0.17171947397181661 0.38686736691741641 0 -0.16237158390748591 0.39248234874691201 0 -0.17394484985388789 0.39485280082274749 0 -0.16891916242552249 0.39944635973781462 0 -0.17917361727291531 0.40186590115760801 0 -0.16650417392128139 0.40707315472749939 0 -0.1626015871720416 0.4009575932343058 0 -0.16891916242552249 0.39944635973781462 0 -0.16650417392128139 0.40707315472749939 0 -0.16891916242552249 0.39944635973781462 0 -0.17917361727291531 0.40186590115760801 0 -0.17394484985388789 0.39485280082274749 0 -0.17917361727291531 0.40186590115760801 0 -0.17394484985388789 0.39485280082274749 0 -0.18404541465797819 0.39148981957069617 0 -0.17171947397181661 0.38686736691741641 0 -0.17394484985388789 0.39485280082274749 0 -0.18404541465797819 0.39148981957069617 0 -0.1933275139795135 0.40140124271617361 0 -0.17917361727291531 0.40186590115760801 0 -0.18404541465797819 0.39148981957069617 0 -0.18817332729089051 0.41499866247406858 0 -0.1933275139795135 0.40140124271617361 0 -0.17917361727291531 0.40186590115760801 0 -0.18817332729089051 0.41499866247406858 0 -0.16650417392128139 0.40707315472749939 0 -0.18817332729089051 0.41499866247406858 0 -0.17741268235950911 0.4238888247322018 0 -0.1717572381778322 0.41661956236072972 0 -0.18817332729089051 0.41499866247406858 0 -0.17917361727291531 0.40186590115760801 0 -0.16650417392128139 0.40707315472749939 0 -0.18817332729089051 0.41499866247406858 0 -0.16650417392128139 0.40707315472749939 0 -0.1717572381778322 0.41661956236072972 0 -0.18817332729089051 0.41499866247406858 0 -0.18284098386406331 0.43169642736569558 0 -0.17741268235950911 0.4238888247322018 0 -0.18284098386406331 0.43169642736569558 0 -0.17741268235950911 0.4238888247322018 0 -0.17354025424257441 0.43206780744654688 0 -0.17741268235950911 0.4238888247322018 0 -0.16827439791720081 0.42591542384125242 0 -0.1717572381778322 0.41661956236072972 0 -0.17741268235950911 0.4238888247322018 0 -0.17354025424257441 0.43206780744654688 0 -0.16827439791720081 0.42591542384125242 0 -0.1737576873371813 0.44301398294784111 0 -0.18284098386406331 0.43169642736569558 0 -0.17354025424257441 0.43206780744654688 0 -0.1737576873371813 0.44301398294784111 0 -0.17354025424257441 0.43206780744654688 0 -0.16541551973491761 0.43582437834574372 0 -0.16541551973491761 0.43582437834574372 0 -0.16827439791720081 0.42591542384125242 0 -0.1618211354566505 0.42960455317514229 0 -0.17354025424257441 0.43206780744654688 0 -0.16541551973491761 0.43582437834574372 0 -0.16827439791720081 0.42591542384125242 0 -0.16827439791720081 0.42591542384125242 0 -0.1618211354566505 0.42960455317514229 0 -0.15816158949860951 0.42441348555952502 0 -0.16827439791720081 0.42591542384125242 0 -0.15816158949860951 0.42441348555952502 0 -0.16364451541950709 0.41919738588473288 0 -0.1618211354566505 0.42960455317514229 0 -0.15816158949860951 0.42441348555952502 0 -0.15418542624152709 0.43332289433568888 0 -0.16541551973491761 0.43582437834574372 0 -0.1618211354566505 0.42960455317514229 0 -0.15418542624152709 0.43332289433568888 0 -0.16650417392128139 0.40707315472749939 0 -0.1717572381778322 0.41661956236072972 0 -0.16334387444018439 0.41241971768421348 0 -0.1717572381778322 0.41661956236072972 0 -0.16364451541950709 0.41919738588473288 0 -0.16334387444018439 0.41241971768421348 0 -0.16827439791720081 0.42591542384125242 0 -0.1717572381778322 0.41661956236072972 0 -0.16364451541950709 0.41919738588473288 0 -0.16364451541950709 0.41919738588473288 0 -0.15668547706370831 0.41661873997794352 0 -0.16334387444018439 0.41241971768421348 0 -0.15816158949860951 0.42441348555952502 0 -0.16364451541950709 0.41919738588473288 0 -0.15668547706370831 0.41661873997794352 0 -0.15668547706370831 0.41661873997794352 0 -0.15925376452501069 0.41118407554523212 0 -0.16334387444018439 0.41241971768421348 0 -0.15668547706370831 0.41661873997794352 0 -0.15925376452501069 0.41118407554523212 0 -0.15637099306909971 0.4082000358151337 0 -0.15925376452501069 0.41118407554523212 0 -0.16334387444018439 0.41241971768421348 0 -0.16061471352705051 0.40749780870363761 0 -0.16650417392128139 0.40707315472749939 0 -0.16334387444018439 0.41241971768421348 0 -0.16061471352705051 0.40749780870363761 0 -0.15925376452501069 0.41118407554523212 0 -0.16061471352705051 0.40749780870363761 0 -0.15637099306909971 0.4082000358151337 0 -0.15637099306909971 0.4082000358151337 0 -0.13847433957310029 0.4268537492911661 0 -0.14346653966216041 0.40345905553614209 0 -0.15637099306909971 0.4082000358151337 0 -0.13847433957310029 0.4268537492911661 0 -0.16061471352705051 0.40749780870363761 0 -0.15637099306909971 0.4082000358151337 0 -0.14346653966216041 0.40345905553614209 0 -0.15668547706370831 0.41661873997794352 0 -0.15637099306909971 0.4082000358151337 0 -0.13847433957310029 0.4268537492911661 0 -0.15816158949860951 0.42441348555952502 0 -0.15668547706370831 0.41661873997794352 0 -0.13847433957310029 0.4268537492911661 0 -0.15816158949860951 0.42441348555952502 0 -0.15418542624152709 0.43332289433568888 0 -0.13847433957310029 0.4268537492911661 0 -0.14293894296835419 0.44275479514115462 0 -0.15418542624152709 0.43332289433568888 0 -0.13847433957310029 0.4268537492911661 0 -0.13847433957310029 0.4268537492911661 0 -0.12633325125609221 0.41404438953313022 0 -0.1136270340742794 0.42670956174220592 0 -0.13847433957310029 0.4268537492911661 0 -0.120577686077101 0.44550746276719849 0 -0.13847433957310029 0.4268537492911661 0 -0.12633325125609221 0.41404438953313022 0 -0.14346653966216041 0.40345905553614209 0 -0.12633325125609221 0.41404438953313022 0 -0.12631836579727029 0.3994203023686459 0 -0.14346653966216041 0.40345905553614209 0 -0.12631836579727029 0.3994203023686459 0 -0.14407921766343351 0.38764121136706953 0 -0.12631836579727029 0.3994203023686459 0 -0.14407921766343351 0.38764121136706953 0 -0.14346653966216041 0.40345905553614209 0 -0.12631836579727029 0.3994203023686459 0 -0.14346653966216041 0.40345905553614209 0 -0.12631836579727029 0.3994203023686459 0 -0.12530638115733009 0.37861469596271691 0 -0.14407921766343351 0.38764121136706953 0 -0.12530638115733009 0.37861469596271691 0 -0.14407921766343351 0.38764121136706953 0 -0.14064382367780179 0.37123678973703811 0 -0.16184006952959709 0.37586212036549399 0 -0.16237158390748591 0.39248234874691201 0 -0.14407921766343351 0.38764121136706953 0 -0.16184006952959709 0.37586212036549399 0 -0.14407921766343351 0.38764121136706953 0 -0.14064382367780179 0.37123678973703811 0 -0.16184006952959709 0.37586212036549399 0 -0.14407921766343351 0.38764121136706953 0 -0.16061471352705051 0.40749780870363761 0 -0.14346653966216041 0.40345905553614209 0 -0.15363698222674221 0.39870045317569591 0 -0.14407921766343351 0.38764121136706953 0 -0.14346653966216041 0.40345905553614209 0 -0.15363698222674221 0.39870045317569591 0 -0.16237158390748591 0.39248234874691201 0 -0.14407921766343351 0.38764121136706953 0 -0.15363698222674221 0.39870045317569591 0 -0.16061471352705051 0.40749780870363761 0 -0.14346653966216041 0.40345905553614209 0 -0.15263620149840521 0.34559532630957362 0 -0.14873012954908091 0.35902717545622448 0 -0.12843269758859041 0.34852080366790061 0 -0.15263620149840521 0.34559532630957362 0 -0.14873012954908091 0.35902717545622448 0 -0.16231402649499721 0.35854044204207991 0 -0.16184006952959709 0.37586212036549399 0 -0.14873012954908091 0.35902717545622448 0 -0.14064382367780179 0.37123678973703811 0 -0.14873012954908091 0.35902717545622448 0 -0.14064382367780179 0.37123678973703811 0 -0.12843269758859041 0.34852080366790061 0 -0.12530638115733009 0.37861469596271691 0 -0.14064382367780179 0.37123678973703811 0 -0.12843269758859041 0.34852080366790061 0 -0.12843269758859041 0.34852080366790061 0 -0.14826046000850521 0.33087516718336252 0 -0.1245297280895879 0.33029818763029228 0 -0.12843269758859041 0.34852080366790061 0 -0.14826046000850521 0.33087516718336252 0 -0.1346367300102593 0.31958270839691688 0 -0.14826046000850521 0.33087516718336252 0 -0.1245297280895879 0.33029818763029228 0 -0.1346367300102593 0.31958270839691688 0 -0.14625573389748439 0.31808577253244968 0 -0.14088890766651041 0.30255832207272548 0 -0.1346367300102593 0.31958270839691688 0 -0.121013000012014 0.30829024961047058 0 -0.1346367300102593 0.31958270839691688 0 -0.121013000012014 0.30829024961047058 0 -0.1219008421362526 0.31580467385102828 0 -0.1346367300102593 0.31958270839691688 0 -0.1219008421362526 0.31580467385102828 0 -0.1245297280895879 0.33029818763029228 0 -0.14625573389748439 0.31808577253244968 0 -0.16123683790466309 0.31932689247679358 0 -0.14088890766651041 0.30255832207272548 0 -0.1346367300102593 0.31958270839691688 0 -0.14826046000850521 0.33087516718336252 0 -0.1346367300102593 0.31958270839691688 0 -0.14625573389748439 0.31808577253244968 0 -0.14826046000850521 0.33087516718336252 0 -0.14625573389748439 0.31808577253244968 0 -0.14826046000850521 0.33087516718336252 0 -0.16123683790466309 0.31932689247679358 0 -0.14826046000850521 0.33087516718336252 0 -0.16123683790466309 0.31932689247679358 0 -0.15263620149840521 0.34559532630957362 0 -0.14826046000850521 0.33087516718336252 0 -0.16755032121442859 0.34686417773276529 0 -0.15263620149840521 0.34559532630957362 0 -0.12843269758859041 0.34852080366790061 0 -0.14826046000850521 0.33087516718336252 0 -0.14826046000850521 0.33087516718336252 0 -0.16510289805330131 0.33718696048106628 0 -0.16755032121442859 0.34686417773276529 0 -0.14826046000850521 0.33087516718336252 0 -0.16510289805330131 0.33718696048106628 0 -0.16123683790466309 0.31932689247679358 0 -0.16510289805330131 0.33718696048106628 0 -0.16123683790466309 0.31932689247679358 0 -0.17903341924719679 0.33399291618049981 0 -0.14826046000850521 0.33087516718336252 0 -0.16755032121442859 0.34686417773276529 0 -0.16510289805330131 0.33718696048106628 0 -0.17446627127186959 0.34220626244336227 0 -0.16755032121442859 0.34686417773276529 0 -0.16123683790466309 0.31932689247679358 0 -0.17903341924719679 0.33399291618049981 0 -0.1716345267548989 0.31007351159371721 0 -0.16123683790466309 0.31932689247679358 0 -0.17903341924719679 0.33399291618049981 0 -0.16123683790466309 0.31932689247679358 0 -0.1716345267548989 0.31007351159371721 0 -0.16123683790466309 0.31932689247679358 0 -0.1716345267548989 0.31007351159371721 0 -0.17077755675466941 0.30857201773175691 0 -0.1845628143512105 0.33272511487775458 0 -0.19193644689038281 0.32780269276328461 0 -0.1716345267548989 0.31007351159371721 0 -0.19193644689038281 0.32780269276328461 0 -0.17077755675466941 0.30857201773175691 0 -0.17903341924719679 0.33399291618049981 0 -0.1845628143512105 0.33272511487775458 0 -0.1716345267548989 0.31007351159371721 0 -0.1845628143512105 0.33272511487775458 0 -0.1716345267548989 0.31007351159371721 0 -0.19193644689038281 0.32780269276328461 0 -0.19193123229020809 0.31830056414075331 0 -0.17077755675466941 0.30857201773175691 0 -0.19193644689038281 0.32780269276328461 0 -0.1716345267548989 0.31007351159371721 0 -0.17077755675466941 0.30857201773175691 0 -0.17903341924719679 0.33399291618049981 0 -0.1958428129823814 0.34784540628633132 0 -0.18756605885428329 0.33798708809283362 0 -0.17903341924719679 0.33399291618049981 0 -0.1958428129823814 0.34784540628633132 0 -0.16510289805330131 0.33718696048106628 0 -0.17446627127186959 0.34220626244336227 0 -0.17903341924719679 0.33399291618049981 0 -0.17446627127186959 0.34220626244336227 0 -0.17903341924719679 0.33399291618049981 0 -0.1816215216896902 0.34951863202477362 0 -0.16510289805330131 0.33718696048106628 0 -0.17903341924719679 0.33399291618049981 0 -0.17903341924719679 0.33399291618049981 0 -0.1845628143512105 0.33272511487775458 0 -0.17903341924719679 0.33399291618049981 0 -0.1845628143512105 0.33272511487775458 0 -0.18756605885428329 0.33798708809283362 0 -0.1845628143512105 0.33272511487775458 0 -0.18756605885428329 0.33798708809283362 0 -0.1816215216896902 0.34951863202477362 0 -0.16755032121442859 0.34686417773276529 0 -0.18684018242035241 0.36285318828216773 0 -0.16755032121442859 0.34686417773276529 0 -0.17371126289566949 0.36032263094025829 0 -0.18684018242035241 0.36285318828216773 0 -0.16755032121442859 0.34686417773276529 0 -0.18684018242035241 0.36285318828216773 0 -0.17903341924719679 0.33399291618049981 0 -0.1816215216896902 0.34951863202477362 0 -0.1958428129823814 0.34784540628633132 0 -0.1816215216896902 0.34951863202477362 0 -0.18684018242035241 0.36285318828216773 0 -0.18962449830652259 0.35443445546310193 0 -0.17446627127186959 0.34220626244336227 0 -0.1816215216896902 0.34951863202477362 0 -0.16755032121442859 0.34686417773276529 0 -0.16755032121442859 0.34686417773276529 0 -0.16231402649499721 0.35854044204207991 0 -0.17371126289566949 0.36032263094025829 0 -0.15263620149840521 0.34559532630957362 0 -0.16755032121442859 0.34686417773276529 0 -0.16231402649499721 0.35854044204207991 0 -0.17842853968084141 0.37850222178096282 0 -0.16184006952959709 0.37586212036549399 0 -0.17220198338173681 0.36789254927065118 0 -0.16184006952959709 0.37586212036549399 0 -0.16231402649499721 0.35854044204207991 0 -0.17220198338173681 0.36789254927065118 0 -0.16184006952959709 0.37586212036549399 0 -0.14873012954908091 0.35902717545622448 0 -0.16231402649499721 0.35854044204207991 0 -0.16231402649499721 0.35854044204207991 0 -0.17220198338173681 0.36789254927065118 0 -0.17371126289566949 0.36032263094025829 0 -0.17220198338173681 0.36789254927065118 0 -0.1796498009668325 0.36546279737362769 0 -0.18107573488055589 0.37135035993115778 0 -0.17842853968084141 0.37850222178096282 0 -0.17220198338173681 0.36789254927065118 0 -0.18107573488055589 0.37135035993115778 0 -0.17220198338173681 0.36789254927065118 0 -0.17371126289566949 0.36032263094025829 0 -0.1796498009668325 0.36546279737362769 0 -0.17371126289566949 0.36032263094025829 0 -0.1796498009668325 0.36546279737362769 0 -0.18684018242035241 0.36285318828216773 0 -0.1796498009668325 0.36546279737362769 0 -0.18684018242035241 0.36285318828216773 0 -0.1869214692495457 0.3679434882729567 0 -0.17842853968084141 0.37850222178096282 0 -0.18107573488055589 0.37135035993115778 0 -0.18827341652571961 0.37482666901638878 0 -0.1796498009668325 0.36546279737362769 0 -0.18107573488055589 0.37135035993115778 0 -0.1869214692495457 0.3679434882729567 0 -0.18107573488055589 0.37135035993115778 0 -0.1869214692495457 0.3679434882729567 0 -0.18827341652571961 0.37482666901638878 0 -0.1995834246955637 0.36464448774947539 0 -0.19419347613366661 0.35752059525913499 0 -0.2126522067175656 0.36169789639216349 0 -0.1869214692495457 0.3679434882729567 0 -0.2037700009656972 0.37383887992164022 0 -0.1869214692495457 0.3679434882729567 0 -0.18827341652571961 0.37482666901638878 0 -0.2037700009656972 0.37383887992164022 0 -0.1869214692495457 0.3679434882729567 0 -0.19426171069296511 0.365360127897075 0 -0.2037700009656972 0.37383887992164022 0 -0.18684018242035241 0.36285318828216773 0 -0.19426171069296511 0.365360127897075 0 -0.19419347613366661 0.35752059525913499 0 -0.18684018242035241 0.36285318828216773 0 -0.1869214692495457 0.3679434882729567 0 -0.19426171069296511 0.365360127897075 0 -0.19426171069296511 0.365360127897075 0 -0.1995834246955637 0.36464448774947539 0 -0.19419347613366661 0.35752059525913499 0 -0.19426171069296511 0.365360127897075 0 -0.1995834246955637 0.36464448774947539 0 -0.2037700009656972 0.37383887992164022 0 -0.19419347613366661 0.35752059525913499 0 -0.1958428129823814 0.34784540628633132 0 -0.2126522067175656 0.36169789639216349 0 -0.1816215216896902 0.34951863202477362 0 -0.18962449830652259 0.35443445546310193 0 -0.1958428129823814 0.34784540628633132 0 -0.18684018242035241 0.36285318828216773 0 -0.19419347613366661 0.35752059525913499 0 -0.18962449830652259 0.35443445546310193 0 -0.19419347613366661 0.35752059525913499 0 -0.18962449830652259 0.35443445546310193 0 -0.1958428129823814 0.34784540628633132 0 -0.1958428129823814 0.34784540628633132 0 -0.2126522067175656 0.36169789639216349 0 -0.20839400866849861 0.34545044773425898 0 -0.2162073520689349 0.35019581436373121 0 -0.2126522067175656 0.36169789639216349 0 -0.1958428129823814 0.34784540628633132 0 -0.20839400866849861 0.34545044773425898 0 -0.2126522067175656 0.36169789639216349 0 -0.2162073520689349 0.35019581436373121 0 -0.2126522067175656 0.36169789639216349 0 -0.22338197389726949 0.35303046682255729 0 -0.20839400866849861 0.34545044773425898 0 -0.2162073520689349 0.35019581436373121 0 -0.22040121899240589 0.34060444650594512 0 -0.22061853268184831 0.37973427157032458 0 -0.2037700009656972 0.37383887992164022 0 -0.2126522067175656 0.36169789639216349 0 -0.1995834246955637 0.36464448774947539 0 -0.2037700009656972 0.37383887992164022 0 -0.2126522067175656 0.36169789639216349 0 -0.22946160045274969 0.37555038649799571 0 -0.2126522067175656 0.36169789639216349 0 -0.22654179478788089 0.36278319824958188 0 -0.22946160045274969 0.37555038649799571 0 -0.2126522067175656 0.36169789639216349 0 -0.22946160045274969 0.37555038649799571 0 -0.22061853268184831 0.37973427157032458 0 -0.2126522067175656 0.36169789639216349 0 -0.22946160045274969 0.37555038649799571 0 -0.22654179478788089 0.36278319824958188 0 -0.23515027717374909 0.36628383574832551 0 -0.22654179478788089 0.36278319824958188 0 -0.2332178236105972 0.35688723387610333 0 -0.23515027717374909 0.36628383574832551 0 -0.2126522067175656 0.36169789639216349 0 -0.22654179478788089 0.36278319824958188 0 -0.22338197389726949 0.35303046682255729 0 -0.2162073520689349 0.35019581436373121 0 -0.22338197389726949 0.35303046682255729 0 -0.22040121899240589 0.34060444650594512 0 -0.22338197389726949 0.35303046682255729 0 -0.23148160852098179 0.34588231342874959 0 -0.22040121899240589 0.34060444650594512 0 -0.22338197389726949 0.35303046682255729 0 -0.23148160852098179 0.34588231342874959 0 -0.2332178236105972 0.35688723387610333 0 -0.22654179478788089 0.36278319824958188 0 -0.22338197389726949 0.35303046682255729 0 -0.2332178236105972 0.35688723387610333 0 -0.2332178236105972 0.35688723387610333 0 -0.24183276682984731 0.3501776489879026 0 -0.24163246464021909 0.36074443225003427 0 -0.23148160852098179 0.34588231342874959 0 -0.2332178236105972 0.35688723387610333 0 -0.24183276682984731 0.3501776489879026 0 -0.23148160852098179 0.34588231342874959 0 -0.24183276682984731 0.3501776489879026 0 -0.24166459948645791 0.33842239868436452 0 -0.25295152442094759 0.34275484078600282 0 -0.2519383555078234 0.35644269101866738 0 -0.24183276682984731 0.3501776489879026 0 -0.25295152442094759 0.34275484078600282 0 -0.24183276682984731 0.3501776489879026 0 -0.24166459948645791 0.33842239868436452 0 -0.2519383555078234 0.35644269101866738 0 -0.24183276682984731 0.3501776489879026 0 -0.24163246464021909 0.36074443225003427 0 -0.2519383555078234 0.35644269101866738 0 -0.2460231000790786 0.37393075161917277 0 -0.24163246464021909 0.36074443225003427 0 -0.22946160045274969 0.37555038649799571 0 -0.2460231000790786 0.37393075161917277 0 -0.23515027717374909 0.36628383574832551 0 -0.2460231000790786 0.37393075161917277 0 -0.24163246464021909 0.36074443225003427 0 -0.23515027717374909 0.36628383574832551 0 -0.2332178236105972 0.35688723387610333 0 -0.24163246464021909 0.36074443225003427 0 -0.23515027717374909 0.36628383574832551 0 -0.24004983439012589 0.32741641671094018 0 -0.24920933781177501 0.31790270752223371 0 -0.22766049665825361 0.32284350997407413 0 -0.24531862700545601 0.31417757358992798 0 -0.24920933781177501 0.31790270752223371 0 -0.22766049665825361 0.32284350997407413 0 -0.24920933781177501 0.31790270752223371 0 -0.22766049665825361 0.32284350997407413 0 -0.24531862700545601 0.31417757358992798 0 -0.24920933781177501 0.31790270752223371 0 -0.2502134517074236 0.33182082943189928 0 -0.24004983439012589 0.32741641671094018 0 -0.24920933781177501 0.31790270752223371 0 -0.2502134517074236 0.33182082943189928 0 -0.24004983439012589 0.32741641671094018 0 -0.24166459948645791 0.33842239868436452 0 -0.25295152442094759 0.34275484078600282 0 -0.2502134517074236 0.33182082943189928 0 -0.24166459948645791 0.33842239868436452 0 -0.23148160852098179 0.34588231342874959 0 -0.24166459948645791 0.33842239868436452 0 -0.23178607492953529 0.33502274977818403 0 -0.24004983439012589 0.32741641671094018 0 -0.24166459948645791 0.33842239868436452 0 -0.23178607492953529 0.33502274977818403 0 -0.24004983439012589 0.32741641671094018 0 -0.231310396623265 0.32907375513111609 0 -0.23178607492953529 0.33502274977818403 0 -0.231310396623265 0.32907375513111609 0 -0.23178607492953529 0.33502274977818403 0 -0.22574518051514531 0.33101234406126617 0 -0.23148160852098179 0.34588231342874959 0 -0.23178607492953529 0.33502274977818403 0 -0.22040121899240589 0.34060444650594512 0 -0.22574518051514531 0.33101234406126617 0 -0.22766049665825361 0.32284350997407413 0 -0.21800884705687781 0.33116782827681318 0 -0.23178607492953529 0.33502274977818403 0 -0.22040121899240589 0.34060444650594512 0 -0.22574518051514531 0.33101234406126617 0 -0.22040121899240589 0.34060444650594512 0 -0.22574518051514531 0.33101234406126617 0 -0.21800884705687781 0.33116782827681318 0 -0.24531862700545601 0.31417757358992798 0 -0.22018097431705769 0.32075464641730961 0 -0.24531862700545601 0.31417757358992798 0 -0.22018097431705769 0.32075464641730961 0 -0.23085825844438049 0.31212554691684141 0 -0.24531862700545601 0.31417757358992798 0 -0.22018097431705769 0.32075464641730961 0 -0.22766049665825361 0.32284350997407413 0 -0.24004983439012589 0.32741641671094018 0 -0.231310396623265 0.32907375513111609 0 -0.22766049665825361 0.32284350997407413 0 -0.231310396623265 0.32907375513111609 0 -0.22574518051514531 0.33101234406126617 0 -0.22766049665825361 0.32284350997407413 0 -0.22018097431705769 0.32075464641730961 0 -0.2136925883704284 0.31391756777481078 0 -0.2242479183957275 0.31053043694497212 0 -0.22018097431705769 0.32075464641730961 0 -0.2242479183957275 0.31053043694497212 0 -0.23085825844438049 0.31212554691684141 0 -0.22018097431705769 0.32075464641730961 0 -0.19504332162865959 0.32733171924469229 0 -0.22018097431705769 0.32075464641730961 0 -0.2061116555047319 0.32778431242591421 0 -0.19504332162865959 0.32733171924469229 0 -0.22018097431705769 0.32075464641730961 0 -0.2136925883704284 0.31391756777481078 0 -0.2000137605996454 0.32094496901559372 0 -0.22766049665825361 0.32284350997407413 0 -0.2061116555047319 0.32778431242591421 0 -0.21800884705687781 0.33116782827681318 0 -0.22018097431705769 0.32075464641730961 0 -0.22766049665825361 0.32284350997407413 0 -0.2061116555047319 0.32778431242591421 0 -0.22766049665825361 0.32284350997407413 0 -0.2061116555047319 0.32778431242591421 0 -0.22018097431705769 0.32075464641730961 0 -0.2000137605996454 0.32094496901559372 0 -0.19504332162865959 0.32733171924469229 0 -0.2136925883704284 0.31391756777481078 0 -0.20526564392848781 0.31416889030157441 0 -0.2000137605996454 0.32094496901559372 0 -0.20839400866849861 0.34545044773425898 0 -0.22040121899240589 0.34060444650594512 0 -0.2104738722434551 0.33620124202474733 0 -0.22040121899240589 0.34060444650594512 0 -0.21800884705687781 0.33116782827681318 0 -0.2104738722434551 0.33620124202474733 0 -0.2061116555047319 0.32778431242591421 0 -0.21800884705687781 0.33116782827681318 0 -0.2104738722434551 0.33620124202474733 0 -0.2061116555047319 0.32778431242591421 0 -0.2104738722434551 0.33620124202474733 0 -0.1989913799212536 0.33679834323541941 0 -0.20839400866849861 0.34545044773425898 0 -0.2104738722434551 0.33620124202474733 0 -0.1989913799212536 0.33679834323541941 0 -0.1845628143512105 0.33272511487775458 0 -0.2061116555047319 0.32778431242591421 0 -0.1989913799212536 0.33679834323541941 0 -0.1845628143512105 0.33272511487775458 0 -0.2061116555047319 0.32778431242591421 0 -0.19504332162865959 0.32733171924469229 0 -0.1845628143512105 0.33272511487775458 0 -0.2061116555047319 0.32778431242591421 0 -0.1958428129823814 0.34784540628633132 0 -0.20839400866849861 0.34545044773425898 0 -0.1989913799212536 0.33679834323541941 0 -0.1845628143512105 0.33272511487775458 0 -0.19504332162865959 0.32733171924469229 0 -0.19193644689038281 0.32780269276328461 0 -0.1845628143512105 0.33272511487775458 0 -0.1989913799212536 0.33679834323541941 0 -0.18756605885428329 0.33798708809283362 0 -0.1958428129823814 0.34784540628633132 0 -0.1989913799212536 0.33679834323541941 0 -0.18756605885428329 0.33798708809283362 0 -0.20526564392848781 0.31416889030157441 0 -0.2000137605996454 0.32094496901559372 0 -0.2001909095757535 0.31152888140895119 0 -0.2000137605996454 0.32094496901559372 0 -0.19193123229020809 0.31830056414075331 0 -0.2001909095757535 0.31152888140895119 0 -0.2000137605996454 0.32094496901559372 0 -0.19607933533903549 0.32319339494374538 0 -0.19193123229020809 0.31830056414075331 0 -0.2000137605996454 0.32094496901559372 0 -0.19607933533903549 0.32319339494374538 0 -0.19504332162865959 0.32733171924469229 0 -0.19396649863368259 0.32428174036485619 0 -0.19193644689038281 0.32780269276328461 0 -0.19193123229020809 0.31830056414075331 0 -0.19607933533903549 0.32319339494374538 0 -0.19396649863368259 0.32428174036485619 0 -0.19193123229020809 0.31830056414075331 0 -0.19607933533903549 0.32319339494374538 0 -0.19504332162865959 0.32733171924469229 0 -0.19396649863368259 0.32428174036485619 0 -0.19504332162865959 0.32733171924469229 0 -0.19396649863368259 0.32428174036485619 0 -0.19193644689038281 0.32780269276328461 0 -0.19193123229020809 0.31830056414075331 0 -0.19133952298317719 0.30706297170608421 0 -0.2001909095757535 0.31152888140895119 0 -0.19133952298317719 0.30706297170608421 0 -0.19089313019369389 0.29293439582845748 0 -0.2032822404671665 0.30106613218529132 0 -0.19133952298317719 0.30706297170608421 0 -0.2001909095757535 0.31152888140895119 0 -0.2032822404671665 0.30106613218529132 0 -0.19089313019369389 0.29293439582845748 0 -0.20895375010362069 0.2917349484950964 0 -0.2032822404671665 0.30106613218529132 0 -0.19089313019369389 0.29293439582845748 0 -0.2097500138959639 0.27615278890808398 0 -0.19089313019369389 0.29293439582845748 0 -0.20895375010362069 0.2917349484950964 0 -0.2097500138959639 0.27615278890808398 0 -0.20895375010362069 0.2917349484950964 0 -0.2220524011131062 0.2919014878403835 0 -0.2097500138959639 0.27615278890808398 0 -0.20895375010362069 0.2917349484950964 0 -0.21709812799793979 0.30250367926078231 0 -0.2220524011131062 0.2919014878403835 0 -0.2001909095757535 0.31152888140895119 0 -0.2079059020679552 0.30863703018628202 0 -0.2032822404671665 0.30106613218529132 0 -0.2136925883704284 0.31391756777481078 0 -0.20526564392848781 0.31416889030157441 0 -0.2079059020679552 0.30863703018628202 0 -0.20526564392848781 0.31416889030157441 0 -0.2001909095757535 0.31152888140895119 0 -0.2079059020679552 0.30863703018628202 0 -0.2079059020679552 0.30863703018628202 0 -0.2032822404671665 0.30106613218529132 0 -0.21709812799793979 0.30250367926078231 0 -0.20895375010362069 0.2917349484950964 0 -0.2032822404671665 0.30106613218529132 0 -0.21709812799793979 0.30250367926078231 0 -0.2136925883704284 0.31391756777481078 0 -0.2079059020679552 0.30863703018628202 0 -0.21709812799793979 0.30250367926078231 0 -0.2136925883704284 0.31391756777481078 0 -0.21709812799793979 0.30250367926078231 0 -0.2242479183957275 0.31053043694497212 0 -0.21709812799793979 0.30250367926078231 0 -0.2336855140592809 0.30303953071515599 0 -0.2220524011131062 0.2919014878403835 0 -0.21709812799793979 0.30250367926078231 0 -0.2242479183957275 0.31053043694497212 0 -0.2336855140592809 0.30303953071515599 0 -0.2242479183957275 0.31053043694497212 0 -0.23085825844438049 0.31212554691684141 0 -0.2336855140592809 0.30303953071515599 0 -0.2336855140592809 0.30303953071515599 0 -0.2220524011131062 0.2919014878403835 0 -0.2220524011131062 0.2919014878403835 0 -0.23143413006861821 0.28415779857199458 0 -0.23851627210711129 0.29169288467305271 0 -0.2220524011131062 0.2919014878403835 0 -0.23143413006861821 0.28415779857199458 0 -0.22577838653583249 0.27456759056787572 0 -0.2336855140592809 0.30303953071515599 0 -0.2220524011131062 0.2919014878403835 0 -0.23851627210711129 0.29169288467305271 0 -0.23851627210711129 0.29169288467305271 0 -0.2469496641305429 0.28552353553695498 0 -0.23938946051842269 0.27846923120666672 0 -0.23143413006861821 0.28415779857199458 0 -0.23851627210711129 0.29169288467305271 0 -0.23938946051842269 0.27846923120666672 0 -0.23851627210711129 0.29169288467305271 0 -0.2469496641305429 0.28552353553695498 0 -0.24993271077240739 0.29678087560504302 0 -0.23851627210711129 0.29169288467305271 0 -0.24993271077240739 0.29678087560504302 0 -0.24394705832367131 0.30210937893478851 0 -0.25196061543158332 0.30526051510166191 0 -0.24993271077240739 0.29678087560504302 0 -0.24394705832367131 0.30210937893478851 0 -0.25196061543158332 0.30526051510166191 0 -0.24531862700545601 0.31417757358992798 0 -0.24394705832367131 0.30210937893478851 0 -0.24531862700545601 0.31417757358992798 0 -0.2336855140592809 0.30303953071515599 0 -0.24394705832367131 0.30210937893478851 0 -0.24531862700545601 0.31417757358992798 0 -0.2336855140592809 0.30303953071515599 0 -0.24531862700545601 0.31417757358992798 0 -0.23085825844438049 0.31212554691684141 0 -0.2336855140592809 0.30303953071515599 0 -0.2336855140592809 0.30303953071515599 0 -0.23851627210711129 0.29169288467305271 0 -0.24394705832367131 0.30210937893478851 0 -0.2586972770707342 0.26766932234701102 0 -0.24101650654197371 0.26495773080611251 0 -0.2412662617624578 0.25135091103929058 0 -0.2586972770707342 0.26766932234701102 0 -0.2412662617624578 0.25135091103929058 0 -0.24101650654197371 0.26495773080611251 0 -0.2412662617624578 0.25135091103929058 0 -0.22860689759823391 0.25937118198771048 0 -0.24101650654197371 0.26495773080611251 0 -0.24900133351229239 0.27563227110277427 0 -0.23938946051842269 0.27846923120666672 0 -0.2586972770707342 0.26766932234701102 0 -0.24101650654197371 0.26495773080611251 0 -0.24900133351229239 0.27563227110277427 0 -0.2469496641305429 0.28552353553695498 0 -0.24900133351229239 0.27563227110277427 0 -0.23938946051842269 0.27846923120666672 0 -0.24101650654197371 0.26495773080611251 0 -0.23938946051842269 0.27846923120666672 0 -0.22577838653583249 0.27456759056787572 0 -0.22577838653583249 0.27456759056787572 0 -0.22860689759823391 0.25937118198771048 0 -0.2097500138959639 0.27615278890808398 0 -0.22860689759823391 0.25937118198771048 0 -0.2097500138959639 0.27615278890808398 0 -0.24101650654197371 0.26495773080611251 0 -0.22577838653583249 0.27456759056787572 0 -0.22860689759823391 0.25937118198771048 0 -0.2220524011131062 0.2919014878403835 0 -0.22577838653583249 0.27456759056787572 0 -0.2097500138959639 0.27615278890808398 0 -0.23143413006861821 0.28415779857199458 0 -0.23938946051842269 0.27846923120666672 0 -0.22577838653583249 0.27456759056787572 0 -0.22860689759823391 0.25937118198771048 0 -0.20870061172448501 0.25598841172981152 0 -0.2202348875839712 0.24837544522908411 0 -0.2412662617624578 0.25135091103929058 0 -0.22860689759823391 0.25937118198771048 0 -0.2202348875839712 0.24837544522908411 0 -0.22860689759823391 0.25937118198771048 0 -0.20870061172448501 0.25598841172981152 0 -0.2097500138959639 0.27615278890808398 0 -0.20870061172448501 0.25598841172981152 0 -0.2097500138959639 0.27615278890808398 0 -0.1894562499965381 0.27117621434258821 0 -0.19089313019369389 0.29293439582845748 0 -0.2097500138959639 0.27615278890808398 0 -0.1894562499965381 0.27117621434258821 0 -0.20870061172448501 0.25598841172981152 0 -0.1894562499965381 0.27117621434258821 0 -0.191131830424698 0.24603646340069529 0 -0.1894562499965381 0.27117621434258821 0 -0.17478515048514501 0.25599795249760859 0 -0.191131830424698 0.24603646340069529 0 -0.17478515048514501 0.25599795249760859 0 -0.15734776493634059 0.25305341113509328 0 -0.1694085852426517 0.27284506752678872 0 -0.15734776493634059 0.25305341113509328 0 -0.1694085852426517 0.27284506752678872 0 -0.1694085852426517 0.27284506752678872 0 -0.16464279406600299 0.28225580988223992 0 -0.15103173324624 0.27397543583352568 0 -0.15734776493634059 0.25305341113509328 0 -0.1694085852426517 0.27284506752678872 0 -0.15103173324624 0.27397543583352568 0 -0.1694085852426517 0.27284506752678872 0 -0.1746328351802594 0.28638516241504358 0 -0.16464279406600299 0.28225580988223992 0 -0.1894562499965381 0.27117621434258821 0 -0.1694085852426517 0.27284506752678872 0 -0.1746328351802594 0.28638516241504358 0 -0.1894562499965381 0.27117621434258821 0 -0.17478515048514501 0.25599795249760859 0 -0.1694085852426517 0.27284506752678872 0 -0.19089313019369389 0.29293439582845748 0 -0.1746328351802594 0.28638516241504358 0 -0.1692572999944458 0.30099854791074609 0 -0.19089313019369389 0.29293439582845748 0 -0.1894562499965381 0.27117621434258821 0 -0.1746328351802594 0.28638516241504358 0 -0.19089313019369389 0.29293439582845748 0 -0.17077755675466941 0.30857201773175691 0 -0.1692572999944458 0.30099854791074609 0 -0.19089313019369389 0.29293439582845748 0 -0.17077755675466941 0.30857201773175691 0 -0.19133952298317719 0.30706297170608421 0 -0.19089313019369389 0.29293439582845748 0 -0.17077755675466941 0.30857201773175691 0 -0.19193123229020809 0.31830056414075331 0 -0.19133952298317719 0.30706297170608421 0 -0.17077755675466941 0.30857201773175691 0 -0.17077755675466941 0.30857201773175691 0 -0.1522061911105467 0.29169306541889678 0 -0.17077755675466941 0.30857201773175691 0 -0.16349802259486129 0.29581757375360113 0 -0.1522061911105467 0.29169306541889678 0 -0.17077755675466941 0.30857201773175691 0 -0.15655503752864841 0.30556438309509398 0 -0.1522061911105467 0.29169306541889678 0 -0.1716345267548989 0.31007351159371721 0 -0.17077755675466941 0.30857201773175691 0 -0.17077755675466941 0.30857201773175691 0 -0.1692572999944458 0.30099854791074609 0 -0.16349802259486129 0.29581757375360113 0 -0.17077755675466941 0.30857201773175691 0 -0.16349802259486129 0.29581757375360113 0 -0.1692572999944458 0.30099854791074609 0 -0.16349802259486129 0.29581757375360113 0 -0.16123683790466309 0.31932689247679358 0 -0.17077755675466941 0.30857201773175691 0 -0.15655503752864841 0.30556438309509398 0 -0.16349802259486129 0.29581757375360113 0 -0.15103173324624 0.27397543583352568 0 -0.16464279406600299 0.28225580988223992 0 -0.16349802259486129 0.29581757375360113 0 -0.15103173324624 0.27397543583352568 0 -0.1746328351802594 0.28638516241504358 0 -0.16464279406600299 0.28225580988223992 0 -0.16349802259486129 0.29581757375360113 0 -0.1746328351802594 0.28638516241504358 0 -0.1692572999944458 0.30099854791074609 0 -0.16349802259486129 0.29581757375360113 0 -0.1522061911105467 0.29169306541889678 0 -0.13681772541796011 0.28871381306657862 0 -0.13363482546642469 0.27481411310603598 0 -0.1522061911105467 0.29169306541889678 0 -0.13363482546642469 0.27481411310603598 0 -0.16349802259486129 0.29581757375360113 0 -0.14710247929570269 0.28106834737818148 0 -0.16349802259486129 0.29581757375360113 0 -0.14710247929570269 0.28106834737818148 0 -0.15103173324624 0.27397543583352568 0 -0.16349802259486129 0.29581757375360113 0 -0.1522061911105467 0.29169306541889678 0 -0.14710247929570269 0.28106834737818148 0 -0.1522061911105467 0.29169306541889678 0 -0.13363482546642469 0.27481411310603598 0 -0.14710247929570269 0.28106834737818148 0 -0.1522061911105467 0.29169306541889678 0 -0.14088890766651041 0.30255832207272548 0 -0.13681772541796011 0.28871381306657862 0 -0.15655503752864841 0.30556438309509398 0 -0.1522061911105467 0.29169306541889678 0 -0.14088890766651041 0.30255832207272548 0 -0.16123683790466309 0.31932689247679358 0 -0.14088890766651041 0.30255832207272548 0 -0.16123683790466309 0.31932689247679358 0 -0.15655503752864841 0.30556438309509398 0 -0.14088890766651041 0.30255832207272548 0 -0.14088890766651041 0.30255832207272548 0 -0.1205409774283587 0.28578975166865611 0 -0.121013000012014 0.30829024961047058 0 -0.1346367300102593 0.31958270839691688 0 -0.14088890766651041 0.30255832207272548 0 -0.121013000012014 0.30829024961047058 0 -0.13681772541796011 0.28871381306657862 0 -0.13363482546642469 0.27481411310603598 0 -0.1205409774283587 0.28578975166865611 0 -0.14088890766651041 0.30255832207272548 0 -0.1205409774283587 0.28578975166865611 0 -0.14088890766651041 0.30255832207272548 0 -0.13681772541796011 0.28871381306657862 0 -0.1205409774283587 0.28578975166865611 0 -0.13363482546642469 0.27481411310603598 0 -0.13070693599654359 0.26631912100276239 0 -0.115063459822302 0.25793516079317591 0 -0.13363482546642469 0.27481411310603598 0 -0.13070693599654359 0.26631912100276239 0 -0.14710247929570269 0.28106834737818148 0 -0.13070693599654359 0.26631912100276239 0 -0.14710247929570269 0.28106834737818148 0 -0.13070693599654359 0.26631912100276239 0 -0.13856544389761921 0.25213329791345018 0 -0.15103173324624 0.27397543583352568 0 -0.13070693599654359 0.26631912100276239 0 -0.1275845452889372 0.25235475329170443 0 -0.13856544389761921 0.25213329791345018 0 -0.13856544389761921 0.25213329791345018 0 -0.15103173324624 0.27397543583352568 0 -0.15734776493634059 0.25305341113509328 0 -0.13856544389761921 0.25213329791345018 0 -0.15103173324624 0.27397543583352568 0 -0.13070693599654359 0.26631912100276239 0 -0.14710247929570269 0.28106834737818148 0 -0.15103173324624 0.27397543583352568 0 -0.10578562797140451 0.27165129245416281 0 -0.084305440690359529 0.27786403000363902 0 -0.091622045209149655 0.26169434310012119 0 -0.10578562797140451 0.27165129245416281 0 -0.1026592203511866 0.29307713980705502 0 -0.084305440690359529 0.27786403000363902 0 -0.10578562797140451 0.27165129245416281 0 -0.1017460216861063 0.25652835057549389 0 -0.091622045209149655 0.26169434310012119 0 -0.1017460216861063 0.25652835057549389 0 -0.115063459822302 0.25793516079317591 0 -0.096087350700184732 0.240688349379646 0 -0.115063459822302 0.25793516079317591 0 -0.1143113926973838 0.25156989462734419 0 -0.096087350700184732 0.240688349379646 0 -0.094495146754203743 0.25185255969015358 0 -0.1017460216861063 0.25652835057549389 0 -0.091622045209149655 0.26169434310012119 0 -0.10578562797140451 0.27165129245416281 0 -0.1017460216861063 0.25652835057549389 0 -0.115063459822302 0.25793516079317591 0 -0.13070693599654359 0.26631912100276239 0 -0.1275845452889372 0.25235475329170443 0 -0.1143113926973838 0.25156989462734419 0 -0.13070693599654359 0.26631912100276239 0 -0.1143113926973838 0.25156989462734419 0 -0.13070693599654359 0.26631912100276239 0 -0.115063459822302 0.25793516079317591 0 -0.1143113926973838 0.25156989462734419 0 -0.115063459822302 0.25793516079317591 0 -0.1143113926973838 0.25156989462734419 0 -0.13363482546642469 0.27481411310603598 0 -0.115063459822302 0.25793516079317591 0 -0.1180382299171578 0.28311270520182319 0 -0.13363482546642469 0.27481411310603598 0 -0.115063459822302 0.25793516079317591 0 -0.115063459822302 0.25793516079317591 0 -0.1180382299171578 0.28311270520182319 0 -0.10578562797140451 0.27165129245416281 0 -0.115063459822302 0.25793516079317591 0 -0.1180382299171578 0.28311270520182319 0 -0.13363482546642469 0.27481411310603598 0 -0.1180382299171578 0.28311270520182319 0 -0.1205409774283587 0.28578975166865611 0 -0.1180382299171578 0.28311270520182319 0 -0.121013000012014 0.30829024961047058 0 -0.1026592203511866 0.29307713980705502 0 -0.1180382299171578 0.28311270520182319 0 -0.121013000012014 0.30829024961047058 0 -0.1180382299171578 0.28311270520182319 0 -0.1205409774283587 0.28578975166865611 0 -0.121013000012014 0.30829024961047058 0 -0.121013000012014 0.30829024961047058 0 -0.1086148371465807 0.3120457746516207 0 -0.1026592203511866 0.29307713980705502 0 -0.121013000012014 0.30829024961047058 0 -0.1026592203511866 0.29307713980705502 0 -0.121013000012014 0.30829024961047058 0 -0.1219008421362526 0.31580467385102828 0 -0.121013000012014 0.30829024961047058 0 -0.1086148371465807 0.3120457746516207 0 -0.1219008421362526 0.31580467385102828 0 -0.094756184604245855 0.30816888558186428 0 -0.1026592203511866 0.29307713980705502 0 -0.084482102723374392 0.29805087676785391 0 -0.1086148371465807 0.3120457746516207 0 -0.094756184604245855 0.30816888558186428 0 -0.1026592203511866 0.29307713980705502 0 -0.10578562797140451 0.27165129245416281 0 -0.1180382299171578 0.28311270520182319 0 -0.1026592203511866 0.29307713980705502 0 -0.1026592203511866 0.29307713980705502 0 -0.084482102723374392 0.29805087676785391 0 -0.084305440690359529 0.27786403000363902 0 -0.1026592203511866 0.29307713980705502 0 -0.084305440690359529 0.27786403000363902 0 -0.084482102723374392 0.29805087676785391 0 -0.073808382102627024 0.29197163039904778 0 -0.084305440690359529 0.27786403000363902 0 -0.084482102723374392 0.29805087676785391 0 -0.071398027565389974 0.30521973710211298 0 -0.081047592594279252 0.31574949162203442 0 -0.094756184604245855 0.30816888558186428 0 -0.084482102723374392 0.29805087676785391 0 -0.081047592594279252 0.31574949162203442 0 -0.084482102723374392 0.29805087676785391 0 -0.071398027565389974 0.30521973710211298 0 -0.073808382102627024 0.29197163039904778 0 -0.071398027565389974 0.30521973710211298 0 -0.061753835485322463 0.29693832943332588 0 -0.060085825210174651 0.30962118335297217 0 -0.071398027565389974 0.30521973710211298 0 -0.073808382102627024 0.29197163039904778 0 -0.061753835485322463 0.29693832943332588 0 -0.071398027565389974 0.30521973710211298 0 -0.060085825210174651 0.30962118335297217 0 -0.067427806087430986 0.31859149421785748 0 -0.073808382102627024 0.29197163039904778 0 -0.065362226653552152 0.28334347988246189 0 -0.084305440690359529 0.27786403000363902 0 -0.073808382102627024 0.29197163039904778 0 -0.065362226653552152 0.28334347988246189 0 -0.061753835485322463 0.29693832943332588 0 -0.065362226653552152 0.28334347988246189 0 -0.075292610695983322 0.26418475758369098 0 -0.053461246808093311 0.26708620644702308 0 -0.065362226653552152 0.28334347988246189 0 -0.084305440690359529 0.27786403000363902 0 -0.075292610695983322 0.26418475758369098 0 -0.084305440690359529 0.27786403000363902 0 -0.091622045209149655 0.26169434310012119 0 -0.075292610695983322 0.26418475758369098 0 -0.091622045209149655 0.26169434310012119 0 -0.075292610695983322 0.26418475758369098 0 -0.085686930434730663 0.24908917197524849 0 -0.094495146754203743 0.25185255969015358 0 -0.091622045209149655 0.26169434310012119 0 -0.085686930434730663 0.24908917197524849 0 -0.075292610695983322 0.26418475758369098 0 -0.071317774380014659 0.24603131409365209 0 -0.085686930434730663 0.24908917197524849 0 -0.075292610695983322 0.26418475758369098 0 -0.053461246808093311 0.26708620644702308 0 -0.071317774380014659 0.24603131409365209 0 -0.053461246808093311 0.26708620644702308 0 -0.071317774380014659 0.24603131409365209 0 -0.053461246808093311 0.26708620644702308 0 -0.071317774380014659 0.24603131409365209 0 -0.042601251696290851 0.24851914262292679 0 -0.065362226653552152 0.28334347988246189 0 -0.053461246808093311 0.26708620644702308 0 -0.049969781233192907 0.2903532209529916 0 -0.053461246808093311 0.26708620644702308 0 -0.035604719236169938 0.28814109880039229 0 -0.053461246808093311 0.26708620644702308 0 -0.034353754366247963 0.27332186567887917 0 -0.03031676770567342 0.26219310003034302 0 -0.053461246808093311 0.26708620644702308 0 -0.034353754366247963 0.27332186567887917 0 -0.035604719236169938 0.28814109880039229 0 -0.053461246808093311 0.26708620644702308 0 -0.03031676770567342 0.26219310003034302 0 -0.042601251696290851 0.24851914262292679 0 -0.03031676770567342 0.26219310003034302 0 -0.042601251696290851 0.24851914262292679 0 -0.03031676770567342 0.26219310003034302 0 -0.015235597441373641 0.25512395430086182 0 -0.02439618885725248 0.23804590227776701 0 -0.03031676770567342 0.26219310003034302 0 -0.018032283715055081 0.27586705743775819 0 -0.015235597441373641 0.25512395430086182 0 -0.034353754366247963 0.27332186567887917 0 -0.018032283715055081 0.27586705743775819 0 -0.035604719236169938 0.28814109880039229 0 -0.03031676770567342 0.26219310003034302 0 -0.018032283715055081 0.27586705743775819 0 -0.034353754366247963 0.27332186567887917 0 -0.03031676770567342 0.26219310003034302 0 -0.018032283715055081 0.27586705743775819 0 -0.018032283715055081 0.27586705743775819 0 -0.0012214697552497889 0.26412499552299018 0 -0.018032283715055081 0.27586705743775819 0 -0.0061017399293258126 0.27805625422800428 0 -0.0012214697552497889 0.26412499552299018 0 -0.018032283715055081 0.27586705743775819 0 -0.0061017399293258126 0.27805625422800428 0 -0.0059603187066722824 0.28930445826587109 0 -0.0061017399293258126 0.27805625422800428 0 -0.001695392528938093 0.28323646968268817 0 0.0022106927435165528 0.27736271093562509 0 -0.0061017399293258126 0.27805625422800428 0 -0.0012214697552497889 0.26412499552299018 0 0.0022106927435165528 0.27736271093562509 0 -0.018032283715055081 0.27586705743775819 0 -0.015235597441373641 0.25512395430086182 0 -0.0012214697552497889 0.26412499552299018 0 -0.015235597441373641 0.25512395430086182 0 -0.0012214697552497889 0.26412499552299018 0 -0.0011779531814362859 0.24237928671812051 0 -0.00081914683292831376 0.31084436128580528 0 -0.01709135852765974 0.29724061000946189 0 -0.018988337149120831 0.31108095057935231 0 -0.00081914683292831376 0.31084436128580528 0 -0.0059603187066722824 0.28930445826587109 0 -0.01709135852765974 0.29724061000946189 0 -0.00081914683292831376 0.31084436128580528 0 -0.0059603187066722824 0.28930445826587109 0 -0.018032283715055081 0.27586705743775819 0 -0.0059603187066722824 0.28930445826587109 0 -0.01709135852765974 0.29724061000946189 0 -0.0061017399293258126 0.27805625422800428 0 -0.0059603187066722824 0.28930445826587109 0 -0.001695392528938093 0.28323646968268817 0 -0.0059603187066722824 0.28930445826587109 0 -0.001695392528938093 0.28323646968268817 0 -0.0014572192683853351 0.2876382609864131 0 -0.018032283715055081 0.27586705743775819 0 -0.0059603187066722824 0.28930445826587109 0 -0.018032283715055081 0.27586705743775819 0 -0.035604719236169938 0.28814109880039229 0 -0.018032283715055081 0.27586705743775819 0 -0.031046980582975611 0.29351519498630341 0 -0.035604719236169938 0.28814109880039229 0 -0.018032283715055081 0.27586705743775819 0 -0.031046980582975611 0.29351519498630341 0 -0.01709135852765974 0.29724061000946189 0 -0.031046980582975611 0.29351519498630341 0 -0.027701084179206571 0.30283163750168213 0 -0.01709135852765974 0.29724061000946189 0 -0.027701084179206571 0.30283163750168213 0 -0.01709135852765974 0.29724061000946189 0 -0.018988337149120831 0.31108095057935231 0 -0.027701084179206571 0.30283163750168213 0 -0.018988337149120831 0.31108095057935231 0 -0.028843050718704879 0.31706619842142009 0 -0.027701084179206571 0.30283163750168213 0 -0.039442921010605349 0.30869891368481778 0 -0.028843050718704879 0.31706619842142009 0 -0.031046980582975611 0.29351519498630341 0 -0.027701084179206571 0.30283163750168213 0 -0.036642824978262142 0.29822131638887528 0 -0.027701084179206571 0.30283163750168213 0 -0.036642824978262142 0.29822131638887528 0 -0.039442921010605349 0.30869891368481778 0 -0.043860090327832557 0.29866509867747698 0 -0.039442921010605349 0.30869891368481778 0 -0.050729826761116197 0.30378794465888759 0 -0.036642824978262142 0.29822131638887528 0 -0.043860090327832557 0.29866509867747698 0 -0.039442921010605349 0.30869891368481778 0 -0.039442921010605349 0.30869891368481778 0 -0.050729826761116197 0.30378794465888759 0 -0.048964748496688061 0.31506829389253688 0 -0.053461246808093311 0.26708620644702308 0 -0.035604719236169938 0.28814109880039229 0 -0.049969781233192907 0.2903532209529916 0 -0.035604719236169938 0.28814109880039229 0 -0.036194092546274752 0.29303094490891562 0 -0.041481845387691341 0.29224616946009169 0 -0.035604719236169938 0.28814109880039229 0 -0.041481845387691341 0.29224616946009169 0 -0.031046980582975611 0.29351519498630341 0 -0.035604719236169938 0.28814109880039229 0 -0.036194092546274752 0.29303094490891562 0 -0.031046980582975611 0.29351519498630341 0 -0.035604719236169938 0.28814109880039229 0 -0.031046980582975611 0.29351519498630341 0 -0.036642824978262142 0.29822131638887528 0 -0.036194092546274752 0.29303094490891562 0 -0.036642824978262142 0.29822131638887528 0 -0.036194092546274752 0.29303094490891562 0 -0.041481845387691341 0.29224616946009169 0 -0.043860090327832557 0.29866509867747698 0 -0.041481845387691341 0.29224616946009169 0 -0.049969781233192907 0.2903532209529916 0 -0.035604719236169938 0.28814109880039229 0 -0.041481845387691341 0.29224616946009169 0 -0.049969781233192907 0.2903532209529916 0 -0.036642824978262142 0.29822131638887528 0 -0.043860090327832557 0.29866509867747698 0 -0.041481845387691341 0.29224616946009169 0 -0.065362226653552152 0.28334347988246189 0 -0.049969781233192907 0.2903532209529916 0 -0.061753835485322463 0.29693832943332588 0 -0.050729826761116197 0.30378794465888759 0 -0.060085825210174651 0.30962118335297217 0 -0.048964748496688061 0.31506829389253688 0 -0.043860090327832557 0.29866509867747698 0 -0.049969781233192907 0.2903532209529916 0 -0.050729826761116197 0.30378794465888759 0 -0.049969781233192907 0.2903532209529916 0 -0.050729826761116197 0.30378794465888759 0 -0.061753835485322463 0.29693832943332588 0 -0.050729826761116197 0.30378794465888759 0 -0.061753835485322463 0.29693832943332588 0 -0.060085825210174651 0.30962118335297217 0 -0.060085825210174651 0.30962118335297217 0 -0.056623830703110917 0.32527983544307482 0 -0.048964748496688061 0.31506829389253688 0 -0.060085825210174651 0.30962118335297217 0 -0.056623830703110917 0.32527983544307482 0 -0.067427806087430986 0.31859149421785748 0 -0.056623830703110917 0.32527983544307482 0 -0.048964748496688061 0.31506829389253688 0 -0.040120086304121449 0.32458487491411392 0 -0.056623830703110917 0.32527983544307482 0 -0.048724079226891051 0.33584482562087897 0 -0.040120086304121449 0.32458487491411392 0 -0.056623830703110917 0.32527983544307482 0 -0.060740886131594382 0.33768143367107029 0 -0.048724079226891051 0.33584482562087897 0 -0.060740886131594382 0.33768143367107029 0 -0.048724079226891051 0.33584482562087897 0 -0.053799274081061173 0.34920765103999629 0 -0.048724079226891051 0.33584482562087897 0 -0.034534090582385359 0.34360885043228961 0 -0.053799274081061173 0.34920765103999629 0 -0.048724079226891051 0.33584482562087897 0 -0.034534090582385359 0.34360885043228961 0 -0.040120086304121449 0.32458487491411392 0 -0.034534090582385359 0.34360885043228961 0 -0.040120086304121449 0.32458487491411392 0 -0.019815377256264401 0.3289722040326683 0 -0.039442921010605349 0.30869891368481778 0 -0.048964748496688061 0.31506829389253688 0 -0.040120086304121449 0.32458487491411392 0 -0.039442921010605349 0.30869891368481778 0 -0.040120086304121449 0.32458487491411392 0 -0.028843050718704879 0.31706619842142009 0 -0.018988337149120831 0.31108095057935231 0 -0.028843050718704879 0.31706619842142009 0 -0.019815377256264401 0.3289722040326683 0 -0.040120086304121449 0.32458487491411392 0 -0.028843050718704879 0.31706619842142009 0 -0.019815377256264401 0.3289722040326683 0 -0.034534090582385359 0.34360885043228961 0 -0.019815377256264401 0.3289722040326683 0 -0.01265077148324322 0.34847087810117439 0 -0.019815377256264401 0.3289722040326683 0 -0.01265077148324322 0.34847087810117439 0 0.0043220250408161527 0.3323842643057392 0 -0.01265077148324322 0.34847087810117439 0 0.0043220250408161527 0.3323842643057392 0 -0.00081914683292831376 0.31084436128580528 0 -0.018988337149120831 0.31108095057935231 0 -0.019815377256264401 0.3289722040326683 0 -0.00081914683292831376 0.31084436128580528 0 -0.019815377256264401 0.3289722040326683 0 0.0043220250408161527 0.3323842643057392 0 -0.0071869989943903478 0.37136237685342322 0 -0.01265077148324322 0.34847087810117439 0 0.00038183190451733198 0.35944236195763829 0 -0.01265077148324322 0.34847087810117439 0 0.008419854407455879 0.34955288836992632 0 0.00038183190451733198 0.35944236195763829 0 -0.01265077148324322 0.34847087810117439 0 -0.029623568007303772 0.36455749189660852 0 -0.034534090582385359 0.34360885043228961 0 -0.01265077148324322 0.34847087810117439 0 -0.029623568007303772 0.36455749189660852 0 -0.0071869989943903478 0.37136237685342322 0 -0.02689168176287695 0.37600324127273371 0 -0.0071869989943903478 0.37136237685342322 0 -0.029623568007303772 0.36455749189660852 0 -0.02689168176287695 0.37600324127273371 0 -0.0071869989943903478 0.37136237685342322 0 -0.01265077148324322 0.34847087810117439 0 -0.029623568007303772 0.36455749189660852 0 -0.029623568007303772 0.36455749189660852 0 -0.046596364531363697 0.3806441056920431 0 -0.029623568007303772 0.36455749189660852 0 -0.046596364531363697 0.3806441056920431 0 -0.02689168176287695 0.37600324127273371 0 -0.029623568007303772 0.36455749189660852 0 -0.04616116626413673 0.36347290093465678 0 -0.046596364531363697 0.3806441056920431 0 -0.034534090582385359 0.34360885043228961 0 -0.029623568007303772 0.36455749189660852 0 -0.04616116626413673 0.36347290093465678 0 -0.034534090582385359 0.34360885043228961 0 -0.04616116626413673 0.36347290093465678 0 -0.053799274081061173 0.34920765103999629 0 -0.060740886131594382 0.33768143367107029 0 -0.053799274081061173 0.34920765103999629 0 -0.071516445117433255 0.34726658118514953 0 -0.04616116626413673 0.36347290093465678 0 -0.053799274081061173 0.34920765103999629 0 -0.063976211523688098 0.36637590201296988 0 -0.04616116626413673 0.36347290093465678 0 -0.063976211523688098 0.36637590201296988 0 -0.046596364531363697 0.3806441056920431 0 -0.087971997459184076 0.36078857119772079 0 -0.095531071462878966 0.37571992166702689 0 -0.082676106477277772 0.37848627165990689 0 -0.063976211523688098 0.36637590201296988 0 -0.087971997459184076 0.36078857119772079 0 -0.082676106477277772 0.37848627165990689 0 -0.087971997459184076 0.36078857119772079 0 -0.071516445117433255 0.34726658118514953 0 -0.0901665235563886 0.33934124049236047 0 -0.063976211523688098 0.36637590201296988 0 -0.087971997459184076 0.36078857119772079 0 -0.071516445117433255 0.34726658118514953 0 -0.053799274081061173 0.34920765103999629 0 -0.063976211523688098 0.36637590201296988 0 -0.071516445117433255 0.34726658118514953 0 -0.060740886131594382 0.33768143367107029 0 -0.071516445117433255 0.34726658118514953 0 -0.073040801529475494 0.33080827506625149 0 -0.056623830703110917 0.32527983544307482 0 -0.060740886131594382 0.33768143367107029 0 -0.073040801529475494 0.33080827506625149 0 -0.056623830703110917 0.32527983544307482 0 -0.073040801529475494 0.33080827506625149 0 -0.067427806087430986 0.31859149421785748 0 -0.073040801529475494 0.33080827506625149 0 -0.067427806087430986 0.31859149421785748 0 -0.081047592594279252 0.31574949162203442 0 -0.071398027565389974 0.30521973710211298 0 -0.067427806087430986 0.31859149421785748 0 -0.081047592594279252 0.31574949162203442 0 -0.094756184604245855 0.30816888558186428 0 -0.081047592594279252 0.31574949162203442 0 -0.096977170205808413 0.3219211450607572 0 -0.081047592594279252 0.31574949162203442 0 -0.08545714362692669 0.32707136906731132 0 -0.096977170205808413 0.3219211450607572 0 -0.073040801529475494 0.33080827506625149 0 -0.081047592594279252 0.31574949162203442 0 -0.08545714362692669 0.32707136906731132 0 -0.071516445117433255 0.34726658118514953 0 -0.073040801529475494 0.33080827506625149 0 -0.0901665235563886 0.33934124049236047 0 -0.08545714362692669 0.32707136906731132 0 -0.0901665235563886 0.33934124049236047 0 -0.096977170205808413 0.3219211450607572 0 -0.073040801529475494 0.33080827506625149 0 -0.08545714362692669 0.32707136906731132 0 -0.0901665235563886 0.33934124049236047 0 -0.0901665235563886 0.33934124049236047 0 -0.096977170205808413 0.3219211450607572 0 -0.11006388290160619 0.33533934461292347 0 -0.0901665235563886 0.33934124049236047 0 -0.11006388290160619 0.33533934461292347 0 -0.10504800733488941 0.35003128002466932 0 -0.1086148371465807 0.3120457746516207 0 -0.094756184604245855 0.30816888558186428 0 -0.096977170205808413 0.3219211450607572 0 -0.096977170205808413 0.3219211450607572 0 -0.1124172920959671 0.32308182516132439 0 -0.11006388290160619 0.33533934461292347 0 -0.1086148371465807 0.3120457746516207 0 -0.096977170205808413 0.3219211450607572 0 -0.1124172920959671 0.32308182516132439 0 -0.1086148371465807 0.3120457746516207 0 -0.1124172920959671 0.32308182516132439 0 -0.1219008421362526 0.31580467385102828 0 -0.1124172920959671 0.32308182516132439 0 -0.1219008421362526 0.31580467385102828 0 -0.1245297280895879 0.33029818763029228 0 -0.12843269758859041 0.34852080366790061 0 -0.11006388290160619 0.33533934461292347 0 -0.1245297280895879 0.33029818763029228 0 -0.1124172920959671 0.32308182516132439 0 -0.11006388290160619 0.33533934461292347 0 -0.1245297280895879 0.33029818763029228 0 -0.12843269758859041 0.34852080366790061 0 -0.1086049351686781 0.36616644015244149 0 -0.12843269758859041 0.34852080366790061 0 -0.11006388290160619 0.33533934461292347 0 -0.10504800733488941 0.35003128002466932 0 -0.12843269758859041 0.34852080366790061 0 -0.1086049351686781 0.36616644015244149 0 -0.10504800733488941 0.35003128002466932 0 -0.12530638115733009 0.37861469596271691 0 -0.12843269758859041 0.34852080366790061 0 -0.1086049351686781 0.36616644015244149 0 -0.087971997459184076 0.36078857119772079 0 -0.1086049351686781 0.36616644015244149 0 -0.095531071462878966 0.37571992166702689 0 -0.1086049351686781 0.36616644015244149 0 -0.095531071462878966 0.37571992166702689 0 -0.1122800256286538 0.38232700039929379 0 -0.087971997459184076 0.36078857119772079 0 -0.1086049351686781 0.36616644015244149 0 -0.10504800733488941 0.35003128002466932 0 -0.087971997459184076 0.36078857119772079 0 -0.0901665235563886 0.33934124049236047 0 -0.10504800733488941 0.35003128002466932 0 -0.1074150980231133 0.39496818792191818 0 -0.088511830248956813 0.3905160734751883 0 -0.1074150980231133 0.39496818792191818 0 -0.099926113972008457 0.40260788909871281 0 -0.088511830248956813 0.3905160734751883 0 -0.099926113972008457 0.40260788909871281 0 -0.093234897693004831 0.41506444106453538 0 -0.088511830248956813 0.3905160734751883 0 -0.1074150980231133 0.39496818792191818 0 -0.099926113972008457 0.40260788909871281 0 -0.1105426299229583 0.40988285393320972 0 -0.097391398468283014 0.38614940702790501 0 -0.095531071462878966 0.37571992166702689 0 -0.1122800256286538 0.38232700039929379 0 -0.1074150980231133 0.39496818792191818 0 -0.097391398468283014 0.38614940702790501 0 -0.088511830248956813 0.3905160734751883 0 -0.097391398468283014 0.38614940702790501 0 -0.095531071462878966 0.37571992166702689 0 -0.09173183424712314 0.38292391059129249 0 -0.1074150980231133 0.39496818792191818 0 -0.097391398468283014 0.38614940702790501 0 -0.1122800256286538 0.38232700039929379 0 -0.12530638115733009 0.37861469596271691 0 -0.1086049351686781 0.36616644015244149 0 -0.1122800256286538 0.38232700039929379 0 -0.12631836579727029 0.3994203023686459 0 -0.12530638115733009 0.37861469596271691 0 -0.1122800256286538 0.38232700039929379 0 -0.12631836579727029 0.3994203023686459 0 -0.1074150980231133 0.39496818792191818 0 -0.1105426299229583 0.40988285393320972 0 -0.12631836579727029 0.3994203023686459 0 -0.1074150980231133 0.39496818792191818 0 -0.1122800256286538 0.38232700039929379 0 -0.12631836579727029 0.3994203023686459 0 -0.1074150980231133 0.39496818792191818 0 -0.12631836579727029 0.3994203023686459 0 -0.1105426299229583 0.40988285393320972 0 -0.12633325125609221 0.41404438953313022 0 -0.1105426299229583 0.40988285393320972 0 -0.1136270340742794 0.42670956174220592 0 -0.12633325125609221 0.41404438953313022 0 -0.12631836579727029 0.3994203023686459 0 -0.1105426299229583 0.40988285393320972 0 -0.13847433957310029 0.4268537492911661 0 -0.1136270340742794 0.42670956174220592 0 -0.120577686077101 0.44550746276719849 0 -0.1136270340742794 0.42670956174220592 0 -0.09795796513705228 0.43961280865388269 0 -0.120577686077101 0.44550746276719849 0 -0.1136270340742794 0.42670956174220592 0 -0.094269364115482479 0.42044112947702528 0 -0.09795796513705228 0.43961280865388269 0 -0.094269364115482479 0.42044112947702528 0 -0.09795796513705228 0.43961280865388269 0 -0.099926113972008457 0.40260788909871281 0 -0.1105426299229583 0.40988285393320972 0 -0.093234897693004831 0.41506444106453538 0 -0.1105426299229583 0.40988285393320972 0 -0.094269364115482479 0.42044112947702528 0 -0.093234897693004831 0.41506444106453538 0 -0.1105426299229583 0.40988285393320972 0 -0.094269364115482479 0.42044112947702528 0 -0.1105426299229583 0.40988285393320972 0 -0.1136270340742794 0.42670956174220592 0 -0.094269364115482479 0.42044112947702528 0 -0.094269364115482479 0.42044112947702528 0 -0.093234897693004831 0.41506444106453538 0 -0.094269364115482479 0.42044112947702528 0 -0.093234897693004831 0.41506444106453538 0 -0.077836263580530723 0.42991166252297602 0 -0.093234897693004831 0.41506444106453538 0 -0.077836263580530723 0.42991166252297602 0 -0.074177394822197429 0.41576441653891433 0 -0.093234897693004831 0.41506444106453538 0 -0.074177394822197429 0.41576441653891433 0 -0.07514300221947301 0.40031859223552829 0 -0.094269364115482479 0.42044112947702528 0 -0.077836263580530723 0.42991166252297602 0 -0.09795796513705228 0.43961280865388269 0 -0.077836263580530723 0.42991166252297602 0 -0.062703828757911542 0.42458088005858752 0 -0.062317743981298433 0.44127807173467659 0 -0.077836263580530723 0.42991166252297602 0 -0.062703828757911542 0.42458088005858752 0 -0.074177394822197429 0.41576441653891433 0 -0.062703828757911542 0.42458088005858752 0 -0.074177394822197429 0.41576441653891433 0 -0.06014891979874918 0.40997598054248119 0 -0.074177394822197429 0.41576441653891433 0 -0.07514300221947301 0.40031859223552829 0 -0.06014891979874918 0.40997598054248119 0 -0.07514300221947301 0.40031859223552829 0 -0.061085198656637002 0.39629803042450867 0 -0.06014891979874918 0.40997598054248119 0 -0.07514300221947301 0.40031859223552829 0 -0.088511830248956813 0.3905160734751883 0 -0.067554097390159953 0.38558008958361678 0 -0.07514300221947301 0.40031859223552829 0 -0.067554097390159953 0.38558008958361678 0 -0.061085198656637002 0.39629803042450867 0 -0.093234897693004831 0.41506444106453538 0 -0.07514300221947301 0.40031859223552829 0 -0.088511830248956813 0.3905160734751883 0 -0.093234897693004831 0.41506444106453538 0 -0.088511830248956813 0.3905160734751883 0 -0.088511830248956813 0.3905160734751883 0 -0.082676106477277772 0.37848627165990689 0 -0.067554097390159953 0.38558008958361678 0 -0.095531071462878966 0.37571992166702689 0 -0.09173183424712314 0.38292391059129249 0 -0.082676106477277772 0.37848627165990689 0 -0.09173183424712314 0.38292391059129249 0 -0.088511830248956813 0.3905160734751883 0 -0.082676106477277772 0.37848627165990689 0 -0.097391398468283014 0.38614940702790501 0 -0.09173183424712314 0.38292391059129249 0 -0.088511830248956813 0.3905160734751883 0 -0.063976211523688098 0.36637590201296988 0 -0.082676106477277772 0.37848627165990689 0 -0.067554097390159953 0.38558008958361678 0 -0.088511830248956813 0.3905160734751883 0 -0.067554097390159953 0.38558008958361678 0 -0.067554097390159953 0.38558008958361678 0 -0.046596364531363697 0.3806441056920431 0 -0.063976211523688098 0.36637590201296988 0 -0.067554097390159953 0.38558008958361678 0 -0.046596364531363697 0.3806441056920431 0 -0.067554097390159953 0.38558008958361678 0 -0.052628021349217048 0.38636083797230308 0 -0.046596364531363697 0.3806441056920431 0 -0.067554097390159953 0.38558008958361678 0 -0.052628021349217048 0.38636083797230308 0 -0.061085198656637002 0.39629803042450867 0 -0.052628021349217048 0.38636083797230308 0 -0.046596364531363697 0.3806441056920431 0 -0.044348528308899231 0.38929456166912668 0 -0.052628021349217048 0.38636083797230308 0 -0.046596364531363697 0.3806441056920431 0 -0.061085198656637002 0.39629803042450867 0 -0.049951952525585819 0.39925465178861441 0 -0.06014891979874918 0.40997598054248119 0 -0.052628021349217048 0.38636083797230308 0 -0.061085198656637002 0.39629803042450867 0 -0.049951952525585819 0.39925465178861441 0 -0.052628021349217048 0.38636083797230308 0 -0.049951952525585819 0.39925465178861441 0 -0.044348528308899231 0.38929456166912668 0 -0.049951952525585819 0.39925465178861441 0 -0.041607190280047827 0.40520976422072191 0 -0.046648175768505828 0.41361321189197259 0 -0.049951952525585819 0.39925465178861441 0 -0.041607190280047827 0.40520976422072191 0 -0.038348024160056372 0.39567048416298439 0 -0.049951952525585819 0.39925465178861441 0 -0.038348024160056372 0.39567048416298439 0 -0.044348528308899231 0.38929456166912668 0 -0.038348024160056372 0.39567048416298439 0 -0.035096647127906208 0.38535472655547492 0 -0.026958007141132719 0.39224186102134939 0 -0.038348024160056372 0.39567048416298439 0 -0.026958007141132719 0.39224186102134939 0 -0.029178124195383171 0.40747529438647662 0 -0.041607190280047827 0.40520976422072191 0 -0.038348024160056372 0.39567048416298439 0 -0.029178124195383171 0.40747529438647662 0 -0.046596364531363697 0.3806441056920431 0 -0.035096647127906208 0.38535472655547492 0 -0.02689168176287695 0.37600324127273371 0 -0.046596364531363697 0.3806441056920431 0 -0.02689168176287695 0.37600324127273371 0 -0.038348024160056372 0.39567048416298439 0 -0.044348528308899231 0.38929456166912668 0 -0.035096647127906208 0.38535472655547492 0 -0.046596364531363697 0.3806441056920431 0 -0.044348528308899231 0.38929456166912668 0 -0.035096647127906208 0.38535472655547492 0 -0.035096647127906208 0.38535472655547492 0 -0.02689168176287695 0.37600324127273371 0 -0.026958007141132719 0.39224186102134939 0 -0.02689168176287695 0.37600324127273371 0 -0.026958007141132719 0.39224186102134939 0 -0.01054863134232744 0.39406755212993583 0 -0.026958007141132719 0.39224186102134939 0 -0.01054863134232744 0.39406755212993583 0 -0.029178124195383171 0.40747529438647662 0 -0.01054863134232744 0.39406755212993583 0 -0.0002355237070055895 0.41457280431765953 0 0.0045512962674828534 0.39931916271626461 0 -0.01054863134232744 0.39406755212993583 0 0.0035438281903425049 0.38455553050149388 0 0.0045512962674828534 0.39931916271626461 0 -0.0071869989943903478 0.37136237685342322 0 -0.02689168176287695 0.37600324127273371 0 -0.01054863134232744 0.39406755212993583 0 -0.0071869989943903478 0.37136237685342322 0 -0.01054863134232744 0.39406755212993583 0 0.0035438281903425049 0.38455553050149388 0 -0.0002355237070055895 0.41457280431765953 0 -0.01710022300717675 0.4194468438535473 0 0.0017946831326668151 0.43318892200657833 0 -0.01710022300717675 0.4194468438535473 0 -0.016324796021224719 0.44112805835273772 0 0.0017946831326668151 0.43318892200657833 0 -0.01054863134232744 0.39406755212993583 0 -0.0002355237070055895 0.41457280431765953 0 -0.01710022300717675 0.4194468438535473 0 -0.01710022300717675 0.4194468438535473 0 -0.029178124195383171 0.40747529438647662 0 -0.034878510944833803 0.41745245163063022 0 -0.01710022300717675 0.4194468438535473 0 -0.030229917936003981 0.42786222080599701 0 -0.034878510944833803 0.41745245163063022 0 -0.01054863134232744 0.39406755212993583 0 -0.01710022300717675 0.4194468438535473 0 -0.029178124195383171 0.40747529438647662 0 -0.01710022300717675 0.4194468438535473 0 -0.030229917936003981 0.42786222080599701 0 -0.016324796021224719 0.44112805835273772 0 -0.030229917936003981 0.42786222080599701 0 -0.030922915700726541 0.44037456397288077 0 -0.016324796021224719 0.44112805835273772 0 -0.030229917936003981 0.42786222080599701 0 -0.040971451869048173 0.43558327389609502 0 -0.030922915700726541 0.44037456397288077 0 -0.030229917936003981 0.42786222080599701 0 -0.042789857161961577 0.42461823983729208 0 -0.040971451869048173 0.43558327389609502 0 -0.030229917936003981 0.42786222080599701 0 -0.042789857161961577 0.42461823983729208 0 -0.034878510944833803 0.41745245163063022 0 -0.042789857161961577 0.42461823983729208 0 -0.040971451869048173 0.43558327389609502 0 -0.051123476961934797 0.43132342979301608 0 -0.041607190280047827 0.40520976422072191 0 -0.029178124195383171 0.40747529438647662 0 -0.034878510944833803 0.41745245163063022 0 -0.042789857161961577 0.42461823983729208 0 -0.034878510944833803 0.41745245163063022 0 -0.046648175768505828 0.41361321189197259 0 -0.041607190280047827 0.40520976422072191 0 -0.034878510944833803 0.41745245163063022 0 -0.046648175768505828 0.41361321189197259 0 -0.049951952525585819 0.39925465178861441 0 -0.046648175768505828 0.41361321189197259 0 -0.06014891979874918 0.40997598054248119 0 -0.042789857161961577 0.42461823983729208 0 -0.046648175768505828 0.41361321189197259 0 -0.052252918432626597 0.42213721839342028 0 -0.046648175768505828 0.41361321189197259 0 -0.06014891979874918 0.40997598054248119 0 -0.052252918432626597 0.42213721839342028 0 -0.062703828757911542 0.42458088005858752 0 -0.06014891979874918 0.40997598054248119 0 -0.052252918432626597 0.42213721839342028 0 -0.062703828757911542 0.42458088005858752 0 -0.051123476961934797 0.43132342979301608 0 -0.062317743981298433 0.44127807173467659 0 -0.040971451869048173 0.43558327389609502 0 -0.051123476961934797 0.43132342979301608 0 -0.050343283882534007 0.44225501223364111 0 -0.042789857161961577 0.42461823983729208 0 -0.051123476961934797 0.43132342979301608 0 -0.052252918432626597 0.42213721839342028 0 -0.062703828757911542 0.42458088005858752 0 -0.051123476961934797 0.43132342979301608 0 -0.052252918432626597 0.42213721839342028 0 -0.062317743981298433 0.44127807173467659 0 -0.052213991752271927 0.45385963824072328 0 -0.066504599106466347 0.45813999272498729 0 -0.062317743981298433 0.44127807173467659 0 -0.050343283882534007 0.44225501223364111 0 -0.052213991752271927 0.45385963824072328 0 -0.050343283882534007 0.44225501223364111 0 -0.052213991752271927 0.45385963824072328 0 -0.040196779978340313 0.44733408120549051 0 -0.051123476961934797 0.43132342979301608 0 -0.062317743981298433 0.44127807173467659 0 -0.050343283882534007 0.44225501223364111 0 -0.053409898097032088 0.4651060891928504 0 -0.06607598157950495 0.47335151247929702 0 -0.066504599106466347 0.45813999272498729 0 -0.052213991752271927 0.45385963824072328 0 -0.053409898097032088 0.4651060891928504 0 -0.066504599106466347 0.45813999272498729 0 -0.052213991752271927 0.45385963824072328 0 -0.053409898097032088 0.4651060891928504 0 -0.041427916225176387 0.46063599009370448 0 -0.053409898097032088 0.4651060891928504 0 -0.041427916225176387 0.46063599009370448 0 -0.042495351235533649 0.47577738699326499 0 -0.052213991752271927 0.45385963824072328 0 -0.041427916225176387 0.46063599009370448 0 -0.040196779978340313 0.44733408120549051 0 -0.041427916225176387 0.46063599009370448 0 -0.028564830173135509 0.45217240103739043 0 -0.029321152491084579 0.46502089790910739 0 -0.041427916225176387 0.46063599009370448 0 -0.040196779978340313 0.44733408120549051 0 -0.028564830173135509 0.45217240103739043 0 -0.041427916225176387 0.46063599009370448 0 -0.029321152491084579 0.46502089790910739 0 -0.042495351235533649 0.47577738699326499 0 -0.040971451869048173 0.43558327389609502 0 -0.050343283882534007 0.44225501223364111 0 -0.040196779978340313 0.44733408120549051 0 -0.040196779978340313 0.44733408120549051 0 -0.030922915700726541 0.44037456397288077 0 -0.028564830173135509 0.45217240103739043 0 -0.040971451869048173 0.43558327389609502 0 -0.040196779978340313 0.44733408120549051 0 -0.030922915700726541 0.44037456397288077 0 -0.030922915700726541 0.44037456397288077 0 -0.016324796021224719 0.44112805835273772 0 -0.028564830173135509 0.45217240103739043 0 -0.016324796021224719 0.44112805835273772 0 -0.028564830173135509 0.45217240103739043 0 -0.015202943930014959 0.45831544991394368 0 -0.029321152491084579 0.46502089790910739 0 -0.015202943930014959 0.45831544991394368 0 -0.018914720891562421 0.47820326150723308 0 -0.028564830173135509 0.45217240103739043 0 -0.029321152491084579 0.46502089790910739 0 -0.015202943930014959 0.45831544991394368 0 -0.0027201110069152092 0.46645824183213258 0 -0.015202943930014959 0.45831544991394368 0 -0.018914720891562421 0.47820326150723308 0 -0.0027201110069152092 0.46645824183213258 0 -0.015202943930014959 0.45831544991394368 0 0.00076964137276068554 0.45088725606244762 0 -0.016324796021224719 0.44112805835273772 0 -0.015202943930014959 0.45831544991394368 0 0.00076964137276068554 0.45088725606244762 0 -0.016324796021224719 0.44112805835273772 0 0.00076964137276068554 0.45088725606244762 0 0.0017946831326668151 0.43318892200657833 0 -0.0071306613158194669 0.48970809938210857 0 -0.021771123938011169 0.5 0 0.0074972901138868342 0.5 0 -0.018914720891562421 0.47820326150723308 0 0.004665909452408884 0.48062913602120122 0 -0.0027201110069152092 0.46645824183213258 0 -0.018914720891562421 0.47820326150723308 0 0.004665909452408884 0.48062913602120122 0 -0.0071306613158194669 0.48970809938210857 0 -0.018914720891562421 0.47820326150723308 0 0.004665909452408884 0.48062913602120122 0 -0.029321152491084579 0.46502089790910739 0 -0.018914720891562421 0.47820326150723308 0 -0.042495351235533649 0.47577738699326499 0 -0.018914720891562421 0.47820326150723308 0 -0.042495351235533649 0.47577738699326499 0 -0.018914720891562421 0.47820326150723308 0 -0.021771123938011169 0.5 0 -0.03741829193451289 0.48857345697931492 0 -0.0071306613158194669 0.48970809938210857 0 -0.018914720891562421 0.47820326150723308 0 -0.021771123938011169 0.5 0 -0.021771123938011169 0.5 0 -0.03741829193451289 0.48857345697931492 0 -0.051039537989909123 0.5 0 -0.03741829193451289 0.48857345697931492 0 -0.042495351235533649 0.47577738699326499 0 -0.054896647558653547 0.48294598306334818 0 -0.018914720891562421 0.47820326150723308 0 -0.03741829193451289 0.48857345697931492 0 -0.042495351235533649 0.47577738699326499 0 -0.042495351235533649 0.47577738699326499 0 -0.054896647558653547 0.48294598306334818 0 -0.06607598157950495 0.47335151247929702 0 -0.053409898097032088 0.4651060891928504 0 -0.042495351235533649 0.47577738699326499 0 -0.06607598157950495 0.47335151247929702 0 -0.042495351235533649 0.47577738699326499 0 -0.06607598157950495 0.47335151247929702 0 -0.03741829193451289 0.48857345697931492 0 -0.054896647558653547 0.48294598306334818 0 -0.051039537989909123 0.5 0 -0.054896647558653547 0.48294598306334818 0 -0.051039537989909123 0.5 0 -0.06651775026144495 0.49047368465343139 0 -0.06651775026144495 0.49047368465343139 0 -0.080307952041807185 0.5 0 -0.07982686345540993 0.47894875555037753 0 -0.051039537989909123 0.5 0 -0.06651775026144495 0.49047368465343139 0 -0.080307952041807185 0.5 0 -0.080307952041807185 0.5 0 -0.093617065235772706 0.48847507089694658 0 -0.07982686345540993 0.47894875555037753 0 -0.07982686345540993 0.47894875555037753 0 -0.1047570793521663 0.47495152803740659 0 -0.093617065235772706 0.48847507089694658 0 -0.07982686345540993 0.47894875555037753 0 -0.1047570793521663 0.47495152803740659 0 -0.07982686345540993 0.47894875555037753 0 -0.088303567864659149 0.46828075239173678 0 -0.1047570793521663 0.47495152803740659 0 -0.07982686345540993 0.47894875555037753 0 -0.075836032027654834 0.46906344434831748 0 -0.088303567864659149 0.46828075239173678 0 -0.07982686345540993 0.47894875555037753 0 -0.075836032027654834 0.46906344434831748 0 -0.06607598157950495 0.47335151247929702 0 -0.054896647558653547 0.48294598306334818 0 -0.07982686345540993 0.47894875555037753 0 -0.054896647558653547 0.48294598306334818 0 -0.06651775026144495 0.49047368465343139 0 -0.07982686345540993 0.47894875555037753 0 -0.054896647558653547 0.48294598306334818 0 -0.07982686345540993 0.47894875555037753 0 -0.06607598157950495 0.47335151247929702 0 -0.075836032027654834 0.46906344434831748 0 -0.06607598157950495 0.47335151247929702 0 -0.066504599106466347 0.45813999272498729 0 -0.066504599106466347 0.45813999272498729 0 -0.079245324255425534 0.44786537586118819 0 -0.079108463449144475 0.46012087546330821 0 -0.075836032027654834 0.46906344434831748 0 -0.066504599106466347 0.45813999272498729 0 -0.079108463449144475 0.46012087546330821 0 -0.077836263580530723 0.42991166252297602 0 -0.062317743981298433 0.44127807173467659 0 -0.079245324255425534 0.44786537586118819 0 -0.062317743981298433 0.44127807173467659 0 -0.066504599106466347 0.45813999272498729 0 -0.079245324255425534 0.44786537586118819 0 -0.079245324255425534 0.44786537586118819 0 -0.091746910278061006 0.45812884406729848 0 -0.09795796513705228 0.43961280865388269 0 -0.077836263580530723 0.42991166252297602 0 -0.079245324255425534 0.44786537586118819 0 -0.09795796513705228 0.43961280865388269 0 -0.075836032027654834 0.46906344434831748 0 -0.079108463449144475 0.46012087546330821 0 -0.088303567864659149 0.46828075239173678 0 -0.079245324255425534 0.44786537586118819 0 -0.079108463449144475 0.46012087546330821 0 -0.091746910278061006 0.45812884406729848 0 -0.079108463449144475 0.46012087546330821 0 -0.091746910278061006 0.45812884406729848 0 -0.088303567864659149 0.46828075239173678 0 -0.091746910278061006 0.45812884406729848 0 -0.088303567864659149 0.46828075239173678 0 -0.098546058625515437 0.46847106688371332 0 -0.091746910278061006 0.45812884406729848 0 -0.1026810325811006 0.46416117624322989 0 -0.09795796513705228 0.43961280865388269 0 -0.091746910278061006 0.45812884406729848 0 -0.098546058625515437 0.46847106688371332 0 -0.1026810325811006 0.46416117624322989 0 -0.098546058625515437 0.46847106688371332 0 -0.1026810325811006 0.46416117624322989 0 -0.1026810325811006 0.46416117624322989 0 -0.09795796513705228 0.43961280865388269 0 -0.1026810325811006 0.46416117624322989 0 -0.09795796513705228 0.43961280865388269 0 -0.120577686077101 0.44550746276719849 0 -0.1026810325811006 0.46416117624322989 0 -0.1226927361633857 0.46018933214745478 0 -0.12056819344390191 0.47241642683652102 0 -0.1026810325811006 0.46416117624322989 0 -0.120577686077101 0.44550746276719849 0 -0.1226927361633857 0.46018933214745478 0 -0.1026810325811006 0.46416117624322989 0 -0.120577686077101 0.44550746276719849 0 -0.12056819344390191 0.47241642683652102 0 -0.1047570793521663 0.47495152803740659 0 -0.12056819344390191 0.47241642683652102 0 -0.1181650350127386 0.48610645367248878 0 -0.1047570793521663 0.47495152803740659 0 -0.13017353272746671 0.48330266525784871 0 -0.12056819344390191 0.47241642683652102 0 -0.1181650350127386 0.48610645367248878 0 -0.1327934268760522 0.5 0 -0.10957636609370509 0.50000000000000289 0 -0.1181650350127386 0.48610645367248878 0 -0.10957636609370509 0.50000000000000289 0 -0.1181650350127386 0.48610645367248878 0 -0.1047570793521663 0.47495152803740659 0 -0.080307952041807185 0.5 0 -0.093617065235772706 0.48847507089694658 0 -0.10957636609370509 0.50000000000000289 0 -0.093617065235772706 0.48847507089694658 0 -0.10957636609370509 0.50000000000000289 0 -0.1047570793521663 0.47495152803740659 0 -0.10957636609370509 0.50000000000000289 0 -0.1047570793521663 0.47495152803740659 0 -0.1026810325811006 0.46416117624322989 0 -0.12056819344390191 0.47241642683652102 0 -0.1047570793521663 0.47495152803740659 0 -0.088303567864659149 0.46828075239173678 0 -0.098546058625515437 0.46847106688371332 0 -0.1047570793521663 0.47495152803740659 0 -0.1026810325811006 0.46416117624322989 0 -0.1047570793521663 0.47495152803740659 0 -0.098546058625515437 0.46847106688371332 0 -0.1026810325811006 0.46416117624322989 0 -0.1047570793521663 0.47495152803740659 0 -0.16455528876719641 0.086999194064148591 0 -0.1730388026916885 0.076017651157435112 0 -0.17652645965057001 0.092000696858485581 0 -0.16455528876719641 0.086999194064148591 0 -0.1587567262103502 0.074486302013052258 0 -0.1730388026916885 0.076017651157435112 0 -0.16455528876719641 0.086999194064148591 0 -0.17652645965057001 0.092000696858485581 0 -0.16805532927388889 0.098464052387510687 0 -0.16455528876719641 0.086999194064148591 0 -0.15850013928289239 0.09590485017823247 0 -0.1525557115856094 0.085992230677488776 0 -0.16455528876719641 0.086999194064148591 0 -0.1587567262103502 0.074486302013052258 0 -0.1525557115856094 0.085992230677488776 0 -0.16316650185895959 0.063575751776150324 0 -0.1730388026916885 0.076017651157435112 0 -0.17581763702439249 0.057326315907041681 0 -0.1587567262103502 0.074486302013052258 0 -0.16316650185895959 0.063575751776150324 0 -0.15106604332030099 0.065662431787167547 0 -0.1587567262103502 0.074486302013052258 0 -0.16316650185895959 0.063575751776150324 0 -0.1730388026916885 0.076017651157435112 0 -0.1730388026916885 0.076017651157435112 0 -0.17581763702439249 0.057326315907041681 0 -0.18880287422175501 0.073502009379300154 0 -0.17652645965057001 0.092000696858485581 0 -0.18880287422175501 0.073502009379300154 0 -0.1846247431844768 0.094897640265541455 0 -0.18880287422175501 0.073502009379300154 0 -0.1730388026916885 0.076017651157435112 0 -0.17652645965057001 0.092000696858485581 0 -0.18880287422175501 0.073502009379300154 0 -0.17652645965057001 0.092000696858485581 0 -0.1846247431844768 0.094897640265541455 0 -0.18880287422175501 0.073502009379300154 0 -0.1846247431844768 0.094897640265541455 0 -0.17995635351994921 0.11880381774159871 0 -0.1846247431844768 0.094897640265541455 0 -0.17995635351994921 0.11880381774159871 0 -0.18970916580253691 0.099594795296980482 0 -0.1846247431844768 0.094897640265541455 0 -0.17995635351994921 0.11880381774159871 0 -0.1750715183136459 0.1099291645048561 0 -0.1748030604304816 0.1011866062858762 0 -0.1750715183136459 0.1099291645048561 0 -0.17048339849946509 0.10674582879357419 0 -0.1846247431844768 0.094897640265541455 0 -0.1748030604304816 0.1011866062858762 0 -0.1750715183136459 0.1099291645048561 0 -0.17652645965057001 0.092000696858485581 0 -0.1748030604304816 0.1011866062858762 0 -0.16805532927388889 0.098464052387510687 0 -0.17652645965057001 0.092000696858485581 0 -0.1846247431844768 0.094897640265541455 0 -0.1748030604304816 0.1011866062858762 0 -0.18522113750955341 0.1221740471154176 0 -0.17995635351994921 0.11880381774159871 0 -0.18970916580253691 0.099594795296980482 0 -0.18522113750955341 0.1221740471154176 0 -0.18970916580253691 0.099594795296980482 0 -0.17995635351994921 0.11880381774159871 0 -0.1750715183136459 0.1099291645048561 0 -0.17250653470983621 0.1213716645240282 0 -0.1750715183136459 0.1099291645048561 0 -0.17250653470983621 0.1213716645240282 0 -0.1691668794371361 0.1160070802709197 0 -0.17995635351994921 0.11880381774159871 0 -0.17250653470983621 0.1213716645240282 0 -0.1719692165511989 0.12950554805286199 0 -0.1691668794371361 0.1160070802709197 0 -0.1620844976615837 0.1246137265311604 0 -0.16187854495544071 0.10733265796957669 0 -0.17250653470983621 0.1213716645240282 0 -0.1691668794371361 0.1160070802709197 0 -0.1620844976615837 0.1246137265311604 0 -0.1691668794371361 0.1160070802709197 0 -0.17048339849946509 0.10674582879357419 0 -0.16187854495544071 0.10733265796957669 0 -0.1750715183136459 0.1099291645048561 0 -0.1691668794371361 0.1160070802709197 0 -0.17048339849946509 0.10674582879357419 0 -0.1748030604304816 0.1011866062858762 0 -0.16805532927388889 0.098464052387510687 0 -0.17048339849946509 0.10674582879357419 0 -0.16805532927388889 0.098464052387510687 0 -0.17048339849946509 0.10674582879357419 0 -0.16187854495544071 0.10733265796957669 0 -0.16455528876719641 0.086999194064148591 0 -0.16805532927388889 0.098464052387510687 0 -0.15850013928289239 0.09590485017823247 0 -0.16805532927388889 0.098464052387510687 0 -0.16187854495544071 0.10733265796957669 0 -0.15850013928289239 0.09590485017823247 0 -0.15850013928289239 0.09590485017823247 0 -0.1417293288851392 0.10358147428944491 0 -0.1525557115856094 0.085992230677488776 0 -0.16187854495544071 0.10733265796957669 0 -0.15850013928289239 0.09590485017823247 0 -0.1417293288851392 0.10358147428944491 0 -0.1620844976615837 0.1246137265311604 0 -0.1417293288851392 0.10358147428944491 0 -0.1620844976615837 0.1246137265311604 0 -0.16187854495544071 0.10733265796957669 0 -0.1417293288851392 0.10358147428944491 0 -0.1620844976615837 0.1246137265311604 0 -0.1417293288851392 0.10358147428944491 0 -0.1470909288768201 0.1209563670492638 0 -0.1417293288851392 0.10358147428944491 0 -0.1470909288768201 0.1209563670492638 0 -0.13279184602529889 0.12676322617348859 0 -0.1417293288851392 0.10358147428944491 0 -0.13279184602529889 0.12676322617348859 0 -0.1180803208823529 0.10110932699178039 0 -0.1417293288851392 0.10358147428944491 0 -0.1213741601086947 0.082549222047729312 0 -0.1180803208823529 0.10110932699178039 0 -0.14067827877505959 0.081359085993513255 0 -0.13050547102356161 0.073507565727731899 0 -0.1213741601086947 0.082549222047729312 0 -0.1417293288851392 0.10358147428944491 0 -0.1213741601086947 0.082549222047729312 0 -0.1417293288851392 0.10358147428944491 0 -0.14067827877505959 0.081359085993513255 0 -0.1213741601086947 0.082549222047729312 0 -0.1587567262103502 0.074486302013052258 0 -0.14067827877505959 0.081359085993513255 0 -0.1525557115856094 0.085992230677488776 0 -0.1417293288851392 0.10358147428944491 0 -0.14067827877505959 0.081359085993513255 0 -0.1525557115856094 0.085992230677488776 0 -0.1587567262103502 0.074486302013052258 0 -0.14067827877505959 0.081359085993513255 0 -0.15106604332030099 0.065662431787167547 0 -0.14067827877505959 0.081359085993513255 0 -0.15106604332030099 0.065662431787167547 0 -0.1369384890790131 0.062383327923228218 0 -0.13050547102356161 0.073507565727731899 0 -0.1369384890790131 0.062383327923228218 0 -0.12045977336379469 0.063302700443571031 0 -0.14067827877505959 0.081359085993513255 0 -0.13050547102356161 0.073507565727731899 0 -0.1369384890790131 0.062383327923228218 0 -0.1369384890790131 0.062383327923228218 0 -0.12843145491598579 0.047453341903202537 0 -0.144312510085051 0.041239273779704343 0 -0.1369384890790131 0.062383327923228218 0 -0.12843145491598579 0.047453341903202537 0 -0.12045977336379469 0.063302700443571031 0 -0.144312510085051 0.041239273779704343 0 -0.1232401834619155 0.023045930198183621 0 -0.12843145491598579 0.047453341903202537 0 -0.144312510085051 0.041239273779704343 0 -0.1232401834619155 0.023045930198183621 0 -0.144312510085051 0.041239273779704343 0 -0.14476038885686299 0.021005973058180579 0 -0.1563348404483558 0.036760728187491737 0 -0.144312510085051 0.041239273779704343 0 -0.15745252829630699 0.049570112072790273 0 -0.1563348404483558 0.036760728187491737 0 -0.15106604332030099 0.065662431787167547 0 -0.1369384890790131 0.062383327923228218 0 -0.15745252829630699 0.049570112072790273 0 -0.1369384890790131 0.062383327923228218 0 -0.15745252829630699 0.049570112072790273 0 -0.1369384890790131 0.062383327923228218 0 -0.144312510085051 0.041239273779704343 0 -0.15745252829630699 0.049570112072790273 0 -0.12787206249873251 -0.0031963116537159961 0 -0.14476038885686299 0.021005973058180579 0 -0.1232401834619155 0.023045930198183621 0 -0.144312510085051 0.041239273779704343 0 -0.14476038885686299 0.021005973058180579 0 -0.1232401834619155 0.023045930198183621 0 -0.14476038885686299 0.021005973058180579 0 -0.1621736428645085 0.02673112782385793 0 -0.1563348404483558 0.036760728187491737 0 -0.1591204392618577 -0.00013298485504840629 0 -0.14476038885686299 0.021005973058180579 0 -0.1621736428645085 0.02673112782385793 0 -0.12787206249873251 -0.0031963116537159961 0 -0.1591204392618577 -0.00013298485504840629 0 -0.14476038885686299 0.021005973058180579 0 -0.1591204392618577 -0.00013298485504840629 0 -0.18056157430543551 -0.001379124261014261 0 -0.17392244170171081 0.01367045871087162 0 -0.1591204392618577 -0.00013298485504840629 0 -0.1621736428645085 0.02673112782385793 0 -0.17392244170171081 0.01367045871087162 0 -0.1591204392618577 -0.00013298485504840629 0 -0.1621736428645085 0.02673112782385793 0 -0.1621736428645085 0.02673112782385793 0 -0.18045140480021701 0.0238305441466308 0 -0.17796656751360099 0.036756896222352307 0 -0.18045140480021701 0.0238305441466308 0 -0.17796656751360099 0.036756896222352307 0 -0.19848060673089529 0.023943680371915011 0 -0.18045140480021701 0.0238305441466308 0 -0.17392244170171081 0.01367045871087162 0 -0.18971376519036939 0.018050557604157112 0 -0.1621736428645085 0.02673112782385793 0 -0.18045140480021701 0.0238305441466308 0 -0.17392244170171081 0.01367045871087162 0 -0.18056157430543551 -0.001379124261014261 0 -0.17392244170171081 0.01367045871087162 0 -0.18971376519036939 0.018050557604157112 0 -0.16316650185895959 0.063575751776150324 0 -0.15106604332030099 0.065662431787167547 0 -0.15745252829630699 0.049570112072790273 0 -0.15745252829630699 0.049570112072790273 0 -0.17796656751360099 0.036756896222352307 0 -0.17581763702439249 0.057326315907041681 0 -0.16316650185895959 0.063575751776150324 0 -0.15745252829630699 0.049570112072790273 0 -0.17581763702439249 0.057326315907041681 0 -0.15745252829630699 0.049570112072790273 0 -0.17796656751360099 0.036756896222352307 0 -0.1621736428645085 0.02673112782385793 0 -0.1563348404483558 0.036760728187491737 0 -0.17796656751360099 0.036756896222352307 0 -0.15745252829630699 0.049570112072790273 0 -0.1563348404483558 0.036760728187491737 0 -0.17796656751360099 0.036756896222352307 0 -0.17796656751360099 0.036756896222352307 0 -0.17581763702439249 0.057326315907041681 0 -0.19364174047632571 0.048722844875607643 0 -0.17581763702439249 0.057326315907041681 0 -0.19364174047632571 0.048722844875607643 0 -0.18880287422175501 0.073502009379300154 0 -0.19364174047632571 0.048722844875607643 0 -0.20343302545734321 0.051456599140744123 0 -0.18880287422175501 0.073502009379300154 0 -0.19364174047632571 0.048722844875607643 0 -0.18880287422175501 0.073502009379300154 0 -0.20343302545734321 0.051456599140744123 0 -0.18880287422175501 0.073502009379300154 0 -0.17796656751360099 0.036756896222352307 0 -0.19364174047632571 0.048722844875607643 0 -0.19848060673089529 0.023943680371915011 0 -0.19364174047632571 0.048722844875607643 0 -0.20157091192291091 0.033031694604453453 0 -0.20474128908588199 0.037784189760403743 0 -0.19364174047632571 0.048722844875607643 0 -0.19848060673089529 0.023943680371915011 0 -0.19364174047632571 0.048722844875607643 0 -0.20157091192291091 0.033031694604453453 0 -0.19848060673089529 0.023943680371915011 0 -0.19364174047632571 0.048722844875607643 0 -0.20474128908588199 0.037784189760403743 0 -0.20343302545734321 0.051456599140744123 0 -0.21463172495051369 0.054543742003842058 0 -0.20343302545734321 0.051456599140744123 0 -0.2180631766929314 0.029411188902187989 0 -0.20343302545734321 0.051456599140744123 0 -0.2180631766929314 0.029411188902187989 0 -0.20474128908588199 0.037784189760403743 0 -0.20343302545734321 0.051456599140744123 0 -0.2180631766929314 0.029411188902187989 0 -0.20474128908588199 0.037784189760403743 0 -0.20768799101057289 0.028768748490806469 0 -0.2180631766929314 0.029411188902187989 0 -0.20157091192291091 0.033031694604453453 0 -0.20474128908588199 0.037784189760403743 0 -0.20768799101057289 0.028768748490806469 0 -0.21463172495051369 0.054543742003842058 0 -0.22538380663845139 0.050146690631453189 0 -0.2138957348568456 0.066136827873339063 0 -0.21463172495051369 0.054543742003842058 0 -0.20343302545734321 0.051456599140744123 0 -0.2138957348568456 0.066136827873339063 0 -0.20136409875144851 -0.0067204828942713842 0 -0.19921696005866421 0.020172916874502369 0 -0.18971376519036939 0.018050557604157112 0 -0.20136409875144851 -0.0067204828942713842 0 -0.18971376519036939 0.018050557604157112 0 -0.18056157430543551 -0.001379124261014261 0 -0.20136409875144851 -0.0067204828942713842 0 -0.18971376519036939 0.018050557604157112 0 -0.18045140480021701 0.0238305441466308 0 -0.18971376519036939 0.018050557604157112 0 -0.19848060673089529 0.023943680371915011 0 -0.17796656751360099 0.036756896222352307 0 -0.19848060673089529 0.023943680371915011 0 -0.19921696005866421 0.020172916874502369 0 -0.18971376519036939 0.018050557604157112 0 -0.19848060673089529 0.023943680371915011 0 -0.19921696005866421 0.020172916874502369 0 -0.19848060673089529 0.023943680371915011 0 -0.2091081470067892 0.017305642583653739 0 -0.19921696005866421 0.020172916874502369 0 -0.19848060673089529 0.023943680371915011 0 -0.20157091192291091 0.033031694604453453 0 -0.19848060673089529 0.023943680371915011 0 -0.20363419392054091 0.025874662580813119 0 -0.20363419392054091 0.025874662580813119 0 -0.20768799101057289 0.028768748490806469 0 -0.2091081470067892 0.017305642583653739 0 -0.20157091192291091 0.033031694604453453 0 -0.20363419392054091 0.025874662580813119 0 -0.20768799101057289 0.028768748490806469 0 -0.20768799101057289 0.028768748490806469 0 -0.2180631766929314 0.029411188902187989 0 -0.2091081470067892 0.017305642583653739 0 -0.19848060673089529 0.023943680371915011 0 -0.20363419392054091 0.025874662580813119 0 -0.2091081470067892 0.017305642583653739 0 -0.19848060673089529 0.023943680371915011 0 -0.2091081470067892 0.017305642583653739 0 -0.20136409875144851 -0.0067204828942713842 0 -0.2091081470067892 0.017305642583653739 0 -0.21631877362206239 0.001625407428068355 0 -0.20136409875144851 -0.0067204828942713842 0 -0.19921696005866421 0.020172916874502369 0 -0.2091081470067892 0.017305642583653739 0 -0.2091081470067892 0.017305642583653739 0 -0.21631877362206239 0.001625407428068355 0 -0.23269332792851949 0.0073657786636318751 0 -0.2180631766929314 0.029411188902187989 0 -0.2091081470067892 0.017305642583653739 0 -0.23269332792851949 0.0073657786636318751 0 -0.2180631766929314 0.029411188902187989 0 -0.23269332792851949 0.0073657786636318751 0 -0.2180631766929314 0.029411188902187989 0 -0.23269332792851949 0.0073657786636318751 0 -0.23397605946203401 0.033260364970976078 0 -0.25634800387939422 0.010446769574923199 0 -0.25192898378361739 0.030380811532505918 0 -0.23269332792851949 0.0073657786636318751 0 -0.25192898378361739 0.030380811532505918 0 -0.23269332792851949 0.0073657786636318751 0 -0.23397605946203401 0.033260364970976078 0 -0.24732347916410771 -0.01467963157492426 0 -0.25634800387939422 0.010446769574923199 0 -0.23269332792851949 0.0073657786636318751 0 -0.22538380663845139 0.050146690631453189 0 -0.24006665359061921 0.048964751400238579 0 -0.23114723692366779 0.071367801019721094 0 -0.21463172495051369 0.054543742003842058 0 -0.2180631766929314 0.029411188902187989 0 -0.22538380663845139 0.050146690631453189 0 -0.2180631766929314 0.029411188902187989 0 -0.22538380663845139 0.050146690631453189 0 -0.23397605946203401 0.033260364970976078 0 -0.22538380663845139 0.050146690631453189 0 -0.23397605946203401 0.033260364970976078 0 -0.24006665359061921 0.048964751400238579 0 -0.25440848379326342 0.059602881396810997 0 -0.25192898378361739 0.030380811532505918 0 -0.24006665359061921 0.048964751400238579 0 -0.25192898378361739 0.030380811532505918 0 -0.23397605946203401 0.033260364970976078 0 -0.24006665359061921 0.048964751400238579 0 -0.25440848379326342 0.059602881396810997 0 -0.24006665359061921 0.048964751400238579 0 -0.23114723692366779 0.071367801019721094 0 -0.25044227510682571 0.079537657810389961 0 -0.25440848379326342 0.059602881396810997 0 -0.23114723692366779 0.071367801019721094 0 -0.25440848379326342 0.059602881396810997 0 -0.23114723692366779 0.071367801019721094 0 -0.25044227510682571 0.079537657810389961 0 -0.23114723692366779 0.071367801019721094 0 -0.2401659045882438 0.097821620661967645 0 -0.25895491275748472 0.096660090682144206 0 -0.25044227510682571 0.079537657810389961 0 -0.2401659045882438 0.097821620661967645 0 -0.2221653668776967 0.093337698934528604 0 -0.23114723692366779 0.071367801019721094 0 -0.2401659045882438 0.097821620661967645 0 -0.2221653668776967 0.093337698934528604 0 -0.23114723692366779 0.071367801019721094 0 -0.20788599005407221 0.083132720642631192 0 -0.22538380663845139 0.050146690631453189 0 -0.23114723692366779 0.071367801019721094 0 -0.2138957348568456 0.066136827873339063 0 -0.23114723692366779 0.071367801019721094 0 -0.20788599005407221 0.083132720642631192 0 -0.23114723692366779 0.071367801019721094 0 -0.2138957348568456 0.066136827873339063 0 -0.20788599005407221 0.083132720642631192 0 -0.2138957348568456 0.066136827873339063 0 -0.20788599005407221 0.083132720642631192 0 -0.18880287422175501 0.073502009379300154 0 -0.2221653668776967 0.093337698934528604 0 -0.20788599005407221 0.083132720642631192 0 -0.20529714237859059 0.098540340703450635 0 -0.1846247431844768 0.094897640265541455 0 -0.20788599005407221 0.083132720642631192 0 -0.18880287422175501 0.073502009379300154 0 -0.20788599005407221 0.083132720642631192 0 -0.18970916580253691 0.099594795296980482 0 -0.20529714237859059 0.098540340703450635 0 -0.1846247431844768 0.094897640265541455 0 -0.20788599005407221 0.083132720642631192 0 -0.18970916580253691 0.099594795296980482 0 -0.1846247431844768 0.094897640265541455 0 -0.20788599005407221 0.083132720642631192 0 -0.20343302545734321 0.051456599140744123 0 -0.2138957348568456 0.066136827873339063 0 -0.18880287422175501 0.073502009379300154 0 -0.18522113750955341 0.1221740471154176 0 -0.19471154152636999 0.11325121061083621 0 -0.18970916580253691 0.099594795296980482 0 -0.19471154152636999 0.11325121061083621 0 -0.19842010626931711 0.1064088704546554 0 -0.20396257536977089 0.1142491352073545 0 -0.19704835404434221 0.1244438215738717 0 -0.19471154152636999 0.11325121061083621 0 -0.20396257536977089 0.1142491352073545 0 -0.18522113750955341 0.1221740471154176 0 -0.19704835404434221 0.1244438215738717 0 -0.19471154152636999 0.11325121061083621 0 -0.19471154152636999 0.11325121061083621 0 -0.18970916580253691 0.099594795296980482 0 -0.19842010626931711 0.1064088704546554 0 -0.19842010626931711 0.1064088704546554 0 -0.20529714237859059 0.098540340703450635 0 -0.20396257536977089 0.1142491352073545 0 -0.18970916580253691 0.099594795296980482 0 -0.19842010626931711 0.1064088704546554 0 -0.20529714237859059 0.098540340703450635 0 -0.20529714237859059 0.098540340703450635 0 -0.20396257536977089 0.1142491352073545 0 -0.22246627449383 0.1135342502149887 0 -0.2221653668776967 0.093337698934528604 0 -0.20529714237859059 0.098540340703450635 0 -0.22246627449383 0.1135342502149887 0 -0.19704835404434221 0.1244438215738717 0 -0.20396257536977089 0.1142491352073545 0 -0.2121450465195166 0.12996964699786359 0 -0.20396257536977089 0.1142491352073545 0 -0.22246627449383 0.1135342502149887 0 -0.2121450465195166 0.12996964699786359 0 -0.2221653668776967 0.093337698934528604 0 -0.22246627449383 0.1135342502149887 0 -0.2401659045882438 0.097821620661967645 0 -0.22246627449383 0.1135342502149887 0 -0.2401659045882438 0.097821620661967645 0 -0.24138835164683159 0.1223831451018326 0 -0.25856821657022228 0.1162694354221659 0 -0.2401659045882438 0.097821620661967645 0 -0.24138835164683159 0.1223831451018326 0 -0.25557465584018968 0.14338654667308429 0 -0.24138835164683159 0.1223831451018326 0 -0.2326756957403372 0.1393496310814939 0 -0.22246627449383 0.1135342502149887 0 -0.2326756957403372 0.1393496310814939 0 -0.2121450465195166 0.12996964699786359 0 -0.22246627449383 0.1135342502149887 0 -0.24138835164683159 0.1223831451018326 0 -0.2326756957403372 0.1393496310814939 0 -0.2326756957403372 0.1393496310814939 0 -0.22782503674786711 0.16242465647263471 0 -0.20427907298222181 0.15358897770324481 0 -0.25557465584018968 0.14338654667308429 0 -0.2326756957403372 0.1393496310814939 0 -0.22782503674786711 0.16242465647263471 0 -0.25137100051351241 0.17126033524202469 0 -0.22782503674786711 0.16242465647263471 0 -0.25137100051351241 0.17126033524202469 0 -0.25557465584018968 0.14338654667308429 0 -0.22782503674786711 0.16242465647263471 0 -0.25137100051351241 0.17126033524202469 0 -0.22692626183464151 0.1856289083383334 0 -0.22782503674786711 0.16242465647263471 0 -0.25137100051351241 0.17126033524202469 0 -0.22692626183464151 0.1856289083383334 0 -0.24857413935887121 0.1938346731499348 0 -0.22692626183464151 0.1856289083383334 0 -0.22782503674786711 0.16242465647263471 0 -0.2082360945938585 0.17095539510797039 0 -0.22782503674786711 0.16242465647263471 0 -0.20427907298222181 0.15358897770324481 0 -0.22782503674786711 0.16242465647263471 0 -0.2082360945938585 0.17095539510797039 0 -0.20427907298222181 0.15358897770324481 0 -0.22692626183464151 0.1856289083383334 0 -0.2082360945938585 0.17095539510797039 0 -0.2048095002263155 0.18803998098643829 0 -0.2082360945938585 0.17095539510797039 0 -0.18975293240789781 0.18034993493684029 0 -0.2048095002263155 0.18803998098643829 0 -0.2082360945938585 0.17095539510797039 0 -0.18975293240789781 0.18034993493684029 0 -0.18875005446824489 0.1591804997641007 0 -0.2082360945938585 0.17095539510797039 0 -0.18875005446824489 0.1591804997641007 0 -0.20427907298222181 0.15358897770324481 0 -0.19198433242359839 0.14090287736054949 0 -0.19839178025873641 0.13561201509757589 0 -0.20427907298222181 0.15358897770324481 0 -0.20427907298222181 0.15358897770324481 0 -0.18073310921657629 0.14475329893385591 0 -0.18875005446824489 0.1591804997641007 0 -0.20427907298222181 0.15358897770324481 0 -0.18073310921657629 0.14475329893385591 0 -0.19198433242359839 0.14090287736054949 0 -0.20427907298222181 0.15358897770324481 0 -0.18073310921657629 0.14475329893385591 0 -0.19198433242359839 0.14090287736054949 0 -0.18990402239406781 0.13151688705943579 0 -0.18073310921657629 0.14475329893385591 0 -0.19198433242359839 0.14090287736054949 0 -0.18990402239406781 0.13151688705943579 0 -0.19839178025873641 0.13561201509757589 0 -0.19704835404434221 0.1244438215738717 0 -0.18990402239406781 0.13151688705943579 0 -0.19839178025873641 0.13561201509757589 0 -0.18522113750955341 0.1221740471154176 0 -0.19704835404434221 0.1244438215738717 0 -0.18990402239406781 0.13151688705943579 0 -0.19704835404434221 0.1244438215738717 0 -0.19839178025873641 0.13561201509757589 0 -0.2121450465195166 0.12996964699786359 0 -0.19839178025873641 0.13561201509757589 0 -0.2121450465195166 0.12996964699786359 0 -0.20427907298222181 0.15358897770324481 0 -0.2326756957403372 0.1393496310814939 0 -0.2121450465195166 0.12996964699786359 0 -0.20427907298222181 0.15358897770324481 0 -0.2412662617624578 0.25135091103929058 0 -0.2238352464541814 0.2350324997315702 0 -0.2412662617624578 0.25135091103929058 0 -0.2238352464541814 0.2350324997315702 0 -0.2202348875839712 0.24837544522908411 0 -0.2412662617624578 0.25135091103929058 0 -0.2238352464541814 0.2350324997315702 0 -0.24368027941200501 0.23576390084582491 0 -0.25162939880835072 0.24125374225886609 0 -0.2412662617624578 0.25135091103929058 0 -0.24368027941200501 0.23576390084582491 0 -0.25162939880835072 0.24125374225886609 0 -0.25359680925970529 0.25050968552728381 0 -0.2412662617624578 0.25135091103929058 0 -0.2238352464541814 0.2350324997315702 0 -0.24368027941200501 0.23576390084582491 0 -0.24393802492032279 0.2219519397728941 0 -0.25564953007324148 0.23090544455198059 0 -0.24368027941200501 0.23576390084582491 0 -0.24393802492032279 0.2219519397728941 0 -0.2238352464541814 0.2350324997315702 0 -0.24393802492032279 0.2219519397728941 0 -0.234542648519072 0.20836824583224101 0 -0.2238352464541814 0.2350324997315702 0 -0.234542648519072 0.20836824583224101 0 -0.21490817461572151 0.20539535526803701 0 -0.25011019429849579 0.20945026987687509 0 -0.24393802492032279 0.2219519397728941 0 -0.234542648519072 0.20836824583224101 0 -0.25011019429849579 0.20945026987687509 0 -0.234542648519072 0.20836824583224101 0 -0.24857413935887121 0.1938346731499348 0 -0.22692626183464151 0.1856289083383334 0 -0.234542648519072 0.20836824583224101 0 -0.24857413935887121 0.1938346731499348 0 -0.22692626183464151 0.1856289083383334 0 -0.234542648519072 0.20836824583224101 0 -0.21490817461572151 0.20539535526803701 0 -0.2048095002263155 0.18803998098643829 0 -0.19033516526224881 0.20300450953651769 0 -0.21490817461572151 0.20539535526803701 0 -0.22692626183464151 0.1856289083383334 0 -0.2048095002263155 0.18803998098643829 0 -0.21490817461572151 0.20539535526803701 0 -0.18975293240789781 0.18034993493684029 0 -0.2048095002263155 0.18803998098643829 0 -0.19033516526224881 0.20300450953651769 0 -0.19033516526224881 0.20300450953651769 0 -0.20443718155086241 0.2216829477694259 0 -0.186689626166504 0.22912033395086309 0 -0.19033516526224881 0.20300450953651769 0 -0.21490817461572151 0.20539535526803701 0 -0.20443718155086241 0.2216829477694259 0 -0.2238352464541814 0.2350324997315702 0 -0.20443718155086241 0.2216829477694259 0 -0.20649740409834891 0.23896232437933371 0 -0.2238352464541814 0.2350324997315702 0 -0.21490817461572151 0.20539535526803701 0 -0.20443718155086241 0.2216829477694259 0 -0.20443718155086241 0.2216829477694259 0 -0.20649740409834891 0.23896232437933371 0 -0.186689626166504 0.22912033395086309 0 -0.191131830424698 0.24603646340069529 0 -0.20649740409834891 0.23896232437933371 0 -0.186689626166504 0.22912033395086309 0 -0.20870061172448501 0.25598841172981152 0 -0.191131830424698 0.24603646340069529 0 -0.20649740409834891 0.23896232437933371 0 -0.2238352464541814 0.2350324997315702 0 -0.2202348875839712 0.24837544522908411 0 -0.20649740409834891 0.23896232437933371 0 -0.20870061172448501 0.25598841172981152 0 -0.2202348875839712 0.24837544522908411 0 -0.20649740409834891 0.23896232437933371 0 -0.17478515048514501 0.25599795249760859 0 -0.15734776493634059 0.25305341113509328 0 -0.1714999341223786 0.23876074985587981 0 -0.15734776493634059 0.25305341113509328 0 -0.1714999341223786 0.23876074985587981 0 -0.14528694463002961 0.23326175474339769 0 -0.17478515048514501 0.25599795249760859 0 -0.191131830424698 0.24603646340069529 0 -0.1714999341223786 0.23876074985587981 0 -0.191131830424698 0.24603646340069529 0 -0.1714999341223786 0.23876074985587981 0 -0.186689626166504 0.22912033395086309 0 -0.1714999341223786 0.23876074985587981 0 -0.186689626166504 0.22912033395086309 0 -0.1660092811152292 0.21882881734163881 0 -0.1714999341223786 0.23876074985587981 0 -0.1660092811152292 0.21882881734163881 0 -0.14528694463002961 0.23326175474339769 0 -0.1660092811152292 0.21882881734163881 0 -0.17091722381567609 0.19413697787237741 0 -0.1660092811152292 0.21882881734163881 0 -0.17091722381567609 0.19413697787237741 0 -0.15132890621986689 0.2023554668109106 0 -0.19033516526224881 0.20300450953651769 0 -0.186689626166504 0.22912033395086309 0 -0.1660092811152292 0.21882881734163881 0 -0.19033516526224881 0.20300450953651769 0 -0.1660092811152292 0.21882881734163881 0 -0.17091722381567609 0.19413697787237741 0 -0.18975293240789781 0.18034993493684029 0 -0.19033516526224881 0.20300450953651769 0 -0.17091722381567609 0.19413697787237741 0 -0.15653828758161059 0.18819203387869779 0 -0.17091722381567609 0.19413697787237741 0 -0.15132890621986689 0.2023554668109106 0 -0.15132890621986689 0.2023554668109106 0 -0.13682183104184811 0.19824820433711629 0 -0.14156698960639941 0.18348881022584551 0 -0.15653828758161059 0.18819203387869779 0 -0.15132890621986689 0.2023554668109106 0 -0.14156698960639941 0.18348881022584551 0 -0.13682183104184811 0.19824820433711629 0 -0.14156698960639941 0.18348881022584551 0 -0.1211653040174074 0.1936784419600068 0 -0.14156698960639941 0.18348881022584551 0 -0.1211653040174074 0.1936784419600068 0 -0.13682183104184811 0.19824820433711629 0 -0.1332261243237185 0.2134700983517023 0 -0.1211653040174074 0.1936784419600068 0 -0.15132890621986689 0.2023554668109106 0 -0.13682183104184811 0.19824820433711629 0 -0.1332261243237185 0.2134700983517023 0 -0.1332261243237185 0.2134700983517023 0 -0.1211653040174074 0.1936784419600068 0 -0.1332261243237185 0.2134700983517023 0 -0.1246635076556106 0.22394125084985261 0 -0.11971246994741459 0.21141597243634161 0 -0.15132890621986689 0.2023554668109106 0 -0.1332261243237185 0.2134700983517023 0 -0.14896281407221099 0.2169790343119124 0 -0.1660092811152292 0.21882881734163881 0 -0.15132890621986689 0.2023554668109106 0 -0.14896281407221099 0.2169790343119124 0 -0.1660092811152292 0.21882881734163881 0 -0.14896281407221099 0.2169790343119124 0 -0.14528694463002961 0.23326175474339769 0 -0.1332261243237185 0.2134700983517023 0 -0.14896281407221099 0.2169790343119124 0 -0.14528694463002961 0.23326175474339769 0 -0.1332261243237185 0.2134700983517023 0 -0.14528694463002961 0.23326175474339769 0 -0.1332261243237185 0.2134700983517023 0 -0.14528694463002961 0.23326175474339769 0 -0.1246635076556106 0.22394125084985261 0 -0.14528694463002961 0.23326175474339769 0 -0.12675440856420331 0.23939669962326091 0 -0.1246635076556106 0.22394125084985261 0 -0.13856544389761921 0.25213329791345018 0 -0.14528694463002961 0.23326175474339769 0 -0.12675440856420331 0.23939669962326091 0 -0.1275845452889372 0.25235475329170443 0 -0.13856544389761921 0.25213329791345018 0 -0.12675440856420331 0.23939669962326091 0 -0.15734776493634059 0.25305341113509328 0 -0.14528694463002961 0.23326175474339769 0 -0.15734776493634059 0.25305341113509328 0 -0.13856544389761921 0.25213329791345018 0 -0.14528694463002961 0.23326175474339769 0 -0.16493670928229651 0.146492663074278 0 -0.1582672888307903 0.15037356760637349 0 -0.15403990494035871 0.1347366106955723 0 -0.16680932318498209 0.15577363542434369 0 -0.1752879638554187 0.14270999521765559 0 -0.17104197359893211 0.16445312377535021 0 -0.16493670928229651 0.146492663074278 0 -0.1752879638554187 0.14270999521765559 0 -0.15403990494035871 0.1347366106955723 0 -0.16493670928229651 0.146492663074278 0 -0.16680932318498209 0.15577363542434369 0 -0.1752879638554187 0.14270999521765559 0 -0.16680932318498209 0.15577363542434369 0 -0.1582672888307903 0.15037356760637349 0 -0.1600583562538955 0.1610662385102036 0 -0.16493670928229651 0.146492663074278 0 -0.16680932318498209 0.15577363542434369 0 -0.1582672888307903 0.15037356760637349 0 -0.1719692165511989 0.12950554805286199 0 -0.1752879638554187 0.14270999521765559 0 -0.15403990494035871 0.1347366106955723 0 -0.1752879638554187 0.14270999521765559 0 -0.15403990494035871 0.1347366106955723 0 -0.1620844976615837 0.1246137265311604 0 -0.1719692165511989 0.12950554805286199 0 -0.15403990494035871 0.1347366106955723 0 -0.17250653470983621 0.1213716645240282 0 -0.1620844976615837 0.1246137265311604 0 -0.1719692165511989 0.12950554805286199 0 -0.17995635351994921 0.11880381774159871 0 -0.1719692165511989 0.12950554805286199 0 -0.1752879638554187 0.14270999521765559 0 -0.18522113750955341 0.1221740471154176 0 -0.18073310921657629 0.14475329893385591 0 -0.18522113750955341 0.1221740471154176 0 -0.17995635351994921 0.11880381774159871 0 -0.1752879638554187 0.14270999521765559 0 -0.17995635351994921 0.11880381774159871 0 -0.1752879638554187 0.14270999521765559 0 -0.18522113750955341 0.1221740471154176 0 -0.18073310921657629 0.14475329893385591 0 -0.1752879638554187 0.14270999521765559 0 -0.18522113750955341 0.1221740471154176 0 -0.18990402239406781 0.13151688705943579 0 -0.18073310921657629 0.14475329893385591 0 -0.18073310921657629 0.14475329893385591 0 -0.1752879638554187 0.14270999521765559 0 -0.17104197359893211 0.16445312377535021 0 -0.1752879638554187 0.14270999521765559 0 -0.17104197359893211 0.16445312377535021 0 -0.18073310921657629 0.14475329893385591 0 -0.1752879638554187 0.14270999521765559 0 -0.18073310921657629 0.14475329893385591 0 -0.17582516651612301 0.16944513840311609 0 -0.18975293240789781 0.18034993493684029 0 -0.18875005446824489 0.1591804997641007 0 -0.17582516651612301 0.16944513840311609 0 -0.18875005446824489 0.1591804997641007 0 -0.18073310921657629 0.14475329893385591 0 -0.17582516651612301 0.16944513840311609 0 -0.18073310921657629 0.14475329893385591 0 -0.17582516651612301 0.16944513840311609 0 -0.17104197359893211 0.16445312377535021 0 -0.18975293240789781 0.18034993493684029 0 -0.17091722381567609 0.19413697787237741 0 -0.17582516651612301 0.16944513840311609 0 -0.17091722381567609 0.19413697787237741 0 -0.17582516651612301 0.16944513840311609 0 -0.17091722381567609 0.19413697787237741 0 -0.17582516651612301 0.16944513840311609 0 -0.16196867519539149 0.17329917849168411 0 -0.15653828758161059 0.18819203387869779 0 -0.17091722381567609 0.19413697787237741 0 -0.16196867519539149 0.17329917849168411 0 -0.16680932318498209 0.15577363542434369 0 -0.17104197359893211 0.16445312377535021 0 -0.1600583562538955 0.1610662385102036 0 -0.16196867519539149 0.17329917849168411 0 -0.17104197359893211 0.16445312377535021 0 -0.1600583562538955 0.1610662385102036 0 -0.17582516651612301 0.16944513840311609 0 -0.16196867519539149 0.17329917849168411 0 -0.17104197359893211 0.16445312377535021 0 -0.16196867519539149 0.17329917849168411 0 -0.1600583562538955 0.1610662385102036 0 -0.15058654738868271 0.16692285717757399 0 -0.1600583562538955 0.1610662385102036 0 -0.15058654738868271 0.16692285717757399 0 -0.14893284115272579 0.15614598145465081 0 -0.15058654738868271 0.16692285717757399 0 -0.14156698960639941 0.18348881022584551 0 -0.13942890778002201 0.16316639075987571 0 -0.15058654738868271 0.16692285717757399 0 -0.13942890778002201 0.16316639075987571 0 -0.14893284115272579 0.15614598145465081 0 -0.13942890778002201 0.16316639075987571 0 -0.1372067456203217 0.1498659214755077 0 -0.14893284115272579 0.15614598145465081 0 -0.16196867519539149 0.17329917849168411 0 -0.15058654738868271 0.16692285717757399 0 -0.14156698960639941 0.18348881022584551 0 -0.16196867519539149 0.17329917849168411 0 -0.14156698960639941 0.18348881022584551 0 -0.15653828758161059 0.18819203387869779 0 -0.16196867519539149 0.17329917849168411 0 -0.14156698960639941 0.18348881022584551 0 -0.14156698960639941 0.18348881022584551 0 -0.1212356254850179 0.17772098389286661 0 -0.1211653040174074 0.1936784419600068 0 -0.14156698960639941 0.18348881022584551 0 -0.1292359491093828 0.16803570062978621 0 -0.1212356254850179 0.17772098389286661 0 -0.14156698960639941 0.18348881022584551 0 -0.13942890778002201 0.16316639075987571 0 -0.1292359491093828 0.16803570062978621 0 -0.13942890778002201 0.16316639075987571 0 -0.126379387278066 0.15597478529925399 0 -0.1372067456203217 0.1498659214755077 0 -0.13942890778002201 0.16316639075987571 0 -0.1292359491093828 0.16803570062978621 0 -0.126379387278066 0.15597478529925399 0 -0.1292359491093828 0.16803570062978621 0 -0.126379387278066 0.15597478529925399 0 -0.12032793539161341 0.1646437059605354 0 -0.1372067456203217 0.1498659214755077 0 -0.13882554850675161 0.1383506728622356 0 -0.12055833464411039 0.1379425794840464 0 -0.126379387278066 0.15597478529925399 0 -0.1372067456203217 0.1498659214755077 0 -0.12055833464411039 0.1379425794840464 0 -0.1582672888307903 0.15037356760637349 0 -0.14804920104264299 0.14548091319836989 0 -0.15403990494035871 0.1347366106955723 0 -0.1372067456203217 0.1498659214755077 0 -0.14804920104264299 0.14548091319836989 0 -0.14893284115272579 0.15614598145465081 0 -0.1372067456203217 0.1498659214755077 0 -0.14804920104264299 0.14548091319836989 0 -0.13882554850675161 0.1383506728622356 0 -0.1582672888307903 0.15037356760637349 0 -0.14804920104264299 0.14548091319836989 0 -0.14893284115272579 0.15614598145465081 0 -0.1582672888307903 0.15037356760637349 0 -0.1600583562538955 0.1610662385102036 0 -0.14893284115272579 0.15614598145465081 0 -0.15403990494035871 0.1347366106955723 0 -0.13279184602529889 0.12676322617348859 0 -0.13882554850675161 0.1383506728622356 0 -0.1470909288768201 0.1209563670492638 0 -0.15403990494035871 0.1347366106955723 0 -0.13279184602529889 0.12676322617348859 0 -0.15403990494035871 0.1347366106955723 0 -0.13279184602529889 0.12676322617348859 0 -0.1620844976615837 0.1246137265311604 0 -0.1470909288768201 0.1209563670492638 0 -0.15403990494035871 0.1347366106955723 0 -0.14804920104264299 0.14548091319836989 0 -0.15403990494035871 0.1347366106955723 0 -0.13882554850675161 0.1383506728622356 0 -0.13279184602529889 0.12676322617348859 0 -0.13882554850675161 0.1383506728622356 0 -0.12055833464411039 0.1379425794840464 0 -0.12055833464411039 0.1379425794840464 0 -0.1023088465637346 0.12791043533215449 0 -0.1115437871102391 0.1187898416514048 0 -0.13279184602529889 0.12676322617348859 0 -0.12055833464411039 0.1379425794840464 0 -0.1115437871102391 0.1187898416514048 0 -0.12055833464411039 0.1379425794840464 0 -0.1023088465637346 0.12791043533215449 0 -0.1046935792554477 0.14276705382981919 0 -0.1023088465637346 0.12791043533215449 0 -0.094962951494757253 0.1365399359344949 0 -0.1046935792554477 0.14276705382981919 0 -0.1023088465637346 0.12791043533215449 0 -0.094962951494757253 0.1365399359344949 0 -0.090489411448067963 0.12704359689220629 0 -0.1046935792554477 0.14276705382981919 0 -0.1041248896475066 0.15551828672862411 0 -0.093004616703312795 0.14955646627746921 0 -0.094962951494757253 0.1365399359344949 0 -0.1046935792554477 0.14276705382981919 0 -0.093004616703312795 0.14955646627746921 0 -0.1046935792554477 0.14276705382981919 0 -0.1041248896475066 0.15551828672862411 0 -0.11445282865732979 0.15334905662196921 0 -0.126379387278066 0.15597478529925399 0 -0.12055833464411039 0.1379425794840464 0 -0.11445282865732979 0.15334905662196921 0 -0.12055833464411039 0.1379425794840464 0 -0.1046935792554477 0.14276705382981919 0 -0.11445282865732979 0.15334905662196921 0 -0.126379387278066 0.15597478529925399 0 -0.11445282865732979 0.15334905662196921 0 -0.12032793539161341 0.1646437059605354 0 -0.1292359491093828 0.16803570062978621 0 -0.12032793539161341 0.1646437059605354 0 -0.1212356254850179 0.17772098389286661 0 -0.12032793539161341 0.1646437059605354 0 -0.11033588642827059 0.16813800335880069 0 -0.1212356254850179 0.17772098389286661 0 -0.11445282865732979 0.15334905662196921 0 -0.12032793539161341 0.1646437059605354 0 -0.11033588642827059 0.16813800335880069 0 -0.1041248896475066 0.15551828672862411 0 -0.11445282865732979 0.15334905662196921 0 -0.11033588642827059 0.16813800335880069 0 -0.1212356254850179 0.17772098389286661 0 -0.1162405620239744 0.18559700148777139 0 -0.1211653040174074 0.1936784419600068 0 -0.11033588642827059 0.16813800335880069 0 -0.1212356254850179 0.17772098389286661 0 -0.11040529035695 0.18033161209543469 0 -0.1212356254850179 0.17772098389286661 0 -0.1162405620239744 0.18559700148777139 0 -0.11040529035695 0.18033161209543469 0 -0.1162405620239744 0.18559700148777139 0 -0.11040529035695 0.18033161209543469 0 -0.1107279914488204 0.18922386021274351 0 -0.11040529035695 0.18033161209543469 0 -0.10404301441471039 0.18549735888335431 0 -0.1015273448004774 0.1757087477555371 0 -0.11040529035695 0.18033161209543469 0 -0.10404301441471039 0.18549735888335431 0 -0.1107279914488204 0.18922386021274351 0 -0.11033588642827059 0.16813800335880069 0 -0.11040529035695 0.18033161209543469 0 -0.1015273448004774 0.1757087477555371 0 -0.1015273448004774 0.1757087477555371 0 -0.096120419389573414 0.1819157133133634 0 -0.090121921020187831 0.1745889453272072 0 -0.10404301441471039 0.18549735888335431 0 -0.1015273448004774 0.1757087477555371 0 -0.096120419389573414 0.1819157133133634 0 -0.096120419389573414 0.1819157133133634 0 -0.098521912497115088 0.18755926016654281 0 -0.093454227826185121 0.1900729672677221 0 -0.10404301441471039 0.18549735888335431 0 -0.096120419389573414 0.1819157133133634 0 -0.098521912497115088 0.18755926016654281 0 -0.1041248896475066 0.15551828672862411 0 -0.11033588642827059 0.16813800335880069 0 -0.09813753719317217 0.16378085355506239 0 -0.11033588642827059 0.16813800335880069 0 -0.1015273448004774 0.1757087477555371 0 -0.09813753719317217 0.16378085355506239 0 -0.1015273448004774 0.1757087477555371 0 -0.09813753719317217 0.16378085355506239 0 -0.090121921020187831 0.1745889453272072 0 -0.1041248896475066 0.15551828672862411 0 -0.09813753719317217 0.16378085355506239 0 -0.093004616703312795 0.14955646627746921 0 -0.09813753719317217 0.16378085355506239 0 -0.086587312603767272 0.16309195023576811 0 -0.093004616703312795 0.14955646627746921 0 -0.086587312603767272 0.16309195023576811 0 -0.082973046392991398 0.1706584588125197 0 -0.090121921020187831 0.1745889453272072 0 -0.09813753719317217 0.16378085355506239 0 -0.086587312603767272 0.16309195023576811 0 -0.090121921020187831 0.1745889453272072 0 -0.082973046392991398 0.1706584588125197 0 -0.07811847801966379 0.1770057215936105 0 -0.07752658832453202 0.16525770793357411 0 -0.086587312603767272 0.16309195023576811 0 -0.082973046392991398 0.1706584588125197 0 -0.07752658832453202 0.16525770793357411 0 -0.086587312603767272 0.16309195023576811 0 -0.07752658832453202 0.16525770793357411 0 -0.080367244808656924 0.1529172126962475 0 -0.096120419389573414 0.1819157133133634 0 -0.086135128176650894 0.1836910291739027 0 -0.093454227826185121 0.1900729672677221 0 -0.096120419389573414 0.1819157133133634 0 -0.086135128176650894 0.1836910291739027 0 -0.090121921020187831 0.1745889453272072 0 -0.086135128176650894 0.1836910291739027 0 -0.090121921020187831 0.1745889453272072 0 -0.07811847801966379 0.1770057215936105 0 -0.082973046392991398 0.1706584588125197 0 -0.090121921020187831 0.1745889453272072 0 -0.07811847801966379 0.1770057215936105 0 -0.086135128176650894 0.1836910291739027 0 -0.07811847801966379 0.1770057215936105 0 -0.078568494552088156 0.18995854463341791 0 -0.07811847801966379 0.1770057215936105 0 -0.070440232651571177 0.18603836763265619 0 -0.069666944161983949 0.16915157594975791 0 -0.070440232651571177 0.18603836763265619 0 -0.069666944161983949 0.16915157594975791 0 -0.061976771616508088 0.17793726929052989 0 -0.07811847801966379 0.1770057215936105 0 -0.070440232651571177 0.18603836763265619 0 -0.078568494552088156 0.18995854463341791 0 -0.071534386433757091 0.1568463474886605 0 -0.069666944161983949 0.16915157594975791 0 -0.060272218829533868 0.15278116043754611 0 -0.069666944161983949 0.16915157594975791 0 -0.060272218829533868 0.15278116043754611 0 -0.061976771616508088 0.17793726929052989 0 -0.071534386433757091 0.1568463474886605 0 -0.07752658832453202 0.16525770793357411 0 -0.069666944161983949 0.16915157594975791 0 -0.071534386433757091 0.1568463474886605 0 -0.07752658832453202 0.16525770793357411 0 -0.080367244808656924 0.1529172126962475 0 -0.07811847801966379 0.1770057215936105 0 -0.07752658832453202 0.16525770793357411 0 -0.069666944161983949 0.16915157594975791 0 -0.071534386433757091 0.1568463474886605 0 -0.069838936044078759 0.14412408042617711 0 -0.060272218829533868 0.15278116043754611 0 -0.069838936044078759 0.14412408042617711 0 -0.058567666042563638 0.12762505158456211 0 -0.060272218829533868 0.15278116043754611 0 -0.071534386433757091 0.1568463474886605 0 -0.069838936044078759 0.14412408042617711 0 -0.080367244808656924 0.1529172126962475 0 -0.080214435715148857 0.12723075560730329 0 -0.058567666042563638 0.12762505158456211 0 -0.069838936044078759 0.14412408042617711 0 -0.080214435715148857 0.12723075560730329 0 -0.058567666042563638 0.12762505158456211 0 -0.069838936044078759 0.14412408042617711 0 -0.080214435715148857 0.12723075560730329 0 -0.069838936044078759 0.14412408042617711 0 -0.085578639646156002 0.13958384249386671 0 -0.080214435715148857 0.12723075560730329 0 -0.085578639646156002 0.13958384249386671 0 -0.080214435715148857 0.12723075560730329 0 -0.090489411448067963 0.12704359689220629 0 -0.080214435715148857 0.12723075560730329 0 -0.090489411448067963 0.12704359689220629 0 -0.094962951494757253 0.1365399359344949 0 -0.085578639646156002 0.13958384249386671 0 -0.090489411448067963 0.12704359689220629 0 -0.094962951494757253 0.1365399359344949 0 -0.085578639646156002 0.13958384249386671 0 -0.093004616703312795 0.14955646627746921 0 -0.069838936044078759 0.14412408042617711 0 -0.085578639646156002 0.13958384249386671 0 -0.080367244808656924 0.1529172126962475 0 -0.085578639646156002 0.13958384249386671 0 -0.093004616703312795 0.14955646627746921 0 -0.080367244808656924 0.1529172126962475 0 -0.086587312603767272 0.16309195023576811 0 -0.093004616703312795 0.14955646627746921 0 -0.080367244808656924 0.1529172126962475 0 -0.1143113926973838 0.25156989462734419 0 -0.096087350700184732 0.240688349379646 0 -0.102030440132303 0.24052210278640651 0 -0.094495146754203743 0.25185255969015358 0 -0.1017460216861063 0.25652835057549389 0 -0.096087350700184732 0.240688349379646 0 -0.115063459822302 0.25793516079317591 0 -0.096087350700184732 0.240688349379646 0 -0.1143113926973838 0.25156989462734419 0 -0.102030440132303 0.24052210278640651 0 -0.11127293547923971 0.22585332188249679 0 -0.096087350700184732 0.240688349379646 0 -0.102030440132303 0.24052210278640651 0 -0.098765955052213292 0.23013300678645029 0 -0.1143113926973838 0.25156989462734419 0 -0.102030440132303 0.24052210278640651 0 -0.1143113926973838 0.25156989462734419 0 -0.12675440856420331 0.23939669962326091 0 -0.11127293547923971 0.22585332188249679 0 -0.1143113926973838 0.25156989462734419 0 -0.11127293547923971 0.22585332188249679 0 -0.1275845452889372 0.25235475329170443 0 -0.1143113926973838 0.25156989462734419 0 -0.12675440856420331 0.23939669962326091 0 -0.12675440856420331 0.23939669962326091 0 -0.1246635076556106 0.22394125084985261 0 -0.11127293547923971 0.22585332188249679 0 -0.1246635076556106 0.22394125084985261 0 -0.11127293547923971 0.22585332188249679 0 -0.11971246994741459 0.21141597243634161 0 -0.11127293547923971 0.22585332188249679 0 -0.098765955052213292 0.23013300678645029 0 -0.099403123719583278 0.2194981638476495 0 -0.11127293547923971 0.22585332188249679 0 -0.099403123719583278 0.2194981638476495 0 -0.1032133663009204 0.21319072645576551 0 -0.096087350700184732 0.240688349379646 0 -0.098765955052213292 0.23013300678645029 0 -0.089174301951935986 0.22497642174028121 0 -0.102030440132303 0.24052210278640651 0 -0.11127293547923971 0.22585332188249679 0 -0.098765955052213292 0.23013300678645029 0 -0.098765955052213292 0.23013300678645029 0 -0.099403123719583278 0.2194981638476495 0 -0.089174301951935986 0.22497642174028121 0 -0.11127293547923971 0.22585332188249679 0 -0.1032133663009204 0.21319072645576551 0 -0.10823447826109681 0.20013674913764931 0 -0.099403123719583278 0.2194981638476495 0 -0.093942927743761853 0.2072746709552663 0 -0.089174301951935986 0.22497642174028121 0 -0.099403123719583278 0.2194981638476495 0 -0.093942927743761853 0.2072746709552663 0 -0.1032133663009204 0.21319072645576551 0 -0.093942927743761853 0.2072746709552663 0 -0.10823447826109681 0.20013674913764931 0 -0.093942927743761853 0.2072746709552663 0 -0.1032133663009204 0.21319072645576551 0 -0.10823447826109681 0.20013674913764931 0 -0.1332261243237185 0.2134700983517023 0 -0.11971246994741459 0.21141597243634161 0 -0.1211653040174074 0.1936784419600068 0 -0.11127293547923971 0.22585332188249679 0 -0.10823447826109681 0.20013674913764931 0 -0.11127293547923971 0.22585332188249679 0 -0.11971246994741459 0.21141597243634161 0 -0.10823447826109681 0.20013674913764931 0 -0.1211653040174074 0.1936784419600068 0 -0.10783071841121269 0.19671944923657281 0 -0.10823447826109681 0.20013674913764931 0 -0.1211653040174074 0.1936784419600068 0 -0.10823447826109681 0.20013674913764931 0 -0.11971246994741459 0.21141597243634161 0 -0.1211653040174074 0.1936784419600068 0 -0.10823447826109681 0.20013674913764931 0 -0.1162405620239744 0.18559700148777139 0 -0.1211653040174074 0.1936784419600068 0 -0.1211653040174074 0.1936784419600068 0 -0.1107279914488204 0.18922386021274351 0 -0.10783071841121269 0.19671944923657281 0 -0.1162405620239744 0.18559700148777139 0 -0.1211653040174074 0.1936784419600068 0 -0.1107279914488204 0.18922386021274351 0 -0.10404301441471039 0.18549735888335431 0 -0.1107279914488204 0.18922386021274351 0 -0.10580975568052479 0.1921238543751409 0 -0.10404301441471039 0.18549735888335431 0 -0.10580975568052479 0.1921238543751409 0 -0.101016019526602 0.19258821893667841 0 -0.10580975568052479 0.1921238543751409 0 -0.1043089176782664 0.19587440225332001 0 -0.101016019526602 0.19258821893667841 0 -0.10580975568052479 0.1921238543751409 0 -0.10783071841121269 0.19671944923657281 0 -0.1043089176782664 0.19587440225332001 0 -0.1107279914488204 0.18922386021274351 0 -0.10580975568052479 0.1921238543751409 0 -0.10783071841121269 0.19671944923657281 0 -0.10783071841121269 0.19671944923657281 0 -0.10823447826109681 0.20013674913764931 0 -0.10783071841121269 0.19671944923657281 0 -0.10551361141012799 0.19797730776781849 0 -0.10823447826109681 0.20013674913764931 0 -0.10783071841121269 0.19671944923657281 0 -0.10551361141012799 0.19797730776781849 0 -0.1043089176782664 0.19587440225332001 0 -0.1043089176782664 0.19587440225332001 0 -0.101680331289936 0.1991786304437321 0 -0.101016019526602 0.19258821893667841 0 -0.10551361141012799 0.19797730776781849 0 -0.10823447826109681 0.20013674913764931 0 -0.101680331289936 0.1991786304437321 0 -0.10551361141012799 0.19797730776781849 0 -0.1043089176782664 0.19587440225332001 0 -0.101680331289936 0.1991786304437321 0 -0.093942927743761853 0.2072746709552663 0 -0.10823447826109681 0.20013674913764931 0 -0.101680331289936 0.1991786304437321 0 -0.101680331289936 0.1991786304437321 0 -0.096760937716955819 0.19398658921821479 0 -0.093419937684856555 0.1983725290706562 0 -0.093942927743761853 0.2072746709552663 0 -0.101680331289936 0.1991786304437321 0 -0.093419937684856555 0.1983725290706562 0 -0.096760937716955819 0.19398658921821479 0 -0.093454227826185121 0.1900729672677221 0 -0.093419937684856555 0.1983725290706562 0 -0.096760937716955819 0.19398658921821479 0 -0.098521912497115088 0.18755926016654281 0 -0.093454227826185121 0.1900729672677221 0 -0.10404301441471039 0.18549735888335431 0 -0.098521912497115088 0.18755926016654281 0 -0.101016019526602 0.19258821893667841 0 -0.096760937716955819 0.19398658921821479 0 -0.098521912497115088 0.18755926016654281 0 -0.101016019526602 0.19258821893667841 0 -0.101680331289936 0.1991786304437321 0 -0.096760937716955819 0.19398658921821479 0 -0.101016019526602 0.19258821893667841 0 -0.093942927743761853 0.2072746709552663 0 -0.085296442607823902 0.19667172641663069 0 -0.076347048742859164 0.20214908266065459 0 -0.086805563888076739 0.1901954400800677 0 -0.093454227826185121 0.1900729672677221 0 -0.093419937684856555 0.1983725290706562 0 -0.086805563888076739 0.1901954400800677 0 -0.093419937684856555 0.1983725290706562 0 -0.085296442607823902 0.19667172641663069 0 -0.086135128176650894 0.1836910291739027 0 -0.086805563888076739 0.1901954400800677 0 -0.093454227826185121 0.1900729672677221 0 -0.093942927743761853 0.2072746709552663 0 -0.093419937684856555 0.1983725290706562 0 -0.085296442607823902 0.19667172641663069 0 -0.085296442607823902 0.19667172641663069 0 -0.078568494552088156 0.18995854463341791 0 -0.076347048742859164 0.20214908266065459 0 -0.086805563888076739 0.1901954400800677 0 -0.085296442607823902 0.19667172641663069 0 -0.078568494552088156 0.18995854463341791 0 -0.086135128176650894 0.1836910291739027 0 -0.086805563888076739 0.1901954400800677 0 -0.078568494552088156 0.18995854463341791 0 -0.070440232651571177 0.18603836763265619 0 -0.063681324403482314 0.2030933781435138 0 -0.061976771616508088 0.17793726929052989 0 -0.063681324403482314 0.2030933781435138 0 -0.061976771616508088 0.17793726929052989 0 -0.070440232651571177 0.18603836763265619 0 -0.078568494552088156 0.18995854463341791 0 -0.070877788220717552 0.19600448512796459 0 -0.070440232651571177 0.18603836763265619 0 -0.063681324403482314 0.2030933781435138 0 -0.070877788220717552 0.19600448512796459 0 -0.063681324403482314 0.2030933781435138 0 -0.070050675897007905 0.20232718432473959 0 -0.070877788220717552 0.19600448512796459 0 -0.078568494552088156 0.18995854463341791 0 -0.070877788220717552 0.19600448512796459 0 -0.076347048742859164 0.20214908266065459 0 -0.070050675897007905 0.20232718432473959 0 -0.070877788220717552 0.19600448512796459 0 -0.076347048742859164 0.20214908266065459 0 -0.076347048742859164 0.20214908266065459 0 -0.06929654222097259 0.20806179136682529 0 -0.079651377226426429 0.21441259277288249 0 -0.070050675897007905 0.20232718432473959 0 -0.076347048742859164 0.20214908266065459 0 -0.06929654222097259 0.20806179136682529 0 -0.063681324403482314 0.2030933781435138 0 -0.06929654222097259 0.20806179136682529 0 -0.060821736410159692 0.20957285381734769 0 -0.063681324403482314 0.2030933781435138 0 -0.070050675897007905 0.20232718432473959 0 -0.06929654222097259 0.20806179136682529 0 -0.06929654222097259 0.20806179136682529 0 -0.066545055093713473 0.21806140965476059 0 -0.060821736410159692 0.20957285381734769 0 -0.06929654222097259 0.20806179136682529 0 -0.066545055093713473 0.21806140965476059 0 -0.079651377226426429 0.21441259277288249 0 -0.093942927743761853 0.2072746709552663 0 -0.076347048742859164 0.20214908266065459 0 -0.079651377226426429 0.21441259277288249 0 -0.093942927743761853 0.2072746709552663 0 -0.079651377226426429 0.21441259277288249 0 -0.089174301951935986 0.22497642174028121 0 -0.093942927743761853 0.2072746709552663 0 -0.079651377226426429 0.21441259277288249 0 -0.079651377226426429 0.21441259277288249 0 -0.089174301951935986 0.22497642174028121 0 -0.073751098795286477 0.2264243582656626 0 -0.073751098795286477 0.2264243582656626 0 -0.063264856487562235 0.22905848221642339 0 -0.071317774380014659 0.24603131409365209 0 -0.089174301951935986 0.22497642174028121 0 -0.073751098795286477 0.2264243582656626 0 -0.071317774380014659 0.24603131409365209 0 -0.066545055093713473 0.21806140965476059 0 -0.079651377226426429 0.21441259277288249 0 -0.073751098795286477 0.2264243582656626 0 -0.066545055093713473 0.21806140965476059 0 -0.073751098795286477 0.2264243582656626 0 -0.063264856487562235 0.22905848221642339 0 -0.089174301951935986 0.22497642174028121 0 -0.071317774380014659 0.24603131409365209 0 -0.085686930434730663 0.24908917197524849 0 -0.089174301951935986 0.22497642174028121 0 -0.071317774380014659 0.24603131409365209 0 -0.096087350700184732 0.240688349379646 0 -0.089174301951935986 0.22497642174028121 0 -0.085686930434730663 0.24908917197524849 0 -0.094495146754203743 0.25185255969015358 0 -0.096087350700184732 0.240688349379646 0 -0.085686930434730663 0.24908917197524849 0 -0.03031676770567342 0.26219310003034302 0 -0.042601251696290851 0.24851914262292679 0 -0.02439618885725248 0.23804590227776701 0 -0.038915848347792131 0.23476553538692749 0 -0.042601251696290851 0.24851914262292679 0 -0.02439618885725248 0.23804590227776701 0 -0.038915848347792131 0.23476553538692749 0 -0.042601251696290851 0.24851914262292679 0 -0.052224393108926327 0.23531723610910921 0 -0.063264856487562235 0.22905848221642339 0 -0.071317774380014659 0.24603131409365209 0 -0.052224393108926327 0.23531723610910921 0 -0.071317774380014659 0.24603131409365209 0 -0.042601251696290851 0.24851914262292679 0 -0.052224393108926327 0.23531723610910921 0 -0.052224393108926327 0.23531723610910921 0 -0.055359610213602507 0.2218426094486709 0 -0.043455599343809853 0.22480703773394281 0 -0.063264856487562235 0.22905848221642339 0 -0.052224393108926327 0.23531723610910921 0 -0.055359610213602507 0.2218426094486709 0 -0.066545055093713473 0.21806140965476059 0 -0.063264856487562235 0.22905848221642339 0 -0.055359610213602507 0.2218426094486709 0 -0.055359610213602507 0.2218426094486709 0 -0.043455599343809853 0.22480703773394281 0 -0.047813892044217758 0.2126072130422853 0 -0.038915848347792131 0.23476553538692749 0 -0.052224393108926327 0.23531723610910921 0 -0.043455599343809853 0.22480703773394281 0 -0.038915848347792131 0.23476553538692749 0 -0.032121945489278353 0.22672071163702079 0 -0.02439618885725248 0.23804590227776701 0 -0.038915848347792131 0.23476553538692749 0 -0.043455599343809853 0.22480703773394281 0 -0.032121945489278353 0.22672071163702079 0 -0.043455599343809853 0.22480703773394281 0 -0.032121945489278353 0.22672071163702079 0 -0.033965245911058053 0.21304655190743019 0 -0.033965245911058053 0.21304655190743019 0 -0.042562536403856377 0.20115747198643921 0 -0.02970602521131651 0.19529787552911321 0 -0.033965245911058053 0.21304655190743019 0 -0.047813892044217758 0.2126072130422853 0 -0.042562536403856377 0.20115747198643921 0 -0.043455599343809853 0.22480703773394281 0 -0.033965245911058053 0.21304655190743019 0 -0.047813892044217758 0.2126072130422853 0 -0.055359610213602507 0.2218426094486709 0 -0.047813892044217758 0.2126072130422853 0 -0.060821736410159692 0.20957285381734769 0 -0.066545055093713473 0.21806140965476059 0 -0.055359610213602507 0.2218426094486709 0 -0.060821736410159692 0.20957285381734769 0 -0.047813892044217758 0.2126072130422853 0 -0.050394626664956407 0.20401592939644289 0 -0.042562536403856377 0.20115747198643921 0 -0.047813892044217758 0.2126072130422853 0 -0.060821736410159692 0.20957285381734769 0 -0.050394626664956407 0.20401592939644289 0 -0.063681324403482314 0.2030933781435138 0 -0.060821736410159692 0.20957285381734769 0 -0.05225869450968397 0.18239920960847611 0 -0.050394626664956407 0.20401592939644289 0 -0.049482818621640848 0.19575394334148929 0 -0.042562536403856377 0.20115747198643921 0 -0.063681324403482314 0.2030933781435138 0 -0.061976771616508088 0.17793726929052989 0 -0.05225869450968397 0.18239920960847611 0 -0.060821736410159692 0.20957285381734769 0 -0.050394626664956407 0.20401592939644289 0 -0.049482818621640848 0.19575394334148929 0 -0.060821736410159692 0.20957285381734769 0 -0.049482818621640848 0.19575394334148929 0 -0.05225869450968397 0.18239920960847611 0 -0.060821736410159692 0.20957285381734769 0 -0.05225869450968397 0.18239920960847611 0 -0.049482818621640848 0.19575394334148929 0 -0.039581452759645808 0.1876797811023202 0 -0.05225869450968397 0.18239920960847611 0 -0.049482818621640848 0.19575394334148929 0 -0.039581452759645808 0.1876797811023202 0 -0.042562536403856377 0.20115747198643921 0 -0.039581452759645808 0.1876797811023202 0 -0.042562536403856377 0.20115747198643921 0 -0.02970602521131651 0.19529787552911321 0 -0.039581452759645808 0.1876797811023202 0 -0.02970602521131651 0.19529787552911321 0 -0.025786339067978101 0.18102804467473599 0 -0.02970602521131651 0.19529787552911321 0 -0.01625420318409055 0.19123369758156741 0 -0.022440014655045429 0.20737937599030229 0 -0.02970602521131651 0.19529787552911321 0 -0.01625420318409055 0.19123369758156741 0 -0.025786339067978101 0.18102804467473599 0 -0.01625420318409055 0.19123369758156741 0 -0.022440014655045429 0.20737937599030229 0 0.0048510686023909609 0.19474681946249009 0 -0.022440014655045429 0.20737937599030229 0 0.0048510686023909609 0.19474681946249009 0 -0.01625420318409055 0.19123369758156741 0 -0.0081897055885035482 0.1777163722511958 0 0.0048510686023909609 0.19474681946249009 0 -0.022440014655045429 0.20737937599030229 0 -0.019876844986479208 0.22293853087903651 0 -0.0041296839451902198 0.223765609316179 0 -0.022440014655045429 0.20737937599030229 0 -0.0041296839451902198 0.223765609316179 0 0.00093659522194888183 0.20943444516334939 0 -0.022440014655045429 0.20737937599030229 0 0.00093659522194888183 0.20943444516334939 0 0.0048510686023909609 0.19474681946249009 0 -0.033965245911058053 0.21304655190743019 0 -0.02970602521131651 0.19529787552911321 0 -0.022440014655045429 0.20737937599030229 0 -0.033965245911058053 0.21304655190743019 0 -0.022440014655045429 0.20737937599030229 0 -0.019876844986479208 0.22293853087903651 0 -0.019876844986479208 0.22293853087903651 0 -0.0041296839451902198 0.223765609316179 0 -0.02439618885725248 0.23804590227776701 0 -0.032121945489278353 0.22672071163702079 0 -0.033965245911058053 0.21304655190743019 0 -0.019876844986479208 0.22293853087903651 0 -0.032121945489278353 0.22672071163702079 0 -0.019876844986479208 0.22293853087903651 0 -0.02439618885725248 0.23804590227776701 0 -0.0041296839451902198 0.223765609316179 0 -0.02439618885725248 0.23804590227776701 0 -0.015235597441373641 0.25512395430086182 0 -0.0011779531814362859 0.24237928671812051 0 -0.02439618885725248 0.23804590227776701 0 -0.0041296839451902198 0.223765609316179 0 -0.0011779531814362859 0.24237928671812051 0 -0.02439618885725248 0.23804590227776701 0 -0.043695652609208248 0.15522556539960461 0 -0.035132610708736432 0.1280519211907318 0 -0.023383249736738859 0.14393859938412981 0 -0.043695652609208248 0.15522556539960461 0 -0.035132610708736432 0.1280519211907318 0 -0.050042626099724957 0.14083850359137121 0 -0.043695652609208248 0.15522556539960461 0 -0.035132610708736432 0.1280519211907318 0 -0.035132610708736432 0.1280519211907318 0 -0.058567666042563638 0.12762505158456211 0 -0.058567666042563638 0.12762505158456211 0 -0.060272218829533868 0.15278116043754611 0 -0.058567666042563638 0.12762505158456211 0 -0.050042626099724957 0.14083850359137121 0 -0.060272218829533868 0.15278116043754611 0 -0.035132610708736432 0.1280519211907318 0 -0.058567666042563638 0.12762505158456211 0 -0.050042626099724957 0.14083850359137121 0 -0.043695652609208248 0.15522556539960461 0 -0.050042626099724957 0.14083850359137121 0 -0.060272218829533868 0.15278116043754611 0 -0.060272218829533868 0.15278116043754611 0 -0.054316981025072493 0.16673560067325319 0 -0.061976771616508088 0.17793726929052989 0 -0.043695652609208248 0.15522556539960461 0 -0.05225869450968397 0.18239920960847611 0 -0.043695652609208248 0.15522556539960461 0 -0.054316981025072493 0.16673560067325319 0 -0.05225869450968397 0.18239920960847611 0 -0.043695652609208248 0.15522556539960461 0 -0.060272218829533868 0.15278116043754611 0 -0.054316981025072493 0.16673560067325319 0 -0.060272218829533868 0.15278116043754611 0 -0.061976771616508088 0.17793726929052989 0 -0.054316981025072493 0.16673560067325319 0 -0.061976771616508088 0.17793726929052989 0 -0.05225869450968397 0.18239920960847611 0 -0.039581452759645808 0.1876797811023202 0 -0.05225869450968397 0.18239920960847611 0 -0.036794779563448142 0.17346990607545729 0 -0.039581452759645808 0.1876797811023202 0 -0.036794779563448142 0.17346990607545729 0 -0.025786339067978101 0.18102804467473599 0 -0.043695652609208248 0.15522556539960461 0 -0.05225869450968397 0.18239920960847611 0 -0.036794779563448142 0.17346990607545729 0 -0.043695652609208248 0.15522556539960461 0 -0.036794779563448142 0.17346990607545729 0 -0.021230479779397009 0.1606859250399007 0 -0.036794779563448142 0.17346990607545729 0 -0.021230479779397009 0.1606859250399007 0 -0.025786339067978101 0.18102804467473599 0 -0.021230479779397009 0.1606859250399007 0 -0.025786339067978101 0.18102804467473599 0 -0.0081897055885035482 0.1777163722511958 0 -0.01625420318409055 0.19123369758156741 0 -0.025786339067978101 0.18102804467473599 0 -0.0081897055885035482 0.1777163722511958 0 -0.0081897055885035482 0.1777163722511958 0 0.0048510686023909609 0.19474681946249009 0 -0.0081897055885035482 0.1777163722511958 0 -0.001583642327711904 0.16382029868089459 0 0.005511857122819471 0.178660602672958 0 -0.021230479779397009 0.1606859250399007 0 -0.0081897055885035482 0.1777163722511958 0 -0.001583642327711904 0.16382029868089459 0 -0.021230479779397009 0.1606859250399007 0 -0.0081897055885035482 0.1777163722511958 0 -0.021230479779397009 0.1606859250399007 0 -0.001583642327711904 0.16382029868089459 0 -0.0048217962445874923 0.14621403901726021 0 -0.021230479779397009 0.1606859250399007 0 -0.0048217962445874923 0.14621403901726021 0 -0.023383249736738859 0.14393859938412981 0 -0.043695652609208248 0.15522556539960461 0 -0.021230479779397009 0.1606859250399007 0 -0.023383249736738859 0.14393859938412981 0 -0.035132610708736432 0.1280519211907318 0 -0.0085113348658469937 0.12853682781343281 0 -0.035132610708736432 0.1280519211907318 0 -0.023383249736738859 0.14393859938412981 0 -0.0085113348658469937 0.12853682781343281 0 -0.0048217962445874923 0.14621403901726021 0 -0.023383249736738859 0.14393859938412981 0 -0.0085113348658469937 0.12853682781343281 0 -0.0085113348658469937 0.12853682781343281 0 -5.2145860693967462e-05 0.1081691216564979 0 -0.029724027766035319 0.1108885217507658 0 -5.2145860693967462e-05 0.1081691216564979 0 -0.029724027766035319 0.1108885217507658 0 -5.2145860693967462e-05 0.1081691216564979 0 -0.0095615119239251187 0.090588010783922757 0 0.0056820048922009026 0.089621195735828191 0 -5.2145860693967462e-05 0.1081691216564979 0 -0.025397649602952051 0.097159351406508915 0 -0.0095615119239251187 0.090588010783922757 0 -5.2145860693967462e-05 0.1081691216564979 0 -0.025397649602952051 0.097159351406508915 0 -0.029724027766035319 0.1108885217507658 0 -0.025397649602952051 0.097159351406508915 0 -0.029724027766035319 0.1108885217507658 0 -0.025397649602952051 0.097159351406508915 0 -0.03075078846554943 0.099262967092623583 0 -0.029724027766035319 0.1108885217507658 0 -0.035132610708736432 0.1280519211907318 0 -0.0085113348658469937 0.12853682781343281 0 -0.029724027766035319 0.1108885217507658 0 -0.0090417612651353396 0.071859252947126251 0 -0.021695025109976569 0.079809728562271476 0 -0.01263926175440337 0.060356490031919632 0 -0.0058116390471834693 0.066342585932693973 0 -0.0090417612651353396 0.071859252947126251 0 -0.01263926175440337 0.060356490031919632 0 -0.0058116390471834693 0.066342585932693973 0 -0.01263926175440337 0.060356490031919632 0 0.0006883626110090747 0.063991539003696141 0 -0.0058116390471834693 0.066342585932693973 0 -0.0022538957802038652 0.069163061748034063 0 0.0006883626110090747 0.063991539003696141 0 -0.0058116390471834693 0.066342585932693973 0 -0.0022538957802038652 0.069163061748034063 0 -0.0090417612651353396 0.071859252947126251 0 -0.0022538957802038652 0.069163061748034063 0 -0.0007351078596584071 0.077732459062844192 0 -0.0090417612651353396 0.071859252947126251 0 -0.0007351078596584071 0.077732459062844192 0 -0.0090417612651353396 0.071859252947126251 0 -0.01106953569815001 0.080239518225839232 0 -0.0090417612651353396 0.071859252947126251 0 -0.01106953569815001 0.080239518225839232 0 -0.021695025109976569 0.079809728562271476 0 -0.01106953569815001 0.080239518225839232 0 -0.0095615119239251187 0.090588010783922757 0 -0.021695025109976569 0.079809728562271476 0 -0.0007351078596584071 0.077732459062844192 0 -0.01106953569815001 0.080239518225839232 0 -0.0095615119239251187 0.090588010783922757 0 -0.0007351078596584071 0.077732459062844192 0 -0.0095615119239251187 0.090588010783922757 0 0.0056820048922009026 0.089621195735828191 0 -0.025397649602952051 0.097159351406508915 0 -0.0095615119239251187 0.090588010783922757 0 -0.021695025109976569 0.079809728562271476 0 -0.03075078846554943 0.099262967092623583 0 -0.021695025109976569 0.079809728562271476 0 -0.025397649602952051 0.097159351406508915 0 -0.03075078846554943 0.099262967092623583 0 -0.021695025109976569 0.079809728562271476 0 -0.03075078846554943 0.099262967092623583 0 -0.021695025109976569 0.079809728562271476 0 -0.037789379024866621 0.091113325023970515 0 -0.021695025109976569 0.079809728562271476 0 -0.02065543679346496 0.060252849891301502 0 -0.01263926175440337 0.060356490031919632 0 -0.021695025109976569 0.079809728562271476 0 -0.01263926175440337 0.060356490031919632 0 -0.021695025109976569 0.079809728562271476 0 -0.031610987861261708 0.067012067738679945 0 -0.02065543679346496 0.060252849891301502 0 -0.021695025109976569 0.079809728562271476 0 -0.031610987861261708 0.067012067738679945 0 -0.035025459879457273 0.078979311309893038 0 -0.031610987861261708 0.067012067738679945 0 -0.02065543679346496 0.060252849891301502 0 -0.031610987861261708 0.067012067738679945 0 -0.041420668380779867 0.070933576279379101 0 -0.045992179784487948 0.059925274259072132 0 -0.031610987861261708 0.067012067738679945 0 -0.041420668380779867 0.070933576279379101 0 -0.035025459879457273 0.078979311309893038 0 -0.041420668380779867 0.070933576279379101 0 -0.035025459879457273 0.078979311309893038 0 -0.047302491518104117 0.076942639515163933 0 -0.021695025109976569 0.079809728562271476 0 -0.035025459879457273 0.078979311309893038 0 -0.037789379024866621 0.091113325023970515 0 -0.035025459879457273 0.078979311309893038 0 -0.047059271482884073 0.08705789039025448 0 -0.047302491518104117 0.076942639515163933 0 -0.035025459879457273 0.078979311309893038 0 -0.037789379024866621 0.091113325023970515 0 -0.047059271482884073 0.08705789039025448 0 -0.037789379024866621 0.091113325023970515 0 -0.047059271482884073 0.08705789039025448 0 -0.056571228895482079 0.098161258750672289 0 -0.047059271482884073 0.08705789039025448 0 -0.056123539016281837 0.09155416777655348 0 -0.055239962045791513 0.081579684743167791 0 -0.047059271482884073 0.08705789039025448 0 -0.056123539016281837 0.09155416777655348 0 -0.056571228895482079 0.098161258750672289 0 -0.056123539016281837 0.09155416777655348 0 -0.055239962045791513 0.081579684743167791 0 -0.063760750341387382 0.085488070111810754 0 -0.055239962045791513 0.081579684743167791 0 -0.063760750341387382 0.085488070111810754 0 -0.063778282787889023 0.076298565349425557 0 -0.047059271482884073 0.08705789039025448 0 -0.055239962045791513 0.081579684743167791 0 -0.047302491518104117 0.076942639515163933 0 -0.053881406184709518 0.071092711316421781 0 -0.071328922775511019 0.059597698626844609 0 -0.045992179784487948 0.059925274259072132 0 -0.041420668380779867 0.070933576279379101 0 -0.053881406184709518 0.071092711316421781 0 -0.047302491518104117 0.076942639515163933 0 -0.055239962045791513 0.081579684743167791 0 -0.053881406184709518 0.071092711316421781 0 -0.047302491518104117 0.076942639515163933 0 -0.055239962045791513 0.081579684743167791 0 -0.053881406184709518 0.071092711316421781 0 -0.063778282787889023 0.076298565349425557 0 -0.041420668380779867 0.070933576279379101 0 -0.053881406184709518 0.071092711316421781 0 -0.045992179784487948 0.059925274259072132 0 -0.029724027766035319 0.1108885217507658 0 -0.055672276270778899 0.11326665434292781 0 -0.035132610708736432 0.1280519211907318 0 -0.029724027766035319 0.1108885217507658 0 -0.055672276270778899 0.11326665434292781 0 -0.035132610708736432 0.1280519211907318 0 -0.029724027766035319 0.1108885217507658 0 -0.029724027766035319 0.1108885217507658 0 -0.043234659717962143 0.10622365241741839 0 -0.055672276270778899 0.11326665434292781 0 -0.029724027766035319 0.1108885217507658 0 -0.035881109011586011 0.10400591111568119 0 -0.043234659717962143 0.10622365241741839 0 -0.03075078846554943 0.099262967092623583 0 -0.029724027766035319 0.1108885217507658 0 -0.035881109011586011 0.10400591111568119 0 -0.037789379024866621 0.091113325023970515 0 -0.039814960096797157 0.09964850320191708 0 -0.056571228895482079 0.098161258750672289 0 -0.039814960096797157 0.09964850320191708 0 -0.043234659717962143 0.10622365241741839 0 -0.056571228895482079 0.098161258750672289 0 -0.03075078846554943 0.099262967092623583 0 -0.035881109011586011 0.10400591111568119 0 -0.039814960096797157 0.09964850320191708 0 -0.03075078846554943 0.099262967092623583 0 -0.037789379024866621 0.091113325023970515 0 -0.039814960096797157 0.09964850320191708 0 -0.035881109011586011 0.10400591111568119 0 -0.039814960096797157 0.09964850320191708 0 -0.043234659717962143 0.10622365241741839 0 -0.043234659717962143 0.10622365241741839 0 -0.056571228895482079 0.098161258750672289 0 -0.055672276270778899 0.11326665434292781 0 -0.037789379024866621 0.091113325023970515 0 -0.056571228895482079 0.098161258750672289 0 -0.056123539016281837 0.09155416777655348 0 -0.056571228895482079 0.098161258750672289 0 -0.06771836717753614 0.094087226808256416 0 -0.056123539016281837 0.09155416777655348 0 -0.056571228895482079 0.098161258750672289 0 -0.058567666042563638 0.12762505158456211 0 -0.056571228895482079 0.098161258750672289 0 -0.035132610708736432 0.1280519211907318 0 -0.058567666042563638 0.12762505158456211 0 -0.055672276270778899 0.11326665434292781 0 -0.058567666042563638 0.12762505158456211 0 -0.056571228895482079 0.098161258750672289 0 -0.070167283480495571 0.11650045856880981 0 -0.058567666042563638 0.12762505158456211 0 -0.056571228895482079 0.098161258750672289 0 -0.055672276270778899 0.11326665434292781 0 -0.070167283480495571 0.11650045856880981 0 -0.090295728195179392 0.11081645712932051 0 -0.073433478545330111 0.1044888579399981 0 -0.080214435715148857 0.12723075560730329 0 -0.058567666042563638 0.12762505158456211 0 -0.070167283480495571 0.11650045856880981 0 -0.080214435715148857 0.12723075560730329 0 -0.090489411448067963 0.12704359689220629 0 -0.090295728195179392 0.11081645712932051 0 -0.080214435715148857 0.12723075560730329 0 -0.070167283480495571 0.11650045856880981 0 -0.090295728195179392 0.11081645712932051 0 -0.080214435715148857 0.12723075560730329 0 -0.090295728195179392 0.11081645712932051 0 -0.090295728195179392 0.11081645712932051 0 -0.083751882812288458 0.094070818206339307 0 -0.073433478545330111 0.1044888579399981 0 -0.090295728195179392 0.11081645712932051 0 -0.083751882812288458 0.094070818206339307 0 -0.10061877063977839 0.094008542844291915 0 -0.090295728195179392 0.11081645712932051 0 -0.073433478545330111 0.1044888579399981 0 -0.056571228895482079 0.098161258750672289 0 -0.073433478545330111 0.1044888579399981 0 -0.06771836717753614 0.094087226808256416 0 -0.056571228895482079 0.098161258750672289 0 -0.073433478545330111 0.1044888579399981 0 -0.056571228895482079 0.098161258750672289 0 -0.070167283480495571 0.11650045856880981 0 -0.073433478545330111 0.1044888579399981 0 -0.083751882812288458 0.094070818206339307 0 -0.073433478545330111 0.1044888579399981 0 -0.06771836717753614 0.094087226808256416 0 -0.083751882812288458 0.094070818206339307 0 -0.06771836717753614 0.094087226808256416 0 -0.076875538792452139 0.081832577882896981 0 -0.06771836717753614 0.094087226808256416 0 -0.063760750341387382 0.085488070111810754 0 -0.076875538792452139 0.081832577882896981 0 -0.056123539016281837 0.09155416777655348 0 -0.06771836717753614 0.094087226808256416 0 -0.063760750341387382 0.085488070111810754 0 -0.063760750341387382 0.085488070111810754 0 -0.076875538792452139 0.081832577882896981 0 -0.063778282787889023 0.076298565349425557 0 -0.076875538792452139 0.081832577882896981 0 -0.084833319951556921 0.066961207541715986 0 -0.071328922775511019 0.059597698626844609 0 -0.076875538792452139 0.081832577882896981 0 -0.063778282787889023 0.076298565349425557 0 -0.071328922775511019 0.059597698626844609 0 -0.053881406184709518 0.071092711316421781 0 -0.063778282787889023 0.076298565349425557 0 -0.071328922775511019 0.059597698626844609 0 -0.076875538792452139 0.081832577882896981 0 -0.084833319951556921 0.066961207541715986 0 -0.093569413523454825 0.079191246633271511 0 -0.084833319951556921 0.066961207541715986 0 -0.093569413523454825 0.079191246633271511 0 -0.1010189913322503 0.06151696980601376 0 -0.083751882812288458 0.094070818206339307 0 -0.093569413523454825 0.079191246633271511 0 -0.10061877063977839 0.094008542844291915 0 -0.083751882812288458 0.094070818206339307 0 -0.076875538792452139 0.081832577882896981 0 -0.093569413523454825 0.079191246633271511 0 -0.11094181308438 0.077200628559264933 0 -0.112378029267481 0.088820619954392679 0 -0.10061877063977839 0.094008542844291915 0 -0.093569413523454825 0.079191246633271511 0 -0.11094181308438 0.077200628559264933 0 -0.10061877063977839 0.094008542844291915 0 -0.11094181308438 0.077200628559264933 0 -0.10061877063977839 0.094008542844291915 0 -0.093569413523454825 0.079191246633271511 0 -0.11094181308438 0.077200628559264933 0 -0.1010189913322503 0.06151696980601376 0 -0.11094181308438 0.077200628559264933 0 -0.1213741601086947 0.082549222047729312 0 -0.1010189913322503 0.06151696980601376 0 -0.12045977336379469 0.063302700443571031 0 -0.1213741601086947 0.082549222047729312 0 -0.1010189913322503 0.06151696980601376 0 -0.13050547102356161 0.073507565727731899 0 -0.12045977336379469 0.063302700443571031 0 -0.1213741601086947 0.082549222047729312 0 -0.1213741601086947 0.082549222047729312 0 -0.1010189913322503 0.06151696980601376 0 -0.112378029267481 0.088820619954392679 0 -0.1213741601086947 0.082549222047729312 0 -0.1180803208823529 0.10110932699178039 0 -0.11094181308438 0.077200628559264933 0 -0.112378029267481 0.088820619954392679 0 -0.1213741601086947 0.082549222047729312 0 -0.1180803208823529 0.10110932699178039 0 -0.1115437871102391 0.1187898416514048 0 -0.10061877063977839 0.094008542844291915 0 -0.112378029267481 0.088820619954392679 0 -0.1180803208823529 0.10110932699178039 0 -0.10061877063977839 0.094008542844291915 0 -0.13279184602529889 0.12676322617348859 0 -0.1180803208823529 0.10110932699178039 0 -0.1115437871102391 0.1187898416514048 0 -0.13279184602529889 0.12676322617348859 0 -0.1115437871102391 0.1187898416514048 0 -0.090295728195179392 0.11081645712932051 0 -0.1115437871102391 0.1187898416514048 0 -0.1023088465637346 0.12791043533215449 0 -0.090295728195179392 0.11081645712932051 0 -0.1115437871102391 0.1187898416514048 0 -0.1023088465637346 0.12791043533215449 0 -0.090489411448067963 0.12704359689220629 0 -0.090295728195179392 0.11081645712932051 0 -0.090295728195179392 0.11081645712932051 0 -0.10061877063977839 0.094008542844291915 0 -0.090295728195179392 0.11081645712932051 0 -0.1115437871102391 0.1187898416514048 0 -0.10061877063977839 0.094008542844291915 0 -0.10395887662022189 0.029681927278880881 0 -0.10216785683878001 0.0048525866166629558 0 -0.089996851261149702 0.020735761335734439 0 -0.10395887662022189 0.029681927278880881 0 -0.091302508634044599 0.037824024919591172 0 -0.089996851261149702 0.020735761335734439 0 -0.12787206249873251 -0.0031963116537159961 0 -0.10216785683878001 0.0048525866166629558 0 -0.1232401834619155 0.023045930198183621 0 -0.10216785683878001 0.0048525866166629558 0 -0.1232401834619155 0.023045930198183621 0 -0.10395887662022189 0.029681927278880881 0 -0.10216785683878001 0.0048525866166629558 0 -0.1232401834619155 0.023045930198183621 0 -0.12843145491598579 0.047453341903202537 0 -0.1232401834619155 0.023045930198183621 0 -0.1128885927323366 0.044871732470588468 0 -0.10395887662022189 0.029681927278880881 0 -0.1232401834619155 0.023045930198183621 0 -0.1128885927323366 0.044871732470588468 0 -0.12045977336379469 0.063302700443571031 0 -0.1128885927323366 0.044871732470588468 0 -0.1010189913322503 0.06151696980601376 0 -0.12843145491598579 0.047453341903202537 0 -0.12045977336379469 0.063302700443571031 0 -0.1128885927323366 0.044871732470588468 0 -0.1128885927323366 0.044871732470588468 0 -0.1010189913322503 0.06151696980601376 0 -0.099157763183430475 0.045352615124993167 0 -0.10395887662022189 0.029681927278880881 0 -0.1128885927323366 0.044871732470588468 0 -0.099157763183430475 0.045352615124993167 0 -0.10395887662022189 0.029681927278880881 0 -0.099157763183430475 0.045352615124993167 0 -0.091302508634044599 0.037824024919591172 0 -0.091302508634044599 0.037824024919591172 0 -0.08052965001613159 0.039723932070200203 0 -0.074753022003465633 0.024266652380998149 0 -0.099157763183430475 0.045352615124993167 0 -0.091302508634044599 0.037824024919591172 0 -0.08052965001613159 0.039723932070200203 0 -0.091302508634044599 0.037824024919591172 0 -0.08052965001613159 0.039723932070200203 0 -0.1010189913322503 0.06151696980601376 0 -0.099157763183430475 0.045352615124993167 0 -0.08052965001613159 0.039723932070200203 0 -0.1010189913322503 0.06151696980601376 0 -0.08052965001613159 0.039723932070200203 0 -0.1010189913322503 0.06151696980601376 0 -0.08052965001613159 0.039723932070200203 0 -0.080336948074272413 0.054245595410348887 0 -0.084833319951556921 0.066961207541715986 0 -0.1010189913322503 0.06151696980601376 0 -0.080336948074272413 0.054245595410348887 0 -0.084833319951556921 0.066961207541715986 0 -0.080336948074272413 0.054245595410348887 0 -0.071328922775511019 0.059597698626844609 0 -0.080336948074272413 0.054245595410348887 0 -0.071328922775511019 0.059597698626844609 0 -0.063839683756238122 0.042667383512871963 0 -0.08052965001613159 0.039723932070200203 0 -0.063839683756238122 0.042667383512871963 0 -0.063839683756238122 0.042667383512871963 0 -0.074753022003465633 0.024266652380998149 0 -0.061114033776150892 0.02872414049568469 0 -0.08052965001613159 0.039723932070200203 0 -0.080336948074272413 0.054245595410348887 0 -0.063839683756238122 0.042667383512871963 0 -0.08052965001613159 0.039723932070200203 0 -0.063839683756238122 0.042667383512871963 0 -0.074753022003465633 0.024266652380998149 0 -0.074753022003465633 0.024266652380998149 0 -0.05511029359032639 0.01579015084005805 0 -0.061114033776150892 0.02872414049568469 0 -0.074753022003465633 0.024266652380998149 0 -0.077149446155853077 0.0072569184755020763 0 -0.05511029359032639 0.01579015084005805 0 -0.091302508634044599 0.037824024919591172 0 -0.074753022003465633 0.024266652380998149 0 -0.089996851261149702 0.020735761335734439 0 -0.074753022003465633 0.024266652380998149 0 -0.089996851261149702 0.020735761335734439 0 -0.077149446155853077 0.0072569184755020763 0 -0.10216785683878001 0.0048525866166629558 0 -0.089996851261149702 0.020735761335734439 0 -0.077149446155853077 0.0072569184755020763 0 -0.057566748591418748 -0.0078719748531606328 0 -0.077149446155853077 0.0072569184755020763 0 -0.05511029359032639 0.01579015084005805 0 -0.057566748591418748 -0.0078719748531606328 0 -0.05511029359032639 0.01579015084005805 0 -0.037944320861429709 0.00047776945039190331 0 -0.057566748591418748 -0.0078719748531606328 0 -0.05511029359032639 0.01579015084005805 0 -0.05511029359032639 0.01579015084005805 0 -0.061114033776150892 0.02872414049568469 0 -0.047276728659206492 0.031360800109292278 0 -0.05511029359032639 0.01579015084005805 0 -0.034675623720908447 0.017406099635870531 0 -0.047276728659206492 0.031360800109292278 0 -0.034675623720908447 0.017406099635870531 0 -0.047276728659206492 0.031360800109292278 0 -0.032077582771235777 0.032630339656685908 0 -0.05511029359032639 0.01579015084005805 0 -0.034675623720908447 0.017406099635870531 0 -0.037944320861429709 0.00047776945039190331 0 -0.071328922775511019 0.059597698626844609 0 -0.045992179784487948 0.059925274259072132 0 -0.071328922775511019 0.059597698626844609 0 -0.063839683756238122 0.042667383512871963 0 -0.045992179784487948 0.059925274259072132 0 -0.063839683756238122 0.042667383512871963 0 -0.036376858878431589 0.047510742106152769 0 -0.045992179784487948 0.059925274259072132 0 -0.063839683756238122 0.042667383512871963 0 -0.047276728659206492 0.031360800109292278 0 -0.036376858878431589 0.047510742106152769 0 -0.063839683756238122 0.042667383512871963 0 -0.061114033776150892 0.02872414049568469 0 -0.047276728659206492 0.031360800109292278 0 -0.063839683756238122 0.042667383512871963 0 -0.036376858878431589 0.047510742106152769 0 -0.047276728659206492 0.031360800109292278 0 -0.032077582771235777 0.032630339656685908 0 -0.036376858878431589 0.047510742106152769 0 -0.031610987861261708 0.067012067738679945 0 -0.045992179784487948 0.059925274259072132 0 -0.02065543679346496 0.060252849891301502 0 -0.036376858878431589 0.047510742106152769 0 -0.045992179784487948 0.059925274259072132 0 -0.02065543679346496 0.060252849891301502 0 -0.045992179784487948 0.059925274259072132 0 -0.02065543679346496 0.060252849891301502 0 -0.036376858878431589 0.047510742106152769 0 -0.0089140340006251574 0.052354100699434261 0 -0.036376858878431589 0.047510742106152769 0 -0.02065543679346496 0.060252849891301502 0 -0.0089140340006251574 0.052354100699434261 0 -0.02065543679346496 0.060252849891301502 0 -0.01263926175440337 0.060356490031919632 0 -0.036376858878431589 0.047510742106152769 0 -0.021010579084967101 0.039460921851699873 0 -0.0089140340006251574 0.052354100699434261 0 -0.032077582771235777 0.032630339656685908 0 -0.036376858878431589 0.047510742106152769 0 -0.021010579084967101 0.039460921851699873 0 -0.032077582771235777 0.032630339656685908 0 -0.021010579084967101 0.039460921851699873 0 -0.019375632241434619 0.0266218645869023 0 -0.021010579084967101 0.039460921851699873 0 -0.01165082943358511 0.036462192965389911 0 -0.019375632241434619 0.0266218645869023 0 -0.0089140340006251574 0.052354100699434261 0 0.0026969275926862681 0.02741188472352311 0 0.00021432710999182619 0.04260488491200063 0 -0.021010579084967101 0.039460921851699873 0 -0.01165082943358511 0.036462192965389911 0 -0.0089140340006251574 0.052354100699434261 0 -0.01165082943358511 0.036462192965389911 0 -0.0089140340006251574 0.052354100699434261 0 0.0026969275926862681 0.02741188472352311 0 -0.0089140340006251574 0.052354100699434261 0 0.0026969275926862681 0.02741188472352311 0 -0.0054195724137374238 0.052970385827822507 0 -0.01263926175440337 0.060356490031919632 0 0.0031750736837875809 0.056565721673206497 0 -0.0089140340006251574 0.052354100699434261 0 -0.0054195724137374238 0.052970385827822507 0 -0.02065543679346496 0.060252849891301502 0 -0.0089140340006251574 0.052354100699434261 0 -0.01263926175440337 0.060356490031919632 0 -0.0089140340006251574 0.052354100699434261 0 -0.0054195724137374238 0.052970385827822507 0 -0.01263926175440337 0.060356490031919632 0 -0.02065543679346496 0.060252849891301502 0 -0.0089140340006251574 0.052354100699434261 0 -0.0089140340006251574 0.052354100699434261 0 -0.01263926175440337 0.060356490031919632 0 -0.01626918420181778 -0.0024443268281072392 0 -0.034675623720908447 0.017406099635870531 0 -0.037944320861429709 0.00047776945039190331 0 -0.01626918420181778 -0.0024443268281072392 0 -0.019375632241434619 0.0266218645869023 0 -0.01626918420181778 -0.0024443268281072392 0 -0.034675623720908447 0.017406099635870531 0 -0.019375632241434619 0.0266218645869023 0 -0.034675623720908447 0.017406099635870531 0 -0.032077582771235777 0.032630339656685908 0 -0.019375632241434619 0.0266218645869023 0 -0.01165082943358511 0.036462192965389911 0 -0.019375632241434619 0.0266218645869023 0 0.0026969275926862681 0.02741188472352311 0 -0.019375632241434619 0.0266218645869023 0 -0.002867750401564726 0.010213757536984929 0 0.0026969275926862681 0.02741188472352311 0 -0.01626918420181778 -0.0024443268281072392 0 -0.019375632241434619 0.0266218645869023 0 -0.002867750401564726 0.010213757536984929 0 -0.01626918420181778 -0.0024443268281072392 0 -0.002867750401564726 0.010213757536984929 0 0.0020542870866122722 -0.002457931916927811 0 0.01430788918599761 0.002469668747611693 0 0.0026969275926862681 0.02741188472352311 0 -0.002867750401564726 0.010213757536984929 0 0.01430788918599761 0.002469668747611693 0 0.0020542870866122722 -0.002457931916927811 0 -0.002867750401564726 0.010213757536984929 0 0.01430788918599761 0.002469668747611693 0 0.0026969275926862681 0.02741188472352311 0 0.01430788918599761 0.002469668747611693 0 0.0026969275926862681 0.02741188472352311 0 0.01980313381508654 0.012818962061987609 0 0.0026969275926862681 0.02741188472352311 0 0.02230212094342383 0.022074675857413909 0 0.01980313381508654 0.012818962061987609 0 0.0026969275926862681 0.02741188472352311 0 0.02230212094342383 0.022074675857413909 0 0.015163208215489421 0.03815391364290275 0 0.015163208215489421 0.03815391364290275 0 0.038415209798561931 0.023808186703662339 0 0.02230212094342383 0.022074675857413909 0 0.031274662762090469 0.0097153961523452504 0 0.038415209798561931 0.023808186703662339 0 0.02230212094342383 0.022074675857413909 0 0.015163208215489421 0.03815391364290275 0 0.038415209798561931 0.023808186703662339 0 0.02489961239455241 0.001425054730708031 0 0.01980313381508654 0.012818962061987609 0 0.031274662762090469 0.0097153961523452504 0 0.02230212094342383 0.022074675857413909 0 0.01980313381508654 0.012818962061987609 0 0.031274662762090469 0.0097153961523452504 0 0.02489961239455241 0.001425054730708031 0 0.031274662762090469 0.0097153961523452504 0 0.033373904277048422 -0.0035952080332354152 0 0.01430788918599761 0.002469668747611693 0 0.02489961239455241 0.001425054730708031 0 0.01980313381508654 0.012818962061987609 0 -0.01263926175440337 0.060356490031919632 0 0.0031750736837875809 0.056565721673206497 0 0.016682508991915271 0.060735587597604543 0 -0.01263926175440337 0.060356490031919632 0 0.016682508991915271 0.060735587597604543 0 -0.0089140340006251574 0.052354100699434261 0 -0.0054195724137374238 0.052970385827822507 0 0.015163208215489421 0.03815391364290275 0 -0.0054195724137374238 0.052970385827822507 0 0.0094185374806422442 0.049882363002409683 0 0.015163208215489421 0.03815391364290275 0 -0.01263926175440337 0.060356490031919632 0 0.016682508991915271 0.060735587597604543 0 0.0006883626110090747 0.063991539003696141 0 0.0103087337608268 0.057047705563666999 0 0.0031750736837875809 0.056565721673206497 0 0.016682508991915271 0.060735587597604543 0 0.0143821537064645 0.056369408960849882 0 0.0103087337608268 0.057047705563666999 0 0.016682508991915271 0.060735587597604543 0 0.0143821537064645 0.056369408960849882 0 0.0103087337608268 0.057047705563666999 0 0.011377329488594689 0.054133266306847033 0 0.0103087337608268 0.057047705563666999 0 0.0076309216284032259 0.054514702246186937 0 0.011377329488594689 0.054133266306847033 0 0.0031750736837875809 0.056565721673206497 0 0.0076309216284032259 0.054514702246186937 0 0.0024871118897213679 0.053769458772038613 0 0.0103087337608268 0.057047705563666999 0 0.0031750736837875809 0.056565721673206497 0 0.0076309216284032259 0.054514702246186937 0 0.0076309216284032259 0.054514702246186937 0 0.0024871118897213679 0.053769458772038613 0 0.0094185374806422442 0.049882363002409683 0 -0.0054195724137374238 0.052970385827822507 0 0.0024871118897213679 0.053769458772038613 0 0.0094185374806422442 0.049882363002409683 0 -0.0054195724137374238 0.052970385827822507 0 0.0031750736837875809 0.056565721673206497 0 0.0024871118897213679 0.053769458772038613 0 0.0076309216284032259 0.054514702246186937 0 0.0094185374806422442 0.049882363002409683 0 0.011377329488594689 0.054133266306847033 0 0.0143821537064645 0.056369408960849882 0 0.011377329488594689 0.054133266306847033 0 0.01598862360271364 0.0530593975828033 0 0.0094185374806422442 0.049882363002409683 0 0.011377329488594689 0.054133266306847033 0 0.01598862360271364 0.0530593975828033 0 0.0094185374806422442 0.049882363002409683 0 0.016522362374046921 0.04594540673616257 0 0.01598862360271364 0.0530593975828033 0 -0.0089140340006251574 0.052354100699434261 0 0.015163208215489421 0.03815391364290275 0 -0.0089140340006251574 0.052354100699434261 0 0.00021432710999182619 0.04260488491200063 0 0.015163208215489421 0.03815391364290275 0 0.0094185374806422442 0.049882363002409683 0 0.015163208215489421 0.03815391364290275 0 0.016522362374046921 0.04594540673616257 0 0.0026969275926862681 0.02741188472352311 0 0.00021432710999182619 0.04260488491200063 0 0.015163208215489421 0.03815391364290275 0 0.015163208215489421 0.03815391364290275 0 0.02921354490420551 0.041282424364473741 0 0.038415209798561931 0.023808186703662339 0 0.02921354490420551 0.041282424364473741 0 0.016522362374046921 0.04594540673616257 0 0.022477686136830381 0.050010435661114613 0 0.015163208215489421 0.03815391364290275 0 0.02921354490420551 0.041282424364473741 0 0.016522362374046921 0.04594540673616257 0 0.03097643939707179 0.057091142786065717 0 0.016682508991915271 0.060735587597604543 0 0.046004279738233927 0.061114685163288447 0 0.016522362374046921 0.04594540673616257 0 0.01598862360271364 0.0530593975828033 0 0.022477686136830381 0.050010435661114613 0 0.01598862360271364 0.0530593975828033 0 0.022477686136830381 0.050010435661114613 0 0.021841075278871112 0.055284038078556863 0 0.02921354490420551 0.041282424364473741 0 0.022477686136830381 0.050010435661114613 0 0.033880023343979167 0.049678224999118323 0 0.022477686136830381 0.050010435661114613 0 0.027229188369296411 0.053573633932837122 0 0.033880023343979167 0.049678224999118323 0 0.027229188369296411 0.053573633932837122 0 0.03097643939707179 0.057091142786065717 0 0.033880023343979167 0.049678224999118323 0 0.022477686136830381 0.050010435661114613 0 0.027229188369296411 0.053573633932837122 0 0.021841075278871112 0.055284038078556863 0 0.027229188369296411 0.053573633932837122 0 0.03097643939707179 0.057091142786065717 0 0.021841075278871112 0.055284038078556863 0 0.03097643939707179 0.057091142786065717 0 0.021841075278871112 0.055284038078556863 0 0.016682508991915271 0.060735587597604543 0 0.0143821537064645 0.056369408960849882 0 0.017223590394991131 0.056362108054953647 0 0.016682508991915271 0.060735587597604543 0 0.01598862360271364 0.0530593975828033 0 0.021841075278871112 0.055284038078556863 0 0.017223590394991131 0.056362108054953647 0 0.021841075278871112 0.055284038078556863 0 0.017223590394991131 0.056362108054953647 0 0.016682508991915271 0.060735587597604543 0 0.0143821537064645 0.056369408960849882 0 0.01598862360271364 0.0530593975828033 0 0.017223590394991131 0.056362108054953647 0 0.016682508991915271 0.060735587597604543 0 0.046004279738233927 0.061114685163288447 0 0.046004279738233927 0.061114685163288447 0 0.038968794258416463 0.054985379814936092 0 0.044702439524787987 0.051703188767874241 0 0.03097643939707179 0.057091142786065717 0 0.046004279738233927 0.061114685163288447 0 0.038968794258416463 0.054985379814936092 0 0.03097643939707179 0.057091142786065717 0 0.038968794258416463 0.054985379814936092 0 0.033880023343979167 0.049678224999118323 0 0.038968794258416463 0.054985379814936092 0 0.033880023343979167 0.049678224999118323 0 0.044702439524787987 0.051703188767874241 0 0.02921354490420551 0.041282424364473741 0 0.043629122233467939 0.038781602721788641 0 0.038415209798561931 0.023808186703662339 0 0.033880023343979167 0.049678224999118323 0 0.044702439524787987 0.051703188767874241 0 0.043629122233467939 0.038781602721788641 0 0.02921354490420551 0.041282424364473741 0 0.033880023343979167 0.049678224999118323 0 0.043629122233467939 0.038781602721788641 0 0.043629122233467939 0.038781602721788641 0 0.057157390903567751 0.040844040160452733 0 0.056501424687433778 0.026628661649946699 0 0.044702439524787987 0.051703188767874241 0 0.043629122233467939 0.038781602721788641 0 0.057157390903567751 0.040844040160452733 0 0.046004279738233927 0.061114685163288447 0 0.060014245004670418 0.056598485748422731 0 0.075326050484552681 0.061493782728971769 0 0.046004279738233927 0.061114685163288447 0 0.075326050484552681 0.061493782728971769 0 0.044702439524787987 0.051703188767874241 0 0.057157390903567751 0.040844040160452733 0 0.060014245004670418 0.056598485748422731 0 0.044702439524787987 0.051703188767874241 0 0.060014245004670418 0.056598485748422731 0 0.046004279738233927 0.061114685163288447 0 0.044702439524787987 0.051703188767874241 0 0.060014245004670418 0.056598485748422731 0 0.031274662762090469 0.0097153961523452504 0 0.038415209798561931 0.023808186703662339 0 0.048853995343869742 0.0017607055935350299 0 0.031274662762090469 0.0097153961523452504 0 0.048853995343869742 0.0017607055935350299 0 0.033373904277048422 -0.0035952080332354152 0 0.043629122233467939 0.038781602721788641 0 0.038415209798561931 0.023808186703662339 0 0.056501424687433778 0.026628661649946699 0 0.038415209798561931 0.023808186703662339 0 0.056501424687433778 0.026628661649946699 0 0.061667211381634501 0.0094624597644218846 0 0.038415209798561931 0.023808186703662339 0 0.061667211381634501 0.0094624597644218846 0 0.061667211381634501 0.0094624597644218846 0 0.048853995343869742 0.0017607055935350299 0 0.066681340165404196 -0.0086072927627725351 0 0.038415209798561931 0.023808186703662339 0 0.061667211381634501 0.0094624597644218846 0 0.048853995343869742 0.0017607055935350299 0 0.061667211381634501 0.0094624597644218846 0 0.084919212964707058 -0.0048832671748185591 0 0.061667211381634501 0.0094624597644218846 0 0.082764540065135464 0.0133176040010196 0 0.084919212964707058 -0.0048832671748185591 0 0.082764540065135464 0.0133176040010196 0 0.098844404307482883 0.0099372200349232241 0 0.084919212964707058 -0.0048832671748185591 0 0.082764540065135464 0.0133176040010196 0 0.073993204118280018 0.027972080618738449 0 0.094398667553572846 0.024099526761832999 0 0.082764540065135464 0.0133176040010196 0 0.098844404307482883 0.0099372200349232241 0 0.094398667553572846 0.024099526761832999 0 0.056501424687433778 0.026628661649946699 0 0.061667211381634501 0.0094624597644218846 0 0.073993204118280018 0.027972080618738449 0 0.061667211381634501 0.0094624597644218846 0 0.082764540065135464 0.0133176040010196 0 0.073993204118280018 0.027972080618738449 0 0.057157390903567751 0.040844040160452733 0 0.056501424687433778 0.026628661649946699 0 0.073993204118280018 0.027972080618738449 0 0.057157390903567751 0.040844040160452733 0 0.073993204118280018 0.027972080618738449 0 0.07181838145242983 0.046006990476640107 0 0.057157390903567751 0.040844040160452733 0 0.060014245004670418 0.056598485748422731 0 0.07181838145242983 0.046006990476640107 0 0.060014245004670418 0.056598485748422731 0 0.075326050484552681 0.061493782728971769 0 0.060014245004670418 0.056598485748422731 0 0.07181838145242983 0.046006990476640107 0 0.075326050484552681 0.061493782728971769 0 0.07181838145242983 0.046006990476640107 0 0.075326050484552681 0.061493782728971769 0 0.080670855964157032 0.053166456817568472 0 0.075326050484552681 0.061493782728971769 0 0.080726926640824662 0.061563609992172703 0 0.07181838145242983 0.046006990476640107 0 0.080670855964157032 0.053166456817568472 0 0.091375922810811791 0.043375307902098537 0 0.080726926640824662 0.061563609992172703 0 0.090407510619417 0.055570241636125783 0 0.097535692645078345 0.068594368897619301 0 0.080726926640824662 0.061563609992172703 0 0.080670855964157032 0.053166456817568472 0 0.090407510619417 0.055570241636125783 0 0.075326050484552681 0.061493782728971769 0 0.080726926640824662 0.061563609992172703 0 0.080670855964157032 0.053166456817568472 0 0.080670855964157032 0.053166456817568472 0 0.090407510619417 0.055570241636125783 0 0.091375922810811791 0.043375307902098537 0 0.073993204118280018 0.027972080618738449 0 0.091375922810811791 0.043375307902098537 0 0.094398667553572846 0.024099526761832999 0 0.07181838145242983 0.046006990476640107 0 0.091375922810811791 0.043375307902098537 0 0.073993204118280018 0.027972080618738449 0 0.07181838145242983 0.046006990476640107 0 0.091375922810811791 0.043375307902098537 0 0.091375922810811791 0.043375307902098537 0 0.1109334641691935 0.040743625327555169 0 0.094398667553572846 0.024099526761832999 0 0.091375922810811791 0.043375307902098537 0 0.1109334641691935 0.040743625327555169 0 0.1109334641691935 0.040743625327555169 0 0.094398667553572846 0.024099526761832999 0 0.091375922810811791 0.043375307902098537 0 0.10139660125581069 0.051764840253997087 0 0.1109334641691935 0.040743625327555169 0 0.090407510619417 0.055570241636125783 0 0.10139660125581069 0.051764840253997087 0 0.097535692645078345 0.068594368897619301 0 0.10139660125581069 0.051764840253997087 0 0.1120196999225935 0.059255499208194631 0 0.1109334641691935 0.040743625327555169 0 0.10139660125581069 0.051764840253997087 0 0.1120196999225935 0.059255499208194631 0 0.097535692645078345 0.068594368897619301 0 0.090407510619417 0.055570241636125783 0 0.091375922810811791 0.043375307902098537 0 0.10139660125581069 0.051764840253997087 0 0.1109334641691935 0.040743625327555169 0 0.13015585295687879 0.060093082178361373 0 0.1120196999225935 0.059255499208194631 0 0.1109334641691935 0.040743625327555169 0 0.13015585295687879 0.060093082178361373 0 0.1109334641691935 0.040743625327555169 0 0.13115230097712521 0.048321390725121649 0 0.13015585295687879 0.060093082178361373 0 0.1109334641691935 0.040743625327555169 0 0.1246911642888517 0.030588679905005661 0 0.11870493309546321 0.023465044623483849 0 0.1109334641691935 0.040743625327555169 0 0.13089627769248219 0.038057408920015287 0 0.13115230097712521 0.048321390725121649 0 0.1109334641691935 0.040743625327555169 0 0.13089627769248219 0.038057408920015287 0 0.1109334641691935 0.040743625327555169 0 0.1246911642888517 0.030588679905005661 0 0.13089627769248219 0.038057408920015287 0 0.1109334641691935 0.040743625327555169 0 0.11870493309546321 0.023465044623483849 0 0.10753554564840739 0.021560737699259269 0 0.1246911642888517 0.030588679905005661 0 0.11870493309546321 0.023465044623483849 0 0.12927460035918831 0.02094691615923621 0 0.11870493309546321 0.023465044623483849 0 0.11595629957018259 0.010605459873976609 0 0.10753554564840739 0.021560737699259269 0 0.11870493309546321 0.023465044623483849 0 0.123838524536956 0.016344848775870151 0 0.11595629957018259 0.010605459873976609 0 0.11870493309546321 0.023465044623483849 0 0.123838524536956 0.016344848775870151 0 0.12927460035918831 0.02094691615923621 0 0.11595629957018259 0.010605459873976609 0 0.1229139003049859 -0.0047206540506318957 0 0.10695025709943851 -0.005097154849052799 0 0.123838524536956 0.016344848775870151 0 0.11595629957018259 0.010605459873976609 0 0.13029881915510391 0.0097775885375725874 0 0.11595629957018259 0.010605459873976609 0 0.13029881915510391 0.0097775885375725874 0 0.1229139003049859 -0.0047206540506318957 0 0.11595629957018259 0.010605459873976609 0 0.098844404307482883 0.0099372200349232241 0 0.10753554564840739 0.021560737699259269 0 0.11595629957018259 0.010605459873976609 0 0.098844404307482883 0.0099372200349232241 0 0.10695025709943851 -0.005097154849052799 0 0.098844404307482883 0.0099372200349232241 0 0.094398667553572846 0.024099526761832999 0 0.10753554564840739 0.021560737699259269 0 0.1109334641691935 0.040743625327555169 0 0.094398667553572846 0.024099526761832999 0 0.10753554564840739 0.021560737699259269 0 0.10058175499049681 0.099337940779930647 0 0.09940249052805275 0.11203926609639681 0 0.1154306430338268 0.10537377445345859 0 0.10058175499049681 0.099337940779930647 0 0.1154306430338268 0.10537377445345859 0 0.1076786809518291 0.08816627691182137 0 0.10058175499049681 0.099337940779930647 0 0.092504914437511979 0.086239797873832 0 0.089041368402531754 0.098984595868277486 0 0.10058175499049681 0.099337940779930647 0 0.09940249052805275 0.11203926609639681 0 0.089041368402531754 0.098984595868277486 0 0.09940249052805275 0.11203926609639681 0 0.090017338394525775 0.12109301885651889 0 0.1004598089468441 0.12856388265809721 0 0.09940249052805275 0.11203926609639681 0 0.11046001507298921 0.1202303391194051 0 0.1154306430338268 0.10537377445345859 0 0.09940249052805275 0.11203926609639681 0 0.11046001507298921 0.1202303391194051 0 0.1004598089468441 0.12856388265809721 0 0.11046001507298921 0.1202303391194051 0 0.12400789559134399 0.1189051747164452 0 0.1154306430338268 0.10537377445345859 0 0.12400789559134399 0.1189051747164452 0 0.1154306430338268 0.10537377445345859 0 0.1282086201577767 0.10745729352807019 0 0.1154306430338268 0.10537377445345859 0 0.1076786809518291 0.08816627691182137 0 0.12659824411460241 0.09227426183717688 0 0.1154306430338268 0.10537377445345859 0 0.12659824411460241 0.09227426183717688 0 0.1282086201577767 0.10745729352807019 0 0.1197453348056038 0.075694955066267361 0 0.1076786809518291 0.08816627691182137 0 0.12659824411460241 0.09227426183717688 0 0.1120196999225935 0.059255499208194631 0 0.1197453348056038 0.075694955066267361 0 0.097535692645078345 0.068594368897619301 0 0.1120196999225935 0.059255499208194631 0 0.1197453348056038 0.075694955066267361 0 0.13015585295687879 0.060093082178361373 0 0.1197453348056038 0.075694955066267361 0 0.097535692645078345 0.068594368897619301 0 0.1197453348056038 0.075694955066267361 0 0.097535692645078345 0.068594368897619301 0 0.1076786809518291 0.08816627691182137 0 0.097535692645078345 0.068594368897619301 0 0.1076786809518291 0.08816627691182137 0 0.092504914437511979 0.086239797873832 0 0.10058175499049681 0.099337940779930647 0 0.1076786809518291 0.08816627691182137 0 0.092504914437511979 0.086239797873832 0 0.092504914437511979 0.086239797873832 0 0.082598173912327599 0.090228543802898742 0 0.089041368402531754 0.098984595868277486 0 0.092504914437511979 0.086239797873832 0 0.080743006172920045 0.080427745395527439 0 0.088316441932231426 0.076777518409092985 0 0.080743006172920045 0.080427745395527439 0 0.082598173912327599 0.090228543802898742 0 0.071913221454390067 0.083564763587309909 0 0.092504914437511979 0.086239797873832 0 0.080743006172920045 0.080427745395527439 0 0.082598173912327599 0.090228543802898742 0 0.075326050484552681 0.061493782728971769 0 0.080726926640824662 0.061563609992172703 0 0.097535692645078345 0.068594368897619301 0 0.075326050484552681 0.061493782728971769 0 0.097535692645078345 0.068594368897619301 0 0.081285645630405412 0.071319077526461577 0 0.097535692645078345 0.068594368897619301 0 0.088316441932231426 0.076777518409092985 0 0.081285645630405412 0.071319077526461577 0 0.097535692645078345 0.068594368897619301 0 0.092504914437511979 0.086239797873832 0 0.088316441932231426 0.076777518409092985 0 0.075326050484552681 0.061493782728971769 0 0.097535692645078345 0.068594368897619301 0 0.080743006172920045 0.080427745395527439 0 0.088316441932231426 0.076777518409092985 0 0.081285645630405412 0.071319077526461577 0 0.075326050484552681 0.061493782728971769 0 0.073424547919452202 0.067835534758308558 0 0.065236146021109762 0.066431719226113004 0 0.075326050484552681 0.061493782728971769 0 0.081285645630405412 0.071319077526461577 0 0.073424547919452202 0.067835534758308558 0 0.081285645630405412 0.071319077526461577 0 0.073424547919452202 0.067835534758308558 0 0.07123692836727584 0.073050300760299669 0 0.080743006172920045 0.080427745395527439 0 0.081285645630405412 0.071319077526461577 0 0.07123692836727584 0.073050300760299669 0 0.07123692836727584 0.073050300760299669 0 0.063661188495043305 0.076857070168898173 0 0.059805535361993553 0.06925975597507894 0 0.07123692836727584 0.073050300760299669 0 0.063661188495043305 0.076857070168898173 0 0.071913221454390067 0.083564763587309909 0 0.07123692836727584 0.073050300760299669 0 0.065236146021109762 0.066431719226113004 0 0.059805535361993553 0.06925975597507894 0 0.073424547919452202 0.067835534758308558 0 0.07123692836727584 0.073050300760299669 0 0.065236146021109762 0.066431719226113004 0 0.082598173912327599 0.090228543802898742 0 0.071913221454390067 0.083564763587309909 0 0.073497915779106499 0.096006131904715408 0 0.080743006172920045 0.080427745395527439 0 0.07123692836727584 0.073050300760299669 0 0.071913221454390067 0.083564763587309909 0 0.063661188495043305 0.076857070168898173 0 0.071913221454390067 0.083564763587309909 0 0.059408769785234197 0.084929192492015235 0 0.073497915779106499 0.096006131904715408 0 0.060215062846789458 0.097880477648194908 0 0.059408769785234197 0.084929192492015235 0 0.071913221454390067 0.083564763587309909 0 0.073497915779106499 0.096006131904715408 0 0.059408769785234197 0.084929192492015235 0 0.068357270027288183 0.1083382869129354 0 0.073497915779106499 0.096006131904715408 0 0.060215062846789458 0.097880477648194908 0 0.068357270027288183 0.1083382869129354 0 0.073497915779106499 0.096006131904715408 0 0.083157669767092379 0.10931903473291719 0 0.09940249052805275 0.11203926609639681 0 0.083157669767092379 0.10931903473291719 0 0.089041368402531754 0.098984595868277486 0 0.073497915779106499 0.096006131904715408 0 0.083157669767092379 0.10931903473291719 0 0.089041368402531754 0.098984595868277486 0 0.082598173912327599 0.090228543802898742 0 0.073497915779106499 0.096006131904715408 0 0.089041368402531754 0.098984595868277486 0 0.09940249052805275 0.11203926609639681 0 0.083157669767092379 0.10931903473291719 0 0.090017338394525775 0.12109301885651889 0 0.083157669767092379 0.10931903473291719 0 0.090017338394525775 0.12109301885651889 0 0.078629635471049314 0.11945290875865899 0 0.068357270027288183 0.1083382869129354 0 0.050688930776729563 0.10996680935339059 0 0.068794341769487538 0.1333673768890109 0 0.068357270027288183 0.1083382869129354 0 0.078629635471049314 0.11945290875865899 0 0.068794341769487538 0.1333673768890109 0 0.068357270027288183 0.1083382869129354 0 0.083157669767092379 0.10931903473291719 0 0.078629635471049314 0.11945290875865899 0 0.050688930776729563 0.10996680935339059 0 0.044731216819931717 0.12950664105883711 0 0.068794341769487538 0.1333673768890109 0 0.050688930776729563 0.10996680935339059 0 0.068794341769487538 0.1333673768890109 0 0.068357270027288183 0.1083382869129354 0 0.050688930776729563 0.10996680935339059 0 0.060215062846789458 0.097880477648194908 0 0.050688930776729563 0.10996680935339059 0 0.060215062846789458 0.097880477648194908 0 0.049892542398490829 0.091743794249520866 0 0.050688930776729563 0.10996680935339059 0 0.049892542398490829 0.091743794249520866 0 0.032583519783971553 0.086566241817770201 0 0.050688930776729563 0.10996680935339059 0 0.032583519783971553 0.086566241817770201 0 0.050688930776729563 0.10996680935339059 0 0.032583519783971553 0.086566241817770201 0 0.029619736044647332 0.1054497215622302 0 0.050688930776729563 0.10996680935339059 0 0.038197349683182058 0.1168362862421389 0 0.029619736044647332 0.1054497215622302 0 0.050688930776729563 0.10996680935339059 0 0.038197349683182058 0.1168362862421389 0 0.044731216819931717 0.12950664105883711 0 0.046004279738233927 0.061114685163288447 0 0.075326050484552681 0.061493782728971769 0 0.065236146021109762 0.066431719226113004 0 0.046004279738233927 0.061114685163288447 0 0.065236146021109762 0.066431719226113004 0 0.059805535361993553 0.06925975597507894 0 0.046004279738233927 0.061114685163288447 0 0.059805535361993553 0.06925975597507894 0 0.050180023362719033 0.070902096025884001 0 0.059805535361993553 0.06925975597507894 0 0.056064565459536461 0.074970940167449929 0 0.050180023362719033 0.070902096025884001 0 0.063661188495043305 0.076857070168898173 0 0.059805535361993553 0.06925975597507894 0 0.056064565459536461 0.074970940167449929 0 0.056064565459536461 0.074970940167449929 0 0.050180023362719033 0.070902096025884001 0 0.047907481250923839 0.079094272915554278 0 0.047907481250923839 0.079094272915554278 0 0.059408769785234197 0.084929192492015235 0 0.049892542398490829 0.091743794249520866 0 0.056064565459536461 0.074970940167449929 0 0.047907481250923839 0.079094272915554278 0 0.059408769785234197 0.084929192492015235 0 0.063661188495043305 0.076857070168898173 0 0.056064565459536461 0.074970940167449929 0 0.059408769785234197 0.084929192492015235 0 0.060215062846789458 0.097880477648194908 0 0.059408769785234197 0.084929192492015235 0 0.049892542398490829 0.091743794249520866 0 0.047907481250923839 0.079094272915554278 0 0.032583519783971553 0.086566241817770201 0 0.041163312080485598 0.070506333139198504 0 0.047907481250923839 0.079094272915554278 0 0.049892542398490829 0.091743794249520866 0 0.032583519783971553 0.086566241817770201 0 0.032583519783971553 0.086566241817770201 0 0.041163312080485598 0.070506333139198504 0 0.03012652724277334 0.068176985909949944 0 0.046004279738233927 0.061114685163288447 0 0.041163312080485598 0.070506333139198504 0 0.03012652724277334 0.068176985909949944 0 0.050180023362719033 0.070902096025884001 0 0.047907481250923839 0.079094272915554278 0 0.041163312080485598 0.070506333139198504 0 0.046004279738233927 0.061114685163288447 0 0.050180023362719033 0.070902096025884001 0 0.041163312080485598 0.070506333139198504 0 0.016682508991915271 0.060735587597604543 0 0.03012652724277334 0.068176985909949944 0 0.0144781087912136 0.06316567428214992 0 0.032583519783971553 0.086566241817770201 0 0.0144781087912136 0.06316567428214992 0 0.032583519783971553 0.086566241817770201 0 0.03012652724277334 0.068176985909949944 0 0.0144781087912136 0.06316567428214992 0 0.032583519783971553 0.086566241817770201 0 0.016390525773347119 0.080390518852192588 0 0.0144781087912136 0.06316567428214992 0 0.016682508991915271 0.060735587597604543 0 0.046004279738233927 0.061114685163288447 0 0.03012652724277334 0.068176985909949944 0 0.032583519783971553 0.086566241817770201 0 0.016390525773347119 0.080390518852192588 0 0.01778860844982676 0.094150482367672372 0 0.016390525773347119 0.080390518852192588 0 0.0056820048922009026 0.089621195735828191 0 0.01778860844982676 0.094150482367672372 0 -0.0007351078596584071 0.077732459062844192 0 0.0056820048922009026 0.089621195735828191 0 0.0073722667114625414 0.080318369230618442 0 0.016390525773347119 0.080390518852192588 0 0.0056820048922009026 0.089621195735828191 0 0.0073722667114625414 0.080318369230618442 0 0.016682508991915271 0.060735587597604543 0 0.0006883626110090747 0.063991539003696141 0 0.0076511646922165283 0.064712840278504324 0 0.016390525773347119 0.080390518852192588 0 0.011496887775772331 0.069211268973188855 0 0.0144781087912136 0.06316567428214992 0 0.016390525773347119 0.080390518852192588 0 0.0077727454464789486 0.073286524647561871 0 0.011496887775772331 0.069211268973188855 0 0.016390525773347119 0.080390518852192588 0 0.0073722667114625414 0.080318369230618442 0 0.0077727454464789486 0.073286524647561871 0 -0.0007351078596584071 0.077732459062844192 0 0.0073722667114625414 0.080318369230618442 0 0.0077727454464789486 0.073286524647561871 0 -0.0007351078596584071 0.077732459062844192 0 0.0077727454464789486 0.073286524647561871 0 0.0037449372657645899 0.068453086377103664 0 -0.0022538957802038652 0.069163061748034063 0 -0.0007351078596584071 0.077732459062844192 0 0.0037449372657645899 0.068453086377103664 0 0.0077727454464789486 0.073286524647561871 0 0.0037449372657645899 0.068453086377103664 0 0.0076511646922165283 0.064712840278504324 0 -0.0022538957802038652 0.069163061748034063 0 0.0037449372657645899 0.068453086377103664 0 0.0006883626110090747 0.063991539003696141 0 0.0037449372657645899 0.068453086377103664 0 0.0006883626110090747 0.063991539003696141 0 0.0076511646922165283 0.064712840278504324 0 0.0076511646922165283 0.064712840278504324 0 0.01155249220433672 0.064489217661774234 0 0.011496887775772331 0.069211268973188855 0 0.016682508991915271 0.060735587597604543 0 0.0076511646922165283 0.064712840278504324 0 0.01155249220433672 0.064489217661774234 0 0.0077727454464789486 0.073286524647561871 0 0.0076511646922165283 0.064712840278504324 0 0.011496887775772331 0.069211268973188855 0 0.016682508991915271 0.060735587597604543 0 0.01155249220433672 0.064489217661774234 0 0.0144781087912136 0.06316567428214992 0 0.01155249220433672 0.064489217661774234 0 0.011496887775772331 0.069211268973188855 0 0.0144781087912136 0.06316567428214992 0 -5.2145860693967462e-05 0.1081691216564979 0 0.029619736044647332 0.1054497215622302 0 0.018109940977042459 0.1290217344361349 0 0.038197349683182058 0.1168362862421389 0 0.029619736044647332 0.1054497215622302 0 0.018109940977042459 0.1290217344361349 0 0.032583519783971553 0.086566241817770201 0 0.029619736044647332 0.1054497215622302 0 0.01778860844982676 0.094150482367672372 0 -5.2145860693967462e-05 0.1081691216564979 0 0.029619736044647332 0.1054497215622302 0 0.01778860844982676 0.094150482367672372 0 -5.2145860693967462e-05 0.1081691216564979 0 0.0056820048922009026 0.089621195735828191 0 0.01778860844982676 0.094150482367672372 0 -5.2145860693967462e-05 0.1081691216564979 0 0.029619736044647332 0.1054497215622302 0 -0.0085113348658469937 0.12853682781343281 0 -5.2145860693967462e-05 0.1081691216564979 0 0.018109940977042459 0.1290217344361349 0 -0.0048217962445874923 0.14621403901726021 0 -0.0085113348658469937 0.12853682781343281 0 0.018109940977042459 0.1290217344361349 0 -0.0085113348658469937 0.12853682781343281 0 0.018109940977042459 0.1290217344361349 0 0.018109940977042459 0.1290217344361349 0 0.03031331349777204 0.14794424398287981 0 0.044731216819931717 0.12950664105883711 0 0.03031331349777204 0.14794424398287981 0 0.011967854029808911 0.1526588052389494 0 0.02335951942304108 0.15945011518068389 0 0.018109940977042459 0.1290217344361349 0 0.03031331349777204 0.14794424398287981 0 0.011967854029808911 0.1526588052389494 0 -0.0048217962445874923 0.14621403901726021 0 0.018109940977042459 0.1290217344361349 0 0.011967854029808911 0.1526588052389494 0 -0.001583642327711904 0.16382029868089459 0 -0.0048217962445874923 0.14621403901726021 0 0.011967854029808911 0.1526588052389494 0 -0.001583642327711904 0.16382029868089459 0 0.005511857122819471 0.178660602672958 0 0.017580094328823979 0.17029314344081781 0 -0.001583642327711904 0.16382029868089459 0 0.011967854029808911 0.1526588052389494 0 0.017580094328823979 0.17029314344081781 0 0.005511857122819471 0.178660602672958 0 0.0048510686023909609 0.19474681946249009 0 0.019201336363779541 0.18810433601927251 0 0.005511857122819471 0.178660602672958 0 0.017580094328823979 0.17029314344081781 0 0.019201336363779541 0.18810433601927251 0 -0.0081897055885035482 0.1777163722511958 0 0.005511857122819471 0.178660602672958 0 0.0048510686023909609 0.19474681946249009 0 0.017580094328823979 0.17029314344081781 0 0.033832255213193337 0.16703767925946381 0 0.033551604125168492 0.18146185257605579 0 0.017580094328823979 0.17029314344081781 0 0.033551604125168492 0.18146185257605579 0 0.019201336363779541 0.18810433601927251 0 0.033551604125168492 0.18146185257605579 0 0.019201336363779541 0.18810433601927251 0 0.02335951942304108 0.15945011518068389 0 0.017580094328823979 0.17029314344081781 0 0.033832255213193337 0.16703767925946381 0 0.03031331349777204 0.14794424398287981 0 0.02335951942304108 0.15945011518068389 0 0.033832255213193337 0.16703767925946381 0 0.011967854029808911 0.1526588052389494 0 0.02335951942304108 0.15945011518068389 0 0.017580094328823979 0.17029314344081781 0 0.033832255213193337 0.16703767925946381 0 0.033551604125168492 0.18146185257605579 0 0.060225678443707548 0.16911489850034239 0 0.033832255213193337 0.16703767925946381 0 0.033551604125168492 0.18146185257605579 0 0.051603845167873197 0.18449435228537039 0 0.069966844294785696 0.17155531773927951 0 0.033551604125168492 0.18146185257605579 0 0.060225678443707548 0.16911489850034239 0 0.033551604125168492 0.18146185257605579 0 0.051603845167873197 0.18449435228537039 0 0.060225678443707548 0.16911489850034239 0 0.051603845167873197 0.18449435228537039 0 0.060225678443707548 0.16911489850034239 0 0.069966844294785696 0.17155531773927951 0 0.060225678443707548 0.16911489850034239 0 0.050038744134511023 0.15007387072281941 0 0.068600739803836464 0.1522216835885575 0 0.033832255213193337 0.16703767925946381 0 0.060225678443707548 0.16911489850034239 0 0.050038744134511023 0.15007387072281941 0 0.050038744134511023 0.15007387072281941 0 0.068794341769487538 0.1333673768890109 0 0.068600739803836464 0.1522216835885575 0 0.050038744134511023 0.15007387072281941 0 0.044731216819931717 0.12950664105883711 0 0.068794341769487538 0.1333673768890109 0 0.038197349683182058 0.1168362862421389 0 0.018109940977042459 0.1290217344361349 0 0.044731216819931717 0.12950664105883711 0 0.018109940977042459 0.1290217344361349 0 0.044731216819931717 0.12950664105883711 0 0.03031331349777204 0.14794424398287981 0 0.033832255213193337 0.16703767925946381 0 0.050038744134511023 0.15007387072281941 0 0.03031331349777204 0.14794424398287981 0 0.050038744134511023 0.15007387072281941 0 0.044731216819931717 0.12950664105883711 0 0.02359342531132327 0.2403538001167673 0 0.015155120480715699 0.2347796035317388 0 0.032449785737659907 0.23809024299780079 0 0.03240015816436026 0.2406408716934535 0 0.015589344204555589 0.25238293360822239 0 0.02359342531132327 0.2403538001167673 0 0.03240015816436026 0.2406408716934535 0 0.015589344204555589 0.25238293360822239 0 0.02359342531132327 0.2403538001167673 0 0.015155120480715699 0.2347796035317388 0 0.015589344204555589 0.25238293360822239 0 0.02359342531132327 0.2403538001167673 0 0.032449785737659907 0.23809024299780079 0 0.03240015816436026 0.2406408716934535 0 -0.0011779531814362859 0.24237928671812051 0 0.015155120480715699 0.2347796035317388 0 0.015589344204555589 0.25238293360822239 0 -0.0011779531814362859 0.24237928671812051 0 0.015155120480715699 0.2347796035317388 0 0.0059928030437408387 0.2284320084690849 0 0.015155120480715699 0.2347796035317388 0 0.0059928030437408387 0.2284320084690849 0 0.0098714647976643824 0.21798231914863281 0 -0.0041296839451902198 0.223765609316179 0 -0.0011779531814362859 0.24237928671812051 0 0.0059928030437408387 0.2284320084690849 0 -0.0041296839451902198 0.223765609316179 0 0.0059928030437408387 0.2284320084690849 0 0.0098714647976643824 0.21798231914863281 0 0.0098714647976643824 0.21798231914863281 0 0.032449785737659907 0.23809024299780079 0 0.027240552984189759 0.22398610589370821 0 0.0098714647976643824 0.21798231914863281 0 0.032449785737659907 0.23809024299780079 0 0.027240552984189759 0.22398610589370821 0 0.032845315889309681 0.2177618149146309 0 0.032449785737659907 0.23809024299780079 0 0.015155120480715699 0.2347796035317388 0 0.0098714647976643824 0.21798231914863281 0 0.032449785737659907 0.23809024299780079 0 0.027240552984189759 0.22398610589370821 0 0.016136820966872471 0.2094853163545915 0 0.032845315889309681 0.2177618149146309 0 0.016136820966872471 0.2094853163545915 0 0.033240846040960392 0.19743338683146081 0 0.016136820966872471 0.2094853163545915 0 0.033240846040960392 0.19743338683146081 0 0.032845315889309681 0.2177618149146309 0 0.027240552984189759 0.22398610589370821 0 0.016136820966872471 0.2094853163545915 0 0.0098714647976643824 0.21798231914863281 0 0.027240552984189759 0.22398610589370821 0 0.016136820966872471 0.2094853163545915 0 -0.0041296839451902198 0.223765609316179 0 0.016136820966872471 0.2094853163545915 0 -0.0041296839451902198 0.223765609316179 0 0.016136820966872471 0.2094853163545915 0 0.0098714647976643824 0.21798231914863281 0 -0.0041296839451902198 0.223765609316179 0 0.016136820966872471 0.2094853163545915 0 0.00093659522194888183 0.20943444516334939 0 0.016136820966872471 0.2094853163545915 0 0.00093659522194888183 0.20943444516334939 0 0.0048510686023909609 0.19474681946249009 0 0.016136820966872471 0.2094853163545915 0 0.0048510686023909609 0.19474681946249009 0 0.019201336363779541 0.18810433601927251 0 0.016136820966872471 0.2094853163545915 0 0.0048510686023909609 0.19474681946249009 0 0.0048510686023909609 0.19474681946249009 0 0.019201336363779541 0.18810433601927251 0 0.033551604125168492 0.18146185257605579 0 0.019201336363779541 0.18810433601927251 0 0.033240846040960392 0.19743338683146081 0 0.016136820966872471 0.2094853163545915 0 0.019201336363779541 0.18810433601927251 0 0.033240846040960392 0.19743338683146081 0 0.033551604125168492 0.18146185257605579 0 0.033240846040960392 0.19743338683146081 0 0.051603845167873197 0.18449435228537039 0 0.033240846040960392 0.19743338683146081 0 0.052996555992744707 0.20261701323793849 0 0.051603845167873197 0.18449435228537039 0 0.033240846040960392 0.19743338683146081 0 0.033551604125168492 0.18146185257605579 0 0.051603845167873197 0.18449435228537039 0 0.033240846040960392 0.19743338683146081 0 0.051603845167873197 0.18449435228537039 0 0.052996555992744707 0.20261701323793849 0 0.070031976910915561 0.19295260771382339 0 0.052996555992744707 0.20261701323793849 0 0.0525610247561661 0.21481163886298149 0 0.07150719336549903 0.21332528603932091 0 0.052996555992744707 0.20261701323793849 0 0.0525610247561661 0.21481163886298149 0 0.042025119580983032 0.2107781220182228 0 0.0525610247561661 0.21481163886298149 0 0.054741611268138222 0.22503575428285849 0 0.07150719336549903 0.21332528603932091 0 0.033240846040960392 0.19743338683146081 0 0.052996555992744707 0.20261701323793849 0 0.042025119580983032 0.2107781220182228 0 0.033240846040960392 0.19743338683146081 0 0.042025119580983032 0.2107781220182228 0 0.032845315889309681 0.2177618149146309 0 0.0525610247561661 0.21481163886298149 0 0.042025119580983032 0.2107781220182228 0 0.041534643573465098 0.22230201873656641 0 0.033240846040960392 0.19743338683146081 0 0.032845315889309681 0.2177618149146309 0 0.042025119580983032 0.2107781220182228 0 0.032845315889309681 0.2177618149146309 0 0.041534643573465098 0.22230201873656641 0 0.054741611268138222 0.22503575428285849 0 0.073851568759987621 0.24943896511838209 0 0.056094534364332649 0.25914791181566188 0 0.054741611268138222 0.22503575428285849 0 0.034033081451861388 0.23950030310529871 0 0.056094534364332649 0.25914791181566188 0 0.041534643573465098 0.22230201873656641 0 0.032449785737659907 0.23809024299780079 0 0.034033081451861388 0.23950030310529871 0 0.032845315889309681 0.2177618149146309 0 0.041534643573465098 0.22230201873656641 0 0.032449785737659907 0.23809024299780079 0 0.032845315889309681 0.2177618149146309 0 0.032449785737659907 0.23809024299780079 0 0.054741611268138222 0.22503575428285849 0 0.034033081451861388 0.23950030310529871 0 0.041534643573465098 0.22230201873656641 0 0.054741611268138222 0.22503575428285849 0 0.034033081451861388 0.23950030310529871 0 0.041534643573465098 0.22230201873656641 0 0.054741611268138222 0.22503575428285849 0 0.0525610247561661 0.21481163886298149 0 0.041534643573465098 0.22230201873656641 0 0.054741611268138222 0.22503575428285849 0 0.034033081451861388 0.23950030310529871 0 0.056094534364332649 0.25914791181566188 0 0.034033081451861388 0.23950030310529871 0 0.03240015816436026 0.2406408716934535 0 0.031985877096328767 0.261933010516536 0 0.032449785737659907 0.23809024299780079 0 0.034033081451861388 0.23950030310529871 0 0.034033081451861388 0.23950030310529871 0 0.03240015816436026 0.2406408716934535 0 0.032449785737659907 0.23809024299780079 0 0.03240015816436026 0.2406408716934535 0 0.032449785737659907 0.23809024299780079 0 0.034033081451861388 0.23950030310529871 0 0.03240015816436026 0.2406408716934535 0 0.073851568759987621 0.24943896511838209 0 0.08079009496450712 0.2304275798293432 0 0.092497282968843395 0.25730746295092738 0 0.08079009496450712 0.2304275798293432 0 0.10683857866087559 0.23581940537583049 0 0.092497282968843395 0.25730746295092738 0 0.054741611268138222 0.22503575428285849 0 0.073851568759987621 0.24943896511838209 0 0.08079009496450712 0.2304275798293432 0 0.054741611268138222 0.22503575428285849 0 0.07150719336549903 0.21332528603932091 0 0.054741611268138222 0.22503575428285849 0 0.08079009496450712 0.2304275798293432 0 0.07150719336549903 0.21332528603932091 0 0.054741611268138222 0.22503575428285849 0 0.08079009496450712 0.2304275798293432 0 0.08079009496450712 0.2304275798293432 0 0.07150719336549903 0.21332528603932091 0 0.096700229547404967 0.2191814373187965 0 0.07150719336549903 0.21332528603932091 0 0.088272775462859485 0.20161481779578261 0 0.07150719336549903 0.21332528603932091 0 0.088272775462859485 0.20161481779578261 0 0.096700229547404967 0.2191814373187965 0 0.052996555992744707 0.20261701323793849 0 0.07150719336549903 0.21332528603932091 0 0.070031976910915561 0.19295260771382339 0 0.07150719336549903 0.21332528603932091 0 0.070031976910915561 0.19295260771382339 0 0.088272775462859485 0.20161481779578261 0 0.088272775462859485 0.20161481779578261 0 0.1050383575602199 0.18990434955224439 0 0.085844647181731265 0.18410885918524869 0 0.070031976910915561 0.19295260771382339 0 0.088272775462859485 0.20161481779578261 0 0.085844647181731265 0.18410885918524869 0 0.088272775462859485 0.20161481779578261 0 0.1050383575602199 0.18990434955224439 0 0.1063998760306801 0.20485357695035569 0 0.088272775462859485 0.20161481779578261 0 0.1050383575602199 0.18990434955224439 0 0.11966826997471269 0.19120295456826961 0 0.1202606603845595 0.21570863776811799 0 0.13368274210823961 0.195597870160403 0 0.1050383575602199 0.18990434955224439 0 0.11966826997471269 0.19120295456826961 0 0.1063998760306801 0.20485357695035569 0 0.11966826997471269 0.19120295456826961 0 0.1202606603845595 0.21570863776811799 0 0.1063998760306801 0.20485357695035569 0 0.1202606603845595 0.21570863776811799 0 0.1063998760306801 0.20485357695035569 0 0.096700229547404967 0.2191814373187965 0 0.088272775462859485 0.20161481779578261 0 0.1063998760306801 0.20485357695035569 0 0.096700229547404967 0.2191814373187965 0 0.08079009496450712 0.2304275798293432 0 0.096700229547404967 0.2191814373187965 0 0.10683857866087559 0.23581940537583049 0 0.1202606603845595 0.21570863776811799 0 0.096700229547404967 0.2191814373187965 0 0.10683857866087559 0.23581940537583049 0 0.08079009496450712 0.2304275798293432 0 0.10683857866087559 0.23581940537583049 0 0.1202606603845595 0.21570863776811799 0 0.10683857866087559 0.23581940537583049 0 0.13482805977205289 0.24161300169595401 0 0.1202606603845595 0.21570863776811799 0 0.10683857866087559 0.23581940537583049 0 0.10683857866087559 0.23581940537583049 0 0.13482805977205289 0.24161300169595401 0 0.10683857866087559 0.23581940537583049 0 0.13482805977205289 0.24161300169595401 0 0.11670344870344949 0.25749599771246001 0 0.10683857866087559 0.23581940537583049 0 0.092497282968843395 0.25730746295092738 0 0.089427586204880005 0.14505063548347169 0 0.068794341769487538 0.1333673768890109 0 0.086899752762247109 0.15676794442462999 0 0.088329843421699528 0.15861628319319029 0 0.098714014812668102 0.1512993328719652 0 0.089427586204880005 0.14505063548347169 0 0.086899752762247109 0.15676794442462999 0 0.098714014812668102 0.1512993328719652 0 0.086899752762247109 0.15676794442462999 0 0.098714014812668102 0.1512993328719652 0 0.086899752762247109 0.15676794442462999 0 0.088329843421699528 0.15861628319319029 0 0.098714014812668102 0.1512993328719652 0 0.090017338394525775 0.12109301885651889 0 0.078629635471049314 0.11945290875865899 0 0.085218545033829265 0.1355007855541461 0 0.089427586204880005 0.14505063548347169 0 0.085218545033829265 0.1355007855541461 0 0.068794341769487538 0.1333673768890109 0 0.090017338394525775 0.12109301885651889 0 0.085218545033829265 0.1355007855541461 0 0.1004598089468441 0.12856388265809721 0 0.078629635471049314 0.11945290875865899 0 0.085218545033829265 0.1355007855541461 0 0.068794341769487538 0.1333673768890109 0 0.068794341769487538 0.1333673768890109 0 0.086899752762247109 0.15676794442462999 0 0.068794341769487538 0.1333673768890109 0 0.068600739803836464 0.1522216835885575 0 0.086899752762247109 0.15676794442462999 0 0.060225678443707548 0.16911489850034239 0 0.069966844294785696 0.17155531773927951 0 0.086899752762247109 0.15676794442462999 0 0.060225678443707548 0.16911489850034239 0 0.086899752762247109 0.15676794442462999 0 0.060225678443707548 0.16911489850034239 0 0.068600739803836464 0.1522216835885575 0 0.086899752762247109 0.15676794442462999 0 0.051603845167873197 0.18449435228537039 0 0.070031976910915561 0.19295260771382339 0 0.069966844294785696 0.17155531773927951 0 0.070031976910915561 0.19295260771382339 0 0.069966844294785696 0.17155531773927951 0 0.085844647181731265 0.18410885918524869 0 0.069966844294785696 0.17155531773927951 0 0.085844647181731265 0.18410885918524869 0 0.083801618720411544 0.17150889641173919 0 0.085844647181731265 0.18410885918524869 0 0.083801618720411544 0.17150889641173919 0 0.098075091631365796 0.17622754275734381 0 0.069966844294785696 0.17155531773927951 0 0.088329843421699528 0.15861628319319029 0 0.069966844294785696 0.17155531773927951 0 0.083801618720411544 0.17150889641173919 0 0.088329843421699528 0.15861628319319029 0 0.069966844294785696 0.17155531773927951 0 0.086899752762247109 0.15676794442462999 0 0.088329843421699528 0.15861628319319029 0 0.083801618720411544 0.17150889641173919 0 0.093729721459767865 0.16559542389121021 0 0.088329843421699528 0.15861628319319029 0 0.083801618720411544 0.17150889641173919 0 0.093729721459767865 0.16559542389121021 0 0.098075091631365796 0.17622754275734381 0 0.093729721459767865 0.16559542389121021 0 0.088329843421699528 0.15861628319319029 0 0.086899752762247109 0.15676794442462999 0 0.088329843421699528 0.15861628319319029 0 0.088329843421699528 0.15861628319319029 0 0.099667012003294614 0.15964851844521361 0 0.098714014812668102 0.1512993328719652 0 0.093729721459767865 0.16559542389121021 0 0.088329843421699528 0.15861628319319029 0 0.099667012003294614 0.15964851844521361 0 0.093729721459767865 0.16559542389121021 0 0.099667012003294614 0.15964851844521361 0 0.10122544354253139 0.166474071703166 0 0.093729721459767865 0.16559542389121021 0 0.10122544354253139 0.166474071703166 0 0.098075091631365796 0.17622754275734381 0 0.10122544354253139 0.166474071703166 0 0.1090190831160552 0.16914963854711379 0 0.1056363095021737 0.16174923487494849 0 0.10122544354253139 0.166474071703166 0 0.1090190831160552 0.16914963854711379 0 0.098075091631365796 0.17622754275734381 0 0.1056363095021737 0.16174923487494849 0 0.1126110649263265 0.15904984425020541 0 0.1056448895268292 0.15374241281667139 0 0.1090190831160552 0.16914963854711379 0 0.1056363095021737 0.16174923487494849 0 0.1126110649263265 0.15904984425020541 0 0.099667012003294614 0.15964851844521361 0 0.1056363095021737 0.16174923487494849 0 0.1056448895268292 0.15374241281667139 0 0.099667012003294614 0.15964851844521361 0 0.10122544354253139 0.166474071703166 0 0.1056363095021737 0.16174923487494849 0 0.1050383575602199 0.18990434955224439 0 0.085844647181731265 0.18410885918524869 0 0.098075091631365796 0.17622754275734381 0 0.1050383575602199 0.18990434955224439 0 0.1090190831160552 0.16914963854711379 0 0.098075091631365796 0.17622754275734381 0 0.1050383575602199 0.18990434955224439 0 0.11966826997471269 0.19120295456826961 0 0.1224258841075417 0.1748189792736434 0 0.1050383575602199 0.18990434955224439 0 0.1090190831160552 0.16914963854711379 0 0.1224258841075417 0.1748189792736434 0 0.1126110649263265 0.15904984425020541 0 0.1205044113868658 0.16162123440212081 0 0.1181184885724719 0.1541793280909852 0 0.1090190831160552 0.16914963854711379 0 0.1126110649263265 0.15904984425020541 0 0.1205044113868658 0.16162123440212081 0 0.1090190831160552 0.16914963854711379 0 0.1224258841075417 0.1748189792736434 0 0.1205044113868658 0.16162123440212081 0 0.1224258841075417 0.1748189792736434 0 0.1205044113868658 0.16162123440212081 0 0.12962412347678989 0.16214456127926111 0 0.1205044113868658 0.16162123440212081 0 0.1181184885724719 0.1541793280909852 0 0.1266752032487348 0.15401379757606071 0 0.1208118898916881 0.14107061994595399 0 0.098714014812668102 0.1512993328719652 0 0.12450963526417019 0.1433429541635903 0 0.1208118898916881 0.14107061994595399 0 0.1056448895268292 0.15374241281667139 0 0.12450963526417019 0.1433429541635903 0 0.1056448895268292 0.15374241281667139 0 0.1181184885724719 0.1541793280909852 0 0.12450963526417019 0.1433429541635903 0 0.1056448895268292 0.15374241281667139 0 0.1208118898916881 0.14107061994595399 0 0.11302439070407851 0.14121587936054289 0 0.098714014812668102 0.1512993328719652 0 0.1181184885724719 0.1541793280909852 0 0.12450963526417019 0.1433429541635903 0 0.1266752032487348 0.15401379757606071 0 0.12450963526417019 0.1433429541635903 0 0.1208118898916881 0.14107061994595399 0 0.1126110649263265 0.15904984425020541 0 0.1181184885724719 0.1541793280909852 0 0.1056448895268292 0.15374241281667139 0 0.089427586204880005 0.14505063548347169 0 0.098714014812668102 0.1512993328719652 0 0.1129992372648785 0.13626959767262781 0 0.1208118898916881 0.14107061994595399 0 0.1056448895268292 0.15374241281667139 0 0.098714014812668102 0.1512993328719652 0 0.11302439070407851 0.14121587936054289 0 0.098714014812668102 0.1512993328719652 0 0.11302439070407851 0.14121587936054289 0 0.098714014812668102 0.1512993328719652 0 0.1129992372648785 0.13626959767262781 0 0.099667012003294614 0.15964851844521361 0 0.1056448895268292 0.15374241281667139 0 0.098714014812668102 0.1512993328719652 0 0.11046001507298921 0.1202303391194051 0 0.1004598089468441 0.12856388265809721 0 0.1129992372648785 0.13626959767262781 0 0.089427586204880005 0.14505063548347169 0 0.085218545033829265 0.1355007855541461 0 0.1129992372648785 0.13626959767262781 0 0.085218545033829265 0.1355007855541461 0 0.1004598089468441 0.12856388265809721 0 0.1129992372648785 0.13626959767262781 0 0.085218545033829265 0.1355007855541461 0 0.1129992372648785 0.13626959767262781 0 0.1004598089468441 0.12856388265809721 0 0.1129992372648785 0.13626959767262781 0 0.12400789559134399 0.1189051747164452 0 0.1129992372648785 0.13626959767262781 0 0.13283369905673931 0.1273485062168532 0 0.1208118898916881 0.14107061994595399 0 0.1129992372648785 0.13626959767262781 0 0.1298900439156481 0.13673703947487101 0 0.11046001507298921 0.1202303391194051 0 0.12400789559134399 0.1189051747164452 0 0.1129992372648785 0.13626959767262781 0 0.1129992372648785 0.13626959767262781 0 0.1298900439156481 0.13673703947487101 0 0.1208118898916881 0.14107061994595399 0 0.11302439070407851 0.14121587936054289 0 0.1129992372648785 0.13626959767262781 0 0.1208118898916881 0.14107061994595399 0 0.1129992372648785 0.13626959767262781 0 0.1129992372648785 0.13626959767262781 0 0.1298900439156481 0.13673703947487101 0 0.13283369905673931 0.1273485062168532 0 0.12450963526417019 0.1433429541635903 0 0.1298900439156481 0.13673703947487101 0 0.13617721950792269 0.13691103286373851 0 0.12450963526417019 0.1433429541635903 0 0.1208118898916881 0.14107061994595399 0 0.1298900439156481 0.13673703947487101 0 0.12450963526417019 0.1433429541635903 0 0.13617721950792269 0.13691103286373851 0 0.1208118898916881 0.14107061994595399 0 0.1298900439156481 0.13673703947487101 0 0.13617721950792269 0.13691103286373851 0 0.14018500410300649 0.13470168476186739 0 0.13283369905673931 0.1273485062168532 0 0.1298900439156481 0.13673703947487101 0 0.13617721950792269 0.13691103286373851 0 0.13283369905673931 0.1273485062168532 0 0.1298900439156481 0.13673703947487101 0 0.13617721950792269 0.13691103286373851 0 0.13617721950792269 0.13691103286373851 0 0.14018500410300649 0.13470168476186739 0 0.13617721950792269 0.13691103286373851 0 0.14018500410300649 0.13470168476186739 0 0.13997752237392691 0.13701620370948081 0 0.14018500410300649 0.13470168476186739 0 0.13997752237392691 0.13701620370948081 0 0.13617721950792269 0.13691103286373851 0 0.13997752237392691 0.13701620370948081 0 0.14018500410300649 0.13470168476186739 0 0.15298740166427019 0.12764418152528209 0 0.14779864664129791 0.13723264810427679 0 0.15298740166427019 0.12764418152528209 0 0.1661302586872159 0.1377399632343308 0 0.13997752237392691 0.13701620370948081 0 0.14779864664129791 0.13723264810427679 0 0.14018500410300649 0.13470168476186739 0 0.13997752237392691 0.13701620370948081 0 0.14779864664129791 0.13723264810427679 0 0.14018500410300649 0.13470168476186739 0 0.14779864664129791 0.13723264810427679 0 0.15298740166427019 0.12764418152528209 0 0.13997752237392691 0.13701620370948081 0 0.14779864664129791 0.13723264810427679 0 0.14412409859920541 0.14402296311019441 0 0.14779864664129791 0.13723264810427679 0 0.14412409859920541 0.14402296311019441 0 0.14779864664129791 0.13723264810427679 0 0.15298740166427019 0.12764418152528209 0 0.15376004581576491 0.14907478257332879 0 0.14991446824308169 0.14514278114866741 0 0.1479547846516398 0.1518364230177652 0 0.1550627646457218 0.15503291451766521 0 0.15376004581576491 0.14907478257332879 0 0.1479547846516398 0.1518364230177652 0 0.1550627646457218 0.15503291451766521 0 0.15376004581576491 0.14907478257332879 0 0.15901614729468999 0.1497512062039045 0 0.15376004581576491 0.14907478257332879 0 0.14991446824308169 0.14514278114866741 0 0.15685206424369119 0.1436105879786419 0 0.14779864664129791 0.13723264810427679 0 0.14991446824308169 0.14514278114866741 0 0.15685206424369119 0.1436105879786419 0 0.13997752237392691 0.13701620370948081 0 0.14412409859920541 0.14402296311019441 0 0.13863238090148089 0.15202164750939309 0 0.14991446824308169 0.14514278114866741 0 0.14412409859920541 0.14402296311019441 0 0.1479547846516398 0.1518364230177652 0 0.14779864664129791 0.13723264810427679 0 0.14991446824308169 0.14514278114866741 0 0.14412409859920541 0.14402296311019441 0 0.14412409859920541 0.14402296311019441 0 0.1479547846516398 0.1518364230177652 0 0.13863238090148089 0.15202164750939309 0 0.12450963526417019 0.1433429541635903 0 0.13617721950792269 0.13691103286373851 0 0.13863238090148089 0.15202164750939309 0 0.13617721950792269 0.13691103286373851 0 0.13997752237392691 0.13701620370948081 0 0.13863238090148089 0.15202164750939309 0 0.13997752237392691 0.13701620370948081 0 0.13863238090148089 0.15202164750939309 0 0.12450963526417019 0.1433429541635903 0 0.13863238090148089 0.15202164750939309 0 0.13863238090148089 0.15202164750939309 0 0.1266752032487348 0.15401379757606071 0 0.12962412347678989 0.16214456127926111 0 0.12450963526417019 0.1433429541635903 0 0.13863238090148089 0.15202164750939309 0 0.1266752032487348 0.15401379757606071 0 0.13863238090148089 0.15202164750939309 0 0.13711918250247029 0.16890181513455069 0 0.1205044113868658 0.16162123440212081 0 0.1266752032487348 0.15401379757606071 0 0.12962412347678989 0.16214456127926111 0 0.13863238090148089 0.15202164750939309 0 0.12962412347678989 0.16214456127926111 0 0.13711918250247029 0.16890181513455069 0 0.1224258841075417 0.1748189792736434 0 0.12962412347678989 0.16214456127926111 0 0.13711918250247029 0.16890181513455069 0 0.11966826997471269 0.19120295456826961 0 0.1224258841075417 0.1748189792736434 0 0.13313988913829469 0.18193816916162339 0 0.1224258841075417 0.1748189792736434 0 0.13711918250247029 0.16890181513455069 0 0.13313988913829469 0.18193816916162339 0 0.13711918250247029 0.16890181513455069 0 0.13313988913829469 0.18193816916162339 0 0.14567011589952539 0.18302138977500329 0 0.13313988913829469 0.18193816916162339 0 0.14567011589952539 0.18302138977500329 0 0.13368274210823961 0.195597870160403 0 0.13711918250247029 0.16890181513455069 0 0.14567011589952539 0.18302138977500329 0 0.14998925179124531 0.17249906226303971 0 0.14998925179124531 0.17249906226303971 0 0.15480222227074419 0.18000224296259079 0 0.15925321949761209 0.17095208969956821 0 0.14567011589952539 0.18302138977500329 0 0.14998925179124531 0.17249906226303971 0 0.15480222227074419 0.18000224296259079 0 0.14567011589952539 0.18302138977500329 0 0.15480222227074419 0.18000224296259079 0 0.15550806945981449 0.187304018575424 0 0.1479547846516398 0.1518364230177652 0 0.13863238090148089 0.15202164750939309 0 0.16063817165583999 0.16554462064035649 0 0.13863238090148089 0.15202164750939309 0 0.1484901619870336 0.16523745580008209 0 0.16063817165583999 0.16554462064035649 0 0.13863238090148089 0.15202164750939309 0 0.16063817165583999 0.16554462064035649 0 0.13863238090148089 0.15202164750939309 0 0.13711918250247029 0.16890181513455069 0 0.1484901619870336 0.16523745580008209 0 0.13711918250247029 0.16890181513455069 0 0.14998925179124531 0.17249906226303971 0 0.1484901619870336 0.16523745580008209 0 0.1484901619870336 0.16523745580008209 0 0.15459270123293281 0.16855830710076161 0 0.16063817165583999 0.16554462064035649 0 0.14998925179124531 0.17249906226303971 0 0.15459270123293281 0.16855830710076161 0 0.15925321949761209 0.17095208969956821 0 0.14998925179124531 0.17249906226303971 0 0.1484901619870336 0.16523745580008209 0 0.15459270123293281 0.16855830710076161 0 0.1550627646457218 0.15503291451766521 0 0.1479547846516398 0.1518364230177652 0 0.16063817165583999 0.16554462064035649 0 0.17118961314406261 0.17156389906560859 0 0.16476778389713601 0.1521127802910581 0 0.17139711784263831 0.14801935769285049 0 0.16137373739982669 0.15842002621196871 0 0.17118961314406261 0.17156389906560859 0 0.16476778389713601 0.1521127802910581 0 0.1550627646457218 0.15503291451766521 0 0.16063817165583999 0.16554462064035649 0 0.17118961314406261 0.17156389906560859 0 0.17139711784263831 0.14801935769285049 0 0.1550627646457218 0.15503291451766521 0 0.16137373739982669 0.15842002621196871 0 0.16063817165583999 0.16554462064035649 0 0.15459270123293281 0.16855830710076161 0 0.15925321949761209 0.17095208969956821 0 0.16063817165583999 0.16554462064035649 0 0.16137373739982669 0.15842002621196871 0 0.16063817165583999 0.16554462064035649 0 0.17118961314406261 0.17156389906560859 0 0.16063817165583999 0.16554462064035649 0 0.17118961314406261 0.17156389906560859 0 0.15925321949761209 0.17095208969956821 0 0.16281840852043211 0.18550662272345539 0 0.17547825903638031 0.1935236788680578 0 0.15925321949761209 0.17095208969956821 0 0.16805821534611079 0.17953414975420681 0 0.17547825903638031 0.1935236788680578 0 0.15925321949761209 0.17095208969956821 0 0.17547825903638031 0.1935236788680578 0 0.15480222227074419 0.18000224296259079 0 0.15550806945981449 0.187304018575424 0 0.16281840852043211 0.18550662272345539 0 0.15925321949761209 0.17095208969956821 0 0.16063817165583999 0.16554462064035649 0 0.16805821534611079 0.17953414975420681 0 0.15480222227074419 0.18000224296259079 0 0.15925321949761209 0.17095208969956821 0 0.16281840852043211 0.18550662272345539 0 0.16063817165583999 0.16554462064035649 0 0.17118961314406261 0.17156389906560859 0 0.16805821534611079 0.17953414975420681 0 0.17118961314406261 0.17156389906560859 0 0.16805821534611079 0.17953414975420681 0 0.17114272302605801 0.17688429099364389 0 0.16063817165583999 0.16554462064035649 0 0.16805821534611079 0.17953414975420681 0 0.17118961314406261 0.17156389906560859 0 0.17114272302605801 0.17688429099364389 0 0.16805821534611079 0.17953414975420681 0 0.17114272302605801 0.17688429099364389 0 0.17249261904809909 0.17991271648362739 0 0.16805821534611079 0.17953414975420681 0 0.17547825903638031 0.1935236788680578 0 0.16805821534611079 0.17953414975420681 0 0.17482496578301659 0.18429067653186421 0 0.17249261904809909 0.17991271648362739 0 0.16805821534611079 0.17953414975420681 0 0.17482496578301659 0.18429067653186421 0 0.17547825903638031 0.1935236788680578 0 0.17482496578301659 0.18429067653186421 0 0.17249261904809909 0.17991271648362739 0 0.17594457203721109 0.17894174865479481 0 0.17482496578301659 0.18429067653186421 0 0.17594457203721109 0.17894174865479481 0 0.18139172886116531 0.17898570195975849 0 0.17482496578301659 0.18429067653186421 0 0.18139172886116531 0.17898570195975849 0 0.18254936970255059 0.185173988088988 0 0.17114272302605801 0.17688429099364389 0 0.17795132186246951 0.17383670664564699 0 0.1753496411155839 0.16518003797810141 0 0.17594457203721109 0.17894174865479481 0 0.17795132186246951 0.17383670664564699 0 0.18139172886116531 0.17898570195975849 0 0.17114272302605801 0.17688429099364389 0 0.17594457203721109 0.17894174865479481 0 0.17795132186246951 0.17383670664564699 0 0.17114272302605801 0.17688429099364389 0 0.17249261904809909 0.17991271648362739 0 0.17594457203721109 0.17894174865479481 0 0.18324530209969561 0.17404889499978141 0 0.18695911352563141 0.17852560854094399 0 0.19194922181058979 0.16941408810869629 0 0.17795132186246951 0.17383670664564699 0 0.18324530209969561 0.17404889499978141 0 0.18139172886116531 0.17898570195975849 0 0.17795132186246951 0.17383670664564699 0 0.18324530209969561 0.17404889499978141 0 0.18160283221761889 0.16822061386966011 0 0.18324530209969561 0.17404889499978141 0 0.18695911352563141 0.17852560854094399 0 0.18139172886116531 0.17898570195975849 0 0.18695911352563141 0.17852560854094399 0 0.18139172886116531 0.17898570195975849 0 0.18254936970255059 0.185173988088988 0 0.18695911352563141 0.17852560854094399 0 0.18254936970255059 0.185173988088988 0 0.18965176746764689 0.18482568467796259 0 0.18254936970255059 0.185173988088988 0 0.18557420704702879 0.1919484637233119 0 0.18965176746764689 0.18482568467796259 0 0.17118961314406261 0.17156389906560859 0 0.1753496411155839 0.16518003797810141 0 0.17139711784263831 0.14801935769285049 0 0.17736702658312131 0.15630314965489589 0 0.1753496411155839 0.16518003797810141 0 0.17139711784263831 0.14801935769285049 0 0.17736702658312131 0.15630314965489589 0 0.1753496411155839 0.16518003797810141 0 0.18104904560691079 0.1614771541737865 0 0.17118961314406261 0.17156389906560859 0 0.17114272302605801 0.17688429099364389 0 0.1753496411155839 0.16518003797810141 0 0.17795132186246951 0.17383670664564699 0 0.1753496411155839 0.16518003797810141 0 0.18160283221761889 0.16822061386966011 0 0.1753496411155839 0.16518003797810141 0 0.18160283221761889 0.16822061386966011 0 0.18104904560691079 0.1614771541737865 0 0.18324530209969561 0.17404889499978141 0 0.18160283221761889 0.16822061386966011 0 0.19194922181058979 0.16941408810869629 0 0.18160283221761889 0.16822061386966011 0 0.18619963142040569 0.16248022790730909 0 0.19194922181058979 0.16941408810869629 0 0.18160283221761889 0.16822061386966011 0 0.18619963142040569 0.16248022790730909 0 0.18104904560691079 0.1614771541737865 0 0.17736702658312131 0.15630314965489589 0 0.18104904560691079 0.1614771541737865 0 0.18472609669782411 0.1552017414589657 0 0.18619963142040569 0.16248022790730909 0 0.18104904560691079 0.1614771541737865 0 0.18472609669782411 0.1552017414589657 0 0.18472609669782411 0.1552017414589657 0 0.180258568155932 0.15156901833471631 0 0.18701061766597771 0.14716110604148919 0 0.17139711784263831 0.14801935769285049 0 0.19477189309374221 0.13358610783283889 0 0.18701061766597771 0.14716110604148919 0 0.17139711784263831 0.14801935769285049 0 0.19477189309374221 0.13358610783283889 0 0.17736702658312131 0.15630314965489589 0 0.18472609669782411 0.1552017414589657 0 0.180258568155932 0.15156901833471631 0 0.17736702658312131 0.15630314965489589 0 0.180258568155932 0.15156901833471631 0 0.17139711784263831 0.14801935769285049 0 0.180258568155932 0.15156901833471631 0 0.18701061766597771 0.14716110604148919 0 0.17139711784263831 0.14801935769285049 0 0.18004276861398011 0.13330129412187181 0 0.17139711784263831 0.14801935769285049 0 0.19477189309374221 0.13358610783283889 0 0.18004276861398011 0.13330129412187181 0 0.18434352107189581 0.12574929339711019 0 0.17794612972432999 0.1253354469846969 0 0.18004276861398011 0.13330129412187181 0 0.18434352107189581 0.12574929339711019 0 0.19477189309374221 0.13358610783283889 0 0.17794612972432999 0.1253354469846969 0 0.17153228193968539 0.13268294990606319 0 0.1716674460367304 0.117346542119276 0 0.18004276861398011 0.13330129412187181 0 0.17794612972432999 0.1253354469846969 0 0.17153228193968539 0.13268294990606319 0 0.18004276861398011 0.13330129412187181 0 0.17153228193968539 0.13268294990606319 0 0.17139711784263831 0.14801935769285049 0 0.1661302586872159 0.1377399632343308 0 0.16474955894065621 0.12879108519773161 0 0.17153228193968539 0.13268294990606319 0 0.17153228193968539 0.13268294990606319 0 0.17139711784263831 0.14801935769285049 0 0.14779864664129791 0.13723264810427679 0 0.1661302586872159 0.1377399632343308 0 0.1661302586872159 0.1377399632343308 0 0.17153228193968539 0.13268294990606319 0 0.17139711784263831 0.14801935769285049 0 0.14779864664129791 0.13723264810427679 0 0.1661302586872159 0.1377399632343308 0 0.15685206424369119 0.1436105879786419 0 0.17153228193968539 0.13268294990606319 0 0.1716674460367304 0.117346542119276 0 0.16474955894065621 0.12879108519773161 0 0.17153228193968539 0.13268294990606319 0 0.1716674460367304 0.117346542119276 0 0.15298740166427019 0.12764418152528209 0 0.1661302586872159 0.1377399632343308 0 0.16474955894065621 0.12879108519773161 0 0.1661302586872159 0.1377399632343308 0 0.15685206424369119 0.1436105879786419 0 0.1639876963753949 0.14585397965600991 0 0.15685206424369119 0.1436105879786419 0 0.1639876963753949 0.14585397965600991 0 0.15901614729468999 0.1497512062039045 0 0.15376004581576491 0.14907478257332879 0 0.15685206424369119 0.1436105879786419 0 0.15901614729468999 0.1497512062039045 0 0.16137373739982669 0.15842002621196871 0 0.15901614729468999 0.1497512062039045 0 0.16476778389713601 0.1521127802910581 0 0.1550627646457218 0.15503291451766521 0 0.16137373739982669 0.15842002621196871 0 0.15901614729468999 0.1497512062039045 0 0.1639876963753949 0.14585397965600991 0 0.15901614729468999 0.1497512062039045 0 0.16476778389713601 0.1521127802910581 0 0.1639876963753949 0.14585397965600991 0 0.16476778389713601 0.1521127802910581 0 0.17139711784263831 0.14801935769285049 0 0.16476778389713601 0.1521127802910581 0 0.17139711784263831 0.14801935769285049 0 0.1661302586872159 0.1377399632343308 0 0.1639876963753949 0.14585397965600991 0 0.17139711784263831 0.14801935769285049 0 0.13482805977205289 0.24161300169595401 0 0.16440521750335271 0.2237789673241197 0 0.16281754088323061 0.24740659801607481 0 0.13482805977205289 0.24161300169595401 0 0.16281754088323061 0.24740659801607481 0 0.1202606603845595 0.21570863776811799 0 0.13482805977205289 0.24161300169595401 0 0.1430728941158442 0.21561364586917289 0 0.13482805977205289 0.24161300169595401 0 0.1430728941158442 0.21561364586917289 0 0.16440521750335271 0.2237789673241197 0 0.1430728941158442 0.21561364586917289 0 0.15520661529252749 0.2092815985982043 0 0.16440521750335271 0.2237789673241197 0 0.1430728941158442 0.21561364586917289 0 0.15520661529252749 0.2092815985982043 0 0.1520249233684513 0.19551270862523579 0 0.1202606603845595 0.21570863776811799 0 0.1430728941158442 0.21561364586917289 0 0.13368274210823961 0.195597870160403 0 0.1202606603845595 0.21570863776811799 0 0.13368274210823961 0.195597870160403 0 0.11966826997471269 0.19120295456826961 0 0.13313988913829469 0.18193816916162339 0 0.13368274210823961 0.195597870160403 0 0.14567011589952539 0.18302138977500329 0 0.13368274210823961 0.195597870160403 0 0.1520249233684513 0.19551270862523579 0 0.1430728941158442 0.21561364586917289 0 0.13368274210823961 0.195597870160403 0 0.1520249233684513 0.19551270862523579 0 0.14567011589952539 0.18302138977500329 0 0.15550806945981449 0.187304018575424 0 0.1520249233684513 0.19551270862523579 0 0.15550806945981449 0.187304018575424 0 0.1520249233684513 0.19551270862523579 0 0.16222467723991951 0.19247712879083481 0 0.15550806945981449 0.187304018575424 0 0.16281840852043211 0.18550662272345539 0 0.16222467723991951 0.19247712879083481 0 0.1520249233684513 0.19551270862523579 0 0.16222467723991951 0.19247712879083481 0 0.16599289412347421 0.20015133663216439 0 0.15520661529252749 0.2092815985982043 0 0.1520249233684513 0.19551270862523579 0 0.16599289412347421 0.20015133663216439 0 0.16222467723991951 0.19247712879083481 0 0.16599289412347421 0.20015133663216439 0 0.17547825903638031 0.1935236788680578 0 0.16281840852043211 0.18550662272345539 0 0.16222467723991951 0.19247712879083481 0 0.17547825903638031 0.1935236788680578 0 0.17482496578301659 0.18429067653186421 0 0.18254936970255059 0.185173988088988 0 0.17547825903638031 0.1935236788680578 0 0.17547825903638031 0.1935236788680578 0 0.18560771461184161 0.21262145235774851 0 0.17547825903638031 0.1935236788680578 0 0.18581041609099161 0.19992340209975101 0 0.19070302040551021 0.21470372332903939 0 0.17547825903638031 0.1935236788680578 0 0.18557420704702879 0.1919484637233119 0 0.18581041609099161 0.19992340209975101 0 0.18254936970255059 0.185173988088988 0 0.17547825903638031 0.1935236788680578 0 0.18557420704702879 0.1919484637233119 0 0.16599289412347421 0.20015133663216439 0 0.17547825903638031 0.1935236788680578 0 0.1753681843754607 0.20583314198939259 0 0.17547825903638031 0.1935236788680578 0 0.18560771461184161 0.21262145235774851 0 0.19070302040551021 0.21470372332903939 0 0.17547825903638031 0.1935236788680578 0 0.19070302040551021 0.21470372332903939 0 0.17547825903638031 0.1935236788680578 0 0.1753681843754607 0.20583314198939259 0 0.18560771461184161 0.21262145235774851 0 0.1753681843754607 0.20583314198939259 0 0.18560771461184161 0.21262145235774851 0 0.17421403056921189 0.2159903750670793 0 0.16599289412347421 0.20015133663216439 0 0.1753681843754607 0.20583314198939259 0 0.17421403056921189 0.2159903750670793 0 0.16599289412347421 0.20015133663216439 0 0.16440521750335271 0.2237789673241197 0 0.16599289412347421 0.20015133663216439 0 0.17421403056921189 0.2159903750670793 0 0.16440521750335271 0.2237789673241197 0 0.15520661529252749 0.2092815985982043 0 0.16599289412347421 0.20015133663216439 0 0.16440521750335271 0.2237789673241197 0 0.16440521750335271 0.2237789673241197 0 0.1781279447485791 0.22844825474839359 0 0.16281754088323061 0.24740659801607481 0 0.18560771461184161 0.21262145235774851 0 0.1781279447485791 0.22844825474839359 0 0.1957371701873028 0.23171922584743929 0 0.18560771461184161 0.21262145235774851 0 0.17421403056921189 0.2159903750670793 0 0.1781279447485791 0.22844825474839359 0 0.17421403056921189 0.2159903750670793 0 0.16440521750335271 0.2237789673241197 0 0.1781279447485791 0.22844825474839359 0 0.1781279447485791 0.22844825474839359 0 0.1847753922220787 0.23944958768072949 0 0.1957371701873028 0.23171922584743929 0 0.1847753922220787 0.23944958768072949 0 0.16281754088323061 0.24740659801607481 0 0.18831532265037099 0.25268443271514662 0 0.1781279447485791 0.22844825474839359 0 0.1847753922220787 0.23944958768072949 0 0.16281754088323061 0.24740659801607481 0 0.16440521750335271 0.2237789673241197 0 0.16281754088323061 0.24740659801607481 0 0.20592778177464019 0.23588376779002099 0 0.2211525431437702 0.25706381225100261 0 0.20592778177464019 0.23588376779002099 0 0.20586662576276399 0.25081699933713009 0 0.2211525431437702 0.25706381225100261 0 0.20592778177464019 0.23588376779002099 0 0.21767178272638929 0.22791220855028221 0 0.22241263452250459 0.24033377016067489 0 0.20592778177464019 0.23588376779002099 0 0.22241263452250459 0.24033377016067489 0 0.2211525431437702 0.25706381225100261 0 0.20592778177464019 0.23588376779002099 0 0.1957371701873028 0.23171922584743929 0 0.20586662576276399 0.25081699933713009 0 0.1939313185440093 0.24333696068627389 0 0.1957371701873028 0.23171922584743929 0 0.20586662576276399 0.25081699933713009 0 0.1957371701873028 0.23171922584743929 0 0.20586662576276399 0.25081699933713009 0 0.1939313185440093 0.24333696068627389 0 0.18831532265037099 0.25268443271514662 0 0.20586662576276399 0.25081699933713009 0 0.1847753922220787 0.23944958768072949 0 0.1939313185440093 0.24333696068627389 0 0.18831532265037099 0.25268443271514662 0 0.1847753922220787 0.23944958768072949 0 0.1939313185440093 0.24333696068627389 0 0.1957371701873028 0.23171922584743929 0 0.18560771461184161 0.21262145235774851 0 0.1957371701873028 0.23171922584743929 0 0.20592778177464019 0.23588376779002099 0 0.19070302040551021 0.21470372332903939 0 0.18560771461184161 0.21262145235774851 0 0.1957371701873028 0.23171922584743929 0 0.19070302040551021 0.21470372332903939 0 0.20592778177464019 0.23588376779002099 0 0.1957371701873028 0.23171922584743929 0 0.19070302040551021 0.21470372332903939 0 0.20592778177464019 0.23588376779002099 0 0.20196549441084941 0.22221370745898381 0 0.19070302040551021 0.21470372332903939 0 0.20890181744462011 0.2276285974004135 0 0.21392958613028401 0.21553201629520979 0 0.2059989112801322 0.21660345905041811 0 0.20196549441084941 0.22221370745898381 0 0.20890181744462011 0.2276285974004135 0 0.2059989112801322 0.21660345905041811 0 0.20592778177464019 0.23588376779002099 0 0.20196549441084941 0.22221370745898381 0 0.20890181744462011 0.2276285974004135 0 0.20592778177464019 0.23588376779002099 0 0.20890181744462011 0.2276285974004135 0 0.21767178272638929 0.22791220855028221 0 0.20890181744462011 0.2276285974004135 0 0.21767178272638929 0.22791220855028221 0 0.21392958613028401 0.21553201629520979 0 0.21392958613028401 0.21553201629520979 0 0.209111116186569 0.20855421552115719 0 0.2156496704261158 0.20287247042654991 0 0.209111116186569 0.20855421552115719 0 0.20586084919461889 0.20288943123405731 0 0.2156496704261158 0.20287247042654991 0 0.209111116186569 0.20855421552115719 0 0.2020580612104235 0.20950743752508769 0 0.20586084919461889 0.20288943123405731 0 0.209111116186569 0.20855421552115719 0 0.2059989112801322 0.21660345905041811 0 0.2020580612104235 0.20950743752508769 0 0.21392958613028401 0.21553201629520979 0 0.209111116186569 0.20855421552115719 0 0.2059989112801322 0.21660345905041811 0 0.20196549441084941 0.22221370745898381 0 0.19921539297376639 0.2148516130212301 0 0.19070302040551021 0.21470372332903939 0 0.20196549441084941 0.22221370745898381 0 0.2059989112801322 0.21660345905041811 0 0.19921539297376639 0.2148516130212301 0 0.2059989112801322 0.21660345905041811 0 0.19921539297376639 0.2148516130212301 0 0.2020580612104235 0.20950743752508769 0 0.19921539297376639 0.2148516130212301 0 0.19552626600313761 0.21002349803423659 0 0.2020580612104235 0.20950743752508769 0 0.19921539297376639 0.2148516130212301 0 0.19070302040551021 0.21470372332903939 0 0.19552626600313761 0.21002349803423659 0 0.18581041609099161 0.19992340209975101 0 0.19070302040551021 0.21470372332903939 0 0.19119992872657129 0.2074230927788899 0 0.18581041609099161 0.19992340209975101 0 0.19119992872657129 0.2074230927788899 0 0.19276001240664581 0.20504174765253269 0 0.19119992872657129 0.2074230927788899 0 0.19276001240664581 0.20504174765253269 0 0.19552626600313761 0.21002349803423659 0 0.19070302040551021 0.21470372332903939 0 0.19119992872657129 0.2074230927788899 0 0.19552626600313761 0.21002349803423659 0 0.19276001240664581 0.20504174765253269 0 0.19847851416560761 0.20343957153699921 0 0.19552626600313761 0.21002349803423659 0 0.19847851416560761 0.20343957153699921 0 0.19552626600313761 0.21002349803423659 0 0.2020580612104235 0.20950743752508769 0 0.19847851416560761 0.20343957153699921 0 0.2020580612104235 0.20950743752508769 0 0.20586084919461889 0.20288943123405731 0 0.19847851416560761 0.20343957153699921 0 0.20210069928155611 0.19866959584873639 0 0.19742396102109799 0.1974848685836402 0 0.19847851416560761 0.20343957153699921 0 0.20210069928155611 0.19866959584873639 0 0.20586084919461889 0.20288943123405731 0 0.20210069928155611 0.19866959584873639 0 0.19742396102109799 0.1974848685836402 0 0.20172546321341839 0.19333901074232621 0 0.19847851416560761 0.20343957153699921 0 0.19742396102109799 0.1974848685836402 0 0.19324358097330299 0.20028859537465249 0 0.19276001240664581 0.20504174765253269 0 0.19847851416560761 0.20343957153699921 0 0.19324358097330299 0.20028859537465249 0 0.18557420704702879 0.1919484637233119 0 0.18581041609099161 0.19992340209975101 0 0.19174500118217211 0.195553387000339 0 0.19742396102109799 0.1974848685836402 0 0.19324358097330299 0.20028859537465249 0 0.19174500118217211 0.195553387000339 0 0.18581041609099161 0.19992340209975101 0 0.19324358097330299 0.20028859537465249 0 0.19174500118217211 0.195553387000339 0 0.18581041609099161 0.19992340209975101 0 0.19276001240664581 0.20504174765253269 0 0.19324358097330299 0.20028859537465249 0 0.18557420704702879 0.1919484637233119 0 0.1916019349736095 0.19027721742494699 0 0.18965176746764689 0.18482568467796259 0 0.18557420704702879 0.1919484637233119 0 0.19174500118217211 0.195553387000339 0 0.1916019349736095 0.19027721742494699 0 0.19174500118217211 0.195553387000339 0 0.1916019349736095 0.19027721742494699 0 0.19696104791763111 0.19156318109452289 0 0.1916019349736095 0.19027721742494699 0 0.19696104791763111 0.19156318109452289 0 0.19764620014093981 0.18439824306274391 0 0.19696104791763111 0.19156318109452289 0 0.20162372697454889 0.18832635975314091 0 0.19764620014093981 0.18439824306274391 0 0.19742396102109799 0.1974848685836402 0 0.19174500118217211 0.195553387000339 0 0.19696104791763111 0.19156318109452289 0 0.19742396102109799 0.1974848685836402 0 0.19696104791763111 0.19156318109452289 0 0.20172546321341839 0.19333901074232621 0 0.19696104791763111 0.19156318109452289 0 0.20172546321341839 0.19333901074232621 0 0.20162372697454889 0.18832635975314091 0 0.20172546321341839 0.19333901074232621 0 0.20162372697454889 0.18832635975314091 0 0.20730101418274621 0.18914286215528631 0 0.20730101418274621 0.18914286215528631 0 0.21076143301567971 0.1939703272824036 0 0.21308033864081949 0.18767087940111901 0 0.20730101418274621 0.18914286215528631 0 0.21076143301567971 0.1939703272824036 0 0.2070147088130371 0.19619509714665931 0 0.20172546321341839 0.19333901074232621 0 0.20730101418274621 0.18914286215528631 0 0.2070147088130371 0.19619509714665931 0 0.2070147088130371 0.19619509714665931 0 0.20586084919461889 0.20288943123405731 0 0.2156496704261158 0.20287247042654991 0 0.20210069928155611 0.19866959584873639 0 0.20172546321341839 0.19333901074232621 0 0.2070147088130371 0.19619509714665931 0 0.20210069928155611 0.19866959584873639 0 0.2070147088130371 0.19619509714665931 0 0.20586084919461889 0.20288943123405731 0 0.21076143301567971 0.1939703272824036 0 0.2070147088130371 0.19619509714665931 0 0.2156496704261158 0.20287247042654991 0 0.21076143301567971 0.1939703272824036 0 0.2156496704261158 0.20287247042654991 0 0.21308033864081949 0.18767087940111901 0 0.21845909686830459 0.18851815947618611 0 0.21308033864081949 0.18767087940111901 0 0.23449391315035109 0.20458956608233381 0 0.21845909686830459 0.18851815947618611 0 0.23575326292168969 0.18930659400856131 0 0.23449391315035109 0.20458956608233381 0 0.21308033864081949 0.18767087940111901 0 0.23449391315035109 0.20458956608233381 0 0.2156496704261158 0.20287247042654991 0 0.21308033864081949 0.18767087940111901 0 0.23449391315035109 0.20458956608233381 0 0.23575326292168969 0.18930659400856131 0 0.23449391315035109 0.20458956608233381 0 0.25500310095378947 0.19498500486412149 0 0.23449391315035109 0.20458956608233381 0 0.25590748765988269 0.22150825276354849 0 0.25500310095378947 0.19498500486412149 0 0.23449391315035109 0.20458956608233381 0 0.22776349212545199 0.2174631005442994 0 0.25590748765988269 0.22150825276354849 0 0.23449391315035109 0.20458956608233381 0 0.25590748765988269 0.22150825276354849 0 0.2156496704261158 0.20287247042654991 0 0.23449391315035109 0.20458956608233381 0 0.22776349212545199 0.2174631005442994 0 0.21392958613028401 0.21553201629520979 0 0.2156496704261158 0.20287247042654991 0 0.22776349212545199 0.2174631005442994 0 0.21767178272638929 0.22791220855028221 0 0.23391766885319809 0.232418171212109 0 0.22241263452250459 0.24033377016067489 0 0.21767178272638929 0.22791220855028221 0 0.22776349212545199 0.2174631005442994 0 0.23391766885319809 0.232418171212109 0 0.21767178272638929 0.22791220855028221 0 0.21392958613028401 0.21553201629520979 0 0.22776349212545199 0.2174631005442994 0 0.22776349212545199 0.2174631005442994 0 0.23391766885319809 0.232418171212109 0 0.25590748765988269 0.22150825276354849 0 0.23391766885319809 0.232418171212109 0 0.25012005701005491 0.23841861139815559 0 0.25590748765988269 0.22150825276354849 0 0.2357717162530249 0.24793788735158501 0 0.2534443558029531 0.25718739904821453 0 0.25012005701005491 0.23841861139815559 0 0.23391766885319809 0.232418171212109 0 0.2357717162530249 0.24793788735158501 0 0.25012005701005491 0.23841861139815559 0 0.2357717162530249 0.24793788735158501 0 0.22241263452250459 0.24033377016067489 0 0.2211525431437702 0.25706381225100261 0 0.23391766885319809 0.232418171212109 0 0.2357717162530249 0.24793788735158501 0 0.22241263452250459 0.24033377016067489 0 0.2107801702203202 0.1406049534266785 0 0.22047878782237459 0.1502327576530022 0 0.22308213214506881 0.1343048270823412 0 0.2107801702203202 0.1406049534266785 0 0.2066154949810235 0.16105213365451251 0 0.22047878782237459 0.1502327576530022 0 0.2107801702203202 0.1406049534266785 0 0.19477189309374221 0.13358610783283889 0 0.2066154949810235 0.16105213365451251 0 0.20822156263278721 0.12528132462502969 0 0.22308213214506881 0.1343048270823412 0 0.22172344391179979 0.1170610987898876 0 0.20822156263278721 0.12528132462502969 0 0.2107801702203202 0.1406049534266785 0 0.19477189309374221 0.13358610783283889 0 0.20822156263278721 0.12528132462502969 0 0.2107801702203202 0.1406049534266785 0 0.22308213214506881 0.1343048270823412 0 0.19477189309374221 0.13358610783283889 0 0.1880312920192698 0.1179542481226702 0 0.18434352107189581 0.12574929339711019 0 0.19477189309374221 0.13358610783283889 0 0.1880312920192698 0.1179542481226702 0 0.20822156263278721 0.12528132462502969 0 0.19477189309374221 0.13358610783283889 0 0.20822156263278721 0.12528132462502969 0 0.19477189309374221 0.13358610783283889 0 0.1974410482980975 0.1233996038675244 0 0.18701061766597771 0.14716110604148919 0 0.19477189309374221 0.13358610783283889 0 0.19350823344612689 0.15560893633386119 0 0.19477189309374221 0.13358610783283889 0 0.19350823344612689 0.15560893633386119 0 0.2066154949810235 0.16105213365451251 0 0.19477189309374221 0.13358610783283889 0 0.2066154949810235 0.16105213365451251 0 0.18472609669782411 0.1552017414589657 0 0.18701061766597771 0.14716110604148919 0 0.19350823344612689 0.15560893633386119 0 0.18619963142040569 0.16248022790730909 0 0.19350823344612689 0.15560893633386119 0 0.19194922181058979 0.16941408810869629 0 0.18619963142040569 0.16248022790730909 0 0.18472609669782411 0.1552017414589657 0 0.19350823344612689 0.15560893633386119 0 0.19194922181058979 0.16941408810869629 0 0.2043635049896565 0.1742334974004324 0 0.2066154949810235 0.16105213365451251 0 0.19350823344612689 0.15560893633386119 0 0.19194922181058979 0.16941408810869629 0 0.2066154949810235 0.16105213365451251 0 0.18965176746764689 0.18482568467796259 0 0.19357977941612151 0.17863058722684111 0 0.19764620014093981 0.18439824306274391 0 0.1916019349736095 0.19027721742494699 0 0.18965176746764689 0.18482568467796259 0 0.19764620014093981 0.18439824306274391 0 0.18695911352563141 0.17852560854094399 0 0.18965176746764689 0.18482568467796259 0 0.19357977941612151 0.17863058722684111 0 0.18695911352563141 0.17852560854094399 0 0.19194922181058979 0.16941408810869629 0 0.19357977941612151 0.17863058722684111 0 0.19357977941612151 0.17863058722684111 0 0.19764620014093981 0.18439824306274391 0 0.2043635049896565 0.1742334974004324 0 0.19194922181058979 0.16941408810869629 0 0.19357977941612151 0.17863058722684111 0 0.2043635049896565 0.1742334974004324 0 0.19764620014093981 0.18439824306274391 0 0.2069446154542576 0.18146901848949271 0 0.2043635049896565 0.1742334974004324 0 0.20162372697454889 0.18832635975314091 0 0.19764620014093981 0.18439824306274391 0 0.2069446154542576 0.18146901848949271 0 0.21845909686830459 0.18851815947618611 0 0.2066154949810235 0.16105213365451251 0 0.21845909686830459 0.18851815947618611 0 0.2043635049896565 0.1742334974004324 0 0.2066154949810235 0.16105213365451251 0 0.21845909686830459 0.18851815947618611 0 0.2066154949810235 0.16105213365451251 0 0.2262972446149753 0.16885173066690259 0 0.21845909686830459 0.18851815947618611 0 0.2069446154542576 0.18146901848949271 0 0.2043635049896565 0.1742334974004324 0 0.20730101418274621 0.18914286215528631 0 0.21308033864081949 0.18767087940111901 0 0.2069446154542576 0.18146901848949271 0 0.20162372697454889 0.18832635975314091 0 0.20730101418274621 0.18914286215528631 0 0.2069446154542576 0.18146901848949271 0 0.21845909686830459 0.18851815947618611 0 0.21308033864081949 0.18767087940111901 0 0.2069446154542576 0.18146901848949271 0 0.2066154949810235 0.16105213365451251 0 0.2262972446149753 0.16885173066690259 0 0.22047878782237459 0.1502327576530022 0 0.21845909686830459 0.18851815947618611 0 0.23575326292168969 0.18930659400856131 0 0.229860402813615 0.1809487030022531 0 0.21845909686830459 0.18851815947618611 0 0.2262972446149753 0.16885173066690259 0 0.229860402813615 0.1809487030022531 0 0.2262972446149753 0.16885173066690259 0 0.229860402813615 0.1809487030022531 0 0.24431279077721821 0.17811355121882769 0 0.23575326292168969 0.18930659400856131 0 0.24431279077721821 0.17811355121882769 0 0.25500310095378947 0.19498500486412149 0 0.23575326292168969 0.18930659400856131 0 0.229860402813615 0.1809487030022531 0 0.24431279077721821 0.17811355121882769 0 0.2262972446149753 0.16885173066690259 0 0.24431279077721821 0.17811355121882769 0 0.2486945900190925 0.16067151539559149 0 0.2262972446149753 0.16885173066690259 0 0.2486945900190925 0.16067151539559149 0 0.2356188971504852 0.14635014343457611 0 0.2486945900190925 0.16067151539559149 0 0.2356188971504852 0.14635014343457611 0 0.25684396881101362 0.14263541090959811 0 0.2356188971504852 0.14635014343457611 0 0.22047878782237459 0.1502327576530022 0 0.22308213214506881 0.1343048270823412 0 0.2262972446149753 0.16885173066690259 0 0.2356188971504852 0.14635014343457611 0 0.22047878782237459 0.1502327576530022 0 0.2356188971504852 0.14635014343457611 0 0.22308213214506881 0.1343048270823412 0 0.242377986707283 0.12580685675486811 0 0.22308213214506881 0.1343048270823412 0 0.242377986707283 0.12580685675486811 0 0.22172344391179979 0.1170610987898876 0 0.2356188971504852 0.14635014343457611 0 0.242377986707283 0.12580685675486811 0 0.25684396881101362 0.14263541090959811 0 0.242377986707283 0.12580685675486811 0 0.24139963538750961 0.1047948211699866 0 0.25948156763023827 0.11050145920967171 0 0.242377986707283 0.12580685675486811 0 0.24139963538750961 0.1047948211699866 0 0.22172344391179979 0.1170610987898876 0 0.2305762264696192 0.097372507652713117 0 0.24972216603863029 0.090921584738332312 0 0.2357228049752142 0.103991341764109 0 0.2305762264696192 0.097372507652713117 0 0.24972216603863029 0.090921584738332312 0 0.2357228049752142 0.103991341764109 0 0.24972216603863029 0.090921584738332312 0 0.2357228049752142 0.103991341764109 0 0.24139963538750961 0.1047948211699866 0 0.24972216603863029 0.090921584738332312 0 0.2357228049752142 0.103991341764109 0 0.24139963538750961 0.1047948211699866 0 0.22172344391179979 0.1170610987898876 0 0.2357228049752142 0.103991341764109 0 0.2305762264696192 0.097372507652713117 0 0.2252927541688701 0.1029224768206719 0 0.2305762264696192 0.097372507652713117 0 0.2252927541688701 0.1029224768206719 0 0.2357228049752142 0.103991341764109 0 0.2252927541688701 0.1029224768206719 0 0.22172344391179979 0.1170610987898876 0 0.2252927541688701 0.1029224768206719 0 0.22172344391179979 0.1170610987898876 0 0.21564764361656091 0.1024024586174531 0 0.2305762264696192 0.097372507652713117 0 0.21564764361656091 0.1024024586174531 0 0.2305762264696192 0.097372507652713117 0 0.21564764361656091 0.1024024586174531 0 0.21809950345531551 0.091750211904956747 0 0.2305762264696192 0.097372507652713117 0 0.2252927541688701 0.1029224768206719 0 0.21564764361656091 0.1024024586174531 0 0.24139963538750961 0.1047948211699866 0 0.22172344391179979 0.1170610987898876 0 0.2357228049752142 0.103991341764109 0 0.22172344391179979 0.1170610987898876 0 0.20822156263278721 0.12528132462502969 0 0.22172344391179979 0.1170610987898876 0 0.20822156263278721 0.12528132462502969 0 0.22172344391179979 0.1170610987898876 0 0.2108930985412002 0.1126295566775688 0 0.20822156263278721 0.12528132462502969 0 0.2108930985412002 0.1126295566775688 0 0.20075250393642419 0.11628259686228321 0 0.2108930985412002 0.1126295566775688 0 0.19984775677587299 0.10181174613298991 0 0.20075250393642419 0.11628259686228321 0 0.22172344391179979 0.1170610987898876 0 0.2108930985412002 0.1126295566775688 0 0.21564764361656091 0.1024024586174531 0 0.19984775677587299 0.10181174613298991 0 0.2142808523086584 0.092505085478873872 0 0.21809950345531551 0.091750211904956747 0 0.21564764361656091 0.1024024586174531 0 0.19984775677587299 0.10181174613298991 0 0.21809950345531551 0.091750211904956747 0 0.2108930985412002 0.1126295566775688 0 0.21564764361656091 0.1024024586174531 0 0.19984775677587299 0.10181174613298991 0 0.19984775677587299 0.10181174613298991 0 0.21809950345531551 0.091750211904956747 0 0.19984775677587299 0.10181174613298991 0 0.20350564543322941 0.091639522531723888 0 0.2142808523086584 0.092505085478873872 0 0.19984775677587299 0.10181174613298991 0 0.18159601009643089 0.1118732803610238 0 0.18267397559014481 0.1030207931418497 0 0.19984775677587299 0.10181174613298991 0 0.18159601009643089 0.1118732803610238 0 0.19984775677587299 0.10181174613298991 0 0.18267397559014481 0.1030207931418497 0 0.18598610378028521 0.096572147662314728 0 0.19984775677587299 0.10181174613298991 0 0.1917663712974329 0.089690621148172917 0 0.20350564543322941 0.091639522531723888 0 0.19984775677587299 0.10181174613298991 0 0.1917663712974329 0.089690621148172917 0 0.18598610378028521 0.096572147662314728 0 0.19984775677587299 0.10181174613298991 0 0.1880312920192698 0.1179542481226702 0 0.18159601009643089 0.1118732803610238 0 0.19477189309374221 0.13358610783283889 0 0.1880312920192698 0.1179542481226702 0 0.1974410482980975 0.1233996038675244 0 0.19984775677587299 0.10181174613298991 0 0.1880312920192698 0.1179542481226702 0 0.20075250393642419 0.11628259686228321 0 0.1880312920192698 0.1179542481226702 0 0.1974410482980975 0.1233996038675244 0 0.20075250393642419 0.11628259686228321 0 0.20822156263278721 0.12528132462502969 0 0.1974410482980975 0.1233996038675244 0 0.20075250393642419 0.11628259686228321 0 0.1965803304574201 0.068636755197029609 0 0.19890327049160109 0.081858294218243019 0 0.20644642885595041 0.072143942454085633 0 0.1965803304574201 0.068636755197029609 0 0.1907664088505277 0.057831144257328229 0 0.18352568867454569 0.071211502957609349 0 0.1965803304574201 0.068636755197029609 0 0.19890327049160109 0.081858294218243019 0 0.18352568867454569 0.071211502957609349 0 0.19890327049160109 0.081858294218243019 0 0.18352568867454569 0.071211502957609349 0 0.19890327049160109 0.081858294218243019 0 0.1824615380570149 0.084541548462737523 0 0.18352568867454569 0.071211502957609349 0 0.1917663712974329 0.089690621148172917 0 0.19890327049160109 0.081858294218243019 0 0.1824615380570149 0.084541548462737523 0 0.1917663712974329 0.089690621148172917 0 0.19890327049160109 0.081858294218243019 0 0.20350564543322941 0.091639522531723888 0 0.19890327049160109 0.081858294218243019 0 0.2142808523086584 0.092505085478873872 0 0.21390542941801971 0.080569875783692138 0 0.19890327049160109 0.081858294218243019 0 0.21390542941801971 0.080569875783692138 0 0.20644642885595041 0.072143942454085633 0 0.19890327049160109 0.081858294218243019 0 0.2142808523086584 0.092505085478873872 0 0.19890327049160109 0.081858294218243019 0 0.20350564543322941 0.091639522531723888 0 0.2142808523086584 0.092505085478873872 0 0.2142808523086584 0.092505085478873872 0 0.21390542941801971 0.080569875783692138 0 0.21849187110317611 0.085532137035210426 0 0.2142808523086584 0.092505085478873872 0 0.21809950345531551 0.091750211904956747 0 0.21849187110317611 0.085532137035210426 0 0.2193409086180052 0.07050109412052169 0 0.2244090171250753 0.05679196534603291 0 0.2072115760905672 0.060297573774381392 0 0.21390542941801971 0.080569875783692138 0 0.20644642885595041 0.072143942454085633 0 0.2193409086180052 0.07050109412052169 0 0.1965803304574201 0.068636755197029609 0 0.20644642885595041 0.072143942454085633 0 0.2072115760905672 0.060297573774381392 0 0.20644642885595041 0.072143942454085633 0 0.2193409086180052 0.07050109412052169 0 0.2072115760905672 0.060297573774381392 0 0.2193409086180052 0.07050109412052169 0 0.23019356093714449 0.067228311482426403 0 0.2244090171250753 0.05679196534603291 0 0.21390542941801971 0.080569875783692138 0 0.2193409086180052 0.07050109412052169 0 0.22421393660202549 0.082081698198851291 0 0.2193409086180052 0.07050109412052169 0 0.22997536850687009 0.075419987139734523 0 0.22421393660202549 0.082081698198851291 0 0.2193409086180052 0.07050109412052169 0 0.22997536850687009 0.075419987139734523 0 0.23019356093714449 0.067228311482426403 0 0.22997536850687009 0.075419987139734523 0 0.23019356093714449 0.067228311482426403 0 0.23835315616219679 0.07169874722892175 0 0.21809950345531551 0.091750211904956747 0 0.23635125013475791 0.081688677676923588 0 0.21809950345531551 0.091750211904956747 0 0.22421393660202549 0.082081698198851291 0 0.23635125013475791 0.081688677676923588 0 0.2305762264696192 0.097372507652713117 0 0.21809950345531551 0.091750211904956747 0 0.23635125013475791 0.081688677676923588 0 0.21809950345531551 0.091750211904956747 0 0.21849187110317611 0.085532137035210426 0 0.22421393660202549 0.082081698198851291 0 0.21390542941801971 0.080569875783692138 0 0.21849187110317611 0.085532137035210426 0 0.22421393660202549 0.082081698198851291 0 0.22997536850687009 0.075419987139734523 0 0.22421393660202549 0.082081698198851291 0 0.23635125013475791 0.081688677676923588 0 0.2305762264696192 0.097372507652713117 0 0.2468384621924922 0.080290009301915558 0 0.24972216603863029 0.090921584738332312 0 0.2305762264696192 0.097372507652713117 0 0.2468384621924922 0.080290009301915558 0 0.2305762264696192 0.097372507652713117 0 0.23635125013475791 0.081688677676923588 0 0.2468384621924922 0.080290009301915558 0 0.2468384621924922 0.080290009301915558 0 0.23835315616219679 0.07169874722892175 0 0.24808411360837751 0.064354059346647396 0 0.23019356093714449 0.067228311482426403 0 0.23835315616219679 0.07169874722892175 0 0.23857595425118089 0.060936846154555101 0 0.23835315616219679 0.07169874722892175 0 0.24808411360837751 0.064354059346647396 0 0.23857595425118089 0.060936846154555101 0 0.23635125013475791 0.081688677676923588 0 0.2468384621924922 0.080290009301915558 0 0.23835315616219679 0.07169874722892175 0 0.22997536850687009 0.075419987139734523 0 0.23635125013475791 0.081688677676923588 0 0.23835315616219679 0.07169874722892175 0 0.24808411360837751 0.064354059346647396 0 0.24386656698702969 0.05406378895106282 0 0.25341438735800148 0.052184531591211808 0 0.24808411360837751 0.064354059346647396 0 0.23857595425118089 0.060936846154555101 0 0.24386656698702969 0.05406378895106282 0 0.23857595425118089 0.060936846154555101 0 0.23526391092050741 0.050965673277432413 0 0.24386656698702969 0.05406378895106282 0 0.23526391092050741 0.050965673277432413 0 0.24386656698702969 0.05406378895106282 0 0.24399446879708131 0.041877834385467397 0 0.24386656698702969 0.05406378895106282 0 0.24399446879708131 0.041877834385467397 0 0.25341438735800148 0.052184531591211808 0 0.23526391092050741 0.050965673277432413 0 0.24399446879708131 0.041877834385467397 0 0.22749082994349271 0.04059825975184405 0 0.24399446879708131 0.041877834385467397 0 0.22749082994349271 0.04059825975184405 0 0.23849670552345581 0.028527324979705979 0 0.24399446879708131 0.041877834385467397 0 0.23849670552345581 0.028527324979705979 0 0.2525527590451529 0.027338614664117501 0 0.22749082994349271 0.04059825975184405 0 0.2156395265582485 0.030867914327742229 0 0.213492380943579 0.046679482283527363 0 0.22749082994349271 0.04059825975184405 0 0.23849670552345581 0.028527324979705979 0 0.22638486601787239 0.026101196730729029 0 0.22749082994349271 0.04059825975184405 0 0.22638486601787239 0.026101196730729029 0 0.2156395265582485 0.030867914327742229 0 0.22749082994349271 0.04059825975184405 0 0.2244090171250753 0.05679196534603291 0 0.213492380943579 0.046679482283527363 0 0.23526391092050741 0.050965673277432413 0 0.22749082994349271 0.04059825975184405 0 0.2244090171250753 0.05679196534603291 0 0.23857595425118089 0.060936846154555101 0 0.23526391092050741 0.050965673277432413 0 0.2244090171250753 0.05679196534603291 0 0.23019356093714449 0.067228311482426403 0 0.23857595425118089 0.060936846154555101 0 0.2244090171250753 0.05679196534603291 0 0.24379497507385561 0.0081632620621440027 0 0.23849670552345581 0.028527324979705979 0 0.22638486601787239 0.026101196730729029 0 0.24379497507385561 0.0081632620621440027 0 0.23849670552345581 0.028527324979705979 0 0.2525527590451529 0.027338614664117501 0 0.22638486601787239 0.026101196730729029 0 0.22270557199815391 0.01400541352189541 0 0.2156395265582485 0.030867914327742229 0 0.24379497507385561 0.0081632620621440027 0 0.22638486601787239 0.026101196730729029 0 0.22270557199815391 0.01400541352189541 0 0.24379497507385561 0.0081632620621440027 0 0.22270557199815391 0.01400541352189541 0 0.22089310829929931 -0.0032288158219694399 0 0.24379497507385561 0.0081632620621440027 0 0.22089310829929931 -0.0032288158219694399 0 0.22270557199815391 0.01400541352189541 0 0.20681538404149369 0.0081235103108312241 0 0.22089310829929931 -0.0032288158219694399 0 0.20681538404149369 0.0081235103108312241 0 0.2156395265582485 0.030867914327742229 0 0.22270557199815391 0.01400541352189541 0 0.20681538404149369 0.0081235103108312241 0 0.2156395265582485 0.030867914327742229 0 0.20681538404149369 0.0081235103108312241 0 0.2156395265582485 0.030867914327742229 0 0.19916170871879929 0.0288715433767203 0 0.20681538404149369 0.0081235103108312241 0 0.19916170871879929 0.0288715433767203 0 0.1942202358206821 0.01563553646797643 0 0.1942202358206821 0.01563553646797643 0 0.1825807045479238 0.015503747719699659 0 0.1867264424939919 0.024617999387587321 0 0.19916170871879929 0.0288715433767203 0 0.1942202358206821 0.01563553646797643 0 0.1867264424939919 0.024617999387587321 0 0.20681538404149369 0.0081235103108312241 0 0.1942202358206821 0.01563553646797643 0 0.188810358682136 0.001653760543012469 0 0.1942202358206821 0.01563553646797643 0 0.188810358682136 0.001653760543012469 0 0.1825807045479238 0.015503747719699659 0 0.2244090171250753 0.05679196534603291 0 0.2072115760905672 0.060297573774381392 0 0.213492380943579 0.046679482283527363 0 0.20422428967674031 0.05069161973144818 0 0.2072115760905672 0.060297573774381392 0 0.213492380943579 0.046679482283527363 0 0.2156395265582485 0.030867914327742229 0 0.213492380943579 0.046679482283527363 0 0.2058876432497769 0.042040934635213092 0 0.2156395265582485 0.030867914327742229 0 0.19916170871879929 0.0288715433767203 0 0.20345364823149059 0.034167844127696502 0 0.2156395265582485 0.030867914327742229 0 0.20345364823149059 0.034167844127696502 0 0.2058876432497769 0.042040934635213092 0 0.20422428967674031 0.05069161973144818 0 0.213492380943579 0.046679482283527363 0 0.2058876432497769 0.042040934635213092 0 0.20345364823149059 0.034167844127696502 0 0.2058876432497769 0.042040934635213092 0 0.19800712902650919 0.044450785557046998 0 0.19916170871879929 0.0288715433767203 0 0.20345364823149059 0.034167844127696502 0 0.18713777648527469 0.033426410116313643 0 0.20345364823149059 0.034167844127696502 0 0.19800712902650919 0.044450785557046998 0 0.18713777648527469 0.033426410116313643 0 0.20345364823149059 0.034167844127696502 0 0.18713777648527469 0.033426410116313643 0 0.20422428967674031 0.05069161973144818 0 0.2058876432497769 0.042040934635213092 0 0.19800712902650919 0.044450785557046998 0 0.19800712902650919 0.044450785557046998 0 0.18836080978509709 0.04511689522990428 0 0.18713777648527469 0.033426410116313643 0 0.1965803304574201 0.068636755197029609 0 0.2072115760905672 0.060297573774381392 0 0.1907664088505277 0.057831144257328229 0 0.19800712902650919 0.044450785557046998 0 0.18836080978509709 0.04511689522990428 0 0.1907664088505277 0.057831144257328229 0 0.19800712902650919 0.044450785557046998 0 0.1907664088505277 0.057831144257328229 0 0.20422428967674031 0.05069161973144818 0 0.2072115760905672 0.060297573774381392 0 0.1907664088505277 0.057831144257328229 0 0.20422428967674031 0.05069161973144818 0 0.19800712902650919 0.044450785557046998 0 0.1907664088505277 0.057831144257328229 0 0.17833676422430891 0.04720712359025387 0 0.1605323885050241 0.055291908432915302 0 0.18352568867454569 0.071211502957609349 0 0.1907664088505277 0.057831144257328229 0 0.17833676422430891 0.04720712359025387 0 0.18352568867454569 0.071211502957609349 0 0.18836080978509709 0.04511689522990428 0 0.1907664088505277 0.057831144257328229 0 0.17833676422430891 0.04720712359025387 0 0.18713777648527469 0.033426410116313643 0 0.17082190473905881 0.032684976104931367 0 0.18836080978509709 0.04511689522990428 0 0.17833676422430891 0.04720712359025387 0 0.18713777648527469 0.033426410116313643 0 0.17833676422430891 0.04720712359025387 0 0.18713777648527469 0.033426410116313643 0 0.17082190473905881 0.032684976104931367 0 0.19916170871879929 0.0288715433767203 0 0.18713777648527469 0.033426410116313643 0 0.17082190473905881 0.032684976104931367 0 0.17082190473905881 0.032684976104931367 0 0.1508590912157706 0.035371192512473608 0 0.17833676422430891 0.04720712359025387 0 0.1642275742846577 0.042540071594511973 0 0.17082190473905881 0.032684976104931367 0 0.17082190473905881 0.032684976104931367 0 0.1508590912157706 0.035371192512473608 0 0.14775653451395529 0.031636828004968233 0 0.17082190473905881 0.032684976104931367 0 0.14775653451395529 0.031636828004968233 0 0.1642275742846577 0.042540071594511973 0 0.1605323885050241 0.055291908432915302 0 0.1508590912157706 0.035371192512473608 0 0.1642275742846577 0.042540071594511973 0 0.17082190473905881 0.032684976104931367 0 0.1508590912157706 0.035371192512473608 0 0.17833676422430891 0.04720712359025387 0 0.1642275742846577 0.042540071594511973 0 0.1605323885050241 0.055291908432915302 0 0.188810358682136 0.001653760543012469 0 0.17315622863708999 0.0069130704046761401 0 0.17379024406466809 -0.0051448253471361076 0 0.188810358682136 0.001653760543012469 0 0.17315622863708999 0.0069130704046761401 0 0.1825807045479238 0.015503747719699659 0 0.17315622863708999 0.0069130704046761401 0 0.1825807045479238 0.015503747719699659 0 0.17048406046699971 0.019167436652876801 0 0.19916170871879929 0.0288715433767203 0 0.17082190473905881 0.032684976104931367 0 0.1867264424939919 0.024617999387587321 0 0.17082190473905881 0.032684976104931367 0 0.1776532780619936 0.02299353996627379 0 0.1867264424939919 0.024617999387587321 0 0.19916170871879929 0.0288715433767203 0 0.17082190473905881 0.032684976104931367 0 0.1825807045479238 0.015503747719699659 0 0.1776532780619936 0.02299353996627379 0 0.17048406046699971 0.019167436652876801 0 0.1825807045479238 0.015503747719699659 0 0.1776532780619936 0.02299353996627379 0 0.1867264424939919 0.024617999387587321 0 0.17082190473905881 0.032684976104931367 0 0.1776532780619936 0.02299353996627379 0 0.17048406046699971 0.019167436652876801 0 0.17082190473905881 0.032684976104931367 0 0.15909566168075459 0.02548728125177779 0 0.14775653451395529 0.031636828004968233 0 0.17082190473905881 0.032684976104931367 0 0.15909566168075459 0.02548728125177779 0 0.17048406046699971 0.019167436652876801 0 0.15909566168075459 0.02548728125177779 0 0.16089868501665641 0.01171909019376152 0 0.15039985433938921 0.016923378292718911 0 0.15909566168075459 0.02548728125177779 0 0.17048406046699971 0.019167436652876801 0 0.16089868501665641 0.01171909019376152 0 0.17315622863708999 0.0069130704046761401 0 0.17048406046699971 0.019167436652876801 0 0.16089868501665641 0.01171909019376152 0 0.16089868501665641 0.01171909019376152 0 0.15037820031583721 0.002661057603983683 0 0.16288979187378999 -0.0015153279663161589 0 0.17315622863708999 0.0069130704046761401 0 0.16089868501665641 0.01171909019376152 0 0.16288979187378999 -0.0015153279663161589 0 0.17315622863708999 0.0069130704046761401 0 0.17379024406466809 -0.0051448253471361076 0 0.16288979187378999 -0.0015153279663161589 0 0.15037820031583721 0.002661057603983683 0 0.1424072625927677 0.010574815361096441 0 0.13760439479590361 0.00073270495442658609 0 0.16089868501665641 0.01171909019376152 0 0.15037820031583721 0.002661057603983683 0 0.15039985433938921 0.016923378292718911 0 0.1424072625927677 0.010574815361096441 0 0.14324408123927679 0.01732092220526155 0 0.15039985433938921 0.016923378292718911 0 0.15037820031583721 0.002661057603983683 0 0.1424072625927677 0.010574815361096441 0 0.15039985433938921 0.016923378292718911 0 0.1424072625927677 0.010574815361096441 0 0.14324408123927679 0.01732092220526155 0 0.13681464923417619 0.01811171252551784 0 0.14324408123927679 0.01732092220526155 0 0.14335455879077391 0.023673782641713 0 0.13681464923417619 0.01811171252551784 0 0.15039985433938921 0.016923378292718911 0 0.15015165233121819 0.02443031754779448 0 0.14335455879077391 0.023673782641713 0 0.14324408123927679 0.01732092220526155 0 0.15039985433938921 0.016923378292718911 0 0.14335455879077391 0.023673782641713 0 0.15909566168075459 0.02548728125177779 0 0.15039985433938921 0.016923378292718911 0 0.15015165233121819 0.02443031754779448 0 0.15909566168075459 0.02548728125177779 0 0.15015165233121819 0.02443031754779448 0 0.14775653451395529 0.031636828004968233 0 0.15015165233121819 0.02443031754779448 0 0.14335455879077391 0.023673782641713 0 0.14775653451395529 0.031636828004968233 0 0.14335455879077391 0.023673782641713 0 0.13654625338619181 0.025038549541414691 0 0.14775653451395529 0.031636828004968233 0 0.1246911642888517 0.030588679905005661 0 0.13654625338619181 0.025038549541414691 0 0.14775653451395529 0.031636828004968233 0 0.1246911642888517 0.030588679905005661 0 0.14775653451395529 0.031636828004968233 0 0.1246911642888517 0.030588679905005661 0 0.13654625338619181 0.025038549541414691 0 0.12927460035918831 0.02094691615923621 0 0.123838524536956 0.016344848775870151 0 0.12927460035918831 0.02094691615923621 0 0.13029881915510391 0.0097775885375725874 0 0.12927460035918831 0.02094691615923621 0 0.13681464923417619 0.01811171252551784 0 0.13029881915510391 0.0097775885375725874 0 0.13654625338619181 0.025038549541414691 0 0.12927460035918831 0.02094691615923621 0 0.13681464923417619 0.01811171252551784 0 0.14335455879077391 0.023673782641713 0 0.13654625338619181 0.025038549541414691 0 0.13681464923417619 0.01811171252551784 0 0.1424072625927677 0.010574815361096441 0 0.13681464923417619 0.01811171252551784 0 0.13029881915510391 0.0097775885375725874 0 0.13029881915510391 0.0097775885375725874 0 0.13760439479590361 0.00073270495442658609 0 0.1229139003049859 -0.0047206540506318957 0 0.1424072625927677 0.010574815361096441 0 0.13029881915510391 0.0097775885375725874 0 0.13760439479590361 0.00073270495442658609 0 0.1605323885050241 0.055291908432915302 0 0.14408360945475501 0.05872740726871551 0 0.13753908833550449 0.039372313908218437 0 0.1605323885050241 0.055291908432915302 0 0.13753908833550449 0.039372313908218437 0 0.1605323885050241 0.055291908432915302 0 0.14408360945475501 0.05872740726871551 0 0.1550639958771769 0.066999929814519812 0 0.1508590912157706 0.035371192512473608 0 0.13089627769248219 0.038057408920015287 0 0.1605323885050241 0.055291908432915302 0 0.1508590912157706 0.035371192512473608 0 0.13753908833550449 0.039372313908218437 0 0.1508590912157706 0.035371192512473608 0 0.14775653451395529 0.031636828004968233 0 0.13089627769248219 0.038057408920015287 0 0.1508590912157706 0.035371192512473608 0 0.13753908833550449 0.039372313908218437 0 0.13089627769248219 0.038057408920015287 0 0.13753908833550449 0.039372313908218437 0 0.13089627769248219 0.038057408920015287 0 0.13115230097712521 0.048321390725121649 0 0.1246911642888517 0.030588679905005661 0 0.14775653451395529 0.031636828004968233 0 0.13089627769248219 0.038057408920015287 0 0.14408360945475501 0.05872740726871551 0 0.13753908833550449 0.039372313908218437 0 0.13115230097712521 0.048321390725121649 0 0.14408360945475501 0.05872740726871551 0 0.13115230097712521 0.048321390725121649 0 0.13015585295687879 0.060093082178361373 0 0.13015585295687879 0.060093082178361373 0 0.14937824174456321 0.079442539029168396 0 0.13402517796028271 0.07937604241236057 0 0.1197453348056038 0.075694955066267361 0 0.13015585295687879 0.060093082178361373 0 0.13402517796028271 0.07937604241236057 0 0.13015585295687879 0.060093082178361373 0 0.14937824174456321 0.079442539029168396 0 0.14408360945475501 0.05872740726871551 0 0.13015585295687879 0.060093082178361373 0 0.14937824174456321 0.079442539029168396 0 0.14408360945475501 0.05872740726871551 0 0.1550639958771769 0.066999929814519812 0 0.14937824174456321 0.079442539029168396 0 0.14937824174456321 0.079442539029168396 0 0.14424821617976549 0.089375373950828799 0 0.15304754293924469 0.098573305383789459 0 0.14937824174456321 0.079442539029168396 0 0.14424821617976549 0.089375373950828799 0 0.13402517796028271 0.07937604241236057 0 0.1197453348056038 0.075694955066267361 0 0.13402517796028271 0.07937604241236057 0 0.12659824411460241 0.09227426183717688 0 0.14424821617976549 0.089375373950828799 0 0.13402517796028271 0.07937604241236057 0 0.12659824411460241 0.09227426183717688 0 0.14424821617976549 0.089375373950828799 0 0.1351927635028054 0.1007026202427999 0 0.14221661014138551 0.1120385293563481 0 0.14424821617976549 0.089375373950828799 0 0.12659824411460241 0.09227426183717688 0 0.1351927635028054 0.1007026202427999 0 0.12659824411460241 0.09227426183717688 0 0.1282086201577767 0.10745729352807019 0 0.1351927635028054 0.1007026202427999 0 0.1282086201577767 0.10745729352807019 0 0.1351927635028054 0.1007026202427999 0 0.14221661014138551 0.1120385293563481 0 0.12400789559134399 0.1189051747164452 0 0.13283369905673931 0.1273485062168532 0 0.14221661014138551 0.1120385293563481 0 0.14018500410300649 0.13470168476186739 0 0.13283369905673931 0.1273485062168532 0 0.14221661014138551 0.1120385293563481 0 0.12400789559134399 0.1189051747164452 0 0.1282086201577767 0.10745729352807019 0 0.14221661014138551 0.1120385293563481 0 0.14018500410300649 0.13470168476186739 0 0.14221661014138551 0.1120385293563481 0 0.15298740166427019 0.12764418152528209 0 0.14221661014138551 0.1120385293563481 0 0.16079401609825991 0.1132180887026281 0 0.14018500410300649 0.13470168476186739 0 0.15298740166427019 0.12764418152528209 0 0.14221661014138551 0.1120385293563481 0 0.14221661014138551 0.1120385293563481 0 0.15304754293924469 0.098573305383789459 0 0.16079401609825991 0.1132180887026281 0 0.14424821617976549 0.089375373950828799 0 0.14221661014138551 0.1120385293563481 0 0.14424821617976549 0.089375373950828799 0 0.14221661014138551 0.1120385293563481 0 0.15304754293924469 0.098573305383789459 0 0.15304754293924469 0.098573305383789459 0 0.168600630532249 0.098791995879973726 0 0.16079401609825991 0.1132180887026281 0 0.168600630532249 0.098791995879973726 0 0.16079401609825991 0.1132180887026281 0 0.17180256638865921 0.10201509787718541 0 0.168600630532249 0.098791995879973726 0 0.16079401609825991 0.1132180887026281 0 0.17180256638865921 0.10201509787718541 0 0.168600630532249 0.098791995879973726 0 0.17180256638865921 0.10201509787718541 0 0.168600630532249 0.098791995879973726 0 0.1718844539869174 0.092723713352279469 0 0.17180256638865921 0.10201509787718541 0 0.1718844539869174 0.092723713352279469 0 0.168600630532249 0.098791995879973726 0 0.1718844539869174 0.092723713352279469 0 0.168600630532249 0.098791995879973726 0 0.17189795834951421 0.091191439500055912 0 0.1718844539869174 0.092723713352279469 0 0.15298740166427019 0.12764418152528209 0 0.16474955894065621 0.12879108519773161 0 0.1716674460367304 0.117346542119276 0 0.15298740166427019 0.12764418152528209 0 0.16079401609825991 0.1132180887026281 0 0.1716674460367304 0.117346542119276 0 0.15298740166427019 0.12764418152528209 0 0.1716674460367304 0.117346542119276 0 0.15298740166427019 0.12764418152528209 0 0.16079401609825991 0.1132180887026281 0 0.17180256638865921 0.10201509787718541 0 0.16079401609825991 0.1132180887026281 0 0.1716674460367304 0.117346542119276 0 0.17180256638865921 0.10201509787718541 0 0.1716674460367304 0.117346542119276 0 0.17794612972432999 0.1253354469846969 0 0.1716674460367304 0.117346542119276 0 0.18092552190815689 0.1185693699234735 0 0.1716674460367304 0.117346542119276 0 0.18159601009643089 0.1118732803610238 0 0.18092552190815689 0.1185693699234735 0 0.17180256638865921 0.10201509787718541 0 0.1716674460367304 0.117346542119276 0 0.18159601009643089 0.1118732803610238 0 0.1716674460367304 0.117346542119276 0 0.18159601009643089 0.1118732803610238 0 0.1880312920192698 0.1179542481226702 0 0.18159601009643089 0.1118732803610238 0 0.18092552190815689 0.1185693699234735 0 0.18434352107189581 0.12574929339711019 0 0.1880312920192698 0.1179542481226702 0 0.18092552190815689 0.1185693699234735 0 0.18434352107189581 0.12574929339711019 0 0.17794612972432999 0.1253354469846969 0 0.18092552190815689 0.1185693699234735 0 0.17180256638865921 0.10201509787718541 0 0.17804472036611479 0.097424058632957361 0 0.1718844539869174 0.092723713352279469 0 0.17180256638865921 0.10201509787718541 0 0.17804472036611479 0.097424058632957361 0 0.18267397559014481 0.1030207931418497 0 0.17804472036611479 0.097424058632957361 0 0.1820038864975185 0.092069024312472089 0 0.1718844539869174 0.092723713352279469 0 0.17180256638865921 0.10201509787718541 0 0.18159601009643089 0.1118732803610238 0 0.18267397559014481 0.1030207931418497 0 0.17180256638865921 0.10201509787718541 0 0.18159601009643089 0.1118732803610238 0 0.17804472036611479 0.097424058632957361 0 0.18267397559014481 0.1030207931418497 0 0.18598610378028521 0.096572147662314728 0 0.17804472036611479 0.097424058632957361 0 0.18598610378028521 0.096572147662314728 0 0.1820038864975185 0.092069024312472089 0 0.1917663712974329 0.089690621148172917 0 0.1820038864975185 0.092069024312472089 0 0.1824615380570149 0.084541548462737523 0 0.1917663712974329 0.089690621148172917 0 0.18598610378028521 0.096572147662314728 0 0.1820038864975185 0.092069024312472089 0 0.17189795834951421 0.091191439500055912 0 0.18352568867454569 0.071211502957609349 0 0.1718844539869174 0.092723713352279469 0 0.18352568867454569 0.071211502957609349 0 0.1718844539869174 0.092723713352279469 0 0.17189795834951421 0.091191439500055912 0 0.18352568867454569 0.071211502957609349 0 0.1662617438043652 0.07453786452728009 0 0.1824615380570149 0.084541548462737523 0 0.18352568867454569 0.071211502957609349 0 0.1718844539869174 0.092723713352279469 0 0.1820038864975185 0.092069024312472089 0 0.1824615380570149 0.084541548462737523 0 0.1718844539869174 0.092723713352279469 0 0.17189795834951421 0.091191439500055912 0 0.1718844539869174 0.092723713352279469 0 0.1605323885050241 0.055291908432915302 0 0.18352568867454569 0.071211502957609349 0 0.1907664088505277 0.057831144257328229 0 0.18352568867454569 0.071211502957609349 0 0.1605323885050241 0.055291908432915302 0 0.18352568867454569 0.071211502957609349 0 0.1662617438043652 0.07453786452728009 0 0.1605323885050241 0.055291908432915302 0 0.1550639958771769 0.066999929814519812 0 0.1662617438043652 0.07453786452728009 0 0.1550639958771769 0.066999929814519812 0 0.14937824174456321 0.079442539029168396 0 0.1662617438043652 0.07453786452728009 0 0.14937824174456321 0.079442539029168396 0 0.17189795834951421 0.091191439500055912 0 0.1662617438043652 0.07453786452728009 0 0.14937824174456321 0.079442539029168396 0 0.168600630532249 0.098791995879973726 0 0.17189795834951421 0.091191439500055912 0 0.14937824174456321 0.079442539029168396 0 0.15304754293924469 0.098573305383789459 0 0.168600630532249 0.098791995879973726 0 0.14937824174456321 0.079442539029168396 0 0.168600630532249 0.098791995879973726 0 0.094198517114993136 0.477070822493183 0 0.1150790943589818 0.48220453878635672 0 0.1105797381051056 0.46254418561595462 0 0.094198517114993136 0.477070822493183 0 0.095302532269580353 0.5 0 0.1150790943589818 0.48220453878635672 0 0.095302532269580353 0.5 0 0.12457094632147819 0.50000000000000044 0 0.1150790943589818 0.48220453878635672 0 0.1150790943589818 0.48220453878635672 0 0.1105797381051056 0.46254418561595462 0 0.1251756618815047 0.46682306625943959 0 0.1105797381051056 0.46254418561595462 0 0.1245588313953044 0.44862432540995739 0 0.1251756618815047 0.46682306625943959 0 0.1105797381051056 0.46254418561595462 0 0.1245588313953044 0.44862432540995739 0 0.1052883006965655 0.44608526466880372 0 0.1245588313953044 0.44862432540995739 0 0.1052883006965655 0.44608526466880372 0 0.1193868527292811 0.42954757301112673 0 0.1052883006965655 0.44608526466880372 0 0.08211695350880896 0.44720963800175079 0 0.10139561983185071 0.42877809817002882 0 0.1105797381051056 0.46254418561595462 0 0.1052883006965655 0.44608526466880372 0 0.093691808609040236 0.45980776780400218 0 0.094198517114993136 0.477070822493183 0 0.1105797381051056 0.46254418561595462 0 0.093691808609040236 0.45980776780400218 0 0.093691808609040236 0.45980776780400218 0 0.07873099807603999 0.46810621906320138 0 0.08211695350880896 0.44720963800175079 0 0.07873099807603999 0.46810621906320138 0 0.08211695350880896 0.44720963800175079 0 0.094198517114993136 0.477070822493183 0 0.093691808609040236 0.45980776780400218 0 0.07873099807603999 0.46810621906320138 0 0.08211695350880896 0.44720963800175079 0 0.10139561983185071 0.42877809817002882 0 0.1052883006965655 0.44608526466880372 0 0.093691808609040236 0.45980776780400218 0 0.08211695350880896 0.44720963800175079 0 0.08211695350880896 0.44720963800175079 0 0.064328543093375656 0.44291951023094162 0 0.070371664607530651 0.45843882557062221 0 0.08211695350880896 0.44720963800175079 0 0.064328543093375656 0.44291951023094162 0 0.064533893743886669 0.42447289749380579 0 0.08211695350880896 0.44720963800175079 0 0.070371664607530651 0.45843882557062221 0 0.07873099807603999 0.46810621906320138 0 0.08211695350880896 0.44720963800175079 0 0.070371664607530651 0.45843882557062221 0 0.07873099807603999 0.46810621906320138 0 0.070371664607530651 0.45843882557062221 0 0.068982321402090013 0.46885683188462379 0 0.070371664607530651 0.45843882557062221 0 0.058626375706250428 0.4696680131394913 0 0.070371664607530651 0.45843882557062221 0 0.068982321402090013 0.46885683188462379 0 0.058626375706250428 0.4696680131394913 0 0.068982321402090013 0.46885683188462379 0 0.070590868948209734 0.48251041812476553 0 0.058626375706250428 0.4696680131394913 0 0.07873099807603999 0.46810621906320138 0 0.068982321402090013 0.46885683188462379 0 0.070590868948209734 0.48251041812476553 0 0.094198517114993136 0.477070822493183 0 0.07873099807603999 0.46810621906320138 0 0.070590868948209734 0.48251041812476553 0 0.094198517114993136 0.477070822493183 0 0.095302532269580353 0.5 0 0.070590868948209734 0.48251041812476553 0 0.095302532269580353 0.5 0 0.070590868948209734 0.48251041812476553 0 0.066034118217682458 0.5 0 0.070590868948209734 0.48251041812476553 0 0.066034118217682458 0.5 0 0.048808070438196932 0.48429620036928661 0 0.066034118217682458 0.5 0 0.048808070438196932 0.48429620036928661 0 0.036765704165784618 0.5 0 0.070590868948209734 0.48251041812476553 0 0.058626375706250428 0.4696680131394913 0 0.048808070438196932 0.48429620036928661 0 0.058626375706250428 0.4696680131394913 0 0.048808070438196932 0.48429620036928661 0 0.0442457231001585 0.47014155035455601 0 0.0442457231001585 0.47014155035455601 0 0.0282465397963803 0.4830550105351693 0 0.03429451396341527 0.45703820018781549 0 0.048808070438196932 0.48429620036928661 0 0.0442457231001585 0.47014155035455601 0 0.0282465397963803 0.4830550105351693 0 0.048808070438196932 0.48429620036928661 0 0.036765704165784618 0.5 0 0.0282465397963803 0.4830550105351693 0 0.036765704165784618 0.5 0 0.0282465397963803 0.4830550105351693 0 0.0074972901138868342 0.5 0 0.0282465397963803 0.4830550105351693 0 0.004665909452408884 0.48062913602120122 0 0.015081558961831771 0.46425610565583703 0 0.0282465397963803 0.4830550105351693 0 0.004665909452408884 0.48062913602120122 0 -0.0027201110069152092 0.46645824183213258 0 0.004665909452408884 0.48062913602120122 0 0.015081558961831771 0.46425610565583703 0 0.0282465397963803 0.4830550105351693 0 0.004665909452408884 0.48062913602120122 0 0.0074972901138868342 0.5 0 -0.0071306613158194669 0.48970809938210857 0 0.004665909452408884 0.48062913602120122 0 0.0074972901138868342 0.5 0 0.00076964137276068554 0.45088725606244762 0 0.019696899884500949 0.43868366613072679 0 0.0017946831326668151 0.43318892200657833 0 0.00076964137276068554 0.45088725606244762 0 0.015081558961831771 0.46425610565583703 0 0.019696899884500949 0.43868366613072679 0 -0.0027201110069152092 0.46645824183213258 0 0.00076964137276068554 0.45088725606244762 0 0.015081558961831771 0.46425610565583703 0 0.0282465397963803 0.4830550105351693 0 0.015081558961831771 0.46425610565583703 0 0.03429451396341527 0.45703820018781549 0 0.015081558961831771 0.46425610565583703 0 0.019696899884500949 0.43868366613072679 0 0.03429451396341527 0.45703820018781549 0 0.019696899884500949 0.43868366613072679 0 0.03429451396341527 0.45703820018781549 0 0.042115396814193802 0.43157828181226632 0 0.03429451396341527 0.45703820018781549 0 0.052671793616110497 0.45489472947971771 0 0.042115396814193802 0.43157828181226632 0 0.0442457231001585 0.47014155035455601 0 0.03429451396341527 0.45703820018781549 0 0.052671793616110497 0.45489472947971771 0 0.070371664607530651 0.45843882557062221 0 0.058626375706250428 0.4696680131394913 0 0.052671793616110497 0.45489472947971771 0 0.058626375706250428 0.4696680131394913 0 0.0442457231001585 0.47014155035455601 0 0.052671793616110497 0.45489472947971771 0 0.064328543093375656 0.44291951023094162 0 0.052671793616110497 0.45489472947971771 0 0.042115396814193802 0.43157828181226632 0 0.064328543093375656 0.44291951023094162 0 0.070371664607530651 0.45843882557062221 0 0.052671793616110497 0.45489472947971771 0 0.042115396814193802 0.43157828181226632 0 0.064533893743886669 0.42447289749380579 0 0.064328543093375656 0.44291951023094162 0 0.042115396814193802 0.43157828181226632 0 0.064533893743886669 0.42447289749380579 0 0.044746721836313931 0.40803301924904978 0 0.042115396814193802 0.43157828181226632 0 0.064533893743886669 0.42447289749380579 0 0.044746721836313931 0.40803301924904978 0 0.06860809462679765 0.40107665131005849 0 0.064533893743886669 0.42447289749380579 0 0.044746721836313931 0.40803301924904978 0 0.042115396814193802 0.43157828181226632 0 0.020450555168797301 0.41615539740598528 0 0.019696899884500949 0.43868366613072679 0 0.042115396814193802 0.43157828181226632 0 0.020450555168797301 0.41615539740598528 0 0.019696899884500949 0.43868366613072679 0 0.042115396814193802 0.43157828181226632 0 -0.0002355237070055895 0.41457280431765953 0 0.020450555168797301 0.41615539740598528 0 0.0045512962674828534 0.39931916271626461 0 -0.0002355237070055895 0.41457280431765953 0 0.020450555168797301 0.41615539740598528 0 0.0017946831326668151 0.43318892200657833 0 0.019696899884500949 0.43868366613072679 0 0.020450555168797301 0.41615539740598528 0 0.0017946831326668151 0.43318892200657833 0 0.0035438281903425049 0.38455553050149388 0 0.018385791246851149 0.3913070483737332 0 0.01251768377409644 0.36672151243411327 0 0.018385791246851149 0.3913070483737332 0 0.01251768377409644 0.36672151243411327 0 0.020450555168797301 0.41615539740598528 0 0.0045512962674828534 0.39931916271626461 0 0.018385791246851149 0.3913070483737332 0 0.0035438281903425049 0.38455553050149388 0 0.0045512962674828534 0.39931916271626461 0 0.018385791246851149 0.3913070483737332 0 0.044746721836313931 0.40803301924904978 0 0.020450555168797301 0.41615539740598528 0 0.018385791246851149 0.3913070483737332 0 0.018385791246851149 0.3913070483737332 0 0.040433463216438953 0.38298694762030228 0 0.027730450049241771 0.36313858818432382 0 0.044746721836313931 0.40803301924904978 0 0.018385791246851149 0.3913070483737332 0 0.040433463216438953 0.38298694762030228 0 0.044746721836313931 0.40803301924904978 0 0.040433463216438953 0.38298694762030228 0 0.06860809462679765 0.40107665131005849 0 0.040433463216438953 0.38298694762030228 0 0.067076419270815396 0.3753247375514247 0 0.06860809462679765 0.40107665131005849 0 0.067076419270815396 0.3753247375514247 0 0.091209622217243685 0.39109381116831471 0 0.06860809462679765 0.40107665131005849 0 0.067076419270815396 0.3753247375514247 0 0.091493716070371281 0.38934051277179799 0 0.091209622217243685 0.39109381116831471 0 0.067076419270815396 0.3753247375514247 0 0.091209622217243685 0.39109381116831471 0 0.091493716070371281 0.38934051277179799 0 0.093222310285032695 0.37876725242216652 0 0.081104324894342522 0.37098179171565993 0 0.067076419270815396 0.3753247375514247 0 0.091493716070371281 0.38934051277179799 0 0.081104324894342522 0.37098179171565993 0 0.091493716070371281 0.38934051277179799 0 0.091209622217243685 0.39109381116831471 0 0.097760755644407574 0.38513152840486359 0 0.091493716070371281 0.38934051277179799 0 0.091209622217243685 0.39109381116831471 0 0.091209622217243685 0.39109381116831471 0 0.086952390673579377 0.41736751317534487 0 0.091209622217243685 0.39109381116831471 0 0.06860809462679765 0.40107665131005849 0 0.086952390673579377 0.41736751317534487 0 0.06860809462679765 0.40107665131005849 0 0.064533893743886669 0.42447289749380579 0 0.086952390673579377 0.41736751317534487 0 0.064533893743886669 0.42447289749380579 0 0.086952390673579377 0.41736751317534487 0 0.08211695350880896 0.44720963800175079 0 0.064533893743886669 0.42447289749380579 0 0.086952390673579377 0.41736751317534487 0 0.08211695350880896 0.44720963800175079 0 0.086952390673579377 0.41736751317534487 0 0.10139561983185071 0.42877809817002882 0 0.08211695350880896 0.44720963800175079 0 0.086952390673579377 0.41736751317534487 0 0.091209622217243685 0.39109381116831471 0 0.086952390673579377 0.41736751317534487 0 0.092828524303314577 0.41550511410921542 0 0.086952390673579377 0.41736751317534487 0 0.092828524303314577 0.41550511410921542 0 0.10139561983185071 0.42877809817002882 0 0.086952390673579377 0.41736751317534487 0 0.092828524303314577 0.41550511410921542 0 0.092828524303314577 0.41550511410921542 0 0.1206742861548919 0.41034655833830619 0 0.10594195418606769 0.40072018475331062 0 0.092828524303314577 0.41550511410921542 0 0.10139561983185071 0.42877809817002882 0 0.1206742861548919 0.41034655833830619 0 0.1052883006965655 0.44608526466880372 0 0.10139561983185071 0.42877809817002882 0 0.1193868527292811 0.42954757301112673 0 0.10139561983185071 0.42877809817002882 0 0.1193868527292811 0.42954757301112673 0 0.1206742861548919 0.41034655833830619 0 0.10139561983185071 0.42877809817002882 0 0.1206742861548919 0.41034655833830619 0 0.1193868527292811 0.42954757301112673 0 0.1206742861548919 0.41034655833830619 0 0.13223701418828021 0.41790185507928762 0 0.1206742861548919 0.41034655833830619 0 0.1171422697284184 0.38987075263093668 0 0.10594195418606769 0.40072018475331062 0 0.1206742861548919 0.41034655833830619 0 0.10594195418606769 0.40072018475331062 0 0.1171422697284184 0.38987075263093668 0 0.10574371954728649 0.38107393078877749 0 0.116576803709314 0.37235565031961249 0 0.1171422697284184 0.38987075263093668 0 0.116576803709314 0.37235565031961249 0 0.12682402122345621 0.38155992324986981 0 0.1171422697284184 0.38987075263093668 0 0.1048124571955867 0.39011604104741771 0 0.10574371954728649 0.38107393078877749 0 0.1048124571955867 0.39011604104741771 0 0.10574371954728649 0.38107393078877749 0 0.097760755644407574 0.38513152840486359 0 0.10574371954728649 0.38107393078877749 0 0.099581454563832716 0.37690334004171872 0 0.10563689884331159 0.37123632874870333 0 0.10574371954728649 0.38107393078877749 0 0.099581454563832716 0.37690334004171872 0 0.097760755644407574 0.38513152840486359 0 0.093222310285032695 0.37876725242216652 0 0.099581454563832716 0.37690334004171872 0 0.097760755644407574 0.38513152840486359 0 0.091493716070371281 0.38934051277179799 0 0.093222310285032695 0.37876725242216652 0 0.097760755644407574 0.38513152840486359 0 0.091209622217243685 0.39109381116831471 0 0.1048124571955867 0.39011604104741771 0 0.097760755644407574 0.38513152840486359 0 0.091209622217243685 0.39109381116831471 0 0.092828524303314577 0.41550511410921542 0 0.10594195418606769 0.40072018475331062 0 0.091209622217243685 0.39109381116831471 0 0.1048124571955867 0.39011604104741771 0 0.10594195418606769 0.40072018475331062 0 0.091209622217243685 0.39109381116831471 0 0.10594195418606769 0.40072018475331062 0 0.1171422697284184 0.38987075263093668 0 0.1048124571955867 0.39011604104741771 0 0.10594195418606769 0.40072018475331062 0 0.09661349456947893 0.34691519224521228 0 0.095543588499125143 0.36830765984408248 0 0.1095117089697767 0.35894511357853259 0 0.099581454563832716 0.37690334004171872 0 0.095543588499125143 0.36830765984408248 0 0.10563689884331159 0.37123632874870333 0 0.093222310285032695 0.37876725242216652 0 0.099581454563832716 0.37690334004171872 0 0.095543588499125143 0.36830765984408248 0 0.10574371954728649 0.38107393078877749 0 0.10563689884331159 0.37123632874870333 0 0.116576803709314 0.37235565031961249 0 0.095543588499125143 0.36830765984408248 0 0.10563689884331159 0.37123632874870333 0 0.1095117089697767 0.35894511357853259 0 0.116576803709314 0.37235565031961249 0 0.1095117089697767 0.35894511357853259 0 0.12549743850848091 0.3582220043772405 0 0.10563689884331159 0.37123632874870333 0 0.116576803709314 0.37235565031961249 0 0.1095117089697767 0.35894511357853259 0 0.09661349456947893 0.34691519224521228 0 0.1095117089697767 0.35894511357853259 0 0.1234486336920248 0.34059495640055099 0 0.1095117089697767 0.35894511357853259 0 0.1234486336920248 0.34059495640055099 0 0.12549743850848091 0.3582220043772405 0 0.09661349456947893 0.34691519224521228 0 0.1234486336920248 0.34059495640055099 0 0.1234486336920248 0.34059495640055099 0 0.119777836565921 0.3262924188833779 0 0.1050179293114674 0.32671958256521749 0 0.119777836565921 0.3262924188833779 0 0.11452902872101101 0.31249070351251301 0 0.13568155980404001 0.3248942194652682 0 0.119777836565921 0.3262924188833779 0 0.1050179293114674 0.32671958256521749 0 0.11452902872101101 0.31249070351251301 0 0.1050179293114674 0.32671958256521749 0 0.087909925262874902 0.32720764869604491 0 0.1009864535828012 0.31008620604317949 0 0.1050179293114674 0.32671958256521749 0 0.1009864535828012 0.31008620604317949 0 0.11452902872101101 0.31249070351251301 0 0.09661349456947893 0.34691519224521228 0 0.1050179293114674 0.32671958256521749 0 0.087909925262874902 0.32720764869604491 0 0.09661349456947893 0.34691519224521228 0 0.1234486336920248 0.34059495640055099 0 0.1050179293114674 0.32671958256521749 0 0.09661349456947893 0.34691519224521228 0 0.087909925262874902 0.32720764869604491 0 0.069778355446933088 0.35323542808987363 0 0.087909925262874902 0.32720764869604491 0 0.073092233663841696 0.31156874185786942 0 0.1009864535828012 0.31008620604317949 0 0.06927761351039427 0.3300223053771148 0 0.045198013744882248 0.31305127767255919 0 0.073092233663841696 0.31156874185786942 0 0.087909925262874902 0.32720764869604491 0 0.06927761351039427 0.3300223053771148 0 0.073092233663841696 0.31156874185786942 0 0.06927761351039427 0.3300223053771148 0 0.069778355446933088 0.35323542808987363 0 0.052934179291030461 0.33473068876137207 0 0.087909925262874902 0.32720764869604491 0 0.06927761351039427 0.3300223053771148 0 0.069778355446933088 0.35323542808987363 0 0.09661349456947893 0.34691519224521228 0 0.069778355446933088 0.35323542808987363 0 0.09661349456947893 0.34691519224521228 0 0.069778355446933088 0.35323542808987363 0 0.081104324894342522 0.37098179171565993 0 0.09661349456947893 0.34691519224521228 0 0.095543588499125143 0.36830765984408248 0 0.081104324894342522 0.37098179171565993 0 0.093222310285032695 0.37876725242216652 0 0.095543588499125143 0.36830765984408248 0 0.081104324894342522 0.37098179171565993 0 0.067076419270815396 0.3753247375514247 0 0.069778355446933088 0.35323542808987363 0 0.081104324894342522 0.37098179171565993 0 0.040433463216438953 0.38298694762030228 0 0.067076419270815396 0.3753247375514247 0 0.042943216324387162 0.35955566393453492 0 0.067076419270815396 0.3753247375514247 0 0.069778355446933088 0.35323542808987363 0 0.042943216324387162 0.35955566393453492 0 0.067076419270815396 0.3753247375514247 0 0.042943216324387162 0.35955566393453492 0 0.069778355446933088 0.35323542808987363 0 0.042943216324387162 0.35955566393453492 0 0.069778355446933088 0.35323542808987363 0 0.045355362878620201 0.34617489172229138 0 0.042943216324387162 0.35955566393453492 0 0.069778355446933088 0.35323542808987363 0 0.045355362878620201 0.34617489172229138 0 0.052934179291030461 0.33473068876137207 0 0.045355362878620201 0.34617489172229138 0 0.034833778301319118 0.35425680967713541 0 0.042943216324387162 0.35955566393453492 0 0.034833778301319118 0.35425680967713541 0 0.042943216324387162 0.35955566393453492 0 0.027730450049241771 0.36313858818432382 0 0.034833778301319118 0.35425680967713541 0 0.042943216324387162 0.35955566393453492 0 0.045355362878620201 0.34617489172229138 0 0.034833778301319118 0.35425680967713541 0 0.032685042129676961 0.34239122451662568 0 0.040433463216438953 0.38298694762030228 0 0.042943216324387162 0.35955566393453492 0 0.027730450049241771 0.36313858818432382 0 0.042943216324387162 0.35955566393453492 0 0.027730450049241771 0.36313858818432382 0 0.018385791246851149 0.3913070483737332 0 0.027730450049241771 0.36313858818432382 0 0.01251768377409644 0.36672151243411327 0 0.027730450049241771 0.36313858818432382 0 0.022307282617877639 0.35171955401747662 0 0.01251768377409644 0.36672151243411327 0 0.027730450049241771 0.36313858818432382 0 0.01251768377409644 0.36672151243411327 0 0.034833778301319118 0.35425680967713541 0 0.027730450049241771 0.36313858818432382 0 0.022307282617877639 0.35171955401747662 0 0.022307282617877639 0.35171955401747662 0 0.021358074718360119 0.3406195437646633 0 0.032685042129676961 0.34239122451662568 0 0.034833778301319118 0.35425680967713541 0 0.022307282617877639 0.35171955401747662 0 0.032685042129676961 0.34239122451662568 0 0.022307282617877639 0.35171955401747662 0 0.008419854407455879 0.34955288836992632 0 0.021358074718360119 0.3406195437646633 0 0.008419854407455879 0.34955288836992632 0 0.00038183190451733198 0.35944236195763829 0 0.01251768377409644 0.36672151243411327 0 0.022307282617877639 0.35171955401747662 0 0.008419854407455879 0.34955288836992632 0 0.01251768377409644 0.36672151243411327 0 0.008419854407455879 0.34955288836992632 0 0.01251768377409644 0.36672151243411327 0 -0.0071869989943903478 0.37136237685342322 0 0.01251768377409644 0.36672151243411327 0 -0.0071869989943903478 0.37136237685342322 0 0.00038183190451733198 0.35944236195763829 0 0.01251768377409644 0.36672151243411327 0 -0.0071869989943903478 0.37136237685342322 0 0.0035438281903425049 0.38455553050149388 0 0.01251768377409644 0.36672151243411327 0 -0.00081914683292831376 0.31084436128580528 0 0.0085128201998593694 0.32428032362356402 0 0.0043220250408161527 0.3323842643057392 0 -0.00081914683292831376 0.31084436128580528 0 0.0043220250408161527 0.3323842643057392 0 0.0085128201998593694 0.32428032362356402 0 0.01069175897223788 0.32905694123297952 0 0.01566152387702913 0.32683248830780293 0 0.0085128201998593694 0.32428032362356402 0 0.0058780723270800209 0.33090946127572368 0 0.01069175897223788 0.32905694123297952 0 0.0085128201998593694 0.32428032362356402 0 0.01366064282034022 0.31911454390367561 0 0.01566152387702913 0.32683248830780293 0 0.0085128201998593694 0.32428032362356402 0 0.0080502179124196938 0.31534907821343172 0 0.01366064282034022 0.31911454390367561 0 0.01366064282034022 0.31911454390367561 0 0.016972639596253961 0.31483131761948968 0 0.0083721353845883743 0.3052580275763393 0 0.0080502179124196938 0.31534907821343172 0 0.01366064282034022 0.31911454390367561 0 0.0083721353845883743 0.3052580275763393 0 -0.00081914683292831376 0.31084436128580528 0 0.0085128201998593694 0.32428032362356402 0 0.0080502179124196938 0.31534907821343172 0 0.008419854407455879 0.34955288836992632 0 0.0043220250408161527 0.3323842643057392 0 0.0085128201998593694 0.32428032362356402 0 0.0043220250408161527 0.3323842643057392 0 0.0058780723270800209 0.33090946127572368 0 -0.01265077148324322 0.34847087810117439 0 0.008419854407455879 0.34955288836992632 0 0.0043220250408161527 0.3323842643057392 0 0.008419854407455879 0.34955288836992632 0 0.0043220250408161527 0.3323842643057392 0 0.012714619484983021 0.33420549172482772 0 0.0043220250408161527 0.3323842643057392 0 0.0058780723270800209 0.33090946127572368 0 0.012714619484983021 0.33420549172482772 0 0.0043220250408161527 0.3323842643057392 0 0.0058780723270800209 0.33090946127572368 0 0.008419854407455879 0.34955288836992632 0 0.012714619484983021 0.33420549172482772 0 0.021358074718360119 0.3406195437646633 0 0.0058780723270800209 0.33090946127572368 0 0.01069175897223788 0.32905694123297952 0 0.012714619484983021 0.33420549172482772 0 0.01069175897223788 0.32905694123297952 0 0.012714619484983021 0.33420549172482772 0 0.01566152387702913 0.32683248830780293 0 0.012714619484983021 0.33420549172482772 0 0.021878003539739479 0.33058692540360402 0 0.01566152387702913 0.32683248830780293 0 0.012714619484983021 0.33420549172482772 0 0.021878003539739479 0.33058692540360402 0 0.021358074718360119 0.3406195437646633 0 0.021358074718360119 0.3406195437646633 0 0.02927929362628429 0.33461492565536682 0 0.032685042129676961 0.34239122451662568 0 0.021878003539739479 0.33058692540360402 0 0.02927929362628429 0.33461492565536682 0 0.031517741965270511 0.32659739923773462 0 0.021878003539739479 0.33058692540360402 0 0.021358074718360119 0.3406195437646633 0 0.02927929362628429 0.33461492565536682 0 0.021878003539739479 0.33058692540360402 0 0.02270458947584934 0.32121159688680728 0 0.031517741965270511 0.32659739923773462 0 0.016972639596253961 0.31483131761948968 0 0.045198013744882248 0.31305127767255919 0 0.02270458947584934 0.32121159688680728 0 0.016972639596253961 0.31483131761948968 0 0.045198013744882248 0.31305127767255919 0 0.021878003539739479 0.33058692540360402 0 0.02270458947584934 0.32121159688680728 0 0.01566152387702913 0.32683248830780293 0 0.01366064282034022 0.31911454390367561 0 0.02270458947584934 0.32121159688680728 0 0.01566152387702913 0.32683248830780293 0 0.01366064282034022 0.31911454390367561 0 0.02270458947584934 0.32121159688680728 0 0.016972639596253961 0.31483131761948968 0 0.02270458947584934 0.32121159688680728 0 0.016972639596253961 0.31483131761948968 0 0.045198013744882248 0.31305127767255919 0 0.031517741965270511 0.32659739923773462 0 0.038957605778374357 0.33287953535420661 0 0.02270458947584934 0.32121159688680728 0 0.045198013744882248 0.31305127767255919 0 0.031517741965270511 0.32659739923773462 0 0.045198013744882248 0.31305127767255919 0 0.038957605778374357 0.33287953535420661 0 0.052934179291030461 0.33473068876137207 0 0.02927929362628429 0.33461492565536682 0 0.032685042129676961 0.34239122451662568 0 0.038957605778374357 0.33287953535420661 0 0.045355362878620201 0.34617489172229138 0 0.032685042129676961 0.34239122451662568 0 0.038957605778374357 0.33287953535420661 0 0.02927929362628429 0.33461492565536682 0 0.031517741965270511 0.32659739923773462 0 0.038957605778374357 0.33287953535420661 0 0.045355362878620201 0.34617489172229138 0 0.038957605778374357 0.33287953535420661 0 0.052934179291030461 0.33473068876137207 0 0.06927761351039427 0.3300223053771148 0 0.045198013744882248 0.31305127767255919 0 0.052934179291030461 0.33473068876137207 0 0.045198013744882248 0.31305127767255919 0 0.073092233663841696 0.31156874185786942 0 0.045198013744882248 0.31305127767255919 0 0.052454913306841863 0.30014245358251929 0 0.073092233663841696 0.31156874185786942 0 0.062246070746932627 0.28218780534964272 0 0.059652402888557068 0.29042440745432918 0 0.04975610870108408 0.28574516532593153 0 0.052454913306841863 0.30014245358251929 0 0.059652402888557068 0.29042440745432918 0 0.065019070016984593 0.29847901639000313 0 0.052454913306841863 0.30014245358251929 0 0.059652402888557068 0.29042440745432918 0 0.04975610870108408 0.28574516532593153 0 0.052454913306841863 0.30014245358251929 0 0.04975610870108408 0.28574516532593153 0 0.041474986642063408 0.29662766468580531 0 0.031571596028299391 0.28322514933961862 0 0.041474986642063408 0.29662766468580531 0 0.028394301429209491 0.30097427750839778 0 0.04975610870108408 0.28574516532593153 0 0.031571596028299391 0.28322514933961862 0 0.041474986642063408 0.29662766468580531 0 0.045198013744882248 0.31305127767255919 0 0.052454913306841863 0.30014245358251929 0 0.041474986642063408 0.29662766468580531 0 0.045198013744882248 0.31305127767255919 0 0.041474986642063408 0.29662766468580531 0 0.028394301429209491 0.30097427750839778 0 0.016972639596253961 0.31483131761948968 0 0.045198013744882248 0.31305127767255919 0 0.028394301429209491 0.30097427750839778 0 0.016972639596253961 0.31483131761948968 0 0.016565506025672149 0.30217096539545962 0 0.028394301429209491 0.30097427750839778 0 0.016565506025672149 0.30217096539545962 0 0.028394301429209491 0.30097427750839778 0 0.019526576314311539 0.29250662748013412 0 0.031571596028299391 0.28322514933961862 0 0.019526576314311539 0.29250662748013412 0 0.01325247452900072 0.28362945225441061 0 0.031571596028299391 0.28322514933961862 0 0.028394301429209491 0.30097427750839778 0 0.019526576314311539 0.29250662748013412 0 0.019526576314311539 0.29250662748013412 0 0.0078490035593759659 0.29253329290278413 0 0.01325247452900072 0.28362945225441061 0 -0.0059603187066722824 0.28930445826587109 0 0.0078490035593759659 0.29253329290278413 0 0.0083721353845883743 0.3052580275763393 0 0.016565506025672149 0.30217096539545962 0 0.019526576314311539 0.29250662748013412 0 0.0078490035593759659 0.29253329290278413 0 0.0078490035593759659 0.29253329290278413 0 0.01325247452900072 0.28362945225441061 0 0.004344690325794257 0.28526979657402002 0 0.01325247452900072 0.28362945225441061 0 0.004344690325794257 0.28526979657402002 0 0.0022106927435165528 0.27736271093562509 0 -0.001695392528938093 0.28323646968268817 0 0.004344690325794257 0.28526979657402002 0 0.0022106927435165528 0.27736271093562509 0 -0.0014572192683853351 0.2876382609864131 0 0.0078490035593759659 0.29253329290278413 0 0.004344690325794257 0.28526979657402002 0 -0.001695392528938093 0.28323646968268817 0 -0.0014572192683853351 0.2876382609864131 0 0.004344690325794257 0.28526979657402002 0 -0.0059603187066722824 0.28930445826587109 0 -0.0014572192683853351 0.2876382609864131 0 0.0078490035593759659 0.29253329290278413 0 -0.00081914683292831376 0.31084436128580528 0 -0.0059603187066722824 0.28930445826587109 0 0.0083721353845883743 0.3052580275763393 0 -0.0059603187066722824 0.28930445826587109 0 0.0083721353845883743 0.3052580275763393 0 -0.00081914683292831376 0.31084436128580528 0 0.0080502179124196938 0.31534907821343172 0 0.0083721353845883743 0.3052580275763393 0 0.016972639596253961 0.31483131761948968 0 0.016565506025672149 0.30217096539545962 0 0.0083721353845883743 0.3052580275763393 0 0.016972639596253961 0.31483131761948968 0 0.0083721353845883743 0.3052580275763393 0 0.016565506025672149 0.30217096539545962 0 0.0078490035593759659 0.29253329290278413 0 0.0083721353845883743 0.3052580275763393 0 -0.0012214697552497889 0.26412499552299018 0 0.015589344204555589 0.25238293360822239 0 -0.0012214697552497889 0.26412499552299018 0 -0.0011779531814362859 0.24237928671812051 0 0.015589344204555589 0.25238293360822239 0 -0.0012214697552497889 0.26412499552299018 0 0.015589344204555589 0.25238293360822239 0 0.01470622740507108 0.26847372970999178 0 -0.0012214697552497889 0.26412499552299018 0 0.0022106927435165528 0.27736271093562509 0 0.01470622740507108 0.26847372970999178 0 0.01325247452900072 0.28362945225441061 0 0.0022106927435165528 0.27736271093562509 0 0.01470622740507108 0.26847372970999178 0 0.031571596028299391 0.28322514933961862 0 0.01470622740507108 0.26847372970999178 0 0.031985877096328767 0.261933010516536 0 0.031571596028299391 0.28322514933961862 0 0.01325247452900072 0.28362945225441061 0 0.01470622740507108 0.26847372970999178 0 0.015589344204555589 0.25238293360822239 0 0.01470622740507108 0.26847372970999178 0 0.031985877096328767 0.261933010516536 0 0.03240015816436026 0.2406408716934535 0 0.015589344204555589 0.25238293360822239 0 0.031985877096328767 0.261933010516536 0 0.031985877096328767 0.261933010516536 0 0.045081592589738657 0.2727575837709969 0 0.056094534364332649 0.25914791181566188 0 0.03240015816436026 0.2406408716934535 0 0.031985877096328767 0.261933010516536 0 0.034033081451861388 0.23950030310529871 0 0.031985877096328767 0.261933010516536 0 0.056094534364332649 0.25914791181566188 0 0.031571596028299391 0.28322514933961862 0 0.031985877096328767 0.261933010516536 0 0.031571596028299391 0.28322514933961862 0 0.031985877096328767 0.261933010516536 0 0.045081592589738657 0.2727575837709969 0 0.04975610870108408 0.28574516532593153 0 0.031571596028299391 0.28322514933961862 0 0.045081592589738657 0.2727575837709969 0 0.04975610870108408 0.28574516532593153 0 0.045081592589738657 0.2727575837709969 0 0.059104471966847393 0.27420453448823479 0 0.045081592589738657 0.2727575837709969 0 0.059104471966847393 0.27420453448823479 0 0.056094534364332649 0.25914791181566188 0 0.062246070746932627 0.28218780534964272 0 0.04975610870108408 0.28574516532593153 0 0.059104471966847393 0.27420453448823479 0 0.073851568759987621 0.24943896511838209 0 0.056094534364332649 0.25914791181566188 0 0.078155987276807184 0.27879552052602158 0 0.073851568759987621 0.24943896511838209 0 0.092497282968843395 0.25730746295092738 0 0.078155987276807184 0.27879552052602158 0 0.092497282968843395 0.25730746295092738 0 0.078155987276807184 0.27879552052602158 0 0.092497282968843395 0.25730746295092738 0 0.078155987276807184 0.27879552052602158 0 0.094179686083127406 0.27726916510401473 0 0.059104471966847393 0.27420453448823479 0 0.056094534364332649 0.25914791181566188 0 0.078155987276807184 0.27879552052602158 0 0.062246070746932627 0.28218780534964272 0 0.059104471966847393 0.27420453448823479 0 0.078155987276807184 0.27879552052602158 0 0.056094534364332649 0.25914791181566188 0 0.078155987276807184 0.27879552052602158 0 0.062246070746932627 0.28218780534964272 0 0.078155987276807184 0.27879552052602158 0 0.069105693340352742 0.28585516458765059 0 0.062246070746932627 0.28218780534964272 0 0.059652402888557068 0.29042440745432918 0 0.069105693340352742 0.28585516458765059 0 0.072223966554953611 0.28768367160700142 0 0.065019070016984593 0.29847901639000313 0 0.059652402888557068 0.29042440745432918 0 0.069105693340352742 0.28585516458765059 0 0.065019070016984593 0.29847901639000313 0 0.069105693340352742 0.28585516458765059 0 0.072223966554953611 0.28768367160700142 0 0.065019070016984593 0.29847901639000313 0 0.072223966554953611 0.28768367160700142 0 0.065019070016984593 0.29847901639000313 0 0.075927941968440549 0.2994546543536577 0 0.078155987276807184 0.27879552052602158 0 0.072223966554953611 0.28768367160700142 0 0.078155987276807184 0.27879552052602158 0 0.069105693340352742 0.28585516458765059 0 0.072223966554953611 0.28768367160700142 0 0.069105693340352742 0.28585516458765059 0 0.072223966554953611 0.28768367160700142 0 0.052454913306841863 0.30014245358251929 0 0.065019070016984593 0.29847901639000313 0 0.073092233663841696 0.31156874185786942 0 0.065019070016984593 0.29847901639000313 0 0.075927941968440549 0.2994546543536577 0 0.073092233663841696 0.31156874185786942 0 0.075927941968440549 0.2994546543536577 0 0.073092233663841696 0.31156874185786942 0 0.093376497637982295 0.30008718755975722 0 0.073092233663841696 0.31156874185786942 0 0.1009864535828012 0.31008620604317949 0 0.073092233663841696 0.31156874185786942 0 0.093376497637982295 0.30008718755975722 0 0.1009864535828012 0.31008620604317949 0 0.072223966554953611 0.28768367160700142 0 0.093376497637982295 0.30008718755975722 0 0.092554383052659117 0.29161852213807682 0 0.078155987276807184 0.27879552052602158 0 0.092554383052659117 0.29161852213807682 0 0.094179686083127406 0.27726916510401473 0 0.078155987276807184 0.27879552052602158 0 0.072223966554953611 0.28768367160700142 0 0.092554383052659117 0.29161852213807682 0 0.072223966554953611 0.28768367160700142 0 0.075927941968440549 0.2994546543536577 0 0.093376497637982295 0.30008718755975722 0 0.072223966554953611 0.28768367160700142 0 0.093376497637982295 0.30008718755975722 0 0.078155987276807184 0.27879552052602158 0 0.092554383052659117 0.29161852213807682 0 0.092554383052659117 0.29161852213807682 0 0.1007403608408767 0.2842606717621336 0 0.094179686083127406 0.27726916510401473 0 0.092554383052659117 0.29161852213807682 0 0.1038399484564409 0.29271480123026028 0 0.10695277882851249 0.30444152375013028 0 0.092554383052659117 0.29161852213807682 0 0.1007403608408767 0.2842606717621336 0 0.1038399484564409 0.29271480123026028 0 0.1038399484564409 0.29271480123026028 0 0.113031287745472 0.28682053032644061 0 0.11092688184551119 0.29592685810394082 0 0.1007403608408767 0.2842606717621336 0 0.113031287745472 0.28682053032644061 0 0.10662095230222569 0.27289805347474561 0 0.1007403608408767 0.2842606717621336 0 0.1038399484564409 0.29271480123026028 0 0.113031287745472 0.28682053032644061 0 0.093376497637982295 0.30008718755975722 0 0.1009864535828012 0.31008620604317949 0 0.11452902872101101 0.31249070351251301 0 0.093376497637982295 0.30008718755975722 0 0.11452902872101101 0.31249070351251301 0 0.093376497637982295 0.30008718755975722 0 0.10695277882851249 0.30444152375013028 0 0.11452902872101101 0.31249070351251301 0 0.093376497637982295 0.30008718755975722 0 0.092554383052659117 0.29161852213807682 0 0.10695277882851249 0.30444152375013028 0 0.092554383052659117 0.29161852213807682 0 0.10695277882851249 0.30444152375013028 0 0.1038399484564409 0.29271480123026028 0 0.10695277882851249 0.30444152375013028 0 0.11092688184551119 0.29592685810394082 0 0.10695277882851249 0.30444152375013028 0 0.11452902872101101 0.31249070351251301 0 0.1198835123516195 0.2997305771089317 0 0.10695277882851249 0.30444152375013028 0 0.1198835123516195 0.2997305771089317 0 0.11092688184551119 0.29592685810394082 0 0.11452902872101101 0.31249070351251301 0 0.1198835123516195 0.2997305771089317 0 0.1288837645331222 0.31095033786789977 0 0.1198835123516195 0.2997305771089317 0 0.113031287745472 0.28682053032644061 0 0.11092688184551119 0.29592685810394082 0 0.1198835123516195 0.2997305771089317 0 0.113031287745472 0.28682053032644061 0 0.12681416331375239 0.288228504904887 0 0.113031287745472 0.28682053032644061 0 0.1225736474715851 0.27423449299249741 0 0.12681416331375239 0.288228504904887 0 0.1225736474715851 0.27423449299249741 0 0.11670344870344949 0.25749599771246001 0 0.10662095230222569 0.27289805347474561 0 0.113031287745472 0.28682053032644061 0 0.1225736474715851 0.27423449299249741 0 0.10662095230222569 0.27289805347474561 0 0.10683857866087559 0.23581940537583049 0 0.092497282968843395 0.25730746295092738 0 0.11670344870344949 0.25749599771246001 0 0.092497282968843395 0.25730746295092738 0 0.11670344870344949 0.25749599771246001 0 0.10662095230222569 0.27289805347474561 0 0.092497282968843395 0.25730746295092738 0 0.094179686083127406 0.27726916510401473 0 0.10662095230222569 0.27289805347474561 0 0.1007403608408767 0.2842606717621336 0 0.094179686083127406 0.27726916510401473 0 0.10662095230222569 0.27289805347474561 0 0.14126198252979599 0.2798707903320265 0 0.1398859987945428 0.26218695542856513 0 0.1611313134071421 0.27250085182237782 0 0.16281754088323061 0.24740659801607481 0 0.1398859987945428 0.26218695542856513 0 0.1611313134071421 0.27250085182237782 0 0.13482805977205289 0.24161300169595401 0 0.16281754088323061 0.24740659801607481 0 0.1398859987945428 0.26218695542856513 0 0.13482805977205289 0.24161300169595401 0 0.11670344870344949 0.25749599771246001 0 0.1398859987945428 0.26218695542856513 0 0.1225736474715851 0.27423449299249741 0 0.11670344870344949 0.25749599771246001 0 0.1398859987945428 0.26218695542856513 0 0.1225736474715851 0.27423449299249741 0 0.14126198252979599 0.2798707903320265 0 0.1398859987945428 0.26218695542856513 0 0.1225736474715851 0.27423449299249741 0 0.14126198252979599 0.2798707903320265 0 0.12681416331375239 0.288228504904887 0 0.1198835123516195 0.2997305771089317 0 0.12681416331375239 0.288228504904887 0 0.13732038647028941 0.30048613376453859 0 0.14126198252979599 0.2798707903320265 0 0.12681416331375239 0.288228504904887 0 0.13732038647028941 0.30048613376453859 0 0.1198835123516195 0.2997305771089317 0 0.1288837645331222 0.31095033786789977 0 0.13732038647028941 0.30048613376453859 0 0.1288837645331222 0.31095033786789977 0 0.13732038647028941 0.30048613376453859 0 0.13764736342799791 0.31481462402525751 0 0.13732038647028941 0.30048613376453859 0 0.1467637052741807 0.31172182333967302 0 0.13764736342799791 0.31481462402525751 0 0.1467637052741807 0.31172182333967302 0 0.159445085931053 0.29759510562868091 0 0.1577588584549639 0.32268935943498389 0 0.13732038647028941 0.30048613376453859 0 0.1467637052741807 0.31172182333967302 0 0.159445085931053 0.29759510562868091 0 0.14126198252979599 0.2798707903320265 0 0.13732038647028941 0.30048613376453859 0 0.159445085931053 0.29759510562868091 0 0.14126198252979599 0.2798707903320265 0 0.159445085931053 0.29759510562868091 0 0.1611313134071421 0.27250085182237782 0 0.159445085931053 0.29759510562868091 0 0.1749141377374436 0.28607611188304199 0 0.1611313134071421 0.27250085182237782 0 0.159445085931053 0.29759510562868091 0 0.1611313134071421 0.27250085182237782 0 0.159445085931053 0.29759510562868091 0 0.1577588584549639 0.32268935943498389 0 0.159445085931053 0.29759510562868091 0 0.18195284066678941 0.30289263584325532 0 0.17454868803294241 0.3194693524947117 0 0.18195284066678941 0.30289263584325532 0 0.1749141377374436 0.28607611188304199 0 0.19245943842930741 0.28791324637138871 0 0.159445085931053 0.29759510562868091 0 0.18195284066678941 0.30289263584325532 0 0.1749141377374436 0.28607611188304199 0 0.1749141377374436 0.28607611188304199 0 0.17958201025292611 0.26947871974950738 0 0.19245943842930741 0.28791324637138871 0 0.1749141377374436 0.28607611188304199 0 0.17958201025292611 0.26947871974950738 0 0.1611313134071421 0.27250085182237782 0 0.16281754088323061 0.24740659801607481 0 0.1611313134071421 0.27250085182237782 0 0.16281754088323061 0.24740659801607481 0 0.17958201025292611 0.26947871974950738 0 0.1611313134071421 0.27250085182237782 0 0.16281754088323061 0.24740659801607481 0 0.18831532265037099 0.25268443271514662 0 0.16281754088323061 0.24740659801607481 0 0.17958201025292611 0.26947871974950738 0 0.18831532265037099 0.25268443271514662 0 0.18831532265037099 0.25268443271514662 0 0.20586662576276399 0.25081699933713009 0 0.21381310441751231 0.25796226741421402 0 0.18831532265037099 0.25268443271514662 0 0.21381310441751231 0.25796226741421402 0 0.17958201025292611 0.26947871974950738 0 0.18831532265037099 0.25268443271514662 0 0.19895586366822821 0.27060287989477783 0 0.18831532265037099 0.25268443271514662 0 0.19895586366822821 0.27060287989477783 0 0.21381310441751231 0.25796226741421402 0 0.17958201025292611 0.26947871974950738 0 0.19895586366822821 0.27060287989477783 0 0.19245943842930741 0.28791324637138871 0 0.19895586366822821 0.27060287989477783 0 0.2095963632450622 0.26860639222616361 0 0.21176737955086369 0.28586196873851899 0 0.2095963632450622 0.26860639222616361 0 0.21904636356585261 0.27233341888172857 0 0.21176737955086369 0.28586196873851899 0 0.19895586366822821 0.27060287989477783 0 0.2095963632450622 0.26860639222616361 0 0.21381310441751231 0.25796226741421402 0 0.2095963632450622 0.26860639222616361 0 0.21381310441751231 0.25796226741421402 0 0.21904636356585261 0.27233341888172857 0 0.21381310441751231 0.25796226741421402 0 0.2211525431437702 0.25706381225100261 0 0.21904636356585261 0.27233341888172857 0 0.20586662576276399 0.25081699933713009 0 0.21381310441751231 0.25796226741421402 0 0.2211525431437702 0.25706381225100261 0 0.2211525431437702 0.25706381225100261 0 0.2363773045129002 0.27824385671198432 0 0.23668647992816211 0.26010823884069662 0 0.2357717162530249 0.24793788735158501 0 0.2211525431437702 0.25706381225100261 0 0.23668647992816211 0.26010823884069662 0 0.2211525431437702 0.25706381225100261 0 0.21904636356585261 0.27233341888172857 0 0.2363773045129002 0.27824385671198432 0 0.21904636356585261 0.27233341888172857 0 0.2363773045129002 0.27824385671198432 0 0.21176737955086369 0.28586196873851899 0 0.2211525431437702 0.25706381225100261 0 0.2363773045129002 0.27824385671198432 0 0.2357717162530249 0.24793788735158501 0 0.23668647992816211 0.26010823884069662 0 0.2534443558029531 0.25718739904821453 0 0.2363773045129002 0.27824385671198432 0 0.23668647992816211 0.26010823884069662 0 0.2534443558029531 0.25718739904821453 0 0.22444085344048059 0.30430583619296342 0 0.23616984023824239 0.32408483670433602 0 0.25160206588203021 0.29942390117296591 0 0.2363773045129002 0.27824385671198432 0 0.22444085344048059 0.30430583619296342 0 0.25160206588203021 0.29942390117296591 0 0.2363773045129002 0.27824385671198432 0 0.25160206588203021 0.29942390117296591 0 0.2363773045129002 0.27824385671198432 0 0.22444085344048059 0.30430583619296342 0 0.21176737955086369 0.28586196873851899 0 0.22444085344048059 0.30430583619296342 0 0.21176737955086369 0.28586196873851899 0 0.20221515626883929 0.30434069812657322 0 0.22444085344048059 0.30430583619296342 0 0.20221515626883929 0.30434069812657322 0 0.21193570298673101 0.32610371414659722 0 0.21176737955086369 0.28586196873851899 0 0.19245943842930741 0.28791324637138871 0 0.20221515626883929 0.30434069812657322 0 0.19895586366822821 0.27060287989477783 0 0.21176737955086369 0.28586196873851899 0 0.19245943842930741 0.28791324637138871 0 0.18195284066678941 0.30289263584325532 0 0.19245943842930741 0.28791324637138871 0 0.20221515626883929 0.30434069812657322 0 0.18195284066678941 0.30289263584325532 0 0.20221515626883929 0.30434069812657322 0 0.1907347225388637 0.31896678746671592 0 0.20221515626883929 0.30434069812657322 0 0.1907347225388637 0.31896678746671592 0 0.21193570298673101 0.32610371414659722 0 0.1907347225388637 0.31896678746671592 0 0.21193570298673101 0.32610371414659722 0 0.1868715486414621 0.3385209823751496 0 0.21193570298673101 0.32610371414659722 0 0.2064363986667791 0.35081562537454569 0 0.1868715486414621 0.3385209823751496 0 0.21193570298673101 0.32610371414659722 0 0.23422951982304371 0.34879287485911659 0 0.2064363986667791 0.35081562537454569 0 0.22444085344048059 0.30430583619296342 0 0.21193570298673101 0.32610371414659722 0 0.23616984023824239 0.32408483670433602 0 0.21193570298673101 0.32610371414659722 0 0.23616984023824239 0.32408483670433602 0 0.23422951982304371 0.34879287485911659 0 0.2484070731134084 0.33518760864609659 0 0.23616984023824239 0.32408483670433602 0 0.23422951982304371 0.34879287485911659 0 0.2484070731134084 0.33518760864609659 0 0.23422951982304371 0.34879287485911659 0 0.26202264097930822 0.34677012434368742 0 0.23616984023824239 0.32408483670433602 0 0.26120629141303953 0.3211025986772465 0 0.25160206588203021 0.29942390117296591 0 0.2484070731134084 0.33518760864609659 0 0.23616984023824239 0.32408483670433602 0 0.26120629141303953 0.3211025986772465 0 0.2474566773157609 0.3703707932949149 0 0.23422951982304371 0.34879287485911659 0 0.25613418267432547 0.35920505873643321 0 0.23422951982304371 0.34879287485911659 0 0.26202264097930822 0.34677012434368742 0 0.23422951982304371 0.34879287485911659 0 0.2210570313218001 0.36938413631101652 0 0.2064363986667791 0.35081562537454569 0 0.23422951982304371 0.34879287485911659 0 0.2064363986667791 0.35081562537454569 0 0.2474566773157609 0.3703707932949149 0 0.23422951982304371 0.34879287485911659 0 0.2210570313218001 0.36938413631101652 0 0.2210570313218001 0.36938413631101652 0 0.2064363986667791 0.35081562537454569 0 0.19956962336783579 0.37922506091446728 0 0.2064363986667791 0.35081562537454569 0 0.17864327751051459 0.35283837588997491 0 0.2064363986667791 0.35081562537454569 0 0.17864327751051459 0.35283837588997491 0 0.1868715486414621 0.3385209823751496 0 0.2064363986667791 0.35081562537454569 0 0.1871512392100026 0.36194625545181802 0 0.17864327751051459 0.35283837588997491 0 0.1871512392100026 0.36194625545181802 0 0.18593931670413691 0.3752368795642162 0 0.19956962336783579 0.37922506091446728 0 0.2064363986667791 0.35081562537454569 0 0.1871512392100026 0.36194625545181802 0 0.19956962336783579 0.37922506091446728 0 0.1871512392100026 0.36194625545181802 0 0.17617500378081249 0.36559073184239499 0 0.18593931670413691 0.3752368795642162 0 0.1871512392100026 0.36194625545181802 0 0.17617500378081249 0.36559073184239499 0 0.1758117364201581 0.35763191025243252 0 0.1758117364201581 0.35763191025243252 0 0.15679502860447261 0.37581300233109832 0 0.17617500378081249 0.36559073184239499 0 0.15679502860447261 0.37581300233109832 0 0.1697634339592034 0.37784365776798817 0 0.16191477637048779 0.36077996121776501 0 0.1758117364201581 0.35763191025243252 0 0.15679502860447261 0.37581300233109832 0 0.17617500378081249 0.36559073184239499 0 0.1758117364201581 0.35763191025243252 0 0.15679502860447261 0.37581300233109832 0 0.16191477637048779 0.36077996121776501 0 0.15438640350278529 0.37287786704758968 0 0.15607263097887469 0.34778361324128682 0 0.16191477637048779 0.36077996121776501 0 0.15438640350278529 0.37287786704758968 0 0.15679502860447261 0.37581300233109832 0 0.16191477637048779 0.36077996121776501 0 0.16969151812842551 0.34989872061356803 0 0.15607263097887469 0.34778361324128682 0 0.16191477637048779 0.36077996121776501 0 0.16969151812842551 0.34989872061356803 0 0.1758117364201581 0.35763191025243252 0 0.16969151812842551 0.34989872061356803 0 0.17052907196452211 0.33615124421948478 0 0.15607263097887469 0.34778361324128682 0 0.16969151812842551 0.34989872061356803 0 0.17517761552599589 0.34420721886046368 0 0.17864327751051459 0.35283837588997491 0 0.16969151812842551 0.34989872061356803 0 0.17864327751051459 0.35283837588997491 0 0.1758117364201581 0.35763191025243252 0 0.1871512392100026 0.36194625545181802 0 0.17864327751051459 0.35283837588997491 0 0.1758117364201581 0.35763191025243252 0 0.17517761552599589 0.34420721886046368 0 0.17864327751051459 0.35283837588997491 0 0.1868715486414621 0.3385209823751496 0 0.1868715486414621 0.3385209823751496 0 0.17454868803294241 0.3194693524947117 0 0.17052907196452211 0.33615124421948478 0 0.17517761552599589 0.34420721886046368 0 0.1868715486414621 0.3385209823751496 0 0.17052907196452211 0.33615124421948478 0 0.1907347225388637 0.31896678746671592 0 0.1868715486414621 0.3385209823751496 0 0.17454868803294241 0.3194693524947117 0 0.18195284066678941 0.30289263584325532 0 0.1907347225388637 0.31896678746671592 0 0.17454868803294241 0.3194693524947117 0 0.17454868803294241 0.3194693524947117 0 0.1577588584549639 0.32268935943498389 0 0.17052907196452211 0.33615124421948478 0 0.159445085931053 0.29759510562868091 0 0.17454868803294241 0.3194693524947117 0 0.1577588584549639 0.32268935943498389 0 0.1577588584549639 0.32268935943498389 0 0.17052907196452211 0.33615124421948478 0 0.15607263097887469 0.34778361324128682 0 0.1577588584549639 0.32268935943498389 0 0.15607263097887469 0.34778361324128682 0 0.16969151812842551 0.34989872061356803 0 0.17517761552599589 0.34420721886046368 0 0.17052907196452211 0.33615124421948478 0 0.15127784395801261 0.33403963844837697 0 0.14696798147370599 0.33960345335891512 0 0.15607263097887469 0.34778361324128682 0 0.14696798147370599 0.33960345335891512 0 0.13568155980404001 0.3248942194652682 0 0.144839891153897 0.35169634228072788 0 0.1577588584549639 0.32268935943498389 0 0.15127784395801261 0.33403963844837697 0 0.15607263097887469 0.34778361324128682 0 0.15127784395801261 0.33403963844837697 0 0.13568155980404001 0.3248942194652682 0 0.15127784395801261 0.33403963844837697 0 0.14696798147370599 0.33960345335891512 0 0.13568155980404001 0.3248942194652682 0 0.1467637052741807 0.31172182333967302 0 0.1577588584549639 0.32268935943498389 0 0.1441087468027929 0.32209838216408188 0 0.1577588584549639 0.32268935943498389 0 0.15127784395801261 0.33403963844837697 0 0.1441087468027929 0.32209838216408188 0 0.15127784395801261 0.33403963844837697 0 0.1441087468027929 0.32209838216408188 0 0.13568155980404001 0.3248942194652682 0 0.1467637052741807 0.31172182333967302 0 0.1441087468027929 0.32209838216408188 0 0.13764736342799791 0.31481462402525751 0 0.11452902872101101 0.31249070351251301 0 0.1288837645331222 0.31095033786789977 0 0.13568155980404001 0.3248942194652682 0 0.11452902872101101 0.31249070351251301 0 0.13568155980404001 0.3248942194652682 0 0.1288837645331222 0.31095033786789977 0 0.13764736342799791 0.31481462402525751 0 0.13568155980404001 0.3248942194652682 0 0.1441087468027929 0.32209838216408188 0 0.13764736342799791 0.31481462402525751 0 0.13568155980404001 0.3248942194652682 0 0.1234486336920248 0.34059495640055099 0 0.119777836565921 0.3262924188833779 0 0.13568155980404001 0.3248942194652682 0 0.1234486336920248 0.34059495640055099 0 0.13568155980404001 0.3248942194652682 0 0.144839891153897 0.35169634228072788 0 0.13568155980404001 0.3248942194652682 0 0.144839891153897 0.35169634228072788 0 0.1234486336920248 0.34059495640055099 0 0.12549743850848091 0.3582220043772405 0 0.144839891153897 0.35169634228072788 0 0.116576803709314 0.37235565031961249 0 0.1362415799232633 0.369595767440064 0 0.12682402122345621 0.38155992324986981 0 0.12549743850848091 0.3582220043772405 0 0.1362415799232633 0.369595767440064 0 0.144839891153897 0.35169634228072788 0 0.116576803709314 0.37235565031961249 0 0.12549743850848091 0.3582220043772405 0 0.1362415799232633 0.369595767440064 0 0.15438640350278529 0.37287786704758968 0 0.15607263097887469 0.34778361324128682 0 0.144839891153897 0.35169634228072788 0 0.15400417279185519 0.37849643187253451 0 0.1362415799232633 0.369595767440064 0 0.144839891153897 0.35169634228072788 0 0.15400417279185519 0.37849643187253451 0 0.15438640350278529 0.37287786704758968 0 0.144839891153897 0.35169634228072788 0 0.15400417279185519 0.37849643187253451 0 0.15438640350278529 0.37287786704758968 0 0.15679502860447261 0.37581300233109832 0 0.15438640350278529 0.37287786704758968 0 0.15607263097887469 0.34778361324128682 0 0.144839891153897 0.35169634228072788 0 0.14696798147370599 0.33960345335891512 0 0.15607263097887469 0.34778361324128682 0 0.144839891153897 0.35169634228072788 0 0.15400417279185519 0.37849643187253451 0 0.13733543153282909 0.39441752260886598 0 0.1521398549498067 0.40631075814683149 0 0.13733543153282909 0.39441752260886598 0 0.13559664670645161 0.40724417354332237 0 0.1521398549498067 0.40631075814683149 0 0.15400417279185519 0.37849643187253451 0 0.1521398549498067 0.40631075814683149 0 0.15400417279185519 0.37849643187253451 0 0.1521398549498067 0.40631075814683149 0 0.16062131444514391 0.39788113611453119 0 0.15400417279185519 0.37849643187253451 0 0.13733543153282909 0.39441752260886598 0 0.1362415799232633 0.369595767440064 0 0.15400417279185519 0.37849643187253451 0 0.13733543153282909 0.39441752260886598 0 0.15438640350278529 0.37287786704758968 0 0.15400417279185519 0.37849643187253451 0 0.15438640350278529 0.37287786704758968 0 0.15400417279185519 0.37849643187253451 0 0.15679502860447261 0.37581300233109832 0 0.15400417279185519 0.37849643187253451 0 0.15679502860447261 0.37581300233109832 0 0.1362415799232633 0.369595767440064 0 0.12682402122345621 0.38155992324986981 0 0.13733543153282909 0.39441752260886598 0 0.1171422697284184 0.38987075263093668 0 0.12682402122345621 0.38155992324986981 0 0.13733543153282909 0.39441752260886598 0 0.1206742861548919 0.41034655833830619 0 0.13733543153282909 0.39441752260886598 0 0.1206742861548919 0.41034655833830619 0 0.1171422697284184 0.38987075263093668 0 0.13733543153282909 0.39441752260886598 0 0.1206742861548919 0.41034655833830619 0 0.13733543153282909 0.39441752260886598 0 0.13559664670645161 0.40724417354332237 0 0.13223701418828021 0.41790185507928762 0 0.13559664670645161 0.40724417354332237 0 0.1521398549498067 0.40631075814683149 0 0.1206742861548919 0.41034655833830619 0 0.13223701418828021 0.41790185507928762 0 0.13559664670645161 0.40724417354332237 0 0.1206742861548919 0.41034655833830619 0 0.13223701418828021 0.41790185507928762 0 0.1193868527292811 0.42954757301112673 0 0.13223701418828021 0.41790185507928762 0 0.1335355183980888 0.43504531656362028 0 0.13223701418828021 0.41790185507928762 0 0.1335355183980888 0.43504531656362028 0 0.15027087120263671 0.43412477089208418 0 0.13223701418828021 0.41790185507928762 0 0.15027087120263671 0.43412477089208418 0 0.1521398549498067 0.40631075814683149 0 0.15027087120263671 0.43412477089208418 0 0.1521398549498067 0.40631075814683149 0 0.15027087120263671 0.43412477089208418 0 0.1521398549498067 0.40631075814683149 0 0.16150809960923829 0.42143900686747909 0 0.1521398549498067 0.40631075814683149 0 0.16150809960923829 0.42143900686747909 0 0.16675790042693839 0.41253707755058772 0 0.16150809960923829 0.42143900686747909 0 0.16675790042693839 0.41253707755058772 0 0.17326355061012469 0.41985880950730448 0 0.15027087120263671 0.43412477089208418 0 0.16150809960923829 0.42143900686747909 0 0.16959573786454471 0.43051357476508478 0 0.16150809960923829 0.42143900686747909 0 0.16959573786454471 0.43051357476508478 0 0.17326355061012469 0.41985880950730448 0 0.16959573786454471 0.43051357476508478 0 0.18349649324834821 0.42874699702074948 0 0.17020535801677411 0.44735207533872862 0 0.16959573786454471 0.43051357476508478 0 0.18349649324834821 0.42874699702074948 0 0.17326355061012469 0.41985880950730448 0 0.18349649324834821 0.42874699702074948 0 0.18074312106708881 0.40499599602766512 0 0.18349649324834821 0.42874699702074948 0 0.18074312106708881 0.40499599602766512 0 0.19346812399641561 0.42050260394873312 0 0.18349649324834821 0.42874699702074948 0 0.17326355061012469 0.41985880950730448 0 0.18074312106708881 0.40499599602766512 0 0.16675790042693839 0.41253707755058772 0 0.17326355061012469 0.41985880950730448 0 0.18074312106708881 0.40499599602766512 0 0.16675790042693839 0.41253707755058772 0 0.18074312106708881 0.40499599602766512 0 0.16976634394811591 0.4019312455306947 0 0.18074312106708881 0.40499599602766512 0 0.19346812399641561 0.42050260394873312 0 0.18074312106708881 0.40499599602766512 0 0.16876907483577869 0.39040449917938352 0 0.17845906242395079 0.38529336393503 0 0.18074312106708881 0.40499599602766512 0 0.17845906242395079 0.38529336393503 0 0.18074312106708881 0.40499599602766512 0 0.17845906242395079 0.38529336393503 0 0.19002945721648559 0.39393575529677888 0 0.18074312106708881 0.40499599602766512 0 0.16876907483577869 0.39040449917938352 0 0.18074312106708881 0.40499599602766512 0 0.16976634394811591 0.4019312455306947 0 0.16876907483577869 0.39040449917938352 0 0.16675790042693839 0.41253707755058772 0 0.16976634394811591 0.4019312455306947 0 0.16062131444514391 0.39788113611453119 0 0.16976634394811591 0.4019312455306947 0 0.16062131444514391 0.39788113611453119 0 0.16876907483577869 0.39040449917938352 0 0.1521398549498067 0.40631075814683149 0 0.16675790042693839 0.41253707755058772 0 0.16062131444514391 0.39788113611453119 0 0.15400417279185519 0.37849643187253451 0 0.16062131444514391 0.39788113611453119 0 0.16876907483577869 0.39040449917938352 0 0.15400417279185519 0.37849643187253451 0 0.16062131444514391 0.39788113611453119 0 0.15400417279185519 0.37849643187253451 0 0.15679502860447261 0.37581300233109832 0 0.16876907483577869 0.39040449917938352 0 0.15679502860447261 0.37581300233109832 0 0.16876907483577869 0.39040449917938352 0 0.15679502860447261 0.37581300233109832 0 0.16876907483577869 0.39040449917938352 0 0.1697634339592034 0.37784365776798817 0 0.17617500378081249 0.36559073184239499 0 0.17845906242395079 0.38529336393503 0 0.17617500378081249 0.36559073184239499 0 0.17845906242395079 0.38529336393503 0 0.18593931670413691 0.3752368795642162 0 0.17617500378081249 0.36559073184239499 0 0.1697634339592034 0.37784365776798817 0 0.17845906242395079 0.38529336393503 0 0.16876907483577869 0.39040449917938352 0 0.1697634339592034 0.37784365776798817 0 0.17845906242395079 0.38529336393503 0 0.17845906242395079 0.38529336393503 0 0.18849936492810229 0.38342276492762312 0 0.19002945721648559 0.39393575529677888 0 0.17845906242395079 0.38529336393503 0 0.18593931670413691 0.3752368795642162 0 0.18849936492810229 0.38342276492762312 0 0.18593931670413691 0.3752368795642162 0 0.18849936492810229 0.38342276492762312 0 0.19956962336783579 0.37922506091446728 0 0.18849936492810229 0.38342276492762312 0 0.19956962336783579 0.37922506091446728 0 0.19002945721648559 0.39393575529677888 0 0.18074312106708881 0.40499599602766512 0 0.2026395896936084 0.40097489750404808 0 0.19002945721648559 0.39393575529677888 0 0.19956962336783579 0.37922506091446728 0 0.2026395896936084 0.40097489750404808 0 0.19002945721648559 0.39393575529677888 0 0.2026395896936084 0.40097489750404808 0 0.2148584142688568 0.39022059284666888 0 0.21865430562136121 0.411385400353733 0 0.2210570313218001 0.36938413631101652 0 0.19956962336783579 0.37922506091446728 0 0.2148584142688568 0.39022059284666888 0 0.19956962336783579 0.37922506091446728 0 0.2026395896936084 0.40097489750404808 0 0.2148584142688568 0.39022059284666888 0 0.2474566773157609 0.3703707932949149 0 0.2210570313218001 0.36938413631101652 0 0.2323715213396787 0.39013346915007951 0 0.2210570313218001 0.36938413631101652 0 0.2148584142688568 0.39022059284666888 0 0.2323715213396787 0.39013346915007951 0 0.2148584142688568 0.39022059284666888 0 0.2323715213396787 0.39013346915007951 0 0.21865430562136121 0.411385400353733 0 0.2323715213396787 0.39013346915007951 0 0.24232569649821981 0.40304022520306448 0 0.21865430562136121 0.411385400353733 0 0.2323715213396787 0.39013346915007951 0 0.24232569649821981 0.40304022520306448 0 0.24766926532239381 0.38690370427075149 0 0.2474566773157609 0.3703707932949149 0 0.2323715213396787 0.39013346915007951 0 0.24766926532239381 0.38690370427075149 0 0.23927435708334779 0.43307362113911219 0 0.23517149929222439 0.41917342738737368 0 0.25704784838902128 0.41565151785088977 0 0.23927435708334779 0.43307362113911219 0 0.25010005034069949 0.4423691664717086 0 0.25704784838902128 0.41565151785088977 0 0.24232569649821981 0.40304022520306448 0 0.23517149929222439 0.41917342738737368 0 0.25704784838902128 0.41565151785088977 0 0.24232569649821981 0.40304022520306448 0 0.23517149929222439 0.41917342738737368 0 0.21865430562136121 0.411385400353733 0 0.23517149929222439 0.41917342738737368 0 0.22479532096050561 0.42718359712528692 0 0.21865430562136121 0.411385400353733 0 0.22479532096050561 0.42718359712528692 0 0.20948879805643039 0.42905215608195307 0 0.2264410742401432 0.44047214575440302 0 0.23927435708334779 0.43307362113911219 0 0.23517149929222439 0.41917342738737368 0 0.22479532096050561 0.42718359712528692 0 0.23927435708334779 0.43307362113911219 0 0.22479532096050561 0.42718359712528692 0 0.2264410742401432 0.44047214575440302 0 0.22479532096050561 0.42718359712528692 0 0.20948879805643039 0.42905215608195307 0 0.21865430562136121 0.411385400353733 0 0.2026395896936084 0.40097489750404808 0 0.20948879805643039 0.42905215608195307 0 0.21865430562136121 0.411385400353733 0 0.2026395896936084 0.40097489750404808 0 0.20948879805643039 0.42905215608195307 0 0.18074312106708881 0.40499599602766512 0 0.2026395896936084 0.40097489750404808 0 0.19346812399641561 0.42050260394873312 0 0.2026395896936084 0.40097489750404808 0 0.20948879805643039 0.42905215608195307 0 0.19346812399641561 0.42050260394873312 0 0.18349649324834821 0.42874699702074948 0 0.1950311956225135 0.43260353859430623 0 0.19696703831954751 0.44515534153794212 0 0.20948879805643039 0.42905215608195307 0 0.20619312692574279 0.43600921186980068 0 0.19346812399641561 0.42050260394873312 0 0.20619312692574279 0.43600921186980068 0 0.19346812399641561 0.42050260394873312 0 0.20619312692574279 0.43600921186980068 0 0.19346812399641561 0.42050260394873312 0 0.1950311956225135 0.43260353859430623 0 0.18349649324834821 0.42874699702074948 0 0.19346812399641561 0.42050260394873312 0 0.1950311956225135 0.43260353859430623 0 0.19696703831954751 0.44515534153794212 0 0.19980256424313569 0.46173791264268382 0 0.18624986542960731 0.45249799801383378 0 0.18349649324834821 0.42874699702074948 0 0.19696703831954751 0.44515534153794212 0 0.18624986542960731 0.45249799801383378 0 0.20619312692574279 0.43600921186980068 0 0.1950311956225135 0.43260353859430623 0 0.19696703831954751 0.44515534153794212 0 0.18900323761086629 0.47624899900691842 0 0.18624986542960731 0.45249799801383378 0 0.19980256424313569 0.46173791264268382 0 0.18900323761086629 0.47624899900691842 0 0.18624986542960731 0.45249799801383378 0 0.19980256424313569 0.46173791264268382 0 0.21633800641925241 0.45712941465985801 0 0.20638206308574639 0.48000889658752199 0 0.19696703831954751 0.44515534153794212 0 0.19980256424313569 0.46173791264268382 0 0.21633800641925241 0.45712941465985801 0 0.20948879805643039 0.42905215608195307 0 0.20619312692574279 0.43600921186980068 0 0.21633800641925241 0.45712941465985801 0 0.20948879805643039 0.42905215608195307 0 0.21633800641925241 0.45712941465985801 0 0.2264410742401432 0.44047214575440302 0 0.20619312692574279 0.43600921186980068 0 0.19696703831954751 0.44515534153794212 0 0.21633800641925241 0.45712941465985801 0 0.20948879805643039 0.42905215608195307 0 0.21633800641925241 0.45712941465985801 0 0.21633800641925241 0.45712941465985801 0 0.2264410742401432 0.44047214575440302 0 0.23563915591399071 0.45171272858362183 0 0.2264410742401432 0.44047214575440302 0 0.23723056447902871 0.4424585520648181 0 0.23563915591399071 0.45171272858362183 0 0.23927435708334779 0.43307362113911219 0 0.2264410742401432 0.44047214575440302 0 0.23723056447902871 0.4424585520648181 0 0.21633800641925241 0.45712941465985801 0 0.24074617708957749 0.46811454400812552 0 0.23563915591399071 0.45171272858362183 0 0.24074617708957749 0.46811454400812552 0 0.24644854602702371 0.45601247985697763 0 0.23563915591399071 0.45171272858362183 0 0.24644854602702371 0.45601247985697763 0 0.24650911398149641 0.44253358810169852 0 0.23563915591399071 0.45171272858362183 0 0.23927435708334779 0.43307362113911219 0 0.24650911398149641 0.44253358810169852 0 0.25010005034069949 0.4423691664717086 0 0.23927435708334779 0.43307362113911219 0 0.24650911398149641 0.44253358810169852 0 0.23723056447902871 0.4424585520648181 0 0.24650911398149641 0.44253358810169852 0 0.23723056447902871 0.4424585520648181 0 0.23563915591399071 0.45171272858362183 0 0.24371879659911089 0.5 0 0.24094660912418289 0.48389445618370042 0 0.2231872147820744 0.48520667323776312 0 0.24371879659911089 0.5 0 0.24094660912418289 0.48389445618370042 0 0.25613424802596912 0.48225660748891308 0 0.24074617708957749 0.46811454400812552 0 0.24094660912418289 0.48389445618370042 0 0.2231872147820744 0.48520667323776312 0 0.24074617708957749 0.46811454400812552 0 0.24094660912418289 0.48389445618370042 0 0.25613424802596912 0.48225660748891308 0 0.21633800641925241 0.45712941465985801 0 0.24074617708957749 0.46811454400812552 0 0.2231872147820744 0.48520667323776312 0 0.21633800641925241 0.45712941465985801 0 0.2231872147820744 0.48520667323776312 0 0.24371879659911089 0.5 0 0.2231872147820744 0.48520667323776312 0 0.21773770319561819 0.5 0 0.2231872147820744 0.48520667323776312 0 0.21773770319561819 0.5 0 0.20638206308574639 0.48000889658752199 0 0.21773770319561819 0.5 0 0.20638206308574639 0.48000889658752199 0 0.19175660979212569 0.50000000000000289 0 0.21633800641925241 0.45712941465985801 0 0.2231872147820744 0.48520667323776312 0 0.20638206308574639 0.48000889658752199 0 0.19980256424313569 0.46173791264268382 0 0.20638206308574639 0.48000889658752199 0 0.18900323761086629 0.47624899900691842 0 0.20638206308574639 0.48000889658752199 0 0.18900323761086629 0.47624899900691842 0 0.19175660979212569 0.50000000000000289 0 0.18900323761086629 0.47624899900691842 0 0.19175660979212569 0.50000000000000289 0 0.18900323761086629 0.47624899900691842 0 0.19175660979212569 0.50000000000000289 0 0.16936138863524311 0.5 0 0.18900323761086629 0.47624899900691842 0 0.16936138863524311 0.5 0 0.16225523543644921 0.47829385077024522 0 0.16936138863524311 0.5 0 0.16225523543644921 0.47829385077024522 0 0.14696616747836069 0.5 0 0.18900323761086629 0.47624899900691842 0 0.16225523543644921 0.47829385077024522 0 0.17246023410211059 0.46161372792795652 0 0.18900323761086629 0.47624899900691842 0 0.17246023410211059 0.46161372792795652 0 0.18624986542960731 0.45249799801383378 0 0.17246023410211059 0.46161372792795652 0 0.18624986542960731 0.45249799801383378 0 0.17020535801677411 0.44735207533872862 0 0.18349649324834821 0.42874699702074948 0 0.18624986542960731 0.45249799801383378 0 0.17020535801677411 0.44735207533872862 0 0.18349649324834821 0.42874699702074948 0 0.18624986542960731 0.45249799801383378 0 0.15027087120263671 0.43412477089208418 0 0.16959573786454471 0.43051357476508478 0 0.15458747401685599 0.45367571651005673 0 0.16959573786454471 0.43051357476508478 0 0.17020535801677411 0.44735207533872862 0 0.15458747401685599 0.45367571651005673 0 0.16959573786454471 0.43051357476508478 0 0.15458747401685599 0.45367571651005673 0 0.17246023410211059 0.46161372792795652 0 0.17020535801677411 0.44735207533872862 0 0.15458747401685599 0.45367571651005673 0 0.16225523543644921 0.47829385077024522 0 0.17246023410211059 0.46161372792795652 0 0.15458747401685599 0.45367571651005673 0 0.15458747401685599 0.45367571651005673 0 0.13957921016916719 0.47683785825502861 0 0.15458747401685599 0.45367571651005673 0 0.13645195663379919 0.45836801864106941 0 0.13957921016916719 0.47683785825502861 0 0.1335355183980888 0.43504531656362028 0 0.15027087120263671 0.43412477089208418 0 0.1407345574073014 0.44537046774696909 0 0.15027087120263671 0.43412477089208418 0 0.15458747401685599 0.45367571651005673 0 0.1407345574073014 0.44537046774696909 0 0.15458747401685599 0.45367571651005673 0 0.1407345574073014 0.44537046774696909 0 0.13645195663379919 0.45836801864106941 0 0.1245588313953044 0.44862432540995739 0 0.1193868527292811 0.42954757301112673 0 0.1335355183980888 0.43504531656362028 0 0.1245588313953044 0.44862432540995739 0 0.1407345574073014 0.44537046774696909 0 0.13645195663379919 0.45836801864106941 0 0.1245588313953044 0.44862432540995739 0 0.1335355183980888 0.43504531656362028 0 0.1407345574073014 0.44537046774696909 0 0.1251756618815047 0.46682306625943959 0 0.13645195663379919 0.45836801864106941 0 0.13957921016916719 0.47683785825502861 0 0.1245588313953044 0.44862432540995739 0 0.1251756618815047 0.46682306625943959 0 0.13645195663379919 0.45836801864106941 0 0.1150790943589818 0.48220453878635672 0 0.1251756618815047 0.46682306625943959 0 0.13957921016916719 0.47683785825502861 0 0.12457094632147819 0.50000000000000044 0 0.13957921016916719 0.47683785825502861 0 0.12457094632147819 0.50000000000000044 0 0.1150790943589818 0.48220453878635672 0 0.13957921016916719 0.47683785825502861 0 0.12457094632147819 0.50000000000000044 0 0.13957921016916719 0.47683785825502861 0 0.14696616747836069 0.5 0 0.16225523543644921 0.47829385077024522 0 0.13957921016916719 0.47683785825502861 0 0.14696616747836069 0.5 0 0.16225523543644921 0.47829385077024522 0 0.15458747401685599 0.45367571651005673 0 0.13957921016916719 0.47683785825502861 0 0.35228432344461102 0.47116854909123018 0 0.35251619136917189 0.48765699462025791 0 0.33229647164791548 0.4777971448002758 0 0.35251619136917189 0.48765699462025791 0 0.36388323296178732 0.50000000000000155 0 0.34114914977655708 0.5 0 0.35251619136917189 0.48765699462025791 0 0.36388323296178732 0.50000000000000155 0 0.3741716791707464 0.47977193284585079 0 0.35228432344461102 0.47116854909123018 0 0.35251619136917189 0.48765699462025791 0 0.3741716791707464 0.47977193284585079 0 0.35228432344461102 0.47116854909123018 0 0.3741716791707464 0.47977193284585079 0 0.36764918343601088 0.45880108397121511 0 0.36764918343601088 0.45880108397121511 0 0.35814010893486509 0.4410464436922516 0 0.37940446514598042 0.43909705635749291 0 0.36764918343601088 0.45880108397121511 0 0.35814010893486509 0.4410464436922516 0 0.34210807705821628 0.45565562118548891 0 0.35814010893486509 0.4410464436922516 0 0.34210807705821628 0.45565562118548891 0 0.33526013429122209 0.43863800840916323 0 0.35228432344461102 0.47116854909123018 0 0.36764918343601088 0.45880108397121511 0 0.34210807705821628 0.45565562118548891 0 0.35228432344461102 0.47116854909123018 0 0.34210807705821628 0.45565562118548891 0 0.33229647164791548 0.4777971448002758 0 0.34210807705821628 0.45565562118548891 0 0.31691125037747331 0.45330799666615618 0 0.33229647164791548 0.4777971448002758 0 0.34210807705821628 0.45565562118548891 0 0.33526013429122209 0.43863800840916323 0 0.31691125037747331 0.45330799666615618 0 0.33526013429122209 0.43863800840916323 0 0.31691125037747331 0.45330799666615618 0 0.31844465913362469 0.43011707110907832 0 0.31691125037747331 0.45330799666615618 0 0.33229647164791548 0.4777971448002758 0 0.30571886582587399 0.47810719914666477 0 0.33229647164791548 0.4777971448002758 0 0.34114914977655708 0.5 0 0.31841506659132679 0.5 0 0.35251619136917189 0.48765699462025791 0 0.33229647164791548 0.4777971448002758 0 0.34114914977655708 0.5 0 0.33229647164791548 0.4777971448002758 0 0.31841506659132679 0.5 0 0.30571886582587399 0.47810719914666477 0 0.31841506659132679 0.5 0 0.30571886582587399 0.47810719914666477 0 0.29568098340609661 0.4999999999999985 0 0.30571886582587399 0.47810719914666477 0 0.27929036026456372 0.48084452936723138 0 0.28744488382628541 0.45622569809836683 0 0.30571886582587399 0.47810719914666477 0 0.29568098340609661 0.4999999999999985 0 0.27929036026456372 0.48084452936723138 0 0.29568098340609661 0.4999999999999985 0 0.26969989000260369 0.5 0 0.27929036026456372 0.48084452936723138 0 0.29568098340609661 0.4999999999999985 0 0.27929036026456372 0.48084452936723138 0 0.26969989000260369 0.5 0 0.27929036026456372 0.48084452936723138 0 0.25613424802596912 0.48225660748891308 0 0.27929036026456372 0.48084452936723138 0 0.25613424802596912 0.48225660748891308 0 0.26289973712303011 0.46168905873446497 0 0.27929036026456372 0.48084452936723138 0 0.26289973712303011 0.46168905873446497 0 0.24074617708957749 0.46811454400812552 0 0.25613424802596912 0.48225660748891308 0 0.26289973712303011 0.46168905873446497 0 0.24371879659911089 0.5 0 0.26969989000260369 0.5 0 0.25613424802596912 0.48225660748891308 0 0.25010005034069949 0.4423691664717086 0 0.26289973712303011 0.46168905873446497 0 0.2686643574836875 0.44506912820541999 0 0.24650911398149641 0.44253358810169852 0 0.26289973712303011 0.46168905873446497 0 0.25010005034069949 0.4423691664717086 0 0.2686643574836875 0.44506912820541999 0 0.26674975030799392 0.4297772829715607 0 0.24650911398149641 0.44253358810169852 0 0.25010005034069949 0.4423691664717086 0 0.26289973712303011 0.46168905873446497 0 0.24074617708957749 0.46811454400812552 0 0.24644854602702371 0.45601247985697763 0 0.26289973712303011 0.46168905873446497 0 0.24644854602702371 0.45601247985697763 0 0.24650911398149641 0.44253358810169852 0 0.26289973712303011 0.46168905873446497 0 0.26289973712303011 0.46168905873446497 0 0.2686643574836875 0.44506912820541999 0 0.28744488382628541 0.45622569809836683 0 0.27929036026456372 0.48084452936723138 0 0.26289973712303011 0.46168905873446497 0 0.28744488382628541 0.45622569809836683 0 0.2686643574836875 0.44506912820541999 0 0.28744488382628541 0.45622569809836683 0 0.28188090275486238 0.43412125094117721 0 0.28744488382628541 0.45622569809836683 0 0.30046790683272689 0.438290891916777 0 0.28188090275486238 0.43412125094117721 0 0.31691125037747331 0.45330799666615618 0 0.30571886582587399 0.47810719914666477 0 0.28744488382628541 0.45622569809836683 0 0.31691125037747331 0.45330799666615618 0 0.30046790683272689 0.438290891916777 0 0.31844465913362469 0.43011707110907832 0 0.31691125037747331 0.45330799666615618 0 0.28744488382628541 0.45622569809836683 0 0.30046790683272689 0.438290891916777 0 0.30046790683272689 0.438290891916777 0 0.29765783807138863 0.41768244276910682 0 0.31844465913362469 0.43011707110907832 0 0.29765783807138863 0.41768244276910682 0 0.31835154275133581 0.41290971567030971 0 0.31844465913362469 0.43011707110907832 0 0.29765783807138863 0.41768244276910682 0 0.30606647975957252 0.39843724007231401 0 0.31835154275133581 0.41290971567030971 0 0.29765783807138863 0.41768244276910682 0 0.27620099723501279 0.41098301816595578 0 0.28926507254987172 0.40080359814832273 0 0.29765783807138863 0.41768244276910682 0 0.28188090275486238 0.43412125094117721 0 0.27620099723501279 0.41098301816595578 0 0.30046790683272689 0.438290891916777 0 0.29765783807138863 0.41768244276910682 0 0.28188090275486238 0.43412125094117721 0 0.28188090275486238 0.43412125094117721 0 0.26674975030799392 0.4297772829715607 0 0.27620099723501279 0.41098301816595578 0 0.2686643574836875 0.44506912820541999 0 0.28188090275486238 0.43412125094117721 0 0.26674975030799392 0.4297772829715607 0 0.26674975030799392 0.4297772829715607 0 0.27620099723501279 0.41098301816595578 0 0.25704784838902128 0.41565151785088977 0 0.25010005034069949 0.4423691664717086 0 0.26674975030799392 0.4297772829715607 0 0.25704784838902128 0.41565151785088977 0 0.25010005034069949 0.4423691664717086 0 0.25704784838902128 0.41565151785088977 0 0.2474566773157609 0.3703707932949149 0 0.24766926532239381 0.38690370427075149 0 0.26399564643734308 0.38893386923007089 0 0.24232569649821981 0.40304022520306448 0 0.24766926532239381 0.38690370427075149 0 0.26399564643734308 0.38893386923007089 0 0.24232569649821981 0.40304022520306448 0 0.25704784838902128 0.41565151785088977 0 0.26399564643734308 0.38893386923007089 0 0.25704784838902128 0.41565151785088977 0 0.26399564643734308 0.38893386923007089 0 0.27620099723501279 0.41098301816595578 0 0.25704784838902128 0.41565151785088977 0 0.26399564643734308 0.38893386923007089 0 0.27620099723501279 0.41098301816595578 0 0.26399564643734308 0.38893386923007089 0 0.28037893903487537 0.39296885020435418 0 0.26399564643734308 0.38893386923007089 0 0.27094344448566487 0.36221622060925218 0 0.26399564643734308 0.38893386923007089 0 0.28236636008139232 0.378322948541302 0 0.27094344448566487 0.36221622060925218 0 0.26399564643734308 0.38893386923007089 0 0.28037893903487537 0.39296885020435418 0 0.28236636008139232 0.378322948541302 0 0.28037893903487537 0.39296885020435418 0 0.28236636008139232 0.378322948541302 0 0.2918982668273622 0.38833934477175608 0 0.2918982668273622 0.38833934477175608 0 0.29353138522673111 0.3765773255199083 0 0.30128880262851793 0.38342171904727451 0 0.28236636008139232 0.378322948541302 0 0.2918982668273622 0.38833934477175608 0 0.29353138522673111 0.3765773255199083 0 0.2918982668273622 0.38833934477175608 0 0.28926507254987172 0.40080359814832273 0 0.30606647975957252 0.39843724007231401 0 0.27620099723501279 0.41098301816595578 0 0.28037893903487537 0.39296885020435418 0 0.28926507254987172 0.40080359814832273 0 0.28037893903487537 0.39296885020435418 0 0.2918982668273622 0.38833934477175608 0 0.28926507254987172 0.40080359814832273 0 0.29765783807138863 0.41768244276910682 0 0.28926507254987172 0.40080359814832273 0 0.30606647975957252 0.39843724007231401 0 0.30606647975957252 0.39843724007231401 0 0.30128880262851793 0.38342171904727451 0 0.31803101630823061 0.38358596909255271 0 0.30329496193819733 0.37577223263012122 0 0.30128880262851793 0.38342171904727451 0 0.31803101630823061 0.38358596909255271 0 0.29353138522673111 0.3765773255199083 0 0.30329496193819733 0.37577223263012122 0 0.30128880262851793 0.38342171904727451 0 0.2918982668273622 0.38833934477175608 0 0.30606647975957252 0.39843724007231401 0 0.30128880262851793 0.38342171904727451 0 0.31803101630823061 0.38358596909255271 0 0.33140071385044212 0.40273946062578569 0 0.34690485964792822 0.37988960100396257 0 0.31803101630823061 0.38358596909255271 0 0.34690485964792822 0.37988960100396257 0 0.32851940340500208 0.36730010858516249 0 0.30606647975957252 0.39843724007231401 0 0.31803101630823061 0.38358596909255271 0 0.33140071385044212 0.40273946062578569 0 0.30606647975957252 0.39843724007231401 0 0.33140071385044212 0.40273946062578569 0 0.31835154275133581 0.41290971567030971 0 0.31803101630823061 0.38358596909255271 0 0.33140071385044212 0.40273946062578569 0 0.31835154275133581 0.41290971567030971 0 0.31844465913362469 0.43011707110907832 0 0.34477041139265358 0.42189295215901862 0 0.33526013429122209 0.43863800840916323 0 0.31844465913362469 0.43011707110907832 0 0.34477041139265358 0.42189295215901862 0 0.33140071385044212 0.40273946062578569 0 0.34477041139265358 0.42189295215901862 0 0.33140071385044212 0.40273946062578569 0 0.31835154275133581 0.41290971567030971 0 0.34477041139265358 0.42189295215901862 0 0.33140071385044212 0.40273946062578569 0 0.34477041139265358 0.42189295215901862 0 0.35347262282962311 0.40316843188599999 0 0.34477041139265358 0.42189295215901862 0 0.37232732519312528 0.41783479201437612 0 0.35347262282962311 0.40316843188599999 0 0.35814010893486509 0.4410464436922516 0 0.33526013429122209 0.43863800840916323 0 0.34477041139265358 0.42189295215901862 0 0.35814010893486509 0.4410464436922516 0 0.34477041139265358 0.42189295215901862 0 0.35814010893486509 0.4410464436922516 0 0.34477041139265358 0.42189295215901862 0 0.37232732519312528 0.41783479201437612 0 0.35814010893486509 0.4410464436922516 0 0.37232732519312528 0.41783479201437612 0 0.37940446514598042 0.43909705635749291 0 0.37232732519312528 0.41783479201437612 0 0.37195980406396628 0.39348535362685699 0 0.35347262282962311 0.40316843188599999 0 0.37195980406396628 0.39348535362685699 0 0.37167391256033222 0.37521463135135003 0 0.34690485964792822 0.37988960100396257 0 0.33140071385044212 0.40273946062578569 0 0.34690485964792822 0.37988960100396257 0 0.35347262282962311 0.40316843188599999 0 0.37195980406396628 0.39348535362685699 0 0.34690485964792822 0.37988960100396257 0 0.35347262282962311 0.40316843188599999 0 0.34409608628388971 0.35926381754937081 0 0.36224435733959109 0.35887041231462469 0 0.35314615327186699 0.33422487788189642 0 0.34690485964792822 0.37988960100396257 0 0.34409608628388971 0.35926381754937081 0 0.36224435733959109 0.35887041231462469 0 0.37167391256033222 0.37521463135135003 0 0.34690485964792822 0.37988960100396257 0 0.36224435733959109 0.35887041231462469 0 0.37167391256033222 0.37521463135135003 0 0.36224435733959109 0.35887041231462469 0 0.38348106972167939 0.36372441821644308 0 0.36224435733959109 0.35887041231462469 0 0.35314615327186699 0.33422487788189642 0 0.38077547966725939 0.3436945650772929 0 0.37456464198925898 0.32139242905704501 0 0.35314615327186699 0.33422487788189642 0 0.38077547966725939 0.3436945650772929 0 0.37456464198925898 0.32139242905704501 0 0.35314615327186699 0.33422487788189642 0 0.35353575540337362 0.30813282632437372 0 0.35314615327186699 0.33422487788189642 0 0.33623985083033398 0.32199467898297979 0 0.35353575540337362 0.30813282632437372 0 0.35314615327186699 0.33422487788189642 0 0.32890373601894241 0.34932867772060688 0 0.35314615327186699 0.33422487788189642 0 0.33623985083033398 0.32199467898297979 0 0.32890373601894241 0.34932867772060688 0 0.33623985083033398 0.32199467898297979 0 0.31523971987284582 0.3234837938845469 0 0.33140512298251801 0.30039200835908347 0 0.31523971987284582 0.3234837938845469 0 0.32890373601894241 0.34932867772060688 0 0.29907431676317359 0.34657557941001021 0 0.33623985083033398 0.32199467898297979 0 0.31523971987284582 0.3234837938845469 0 0.32890373601894241 0.34932867772060688 0 0.32890373601894241 0.34932867772060688 0 0.30466131876601932 0.36443247755931962 0 0.34409608628388971 0.35926381754937081 0 0.35314615327186699 0.33422487788189642 0 0.32890373601894241 0.34932867772060688 0 0.34409608628388971 0.35926381754937081 0 0.32890373601894241 0.34932867772060688 0 0.32851940340500208 0.36730010858516249 0 0.34690485964792822 0.37988960100396257 0 0.34409608628388971 0.35926381754937081 0 0.32851940340500208 0.36730010858516249 0 0.32890373601894241 0.34932867772060688 0 0.32851940340500208 0.36730010858516249 0 0.30466131876601932 0.36443247755931962 0 0.31803101630823061 0.38358596909255271 0 0.32851940340500208 0.36730010858516249 0 0.30466131876601932 0.36443247755931962 0 0.31803101630823061 0.38358596909255271 0 0.30466131876601932 0.36443247755931962 0 0.30329496193819733 0.37577223263012122 0 0.31803101630823061 0.38358596909255271 0 0.30466131876601932 0.36443247755931962 0 0.30466131876601932 0.36443247755931962 0 0.30261131434517802 0.3614956315915106 0 0.29353138522673111 0.3765773255199083 0 0.30329496193819733 0.37577223263012122 0 0.30466131876601932 0.36443247755931962 0 0.32890373601894241 0.34932867772060688 0 0.30261131434517802 0.3614956315915106 0 0.29907431676317359 0.34657557941001021 0 0.32890373601894241 0.34932867772060688 0 0.30466131876601932 0.36443247755931962 0 0.30261131434517802 0.3614956315915106 0 0.29907431676317359 0.34657557941001021 0 0.2837490054542719 0.35121148915158718 0 0.28290891365350129 0.36966736493547381 0 0.30261131434517802 0.3614956315915106 0 0.29907431676317359 0.34657557941001021 0 0.28290891365350129 0.36966736493547381 0 0.29907431676317359 0.34657557941001021 0 0.28290891365350129 0.36966736493547381 0 0.29907431676317359 0.34657557941001021 0 0.2837490054542719 0.35121148915158718 0 0.28817828641459969 0.34159419654602208 0 0.28236636008139232 0.378322948541302 0 0.30466131876601932 0.36443247755931962 0 0.28290891365350129 0.36966736493547381 0 0.30466131876601932 0.36443247755931962 0 0.30261131434517802 0.3614956315915106 0 0.28290891365350129 0.36966736493547381 0 0.28236636008139232 0.378322948541302 0 0.29353138522673111 0.3765773255199083 0 0.30466131876601932 0.36443247755931962 0 0.28236636008139232 0.378322948541302 0 0.30466131876601932 0.36443247755931962 0 0.2837490054542719 0.35121148915158718 0 0.28290891365350129 0.36966736493547381 0 0.27094344448566487 0.36221622060925218 0 0.28236636008139232 0.378322948541302 0 0.28290891365350129 0.36966736493547381 0 0.27094344448566487 0.36221622060925218 0 0.2837490054542719 0.35121148915158718 0 0.27094344448566487 0.36221622060925218 0 0.27789124253398673 0.33549857198843358 0 0.27094344448566487 0.36221622060925218 0 0.26202264097930822 0.34677012434368742 0 0.27789124253398673 0.33549857198843358 0 0.27094344448566487 0.36221622060925218 0 0.27789124253398673 0.33549857198843358 0 0.23422951982304371 0.34879287485911659 0 0.26202264097930822 0.34677012434368742 0 0.25613418267432547 0.35920505873643321 0 0.27094344448566487 0.36221622060925218 0 0.26202264097930822 0.34677012434368742 0 0.25613418267432547 0.35920505873643321 0 0.2474566773157609 0.3703707932949149 0 0.26399564643734308 0.38893386923007089 0 0.27094344448566487 0.36221622060925218 0 0.2474566773157609 0.3703707932949149 0 0.27094344448566487 0.36221622060925218 0 0.25613418267432547 0.35920505873643321 0 0.2484070731134084 0.33518760864609659 0 0.26202264097930822 0.34677012434368742 0 0.26120629141303953 0.3211025986772465 0 0.26202264097930822 0.34677012434368742 0 0.26120629141303953 0.3211025986772465 0 0.27789124253398673 0.33549857198843358 0 0.26120629141303953 0.3211025986772465 0 0.27789124253398673 0.33549857198843358 0 0.28483904058230852 0.30878092336761498 0 0.27789124253398673 0.33549857198843358 0 0.29485355438095728 0.3273452909826059 0 0.28483904058230852 0.30878092336761498 0 0.27789124253398673 0.33549857198843358 0 0.28483904058230852 0.30878092336761498 0 0.29485355438095728 0.3273452909826059 0 0.30497665561488019 0.30589086385610592 0 0.28483904058230852 0.30878092336761498 0 0.29907431676317359 0.34657557941001021 0 0.29485355438095728 0.3273452909826059 0 0.28817828641459969 0.34159419654602208 0 0.27789124253398673 0.33549857198843358 0 0.29485355438095728 0.3273452909826059 0 0.28817828641459969 0.34159419654602208 0 0.2837490054542719 0.35121148915158718 0 0.27789124253398673 0.33549857198843358 0 0.28817828641459969 0.34159419654602208 0 0.31523971987284582 0.3234837938845469 0 0.29907431676317359 0.34657557941001021 0 0.31523971987284582 0.3234837938845469 0 0.29907431676317359 0.34657557941001021 0 0.29485355438095728 0.3273452909826059 0 0.31523971987284582 0.3234837938845469 0 0.29485355438095728 0.3273452909826059 0 0.30497665561488019 0.30589086385610592 0 0.30497665561488019 0.30589086385610592 0 0.29178683863063021 0.28206327474679638 0 0.31371987863958117 0.28909836081800921 0 0.29178683863063021 0.28206327474679638 0 0.28483904058230852 0.30878092336761498 0 0.27093681246220769 0.29445401800231452 0 0.29178683863063021 0.28206327474679638 0 0.28483904058230852 0.30878092336761498 0 0.30497665561488019 0.30589086385610592 0 0.29178683863063021 0.28206327474679638 0 0.28483904058230852 0.30878092336761498 0 0.26120629141303953 0.3211025986772465 0 0.28483904058230852 0.30878092336761498 0 0.27093681246220769 0.29445401800231452 0 0.29178683863063021 0.28206327474679638 0 0.27093681246220769 0.29445401800231452 0 0.26505564879542298 0.2753766995855636 0 0.27093681246220769 0.29445401800231452 0 0.25160206588203021 0.29942390117296591 0 0.26505564879542298 0.2753766995855636 0 0.2363773045129002 0.27824385671198432 0 0.25160206588203021 0.29942390117296591 0 0.26505564879542298 0.2753766995855636 0 0.26120629141303953 0.3211025986772465 0 0.27093681246220769 0.29445401800231452 0 0.25160206588203021 0.29942390117296591 0 0.2534443558029531 0.25718739904821453 0 0.26505564879542298 0.2753766995855636 0 0.27800189464661479 0.25988198001208962 0 0.2363773045129002 0.27824385671198432 0 0.2534443558029531 0.25718739904821453 0 0.26505564879542298 0.2753766995855636 0 0.29178683863063021 0.28206327474679638 0 0.26505564879542298 0.2753766995855636 0 0.27800189464661479 0.25988198001208962 0 0.2534443558029531 0.25718739904821453 0 0.27800189464661479 0.25988198001208962 0 0.27732106216941438 0.23842693944476329 0 0.27800189464661479 0.25988198001208962 0 0.2987346366789474 0.25534562612597661 0 0.27732106216941438 0.23842693944476329 0 0.29178683863063021 0.28206327474679638 0 0.27800189464661479 0.25988198001208962 0 0.2987346366789474 0.25534562612597661 0 0.29178683863063021 0.28206327474679638 0 0.2987346366789474 0.25534562612597661 0 0.29178683863063021 0.28206327474679638 0 0.2987346366789474 0.25534562612597661 0 0.31557801769186661 0.26865344103016781 0 0.29178683863063021 0.28206327474679638 0 0.31557801769186661 0.26865344103016781 0 0.31371987863958117 0.28909836081800921 0 0.2987346366789474 0.25534562612597661 0 0.3203757203608496 0.25093943201190189 0 0.31557801769186661 0.26865344103016781 0 0.2987346366789474 0.25534562612597661 0 0.31557801769186661 0.26865344103016781 0 0.3203757203608496 0.25093943201190189 0 0.33114124776889542 0.26626847374046952 0 0.31557801769186661 0.26865344103016781 0 0.34090219402522959 0.25391427900408831 0 0.33114124776889542 0.26626847374046952 0 0.34565562190606058 0.27419504067671657 0 0.3203757203608496 0.25093943201190189 0 0.34090219402522959 0.25391427900408831 0 0.33114124776889542 0.26626847374046952 0 0.33114124776889542 0.26626847374046952 0 0.33242139870478687 0.28196125593435739 0 0.34565562190606058 0.27419504067671657 0 0.31557801769186661 0.26865344103016781 0 0.33242139870478687 0.28196125593435739 0 0.31557801769186661 0.26865344103016781 0 0.31371987863958117 0.28909836081800921 0 0.33242139870478687 0.28196125593435739 0 0.33114124776889542 0.26626847374046952 0 0.31557801769186661 0.26865344103016781 0 0.33242139870478687 0.28196125593435739 0 0.31371987863958117 0.28909836081800921 0 0.33140512298251801 0.30039200835908347 0 0.33242139870478687 0.28196125593435739 0 0.30497665561488019 0.30589086385610592 0 0.31371987863958117 0.28909836081800921 0 0.33140512298251801 0.30039200835908347 0 0.31523971987284582 0.3234837938845469 0 0.33140512298251801 0.30039200835908347 0 0.31523971987284582 0.3234837938845469 0 0.30497665561488019 0.30589086385610592 0 0.33140512298251801 0.30039200835908347 0 0.33623985083033398 0.32199467898297979 0 0.33140512298251801 0.30039200835908347 0 0.35353575540337362 0.30813282632437372 0 0.33140512298251801 0.30039200835908347 0 0.34604198987931822 0.29195569335781862 0 0.35353575540337362 0.30813282632437372 0 0.33140512298251801 0.30039200835908347 0 0.33242139870478687 0.28196125593435739 0 0.34604198987931822 0.29195569335781862 0 0.33242139870478687 0.28196125593435739 0 0.34604198987931822 0.29195569335781862 0 0.34565562190606058 0.27419504067671657 0 0.34604198987931822 0.29195569335781862 0 0.36217089797487989 0.28692900389057102 0 0.34565562190606058 0.27419504067671657 0 0.34604198987931822 0.29195569335781862 0 0.35353575540337362 0.30813282632437372 0 0.36217089797487989 0.28692900389057102 0 0.37456464198925898 0.32139242905704501 0 0.35353575540337362 0.30813282632437372 0 0.37440481658718677 0.30165485227959637 0 0.35353575540337362 0.30813282632437372 0 0.37440481658718677 0.30165485227959637 0 0.36217089797487989 0.28692900389057102 0 0.37440481658718677 0.30165485227959637 0 0.36217089797487989 0.28692900389057102 0 0.37937199580219311 0.28675377163844179 0 0.36217089797487989 0.28692900389057102 0 0.38004275002887539 0.27079106960291621 0 0.37937199580219311 0.28675377163844179 0 0.36217089797487989 0.28692900389057102 0 0.36125600308325378 0.26414153813299529 0 0.38004275002887539 0.27079106960291621 0 0.36217089797487989 0.28692900389057102 0 0.38004275002887539 0.27079106960291621 0 0.36125600308325378 0.26414153813299529 0 0.38082920604792603 0.25598700272303282 0 0.3697610787682693 0.2488426347359762 0 0.36125600308325378 0.26414153813299529 0 0.3697610787682693 0.2488426347359762 0 0.35316215757465602 0.23903359670842661 0 0.36125600308325378 0.26414153813299529 0 0.38082920604792603 0.25598700272303282 0 0.38004275002887539 0.27079106960291621 0 0.34090219402522959 0.25391427900408831 0 0.36125600308325378 0.26414153813299529 0 0.35316215757465602 0.23903359670842661 0 0.34090219402522959 0.25391427900408831 0 0.36125600308325378 0.26414153813299529 0 0.34565562190606058 0.27419504067671657 0 0.36217089797487989 0.28692900389057102 0 0.36125600308325378 0.26414153813299529 0 0.34565562190606058 0.27419504067671657 0 0.39372795176160258 0.2676706625230969 0 0.40252365708369331 0.27685379794997111 0 0.41043246190961608 0.2711882977806358 0 0.39372795176160258 0.2676706625230969 0 0.41043246190961608 0.2711882977806358 0 0.41238296584053602 0.26502303506551977 0 0.39372795176160258 0.2676706625230969 0 0.39208014240831368 0.28100002800768947 0 0.40252365708369331 0.27685379794997111 0 0.39372795176160258 0.2676706625230969 0 0.39791460208287083 0.25465313531526151 0 0.41736441934164697 0.25755599910979471 0 0.39791460208287083 0.25465313531526151 0 0.38082920604792603 0.25598700272303282 0 0.38498852767125491 0.24122135929535821 0 0.39372795176160258 0.2676706625230969 0 0.39791460208287083 0.25465313531526151 0 0.38004275002887539 0.27079106960291621 0 0.39791460208287083 0.25465313531526151 0 0.38004275002887539 0.27079106960291621 0 0.39791460208287083 0.25465313531526151 0 0.38082920604792603 0.25598700272303282 0 0.38004275002887539 0.27079106960291621 0 0.39208014240831368 0.28100002800768947 0 0.38004275002887539 0.27079106960291621 0 0.37937199580219311 0.28675377163844179 0 0.39372795176160258 0.2676706625230969 0 0.39208014240831368 0.28100002800768947 0 0.38004275002887539 0.27079106960291621 0 0.37440481658718677 0.30165485227959637 0 0.37937199580219311 0.28675377163844179 0 0.39112694868922909 0.29538637570333132 0 0.39208014240831368 0.28100002800768947 0 0.37937199580219311 0.28675377163844179 0 0.39112694868922909 0.29538637570333132 0 0.37440481658718677 0.30165485227959637 0 0.3915718274444141 0.31213243622415721 0 0.39112694868922909 0.29538637570333132 0 0.37456464198925898 0.32139242905704501 0 0.37440481658718677 0.30165485227959637 0 0.3915718274444141 0.31213243622415721 0 0.3915718274444141 0.31213243622415721 0 0.4058269875564855 0.30527560711842783 0 0.39112694868922909 0.29538637570333132 0 0.4058269875564855 0.30527560711842783 0 0.39112694868922909 0.29538637570333132 0 0.405687551084289 0.28854449062838011 0 0.39208014240831368 0.28100002800768947 0 0.39112694868922909 0.29538637570333132 0 0.405687551084289 0.28854449062838011 0 0.39208014240831368 0.28100002800768947 0 0.40252365708369331 0.27685379794997111 0 0.405687551084289 0.28854449062838011 0 0.405687551084289 0.28854449062838011 0 0.41777647073990831 0.28637758373020061 0 0.41332607278148659 0.27915168499345261 0 0.40252365708369331 0.27685379794997111 0 0.405687551084289 0.28854449062838011 0 0.41332607278148659 0.27915168499345261 0 0.405687551084289 0.28854449062838011 0 0.41777647073990831 0.28637758373020061 0 0.41900360983808521 0.29842181102374887 0 0.41777647073990831 0.28637758373020061 0 0.42246361238060792 0.27981844918841331 0 0.41332607278148659 0.27915168499345261 0 0.4058269875564855 0.30527560711842783 0 0.405687551084289 0.28854449062838011 0 0.41900360983808521 0.29842181102374887 0 0.4058269875564855 0.30527560711842783 0 0.41900360983808521 0.29842181102374887 0 0.42130762610054551 0.31189379470203998 0 0.42130762610054551 0.31189379470203998 0 0.43099470290820591 0.30272588760114733 0 0.43718165605476039 0.31627475053017418 0 0.41900360983808521 0.29842181102374887 0 0.42130762610054551 0.31189379470203998 0 0.43099470290820591 0.30272588760114733 0 0.43099470290820591 0.30272588760114733 0 0.42938091295782588 0.28706135344866468 0 0.43929316227989662 0.29353677626662678 0 0.41900360983808521 0.29842181102374887 0 0.43099470290820591 0.30272588760114733 0 0.42938091295782588 0.28706135344866468 0 0.41777647073990831 0.28637758373020061 0 0.42938091295782588 0.28706135344866468 0 0.42246361238060792 0.27981844918841331 0 0.41777647073990831 0.28637758373020061 0 0.41900360983808521 0.29842181102374887 0 0.42938091295782588 0.28706135344866468 0 0.42938091295782588 0.28706135344866468 0 0.43695759219084418 0.2767540398234889 0 0.440162453503671 0.28434894901030427 0 0.42938091295782588 0.28706135344866468 0 0.43929316227989662 0.29353677626662678 0 0.440162453503671 0.28434894901030427 0 0.42938091295782588 0.28706135344866468 0 0.43695759219084418 0.2767540398234889 0 0.42921722423797398 0.27494727629414728 0 0.43695759219084418 0.2767540398234889 0 0.43507476782807042 0.26728682763081651 0 0.42921722423797398 0.27494727629414728 0 0.43507476782807042 0.26728682763081651 0 0.42761951582762647 0.2678956241938048 0 0.42921722423797398 0.27494727629414728 0 0.43507476782807042 0.26728682763081651 0 0.42761951582762647 0.2678956241938048 0 0.43075412473327479 0.26209948808522249 0 0.42761951582762647 0.2678956241938048 0 0.42921722423797398 0.27494727629414728 0 0.42107268349080518 0.27212749068311481 0 0.42761951582762647 0.2678956241938048 0 0.42107268349080518 0.27212749068311481 0 0.42266338377475549 0.26507400714776491 0 0.42246361238060792 0.27981844918841331 0 0.42921722423797398 0.27494727629414728 0 0.42107268349080518 0.27212749068311481 0 0.42938091295782588 0.28706135344866468 0 0.42246361238060792 0.27981844918841331 0 0.42921722423797398 0.27494727629414728 0 0.42107268349080518 0.27212749068311481 0 0.41043246190961608 0.2711882977806358 0 0.41332607278148659 0.27915168499345261 0 0.42246361238060792 0.27981844918841331 0 0.42107268349080518 0.27212749068311481 0 0.41332607278148659 0.27915168499345261 0 0.42107268349080518 0.27212749068311481 0 0.41713912557021898 0.26728931373067483 0 0.41043246190961608 0.2711882977806358 0 0.42107268349080518 0.27212749068311481 0 0.41713912557021898 0.26728931373067483 0 0.42266338377475549 0.26507400714776491 0 0.41713912557021898 0.26728931373067483 0 0.41043246190961608 0.2711882977806358 0 0.41238296584053602 0.26502303506551977 0 0.40252365708369331 0.27685379794997111 0 0.41043246190961608 0.2711882977806358 0 0.41332607278148659 0.27915168499345261 0 0.39372795176160258 0.2676706625230969 0 0.42029596382120099 0.25721116849415748 0 0.39372795176160258 0.2676706625230969 0 0.42029596382120099 0.25721116849415748 0 0.41736441934164697 0.25755599910979471 0 0.39372795176160258 0.2676706625230969 0 0.41238296584053602 0.26502303506551977 0 0.42029596382120099 0.25721116849415748 0 0.39791460208287083 0.25465313531526151 0 0.41736441934164697 0.25755599910979471 0 0.41924950797967347 0.2478139921637027 0 0.41238296584053602 0.26502303506551977 0 0.4191441328353821 0.26303373797633922 0 0.42029596382120099 0.25721116849415748 0 0.41713912557021898 0.26728931373067483 0 0.41238296584053602 0.26502303506551977 0 0.4191441328353821 0.26303373797633922 0 0.41713912557021898 0.26728931373067483 0 0.4191441328353821 0.26303373797633922 0 0.42266338377475549 0.26507400714776491 0 0.4191441328353821 0.26303373797633922 0 0.42266338377475549 0.26507400714776491 0 0.42274349399712252 0.2611726377837012 0 0.4191441328353821 0.26303373797633922 0 0.42029596382120099 0.25721116849415748 0 0.42274349399712252 0.2611726377837012 0 0.42029596382120099 0.25721116849415748 0 0.44686397588079929 0.24675167446521809 0 0.42029596382120099 0.25721116849415748 0 0.42636659628021262 0.25851971824997888 0 0.43282806204381979 0.25443236744714892 0 0.41736441934164697 0.25755599910979471 0 0.44490961289443293 0.2457957572306515 0 0.41736441934164697 0.25755599910979471 0 0.42913832261543639 0.24699447791096979 0 0.44490961289443293 0.2457957572306515 0 0.41736441934164697 0.25755599910979471 0 0.42913832261543639 0.24699447791096979 0 0.41924950797967347 0.2478139921637027 0 0.42029596382120099 0.25721116849415748 0 0.41736441934164697 0.25755599910979471 0 0.44490961289443293 0.2457957572306515 0 0.42029596382120099 0.25721116849415748 0 0.43282806204381979 0.25443236744714892 0 0.44686397588079929 0.24675167446521809 0 0.42636659628021262 0.25851971824997888 0 0.42934226132332798 0.2587380786615443 0 0.43282806204381979 0.25443236744714892 0 0.42266338377475549 0.26507400714776491 0 0.42274349399712252 0.2611726377837012 0 0.42661527106030389 0.26358242378556213 0 0.42761951582762647 0.2678956241938048 0 0.42266338377475549 0.26507400714776491 0 0.42661527106030389 0.26358242378556213 0 0.42274349399712252 0.2611726377837012 0 0.42653699238337101 0.26065555067639812 0 0.42661527106030389 0.26358242378556213 0 0.42029596382120099 0.25721116849415748 0 0.42274349399712252 0.2611726377837012 0 0.42636659628021262 0.25851971824997888 0 0.42274349399712252 0.2611726377837012 0 0.42636659628021262 0.25851971824997888 0 0.42653699238337101 0.26065555067639812 0 0.42934226132332798 0.2587380786615443 0 0.42653699238337101 0.26065555067639812 0 0.43075412473327479 0.26209948808522249 0 0.42636659628021262 0.25851971824997888 0 0.42934226132332798 0.2587380786615443 0 0.42653699238337101 0.26065555067639812 0 0.42761951582762647 0.2678956241938048 0 0.42661527106030389 0.26358242378556213 0 0.43075412473327479 0.26209948808522249 0 0.42653699238337101 0.26065555067639812 0 0.42661527106030389 0.26358242378556213 0 0.43075412473327479 0.26209948808522249 0 0.42934226132332798 0.2587380786615443 0 0.43075412473327479 0.26209948808522249 0 0.43329746091787458 0.25819808100102742 0 0.43075412473327479 0.26209948808522249 0 0.43329746091787458 0.25819808100102742 0 0.43633568417636731 0.26039878887856083 0 0.43329746091787458 0.25819808100102742 0 0.43633568417636731 0.26039878887856083 0 0.43666706742917422 0.25694405104970047 0 0.43507476782807042 0.26728682763081651 0 0.43075412473327479 0.26209948808522249 0 0.43633568417636731 0.26039878887856083 0 0.43507476782807042 0.26728682763081651 0 0.43633568417636731 0.26039878887856083 0 0.44101560273439622 0.26276705339927592 0 0.42934226132332798 0.2587380786615443 0 0.43329746091787458 0.25819808100102742 0 0.43282806204381979 0.25443236744714892 0 0.43282806204381979 0.25443236744714892 0 0.43666706742917422 0.25694405104970047 0 0.43892265881731229 0.25512914748366478 0 0.43329746091787458 0.25819808100102742 0 0.43282806204381979 0.25443236744714892 0 0.43666706742917422 0.25694405104970047 0 0.44084314226191629 0.25265514603487932 0 0.44355953616649629 0.25378437378862162 0 0.43892265881731229 0.25512914748366478 0 0.43282806204381979 0.25443236744714892 0 0.44084314226191629 0.25265514603487932 0 0.44686397588079929 0.24675167446521809 0 0.43282806204381979 0.25443236744714892 0 0.44084314226191629 0.25265514603487932 0 0.43892265881731229 0.25512914748366478 0 0.44084314226191629 0.25265514603487932 0 0.44564303767459429 0.25053390313874319 0 0.44595081851542973 0.24893729020385941 0 0.44084314226191629 0.25265514603487932 0 0.44237697551374078 0.25218174332651411 0 0.44564303767459429 0.25053390313874319 0 0.44084314226191629 0.25265514603487932 0 0.44237697551374078 0.25218174332651411 0 0.44355953616649629 0.25378437378862162 0 0.44237697551374078 0.25218174332651411 0 0.44355953616649629 0.25378437378862162 0 0.44564303767459429 0.25053390313874319 0 0.44355953616649629 0.25378437378862162 0 0.44062927835293442 0.257441010911029 0 0.44579122742689342 0.25808841770533431 0 0.44355953616649629 0.25378437378862162 0 0.44062927835293442 0.257441010911029 0 0.43892265881731229 0.25512914748366478 0 0.43666706742917422 0.25694405104970047 0 0.44062927835293442 0.257441010911029 0 0.43892265881731229 0.25512914748366478 0 0.43633568417636731 0.26039878887856083 0 0.43666706742917422 0.25694405104970047 0 0.44062927835293442 0.257441010911029 0 0.43633568417636731 0.26039878887856083 0 0.44062927835293442 0.257441010911029 0 0.44101560273439622 0.26276705339927592 0 0.44101560273439622 0.26276705339927592 0 0.44646420979564372 0.26412188795271591 0 0.44179844882646813 0.26926538731719929 0 0.44101560273439622 0.26276705339927592 0 0.44579122742689342 0.25808841770533431 0 0.44646420979564372 0.26412188795271591 0 0.44062927835293442 0.257441010911029 0 0.44101560273439622 0.26276705339927592 0 0.44579122742689342 0.25808841770533431 0 0.44579122742689342 0.25808841770533431 0 0.44646420979564372 0.26412188795271591 0 0.45263360073816328 0.26182540769793172 0 0.44646420979564372 0.26412188795271591 0 0.45263360073816328 0.26182540769793172 0 0.45134155130977011 0.26908851937871231 0 0.44579122742689342 0.25808841770533431 0 0.45263360073816328 0.26182540769793172 0 0.45271780628015929 0.25519251002154553 0 0.45271780628015929 0.25519251002154553 0 0.45035689414277458 0.25017781365707259 0 0.44750331442648961 0.25283835842608032 0 0.45271780628015929 0.25519251002154553 0 0.45035689414277458 0.25017781365707259 0 0.45432005632295058 0.25059012213621162 0 0.44355953616649629 0.25378437378862162 0 0.44750331442648961 0.25283835842608032 0 0.44564303767459429 0.25053390313874319 0 0.45035689414277458 0.25017781365707259 0 0.44750331442648961 0.25283835842608032 0 0.44776448567704868 0.2491812010568866 0 0.44750331442648961 0.25283835842608032 0 0.44564303767459429 0.25053390313874319 0 0.44776448567704868 0.2491812010568866 0 0.44579122742689342 0.25808841770533431 0 0.45271780628015929 0.25519251002154553 0 0.44750331442648961 0.25283835842608032 0 0.44355953616649629 0.25378437378862162 0 0.44579122742689342 0.25808841770533431 0 0.44750331442648961 0.25283835842608032 0 0.43695759219084418 0.2767540398234889 0 0.44179844882646813 0.26926538731719929 0 0.44611174579105628 0.27761444523980172 0 0.43695759219084418 0.2767540398234889 0 0.44611174579105628 0.27761444523980172 0 0.440162453503671 0.28434894901030427 0 0.43695759219084418 0.2767540398234889 0 0.43507476782807042 0.26728682763081651 0 0.44179844882646813 0.26926538731719929 0 0.43507476782807042 0.26728682763081651 0 0.44101560273439622 0.26276705339927592 0 0.44179844882646813 0.26926538731719929 0 0.44646420979564372 0.26412188795271591 0 0.44179844882646813 0.26926538731719929 0 0.45134155130977011 0.26908851937871231 0 0.44179844882646813 0.26926538731719929 0 0.45134155130977011 0.26908851937871231 0 0.44611174579105628 0.27761444523980172 0 0.45134155130977011 0.26908851937871231 0 0.44611174579105628 0.27761444523980172 0 0.4561359923505236 0.27751143242804099 0 0.45263360073816328 0.26182540769793172 0 0.45134155130977011 0.26908851937871231 0 0.45975734070996671 0.26756667957150132 0 0.45134155130977011 0.26908851937871231 0 0.4561359923505236 0.27751143242804099 0 0.45975734070996671 0.26756667957150132 0 0.45975734070996671 0.26756667957150132 0 0.46804115896175841 0.27677925378769258 0 0.46932674917440981 0.2640255579951129 0 0.4561359923505236 0.27751143242804099 0 0.45975734070996671 0.26756667957150132 0 0.46804115896175841 0.27677925378769258 0 0.4561359923505236 0.27751143242804099 0 0.46804115896175841 0.27677925378769258 0 0.46353615195082992 0.28729458380556261 0 0.45872465074089658 0.25331745982173431 0 0.46337325671774132 0.2497144021282616 0 0.45872475370585081 0.24872107275690339 0 0.45872465074089658 0.25331745982173431 0 0.45432005632295058 0.25059012213621162 0 0.45872475370585081 0.24872107275690339 0 0.45271780628015929 0.25519251002154553 0 0.45872465074089658 0.25331745982173431 0 0.45432005632295058 0.25059012213621162 0 0.45271780628015929 0.25519251002154553 0 0.45872465074089658 0.25331745982173431 0 0.4596949001629474 0.25950999070645431 0 0.45263360073816328 0.26182540769793172 0 0.45975734070996671 0.26756667957150132 0 0.4596949001629474 0.25950999070645431 0 0.45263360073816328 0.26182540769793172 0 0.45271780628015929 0.25519251002154553 0 0.4596949001629474 0.25950999070645431 0 0.45975734070996671 0.26756667957150132 0 0.4596949001629474 0.25950999070645431 0 0.46932674917440981 0.2640255579951129 0 0.4596949001629474 0.25950999070645431 0 0.46538838786695341 0.25488349271716809 0 0.46932674917440981 0.2640255579951129 0 0.45872465074089658 0.25331745982173431 0 0.4596949001629474 0.25950999070645431 0 0.46538838786695341 0.25488349271716809 0 0.45872465074089658 0.25331745982173431 0 0.46538838786695341 0.25488349271716809 0 0.46337325671774132 0.2497144021282616 0 0.46538838786695341 0.25488349271716809 0 0.4685410882301036 0.25055002417303152 0 0.46337325671774132 0.2497144021282616 0 0.47253904757755599 0.25483184265888209 0 0.48028554519144229 0.25116001134618399 0 0.47247327378161452 0.24647843583022461 0 0.4685410882301036 0.25055002417303152 0 0.47253904757755599 0.25483184265888209 0 0.47247327378161452 0.24647843583022461 0 0.46538838786695341 0.25488349271716809 0 0.4685410882301036 0.25055002417303152 0 0.47253904757755599 0.25483184265888209 0 0.47253904757755599 0.25483184265888209 0 0.48028554519144229 0.25116001134618399 0 0.48414178509561268 0.26189404355996582 0 0.47253904757755599 0.25483184265888209 0 0.48414178509561268 0.26189404355996582 0 0.46932674917440981 0.2640255579951129 0 0.46538838786695341 0.25488349271716809 0 0.47253904757755599 0.25483184265888209 0 0.46932674917440981 0.2640255579951129 0 0.46804115896175841 0.27677925378769258 0 0.46932674917440981 0.2640255579951129 0 0.48269936863026808 0.27458249801164569 0 0.46804115896175841 0.27677925378769258 0 0.48269936863026808 0.27458249801164569 0 0.47926944305215802 0.28926307180191613 0 0.48414178509561268 0.26189404355996582 0 0.46932674917440981 0.2640255579951129 0 0.48269936863026808 0.27458249801164569 0 0.48269936863026808 0.27458249801164569 0 0.5 0.27589867209619989 0 0.47926944305215802 0.28926307180191613 0 0.48414178509561268 0.26189404355996582 0 0.48269936863026808 0.27458249801164569 0 0.5 0.27589867209619989 0 0.48414178509561268 0.26189404355996582 0 0.5 0.27589867209619989 0 0.5 0.25086567925177022 0 0.48028554519144229 0.25116001134618399 0 0.48414178509561268 0.26189404355996582 0 0.5 0.25086567925177022 0 0.50000000000000244 0.30093166494062951 0 0.48127673256947118 0.30430983046751447 0 0.48332255251725448 0.32148808099857368 0 0.50000000000000244 0.30093166494062951 0 0.48332255251725448 0.32148808099857368 0 0.50000000000000244 0.30093166494062951 0 0.47926944305215802 0.28926307180191613 0 0.48127673256947118 0.30430983046751447 0 0.5 0.27589867209619989 0 0.50000000000000244 0.30093166494062951 0 0.47926944305215802 0.28926307180191613 0 0.46804115896175841 0.27677925378769258 0 0.47926944305215802 0.28926307180191613 0 0.46353615195082992 0.28729458380556261 0 0.47926944305215802 0.28926307180191613 0 0.4641703758468288 0.30352308763037922 0 0.46353615195082992 0.28729458380556261 0 0.47926944305215802 0.28926307180191613 0 0.48127673256947118 0.30430983046751447 0 0.4641703758468288 0.30352308763037922 0 0.48127673256947118 0.30430983046751447 0 0.4641703758468288 0.30352308763037922 0 0.48332255251725448 0.32148808099857368 0 0.4641703758468288 0.30352308763037922 0 0.44586395248689958 0.30415161789323369 0 0.45610416458343139 0.31975923230291431 0 0.4641703758468288 0.30352308763037922 0 0.45006378954288062 0.28939607337978412 0 0.44586395248689958 0.30415161789323369 0 0.4641703758468288 0.30352308763037922 0 0.46353615195082992 0.28729458380556261 0 0.45006378954288062 0.28939607337978412 0 0.4561359923505236 0.27751143242804099 0 0.46353615195082992 0.28729458380556261 0 0.45006378954288062 0.28939607337978412 0 0.44611174579105628 0.27761444523980172 0 0.4561359923505236 0.27751143242804099 0 0.45006378954288062 0.28939607337978412 0 0.44611174579105628 0.27761444523980172 0 0.45006378954288062 0.28939607337978412 0 0.440162453503671 0.28434894901030427 0 0.45006378954288062 0.28939607337978412 0 0.43929316227989662 0.29353677626662678 0 0.44586395248689958 0.30415161789323369 0 0.45006378954288062 0.28939607337978412 0 0.43929316227989662 0.29353677626662678 0 0.440162453503671 0.28434894901030427 0 0.43099470290820591 0.30272588760114733 0 0.43929316227989662 0.29353677626662678 0 0.44586395248689958 0.30415161789323369 0 0.43099470290820591 0.30272588760114733 0 0.44586395248689958 0.30415161789323369 0 0.43718165605476039 0.31627475053017418 0 0.44586395248689958 0.30415161789323369 0 0.45610416458343139 0.31975923230291431 0 0.43718165605476039 0.31627475053017418 0 0.44261323704449179 0.33227418092406968 0 0.45610416458343139 0.31975923230291431 0 0.43718165605476039 0.31627475053017418 0 0.44261323704449179 0.33227418092406968 0 0.46664510503450518 0.34204449705651668 0 0.44690028031024492 0.34752514805059831 0 0.44261323704449179 0.33227418092406968 0 0.44690028031024492 0.34752514805059831 0 0.43631153634051362 0.34459766265198621 0 0.44261323704449179 0.33227418092406968 0 0.46664510503450518 0.34204449705651668 0 0.45610416458343139 0.31975923230291431 0 0.46664510503450518 0.34204449705651668 0 0.45610416458343139 0.31975923230291431 0 0.48332255251725448 0.32148808099857368 0 0.4641703758468288 0.30352308763037922 0 0.45610416458343139 0.31975923230291431 0 0.48332255251725448 0.32148808099857368 0 0.46664510503450518 0.34204449705651668 0 0.48451114845649113 0.33565029256570489 0 0.47969726156865988 0.34590652010897588 0 0.46664510503450518 0.34204449705651668 0 0.48332255251725448 0.32148808099857368 0 0.48451114845649113 0.33565029256570489 0 0.46664510503450518 0.34204449705651668 0 0.48332255251725448 0.32148808099857368 0 0.48451114845649113 0.33565029256570489 0 0.49289082316203608 0.34362289198630103 0 0.5 0.32518947267815712 0 0.49289082316203608 0.34362289198630103 0 0.5 0.32518947267815712 0 0.50000000000000067 0.34944728041568468 0 0.48451114845649113 0.33565029256570489 0 0.49289082316203608 0.34362289198630103 0 0.47969726156865988 0.34590652010897588 0 0.50000000000000244 0.30093166494062951 0 0.48332255251725448 0.32148808099857368 0 0.5 0.32518947267815712 0 0.48332255251725448 0.32148808099857368 0 0.48451114845649113 0.33565029256570489 0 0.5 0.32518947267815712 0 0.49245835780108971 0.36776542703825671 0 0.49999999999999989 0.35402027916292539 0 0.5 0.37799429172870619 0 0.49245835780108971 0.36776542703825671 0 0.47975330549418432 0.3674693091720761 0 0.48560058371838288 0.38737019940306688 0 0.4936364184951107 0.35511164448468308 0 0.47975330549418432 0.3674693091720761 0 0.49245835780108971 0.36776542703825671 0 0.4936364184951107 0.35511164448468308 0 0.47975330549418432 0.3674693091720761 0 0.4936364184951107 0.35511164448468308 0 0.48582318994100238 0.35645162680255771 0 0.47975330549418432 0.3674693091720761 0 0.49245835780108971 0.36776542703825671 0 0.49999999999999989 0.35402027916292539 0 0.4936364184951107 0.35511164448468308 0 0.49999999999999989 0.35402027916292539 0 0.4936364184951107 0.35511164448468308 0 0.50000000000000067 0.34944728041568468 0 0.4936364184951107 0.35511164448468308 0 0.50000000000000067 0.34944728041568468 0 0.49999999999999989 0.35402027916292539 0 0.4936364184951107 0.35511164448468308 0 0.49289082316203608 0.34362289198630103 0 0.4936364184951107 0.35511164448468308 0 0.50000000000000067 0.34944728041568468 0 0.49289082316203608 0.34362289198630103 0 0.48582318994100238 0.35645162680255771 0 0.47969726156865988 0.34590652010897588 0 0.49289082316203608 0.34362289198630103 0 0.48582318994100238 0.35645162680255771 0 0.4936364184951107 0.35511164448468308 0 0.48582318994100238 0.35645162680255771 0 0.49289082316203608 0.34362289198630103 0 0.4936364184951107 0.35511164448468308 0 0.48582318994100238 0.35645162680255771 0 0.48582318994100238 0.35645162680255771 0 0.47969726156865988 0.34590652010897588 0 0.46789542374637882 0.35952626995850723 0 0.46664510503450518 0.34204449705651668 0 0.47969726156865988 0.34590652010897588 0 0.46789542374637882 0.35952626995850723 0 0.48582318994100238 0.35645162680255771 0 0.46789542374637882 0.35952626995850723 0 0.48582318994100238 0.35645162680255771 0 0.47975330549418432 0.3674693091720761 0 0.46789542374637882 0.35952626995850723 0 0.47975330549418432 0.3674693091720761 0 0.46679848365484822 0.37106934381203233 0 0.46789542374637882 0.35952626995850723 0 0.48582318994100238 0.35645162680255771 0 0.47975330549418432 0.3674693091720761 0 0.46789542374637882 0.35952626995850723 0 0.44996765755175572 0.36260091311445952 0 0.46679848365484822 0.37106934381203233 0 0.46789542374637882 0.35952626995850723 0 0.45999325660827373 0.37183081434766591 0 0.47975330549418432 0.3674693091720761 0 0.46679848365484822 0.37106934381203233 0 0.45955194877055688 0.38545098176988057 0 0.46789542374637882 0.35952626995850723 0 0.45486994570187889 0.36701266254371828 0 0.44996765755175572 0.36260091311445952 0 0.46789542374637882 0.35952626995850723 0 0.45486994570187889 0.36701266254371828 0 0.45999325660827373 0.37183081434766591 0 0.45486994570187889 0.36701266254371828 0 0.45999325660827373 0.37183081434766591 0 0.44958108919277062 0.37386630656253622 0 0.46664510503450518 0.34204449705651668 0 0.46789542374637882 0.35952626995850723 0 0.44996765755175572 0.36260091311445952 0 0.46664510503450518 0.34204449705651668 0 0.44690028031024492 0.34752514805059831 0 0.44996765755175572 0.36260091311445952 0 0.46664510503450518 0.34204449705651668 0 0.44996765755175572 0.36260091311445952 0 0.44690028031024492 0.34752514805059831 0 0.4389638655799582 0.35610848650595922 0 0.44996765755175572 0.36260091311445952 0 0.44690028031024492 0.34752514805059831 0 0.4389638655799582 0.35610848650595922 0 0.43631153634051362 0.34459766265198621 0 0.44996765755175572 0.36260091311445952 0 0.43131508940349172 0.36579986106901202 0 0.44996765755175572 0.36260091311445952 0 0.44064676010304549 0.36993504783524561 0 0.43131508940349172 0.36579986106901202 0 0.4389638655799582 0.35610848650595922 0 0.44996765755175572 0.36260091311445952 0 0.43131508940349172 0.36579986106901202 0 0.45486994570187889 0.36701266254371828 0 0.44958108919277062 0.37386630656253622 0 0.44996765755175572 0.36260091311445952 0 0.44958108919277062 0.37386630656253622 0 0.44996765755175572 0.36260091311445952 0 0.44064676010304549 0.36993504783524561 0 0.44958108919277062 0.37386630656253622 0 0.44064676010304549 0.36993504783524561 0 0.4382929739574693 0.3784300210957664 0 0.43131508940349172 0.36579986106901202 0 0.41266252125522768 0.3689988090235648 0 0.43131508940349172 0.36579986106901202 0 0.41266252125522768 0.3689988090235648 0 0.4227542309794739 0.3851612790207215 0 0.44064676010304549 0.36993504783524561 0 0.43131508940349172 0.36579986106901202 0 0.4382929739574693 0.3784300210957664 0 0.43131508940349172 0.36579986106901202 0 0.41266252125522768 0.3689988090235648 0 0.42087744058994048 0.35107042078372691 0 0.41266252125522768 0.3689988090235648 0 0.42087744058994048 0.35107042078372691 0 0.39972819946397598 0.35824921226890122 0 0.42087744058994048 0.35107042078372691 0 0.40179343726629002 0.34103096628887541 0 0.39972819946397598 0.35824921226890122 0 0.4389638655799582 0.35610848650595922 0 0.43131508940349172 0.36579986106901202 0 0.42087744058994048 0.35107042078372691 0 0.4389638655799582 0.35610848650595922 0 0.42087744058994048 0.35107042078372691 0 0.43631153634051362 0.34459766265198621 0 0.42087744058994048 0.35107042078372691 0 0.43631153634051362 0.34459766265198621 0 0.42851453348263052 0.33700554967543761 0 0.44261323704449179 0.33227418092406968 0 0.42851453348263052 0.33700554967543761 0 0.42662072323971628 0.32549978530264673 0 0.44261323704449179 0.33227418092406968 0 0.43631153634051362 0.34459766265198621 0 0.42851453348263052 0.33700554967543761 0 0.42851453348263052 0.33700554967543761 0 0.42662072323971628 0.32549978530264673 0 0.41686658790796238 0.33646287580657369 0 0.42087744058994048 0.35107042078372691 0 0.42851453348263052 0.33700554967543761 0 0.41686658790796238 0.33646287580657369 0 0.44261323704449179 0.33227418092406968 0 0.43718165605476039 0.31627475053017418 0 0.42662072323971628 0.32549978530264673 0 0.42130762610054551 0.31189379470203998 0 0.43718165605476039 0.31627475053017418 0 0.42662072323971628 0.32549978530264673 0 0.42130762610054551 0.31189379470203998 0 0.42662072323971628 0.32549978530264673 0 0.40821807700601981 0.32316492663609542 0 0.4058269875564855 0.30527560711842783 0 0.42130762610054551 0.31189379470203998 0 0.40821807700601981 0.32316492663609542 0 0.42662072323971628 0.32549978530264673 0 0.40821807700601981 0.32316492663609542 0 0.41686658790796238 0.33646287580657369 0 0.42087744058994048 0.35107042078372691 0 0.41686658790796238 0.33646287580657369 0 0.40179343726629002 0.34103096628887541 0 0.40821807700601981 0.32316492663609542 0 0.41686658790796238 0.33646287580657369 0 0.40179343726629002 0.34103096628887541 0 0.40821807700601981 0.32316492663609542 0 0.40179343726629002 0.34103096628887541 0 0.39138469267464848 0.32828306465669321 0 0.40179343726629002 0.34103096628887541 0 0.39138469267464848 0.32828306465669321 0 0.38077547966725939 0.3436945650772929 0 0.3915718274444141 0.31213243622415721 0 0.4058269875564855 0.30527560711842783 0 0.40821807700601981 0.32316492663609542 0 0.3915718274444141 0.31213243622415721 0 0.40821807700601981 0.32316492663609542 0 0.39138469267464848 0.32828306465669321 0 0.37456464198925898 0.32139242905704501 0 0.3915718274444141 0.31213243622415721 0 0.39138469267464848 0.32828306465669321 0 0.37456464198925898 0.32139242905704501 0 0.39138469267464848 0.32828306465669321 0 0.38077547966725939 0.3436945650772929 0 0.36224435733959109 0.35887041231462469 0 0.38077547966725939 0.3436945650772929 0 0.38348106972167939 0.36372441821644308 0 0.38077547966725939 0.3436945650772929 0 0.38348106972167939 0.36372441821644308 0 0.39972819946397598 0.35824921226890122 0 0.37167391256033222 0.37521463135135003 0 0.38348106972167939 0.36372441821644308 0 0.39602571202410219 0.38241426354668723 0 0.38348106972167939 0.36372441821644308 0 0.39972819946397598 0.35824921226890122 0 0.39602571202410219 0.38241426354668723 0 0.41266252125522768 0.3689988090235648 0 0.39972819946397598 0.35824921226890122 0 0.39602571202410219 0.38241426354668723 0 0.40179343726629002 0.34103096628887541 0 0.38077547966725939 0.3436945650772929 0 0.39972819946397598 0.35824921226890122 0 0.39602571202410219 0.38241426354668723 0 0.39064060019879732 0.40863636359902872 0 0.40895189944902949 0.39943400267836859 0 0.39602571202410219 0.38241426354668723 0 0.40895189944902949 0.39943400267836859 0 0.40985068205198938 0.38451681344200528 0 0.41266252125522768 0.3689988090235648 0 0.39602571202410219 0.38241426354668723 0 0.40985068205198938 0.38451681344200528 0 0.37195980406396628 0.39348535362685699 0 0.37167391256033222 0.37521463135135003 0 0.39602571202410219 0.38241426354668723 0 0.37195980406396628 0.39348535362685699 0 0.39602571202410219 0.38241426354668723 0 0.39064060019879732 0.40863636359902872 0 0.37232732519312528 0.41783479201437612 0 0.39064060019879732 0.40863636359902872 0 0.39759532474751902 0.42791378389317197 0 0.37232732519312528 0.41783479201437612 0 0.37195980406396628 0.39348535362685699 0 0.39064060019879732 0.40863636359902872 0 0.39759532474751902 0.42791378389317197 0 0.39440344837374369 0.44310821858019062 0 0.37940446514598042 0.43909705635749291 0 0.37232732519312528 0.41783479201437612 0 0.39759532474751902 0.42791378389317197 0 0.37940446514598042 0.43909705635749291 0 0.39759532474751902 0.42791378389317197 0 0.40374455096497419 0.41480208460736079 0 0.41180799086388392 0.42906747725081951 0 0.39759532474751902 0.42791378389317197 0 0.40742269761138872 0.44115545534377398 0 0.39440344837374369 0.44310821858019062 0 0.39759532474751902 0.42791378389317197 0 0.41180799086388392 0.42906747725081951 0 0.40742269761138872 0.44115545534377398 0 0.39064060019879732 0.40863636359902872 0 0.39759532474751902 0.42791378389317197 0 0.40374455096497419 0.41480208460736079 0 0.39064060019879732 0.40863636359902872 0 0.40374455096497419 0.41480208460736079 0 0.40895189944902949 0.39943400267836859 0 0.40374455096497419 0.41480208460736079 0 0.41721849027168179 0.41698806603538602 0 0.40895189944902949 0.39943400267836859 0 0.40374455096497419 0.41480208460736079 0 0.41721849027168179 0.41698806603538602 0 0.41180799086388392 0.42906747725081951 0 0.41180799086388392 0.42906747725081951 0 0.41922948897669832 0.44036094215621657 0 0.40742269761138872 0.44115545534377398 0 0.41721849027168179 0.41698806603538602 0 0.41180799086388392 0.42906747725081951 0 0.42694085117959252 0.43028492687192721 0 0.41180799086388392 0.42906747725081951 0 0.42694085117959252 0.43028492687192721 0 0.41922948897669832 0.44036094215621657 0 0.42694085117959252 0.43028492687192721 0 0.43878330189553238 0.42219265230264191 0 0.43714136522124047 0.44481589248670028 0 0.41721849027168179 0.41698806603538602 0 0.42694085117959252 0.43028492687192721 0 0.42991690001532379 0.41297570065482031 0 0.41721849027168179 0.41698806603538602 0 0.42991690001532379 0.41297570065482031 0 0.42426936332853671 0.40070075562100449 0 0.42694085117959252 0.43028492687192721 0 0.42991690001532379 0.41297570065482031 0 0.43878330189553238 0.42219265230264191 0 0.42991690001532379 0.41297570065482031 0 0.44274175536901528 0.41425647126022702 0 0.43878330189553238 0.42219265230264191 0 0.42991690001532379 0.41297570065482031 0 0.43935059204692911 0.40343265436768461 0 0.44274175536901528 0.41425647126022702 0 0.42991690001532379 0.41297570065482031 0 0.42426936332853671 0.40070075562100449 0 0.43935059204692911 0.40343265436768461 0 0.42426936332853671 0.40070075562100449 0 0.43430706458723228 0.39036076600241609 0 0.43935059204692911 0.40343265436768461 0 0.42426936332853671 0.40070075562100449 0 0.4227542309794739 0.3851612790207215 0 0.43430706458723228 0.39036076600241609 0 0.41721849027168179 0.41698806603538602 0 0.42426936332853671 0.40070075562100449 0 0.40895189944902949 0.39943400267836859 0 0.42426936332853671 0.40070075562100449 0 0.40895189944902949 0.39943400267836859 0 0.4227542309794739 0.3851612790207215 0 0.41266252125522768 0.3689988090235648 0 0.40985068205198938 0.38451681344200528 0 0.4227542309794739 0.3851612790207215 0 0.40895189944902949 0.39943400267836859 0 0.40985068205198938 0.38451681344200528 0 0.4227542309794739 0.3851612790207215 0 0.43131508940349172 0.36579986106901202 0 0.4227542309794739 0.3851612790207215 0 0.4382929739574693 0.3784300210957664 0 0.4227542309794739 0.3851612790207215 0 0.43430706458723228 0.39036076600241609 0 0.4382929739574693 0.3784300210957664 0 0.44958108919277062 0.37386630656253622 0 0.4382929739574693 0.3784300210957664 0 0.44686816262375267 0.38407911990690369 0 0.43430706458723228 0.39036076600241609 0 0.4382929739574693 0.3784300210957664 0 0.44686816262375267 0.38407911990690369 0 0.45999325660827373 0.37183081434766591 0 0.44958108919277062 0.37386630656253622 0 0.44686816262375267 0.38407911990690369 0 0.43430706458723228 0.39036076600241609 0 0.44686816262375267 0.38407911990690369 0 0.43935059204692911 0.40343265436768461 0 0.43935059204692911 0.40343265436768461 0 0.45955194877055688 0.38545098176988057 0 0.45821385425375311 0.40656640142481049 0 0.43935059204692911 0.40343265436768461 0 0.45955194877055688 0.38545098176988057 0 0.44686816262375267 0.38407911990690369 0 0.43935059204692911 0.40343265436768461 0 0.45955194877055688 0.38545098176988057 0 0.46898357987396838 0.38701785529844313 0 0.45821385425375311 0.40656640142481049 0 0.46898357987396838 0.38701785529844313 0 0.47271663233851852 0.40285990736948429 0 0.45821385425375311 0.40656640142481049 0 0.45955194877055688 0.38545098176988057 0 0.46898357987396838 0.38701785529844313 0 0.45821385425375311 0.40656640142481049 0 0.45999325660827373 0.37183081434766591 0 0.44686816262375267 0.38407911990690369 0 0.45955194877055688 0.38545098176988057 0 0.46679848365484822 0.37106934381203233 0 0.45999325660827373 0.37183081434766591 0 0.45955194877055688 0.38545098176988057 0 0.47975330549418432 0.3674693091720761 0 0.46898357987396838 0.38701785529844313 0 0.48560058371838288 0.38737019940306688 0 0.47975330549418432 0.3674693091720761 0 0.45955194877055688 0.38545098176988057 0 0.47975330549418432 0.3674693091720761 0 0.46898357987396838 0.38701785529844313 0 0.47975330549418432 0.3674693091720761 0 0.45955194877055688 0.38545098176988057 0 0.46898357987396838 0.38701785529844313 0 0.46898357987396838 0.38701785529844313 0 0.47271663233851852 0.40285990736948429 0 0.48560058371838288 0.38737019940306688 0 0.47271663233851852 0.40285990736948429 0 0.48560058371838288 0.38737019940306688 0 0.48548687588356398 0.40819989169729559 0 0.5 0.40196830429448699 0 0.48560058371838288 0.38737019940306688 0 0.48548687588356398 0.40819989169729559 0 0.49245835780108971 0.36776542703825671 0 0.48560058371838288 0.38737019940306688 0 0.5 0.37799429172870619 0 0.5 0.40196830429448699 0 0.48560058371838288 0.38737019940306688 0 0.5 0.37799429172870619 0 0.5 0.42594231686026801 0 0.48104048787602621 0.42204910430643439 0 0.47581029945015207 0.43896135360210808 0 0.5 0.42594231686026801 0 0.48548687588356398 0.40819989169729559 0 0.48104048787602621 0.42204910430643439 0 0.5 0.40196830429448699 0 0.5 0.42594231686026801 0 0.48548687588356398 0.40819989169729559 0 0.48548687588356398 0.40819989169729559 0 0.47403074823880009 0.41305013581550493 0 0.48104048787602621 0.42204910430643439 0 0.47271663233851852 0.40285990736948429 0 0.48548687588356398 0.40819989169729559 0 0.47403074823880009 0.41305013581550493 0 0.47271663233851852 0.40285990736948429 0 0.47403074823880009 0.41305013581550493 0 0.4634548624882322 0.41426751339796453 0 0.47403074823880009 0.41305013581550493 0 0.46947205171674938 0.42405732980072802 0 0.48104048787602621 0.42204910430643439 0 0.47403074823880009 0.41305013581550493 0 0.46947205171674938 0.42405732980072802 0 0.4634548624882322 0.41426751339796453 0 0.46947205171674938 0.42405732980072802 0 0.48104048787602621 0.42204910430643439 0 0.47581029945015207 0.43896135360210808 0 0.46947205171674938 0.42405732980072802 0 0.4634548624882322 0.41426751339796453 0 0.45162059890030271 0.42800637777816791 0 0.46947205171674938 0.42405732980072802 0 0.45162059890030271 0.42800637777816791 0 0.47581029945015207 0.43896135360210808 0 0.4634548624882322 0.41426751339796453 0 0.45162059890030271 0.42800637777816791 0 0.44744412863353872 0.42611494755117829 0 0.45162059890030271 0.42800637777816791 0 0.47581029945015207 0.43896135360210808 0 0.4634548624882322 0.41426751339796453 0 0.45821385425375311 0.40656640142481049 0 0.44744412863353872 0.42611494755117829 0 0.47271663233851852 0.40285990736948429 0 0.4634548624882322 0.41426751339796453 0 0.45821385425375311 0.40656640142481049 0 0.4634548624882322 0.41426751339796453 0 0.45162059890030271 0.42800637777816791 0 0.43935059204692911 0.40343265436768461 0 0.45821385425375311 0.40656640142481049 0 0.44274175536901528 0.41425647126022702 0 0.45821385425375311 0.40656640142481049 0 0.44274175536901528 0.41425647126022702 0 0.44744412863353872 0.42611494755117829 0 0.45821385425375311 0.40656640142481049 0 0.44744412863353872 0.42611494755117829 0 0.44274175536901528 0.41425647126022702 0 0.44744412863353872 0.42611494755117829 0 0.43878330189553238 0.42219265230264191 0 0.44744412863353872 0.42611494755117829 0 0.43714136522124047 0.44481589248670028 0 0.44744412863353872 0.42611494755117829 0 0.43878330189553238 0.42219265230264191 0 0.43714136522124047 0.44481589248670028 0 0.45162059890030271 0.42800637777816791 0 0.44744412863353872 0.42611494755117829 0 0.43714136522124047 0.44481589248670028 0 0.45162059890030271 0.42800637777816791 0 0.43714136522124047 0.44481589248670028 0 0.45162059890030271 0.42800637777816791 0 0.44744412863353872 0.42611494755117829 0 0.44744412863353872 0.42611494755117829 0 0.43878330189553238 0.42219265230264191 0 0.45162059890030271 0.42800637777816791 0 0.45465535760499037 0.4507850610977534 0 0.43714136522124047 0.44481589248670028 0 0.44120870952789809 0.45869566431422049 0 0.45465535760499037 0.4507850610977534 0 0.43714136522124047 0.44481589248670028 0 0.44120870952789809 0.45869566431422049 0 0.45465535760499037 0.4507850610977534 0 0.44869178898555118 0.47114104043810773 0 0.44120870952789809 0.45869566431422049 0 0.44869178898555118 0.47114104043810773 0 0.42434632629980978 0.46804066323432031 0 0.45465535760499037 0.4507850610977534 0 0.476961307660139 0.46152138725080932 0 0.44869178898555118 0.47114104043810773 0 0.476961307660139 0.46152138725080932 0 0.44869178898555118 0.47114104043810773 0 0.45162059890030271 0.42800637777816791 0 0.45465535760499037 0.4507850610977534 0 0.47581029945015207 0.43896135360210808 0 0.47581029945015207 0.43896135360210808 0 0.476961307660139 0.46152138725080932 0 0.50000000000000111 0.44991632942604892 0 0.45465535760499037 0.4507850610977534 0 0.47581029945015207 0.43896135360210808 0 0.476961307660139 0.46152138725080932 0 0.5 0.42594231686026801 0 0.47581029945015207 0.43896135360210808 0 0.50000000000000111 0.44991632942604892 0 0.47581029945015207 0.43896135360210808 0 0.50000000000000111 0.44991632942604892 0 0.476961307660139 0.46152138725080932 0 0.5 0.5 0 0.44869178898555118 0.47114104043810773 0 0.476961307660139 0.46152138725080932 0 0.50000000000000111 0.44991632942604892 0 0.5 0.5 0 0.5 0.5 0 0.44869178898555118 0.47114104043810773 0 0.43997638964765301 0.5 0 0.43997638964765301 0.5 0 0.42042227031096352 0.48076069362540602 0 0.39604179009403911 0.5 0 0.42042227031096352 0.48076069362540602 0 0.39215275163637558 0.49038034681270443 0 0.41106133500613629 0.47509323044648699 0 0.42042227031096352 0.48076069362540602 0 0.4026676317325032 0.47825636614921918 0 0.42042227031096352 0.48076069362540602 0 0.4199828204326494 0.47096228719320171 0 0.42434632629980978 0.46804066323432031 0 0.41106133500613629 0.47509323044648699 0 0.42042227031096352 0.48076069362540602 0 0.4199828204326494 0.47096228719320171 0 0.44869178898555118 0.47114104043810773 0 0.42042227031096352 0.48076069362540602 0 0.42434632629980978 0.46804066323432031 0 0.44869178898555118 0.47114104043810773 0 0.43997638964765301 0.5 0 0.42042227031096352 0.48076069362540602 0 0.44869178898555118 0.47114104043810773 0 0.42042227031096352 0.48076069362540602 0 0.42410135011368821 0.45995456146659341 0 0.42434632629980978 0.46804066323432031 0 0.43714136522124047 0.44481589248670028 0 0.42434632629980978 0.46804066323432031 0 0.43714136522124047 0.44481589248670028 0 0.44120870952789809 0.45869566431422049 0 0.42434632629980978 0.46804066323432031 0 0.43714136522124047 0.44481589248670028 0 0.4199828204326494 0.47096228719320171 0 0.42410135011368821 0.45995456146659341 0 0.42434632629980978 0.46804066323432031 0 0.42694085117959252 0.43028492687192721 0 0.43714136522124047 0.44481589248670028 0 0.41922948897669832 0.44036094215621657 0 0.42410135011368821 0.45995456146659341 0 0.43714136522124047 0.44481589248670028 0 0.41710980119171742 0.45111629362714378 0 0.43714136522124047 0.44481589248670028 0 0.41922948897669832 0.44036094215621657 0 0.41710980119171742 0.45111629362714378 0 0.42410135011368821 0.45995456146659341 0 0.43714136522124047 0.44481589248670028 0 0.41922948897669832 0.44036094215621657 0 0.41710980119171742 0.45111629362714378 0 0.40742269761138872 0.44115545534377398 0 0.41710980119171742 0.45111629362714378 0 0.40742269761138872 0.44115545534377398 0 0.40439013151477049 0.45536601655510123 0 0.41106133500613629 0.47509323044648699 0 0.42410135011368821 0.45995456146659341 0 0.41167723228106912 0.46214528915739589 0 0.41106133500613629 0.47509323044648699 0 0.42410135011368821 0.45995456146659341 0 0.41106133500613629 0.47509323044648699 0 0.4199828204326494 0.47096228719320171 0 0.42410135011368821 0.45995456146659341 0 0.42410135011368821 0.45995456146659341 0 0.41710980119171742 0.45111629362714378 0 0.41167723228106912 0.46214528915739589 0 0.41710980119171742 0.45111629362714378 0 0.41167723228106912 0.46214528915739589 0 0.40439013151477049 0.45536601655510123 0 0.41167723228106912 0.46214528915739589 0 0.40312355604321981 0.46783672693786521 0 0.40439013151477049 0.45536601655510123 0 0.41106133500613629 0.47509323044648699 0 0.41167723228106912 0.46214528915739589 0 0.40312355604321981 0.46783672693786521 0 0.40312355604321981 0.46783672693786521 0 0.40439013151477049 0.45536601655510123 0 0.39390200521263352 0.46075485415901002 0 0.40312355604321981 0.46783672693786521 0 0.39390200521263352 0.46075485415901002 0 0.39405926504640992 0.4733501782547116 0 0.40439013151477049 0.45536601655510123 0 0.39390200521263352 0.46075485415901002 0 0.39440344837374369 0.44310821858019062 0 0.40742269761138872 0.44115545534377398 0 0.40439013151477049 0.45536601655510123 0 0.39440344837374369 0.44310821858019062 0 0.36764918343601088 0.45880108397121511 0 0.37940446514598042 0.43909705635749291 0 0.38356742826684198 0.45424216415883401 0 0.39390200521263352 0.46075485415901002 0 0.39440344837374369 0.44310821858019062 0 0.38356742826684198 0.45424216415883401 0 0.39440344837374369 0.44310821858019062 0 0.37940446514598042 0.43909705635749291 0 0.38356742826684198 0.45424216415883401 0 0.36764918343601088 0.45880108397121511 0 0.38363344619688722 0.46853229075607528 0 0.38356742826684198 0.45424216415883401 0 0.39390200521263352 0.46075485415901002 0 0.38363344619688722 0.46853229075607528 0 0.38356742826684198 0.45424216415883401 0 0.39390200521263352 0.46075485415901002 0 0.38363344619688722 0.46853229075607528 0 0.39405926504640992 0.4733501782547116 0 0.3741716791707464 0.47977193284585079 0 0.38363344619688722 0.46853229075607528 0 0.38788770204725231 0.47924905983975302 0 0.3741716791707464 0.47977193284585079 0 0.38788770204725231 0.47924905983975302 0 0.39215275163637558 0.49038034681270443 0 0.36388323296178732 0.50000000000000155 0 0.39604179009403911 0.5 0 0.39215275163637558 0.49038034681270443 0 0.3741716791707464 0.47977193284585079 0 0.36764918343601088 0.45880108397121511 0 0.38363344619688722 0.46853229075607528 0 0.38363344619688722 0.46853229075607528 0 0.38788770204725231 0.47924905983975302 0 0.39405926504640992 0.4733501782547116 0 0.36388323296178732 0.50000000000000155 0 0.3741716791707464 0.47977193284585079 0 0.39215275163637558 0.49038034681270443 0 0.36388323296178732 0.50000000000000155 0 0.39215275163637558 0.49038034681270443 0 0.42042227031096352 0.48076069362540602 0 0.39604179009403911 0.5 0 0.39215275163637558 0.49038034681270443 0 0.42042227031096352 0.48076069362540602 0 0.39215275163637558 0.49038034681270443 0 0.4026676317325032 0.47825636614921918 0 0.41106133500613629 0.47509323044648699 0 0.40312355604321981 0.46783672693786521 0 0.4026676317325032 0.47825636614921918 0 0.40312355604321981 0.46783672693786521 0 0.4026676317325032 0.47825636614921918 0 0.39405926504640992 0.4733501782547116 0 0.38788770204725231 0.47924905983975302 0 0.39405926504640992 0.4733501782547116 0 0.3941918376156352 0.48030898776409697 0 0.39215275163637558 0.49038034681270443 0 0.4026676317325032 0.47825636614921918 0 0.3941918376156352 0.48030898776409697 0 0.4026676317325032 0.47825636614921918 0 0.39405926504640992 0.4733501782547116 0 0.3941918376156352 0.48030898776409697 0 0.38788770204725231 0.47924905983975302 0 0.39215275163637558 0.49038034681270443 0 0.3941918376156352 0.48030898776409697 0 0.32882181924624482 0.089267953076216405 0 0.3393645744370456 0.081745733658262196 0 0.33142806648716372 0.077414028552587458 0 0.32882181924624482 0.089267953076216405 0 0.3393645744370456 0.081745733658262196 0 0.33866326828756399 0.096854615553923024 0 0.3393645744370456 0.081745733658262196 0 0.33866326828756399 0.096854615553923024 0 0.35026620877932341 0.086913151754228368 0 0.34084012377340828 0.07108712586790468 0 0.32907905635503032 0.064183529898525854 0 0.34537577208940912 0.05869260809856737 0 0.3393645744370456 0.081745733658262196 0 0.34084012377340828 0.07108712586790468 0 0.34819909280801392 0.077255373870822541 0 0.3393645744370456 0.081745733658262196 0 0.34084012377340828 0.07108712586790468 0 0.33142806648716372 0.077414028552587458 0 0.34084012377340828 0.07108712586790468 0 0.32907905635503032 0.064183529898525854 0 0.33142806648716372 0.077414028552587458 0 0.32907905635503032 0.064183529898525854 0 0.31068573572004787 0.078729295053633241 0 0.30496774908694679 0.072307455287021496 0 0.32907905635503032 0.064183529898525854 0 0.30496774908694679 0.072307455287021496 0 0.32907905635503032 0.064183529898525854 0 0.33142806648716372 0.077414028552587458 0 0.31903475862408898 0.080785800262027904 0 0.32907905635503032 0.064183529898525854 0 0.31451157428051829 0.058739030481087147 0 0.30496774908694679 0.072307455287021496 0 0.32907905635503032 0.064183529898525854 0 0.31903475862408898 0.080785800262027904 0 0.32907905635503032 0.064183529898525854 0 0.31903475862408898 0.080785800262027904 0 0.31068573572004787 0.078729295053633241 0 0.32882181924624482 0.089267953076216405 0 0.31903475862408898 0.080785800262027904 0 0.32098420607386119 0.099863082624082333 0 0.31903475862408898 0.080785800262027904 0 0.32098420607386119 0.099863082624082333 0 0.31068573572004787 0.078729295053633241 0 0.32882181924624482 0.089267953076216405 0 0.33142806648716372 0.077414028552587458 0 0.31903475862408898 0.080785800262027904 0 0.32098420607386119 0.099863082624082333 0 0.32293455276883049 0.1224521128944327 0 0.33932418897236222 0.1179522892516109 0 0.32098420607386119 0.099863082624082333 0 0.32293455276883049 0.1224521128944327 0 0.3095566759976906 0.1155148366089172 0 0.32098420607386119 0.099863082624082333 0 0.33932418897236222 0.1179522892516109 0 0.33866326828756399 0.096854615553923024 0 0.32098420607386119 0.099863082624082333 0 0.33932418897236222 0.1179522892516109 0 0.32882181924624482 0.089267953076216405 0 0.32098420607386119 0.099863082624082333 0 0.33866326828756399 0.096854615553923024 0 0.33932418897236222 0.1179522892516109 0 0.33866326828756399 0.096854615553923024 0 0.35415907831799393 0.1010062125396719 0 0.33866326828756399 0.096854615553923024 0 0.35415907831799393 0.1010062125396719 0 0.35026620877932341 0.086913151754228368 0 0.33932418897236222 0.1179522892516109 0 0.35415907831799393 0.1010062125396719 0 0.3650720533180542 0.1158579157250603 0 0.33932418897236222 0.1179522892516109 0 0.3650720533180542 0.1158579157250603 0 0.35766417187086302 0.1360414958791395 0 0.35415907831799393 0.1010062125396719 0 0.3650720533180542 0.1158579157250603 0 0.36774475250808392 0.099333096006358534 0 0.3650720533180542 0.1158579157250603 0 0.36774475250808392 0.099333096006358534 0 0.38256921655416343 0.1034225080984801 0 0.35415907831799393 0.1010062125396719 0 0.36774475250808392 0.099333096006358534 0 0.36170367818675309 0.088216932220542318 0 0.36774475250808392 0.099333096006358534 0 0.36170367818675309 0.088216932220542318 0 0.37521973616345439 0.088161911448038005 0 0.36768856335647421 0.079025897653715677 0 0.36170367818675309 0.088216932220542318 0 0.37521973616345439 0.088161911448038005 0 0.36768856335647421 0.079025897653715677 0 0.37633642060158418 0.076784453334308486 0 0.37521973616345439 0.088161911448038005 0 0.36768856335647421 0.079025897653715677 0 0.36170367818675309 0.088216932220542318 0 0.35904183261748929 0.076546849776687118 0 0.35415907831799393 0.1010062125396719 0 0.36170367818675309 0.088216932220542318 0 0.35026620877932341 0.086913151754228368 0 0.35026620877932341 0.086913151754228368 0 0.34819909280801392 0.077255373870822541 0 0.35904183261748929 0.076546849776687118 0 0.36170367818675309 0.088216932220542318 0 0.35026620877932341 0.086913151754228368 0 0.35904183261748929 0.076546849776687118 0 0.3393645744370456 0.081745733658262196 0 0.35026620877932341 0.086913151754228368 0 0.34819909280801392 0.077255373870822541 0 0.35148272443280321 0.069984008297030359 0 0.36369434107035981 0.06780481570202021 0 0.34537577208940912 0.05869260809856737 0 0.36369434107035981 0.06780481570202021 0 0.34537577208940912 0.05869260809856737 0 0.34084012377340828 0.07108712586790468 0 0.35148272443280321 0.069984008297030359 0 0.34537577208940912 0.05869260809856737 0 0.34084012377340828 0.07108712586790468 0 0.35148272443280321 0.069984008297030359 0 0.34819909280801392 0.077255373870822541 0 0.35148272443280321 0.069984008297030359 0 0.34819909280801392 0.077255373870822541 0 0.35904183261748929 0.076546849776687118 0 0.35148272443280321 0.069984008297030359 0 0.35904183261748929 0.076546849776687118 0 0.36369434107035981 0.06780481570202021 0 0.36369434107035981 0.06780481570202021 0 0.37799902802804569 0.067222174991591124 0 0.37992251621770001 0.060338697154957037 0 0.36369434107035981 0.06780481570202021 0 0.36948548469140452 0.070685504853627582 0 0.35904183261748929 0.076546849776687118 0 0.36369434107035981 0.06780481570202021 0 0.3649775554339319 0.073515766996512633 0 0.36768856335647421 0.079025897653715677 0 0.35904183261748929 0.076546849776687118 0 0.3649775554339319 0.073515766996512633 0 0.35904183261748929 0.076546849776687118 0 0.36369434107035981 0.06780481570202021 0 0.36369434107035981 0.06780481570202021 0 0.3649775554339319 0.073515766996512633 0 0.36948548469140452 0.070685504853627582 0 0.36948548469140452 0.070685504853627582 0 0.37633642060158418 0.076784453334308486 0 0.37799902802804569 0.067222174991591124 0 0.36768856335647421 0.079025897653715677 0 0.36948548469140452 0.070685504853627582 0 0.37633642060158418 0.076784453334308486 0 0.36768856335647421 0.079025897653715677 0 0.3649775554339319 0.073515766996512633 0 0.36948548469140452 0.070685504853627582 0 0.36369434107035981 0.06780481570202021 0 0.36948548469140452 0.070685504853627582 0 0.37799902802804569 0.067222174991591124 0 0.36369434107035981 0.06780481570202021 0 0.37318246110653053 0.049976697924118463 0 0.36369434107035981 0.06780481570202021 0 0.37318246110653053 0.049976697924118463 0 0.34537577208940912 0.05869260809856737 0 0.36369434107035981 0.06780481570202021 0 0.37992251621770001 0.060338697154957037 0 0.38060125038709042 0.051722107246657517 0 0.36369434107035981 0.06780481570202021 0 0.37318246110653053 0.049976697924118463 0 0.38060125038709042 0.051722107246657517 0 0.36590914524554868 0.038558828828381048 0 0.37096837100031238 0.0263002131899947 0 0.34940208279844509 0.030591497020132731 0 0.37318246110653053 0.049976697924118463 0 0.36590914524554868 0.038558828828381048 0 0.37733914173700589 0.04216632120431172 0 0.36590914524554868 0.038558828828381048 0 0.37096837100031238 0.0263002131899947 0 0.37733914173700589 0.04216632120431172 0 0.37318246110653053 0.049976697924118463 0 0.36590914524554868 0.038558828828381048 0 0.35550221582419189 0.046056753598469773 0 0.36590914524554868 0.038558828828381048 0 0.35550221582419189 0.046056753598469773 0 0.34940208279844509 0.030591497020132731 0 0.35550221582419189 0.046056753598469773 0 0.34940208279844509 0.030591497020132731 0 0.33540244217208143 0.053731573598597218 0 0.37318246110653053 0.049976697924118463 0 0.35550221582419189 0.046056753598469773 0 0.34537577208940912 0.05869260809856737 0 0.37318246110653053 0.049976697924118463 0 0.34537577208940912 0.05869260809856737 0 0.35550221582419189 0.046056753598469773 0 0.34537577208940912 0.05869260809856737 0 0.33540244217208143 0.053731573598597218 0 0.36340172342481469 0.0074514204416719276 0 0.37096837100031238 0.0263002131899947 0 0.34940208279844509 0.030591497020132731 0 0.36340172342481469 0.0074514204416719276 0 0.34940208279844509 0.030591497020132731 0 0.36340172342481469 0.0074514204416719276 0 0.34940208279844509 0.030591497020132731 0 0.33926131895553052 0.010037413436357889 0 0.34940208279844509 0.030591497020132731 0 0.33926131895553052 0.010037413436357889 0 0.32970419905470733 0.032262954357502198 0 0.33926131895553052 0.010037413436357889 0 0.32970419905470733 0.032262954357502198 0 0.30933647645701717 0.019984162444094639 0 0.33926131895553052 0.010037413436357889 0 0.30933647645701717 0.019984162444094639 0 0.31931567015707069 -0.00026893956108775221 0 0.32907905635503032 0.064183529898525854 0 0.34537577208940912 0.05869260809856737 0 0.33540244217208143 0.053731573598597218 0 0.32907905635503032 0.064183529898525854 0 0.34537577208940912 0.05869260809856737 0 0.32907905635503032 0.064183529898525854 0 0.33540244217208143 0.053731573598597218 0 0.34537577208940912 0.05869260809856737 0 0.33540244217208143 0.053731573598597218 0 0.34940208279844509 0.030591497020132731 0 0.33540244217208143 0.053731573598597218 0 0.34940208279844509 0.030591497020132731 0 0.33540244217208143 0.053731573598597218 0 0.32970419905470733 0.032262954357502198 0 0.33540244217208143 0.053731573598597218 0 0.32970419905470733 0.032262954357502198 0 0.31250057539752502 0.042339495714484379 0 0.32970419905470733 0.032262954357502198 0 0.31250057539752502 0.042339495714484379 0 0.30933647645701717 0.019984162444094639 0 0.33540244217208143 0.053731573598597218 0 0.31451157428051829 0.058739030481087147 0 0.31250057539752502 0.042339495714484379 0 0.33540244217208143 0.053731573598597218 0 0.31250057539752502 0.042339495714484379 0 0.32907905635503032 0.064183529898525854 0 0.33540244217208143 0.053731573598597218 0 0.31451157428051829 0.058739030481087147 0 0.30181235042957799 0.053445166588452088 0 0.31250057539752502 0.042339495714484379 0 0.29436171911805781 0.045508810484794882 0 0.31451157428051829 0.058739030481087147 0 0.30181235042957799 0.053445166588452088 0 0.30293127448171342 0.066800807888475353 0 0.31451157428051829 0.058739030481087147 0 0.30181235042957799 0.053445166588452088 0 0.31250057539752502 0.042339495714484379 0 0.30181235042957799 0.053445166588452088 0 0.29563553457186043 0.060433179497121341 0 0.30293127448171342 0.066800807888475353 0 0.31250057539752502 0.042339495714484379 0 0.29436171911805781 0.045508810484794882 0 0.28959870862296849 0.03094741783037094 0 0.31250057539752502 0.042339495714484379 0 0.28959870862296849 0.03094741783037094 0 0.29436171911805781 0.045508810484794882 0 0.28959870862296849 0.03094741783037094 0 0.27936293363823861 0.046125012600320828 0 0.29436171911805781 0.045508810484794882 0 0.2885340275019791 0.054686959690346169 0 0.27936293363823861 0.046125012600320828 0 0.30181235042957799 0.053445166588452088 0 0.2885340275019791 0.054686959690346169 0 0.29563553457186043 0.060433179497121341 0 0.2885340275019791 0.054686959690346169 0 0.29563553457186043 0.060433179497121341 0 0.28926448587417131 0.066799783821211767 0 0.30181235042957799 0.053445166588452088 0 0.29436171911805781 0.045508810484794882 0 0.2885340275019791 0.054686959690346169 0 0.30933647645701717 0.019984162444094639 0 0.31931567015707069 -0.00026893956108775221 0 0.29666158144344351 -0.0017469125296412319 0 0.31250057539752502 0.042339495714484379 0 0.30933647645701717 0.019984162444094639 0 0.28959870862296849 0.03094741783037094 0 0.30933647645701717 0.019984162444094639 0 0.28959870862296849 0.03094741783037094 0 0.28357804457633062 0.01295424182706173 0 0.28357804457633062 0.01295424182706173 0 0.28044547795403918 -0.007426133596136821 0 0.29666158144344351 -0.0017469125296412319 0 0.30933647645701717 0.019984162444094639 0 0.28357804457633062 0.01295424182706173 0 0.29666158144344351 -0.0017469125296412319 0 0.28357804457633062 0.01295424182706173 0 0.26669684184841208 0.019555339946257459 0 0.26393903377749889 -0.0020135769245689058 0 0.28357804457633062 0.01295424182706173 0 0.26393903377749889 -0.0020135769245689058 0 0.28044547795403918 -0.007426133596136821 0 0.28959870862296849 0.03094741783037094 0 0.28357804457633062 0.01295424182706173 0 0.26669684184841208 0.019555339946257459 0 0.28959870862296849 0.03094741783037094 0 0.26669684184841208 0.019555339946257459 0 0.28959870862296849 0.03094741783037094 0 0.26669684184841208 0.019555339946257459 0 0.26909455556730938 0.036146666225593677 0 0.24379497507385561 0.0081632620621440027 0 0.26669684184841208 0.019555339946257459 0 0.2525527590451529 0.027338614664117501 0 0.26669684184841208 0.019555339946257459 0 0.2525527590451529 0.027338614664117501 0 0.26909455556730938 0.036146666225593677 0 0.24379497507385561 0.0081632620621440027 0 0.26669684184841208 0.019555339946257459 0 0.26393903377749889 -0.0020135769245689058 0 0.24379497507385561 0.0081632620621440027 0 0.26669684184841208 0.019555339946257459 0 0.27936293363823861 0.046125012600320828 0 0.26310069791536539 0.063207510951118206 0 0.2885340275019791 0.054686959690346169 0 0.2750314389564717 0.059205938864030867 0 0.2691280967703038 0.072804272214338314 0 0.2750314389564717 0.059205938864030867 0 0.27936293363823861 0.046125012600320828 0 0.26310069791536539 0.063207510951118206 0 0.27936293363823861 0.046125012600320828 0 0.26453745358865499 0.048128218094386777 0 0.26310069791536539 0.063207510951118206 0 0.2885340275019791 0.054686959690346169 0 0.2750314389564717 0.059205938864030867 0 0.27936293363823861 0.046125012600320828 0 0.28959870862296849 0.03094741783037094 0 0.27936293363823861 0.046125012600320828 0 0.26909455556730938 0.036146666225593677 0 0.27936293363823861 0.046125012600320828 0 0.26909455556730938 0.036146666225593677 0 0.26453745358865499 0.048128218094386777 0 0.26909455556730938 0.036146666225593677 0 0.25627818759749982 0.040671246459471407 0 0.26453745358865499 0.048128218094386777 0 0.2525527590451529 0.027338614664117501 0 0.26909455556730938 0.036146666225593677 0 0.25627818759749982 0.040671246459471407 0 0.24399446879708131 0.041877834385467397 0 0.2525527590451529 0.027338614664117501 0 0.25627818759749982 0.040671246459471407 0 0.24399446879708131 0.041877834385467397 0 0.25627818759749982 0.040671246459471407 0 0.25341438735800148 0.052184531591211808 0 0.25627818759749982 0.040671246459471407 0 0.25341438735800148 0.052184531591211808 0 0.26453745358865499 0.048128218094386777 0 0.25341438735800148 0.052184531591211808 0 0.26453745358865499 0.048128218094386777 0 0.26310069791536539 0.063207510951118206 0 0.24808411360837751 0.064354059346647396 0 0.25341438735800148 0.052184531591211808 0 0.26310069791536539 0.063207510951118206 0 0.2468384621924922 0.080290009301915558 0 0.26310069791536539 0.063207510951118206 0 0.2468384621924922 0.080290009301915558 0 0.24808411360837751 0.064354059346647396 0 0.26310069791536539 0.063207510951118206 0 0.2468384621924922 0.080290009301915558 0 0.26310069791536539 0.063207510951118206 0 0.2691280967703038 0.072804272214338314 0 0.24972216603863029 0.090921584738332312 0 0.26528930392874722 0.085676482706926141 0 0.2691280967703038 0.072804272214338314 0 0.2468384621924922 0.080290009301915558 0 0.24972216603863029 0.090921584738332312 0 0.2691280967703038 0.072804272214338314 0 0.24972216603863029 0.090921584738332312 0 0.2691280967703038 0.072804272214338314 0 0.24972216603863029 0.090921584738332312 0 0.26528930392874722 0.085676482706926141 0 0.24972216603863029 0.090921584738332312 0 0.26528930392874722 0.085676482706926141 0 0.26112803860318617 0.092613100922751518 0 0.26528930392874722 0.085676482706926141 0 0.26112803860318617 0.092613100922751518 0 0.28085644181886321 0.080431380675517028 0 0.26112803860318617 0.092613100922751518 0 0.28085644181886321 0.080431380675517028 0 0.27589884324882841 0.1029497805264661 0 0.26112803860318617 0.092613100922751518 0 0.28085644181886321 0.080431380675517028 0 0.26528930392874722 0.085676482706926141 0 0.28085644181886321 0.080431380675517028 0 0.26528930392874722 0.085676482706926141 0 0.28085644181886321 0.080431380675517028 0 0.2691280967703038 0.072804272214338314 0 0.2885340275019791 0.054686959690346169 0 0.2691280967703038 0.072804272214338314 0 0.2885340275019791 0.054686959690346169 0 0.2691280967703038 0.072804272214338314 0 0.2819457629913294 0.068680599100353484 0 0.2750314389564717 0.059205938864030867 0 0.26310069791536539 0.063207510951118206 0 0.2691280967703038 0.072804272214338314 0 0.28085644181886321 0.080431380675517028 0 0.2691280967703038 0.072804272214338314 0 0.2819457629913294 0.068680599100353484 0 0.28085644181886321 0.080431380675517028 0 0.30496774908694679 0.072307455287021496 0 0.30293127448171342 0.066800807888475353 0 0.28085644181886321 0.080431380675517028 0 0.30496774908694679 0.072307455287021496 0 0.28085644181886321 0.080431380675517028 0 0.30293127448171342 0.066800807888475353 0 0.2885340275019791 0.054686959690346169 0 0.2819457629913294 0.068680599100353484 0 0.28926448587417131 0.066799783821211767 0 0.28085644181886321 0.080431380675517028 0 0.28926448587417131 0.066799783821211767 0 0.30293127448171342 0.066800807888475353 0 0.29563553457186043 0.060433179497121341 0 0.28926448587417131 0.066799783821211767 0 0.30293127448171342 0.066800807888475353 0 0.28085644181886321 0.080431380675517028 0 0.2819457629913294 0.068680599100353484 0 0.28926448587417131 0.066799783821211767 0 0.28085644181886321 0.080431380675517028 0 0.29443560418348358 0.083986740911852209 0 0.30496774908694679 0.072307455287021496 0 0.28085644181886321 0.080431380675517028 0 0.29087663174337408 0.095282194324212213 0 0.27589884324882841 0.1029497805264661 0 0.28085644181886321 0.080431380675517028 0 0.29443560418348358 0.083986740911852209 0 0.29087663174337408 0.095282194324212213 0 0.29443560418348358 0.083986740911852209 0 0.29856151241719892 0.090097026311166312 0 0.29087663174337408 0.095282194324212213 0 0.29443560418348358 0.083986740911852209 0 0.30264422317536038 0.08177387599655371 0 0.29856151241719892 0.090097026311166312 0 0.32098420607386119 0.099863082624082333 0 0.30264422317536038 0.08177387599655371 0 0.29443560418348358 0.083986740911852209 0 0.30264422317536038 0.08177387599655371 0 0.30496774908694679 0.072307455287021496 0 0.32098420607386119 0.099863082624082333 0 0.30264422317536038 0.08177387599655371 0 0.31068573572004787 0.078729295053633241 0 0.32098420607386119 0.099863082624082333 0 0.30264422317536038 0.08177387599655371 0 0.30516659373194083 0.097314990941060192 0 0.30264422317536038 0.08177387599655371 0 0.29856151241719892 0.090097026311166312 0 0.30516659373194083 0.097314990941060192 0 0.30264422317536038 0.08177387599655371 0 0.31068573572004787 0.078729295053633241 0 0.30496774908694679 0.072307455287021496 0 0.31451157428051829 0.058739030481087147 0 0.30496774908694679 0.072307455287021496 0 0.30293127448171342 0.066800807888475353 0 0.32293455276883049 0.1224521128944327 0 0.3095566759976906 0.1155148366089172 0 0.30334978652628691 0.13535957809498941 0 0.3095566759976906 0.1155148366089172 0 0.29284157380083392 0.1121837374761864 0 0.30334978652628691 0.13535957809498941 0 0.32098420607386119 0.099863082624082333 0 0.3095566759976906 0.1155148366089172 0 0.30516659373194083 0.097314990941060192 0 0.3095566759976906 0.1155148366089172 0 0.30516659373194083 0.097314990941060192 0 0.29284157380083392 0.1121837374761864 0 0.29856151241719892 0.090097026311166312 0 0.30516659373194083 0.097314990941060192 0 0.29087663174337408 0.095282194324212213 0 0.29087663174337408 0.095282194324212213 0 0.29284157380083392 0.1121837374761864 0 0.27589884324882841 0.1029497805264661 0 0.30516659373194083 0.097314990941060192 0 0.29087663174337408 0.095282194324212213 0 0.29284157380083392 0.1121837374761864 0 0.29284157380083392 0.1121837374761864 0 0.27875027266183328 0.1225212174310592 0 0.27589884324882841 0.1029497805264661 0 0.29284157380083392 0.1121837374761864 0 0.27875027266183328 0.1225212174310592 0 0.30334978652628691 0.13535957809498941 0 0.27875027266183328 0.1225212174310592 0 0.27589884324882841 0.1029497805264661 0 0.25948156763023827 0.11050145920967171 0 0.27875027266183328 0.1225212174310592 0 0.25948156763023827 0.11050145920967171 0 0.26254456585692693 0.12656755894933419 0 0.26112803860318617 0.092613100922751518 0 0.27589884324882841 0.1029497805264661 0 0.25948156763023827 0.11050145920967171 0 0.24139963538750961 0.1047948211699866 0 0.24972216603863029 0.090921584738332312 0 0.26112803860318617 0.092613100922751518 0 0.24139963538750961 0.1047948211699866 0 0.26112803860318617 0.092613100922751518 0 0.24139963538750961 0.1047948211699866 0 0.26112803860318617 0.092613100922751518 0 0.25948156763023827 0.11050145920967171 0 0.242377986707283 0.12580685675486811 0 0.25948156763023827 0.11050145920967171 0 0.26254456585692693 0.12656755894933419 0 0.242377986707283 0.12580685675486811 0 0.26254456585692693 0.12656755894933419 0 0.25684396881101362 0.14263541090959811 0 0.26254456585692693 0.12656755894933419 0 0.25684396881101362 0.14263541090959811 0 0.28174526926101978 0.13937497748909511 0 0.27875027266183328 0.1225212174310592 0 0.26254456585692693 0.12656755894933419 0 0.28174526926101978 0.13937497748909511 0 0.2700825038712743 0.15704141343412339 0 0.28174526926101978 0.13937497748909511 0 0.28849543194252347 0.15286283040979201 0 0.25684396881101362 0.14263541090959811 0 0.2700825038712743 0.15704141343412339 0 0.28174526926101978 0.13937497748909511 0 0.2486945900190925 0.16067151539559149 0 0.25684396881101362 0.14263541090959811 0 0.2700825038712743 0.15704141343412339 0 0.24431279077721821 0.17811355121882769 0 0.2486945900190925 0.16067151539559149 0 0.26342702741837531 0.1748367334434355 0 0.2486945900190925 0.16067151539559149 0 0.26342702741837531 0.1748367334434355 0 0.2700825038712743 0.15704141343412339 0 0.24431279077721821 0.17811355121882769 0 0.26342702741837531 0.1748367334434355 0 0.25500310095378947 0.19498500486412149 0 0.26342702741837531 0.1748367334434355 0 0.28416199328236069 0.1705153822282261 0 0.27859475311904403 0.18899299121128429 0 0.26342702741837531 0.1748367334434355 0 0.25500310095378947 0.19498500486412149 0 0.27859475311904403 0.18899299121128429 0 0.2700825038712743 0.15704141343412339 0 0.28416199328236069 0.1705153822282261 0 0.28849543194252347 0.15286283040979201 0 0.26342702741837531 0.1748367334434355 0 0.2700825038712743 0.15704141343412339 0 0.28416199328236069 0.1705153822282261 0 0.28416199328236069 0.1705153822282261 0 0.30313760677167589 0.16202280080252621 0 0.28849543194252347 0.15286283040979201 0 0.28416199328236069 0.1705153822282261 0 0.30028521803213343 0.1796078158726199 0 0.30313760677167589 0.16202280080252621 0 0.28416199328236069 0.1705153822282261 0 0.30028521803213343 0.1796078158726199 0 0.27859475311904403 0.18899299121128429 0 0.30313760677167589 0.16202280080252621 0 0.31668714985713331 0.14936016463262419 0 0.31637890758957882 0.16915754586787521 0 0.30028521803213343 0.1796078158726199 0 0.30313760677167589 0.16202280080252621 0 0.31637890758957882 0.16915754586787521 0 0.30313760677167589 0.16202280080252621 0 0.30334978652628691 0.13535957809498941 0 0.31668714985713331 0.14936016463262419 0 0.30313760677167589 0.16202280080252621 0 0.30334978652628691 0.13535957809498941 0 0.28849543194252347 0.15286283040979201 0 0.27875027266183328 0.1225212174310592 0 0.30334978652628691 0.13535957809498941 0 0.28174526926101978 0.13937497748909511 0 0.30334978652628691 0.13535957809498941 0 0.28174526926101978 0.13937497748909511 0 0.28849543194252347 0.15286283040979201 0 0.2534443558029531 0.25718739904821453 0 0.27732106216941438 0.23842693944476329 0 0.25012005701005491 0.23841861139815559 0 0.27732106216941438 0.23842693944476329 0 0.25012005701005491 0.23841861139815559 0 0.25590748765988269 0.22150825276354849 0 0.27732106216941438 0.23842693944476329 0 0.25590748765988269 0.22150825276354849 0 0.28575930287479712 0.21825315286615221 0 0.27732106216941438 0.23842693944476329 0 0.25590748765988269 0.22150825276354849 0 0.25590748765988269 0.22150825276354849 0 0.27205691019390188 0.20549213338334429 0 0.28575930287479712 0.21825315286615221 0 0.25590748765988269 0.22150825276354849 0 0.27205691019390188 0.20549213338334429 0 0.25500310095378947 0.19498500486412149 0 0.27205691019390188 0.20549213338334429 0 0.25500310095378947 0.19498500486412149 0 0.27859475311904403 0.18899299121128429 0 0.27205691019390188 0.20549213338334429 0 0.27859475311904403 0.18899299121128429 0 0.29467207045657862 0.19877975445246979 0 0.30028521803213343 0.1796078158726199 0 0.27859475311904403 0.18899299121128429 0 0.29467207045657862 0.19877975445246979 0 0.30028521803213343 0.1796078158726199 0 0.29467207045657862 0.19877975445246979 0 0.32106014377342318 0.18936930356107159 0 0.29467207045657862 0.19877975445246979 0 0.31027609474617263 0.21096312982034651 0 0.32106014377342318 0.18936930356107159 0 0.29467207045657862 0.19877975445246979 0 0.31027609474617263 0.21096312982034651 0 0.28575930287479712 0.21825315286615221 0 0.27205691019390188 0.20549213338334429 0 0.29467207045657862 0.19877975445246979 0 0.28575930287479712 0.21825315286615221 0 0.27732106216941438 0.23842693944476329 0 0.28575930287479712 0.21825315286615221 0 0.30450536571256231 0.2331543779731621 0 0.31027609474617263 0.21096312982034651 0 0.30450536571256231 0.2331543779731621 0 0.31027609474617263 0.21096312982034651 0 0.28575930287479712 0.21825315286615221 0 0.30450536571256231 0.2331543779731621 0 0.2987346366789474 0.25534562612597661 0 0.30450536571256231 0.2331543779731621 0 0.2987346366789474 0.25534562612597661 0 0.3203757203608496 0.25093943201190189 0 0.30450536571256231 0.2331543779731621 0 0.2987346366789474 0.25534562612597661 0 0.27732106216941438 0.23842693944476329 0 0.30450536571256231 0.2331543779731621 0 0.2987346366789474 0.25534562612597661 0 0.27732106216941438 0.23842693944476329 0 0.34090219402522959 0.25391427900408831 0 0.33139286028759662 0.22830039419754741 0 0.35316215757465602 0.23903359670842661 0 0.3203757203608496 0.25093943201190189 0 0.34090219402522959 0.25391427900408831 0 0.33139286028759662 0.22830039419754741 0 0.3203757203608496 0.25093943201190189 0 0.30450536571256231 0.2331543779731621 0 0.33139286028759662 0.22830039419754741 0 0.31027609474617263 0.21096312982034651 0 0.30450536571256231 0.2331543779731621 0 0.33139286028759662 0.22830039419754741 0 0.33139286028759662 0.22830039419754741 0 0.33205076870059058 0.20597033388409619 0 0.36008219235002242 0.2210376379808289 0 0.31027609474617263 0.21096312982034651 0 0.33139286028759662 0.22830039419754741 0 0.33205076870059058 0.20597033388409619 0 0.31027609474617263 0.21096312982034651 0 0.33205076870059058 0.20597033388409619 0 0.32106014377342318 0.18936930356107159 0 0.33205076870059058 0.20597033388409619 0 0.32106014377342318 0.18936930356107159 0 0.35040330593177538 0.1932326412256816 0 0.35040330593177538 0.1932326412256816 0 0.37137838690972491 0.18807230192342311 0 0.37702282053419728 0.20672611559803611 0 0.35040330593177538 0.1932326412256816 0 0.36008219235002242 0.2210376379808289 0 0.37702282053419728 0.20672611559803611 0 0.33205076870059058 0.20597033388409619 0 0.35040330593177538 0.1932326412256816 0 0.36008219235002242 0.2210376379808289 0 0.35040330593177538 0.1932326412256816 0 0.36008219235002242 0.2210376379808289 0 0.33139286028759662 0.22830039419754741 0 0.36008219235002242 0.2210376379808289 0 0.35316215757465602 0.23903359670842661 0 0.36008219235002242 0.2210376379808289 0 0.3697610787682693 0.2488426347359762 0 0.38498852767125491 0.24122135929535821 0 0.36008219235002242 0.2210376379808289 0 0.3697610787682693 0.2488426347359762 0 0.36008219235002242 0.2210376379808289 0 0.3697610787682693 0.2488426347359762 0 0.35316215757465602 0.23903359670842661 0 0.33104553309528151 0.13762264771538679 0 0.34072441951352839 0.16542764447053429 0 0.33104553309528151 0.13762264771538679 0 0.31668714985713331 0.14936016463262419 0 0.34072441951352839 0.16542764447053429 0 0.33104553309528151 0.13762264771538679 0 0.34072441951352839 0.16542764447053429 0 0.35722867765229049 0.15536601891079349 0 0.32293455276883049 0.1224521128944327 0 0.33932418897236222 0.1179522892516109 0 0.33104553309528151 0.13762264771538679 0 0.33932418897236222 0.1179522892516109 0 0.33104553309528151 0.13762264771538679 0 0.35766417187086302 0.1360414958791395 0 0.32293455276883049 0.1224521128944327 0 0.30334978652628691 0.13535957809498941 0 0.33104553309528151 0.13762264771538679 0 0.30334978652628691 0.13535957809498941 0 0.33104553309528151 0.13762264771538679 0 0.31668714985713331 0.14936016463262419 0 0.31668714985713331 0.14936016463262419 0 0.31637890758957882 0.16915754586787521 0 0.34072441951352839 0.16542764447053429 0 0.32106014377342318 0.18936930356107159 0 0.31637890758957882 0.16915754586787521 0 0.34072441951352839 0.16542764447053429 0 0.30028521803213343 0.1796078158726199 0 0.32106014377342318 0.18936930356107159 0 0.31637890758957882 0.16915754586787521 0 0.32106014377342318 0.18936930356107159 0 0.35040330593177538 0.1932326412256816 0 0.34072441951352839 0.16542764447053429 0 0.34072441951352839 0.16542764447053429 0 0.36678303295618381 0.17033213710845219 0 0.35722867765229049 0.15536601891079349 0 0.35040330593177538 0.1932326412256816 0 0.34072441951352839 0.16542764447053429 0 0.35040330593177538 0.1932326412256816 0 0.34072441951352839 0.16542764447053429 0 0.36678303295618381 0.17033213710845219 0 0.35040330593177538 0.1932326412256816 0 0.37137838690972491 0.18807230192342311 0 0.36678303295618381 0.17033213710845219 0 0.37137838690972491 0.18807230192342311 0 0.36678303295618381 0.17033213710845219 0 0.38640366940709331 0.17401930976586719 0 0.36678303295618381 0.17033213710845219 0 0.35722867765229049 0.15536601891079349 0 0.38094306242442272 0.15001060712151271 0 0.35722867765229049 0.15536601891079349 0 0.35766417187086302 0.1360414958791395 0 0.38094306242442272 0.15001060712151271 0 0.33104553309528151 0.13762264771538679 0 0.35722867765229049 0.15536601891079349 0 0.35766417187086302 0.1360414958791395 0 0.33932418897236222 0.1179522892516109 0 0.35766417187086302 0.1360414958791395 0 0.3650720533180542 0.1158579157250603 0 0.35766417187086302 0.1360414958791395 0 0.38416284182457838 0.1295809146792371 0 0.35766417187086302 0.1360414958791395 0 0.38416284182457838 0.1295809146792371 0 0.38094306242442272 0.15001060712151271 0 0.38416284182457838 0.1295809146792371 0 0.41046451004434759 0.1368017780357649 0 0.40386153296416732 0.12308205244315 0 0.38416284182457838 0.1295809146792371 0 0.38094306242442272 0.15001060712151271 0 0.41046451004434759 0.1368017780357649 0 0.40032097069390421 0.15723805368106661 0 0.41046451004434759 0.1368017780357649 0 0.38094306242442272 0.15001060712151271 0 0.40032097069390421 0.15723805368106661 0 0.41046451004434759 0.1368017780357649 0 0.36678303295618381 0.17033213710845219 0 0.38094306242442272 0.15001060712151271 0 0.38640366940709331 0.17401930976586719 0 0.38094306242442272 0.15001060712151271 0 0.38640366940709331 0.17401930976586719 0 0.40032097069390421 0.15723805368106661 0 0.37137838690972491 0.18807230192342311 0 0.38640366940709331 0.17401930976586719 0 0.39055221299108589 0.19414610796190271 0 0.38640366940709331 0.17401930976586719 0 0.41008117469564548 0.18409816479458299 0 0.39055221299108589 0.19414610796190271 0 0.38640366940709331 0.17401930976586719 0 0.40032097069390421 0.15723805368106661 0 0.41008117469564548 0.18409816479458299 0 0.40032097069390421 0.15723805368106661 0 0.41008117469564548 0.18409816479458299 0 0.42521866345556802 0.15927820082192951 0 0.41008117469564548 0.18409816479458299 0 0.43719109293924219 0.18413372273066991 0 0.42521866345556802 0.15927820082192951 0 0.42521866345556802 0.15927820082192951 0 0.43480306567891958 0.13635513890890141 0 0.41046451004434759 0.1368017780357649 0 0.42521866345556802 0.15927820082192951 0 0.43480306567891958 0.13635513890890141 0 0.45019824935952041 0.15899964512260059 0 0.43480306567891958 0.13635513890890141 0 0.41046451004434759 0.1368017780357649 0 0.42060804939479091 0.1163655023904633 0 0.41046451004434759 0.1368017780357649 0 0.42060804939479091 0.1163655023904633 0 0.41046451004434759 0.1368017780357649 0 0.42060804939479091 0.1163655023904633 0 0.40386153296416732 0.12308205244315 0 0.40032097069390421 0.15723805368106661 0 0.42521866345556802 0.15927820082192951 0 0.41046451004434759 0.1368017780357649 0 0.39791460208287083 0.25465313531526151 0 0.39860413914559623 0.23729245201952451 0 0.4157864541368661 0.2385152010276069 0 0.39791460208287083 0.25465313531526151 0 0.39860413914559623 0.23729245201952451 0 0.38498852767125491 0.24122135929535821 0 0.38082920604792603 0.25598700272303282 0 0.3697610787682693 0.2488426347359762 0 0.38498852767125491 0.24122135929535821 0 0.36008219235002242 0.2210376379808289 0 0.38498852767125491 0.24122135929535821 0 0.38812092918059499 0.22442490453550329 0 0.39860413914559623 0.23729245201952451 0 0.38498852767125491 0.24122135929535821 0 0.38812092918059499 0.22442490453550329 0 0.38812092918059499 0.22442490453550329 0 0.40393669537686222 0.22481129005459441 0 0.40275283943407331 0.21034079688246859 0 0.39860413914559623 0.23729245201952451 0 0.40393669537686222 0.22481129005459441 0 0.4157864541368661 0.2385152010276069 0 0.39860413914559623 0.23729245201952451 0 0.38812092918059499 0.22442490453550329 0 0.40393669537686222 0.22481129005459441 0 0.36008219235002242 0.2210376379808289 0 0.38812092918059499 0.22442490453550329 0 0.37702282053419728 0.20672611559803611 0 0.40275283943407331 0.21034079688246859 0 0.37702282053419728 0.20672611559803611 0 0.39055221299108589 0.19414610796190271 0 0.38812092918059499 0.22442490453550329 0 0.40275283943407331 0.21034079688246859 0 0.37702282053419728 0.20672611559803611 0 0.37137838690972491 0.18807230192342311 0 0.37702282053419728 0.20672611559803611 0 0.39055221299108589 0.19414610796190271 0 0.41008117469564548 0.18409816479458299 0 0.40275283943407331 0.21034079688246859 0 0.39055221299108589 0.19414610796190271 0 0.41008117469564548 0.18409816479458299 0 0.40275283943407331 0.21034079688246859 0 0.42418393651896391 0.2092678003387394 0 0.41008117469564548 0.18409816479458299 0 0.43719109293924219 0.18413372273066991 0 0.42418393651896391 0.2092678003387394 0 0.43719109293924219 0.18413372273066991 0 0.42418393651896391 0.2092678003387394 0 0.43719109293924219 0.18413372273066991 0 0.42418393651896391 0.2092678003387394 0 0.43972877945376948 0.20985622372148161 0 0.42418393651896391 0.2092678003387394 0 0.41720309078202422 0.2222237880873778 0 0.43365830619086138 0.2223772667399522 0 0.42418393651896391 0.2092678003387394 0 0.43365830619086138 0.2223772667399522 0 0.43972877945376948 0.20985622372148161 0 0.40275283943407331 0.21034079688246859 0 0.42418393651896391 0.2092678003387394 0 0.41720309078202422 0.2222237880873778 0 0.40393669537686222 0.22481129005459441 0 0.41720309078202422 0.2222237880873778 0 0.4157864541368661 0.2385152010276069 0 0.40393669537686222 0.22481129005459441 0 0.40275283943407331 0.21034079688246859 0 0.41720309078202422 0.2222237880873778 0 0.41720309078202422 0.2222237880873778 0 0.43365830619086138 0.2223772667399522 0 0.4157864541368661 0.2385152010276069 0 0.43365830619086138 0.2223772667399522 0 0.4157864541368661 0.2385152010276069 0 0.43365830619086138 0.2223772667399522 0 0.42458975920809972 0.24083006070410809 0 0.43245070974038258 0.23797440803504141 0 0.43365830619086138 0.2223772667399522 0 0.42458975920809972 0.24083006070410809 0 0.4157864541368661 0.2385152010276069 0 0.43365830619086138 0.2223772667399522 0 0.43245070974038258 0.23797440803504141 0 0.43887752489140719 0.23461599882884071 0 0.42458975920809972 0.24083006070410809 0 0.43245070974038258 0.23797440803504141 0 0.42913832261543639 0.24699447791096979 0 0.43683074871155819 0.2438529793808695 0 0.42913832261543639 0.24699447791096979 0 0.44490961289443293 0.2457957572306515 0 0.42029596382120099 0.25721116849415748 0 0.44686397588079929 0.24675167446521809 0 0.44490961289443293 0.2457957572306515 0 0.43245070974038258 0.23797440803504141 0 0.43683074871155819 0.2438529793808695 0 0.43887752489140719 0.23461599882884071 0 0.43245070974038258 0.23797440803504141 0 0.43683074871155819 0.2438529793808695 0 0.42913832261543639 0.24699447791096979 0 0.42458975920809972 0.24083006070410809 0 0.42913832261543639 0.24699447791096979 0 0.41924950797967347 0.2478139921637027 0 0.39791460208287083 0.25465313531526151 0 0.4157864541368661 0.2385152010276069 0 0.39791460208287083 0.25465313531526151 0 0.41924950797967347 0.2478139921637027 0 0.4157864541368661 0.2385152010276069 0 0.42458975920809972 0.24083006070410809 0 0.41924950797967347 0.2478139921637027 0 0.4157864541368661 0.2385152010276069 0 0.45891367209220207 0.24466484045656939 0 0.44686397588079929 0.24675167446521809 0 0.47343198794039748 0.2362921804362787 0 0.46227257055347698 0.23653600088466839 0 0.44490961289443293 0.2457957572306515 0 0.47245480644721849 0.23403551535150849 0 0.44686397588079929 0.24675167446521809 0 0.47343198794039748 0.2362921804362787 0 0.44490961289443293 0.2457957572306515 0 0.47245480644721849 0.23403551535150849 0 0.44686397588079929 0.24675167446521809 0 0.44490961289443293 0.2457957572306515 0 0.47245480644721849 0.23403551535150849 0 0.44686397588079929 0.24675167446521809 0 0.47245480644721849 0.23403551535150849 0 0.47343198794039748 0.2362921804362787 0 0.46359214720652442 0.2463369329078276 0 0.45891367209220207 0.24466484045656939 0 0.46964302182836709 0.24184684721926339 0 0.46359214720652442 0.2463369329078276 0 0.46337325671774132 0.2497144021282616 0 0.45872475370585081 0.24872107275690339 0 0.46359214720652442 0.2463369329078276 0 0.46337325671774132 0.2497144021282616 0 0.46730603168846041 0.24673750197814051 0 0.4685410882301036 0.25055002417303152 0 0.46337325671774132 0.2497144021282616 0 0.46730603168846041 0.24673750197814051 0 0.46359214720652442 0.2463369329078276 0 0.46730603168846041 0.24673750197814051 0 0.46964302182836709 0.24184684721926339 0 0.45891367209220207 0.24466484045656939 0 0.47343198794039748 0.2362921804362787 0 0.46964302182836709 0.24184684721926339 0 0.46227257055347698 0.23653600088466839 0 0.45478452739529801 0.23860596772052459 0 0.45094941558718138 0.24151454357894911 0 0.46227257055347698 0.23653600088466839 0 0.45824243449238561 0.235869161025096 0 0.45984513302159491 0.23286534059468611 0 0.46227257055347698 0.23653600088466839 0 0.45824243449238561 0.235869161025096 0 0.45478452739529801 0.23860596772052459 0 0.45824243449238561 0.235869161025096 0 0.4560675069991727 0.2354693349005049 0 0.45984513302159491 0.23286534059468611 0 0.4560675069991727 0.2354693349005049 0 0.45144286242707821 0.23642656162405309 0 0.45461852393426061 0.23228661785605359 0 0.4560675069991727 0.2354693349005049 0 0.45478452739529801 0.23860596772052459 0 0.45144286242707821 0.23642656162405309 0 0.45824243449238561 0.235869161025096 0 0.4560675069991727 0.2354693349005049 0 0.45478452739529801 0.23860596772052459 0 0.46359214720652442 0.2463369329078276 0 0.45891367209220207 0.24466484045656939 0 0.45872475370585081 0.24872107275690339 0 0.45891367209220207 0.24466484045656939 0 0.45872475370585081 0.24872107275690339 0 0.45455288077002021 0.24757661094311689 0 0.45891367209220207 0.24466484045656939 0 0.45455288077002021 0.24757661094311689 0 0.45143893569143168 0.24765275254445249 0 0.45432005632295058 0.25059012213621162 0 0.45872475370585081 0.24872107275690339 0 0.45455288077002021 0.24757661094311689 0 0.45432005632295058 0.25059012213621162 0 0.45455288077002021 0.24757661094311689 0 0.45143893569143168 0.24765275254445249 0 0.46227257055347698 0.23653600088466839 0 0.44490961289443293 0.2457957572306515 0 0.45094941558718138 0.24151454357894911 0 0.45035689414277458 0.25017781365707259 0 0.45432005632295058 0.25059012213621162 0 0.45143893569143168 0.24765275254445249 0 0.45891367209220207 0.24466484045656939 0 0.45143893569143168 0.24765275254445249 0 0.44686397588079929 0.24675167446521809 0 0.45035689414277458 0.25017781365707259 0 0.45143893569143168 0.24765275254445249 0 0.44776448567704868 0.2491812010568866 0 0.44490961289443293 0.2457957572306515 0 0.44628509040833891 0.24127264316831881 0 0.45094941558718138 0.24151454357894911 0 0.45143893569143168 0.24765275254445249 0 0.44776448567704868 0.2491812010568866 0 0.44686397588079929 0.24675167446521809 0 0.44564303767459429 0.25053390313874319 0 0.44776448567704868 0.2491812010568866 0 0.44595081851542973 0.24893729020385941 0 0.44776448567704868 0.2491812010568866 0 0.44686397588079929 0.24675167446521809 0 0.44595081851542973 0.24893729020385941 0 0.43683074871155819 0.2438529793808695 0 0.44490961289443293 0.2457957572306515 0 0.44190093838939049 0.2431621946674459 0 0.44084314226191629 0.25265514603487932 0 0.44686397588079929 0.24675167446521809 0 0.44595081851542973 0.24893729020385941 0 0.44490961289443293 0.2457957572306515 0 0.44378246349382039 0.24255361120398519 0 0.44628509040833891 0.24127264316831881 0 0.44490961289443293 0.2457957572306515 0 0.44378246349382039 0.24255361120398519 0 0.44190093838939049 0.2431621946674459 0 0.43683074871155819 0.2438529793808695 0 0.44190093838939049 0.2431621946674459 0 0.44203421228311929 0.2399838497495245 0 0.43683074871155819 0.2438529793808695 0 0.43887752489140719 0.23461599882884071 0 0.44203421228311929 0.2399838497495245 0 0.44203421228311929 0.2399838497495245 0 0.44583501130296199 0.23559211197249111 0 0.44628509040833891 0.24127264316831881 0 0.44378246349382039 0.24255361120398519 0 0.44203421228311929 0.2399838497495245 0 0.44628509040833891 0.24127264316831881 0 0.44378246349382039 0.24255361120398519 0 0.44190093838939049 0.2431621946674459 0 0.44203421228311929 0.2399838497495245 0 0.43887752489140719 0.23461599882884071 0 0.44203421228311929 0.2399838497495245 0 0.44583501130296199 0.23559211197249111 0 0.44583501130296199 0.23559211197249111 0 0.45144286242707821 0.23642656162405309 0 0.45001780859126223 0.23164557910921191 0 0.44583501130296199 0.23559211197249111 0 0.44867895890607962 0.2386349722720317 0 0.45144286242707821 0.23642656162405309 0 0.44583501130296199 0.23559211197249111 0 0.44628509040833891 0.24127264316831881 0 0.44867895890607962 0.2386349722720317 0 0.44628509040833891 0.24127264316831881 0 0.44867895890607962 0.2386349722720317 0 0.45094941558718138 0.24151454357894911 0 0.45478452739529801 0.23860596772052459 0 0.45094941558718138 0.24151454357894911 0 0.45144286242707821 0.23642656162405309 0 0.44867895890607962 0.2386349722720317 0 0.45094941558718138 0.24151454357894911 0 0.45144286242707821 0.23642656162405309 0 0.45144286242707821 0.23642656162405309 0 0.45001780859126223 0.23164557910921191 0 0.45461852393426061 0.23228661785605359 0 0.43365830619086138 0.2223772667399522 0 0.44371152345836262 0.225728385429151 0 0.43972877945376948 0.20985622372148161 0 0.45001780859126223 0.23164557910921191 0 0.44371152345836262 0.225728385429151 0 0.45460969403738433 0.2272187975696783 0 0.44583501130296199 0.23559211197249111 0 0.45001780859126223 0.23164557910921191 0 0.44371152345836262 0.225728385429151 0 0.45001780859126223 0.23164557910921191 0 0.45460969403738433 0.2272187975696783 0 0.45461852393426061 0.23228661785605359 0 0.43365830619086138 0.2223772667399522 0 0.43887752489140719 0.23461599882884071 0 0.44371152345836262 0.225728385429151 0 0.43887752489140719 0.23461599882884071 0 0.44583501130296199 0.23559211197249111 0 0.44371152345836262 0.225728385429151 0 0.44371152345836262 0.225728385429151 0 0.45460969403738433 0.2272187975696783 0 0.4545300791857933 0.21581403232688701 0 0.45944673100492128 0.22239408772133509 0 0.46653743667820141 0.21941841805481399 0 0.4545300791857933 0.21581403232688701 0 0.45944673100492128 0.22239408772133509 0 0.45460969403738433 0.2272187975696783 0 0.46346565484266222 0.22791742933883519 0 0.45944673100492128 0.22239408772133509 0 0.45460969403738433 0.2272187975696783 0 0.4545300791857933 0.21581403232688701 0 0.45460969403738433 0.2272187975696783 0 0.45984513302159491 0.23286534059468611 0 0.46346565484266222 0.22791742933883519 0 0.45460969403738433 0.2272187975696783 0 0.45461852393426061 0.23228661785605359 0 0.45984513302159491 0.23286534059468611 0 0.4560675069991727 0.2354693349005049 0 0.45461852393426061 0.23228661785605359 0 0.45984513302159491 0.23286534059468611 0 0.46227257055347698 0.23653600088466839 0 0.46510830942535591 0.23240621078000551 0 0.47245480644721849 0.23403551535150849 0 0.46227257055347698 0.23653600088466839 0 0.45984513302159491 0.23286534059468611 0 0.46510830942535591 0.23240621078000551 0 0.45984513302159491 0.23286534059468611 0 0.46346565484266222 0.22791742933883519 0 0.46510830942535591 0.23240621078000551 0 0.46510830942535591 0.23240621078000551 0 0.46781485426523861 0.2302092981837621 0 0.47245480644721849 0.23403551535150849 0 0.46346565484266222 0.22791742933883519 0 0.46781485426523861 0.2302092981837621 0 0.47038638234742369 0.22624430249141561 0 0.46346565484266222 0.22791742933883519 0 0.46510830942535591 0.23240621078000551 0 0.46781485426523861 0.2302092981837621 0 0.46346565484266222 0.22791742933883519 0 0.46653743667820141 0.21941841805481399 0 0.47038638234742369 0.22624430249141561 0 0.45944673100492128 0.22239408772133509 0 0.46346565484266222 0.22791742933883519 0 0.46653743667820141 0.21941841805481399 0 0.4545300791857933 0.21581403232688701 0 0.45112125074717557 0.20188970615041429 0 0.46906493571981522 0.20422326238588701 0 0.46653743667820141 0.21941841805481399 0 0.4545300791857933 0.21581403232688701 0 0.46906493571981522 0.20422326238588701 0 0.44371152345836262 0.225728385429151 0 0.4545300791857933 0.21581403232688701 0 0.43972877945376948 0.20985622372148161 0 0.4545300791857933 0.21581403232688701 0 0.43972877945376948 0.20985622372148161 0 0.45112125074717557 0.20188970615041429 0 0.43719109293924219 0.18413372273066991 0 0.43972877945376948 0.20985622372148161 0 0.45112125074717557 0.20188970615041429 0 0.43719109293924219 0.18413372273066991 0 0.45112125074717557 0.20188970615041429 0 0.45684873682176552 0.18584048710275011 0 0.46906493571981522 0.20422326238588701 0 0.45684873682176552 0.18584048710275011 0 0.47666815534307438 0.1799560991241789 0 0.45112125074717557 0.20188970615041429 0 0.46906493571981522 0.20422326238588701 0 0.45684873682176552 0.18584048710275011 0 0.48538106092969918 0.20397942447337439 0 0.46906493571981522 0.20422326238588701 0 0.47666815534307438 0.1799560991241789 0 0.5 0.19451514247620191 0 0.48538106092969918 0.20397942447337439 0 0.47666815534307438 0.1799560991241789 0 0.5 0.19451514247620191 0 0.48538106092969918 0.20397942447337439 0 0.50000000000000366 0.22227527347236409 0 0.48538106092969918 0.20397942447337439 0 0.48117221358560602 0.21892734490824009 0 0.50000000000000366 0.22227527347236409 0 0.48538106092969918 0.20397942447337439 0 0.46906493571981522 0.20422326238588701 0 0.48117221358560602 0.21892734490824009 0 0.46653743667820141 0.21941841805481399 0 0.46906493571981522 0.20422326238588701 0 0.48117221358560602 0.21892734490824009 0 0.47245480644721849 0.23403551535150849 0 0.49999999999999623 0.22583268640734061 0 0.47343198794039748 0.2362921804362787 0 0.46653743667820141 0.21941841805481399 0 0.47038638234742369 0.22624430249141561 0 0.48117221358560602 0.21892734490824009 0 0.47038638234742369 0.22624430249141561 0 0.47245480644721849 0.23403551535150849 0 0.48117221358560602 0.21892734490824009 0 0.46781485426523861 0.2302092981837621 0 0.47038638234742369 0.22624430249141561 0 0.47245480644721849 0.23403551535150849 0 0.47245480644721849 0.23403551535150849 0 0.48117221358560602 0.21892734490824009 0 0.50000000000000366 0.22227527347236409 0 0.49999999999999623 0.22583268640734061 0 0.47343198794039748 0.2362921804362787 0 0.47245480644721849 0.23403551535150849 0 0.49999999999999623 0.22583268640734061 0 0.50000000000000366 0.22227527347236409 0 0.47245480644721849 0.23403551535150849 0 0.50000000000000366 0.22227527347236409 0 0.5 0.25086567925177022 0 0.49999999999999623 0.22583268640734061 0 0.48475488326566019 0.24137376230632071 0 0.48028554519144229 0.25116001134618399 0 0.5 0.25086567925177022 0 0.48475488326566019 0.24137376230632071 0 0.49999999999999623 0.22583268640734061 0 0.48475488326566019 0.24137376230632071 0 0.47343198794039748 0.2362921804362787 0 0.48028554519144229 0.25116001134618399 0 0.48475488326566019 0.24137376230632071 0 0.47621324437872808 0.24274652058801871 0 0.48475488326566019 0.24137376230632071 0 0.47343198794039748 0.2362921804362787 0 0.47621324437872808 0.24274652058801871 0 0.47343198794039748 0.2362921804362787 0 0.46964302182836709 0.24184684721926339 0 0.47621324437872808 0.24274652058801871 0 0.48028554519144229 0.25116001134618399 0 0.47247327378161452 0.24647843583022461 0 0.47621324437872808 0.24274652058801871 0 0.46730603168846041 0.24673750197814051 0 0.46964302182836709 0.24184684721926339 0 0.47247327378161452 0.24647843583022461 0 0.4685410882301036 0.25055002417303152 0 0.46730603168846041 0.24673750197814051 0 0.47247327378161452 0.24647843583022461 0 0.46964302182836709 0.24184684721926339 0 0.47247327378161452 0.24647843583022461 0 0.47621324437872808 0.24274652058801871 0 0.46320540577979852 0.13386556751453119 0 0.45019824935952041 0.15899964512260059 0 0.47921950359593529 0.15108902732445359 0 0.46320540577979852 0.13386556751453119 0 0.45019824935952041 0.15899964512260059 0 0.43480306567891958 0.13635513890890141 0 0.46320540577979852 0.13386556751453119 0 0.44064050041911318 0.1167093006436805 0 0.43480306567891958 0.13635513890890141 0 0.46320540577979852 0.13386556751453119 0 0.45019824935952041 0.15899964512260059 0 0.43719109293924219 0.18413372273066991 0 0.42521866345556802 0.15927820082192951 0 0.45019824935952041 0.15899964512260059 0 0.43719109293924219 0.18413372273066991 0 0.45019824935952041 0.15899964512260059 0 0.43719109293924219 0.18413372273066991 0 0.45019824935952041 0.15899964512260059 0 0.45684873682176552 0.18584048710275011 0 0.45019824935952041 0.15899964512260059 0 0.45684873682176552 0.18584048710275011 0 0.47666815534307438 0.1799560991241789 0 0.45019824935952041 0.15899964512260059 0 0.47666815534307438 0.1799560991241789 0 0.47921950359593529 0.15108902732445359 0 0.5 0.19451514247620191 0 0.47666815534307438 0.1799560991241789 0 0.5 0.16675501148003979 0 0.47666815534307438 0.1799560991241789 0 0.5 0.16675501148003979 0 0.47921950359593529 0.15108902732445359 0 0.5 0.16675501148003979 0 0.47921950359593529 0.15108902732445359 0 0.5 0.13899488048387751 0 0.46320540577979852 0.13386556751453119 0 0.47921950359593529 0.15108902732445359 0 0.48433791196633419 0.12672124952203381 0 0.48433791196633419 0.12672124952203381 0 0.5 0.13899488048387751 0 0.50000000000000044 0.1112347494877154 0 0.47921950359593529 0.15108902732445359 0 0.48433791196633419 0.12672124952203381 0 0.5 0.13899488048387751 0 0.48433791196633419 0.12672124952203381 0 0.50000000000000044 0.1112347494877154 0 0.47691719624841178 0.10613290857353 0 0.50000000000000044 0.1112347494877154 0 0.47691719624841178 0.10613290857353 0 0.50000000000000044 0.1112347494877154 0 0.47691719624841178 0.10613290857353 0 0.5 0.084207672479996831 0 0.46320540577979852 0.13386556751453119 0 0.48433791196633419 0.12672124952203381 0 0.47691719624841178 0.10613290857353 0 0.5 0.084207672479996831 0 0.48049155819275219 0.067082983246240901 0 0.5 0.057180595472278162 0 0.5 0.084207672479996831 0 0.46925402710631642 0.083566878142985093 0 0.48049155819275219 0.067082983246240901 0 0.47691719624841178 0.10613290857353 0 0.5 0.084207672479996831 0 0.46925402710631642 0.083566878142985093 0 0.46925402710631642 0.083566878142985093 0 0.48049155819275219 0.067082983246240901 0 0.46505371000221052 0.065497421325091121 0 0.46925402710631642 0.083566878142985093 0 0.46505371000221052 0.065497421325091121 0 0.45775849025888588 0.075230635322704589 0 0.46505371000221052 0.065497421325091121 0 0.45775849025888588 0.075230635322704589 0 0.45256579057934088 0.058177235941962488 0 0.46925402710631642 0.083566878142985093 0 0.44946430779325502 0.087974111344276712 0 0.45383439249682311 0.1010310676593448 0 0.46925402710631642 0.083566878142985093 0 0.45775849025888588 0.075230635322704589 0 0.44946430779325502 0.087974111344276712 0 0.44946430779325502 0.087974111344276712 0 0.43075158874523389 0.095929226745161522 0 0.43591459396744059 0.085527275884239695 0 0.44946430779325502 0.087974111344276712 0 0.44362355023710492 0.073841968334251232 0 0.43591459396744059 0.085527275884239695 0 0.45775849025888588 0.075230635322704589 0 0.44946430779325502 0.087974111344276712 0 0.44362355023710492 0.073841968334251232 0 0.44362355023710492 0.073841968334251232 0 0.4361857312787466 0.062144520026982418 0 0.45256579057934088 0.058177235941962488 0 0.45775849025888588 0.075230635322704589 0 0.44362355023710492 0.073841968334251232 0 0.45256579057934088 0.058177235941962488 0 0.46320540577979852 0.13386556751453119 0 0.47691719624841178 0.10613290857353 0 0.45383439249682311 0.1010310676593448 0 0.46320540577979852 0.13386556751453119 0 0.45383439249682311 0.1010310676593448 0 0.44064050041911318 0.1167093006436805 0 0.47691719624841178 0.10613290857353 0 0.45383439249682311 0.1010310676593448 0 0.47691719624841178 0.10613290857353 0 0.46925402710631642 0.083566878142985093 0 0.45383439249682311 0.1010310676593448 0 0.44946430779325502 0.087974111344276712 0 0.45383439249682311 0.1010310676593448 0 0.43075158874523389 0.095929226745161522 0 0.45383439249682311 0.1010310676593448 0 0.43075158874523389 0.095929226745161522 0 0.45383439249682311 0.1010310676593448 0 0.44064050041911318 0.1167093006436805 0 0.43075158874523389 0.095929226745161522 0 0.44064050041911318 0.1167093006436805 0 0.42060804939479091 0.1163655023904633 0 0.43075158874523389 0.095929226745161522 0 0.43480306567891958 0.13635513890890141 0 0.44064050041911318 0.1167093006436805 0 0.42060804939479091 0.1163655023904633 0 0.42060804939479091 0.1163655023904633 0 0.40021073059295242 0.1095800146671347 0 0.40386153296416732 0.12308205244315 0 0.42060804939479091 0.1163655023904633 0 0.43075158874523389 0.095929226745161522 0 0.41249287020670222 0.091893621786465332 0 0.43075158874523389 0.095929226745161522 0 0.41249287020670222 0.091893621786465332 0 0.42060804939479091 0.1163655023904633 0 0.41249287020670222 0.091893621786465332 0 0.40021073059295242 0.1095800146671347 0 0.42060804939479091 0.1163655023904633 0 0.43075158874523389 0.095929226745161522 0 0.43075158874523389 0.095929226745161522 0 0.43591459396744059 0.085527275884239695 0 0.42450257525020407 0.084688393503963511 0 0.43075158874523389 0.095929226745161522 0 0.43591459396744059 0.085527275884239695 0 0.43075158874523389 0.095929226745161522 0 0.42450257525020407 0.084688393503963511 0 0.41249287020670222 0.091893621786465332 0 0.43591459396744059 0.085527275884239695 0 0.42450257525020407 0.084688393503963511 0 0.42985238754496052 0.073998031485341564 0 0.42985238754496052 0.073998031485341564 0 0.42450278601563618 0.061867443169875323 0 0.4361857312787466 0.062144520026982418 0 0.44362355023710492 0.073841968334251232 0 0.42985238754496052 0.073998031485341564 0 0.4361857312787466 0.062144520026982418 0 0.44362355023710492 0.073841968334251232 0 0.43591459396744059 0.085527275884239695 0 0.42985238754496052 0.073998031485341564 0 0.42450257525020407 0.084688393503963511 0 0.42985238754496052 0.073998031485341564 0 0.41426167578208978 0.073157488989425645 0 0.42985238754496052 0.073998031485341564 0 0.41426167578208978 0.073157488989425645 0 0.42450278601563618 0.061867443169875323 0 0.41426167578208978 0.073157488989425645 0 0.41494681608549239 0.057762819460580143 0 0.42450278601563618 0.061867443169875323 0 0.41426167578208978 0.073157488989425645 0 0.40738087004851969 0.063973704507782503 0 0.41494681608549239 0.057762819460580143 0 0.41426167578208978 0.073157488989425645 0 0.40738087004851969 0.063973704507782503 0 0.40252015196190488 0.070251889777591683 0 0.41426167578208978 0.073157488989425645 0 0.41249287020670222 0.091893621786465332 0 0.40152471876541579 0.079373532342091074 0 0.42450257525020407 0.084688393503963511 0 0.41426167578208978 0.073157488989425645 0 0.41249287020670222 0.091893621786465332 0 0.41249287020670222 0.091893621786465332 0 0.39882695602723689 0.091897214282210316 0 0.40152471876541579 0.079373532342091074 0 0.39882695602723689 0.091897214282210316 0 0.40152471876541579 0.079373532342091074 0 0.39139963739640482 0.080065294445454738 0 0.39882695602723689 0.091897214282210316 0 0.39139963739640482 0.080065294445454738 0 0.38637797313979722 0.089016828915628635 0 0.40738087004851969 0.063973704507782503 0 0.40252015196190488 0.070251889777591683 0 0.39584270769668761 0.063040868706311426 0 0.40152471876541579 0.079373532342091074 0 0.40252015196190488 0.070251889777591683 0 0.39359078751681148 0.071713854342347796 0 0.41426167578208978 0.073157488989425645 0 0.40152471876541579 0.079373532342091074 0 0.40252015196190488 0.070251889777591683 0 0.40152471876541579 0.079373532342091074 0 0.39139963739640482 0.080065294445454738 0 0.39359078751681148 0.071713854342347796 0 0.39359078751681148 0.071713854342347796 0 0.39584270769668761 0.063040868706311426 0 0.38670686771138951 0.065189213981686756 0 0.40252015196190488 0.070251889777591683 0 0.39359078751681148 0.071713854342347796 0 0.39584270769668761 0.063040868706311426 0 0.38670686771138951 0.065189213981686756 0 0.38487356385747612 0.073343796623874247 0 0.37799902802804569 0.067222174991591124 0 0.39359078751681148 0.071713854342347796 0 0.38670686771138951 0.065189213981686756 0 0.38487356385747612 0.073343796623874247 0 0.39139963739640482 0.080065294445454738 0 0.39359078751681148 0.071713854342347796 0 0.38487356385747612 0.073343796623874247 0 0.38487356385747612 0.073343796623874247 0 0.37633642060158418 0.076784453334308486 0 0.37799902802804569 0.067222174991591124 0 0.38487356385747612 0.073343796623874247 0 0.37633642060158418 0.076784453334308486 0 0.38279590191109569 0.081652674412185017 0 0.38670686771138951 0.065189213981686756 0 0.37799902802804569 0.067222174991591124 0 0.37992251621770001 0.060338697154957037 0 0.39139963739640482 0.080065294445454738 0 0.38637797313979722 0.089016828915628635 0 0.38279590191109569 0.081652674412185017 0 0.39139963739640482 0.080065294445454738 0 0.38487356385747612 0.073343796623874247 0 0.38279590191109569 0.081652674412185017 0 0.37633642060158418 0.076784453334308486 0 0.38279590191109569 0.081652674412185017 0 0.37521973616345439 0.088161911448038005 0 0.38637797313979722 0.089016828915628635 0 0.38279590191109569 0.081652674412185017 0 0.37521973616345439 0.088161911448038005 0 0.38637797313979722 0.089016828915628635 0 0.37521973616345439 0.088161911448038005 0 0.38256921655416343 0.1034225080984801 0 0.36774475250808392 0.099333096006358534 0 0.37521973616345439 0.088161911448038005 0 0.38256921655416343 0.1034225080984801 0 0.39882695602723689 0.091897214282210316 0 0.38637797313979722 0.089016828915628635 0 0.38256921655416343 0.1034225080984801 0 0.3650720533180542 0.1158579157250603 0 0.38416284182457838 0.1295809146792371 0 0.38256921655416343 0.1034225080984801 0 0.38416284182457838 0.1295809146792371 0 0.38256921655416343 0.1034225080984801 0 0.40021073059295242 0.1095800146671347 0 0.38416284182457838 0.1295809146792371 0 0.40021073059295242 0.1095800146671347 0 0.40386153296416732 0.12308205244315 0 0.39882695602723689 0.091897214282210316 0 0.38256921655416343 0.1034225080984801 0 0.40021073059295242 0.1095800146671347 0 0.41249287020670222 0.091893621786465332 0 0.39882695602723689 0.091897214282210316 0 0.40021073059295242 0.1095800146671347 0 0.36340172342481469 0.0074514204416719276 0 0.39098394240364309 0.016527826706598431 0 0.37740136405118418 -0.015688656136788919 0 0.39098394240364309 0.016527826706598431 0 0.4072868589526652 0.031402564311129207 0 0.41338274202032771 0.020670044105616878 0 0.39098394240364309 0.016527826706598431 0 0.3983615817235987 0.040931987465416132 0 0.4072868589526652 0.031402564311129207 0 0.39098394240364309 0.016527826706598431 0 0.41338274202032771 0.020670044105616878 0 0.41423333054656419 0.0042619446619767132 0 0.39098394240364309 0.016527826706598431 0 0.40462874307028018 -0.0091106677911148987 0 0.39098394240364309 0.016527826706598431 0 0.41423333054656419 0.0042619446619767132 0 0.40462874307028018 -0.0091106677911148987 0 0.36340172342481469 0.0074514204416719276 0 0.37096837100031238 0.0263002131899947 0 0.39098394240364309 0.016527826706598431 0 0.39098394240364309 0.016527826706598431 0 0.37733914173700589 0.04216632120431172 0 0.37096837100031238 0.0263002131899947 0 0.39098394240364309 0.016527826706598431 0 0.37733914173700589 0.04216632120431172 0 0.39098394240364309 0.016527826706598431 0 0.37733914173700589 0.04216632120431172 0 0.3983615817235987 0.040931987465416132 0 0.37733914173700589 0.04216632120431172 0 0.38856862150906218 0.048519605037236402 0 0.3983615817235987 0.040931987465416132 0 0.37318246110653053 0.049976697924118463 0 0.37733914173700589 0.04216632120431172 0 0.37318246110653053 0.049976697924118463 0 0.37733914173700589 0.04216632120431172 0 0.38060125038709042 0.051722107246657517 0 0.37733914173700589 0.04216632120431172 0 0.38060125038709042 0.051722107246657517 0 0.38856862150906218 0.048519605037236402 0 0.38060125038709042 0.051722107246657517 0 0.38856862150906218 0.048519605037236402 0 0.38819996187953421 0.057063828257024503 0 0.38670686771138951 0.065189213981686756 0 0.37992251621770001 0.060338697154957037 0 0.38819996187953421 0.057063828257024503 0 0.37992251621770001 0.060338697154957037 0 0.38060125038709042 0.051722107246657517 0 0.38819996187953421 0.057063828257024503 0 0.39584270769668761 0.063040868706311426 0 0.38670686771138951 0.065189213981686756 0 0.38819996187953421 0.057063828257024503 0 0.39584270769668761 0.063040868706311426 0 0.38819996187953421 0.057063828257024503 0 0.39755780775527561 0.053572477415297783 0 0.38856862150906218 0.048519605037236402 0 0.38819996187953421 0.057063828257024503 0 0.39755780775527561 0.053572477415297783 0 0.38856862150906218 0.048519605037236402 0 0.39755780775527561 0.053572477415297783 0 0.3983615817235987 0.040931987465416132 0 0.39755780775527561 0.053572477415297783 0 0.3983615817235987 0.040931987465416132 0 0.40666708270227991 0.052523289392781378 0 0.40738087004851969 0.063973704507782503 0 0.39755780775527561 0.053572477415297783 0 0.40666708270227991 0.052523289392781378 0 0.40738087004851969 0.063973704507782503 0 0.39584270769668761 0.063040868706311426 0 0.39755780775527561 0.053572477415297783 0 0.3983615817235987 0.040931987465416132 0 0.4072868589526652 0.031402564311129207 0 0.41289073624031392 0.044930909257013853 0 0.3983615817235987 0.040931987465416132 0 0.41289073624031392 0.044930909257013853 0 0.40666708270227991 0.052523289392781378 0 0.4072868589526652 0.031402564311129207 0 0.41289073624031392 0.044930909257013853 0 0.41783358594328729 0.035802088826224022 0 0.41289073624031392 0.044930909257013853 0 0.41783358594328729 0.035802088826224022 0 0.42133904988613841 0.049960869808265189 0 0.40738087004851969 0.063973704507782503 0 0.40666708270227991 0.052523289392781378 0 0.41494681608549239 0.057762819460580143 0 0.41289073624031392 0.044930909257013853 0 0.40666708270227991 0.052523289392781378 0 0.41494681608549239 0.057762819460580143 0 0.41289073624031392 0.044930909257013853 0 0.42133904988613841 0.049960869808265189 0 0.41494681608549239 0.057762819460580143 0 0.42133904988613841 0.049960869808265189 0 0.41494681608549239 0.057762819460580143 0 0.42450278601563618 0.061867443169875323 0 0.42133904988613841 0.049960869808265189 0 0.42450278601563618 0.061867443169875323 0 0.42997294860007418 0.054152593894779083 0 0.42133904988613841 0.049960869808265189 0 0.42997294860007418 0.054152593894779083 0 0.42885726252022388 0.043110068490782548 0 0.42997294860007418 0.054152593894779083 0 0.42885726252022388 0.043110068490782548 0 0.43895540133452848 0.05077954849207815 0 0.42997294860007418 0.054152593894779083 0 0.4361857312787466 0.062144520026982418 0 0.43895540133452848 0.05077954849207815 0 0.42450278601563618 0.061867443169875323 0 0.42997294860007418 0.054152593894779083 0 0.4361857312787466 0.062144520026982418 0 0.41783358594328729 0.035802088826224022 0 0.42944348608212107 0.033071050426612431 0 0.42885726252022388 0.043110068490782548 0 0.41783358594328729 0.035802088826224022 0 0.42133904988613841 0.049960869808265189 0 0.42885726252022388 0.043110068490782548 0 0.42885726252022388 0.043110068490782548 0 0.43713007850520302 0.039782231633102488 0 0.43895540133452848 0.05077954849207815 0 0.42944348608212107 0.033071050426612431 0 0.43713007850520302 0.039782231633102488 0 0.43746634413519198 0.03107047219593214 0 0.42944348608212107 0.033071050426612431 0 0.42885726252022388 0.043110068490782548 0 0.43713007850520302 0.039782231633102488 0 0.42944348608212107 0.033071050426612431 0 0.43746634413519198 0.03107047219593214 0 0.43169092654587421 0.026134285168176539 0 0.43746634413519198 0.03107047219593214 0 0.43169092654587421 0.026134285168176539 0 0.43827049119896039 0.023379212152475091 0 0.43169092654587421 0.026134285168176539 0 0.43285784875274352 0.013509880289290409 0 0.43827049119896039 0.023379212152475091 0 0.43169092654587421 0.026134285168176539 0 0.42517511717650042 0.0228733897586345 0 0.43285784875274352 0.013509880289290409 0 0.42517511717650042 0.0228733897586345 0 0.4226015264266173 0.012928182328569231 0 0.43285784875274352 0.013509880289290409 0 0.42944348608212107 0.033071050426612431 0 0.43169092654587421 0.026134285168176539 0 0.42517511717650042 0.0228733897586345 0 0.41783358594328729 0.035802088826224022 0 0.42944348608212107 0.033071050426612431 0 0.42517511717650042 0.0228733897586345 0 0.41783358594328729 0.035802088826224022 0 0.42517511717650042 0.0228733897586345 0 0.41338274202032771 0.020670044105616878 0 0.42517511717650042 0.0228733897586345 0 0.41338274202032771 0.020670044105616878 0 0.4226015264266173 0.012928182328569231 0 0.4072868589526652 0.031402564311129207 0 0.41783358594328729 0.035802088826224022 0 0.41338274202032771 0.020670044105616878 0 0.41338274202032771 0.020670044105616878 0 0.41423333054656419 0.0042619446619767132 0 0.4226015264266173 0.012928182328569231 0 0.41423333054656419 0.0042619446619767132 0 0.42698087193446838 0.0033470995555386959 0 0.4226015264266173 0.012928182328569231 0 0.42698087193446838 0.0033470995555386959 0 0.4226015264266173 0.012928182328569231 0 0.43285784875274352 0.013509880289290409 0 0.43285784875274352 0.013509880289290409 0 0.43992359402777648 0.0043361932438141749 0 0.42698087193446838 0.0033470995555386959 0 0.43285784875274352 0.013509880289290409 0 0.43992359402777648 0.0043361932438141749 0 0.43992359402777648 0.0043361932438141749 0 0.44990580955476001 0.019775764696885429 0 0.46078523836517021 -0.0014493034848403229 0 0.43285784875274352 0.013509880289290409 0 0.43992359402777648 0.0043361932438141749 0 0.44201715304030381 0.017873449096985631 0 0.43992359402777648 0.0043361932438141749 0 0.44201715304030381 0.017873449096985631 0 0.44990580955476001 0.019775764696885429 0 0.43992359402777648 0.0043361932438141749 0 0.44990580955476001 0.019775764696885429 0 0.43285784875274352 0.013509880289290409 0 0.43827049119896039 0.023379212152475091 0 0.44201715304030381 0.017873449096985631 0 0.43827049119896039 0.023379212152475091 0 0.4428227492373622 0.022934728194413421 0 0.44201715304030381 0.017873449096985631 0 0.4428227492373622 0.022934728194413421 0 0.44201715304030381 0.017873449096985631 0 0.448324174234559 0.022861433815629571 0 0.43746634413519198 0.03107047219593214 0 0.43827049119896039 0.023379212152475091 0 0.44267917847562582 0.02762481771256339 0 0.43827049119896039 0.023379212152475091 0 0.4428227492373622 0.022934728194413421 0 0.44267917847562582 0.02762481771256339 0 0.4428227492373622 0.022934728194413421 0 0.44267917847562582 0.02762481771256339 0 0.448324174234559 0.022861433815629571 0 0.44267917847562582 0.02762481771256339 0 0.448324174234559 0.022861433815629571 0 0.44591883183389552 0.035954925481738217 0 0.44201715304030381 0.017873449096985631 0 0.448324174234559 0.022861433815629571 0 0.44990580955476001 0.019775764696885429 0 0.448324174234559 0.022861433815629571 0 0.44990580955476001 0.019775764696885429 0 0.448324174234559 0.022861433815629571 0 0.44990580955476001 0.019775764696885429 0 0.46519868387375712 0.043429373971562553 0 0.44990580955476001 0.019775764696885429 0 0.46619213230453888 0.01550423125601634 0 0.46519868387375712 0.043429373971562553 0 0.44990580955476001 0.019775764696885429 0 0.46619213230453888 0.01550423125601634 0 0.46078523836517021 -0.0014493034848403229 0 0.44990580955476001 0.019775764696885429 0 0.46078523836517021 -0.0014493034848403229 0 0.4361857312787466 0.062144520026982418 0 0.45256579057934088 0.058177235941962488 0 0.43895540133452848 0.05077954849207815 0 0.45256579057934088 0.058177235941962488 0 0.43895540133452848 0.05077954849207815 0 0.44902059652358239 0.047310640964859922 0 0.448324174234559 0.022861433815629571 0 0.44591883183389552 0.035954925481738217 0 0.46519868387375712 0.043429373971562553 0 0.43713007850520302 0.039782231633102488 0 0.43895540133452848 0.05077954849207815 0 0.44902059652358239 0.047310640964859922 0 0.43713007850520302 0.039782231633102488 0 0.44902059652358239 0.047310640964859922 0 0.44591883183389552 0.035954925481738217 0 0.43746634413519198 0.03107047219593214 0 0.44267917847562582 0.02762481771256339 0 0.44591883183389552 0.035954925481738217 0 0.43713007850520302 0.039782231633102488 0 0.43746634413519198 0.03107047219593214 0 0.44591883183389552 0.035954925481738217 0 0.44990580955476001 0.019775764696885429 0 0.46519868387375712 0.043429373971562553 0 0.44902059652358239 0.047310640964859922 0 0.44591883183389552 0.035954925481738217 0 0.46519868387375712 0.043429373971562553 0 0.46505371000221052 0.065497421325091121 0 0.45256579057934088 0.058177235941962488 0 0.46519868387375712 0.043429373971562553 0 0.45256579057934088 0.058177235941962488 0 0.44902059652358239 0.047310640964859922 0 0.46519868387375712 0.043429373971562553 0 0.48049155819275219 0.067082983246240901 0 0.46505371000221052 0.065497421325091121 0 0.46519868387375712 0.043429373971562553 0 0.48049155819275219 0.067082983246240901 0 0.46519868387375712 0.043429373971562553 0 0.48555258990836098 0.044027651262655822 0 0.48049155819275219 0.067082983246240901 0 0.46519868387375712 0.043429373971562553 0 0.46519868387375712 0.043429373971562553 0 0.48555258990836098 0.044027651262655822 0 0.48207270747529551 0.02229178515863801 0 0.48555258990836098 0.044027651262655822 0 0.48207270747529551 0.02229178515863801 0 0.5 0.030153518464559489 0 0.48555258990836098 0.044027651262655822 0 0.5 0.057180595472278162 0 0.5 0.030153518464559489 0 0.48049155819275219 0.067082983246240901 0 0.48555258990836098 0.044027651262655822 0 0.5 0.057180595472278162 0 0.46619213230453888 0.01550423125601634 0 0.47957136253037569 -0.001594628440287792 0 0.46078523836517021 -0.0014493034848403229 0 0.46619213230453888 0.01550423125601634 0 0.48207270747529551 0.02229178515863801 0 0.47957136253037569 -0.001594628440287792 0 0.46619213230453888 0.01550423125601634 0 0.46519868387375712 0.043429373971562553 0 0.48207270747529551 0.02229178515863801 0 0.48207270747529551 0.02229178515863801 0 0.5 0.030153518464559489 0 0.5 0.0031264414568406011 0 0.48207270747529551 0.02229178515863801 0 0.5 0.0031264414568406011 0 0.47957136253037569 -0.001594628440287792 0 0.5 0.0031264414568406011 0 0.47957136253037569 -0.001594628440287792 0 0.5 -0.02390063555087818 0 0.47957136253037569 -0.001594628440287792 0 0.47166466717558148 -0.022674371666565399 0 0.46078523836517021 -0.0014493034848403229 0 0.47957136253037569 -0.001594628440287792 0 0.47166466717558148 -0.022674371666565399 0 0.5 -0.02390063555087818 0 0.47166466717558148 -0.022674371666565399 0 0.5 -0.02390063555087818 0 0.48254409598599279 -0.043899439848290381 0 0.5 -0.02390063555087818 0 0.5 -0.050927712558597023 0 0.48254409598599279 -0.043899439848290381 0 0.5 -0.050927712558597023 0 0.48254409598599279 -0.043899439848290381 0 0.49342352479640411 -0.065124508030015363 0 0.5 -0.050927712558597023 0 0.49734713213020848 -0.070218655125416973 0 0.49342352479640411 -0.065124508030015363 0 0.48254409598599279 -0.043899439848290381 0 0.49342352479640411 -0.065124508030015363 0 0.4755902145401949 -0.04197094093873887 0 0.49342352479640411 -0.065124508030015363 0 0.48231690168093072 -0.053312448548452573 0 0.4755902145401949 -0.04197094093873887 0 0.49342352479640411 -0.065124508030015363 0 0.48231690168093072 -0.053312448548452573 0 0.46680628636315702 -0.053636166987100803 0 0.4600163200451588 -0.067305317103482629 0 0.48254409598599279 -0.043899439848290381 0 0.4755902145401949 -0.04197094093873887 0 0.49342352479640411 -0.065124508030015363 0 0.48231690168093072 -0.053312448548452573 0 0.4600163200451588 -0.067305317103482629 0 0.48231690168093072 -0.053312448548452573 0 0.4755902145401949 -0.04197094093873887 0 0.46680628636315702 -0.053636166987100803 0 0.47166466717558148 -0.022674371666565399 0 0.48254409598599279 -0.043899439848290381 0 0.47166466717558148 -0.022674371666565399 0 0.48254409598599279 -0.043899439848290381 0 0.4755902145401949 -0.04197094093873887 0 0.4755902145401949 -0.04197094093873887 0 0.46368001235728989 -0.039204358275783557 0 0.45775690428398569 -0.018817373847462342 0 0.46368001235728989 -0.039204358275783557 0 0.45456664424182219 -0.042392951329832257 0 0.45775690428398569 -0.018817373847462342 0 0.4755902145401949 -0.04197094093873887 0 0.46368001235728989 -0.039204358275783557 0 0.46680628636315702 -0.053636166987100803 0 0.46368001235728989 -0.039204358275783557 0 0.45456664424182219 -0.042392951329832257 0 0.46680628636315702 -0.053636166987100803 0 0.45456664424182219 -0.042392951329832257 0 0.46680628636315702 -0.053636166987100803 0 0.45121972802171689 -0.055819114351623678 0 0.46680628636315702 -0.053636166987100803 0 0.45121972802171689 -0.055819114351623678 0 0.4600163200451588 -0.067305317103482629 0 0.45456664424182219 -0.042392951329832257 0 0.45121972802171689 -0.055819114351623678 0 0.44282632626125551 -0.044950269696858079 0 0.45121972802171689 -0.055819114351623678 0 0.44282632626125551 -0.044950269696858079 0 0.4362178231874399 -0.055228075608074453 0 0.45121972802171689 -0.055819114351623678 0 0.44320660420267649 -0.065746496444307703 0 0.4362178231874399 -0.055228075608074453 0 0.45456664424182219 -0.042392951329832257 0 0.44010891165474292 -0.032978342851005552 0 0.45775690428398569 -0.018817373847462342 0 0.45456664424182219 -0.042392951329832257 0 0.44282632626125551 -0.044950269696858079 0 0.44010891165474292 -0.032978342851005552 0 0.44010891165474292 -0.032978342851005552 0 0.44076936747128642 -0.016440056550152689 0 0.45775690428398569 -0.018817373847462342 0 0.43992359402777648 0.0043361932438141749 0 0.46078523836517021 -0.0014493034848403229 0 0.45775690428398569 -0.018817373847462342 0 0.43992359402777648 0.0043361932438141749 0 0.45775690428398569 -0.018817373847462342 0 0.43992359402777648 0.0043361932438141749 0 0.44076936747128642 -0.016440056550152689 0 0.45775690428398569 -0.018817373847462342 0 0.47166466717558148 -0.022674371666565399 0 0.46078523836517021 -0.0014493034848403229 0 0.45775690428398569 -0.018817373847462342 0 0.47166466717558148 -0.022674371666565399 0 0.46078523836517021 -0.0014493034848403229 0 0.4755902145401949 -0.04197094093873887 0 0.45775690428398569 -0.018817373847462342 0 0.47166466717558148 -0.022674371666565399 0 0.4755902145401949 -0.04197094093873887 0 0.45775690428398569 -0.018817373847462342 0 0.48432939778674999 -0.11232667444405391 0 0.46291061333527922 -0.1199621865080316 0 0.48083616927728368 -0.1326122769646117 0 0.48432939778674999 -0.11232667444405391 0 0.47467812776202672 -0.1010226058562177 0 0.46291061333527922 -0.1199621865080316 0 0.49765321618493619 -0.1217514044971684 0 0.5 -0.10701492340923829 0 0.5 -0.1335092937735452 0 0.48432939778674999 -0.11232667444405391 0 0.49765321618493619 -0.1217514044971684 0 0.5 -0.10701492340923829 0 0.48432939778674999 -0.11232667444405391 0 0.49765321618493619 -0.1217514044971684 0 0.48083616927728368 -0.1326122769646117 0 0.5 -0.10701492340923829 0 0.48721919851180101 -0.096842857827698484 0 0.49999999999999872 -0.080520553044931456 0 0.48432939778674999 -0.11232667444405391 0 0.5 -0.10701492340923829 0 0.48721919851180101 -0.096842857827698484 0 0.48721919851180101 -0.096842857827698484 0 0.47467812776202672 -0.1010226058562177 0 0.47964380972543491 -0.085500621182081002 0 0.48432939778674999 -0.11232667444405391 0 0.48721919851180101 -0.096842857827698484 0 0.47467812776202672 -0.1010226058562177 0 0.47964380972543491 -0.085500621182081002 0 0.45928761945086932 -0.090480689319223123 0 0.47467812776202672 -0.1010226058562177 0 0.47964380972543491 -0.085500621182081002 0 0.45928761945086932 -0.090480689319223123 0 0.47964380972543491 -0.085500621182081002 0 0.49999999999999872 -0.080520553044931456 0 0.48994334767010439 -0.075629467881000889 0 0.47964380972543491 -0.085500621182081002 0 0.49999999999999872 -0.080520553044931456 0 0.48721919851180101 -0.096842857827698484 0 0.47964380972543491 -0.085500621182081002 0 0.49999999999999872 -0.080520553044931456 0 0.5 -0.050927712558597023 0 0.49999999999999922 -0.077954789566315852 0 0.49734713213020848 -0.070218655125416973 0 0.48994334767010439 -0.075629467881000889 0 0.49342352479640411 -0.065124508030015363 0 0.47664940382868443 -0.06904686758166112 0 0.49999999999999872 -0.080520553044931456 0 0.48994334767010439 -0.075629467881000889 0 0.49999999999999922 -0.077954789566315852 0 0.49999999999999922 -0.077954789566315852 0 0.49342352479640411 -0.065124508030015363 0 0.48994334767010439 -0.075629467881000889 0 0.49999999999999922 -0.077954789566315852 0 0.49342352479640411 -0.065124508030015363 0 0.49999999999999922 -0.077954789566315852 0 0.49734713213020848 -0.070218655125416973 0 0.49342352479640411 -0.065124508030015363 0 0.49734713213020848 -0.070218655125416973 0 0.49342352479640411 -0.065124508030015363 0 0.48231690168093072 -0.053312448548452573 0 0.49342352479640411 -0.065124508030015363 0 0.47664940382868443 -0.06904686758166112 0 0.48231690168093072 -0.053312448548452573 0 0.47664940382868443 -0.06904686758166112 0 0.4600163200451588 -0.067305317103482629 0 0.47964380972543491 -0.085500621182081002 0 0.48994334767010439 -0.075629467881000889 0 0.47664940382868443 -0.06904686758166112 0 0.47964380972543491 -0.085500621182081002 0 0.47664940382868443 -0.06904686758166112 0 0.46670422324352601 -0.07834353263688526 0 0.47664940382868443 -0.06904686758166112 0 0.4600163200451588 -0.067305317103482629 0 0.46670422324352601 -0.07834353263688526 0 0.4600163200451588 -0.067305317103482629 0 0.45792396316748368 -0.079384167997978289 0 0.46670422324352601 -0.07834353263688526 0 0.4600163200451588 -0.067305317103482629 0 0.43771573840938699 -0.081298185658512601 0 0.45121972802171689 -0.055819114351623678 0 0.4600163200451588 -0.067305317103482629 0 0.44320660420267649 -0.065746496444307703 0 0.4600163200451588 -0.067305317103482629 0 0.43771573840938699 -0.081298185658512601 0 0.45792396316748368 -0.079384167997978289 0 0.4600163200451588 -0.067305317103482629 0 0.44320660420267649 -0.065746496444307703 0 0.43771573840938699 -0.081298185658512601 0 0.43771573840938699 -0.081298185658512601 0 0.45928761945086932 -0.090480689319223123 0 0.43074801460813861 -0.09746280015662756 0 0.43771573840938699 -0.081298185658512601 0 0.45928761945086932 -0.090480689319223123 0 0.45792396316748368 -0.079384167997978289 0 0.47964380972543491 -0.085500621182081002 0 0.45928761945086932 -0.090480689319223123 0 0.46670422324352601 -0.07834353263688526 0 0.45928761945086932 -0.090480689319223123 0 0.45792396316748368 -0.079384167997978289 0 0.45928761945086932 -0.090480689319223123 0 0.45792396316748368 -0.079384167997978289 0 0.46670422324352601 -0.07834353263688526 0 0.47467812776202672 -0.1010226058562177 0 0.45928761945086932 -0.090480689319223123 0 0.46291061333527922 -0.1199621865080316 0 0.45928761945086932 -0.090480689319223123 0 0.46291061333527922 -0.1199621865080316 0 0.45928761945086932 -0.090480689319223123 0 0.4483808634180329 -0.1053346026619475 0 0.46291061333527922 -0.1199621865080316 0 0.45928761945086932 -0.090480689319223123 0 0.43074801460813861 -0.09746280015662756 0 0.4483808634180329 -0.1053346026619475 0 0.44269508489546172 -0.11827570682135009 0 0.43074801460813861 -0.09746280015662756 0 0.45928761945086932 -0.090480689319223123 0 0.4483808634180329 -0.1053346026619475 0 0.43074801460813861 -0.09746280015662756 0 0.4483808634180329 -0.1053346026619475 0 0.44269508489546172 -0.11827570682135009 0 0.46291061333527922 -0.1199621865080316 0 0.41444127742219738 -0.117920192527197 0 0.42047049602907199 -0.1271837148430543 0 0.40717042195814152 -0.12667580876036291 0 0.41444127742219738 -0.117920192527197 0 0.40034727481755689 -0.1135445646309611 0 0.40717042195814152 -0.12667580876036291 0 0.41444127742219738 -0.117920192527197 0 0.41004708281002661 -0.1059760509905051 0 0.40034727481755689 -0.1135445646309611 0 0.41444127742219738 -0.117920192527197 0 0.41990400635398689 -0.1082451791256239 0 0.41004708281002661 -0.1059760509905051 0 0.41444127742219738 -0.117920192527197 0 0.42787147724535279 -0.1177655168214231 0 0.41990400635398689 -0.1082451791256239 0 0.41444127742219738 -0.117920192527197 0 0.42787147724535279 -0.1177655168214231 0 0.42047049602907199 -0.1271837148430543 0 0.44269508489546172 -0.11827570682135009 0 0.42787147724535279 -0.1177655168214231 0 0.43074801460813861 -0.09746280015662756 0 0.44269508489546172 -0.11827570682135009 0 0.42787147724535279 -0.1177655168214231 0 0.43341698089062902 -0.13232221239677211 0 0.42787147724535279 -0.1177655168214231 0 0.43074801460813861 -0.09746280015662756 0 0.41990400635398689 -0.1082451791256239 0 0.43074801460813861 -0.09746280015662756 0 0.41541515677361518 -0.095291054213542614 0 0.41990400635398689 -0.1082451791256239 0 0.41541515677361518 -0.095291054213542614 0 0.41004708281002661 -0.1059760509905051 0 0.3991029239239049 -0.096732992125864614 0 0.41541515677361518 -0.095291054213542614 0 0.41990400635398689 -0.1082451791256239 0 0.41004708281002661 -0.1059760509905051 0 0.41541515677361518 -0.095291054213542614 0 0.40541197716030081 -0.081460547196662736 0 0.3991029239239049 -0.096732992125864614 0 0.41541515677361518 -0.095291054213542614 0 0.41889981022647937 -0.076077813126430471 0 0.40541197716030081 -0.081460547196662736 0 0.43771573840938699 -0.081298185658512601 0 0.43074801460813861 -0.09746280015662756 0 0.41541515677361518 -0.095291054213542614 0 0.43771573840938699 -0.081298185658512601 0 0.41541515677361518 -0.095291054213542614 0 0.43771573840938699 -0.081298185658512601 0 0.41541515677361518 -0.095291054213542614 0 0.41889981022647937 -0.076077813126430471 0 0.43091234125046712 -0.066556414105652009 0 0.41889981022647937 -0.076077813126430471 0 0.42108541804998351 -0.055154363881672427 0 0.43771573840938699 -0.081298185658512601 0 0.43091234125046712 -0.066556414105652009 0 0.41889981022647937 -0.076077813126430471 0 0.44320660420267649 -0.065746496444307703 0 0.43771573840938699 -0.081298185658512601 0 0.43091234125046712 -0.066556414105652009 0 0.44320660420267649 -0.065746496444307703 0 0.43091234125046712 -0.066556414105652009 0 0.4362178231874399 -0.055228075608074453 0 0.41889981022647937 -0.076077813126430471 0 0.42108541804998351 -0.055154363881672427 0 0.40540064530392328 -0.061968809293710778 0 0.41889981022647937 -0.076077813126430471 0 0.40541197716030081 -0.081460547196662736 0 0.40540064530392328 -0.061968809293710778 0 0.38824134957358092 -0.077232067223765133 0 0.40540064530392328 -0.061968809293710778 0 0.38967908849382449 -0.058682859590283798 0 0.38824134957358092 -0.077232067223765133 0 0.40541197716030081 -0.081460547196662736 0 0.40540064530392328 -0.061968809293710778 0 0.38824134957358092 -0.077232067223765133 0 0.38967908849382449 -0.058682859590283798 0 0.37367335442023991 -0.05670182912840941 0 0.38824134957358092 -0.077232067223765133 0 0.38136371597235552 -0.1078723618563258 0 0.36317377602105899 -0.093780917622311805 0 0.38824134957358092 -0.077232067223765133 0 0.36317377602105899 -0.093780917622311805 0 0.38824134957358092 -0.077232067223765133 0 0.40541197716030081 -0.081460547196662736 0 0.3991029239239049 -0.096732992125864614 0 0.41004708281002661 -0.1059760509905051 0 0.3991029239239049 -0.096732992125864614 0 0.40034727481755689 -0.1135445646309611 0 0.3991029239239049 -0.096732992125864614 0 0.38136371597235552 -0.1078723618563258 0 0.40034727481755689 -0.1135445646309611 0 0.38824134957358092 -0.077232067223765133 0 0.3991029239239049 -0.096732992125864614 0 0.38136371597235552 -0.1078723618563258 0 0.38589697302152071 -0.1203195835582863 0 0.36977374846272099 -0.118981527972274 0 0.37788455695678491 -0.13196097897868941 0 0.38136371597235552 -0.1078723618563258 0 0.38589697302152071 -0.1203195835582863 0 0.40034727481755689 -0.1135445646309611 0 0.38136371597235552 -0.1078723618563258 0 0.38589697302152071 -0.1203195835582863 0 0.36977374846272099 -0.118981527972274 0 0.38589697302152071 -0.1203195835582863 0 0.39630034399856068 -0.12412702266274379 0 0.38887656832053902 -0.13016986574645989 0 0.38589697302152071 -0.1203195835582863 0 0.39630034399856068 -0.12412702266274379 0 0.40034727481755689 -0.1135445646309611 0 0.39630034399856068 -0.12412702266274379 0 0.40034727481755689 -0.1135445646309611 0 0.40717042195814152 -0.12667580876036291 0 0.42528805991864033 -0.018300702745957052 0 0.41065252580950418 -0.040937598735728269 0 0.40254889959785978 -0.025987829841879379 0 0.42528805991864033 -0.018300702745957052 0 0.41065252580950418 -0.040937598735728269 0 0.42528805991864033 -0.018300702745957052 0 0.40254889959785978 -0.025987829841879379 0 0.40462874307028018 -0.0091106677911148987 0 0.41423333054656419 0.0042619446619767132 0 0.42528805991864033 -0.018300702745957052 0 0.40462874307028018 -0.0091106677911148987 0 0.43992359402777648 0.0043361932438141749 0 0.44076936747128642 -0.016440056550152689 0 0.42528805991864033 -0.018300702745957052 0 0.41423333054656419 0.0042619446619767132 0 0.42698087193446838 0.0033470995555386959 0 0.42528805991864033 -0.018300702745957052 0 0.42698087193446838 0.0033470995555386959 0 0.43992359402777648 0.0043361932438141749 0 0.42528805991864033 -0.018300702745957052 0 0.43992359402777648 0.0043361932438141749 0 0.42528805991864033 -0.018300702745957052 0 0.44010891165474292 -0.032978342851005552 0 0.44076936747128642 -0.016440056550152689 0 0.42528805991864033 -0.018300702745957052 0 0.44010891165474292 -0.032978342851005552 0 0.42528805991864033 -0.018300702745957052 0 0.42752105614170027 -0.040835486516484359 0 0.44282632626125551 -0.044950269696858079 0 0.44010891165474292 -0.032978342851005552 0 0.42752105614170027 -0.040835486516484359 0 0.44282632626125551 -0.044950269696858079 0 0.42752105614170027 -0.040835486516484359 0 0.4362178231874399 -0.055228075608074453 0 0.42752105614170027 -0.040835486516484359 0 0.4362178231874399 -0.055228075608074453 0 0.42108541804998351 -0.055154363881672427 0 0.43091234125046712 -0.066556414105652009 0 0.4362178231874399 -0.055228075608074453 0 0.42108541804998351 -0.055154363881672427 0 0.42108541804998351 -0.055154363881672427 0 0.41065252580950418 -0.040937598735728269 0 0.40540064530392328 -0.061968809293710778 0 0.42528805991864033 -0.018300702745957052 0 0.42752105614170027 -0.040835486516484359 0 0.41065252580950418 -0.040937598735728269 0 0.42752105614170027 -0.040835486516484359 0 0.42108541804998351 -0.055154363881672427 0 0.41065252580950418 -0.040937598735728269 0 0.41065252580950418 -0.040937598735728269 0 0.39140100467755368 -0.03882873271524985 0 0.40254889959785978 -0.025987829841879379 0 0.41065252580950418 -0.040937598735728269 0 0.39140100467755368 -0.03882873271524985 0 0.40540064530392328 -0.061968809293710778 0 0.39140100467755368 -0.03882873271524985 0 0.40540064530392328 -0.061968809293710778 0 0.38967908849382449 -0.058682859590283798 0 0.39140100467755368 -0.03882873271524985 0 0.40540064530392328 -0.061968809293710778 0 0.39140100467755368 -0.03882873271524985 0 0.38967908849382449 -0.058682859590283798 0 0.37367335442023991 -0.05670182912840941 0 0.39140100467755368 -0.03882873271524985 0 0.36764866883224051 -0.03534694736976244 0 0.37367335442023991 -0.05670182912840941 0 0.39140100467755368 -0.03882873271524985 0 0.37740136405118418 -0.015688656136788919 0 0.36764866883224051 -0.03534694736976244 0 0.39140100467755368 -0.03882873271524985 0 0.37740136405118418 -0.015688656136788919 0 0.40254889959785978 -0.025987829841879379 0 0.39098394240364309 0.016527826706598431 0 0.37740136405118418 -0.015688656136788919 0 0.40462874307028018 -0.0091106677911148987 0 0.39140100467755368 -0.03882873271524985 0 0.37740136405118418 -0.015688656136788919 0 0.37740136405118418 -0.015688656136788919 0 0.40254889959785978 -0.025987829841879379 0 0.40462874307028018 -0.0091106677911148987 0 0.36340172342481469 0.0074514204416719276 0 0.37740136405118418 -0.015688656136788919 0 0.37740136405118418 -0.015688656136788919 0 0.3457351359459705 -0.01746391836280128 0 0.36764866883224051 -0.03534694736976244 0 0.36340172342481469 0.0074514204416719276 0 0.37740136405118418 -0.015688656136788919 0 0.3457351359459705 -0.01746391836280128 0 0.36340172342481469 0.0074514204416719276 0 0.33926131895553052 0.010037413436357889 0 0.3457351359459705 -0.01746391836280128 0 0.33926131895553052 0.010037413436357889 0 0.3457351359459705 -0.01746391836280128 0 0.31931567015707069 -0.00026893956108775221 0 0.3457351359459705 -0.01746391836280128 0 0.31452146367800288 -0.021182354334393329 0 0.33004309781452318 -0.036670153063868297 0 0.3457351359459705 -0.01746391836280128 0 0.31452146367800288 -0.021182354334393329 0 0.31931567015707069 -0.00026893956108775221 0 0.32877971408751838 -0.05648359902727209 0 0.30031250529218823 -0.068295657277859509 0 0.30877043607103177 -0.040609641310187329 0 0.31452146367800288 -0.021182354334393329 0 0.33004309781452318 -0.036670153063868297 0 0.30877043607103177 -0.040609641310187329 0 0.33004309781452318 -0.036670153063868297 0 0.32877971408751838 -0.05648359902727209 0 0.30877043607103177 -0.040609641310187329 0 0.3457351359459705 -0.01746391836280128 0 0.33004309781452318 -0.036670153063868297 0 0.35003248506625401 -0.048051600505562737 0 0.33004309781452318 -0.036670153063868297 0 0.32877971408751838 -0.05648359902727209 0 0.35003248506625401 -0.048051600505562737 0 0.35003248506625401 -0.048051600505562737 0 0.37367335442023991 -0.05670182912840941 0 0.35323591664608561 -0.070872747419982354 0 0.32877971408751838 -0.05648359902727209 0 0.35003248506625401 -0.048051600505562737 0 0.35323591664608561 -0.070872747419982354 0 0.3457351359459705 -0.01746391836280128 0 0.35003248506625401 -0.048051600505562737 0 0.36764866883224051 -0.03534694736976244 0 0.35003248506625401 -0.048051600505562737 0 0.36764866883224051 -0.03534694736976244 0 0.37367335442023991 -0.05670182912840941 0 0.38824134957358092 -0.077232067223765133 0 0.37367335442023991 -0.05670182912840941 0 0.35323591664608561 -0.070872747419982354 0 0.38824134957358092 -0.077232067223765133 0 0.35323591664608561 -0.070872747419982354 0 0.36317377602105899 -0.093780917622311805 0 0.35323591664608561 -0.070872747419982354 0 0.36317377602105899 -0.093780917622311805 0 0.34061057081295659 -0.089102696014606436 0 0.36977374846272099 -0.118981527972274 0 0.36317377602105899 -0.093780917622311805 0 0.35190257278770443 -0.12340674486460949 0 0.38136371597235552 -0.1078723618563258 0 0.36977374846272099 -0.118981527972274 0 0.36317377602105899 -0.093780917622311805 0 0.36317377602105899 -0.093780917622311805 0 0.33810620246853679 -0.1103297680208586 0 0.34061057081295659 -0.089102696014606436 0 0.36317377602105899 -0.093780917622311805 0 0.35190257278770443 -0.12340674486460949 0 0.33810620246853679 -0.1103297680208586 0 0.36317377602105899 -0.093780917622311805 0 0.33810620246853679 -0.1103297680208586 0 0.33810620246853679 -0.1103297680208586 0 0.31303862891601458 -0.12687861841940551 0 0.33437387270441599 -0.13655687438813749 0 0.35190257278770443 -0.12340674486460949 0 0.33810620246853679 -0.1103297680208586 0 0.33437387270441599 -0.13655687438813749 0 0.33810620246853679 -0.1103297680208586 0 0.31363967812666887 -0.097353961080958673 0 0.34061057081295659 -0.089102696014606436 0 0.33810620246853679 -0.1103297680208586 0 0.31363967812666887 -0.097353961080958673 0 0.31303862891601458 -0.12687861841940551 0 0.33810620246853679 -0.1103297680208586 0 0.31303862891601458 -0.12687861841940551 0 0.32877971408751838 -0.05648359902727209 0 0.35323591664608561 -0.070872747419982354 0 0.32458083349781608 -0.075458630316272896 0 0.35323591664608561 -0.070872747419982354 0 0.34061057081295659 -0.089102696014606436 0 0.32458083349781608 -0.075458630316272896 0 0.31363967812666887 -0.097353961080958673 0 0.32458083349781608 -0.075458630316272896 0 0.30031250529218823 -0.068295657277859509 0 0.31363967812666887 -0.097353961080958673 0 0.34061057081295659 -0.089102696014606436 0 0.32458083349781608 -0.075458630316272896 0 0.32877971408751838 -0.05648359902727209 0 0.32458083349781608 -0.075458630316272896 0 0.30031250529218823 -0.068295657277859509 0 0.31363967812666887 -0.097353961080958673 0 0.30031250529218823 -0.068295657277859509 0 0.2851167807772626 -0.09499943791397214 0 0.30031250529218823 -0.068295657277859509 0 0.28191623048865122 -0.076031692357237932 0 0.2851167807772626 -0.09499943791397214 0 0.30031250529218823 -0.068295657277859509 0 0.28191623048865122 -0.076031692357237932 0 0.27456205322428517 -0.061030033493663427 0 0.31363967812666887 -0.097353961080958673 0 0.28961292292312479 -0.1172584555736924 0 0.31303862891601458 -0.12687861841940551 0 0.31363967812666887 -0.097353961080958673 0 0.2851167807772626 -0.09499943791397214 0 0.28961292292312479 -0.1172584555736924 0 0.26615958812702151 -0.11215990074365741 0 0.25767473658732443 -0.1269586301084292 0 0.27366455997770461 -0.12776251451567339 0 0.28961292292312479 -0.1172584555736924 0 0.26615958812702151 -0.11215990074365741 0 0.27366455997770461 -0.12776251451567339 0 0.2851167807772626 -0.09499943791397214 0 0.26615958812702151 -0.11215990074365741 0 0.26144902667504161 -0.095513899042057232 0 0.2851167807772626 -0.09499943791397214 0 0.28961292292312479 -0.1172584555736924 0 0.26615958812702151 -0.11215990074365741 0 0.26615958812702151 -0.11215990074365741 0 0.26144902667504161 -0.095513899042057232 0 0.24722441108325799 -0.1041764247766344 0 0.26615958812702151 -0.11215990074365741 0 0.24722441108325799 -0.1041764247766344 0 0.24837467886543441 -0.1184499432751434 0 0.26615958812702151 -0.11215990074365741 0 0.25767473658732443 -0.1269586301084292 0 0.24837467886543441 -0.1184499432751434 0 0.25767473658732443 -0.1269586301084292 0 0.24837467886543441 -0.1184499432751434 0 0.24534171350248241 -0.1279746456375026 0 0.28191623048865122 -0.076031692357237932 0 0.2659341598521523 -0.078207651292816566 0 0.27456205322428517 -0.061030033493663427 0 0.28191623048865122 -0.076031692357237932 0 0.2851167807772626 -0.09499943791397214 0 0.2659341598521523 -0.078207651292816566 0 0.2851167807772626 -0.09499943791397214 0 0.26144902667504161 -0.095513899042057232 0 0.2659341598521523 -0.078207651292816566 0 0.26144902667504161 -0.095513899042057232 0 0.24550632562069369 -0.08148075171338201 0 0.24722441108325799 -0.1041764247766344 0 0.26144902667504161 -0.095513899042057232 0 0.2659341598521523 -0.078207651292816566 0 0.24550632562069369 -0.08148075171338201 0 0.2659341598521523 -0.078207651292816566 0 0.25154037507169252 -0.057607439739242518 0 0.24550632562069369 -0.08148075171338201 0 0.2659341598521523 -0.078207651292816566 0 0.25154037507169252 -0.057607439739242518 0 0.27456205322428517 -0.061030033493663427 0 0.25154037507169252 -0.057607439739242518 0 0.27456205322428517 -0.061030033493663427 0 0.26511099969186158 -0.044781248238993362 0 0.27456205322428517 -0.061030033493663427 0 0.26511099969186158 -0.044781248238993362 0 0.28332805271022121 -0.041560196734261451 0 0.26511099969186158 -0.044781248238993362 0 0.2671627919831519 -0.02618746631546786 0 0.28332805271022121 -0.041560196734261451 0 0.26511099969186158 -0.044781248238993362 0 0.2671627919831519 -0.02618746631546786 0 0.24896172546995729 -0.037521104912331522 0 0.25154037507169252 -0.057607439739242518 0 0.26511099969186158 -0.044781248238993362 0 0.24896172546995729 -0.037521104912331522 0 0.2671627919831519 -0.02618746631546786 0 0.24896172546995729 -0.037521104912331522 0 0.24618848066494531 -0.019387664510027571 0 0.26393903377749889 -0.0020135769245689058 0 0.2671627919831519 -0.02618746631546786 0 0.24618848066494531 -0.019387664510027571 0 0.24379497507385561 0.0081632620621440027 0 0.26393903377749889 -0.0020135769245689058 0 0.24618848066494531 -0.019387664510027571 0 0.26393903377749889 -0.0020135769245689058 0 0.28044547795403918 -0.007426133596136821 0 0.2671627919831519 -0.02618746631546786 0 0.28044547795403918 -0.007426133596136821 0 0.2671627919831519 -0.02618746631546786 0 0.29179042629626362 -0.023335765460289069 0 0.2671627919831519 -0.02618746631546786 0 0.29179042629626362 -0.023335765460289069 0 0.28332805271022121 -0.041560196734261451 0 0.28044547795403918 -0.007426133596136821 0 0.29179042629626362 -0.023335765460289069 0 0.29666158144344351 -0.0017469125296412319 0 0.31452146367800288 -0.021182354334393329 0 0.31931567015707069 -0.00026893956108775221 0 0.29666158144344351 -0.0017469125296412319 0 0.31452146367800288 -0.021182354334393329 0 0.29179042629626362 -0.023335765460289069 0 0.29666158144344351 -0.0017469125296412319 0 0.31452146367800288 -0.021182354334393329 0 0.29179042629626362 -0.023335765460289069 0 0.30877043607103177 -0.040609641310187329 0 0.30031250529218823 -0.068295657277859509 0 0.30877043607103177 -0.040609641310187329 0 0.28332805271022121 -0.041560196734261451 0 0.30031250529218823 -0.068295657277859509 0 0.27456205322428517 -0.061030033493663427 0 0.28332805271022121 -0.041560196734261451 0 0.29179042629626362 -0.023335765460289069 0 0.30877043607103177 -0.040609641310187329 0 0.28332805271022121 -0.041560196734261451 0 0.29025384484608968 -0.2158455784303176 0 0.28637791625017361 -0.20055743445860699 0 0.30240087173593833 -0.20171226683024809 0 0.29025384484608968 -0.2158455784303176 0 0.28637791625017361 -0.20055743445860699 0 0.26777314401307362 -0.21563610871351749 0 0.28637791625017361 -0.20055743445860699 0 0.27101441425136352 -0.1846911638176004 0 0.29049340242526139 -0.1803099671821542 0 0.28637791625017361 -0.20055743445860699 0 0.29049340242526139 -0.1803099671821542 0 0.30498268848727339 -0.18547876020369661 0 0.28637791625017361 -0.20055743445860699 0 0.30498268848727339 -0.18547876020369661 0 0.30240087173593833 -0.20171226683024809 0 0.30498268848727339 -0.18547876020369661 0 0.31675737859942171 -0.1936561834872535 0 0.28637791625017361 -0.20055743445860699 0 0.30240087173593833 -0.20171226683024809 0 0.30498268848727339 -0.18547876020369661 0 0.30240087173593833 -0.20171226683024809 0 0.31742535564110969 -0.2117783189511383 0 0.31675737859942171 -0.1936561834872535 0 0.30240087173593833 -0.20171226683024809 0 0.30393930316362128 -0.21470432557430921 0 0.31742535564110969 -0.2117783189511383 0 0.30393930316362128 -0.21470432557430921 0 0.31742535564110969 -0.2117783189511383 0 0.31270679655430372 -0.2283422074668621 0 0.29025384484608968 -0.2158455784303176 0 0.30240087173593833 -0.20171226683024809 0 0.30393930316362128 -0.21470432557430921 0 0.29025384484608968 -0.2158455784303176 0 0.30393930316362128 -0.21470432557430921 0 0.29999071826840362 -0.22518849739873731 0 0.30393930316362128 -0.21470432557430921 0 0.29999071826840362 -0.22518849739873731 0 0.31270679655430372 -0.2283422074668621 0 0.29999071826840362 -0.22518849739873731 0 0.29968761347752421 -0.2364706529635234 0 0.31270679655430372 -0.2283422074668621 0 0.29999071826840362 -0.22518849739873731 0 0.29968761347752421 -0.2364706529635234 0 0.29132177126474962 -0.23222114401697139 0 0.31063692568569162 -0.24941233183203379 0 0.30960180721729441 -0.24139617976374711 0 0.30261454585862779 -0.24507070061696229 0 0.30960180721729441 -0.24139617976374711 0 0.29968761347752421 -0.2364706529635234 0 0.31270679655430372 -0.2283422074668621 0 0.30960180721729441 -0.24139617976374711 0 0.29968761347752421 -0.2364706529635234 0 0.30261454585862779 -0.24507070061696229 0 0.29968761347752421 -0.2364706529635234 0 0.30261454585862779 -0.24507070061696229 0 0.29177006597360799 -0.24210613317758681 0 0.30261454585862779 -0.24507070061696229 0 0.29177006597360799 -0.24210613317758681 0 0.30137631693902089 -0.25596820534792042 0 0.29177006597360799 -0.24210613317758681 0 0.27527234435749648 -0.24334149415817999 0 0.30137631693902089 -0.25596820534792042 0 0.27527234435749648 -0.24334149415817999 0 0.30137631693902089 -0.25596820534792042 0 0.29177006597360799 -0.24210613317758681 0 0.28282771019119513 -0.23564005892128029 0 0.27527234435749648 -0.24334149415817999 0 0.29968761347752421 -0.2364706529635234 0 0.29177006597360799 -0.24210613317758681 0 0.29132177126474962 -0.23222114401697139 0 0.29177006597360799 -0.24210613317758681 0 0.28282771019119513 -0.23564005892128029 0 0.29132177126474962 -0.23222114401697139 0 0.29025384484608968 -0.2158455784303176 0 0.29132177126474962 -0.23222114401697139 0 0.28136624433557589 -0.22685317384383211 0 0.29025384484608968 -0.2158455784303176 0 0.29999071826840362 -0.22518849739873731 0 0.29132177126474962 -0.23222114401697139 0 0.28282771019119513 -0.23564005892128029 0 0.29132177126474962 -0.23222114401697139 0 0.28136624433557589 -0.22685317384383211 0 0.29025384484608968 -0.2158455784303176 0 0.28136624433557589 -0.22685317384383211 0 0.26777314401307362 -0.21563610871351749 0 0.28136624433557589 -0.22685317384383211 0 0.27454951787328807 -0.23204959631333569 0 0.26777314401307362 -0.21563610871351749 0 0.27454951787328807 -0.23204959631333569 0 0.26618683214306582 -0.23095913106668881 0 0.26777314401307362 -0.21563610871351749 0 0.28282771019119513 -0.23564005892128029 0 0.28136624433557589 -0.22685317384383211 0 0.27454951787328807 -0.23204959631333569 0 0.27527234435749648 -0.24334149415817999 0 0.2576596218415082 -0.24945354819836341 0 0.27459567189731071 -0.2517918539975712 0 0.28282771019119513 -0.23564005892128029 0 0.27454951787328807 -0.23204959631333569 0 0.27527234435749648 -0.24334149415817999 0 0.27454951787328807 -0.23204959631333569 0 0.26618683214306582 -0.23095913106668881 0 0.27527234435749648 -0.24334149415817999 0 0.27527234435749648 -0.24334149415817999 0 0.2576596218415082 -0.24945354819836341 0 0.2491683717759762 -0.23071478296843109 0 0.26618683214306582 -0.23095913106668881 0 0.27527234435749648 -0.24334149415817999 0 0.2491683717759762 -0.23071478296843109 0 0.27527234435749648 -0.24334149415817999 0 0.2491683717759762 -0.23071478296843109 0 0.26777314401307362 -0.21563610871351749 0 0.24828930851351119 -0.21071368277046901 0 0.2491683717759762 -0.23071478296843109 0 0.26618683214306582 -0.23095913106668881 0 0.26777314401307362 -0.21563610871351749 0 0.2491683717759762 -0.23071478296843109 0 0.26777314401307362 -0.21563610871351749 0 0.2491683717759762 -0.23071478296843109 0 0.26777314401307362 -0.21563610871351749 0 0.26262692715479741 -0.19948415912379819 0 0.24828930851351119 -0.21071368277046901 0 0.28637791625017361 -0.20055743445860699 0 0.26777314401307362 -0.21563610871351749 0 0.28637791625017361 -0.20055743445860699 0 0.26777314401307362 -0.21563610871351749 0 0.26262692715479741 -0.19948415912379819 0 0.28637791625017361 -0.20055743445860699 0 0.26262692715479741 -0.19948415912379819 0 0.27101441425136352 -0.1846911638176004 0 0.26262692715479741 -0.19948415912379819 0 0.27101441425136352 -0.1846911638176004 0 0.247303987410086 -0.19043137930135631 0 0.26262692715479741 -0.19948415912379819 0 0.247303987410086 -0.19043137930135631 0 0.24828930851351119 -0.21071368277046901 0 0.25764854485546401 -0.16963171736595609 0 0.27101441425136352 -0.1846911638176004 0 0.247303987410086 -0.19043137930135631 0 0.25764854485546401 -0.16963171736595609 0 0.26290348181097017 -0.15997631921649921 0 0.2453120823184772 -0.15291632623737991 0 0.26290348181097017 -0.15997631921649921 0 0.2453120823184772 -0.15291632623737991 0 0.25764854485546401 -0.16963171736595609 0 0.28163570741239902 -0.16773232547372879 0 0.26290348181097017 -0.15997631921649921 0 0.28797105536349238 -0.14342746881795229 0 0.28163570741239902 -0.16773232547372879 0 0.26290348181097017 -0.15997631921649921 0 0.28163570741239902 -0.16773232547372879 0 0.25764854485546401 -0.16963171736595609 0 0.26290348181097017 -0.15997631921649921 0 0.28163570741239902 -0.16773232547372879 0 0.27101441425136352 -0.1846911638176004 0 0.29049340242526139 -0.1803099671821542 0 0.28163570741239902 -0.16773232547372879 0 0.25764854485546401 -0.16963171736595609 0 0.27101441425136352 -0.1846911638176004 0 0.28163570741239902 -0.16773232547372879 0 0.25767473658732443 -0.1269586301084292 0 0.26454013779459001 -0.13816679790113859 0 0.27366455997770461 -0.12776251451567339 0 0.25767473658732443 -0.1269586301084292 0 0.24534171350248241 -0.1279746456375026 0 0.2499934808746547 -0.1361915394396816 0 0.25767473658732443 -0.1269586301084292 0 0.26454013779459001 -0.13816679790113859 0 0.2499934808746547 -0.1361915394396816 0 0.26454013779459001 -0.13816679790113859 0 0.25228952762352358 -0.1456491711810157 0 0.2499934808746547 -0.1361915394396816 0 0.26290348181097017 -0.15997631921649921 0 0.26048971374486352 -0.15112443655427901 0 0.2453120823184772 -0.15291632623737991 0 0.26454013779459001 -0.13816679790113859 0 0.25228952762352358 -0.1456491711810157 0 0.26048971374486352 -0.15112443655427901 0 0.26048971374486352 -0.15112443655427901 0 0.2453120823184772 -0.15291632623737991 0 0.25228952762352358 -0.1456491711810157 0 0.26048971374486352 -0.15112443655427901 0 0.2453120823184772 -0.15291632623737991 0 0.26290348181097017 -0.15997631921649921 0 0.28797105536349238 -0.14342746881795229 0 0.26454013779459001 -0.13816679790113859 0 0.26048971374486352 -0.15112443655427901 0 0.28797105536349238 -0.14342746881795229 0 0.26290348181097017 -0.15997631921649921 0 0.26048971374486352 -0.15112443655427901 0 0.28797105536349238 -0.14342746881795229 0 0.26454013779459001 -0.13816679790113859 0 0.27366455997770461 -0.12776251451567339 0 0.28797105536349238 -0.14342746881795229 0 0.28961292292312479 -0.1172584555736924 0 0.27366455997770461 -0.12776251451567339 0 0.28797105536349238 -0.14342746881795229 0 0.28961292292312479 -0.1172584555736924 0 0.28797105536349238 -0.14342746881795229 0 0.31303862891601458 -0.12687861841940551 0 0.28797105536349238 -0.14342746881795229 0 0.3030187855496087 -0.1499382623159522 0 0.28163570741239902 -0.16773232547372879 0 0.3030187855496087 -0.1499382623159522 0 0.30762223888524959 -0.16567461618571289 0 0.31929313497418232 -0.14794573464120339 0 0.3030187855496087 -0.1499382623159522 0 0.31303862891601458 -0.12687861841940551 0 0.31929313497418232 -0.14794573464120339 0 0.28797105536349238 -0.14342746881795229 0 0.3030187855496087 -0.1499382623159522 0 0.31303862891601458 -0.12687861841940551 0 0.28797105536349238 -0.14342746881795229 0 0.31303862891601458 -0.12687861841940551 0 0.28163570741239902 -0.16773232547372879 0 0.30562112352345139 -0.1775157076627556 0 0.29049340242526139 -0.1803099671821542 0 0.28163570741239902 -0.16773232547372879 0 0.30562112352345139 -0.1775157076627556 0 0.28163570741239902 -0.16773232547372879 0 0.30762223888524959 -0.16567461618571289 0 0.28163570741239902 -0.16773232547372879 0 0.30762223888524959 -0.16567461618571289 0 0.30562112352345139 -0.1775157076627556 0 0.3030187855496087 -0.1499382623159522 0 0.28163570741239902 -0.16773232547372879 0 0.30762223888524959 -0.16567461618571289 0 0.30762223888524959 -0.16567461618571289 0 0.30562112352345139 -0.1775157076627556 0 0.32103077138779562 -0.1740302627569173 0 0.30562112352345139 -0.1775157076627556 0 0.30498268848727339 -0.18547876020369661 0 0.31675737859942171 -0.1936561834872535 0 0.29049340242526139 -0.1803099671821542 0 0.30562112352345139 -0.1775157076627556 0 0.30498268848727339 -0.18547876020369661 0 0.32103077138779562 -0.1740302627569173 0 0.33360877035810022 -0.1636169068976952 0 0.32960653963450309 -0.1872990898517842 0 0.30562112352345139 -0.1775157076627556 0 0.32960653963450309 -0.1872990898517842 0 0.31675737859942171 -0.1936561834872535 0 0.30562112352345139 -0.1775157076627556 0 0.32960653963450309 -0.1872990898517842 0 0.30562112352345139 -0.1775157076627556 0 0.32103077138779562 -0.1740302627569173 0 0.32960653963450309 -0.1872990898517842 0 0.30762223888524959 -0.16567461618571289 0 0.33360877035810022 -0.1636169068976952 0 0.30762223888524959 -0.16567461618571289 0 0.33360877035810022 -0.1636169068976952 0 0.31929313497418232 -0.14794573464120339 0 0.30762223888524959 -0.16567461618571289 0 0.32103077138779562 -0.1740302627569173 0 0.33360877035810022 -0.1636169068976952 0 0.33360877035810022 -0.1636169068976952 0 0.32960653963450309 -0.1872990898517842 0 0.34921390414190701 -0.18246001028573219 0 0.31303862891601458 -0.12687861841940551 0 0.31929313497418232 -0.14794573464120339 0 0.33437387270441599 -0.13655687438813749 0 0.33360877035810022 -0.1636169068976952 0 0.33437387270441599 -0.13655687438813749 0 0.35251938494832002 -0.14432376670859251 0 0.33360877035810022 -0.1636169068976952 0 0.31929313497418232 -0.14794573464120339 0 0.33437387270441599 -0.13655687438813749 0 0.35190257278770443 -0.12340674486460949 0 0.33437387270441599 -0.13655687438813749 0 0.35251938494832002 -0.14432376670859251 0 0.35190257278770443 -0.12340674486460949 0 0.35251938494832002 -0.14432376670859251 0 0.36426212387247903 -0.13418908349307751 0 0.35251938494832002 -0.14432376670859251 0 0.37240517346418511 -0.14639604347786811 0 0.36426212387247903 -0.13418908349307751 0 0.37240517346418511 -0.14639604347786811 0 0.35959530183095068 -0.16155919760967749 0 0.37842579039086488 -0.15775305876934331 0 0.35251938494832002 -0.14432376670859251 0 0.37240517346418511 -0.14639604347786811 0 0.35959530183095068 -0.16155919760967749 0 0.36977374846272099 -0.118981527972274 0 0.35190257278770443 -0.12340674486460949 0 0.36426212387247903 -0.13418908349307751 0 0.37240517346418511 -0.14639604347786811 0 0.36426212387247903 -0.13418908349307751 0 0.37788455695678491 -0.13196097897868941 0 0.36977374846272099 -0.118981527972274 0 0.36426212387247903 -0.13418908349307751 0 0.37788455695678491 -0.13196097897868941 0 0.33360877035810022 -0.1636169068976952 0 0.35251938494832002 -0.14432376670859251 0 0.35959530183095068 -0.16155919760967749 0 0.33360877035810022 -0.1636169068976952 0 0.34921390414190701 -0.18246001028573219 0 0.35959530183095068 -0.16155919760967749 0 0.33360877035810022 -0.1636169068976952 0 0.35959530183095068 -0.16155919760967749 0 0.35959530183095068 -0.16155919760967749 0 0.37392716771109907 -0.1774353426014216 0 0.3855818333038013 -0.15950148832166 0 0.35959530183095068 -0.16155919760967749 0 0.3855818333038013 -0.15950148832166 0 0.37842579039086488 -0.15775305876934331 0 0.35959530183095068 -0.16155919760967749 0 0.3855818333038013 -0.15950148832166 0 0.34921390414190701 -0.18246001028573219 0 0.37392716771109907 -0.1774353426014216 0 0.36136843546152919 -0.20119623160925121 0 0.34921390414190701 -0.18246001028573219 0 0.35959530183095068 -0.16155919760967749 0 0.37392716771109907 -0.1774353426014216 0 0.37392716771109907 -0.1774353426014216 0 0.36136843546152919 -0.20119623160925121 0 0.37820798453470711 -0.19640702741780339 0 0.36136843546152919 -0.20119623160925121 0 0.37369428746329808 -0.22584631791477039 0 0.38294729052079002 -0.21184227799153299 0 0.36136843546152919 -0.20119623160925121 0 0.38294729052079002 -0.21184227799153299 0 0.37820798453470711 -0.19640702741780339 0 0.36136843546152919 -0.20119623160925121 0 0.37369428746329808 -0.22584631791477039 0 0.36136843546152919 -0.20119623160925121 0 0.34846064154263801 -0.22479598958638219 0 0.37369428746329808 -0.22584631791477039 0 0.36136843546152919 -0.20119623160925121 0 0.33717720985525979 -0.20365329314456371 0 0.34846064154263801 -0.22479598958638219 0 0.34921390414190701 -0.18246001028573219 0 0.36136843546152919 -0.20119623160925121 0 0.33717720985525979 -0.20365329314456371 0 0.32960653963450309 -0.1872990898517842 0 0.34921390414190701 -0.18246001028573219 0 0.33717720985525979 -0.20365329314456371 0 0.33717720985525979 -0.20365329314456371 0 0.32971243172899428 -0.22661332066354911 0 0.34846064154263801 -0.22479598958638219 0 0.33717720985525979 -0.20365329314456371 0 0.31742535564110969 -0.2117783189511383 0 0.32971243172899428 -0.22661332066354911 0 0.32960653963450309 -0.1872990898517842 0 0.33717720985525979 -0.20365329314456371 0 0.31675737859942171 -0.1936561834872535 0 0.33717720985525979 -0.20365329314456371 0 0.31742535564110969 -0.2117783189511383 0 0.31675737859942171 -0.1936561834872535 0 0.31063692568569162 -0.24941233183203379 0 0.32198599075348749 -0.24344946400233511 0 0.31952803891305842 -0.25444384210600129 0 0.31063692568569162 -0.24941233183203379 0 0.30960180721729441 -0.24139617976374711 0 0.32198599075348749 -0.24344946400233511 0 0.30960180721729441 -0.24139617976374711 0 0.32198599075348749 -0.24344946400233511 0 0.31270679655430372 -0.2283422074668621 0 0.31742535564110969 -0.2117783189511383 0 0.31270679655430372 -0.2283422074668621 0 0.32971243172899428 -0.22661332066354911 0 0.32198599075348749 -0.24344946400233511 0 0.31270679655430372 -0.2283422074668621 0 0.32971243172899428 -0.22661332066354911 0 0.32971243172899428 -0.22661332066354911 0 0.33831499797607367 -0.2399323842761247 0 0.34846064154263801 -0.22479598958638219 0 0.32198599075348749 -0.24344946400233511 0 0.32971243172899428 -0.22661332066354911 0 0.33831499797607367 -0.2399323842761247 0 0.32198599075348749 -0.24344946400233511 0 0.33831499797607367 -0.2399323842761247 0 0.33616067166654651 -0.25479429281005672 0 0.33831499797607367 -0.2399323842761247 0 0.33616067166654651 -0.25479429281005672 0 0.35525525418870241 -0.2500088543183005 0 0.33831499797607367 -0.2399323842761247 0 0.34846064154263801 -0.22479598958638219 0 0.35525525418870241 -0.2500088543183005 0 0.34846064154263801 -0.22479598958638219 0 0.37369428746329808 -0.22584631791477039 0 0.35525525418870241 -0.2500088543183005 0 0.37369428746329808 -0.22584631791477039 0 0.38602013946506702 -0.25049640422028968 0 0.35525525418870241 -0.2500088543183005 0 0.37369428746329808 -0.22584631791477039 0 0.39629532058261491 -0.23914831885930091 0 0.38602013946506702 -0.25049640422028968 0 0.37369428746329808 -0.22584631791477039 0 0.38602013946506702 -0.25049640422028968 0 0.39629532058261491 -0.23914831885930091 0 0.41079780246735448 -0.2481836971440492 0 0.40061421951448112 -0.25500368953924613 0 0.39629532058261491 -0.23914831885930091 0 0.38602013946506702 -0.25049640422028968 0 0.40061421951448112 -0.25500368953924613 0 0.39629532058261491 -0.23914831885930091 0 0.41079780246735448 -0.2481836971440492 0 0.41046295315806541 -0.2363623758316116 0 0.39547660153739289 -0.22336930042917941 0 0.41103189941981849 -0.21290748403118151 0 0.41046295315806541 -0.2363623758316116 0 0.39629532058261491 -0.23914831885930091 0 0.39547660153739289 -0.22336930042917941 0 0.41046295315806541 -0.2363623758316116 0 0.37369428746329808 -0.22584631791477039 0 0.39629532058261491 -0.23914831885930091 0 0.39547660153739289 -0.22336930042917941 0 0.37369428746329808 -0.22584631791477039 0 0.39547660153739289 -0.22336930042917941 0 0.38294729052079002 -0.21184227799153299 0 0.38294729052079002 -0.21184227799153299 0 0.39084588003852883 -0.20049554833644409 0 0.39661881788129438 -0.21028602466842039 0 0.38294729052079002 -0.21184227799153299 0 0.37820798453470711 -0.19640702741780339 0 0.39084588003852883 -0.20049554833644409 0 0.37820798453470711 -0.19640702741780339 0 0.39084588003852883 -0.20049554833644409 0 0.38648778906519898 -0.1859658515549151 0 0.39845534201132499 -0.18949936680384699 0 0.39084588003852883 -0.20049554833644409 0 0.38648778906519898 -0.1859658515549151 0 0.39845534201132499 -0.18949936680384699 0 0.39084588003852883 -0.20049554833644409 0 0.40214310256532471 -0.2009225828531388 0 0.39845534201132499 -0.18949936680384699 0 0.40214310256532471 -0.2009225828531388 0 0.41160084568157168 -0.18945259223075131 0 0.39547660153739289 -0.22336930042917941 0 0.38294729052079002 -0.21184227799153299 0 0.39661881788129438 -0.21028602466842039 0 0.39084588003852883 -0.20049554833644409 0 0.40214310256532471 -0.2009225828531388 0 0.39661881788129438 -0.21028602466842039 0 0.40214310256532471 -0.2009225828531388 0 0.39661881788129438 -0.21028602466842039 0 0.41103189941981849 -0.21290748403118151 0 0.39547660153739289 -0.22336930042917941 0 0.39661881788129438 -0.21028602466842039 0 0.41103189941981849 -0.21290748403118151 0 0.41103189941981849 -0.21290748403118151 0 0.43412459193862307 -0.2067661651877207 0 0.41200902497008579 -0.22385428120075859 0 0.41103189941981849 -0.21290748403118151 0 0.41983824184195712 -0.2013867534600188 0 0.43412459193862307 -0.2067661651877207 0 0.41103189941981849 -0.21290748403118151 0 0.41160084568157168 -0.18945259223075131 0 0.40214310256532471 -0.2009225828531388 0 0.41103189941981849 -0.21290748403118151 0 0.41160084568157168 -0.18945259223075131 0 0.41103189941981849 -0.21290748403118151 0 0.41160084568157168 -0.18945259223075131 0 0.41983824184195712 -0.2013867534600188 0 0.41160084568157168 -0.18945259223075131 0 0.41983824184195712 -0.2013867534600188 0 0.42259476791827799 -0.18715016455186179 0 0.43707024748526918 -0.18985449366284299 0 0.43412459193862307 -0.2067661651877207 0 0.42259476791827799 -0.18715016455186179 0 0.43412459193862307 -0.2067661651877207 0 0.42259476791827799 -0.18715016455186179 0 0.41983824184195712 -0.2013867534600188 0 0.43412459193862307 -0.2067661651877207 0 0.42259476791827799 -0.18715016455186179 0 0.43412459193862307 -0.2067661651877207 0 0.42891856384074262 -0.2238584579461973 0 0.44245222005080959 -0.22093418354217309 0 0.43412459193862307 -0.2067661651877207 0 0.42891856384074262 -0.2238584579461973 0 0.41200902497008579 -0.22385428120075859 0 0.43412459193862307 -0.2067661651877207 0 0.41200902497008579 -0.22385428120075859 0 0.42891856384074262 -0.2238584579461973 0 0.43741230368701423 -0.22983812891791019 0 0.44245222005080959 -0.22093418354217309 0 0.42891856384074262 -0.2238584579461973 0 0.4291567568752373 -0.23165678164388939 0 0.42068875225579749 -0.23146983509444621 0 0.4291567568752373 -0.23165678164388939 0 0.43741230368701423 -0.22983812891791019 0 0.43594765647972888 -0.23943745118145779 0 0.42891856384074262 -0.2238584579461973 0 0.4291567568752373 -0.23165678164388939 0 0.43741230368701423 -0.22983812891791019 0 0.43147852106014828 -0.24901274229835921 0 0.42289646243485662 -0.24161727884977419 0 0.42367499757022142 -0.25822245551072132 0 0.43594765647972888 -0.23943745118145779 0 0.43147852106014828 -0.24901274229835921 0 0.42289646243485662 -0.24161727884977419 0 0.43594765647972888 -0.23943745118145779 0 0.43147852106014828 -0.24901274229835921 0 0.44108430964842921 -0.249400311665992 0 0.4291567568752373 -0.23165678164388939 0 0.43594765647972888 -0.23943745118145779 0 0.42289646243485662 -0.24161727884977419 0 0.4291567568752373 -0.23165678164388939 0 0.42289646243485662 -0.24161727884977419 0 0.42068875225579749 -0.23146983509444621 0 0.42289646243485662 -0.24161727884977419 0 0.41079780246735448 -0.2481836971440492 0 0.42367499757022142 -0.25822245551072132 0 0.42289646243485662 -0.24161727884977419 0 0.41079780246735448 -0.2481836971440492 0 0.41046295315806541 -0.2363623758316116 0 0.42289646243485662 -0.24161727884977419 0 0.41046295315806541 -0.2363623758316116 0 0.42068875225579749 -0.23146983509444621 0 0.41103189941981849 -0.21290748403118151 0 0.41046295315806541 -0.2363623758316116 0 0.42891856384074262 -0.2238584579461973 0 0.41200902497008579 -0.22385428120075859 0 0.42068875225579749 -0.23146983509444621 0 0.41103189941981849 -0.21290748403118151 0 0.41046295315806541 -0.2363623758316116 0 0.41200902497008579 -0.22385428120075859 0 0.41046295315806541 -0.2363623758316116 0 0.41200902497008579 -0.22385428120075859 0 0.42068875225579749 -0.23146983509444621 0 0.39630034399856068 -0.12412702266274379 0 0.39718506179066809 -0.1357614901756018 0 0.40717042195814152 -0.12667580876036291 0 0.39718506179066809 -0.1357614901756018 0 0.40782504984598528 -0.14107514206798261 0 0.40717042195814152 -0.12667580876036291 0 0.39718506179066809 -0.1357614901756018 0 0.38887656832053902 -0.13016986574645989 0 0.38664004461427459 -0.14296965030368239 0 0.39630034399856068 -0.12412702266274379 0 0.39718506179066809 -0.1357614901756018 0 0.38887656832053902 -0.13016986574645989 0 0.38589697302152071 -0.1203195835582863 0 0.38887656832053902 -0.13016986574645989 0 0.37788455695678491 -0.13196097897868941 0 0.37240517346418511 -0.14639604347786811 0 0.37788455695678491 -0.13196097897868941 0 0.38664004461427459 -0.14296965030368239 0 0.38887656832053902 -0.13016986574645989 0 0.37788455695678491 -0.13196097897868941 0 0.38664004461427459 -0.14296965030368239 0 0.37240517346418511 -0.14639604347786811 0 0.38664004461427459 -0.14296965030368239 0 0.38364455395470998 -0.15191197814575519 0 0.37240517346418511 -0.14639604347786811 0 0.38364455395470998 -0.15191197814575519 0 0.37842579039086488 -0.15775305876934331 0 0.38664004461427459 -0.14296965030368239 0 0.38364455395470998 -0.15191197814575519 0 0.39105298004482852 -0.15406292949060729 0 0.38364455395470998 -0.15191197814575519 0 0.39105298004482852 -0.15406292949060729 0 0.3855818333038013 -0.15950148832166 0 0.39105298004482852 -0.15406292949060729 0 0.39856657601695039 -0.14857836824363069 0 0.3973118690519184 -0.15857266088145699 0 0.38664004461427459 -0.14296965030368239 0 0.39105298004482852 -0.15406292949060729 0 0.39856657601695039 -0.14857836824363069 0 0.39718506179066809 -0.1357614901756018 0 0.38664004461427459 -0.14296965030368239 0 0.39856657601695039 -0.14857836824363069 0 0.39856657601695039 -0.14857836824363069 0 0.40677608408243199 -0.1498181580123224 0 0.40782504984598528 -0.14107514206798261 0 0.39718506179066809 -0.1357614901756018 0 0.39856657601695039 -0.14857836824363069 0 0.40782504984598528 -0.14107514206798261 0 0.39856657601695039 -0.14857836824363069 0 0.40543970214389552 -0.15610765281214059 0 0.40677608408243199 -0.1498181580123224 0 0.39856657601695039 -0.14857836824363069 0 0.40543970214389552 -0.15610765281214059 0 0.3973118690519184 -0.15857266088145699 0 0.3855818333038013 -0.15950148832166 0 0.4121697919433247 -0.16599770043032111 0 0.39550599244671097 -0.16796088662565969 0 0.40201643954537142 -0.17325060097948489 0 0.4121697919433247 -0.16599770043032111 0 0.3973118690519184 -0.15857266088145699 0 0.3855818333038013 -0.15950148832166 0 0.4121697919433247 -0.16599770043032111 0 0.39550599244671097 -0.16796088662565969 0 0.3855818333038013 -0.15950148832166 0 0.4121697919433247 -0.16599770043032111 0 0.40543970214389552 -0.15610765281214059 0 0.3973118690519184 -0.15857266088145699 0 0.4121697919433247 -0.16599770043032111 0 0.3973118690519184 -0.15857266088145699 0 0.3855818333038013 -0.15950148832166 0 0.39105298004482852 -0.15406292949060729 0 0.3973118690519184 -0.15857266088145699 0 0.3855818333038013 -0.15950148832166 0 0.37392716771109907 -0.1774353426014216 0 0.3855818333038013 -0.15950148832166 0 0.38709241863794591 -0.17340186985912581 0 0.38364455395470998 -0.15191197814575519 0 0.3855818333038013 -0.15950148832166 0 0.37842579039086488 -0.15775305876934331 0 0.3855818333038013 -0.15950148832166 0 0.37842579039086488 -0.15775305876934331 0 0.39550599244671097 -0.16796088662565969 0 0.3855818333038013 -0.15950148832166 0 0.38709241863794591 -0.17340186985912581 0 0.38709241863794591 -0.17340186985912581 0 0.38648778906519898 -0.1859658515549151 0 0.39516781028651649 -0.17779645708764921 0 0.37392716771109907 -0.1774353426014216 0 0.37820798453470711 -0.19640702741780339 0 0.38648778906519898 -0.1859658515549151 0 0.37392716771109907 -0.1774353426014216 0 0.38709241863794591 -0.17340186985912581 0 0.38648778906519898 -0.1859658515549151 0 0.39845534201132499 -0.18949936680384699 0 0.38648778906519898 -0.1859658515549151 0 0.39516781028651649 -0.17779645708764921 0 0.39550599244671097 -0.16796088662565969 0 0.38709241863794591 -0.17340186985912581 0 0.39516781028651649 -0.17779645708764921 0 0.39550599244671097 -0.16796088662565969 0 0.39516781028651649 -0.17779645708764921 0 0.40201643954537142 -0.17325060097948489 0 0.39516781028651649 -0.17779645708764921 0 0.40201643954537142 -0.17325060097948489 0 0.40453843002977458 -0.18020245351517741 0 0.40201643954537142 -0.17325060097948489 0 0.40453843002977458 -0.18020245351517741 0 0.4121697919433247 -0.16599770043032111 0 0.39845534201132499 -0.18949936680384699 0 0.41160084568157168 -0.18945259223075131 0 0.40453843002977458 -0.18020245351517741 0 0.39845534201132499 -0.18949936680384699 0 0.39516781028651649 -0.17779645708764921 0 0.40453843002977458 -0.18020245351517741 0 0.41160084568157168 -0.18945259223075131 0 0.4121697919433247 -0.16599770043032111 0 0.41160084568157168 -0.18945259223075131 0 0.40453843002977458 -0.18020245351517741 0 0.4121697919433247 -0.16599770043032111 0 0.41160084568157168 -0.18945259223075131 0 0.42259476791827799 -0.18715016455186179 0 0.4121697919433247 -0.16599770043032111 0 0.42259476791827799 -0.18715016455186179 0 0.4121697919433247 -0.16599770043032111 0 0.43942103356281298 -0.17265597187510409 0 0.43707024748526918 -0.18985449366284299 0 0.42259476791827799 -0.18715016455186179 0 0.43942103356281298 -0.17265597187510409 0 0.4121697919433247 -0.16599770043032111 0 0.43942103356281298 -0.17265597187510409 0 0.42754768114014702 -0.16215508150220759 0 0.43577282698483122 -0.1488649167983298 0 0.43942103356281298 -0.17265597187510409 0 0.42754768114014702 -0.16215508150220759 0 0.4121697919433247 -0.16599770043032111 0 0.43942103356281298 -0.17265597187510409 0 0.42754768114014702 -0.16215508150220759 0 0.41846336076819718 -0.15985851844388549 0 0.42176178036446538 -0.15370991535004139 0 0.42754768114014702 -0.16215508150220759 0 0.41846336076819718 -0.15985851844388549 0 0.4121697919433247 -0.16599770043032111 0 0.41846336076819718 -0.15985851844388549 0 0.4121697919433247 -0.16599770043032111 0 0.41237418962485201 -0.15757137649297201 0 0.41846336076819718 -0.15985851844388549 0 0.41237418962485201 -0.15757137649297201 0 0.42176178036446538 -0.15370991535004139 0 0.40543970214389552 -0.15610765281214059 0 0.4121697919433247 -0.16599770043032111 0 0.41237418962485201 -0.15757137649297201 0 0.4121697919433247 -0.16599770043032111 0 0.41237418962485201 -0.15757137649297201 0 0.41237418962485201 -0.15757137649297201 0 0.41395011021424571 -0.14882101111356341 0 0.40677608408243199 -0.1498181580123224 0 0.40543970214389552 -0.15610765281214059 0 0.41237418962485201 -0.15757137649297201 0 0.40677608408243199 -0.1498181580123224 0 0.41395011021424571 -0.14882101111356341 0 0.40677608408243199 -0.1498181580123224 0 0.40782504984598528 -0.14107514206798261 0 0.41395011021424571 -0.14882101111356341 0 0.40782504984598528 -0.14107514206798261 0 0.42101344715349331 -0.14193046364449879 0 0.41395011021424571 -0.14882101111356341 0 0.42101344715349331 -0.14193046364449879 0 0.42176178036446538 -0.15370991535004139 0 0.41237418962485201 -0.15757137649297201 0 0.41395011021424571 -0.14882101111356341 0 0.42176178036446538 -0.15370991535004139 0 0.42101344715349331 -0.14193046364449879 0 0.43577282698483122 -0.1488649167983298 0 0.43341698089062902 -0.13232221239677211 0 0.42754768114014702 -0.16215508150220759 0 0.42176178036446538 -0.15370991535004139 0 0.43577282698483122 -0.1488649167983298 0 0.42101344715349331 -0.14193046364449879 0 0.42176178036446538 -0.15370991535004139 0 0.43577282698483122 -0.1488649167983298 0 0.42101344715349331 -0.14193046364449879 0 0.43341698089062902 -0.13232221239677211 0 0.42047049602907199 -0.1271837148430543 0 0.42787147724535279 -0.1177655168214231 0 0.43341698089062902 -0.13232221239677211 0 0.42047049602907199 -0.1271837148430543 0 0.40782504984598528 -0.14107514206798261 0 0.42101344715349331 -0.14193046364449879 0 0.41390815063976111 -0.1340802599668382 0 0.42101344715349331 -0.14193046364449879 0 0.42047049602907199 -0.1271837148430543 0 0.41390815063976111 -0.1340802599668382 0 0.40782504984598528 -0.14107514206798261 0 0.41390815063976111 -0.1340802599668382 0 0.40717042195814152 -0.12667580876036291 0 0.42047049602907199 -0.1271837148430543 0 0.41390815063976111 -0.1340802599668382 0 0.40717042195814152 -0.12667580876036291 0 0.46291061333527922 -0.1199621865080316 0 0.46653360721969012 -0.14944368369684 0 0.46291061333527922 -0.1199621865080316 0 0.45060159652262699 -0.13894666859121221 0 0.46653360721969012 -0.14944368369684 0 0.43577282698483122 -0.1488649167983298 0 0.43341698089062902 -0.13232221239677211 0 0.45060159652262699 -0.13894666859121221 0 0.44269508489546172 -0.11827570682135009 0 0.43341698089062902 -0.13232221239677211 0 0.45060159652262699 -0.13894666859121221 0 0.44269508489546172 -0.11827570682135009 0 0.46291061333527922 -0.1199621865080316 0 0.45060159652262699 -0.13894666859121221 0 0.43577282698483122 -0.1488649167983298 0 0.45060159652262699 -0.13894666859121221 0 0.45587019956798869 -0.16442878806586281 0 0.45060159652262699 -0.13894666859121221 0 0.46653360721969012 -0.14944368369684 0 0.45587019956798869 -0.16442878806586281 0 0.46653360721969012 -0.14944368369684 0 0.45587019956798869 -0.16442878806586281 0 0.47015660110410151 -0.17892518088564829 0 0.46653360721969012 -0.14944368369684 0 0.47015660110410151 -0.17892518088564829 0 0.43577282698483122 -0.1488649167983298 0 0.45587019956798869 -0.16442878806586281 0 0.43942103356281298 -0.17265597187510409 0 0.43707024748526918 -0.18985449366284299 0 0.43942103356281298 -0.17265597187510409 0 0.45214059652136313 -0.19284567303668551 0 0.43942103356281298 -0.17265597187510409 0 0.46667227518230148 -0.1793142433198863 0 0.43942103356281298 -0.17265597187510409 0 0.46667227518230148 -0.1793142433198863 0 0.45214059652136313 -0.19284567303668551 0 0.45587019956798869 -0.16442878806586281 0 0.43942103356281298 -0.17265597187510409 0 0.46667227518230148 -0.1793142433198863 0 0.47015660110410151 -0.17892518088564829 0 0.45214059652136313 -0.19284567303668551 0 0.46667227518230148 -0.1793142433198863 0 0.47015660110410151 -0.17892518088564829 0 0.45214059652136313 -0.19284567303668551 0 0.45587019956798869 -0.16442878806586281 0 0.46667227518230148 -0.1793142433198863 0 0.47015660110410151 -0.17892518088564829 0 0.47015660110410151 -0.17892518088564829 0 0.47608330494834972 -0.17434577295052869 0 0.47883039211363682 -0.1847393396174202 0 0.47015660110410151 -0.17892518088564829 0 0.47608330494834972 -0.17434577295052869 0 0.47608330494834972 -0.17434577295052869 0 0.48412230485933089 -0.17391451811187231 0 0.47883039211363682 -0.1847393396174202 0 0.48412230485933089 -0.17391451811187231 0 0.47883039211363682 -0.1847393396174202 0 0.48648213539784912 -0.18363769515103889 0 0.5 -0.1864980345021589 0 0.5 -0.16000366413785211 0 0.49458689742151268 -0.17128929472683141 0 0.48648213539784912 -0.18363769515103889 0 0.49458689742151268 -0.17128929472683141 0 0.49305373803980101 -0.19605823984166301 0 0.5 -0.1864980345021589 0 0.49458689742151268 -0.17128929472683141 0 0.49305373803980101 -0.19605823984166301 0 0.49458689742151268 -0.17128929472683141 0 0.49305373803980101 -0.19605823984166301 0 0.48412230485933089 -0.17391451811187231 0 0.48648213539784912 -0.18363769515103889 0 0.49458689742151268 -0.17128929472683141 0 0.48412230485933089 -0.17391451811187231 0 0.49458689742151268 -0.17128929472683141 0 0.48752761183049292 -0.1621602486463212 0 0.49458689742151268 -0.17128929472683141 0 0.48752761183049292 -0.1621602486463212 0 0.49612005680322452 -0.14652034961199989 0 0.49458689742151268 -0.17128929472683141 0 0.49612005680322452 -0.14652034961199989 0 0.5 -0.16000366413785211 0 0.49458689742151268 -0.17128929472683141 0 0.49612005680322452 -0.14652034961199989 0 0.46653360721969012 -0.14944368369684 0 0.47015660110410151 -0.17892518088564829 0 0.47608330494834972 -0.17434577295052869 0 0.48752761183049292 -0.1621602486463212 0 0.47975908424193819 -0.16354396860485351 0 0.483049715826458 -0.15553311217604879 0 0.46653360721969012 -0.14944368369684 0 0.47608330494834972 -0.17434577295052869 0 0.47975908424193819 -0.16354396860485351 0 0.47608330494834972 -0.17434577295052869 0 0.48412230485933089 -0.17391451811187231 0 0.47975908424193819 -0.16354396860485351 0 0.48412230485933089 -0.17391451811187231 0 0.48752761183049292 -0.1621602486463212 0 0.47975908424193819 -0.16354396860485351 0 0.46653360721969012 -0.14944368369684 0 0.48339190448922148 -0.14536301117208569 0 0.48083616927728368 -0.1326122769646117 0 0.46653360721969012 -0.14944368369684 0 0.48339190448922148 -0.14536301117208569 0 0.483049715826458 -0.15553311217604879 0 0.46653360721969012 -0.14944368369684 0 0.47975908424193819 -0.16354396860485351 0 0.483049715826458 -0.15553311217604879 0 0.48752761183049292 -0.1621602486463212 0 0.483049715826458 -0.15553311217604879 0 0.49612005680322452 -0.14652034961199989 0 0.48339190448922148 -0.14536301117208569 0 0.483049715826458 -0.15553311217604879 0 0.49612005680322452 -0.14652034961199989 0 0.5 -0.16000366413785211 0 0.49612005680322452 -0.14652034961199989 0 0.5 -0.1335092937735452 0 0.48339190448922148 -0.14536301117208569 0 0.49612005680322452 -0.14652034961199989 0 0.48083616927728368 -0.1326122769646117 0 0.49765321618493619 -0.1217514044971684 0 0.49612005680322452 -0.14652034961199989 0 0.49765321618493619 -0.1217514044971684 0 0.49612005680322452 -0.14652034961199989 0 0.48083616927728368 -0.1326122769646117 0 0.49765321618493619 -0.1217514044971684 0 0.49612005680322452 -0.14652034961199989 0 0.5 -0.1335092937735452 0 0.46291061333527922 -0.1199621865080316 0 0.46653360721969012 -0.14944368369684 0 0.48083616927728368 -0.1326122769646117 0 0.46266709148984297 -0.21937764938915291 0 0.45077984816299599 -0.23510220189662559 0 0.45026780417236678 -0.211020179350392 0 0.46266709148984297 -0.21937764938915291 0 0.46558757826162539 -0.23759480168356789 0 0.47604188563243588 -0.22681568382688169 0 0.46266709148984297 -0.21937764938915291 0 0.46558757826162539 -0.23759480168356789 0 0.45077984816299599 -0.23510220189662559 0 0.45077984816299599 -0.23510220189662559 0 0.46056204943464879 -0.25174492480603328 0 0.46558757826162539 -0.23759480168356789 0 0.47898452789660351 -0.25076093529749838 0 0.46056204943464879 -0.25174492480603328 0 0.46558757826162539 -0.23759480168356789 0 0.45077984816299599 -0.23510220189662559 0 0.46056204943464879 -0.25174492480603328 0 0.45077984816299599 -0.23510220189662559 0 0.46056204943464879 -0.25174492480603328 0 0.45133569269769142 -0.26124421481295179 0 0.45077984816299599 -0.23510220189662559 0 0.44108430964842921 -0.249400311665992 0 0.45133569269769142 -0.26124421481295179 0 0.45077984816299599 -0.23510220189662559 0 0.45133569269769142 -0.26124421481295179 0 0.43594765647972888 -0.23943745118145779 0 0.45077984816299599 -0.23510220189662559 0 0.44108430964842921 -0.249400311665992 0 0.43741230368701423 -0.22983812891791019 0 0.43594765647972888 -0.23943745118145779 0 0.45077984816299599 -0.23510220189662559 0 0.45077984816299599 -0.23510220189662559 0 0.44245222005080959 -0.22093418354217309 0 0.45026780417236678 -0.211020179350392 0 0.43741230368701423 -0.22983812891791019 0 0.45077984816299599 -0.23510220189662559 0 0.44245222005080959 -0.22093418354217309 0 0.45077984816299599 -0.23510220189662559 0 0.45026780417236678 -0.211020179350392 0 0.45077984816299599 -0.23510220189662559 0 0.44245222005080959 -0.22093418354217309 0 0.43412459193862307 -0.2067661651877207 0 0.44245222005080959 -0.22093418354217309 0 0.45026780417236678 -0.211020179350392 0 0.43412459193862307 -0.2067661651877207 0 0.44245222005080959 -0.22093418354217309 0 0.43412459193862307 -0.2067661651877207 0 0.45026780417236678 -0.211020179350392 0 0.45214059652136313 -0.19284567303668551 0 0.43412459193862307 -0.2067661651877207 0 0.45214059652136313 -0.19284567303668551 0 0.43707024748526918 -0.18985449366284299 0 0.43412459193862307 -0.2067661651877207 0 0.45214059652136313 -0.19284567303668551 0 0.45026780417236678 -0.211020179350392 0 0.45214059652136313 -0.19284567303668551 0 0.46022618934136611 -0.20286259722118541 0 0.47015660110410151 -0.17892518088564829 0 0.46022618934136611 -0.20286259722118541 0 0.47309924336826842 -0.20287043235626509 0 0.47015660110410151 -0.17892518088564829 0 0.45214059652136313 -0.19284567303668551 0 0.46022618934136611 -0.20286259722118541 0 0.46266709148984297 -0.21937764938915291 0 0.45026780417236678 -0.211020179350392 0 0.46022618934136611 -0.20286259722118541 0 0.46266709148984297 -0.21937764938915291 0 0.46022618934136611 -0.20286259722118541 0 0.47309924336826842 -0.20287043235626509 0 0.47309924336826842 -0.20287043235626509 0 0.47604188563243588 -0.22681568382688169 0 0.48446019659072698 -0.20806707231858379 0 0.49152057865808929 -0.2208271849564945 0 0.47604188563243588 -0.22681568382688169 0 0.46266709148984297 -0.21937764938915291 0 0.47309924336826842 -0.20287043235626509 0 0.47604188563243588 -0.22681568382688169 0 0.47309924336826842 -0.20287043235626509 0 0.48446019659072698 -0.20806707231858379 0 0.47604188563243588 -0.22681568382688169 0 0.47883039211363682 -0.1847393396174202 0 0.47309924336826842 -0.20287043235626509 0 0.48303876300392229 -0.1947424382491679 0 0.47015660110410151 -0.17892518088564829 0 0.47883039211363682 -0.1847393396174202 0 0.47309924336826842 -0.20287043235626509 0 0.47015660110410151 -0.17892518088564829 0 0.47309924336826842 -0.20287043235626509 0 0.47309924336826842 -0.20287043235626509 0 0.48303876300392229 -0.1947424382491679 0 0.48446019659072698 -0.20806707231858379 0 0.47883039211363682 -0.1847393396174202 0 0.48648213539784912 -0.18363769515103889 0 0.48303876300392229 -0.1947424382491679 0 0.5 -0.1864980345021589 0 0.49305373803980101 -0.19605823984166301 0 0.5 -0.21299240486646559 0 0.48648213539784912 -0.18363769515103889 0 0.48303876300392229 -0.1947424382491679 0 0.49305373803980101 -0.19605823984166301 0 0.48303876300392229 -0.1947424382491679 0 0.49305373803980101 -0.19605823984166301 0 0.48446019659072698 -0.20806707231858379 0 0.49305373803980101 -0.19605823984166301 0 0.5 -0.21299240486646559 0 0.49152057865808929 -0.2208271849564945 0 0.49305373803980101 -0.19605823984166301 0 0.49152057865808929 -0.2208271849564945 0 0.49305373803980101 -0.19605823984166301 0 0.48446019659072698 -0.20806707231858379 0 0.49152057865808929 -0.2208271849564945 0 0.49152057865808929 -0.2208271849564945 0 0.47604188563243588 -0.22681568382688169 0 0.48998741927637762 -0.24559613007132611 0 0.49152057865808929 -0.2208271849564945 0 0.48998741927637762 -0.24559613007132611 0 0.5 -0.21299240486646559 0 0.49152057865808929 -0.2208271849564945 0 0.50000000000000133 -0.23948677523077239 0 0.47604188563243588 -0.22681568382688169 0 0.48998741927637762 -0.24559613007132611 0 0.47898452789660351 -0.25076093529749838 0 0.46558757826162539 -0.23759480168356789 0 0.47604188563243588 -0.22681568382688169 0 0.47898452789660351 -0.25076093529749838 0 0.47604188563243588 -0.22681568382688169 0 0.47898452789660351 -0.25076093529749838 0 0.50000000000000133 -0.23948677523077239 0 0.49495660414164711 -0.25920832956675899 0 0.49152057865808929 -0.2208271849564945 0 0.48998741927637762 -0.24559613007132611 0 0.50000000000000133 -0.23948677523077239 0 0.48998741927637762 -0.24559613007132611 0 0.50000000000000133 -0.23948677523077239 0 0.49495660414164711 -0.25920832956675899 0 0.50000000000000133 -0.23948677523077239 0 0.49495660414164711 -0.25920832956675899 0 0.5 -0.2686059375560646 0 0.49495660414164711 -0.25920832956675899 0 0.48664811708091571 -0.26374067408749141 0 0.48745907492226531 -0.25509803490233901 0 0.48998741927637762 -0.24559613007132611 0 0.49495660414164711 -0.25920832956675899 0 0.48745907492226531 -0.25509803490233901 0 0.48998741927637762 -0.24559613007132611 0 0.48745907492226531 -0.25509803490233901 0 0.47898452789660351 -0.25076093529749838 0 0.49495660414164711 -0.25920832956675899 0 0.48664811708091571 -0.26374067408749141 0 0.4899132082832916 -0.27892988390274531 0 0.49495660414164711 -0.25920832956675899 0 0.4899132082832916 -0.27892988390274531 0 0.49495660414164711 -0.25920832956675899 0 0.5 -0.2686059375560646 0 0.4899132082832916 -0.27892988390274531 0 0.48664811708091571 -0.26374067408749141 0 0.4899132082832916 -0.27892988390274531 0 0.48192717016077102 -0.27470618676811509 0 0.47034425070630143 -0.26838764771544132 0 0.48192717016077102 -0.27470618676811509 0 0.47053573150678552 -0.28612340892295118 0 0.47034425070630143 -0.26838764771544132 0 0.48192717016077102 -0.27470618676811509 0 0.47898452789660351 -0.25076093529749838 0 0.48664811708091571 -0.26374067408749141 0 0.48192717016077102 -0.27470618676811509 0 0.47898452789660351 -0.25076093529749838 0 0.48192717016077102 -0.27470618676811509 0 0.47898452789660351 -0.25076093529749838 0 0.47034425070630143 -0.26838764771544132 0 0.47898452789660351 -0.25076093529749838 0 0.46056204943464879 -0.25174492480603328 0 0.48664811708091571 -0.26374067408749141 0 0.48745907492226531 -0.25509803490233901 0 0.47898452789660351 -0.25076093529749838 0 0.47034425070630143 -0.26838764771544132 0 0.46056204943464879 -0.25174492480603328 0 0.47034425070630143 -0.26838764771544132 0 0.46056204943464879 -0.25174492480603328 0 0.45133569269769142 -0.26124421481295179 0 0.47034425070630143 -0.26838764771544132 0 0.45133569269769142 -0.26124421481295179 0 0.45189153723238717 -0.28738622772927841 0 0.47034425070630143 -0.26838764771544132 0 0.45189153723238717 -0.28738622772927841 0 0.47053573150678552 -0.28612340892295118 0 0.45133569269769142 -0.26124421481295179 0 0.45189153723238717 -0.28738622772927841 0 0.43587982984158108 -0.26220494814056561 0 0.45133569269769142 -0.26124421481295179 0 0.45189153723238717 -0.28738622772927841 0 0.44108430964842921 -0.249400311665992 0 0.45133569269769142 -0.26124421481295179 0 0.43587982984158108 -0.26220494814056561 0 0.45189153723238717 -0.28738622772927841 0 0.45244738176708299 -0.31352824064560469 0 0.45189153723238717 -0.28738622772927841 0 0.45244738176708299 -0.31352824064560469 0 0.43233602393106102 -0.3005221000116049 0 0.45189153723238717 -0.28738622772927841 0 0.46773490080235741 -0.3016104171303946 0 0.47053573150678552 -0.28612340892295118 0 0.45189153723238717 -0.28738622772927841 0 0.46773490080235741 -0.3016104171303946 0 0.45244738176708299 -0.31352824064560469 0 0.46773490080235741 -0.3016104171303946 0 0.47966045165369559 -0.31902197713576608 0 0.45244738176708299 -0.31352824064560469 0 0.46773490080235741 -0.3016104171303946 0 0.48486981242493732 -0.29865143823873191 0 0.47966045165369559 -0.31902197713576608 0 0.48486981242493732 -0.29865143823873191 0 0.47966045165369559 -0.31902197713576608 0 0.48486981242493732 -0.29865143823873191 0 0.48694223370406081 -0.31551541429382901 0 0.47966045165369559 -0.31902197713576608 0 0.46773490080235741 -0.3016104171303946 0 0.47053573150678552 -0.28612340892295118 0 0.48486981242493732 -0.29865143823873191 0 0.48192717016077102 -0.27470618676811509 0 0.47053573150678552 -0.28612340892295118 0 0.48486981242493732 -0.29865143823873191 0 0.48192717016077102 -0.27470618676811509 0 0.48486981242493732 -0.29865143823873191 0 0.4899132082832916 -0.27892988390274531 0 0.48486981242493732 -0.29865143823873191 0 0.5 -0.2686059375560646 0 0.4899132082832916 -0.27892988390274531 0 0.5 -0.29772509988135681 0 0.4899132082832916 -0.27892988390274531 0 0.48192717016077102 -0.27470618676811509 0 0.48486981242493732 -0.29865143823873191 0 0.4899132082832916 -0.27892988390274531 0 0.48486981242493732 -0.29865143823873191 0 0.5 -0.29772509988135681 0 0.48486981242493732 -0.29865143823873191 0 0.4929530115322498 -0.30968405365514162 0 0.48694223370406081 -0.31551541429382901 0 0.5 -0.29772509988135681 0 0.4929530115322498 -0.30968405365514162 0 0.5 -0.32684426220664903 0 0.48486981242493732 -0.29865143823873191 0 0.48694223370406081 -0.31551541429382901 0 0.48486981242493732 -0.29865143823873191 0 0.5 -0.29772509988135681 0 0.4929530115322498 -0.30968405365514162 0 0.48694223370406081 -0.31551541429382901 0 0.48901465498318308 -0.33237939034892622 0 0.48562594744649501 -0.33141687542551279 0 0.48694223370406081 -0.31551541429382901 0 0.49654408504979558 -0.32875357190092452 0 0.48901465498318308 -0.33237939034892622 0 0.4929530115322498 -0.30968405365514162 0 0.48694223370406081 -0.31551541429382901 0 0.5 -0.32684426220664903 0 0.48694223370406081 -0.31551541429382901 0 0.48901465498318308 -0.33237939034892622 0 0.48694223370406081 -0.31551541429382901 0 0.5 -0.32684426220664903 0 0.49654408504979558 -0.32875357190092452 0 0.48901465498318308 -0.33237939034892622 0 0.4915643949020212 -0.35312746573843468 0 0.48901465498318308 -0.33237939034892622 0 0.48625298381661269 -0.33370928094814578 0 0.4915643949020212 -0.35312746573843468 0 0.49654408504979558 -0.32875357190092452 0 0.48901465498318308 -0.33237939034892622 0 0.4915643949020212 -0.35312746573843468 0 0.5 -0.32684426220664903 0 0.49654408504979558 -0.32875357190092452 0 0.50002337057612989 -0.35596342453194108 0 0.48625298381661269 -0.33370928094814578 0 0.4915643949020212 -0.35312746573843468 0 0.49654408504979558 -0.32875357190092452 0 0.48901465498318308 -0.33237939034892622 0 0.48901465498318308 -0.33237939034892622 0 0.48625298381661269 -0.33370928094814578 0 0.48562594744649501 -0.33141687542551279 0 0.48901465498318308 -0.33237939034892622 0 0.48625298381661269 -0.33370928094814578 0 0.48625298381661269 -0.33370928094814578 0 0.48562594744649501 -0.33141687542551279 0 0.47445109088245402 -0.33939251603280057 0 0.47966045165369559 -0.31902197713576608 0 0.45226158601649452 -0.33172887108509258 0 0.48625298381661269 -0.33370928094814578 0 0.48562594744649501 -0.33141687542551279 0 0.47445109088245402 -0.33939251603280057 0 0.47445109088245402 -0.33939251603280057 0 0.47966045165369559 -0.31902197713576608 0 0.48562594744649501 -0.33141687542551279 0 0.47445109088245402 -0.33939251603280057 0 0.47966045165369559 -0.31902197713576608 0 0.48625298381661269 -0.33370928094814578 0 0.47445109088245402 -0.33939251603280057 0 0.48287660026870899 -0.34524903740514012 0 0.48625298381661269 -0.33370928094814578 0 0.47445109088245402 -0.33939251603280057 0 0.48694223370406081 -0.31551541429382901 0 0.48562594744649501 -0.33141687542551279 0 0.47966045165369559 -0.31902197713576608 0 0.4920009106131043 -0.35667953817346632 0 0.50000000000000044 -0.38396750729736362 0 0.4920009106131043 -0.35667953817346632 0 0.48081818480590349 -0.36973260894661869 0 0.49466727374206981 -0.37837661512112009 0 0.4920009106131043 -0.35667953817346632 0 0.50002337057612989 -0.35596342453194108 0 0.50000000000000044 -0.38396750729736362 0 0.4920009106131043 -0.35667953817346632 0 0.49466727374206981 -0.37837661512112009 0 0.4920009106131043 -0.35667953817346632 0 0.50000000000000044 -0.38396750729736362 0 0.49466727374206981 -0.37837661512112009 0 0.49654408504979558 -0.32875357190092452 0 0.4915643949020212 -0.35312746573843468 0 0.50002337057612989 -0.35596342453194108 0 0.48625298381661269 -0.33370928094814578 0 0.4915643949020212 -0.35312746573843468 0 0.48287660026870899 -0.34524903740514012 0 0.4915643949020212 -0.35312746573843468 0 0.4920009106131043 -0.35667953817346632 0 0.4915643949020212 -0.35312746573843468 0 0.4920009106131043 -0.35667953817346632 0 0.50002337057612989 -0.35596342453194108 0 0.4920009106131043 -0.35667953817346632 0 0.50002337057612989 -0.35596342453194108 0 0.4920009106131043 -0.35667953817346632 0 0.46951702991543331 -0.3586865302626987 0 0.47445109088245402 -0.33939251603280057 0 0.46951702991543331 -0.3586865302626987 0 0.48287660026870899 -0.34524903740514012 0 0.47445109088245402 -0.33939251603280057 0 0.46951702991543331 -0.3586865302626987 0 0.4915643949020212 -0.35312746573843468 0 0.46951702991543331 -0.3586865302626987 0 0.48287660026870899 -0.34524903740514012 0 0.4915643949020212 -0.35312746573843468 0 0.4920009106131043 -0.35667953817346632 0 0.46951702991543331 -0.3586865302626987 0 0.46951702991543331 -0.3586865302626987 0 0.48081818480590349 -0.36973260894661869 0 0.46415337265378981 -0.37966042584734389 0 0.4920009106131043 -0.35667953817346632 0 0.46951702991543331 -0.3586865302626987 0 0.48081818480590349 -0.36973260894661869 0 0.46951702991543331 -0.3586865302626987 0 0.44795385503287433 -0.36061133683812702 0 0.46951702991543331 -0.3586865302626987 0 0.44795385503287433 -0.36061133683812702 0 0.46415337265378981 -0.37966042584734389 0 0.46951702991543331 -0.3586865302626987 0 0.46415337265378981 -0.37966042584734389 0 0.47445109088245402 -0.33939251603280057 0 0.46951702991543331 -0.3586865302626987 0 0.45042088551638471 -0.35096432972317859 0 0.46951702991543331 -0.3586865302626987 0 0.45042088551638471 -0.35096432972317859 0 0.44795385503287433 -0.36061133683812702 0 0.47445109088245402 -0.33939251603280057 0 0.45042088551638471 -0.35096432972317859 0 0.45042088551638471 -0.35096432972317859 0 0.44795385503287433 -0.36061133683812702 0 0.42639068015031539 -0.36253614341355689 0 0.45042088551638471 -0.35096432972317859 0 0.42639068015031539 -0.36253614341355689 0 0.44795385503287433 -0.36061133683812702 0 0.44132644307966729 -0.37312150504568198 0 0.42639068015031539 -0.36253614341355689 0 0.44795385503287433 -0.36061133683812702 0 0.44132644307966729 -0.37312150504568198 0 0.46415337265378981 -0.37966042584734389 0 0.47966045165369559 -0.31902197713576608 0 0.45226158601649452 -0.33172887108509258 0 0.45244738176708299 -0.31352824064560469 0 0.47445109088245402 -0.33939251603280057 0 0.45042088551638471 -0.35096432972317859 0 0.45226158601649452 -0.33172887108509258 0 0.45042088551638471 -0.35096432972317859 0 0.45226158601649452 -0.33172887108509258 0 0.43359201080897652 -0.34301949983635871 0 0.45226158601649452 -0.33172887108509258 0 0.45244738176708299 -0.31352824064560469 0 0.4229976954703738 -0.32444666313684739 0 0.45244738176708299 -0.31352824064560469 0 0.4229976954703738 -0.32444666313684739 0 0.43233602393106102 -0.3005221000116049 0 0.4229976954703738 -0.32444666313684739 0 0.41181452604056829 -0.34463871467851392 0 0.39153599383422122 -0.3334124931292809 0 0.4229976954703738 -0.32444666313684739 0 0.43359201080897652 -0.34301949983635871 0 0.41181452604056829 -0.34463871467851392 0 0.45226158601649452 -0.33172887108509258 0 0.4229976954703738 -0.32444666313684739 0 0.43359201080897652 -0.34301949983635871 0 0.4229976954703738 -0.32444666313684739 0 0.39658548067751132 -0.31343780486306111 0 0.41067184346860491 -0.29979657683132821 0 0.44795385503287433 -0.36061133683812702 0 0.42639068015031539 -0.36253614341355689 0 0.42800482762547509 -0.37270999720683612 0 0.42094492737632722 -0.36515856113926831 0 0.42088573012764602 -0.37592765065276618 0 0.44132644307966729 -0.37312150504568198 0 0.42800482762547509 -0.37270999720683612 0 0.42639068015031539 -0.36253614341355689 0 0.42800482762547509 -0.37270999720683612 0 0.42639068015031539 -0.36253614341355689 0 0.42094492737632722 -0.36515856113926831 0 0.42639068015031539 -0.36253614341355689 0 0.42094492737632722 -0.36515856113926831 0 0.43359201080897652 -0.34301949983635871 0 0.42639068015031539 -0.36253614341355689 0 0.41181452604056829 -0.34463871467851392 0 0.45042088551638471 -0.35096432972317859 0 0.43359201080897652 -0.34301949983635871 0 0.42639068015031539 -0.36253614341355689 0 0.42639068015031539 -0.36253614341355689 0 0.41181452604056829 -0.34463871467851392 0 0.40063874089319862 -0.36483485416844869 0 0.42094492737632722 -0.36515856113926831 0 0.41050438841544012 -0.37334979929249063 0 0.40063874089319862 -0.36483485416844869 0 0.42639068015031539 -0.36253614341355689 0 0.42094492737632722 -0.36515856113926831 0 0.40063874089319862 -0.36483485416844869 0 0.42639068015031539 -0.36253614341355689 0 0.40063874089319862 -0.36483485416844869 0 0.42094492737632722 -0.36515856113926831 0 0.41050438841544012 -0.37334979929249063 0 0.42088573012764602 -0.37592765065276618 0 0.41050438841544012 -0.37334979929249063 0 0.40063874089319862 -0.36483485416844869 0 0.39689245483270919 -0.38344361433647162 0 0.41181452604056829 -0.34463871467851392 0 0.40063874089319862 -0.36483485416844869 0 0.38778853450265721 -0.35152776340917052 0 0.38778853450265721 -0.35152776340917052 0 0.37004954035729931 -0.34240091732144351 0 0.37488680163608168 -0.36713356492334082 0 0.40063874089319862 -0.36483485416844869 0 0.38383717015070351 -0.37971395254385532 0 0.37488680163608168 -0.36713356492334082 0 0.40063874089319862 -0.36483485416844869 0 0.37488680163608168 -0.36713356492334082 0 0.40063874089319862 -0.36483485416844869 0 0.38778853450265721 -0.35152776340917052 0 0.37488680163608168 -0.36713356492334082 0 0.4229976954703738 -0.32444666313684739 0 0.39658548067751132 -0.31343780486306111 0 0.39153599383422122 -0.3334124931292809 0 0.41181452604056829 -0.34463871467851392 0 0.38778853450265721 -0.35152776340917052 0 0.39153599383422122 -0.3334124931292809 0 0.39153599383422122 -0.3334124931292809 0 0.37803363593076222 -0.31568495230070781 0 0.37004954035729931 -0.34240091732144351 0 0.38778853450265721 -0.35152776340917052 0 0.39153599383422122 -0.3334124931292809 0 0.37004954035729931 -0.34240091732144351 0 0.39658548067751132 -0.31343780486306111 0 0.39153599383422122 -0.3334124931292809 0 0.37803363593076222 -0.31568495230070781 0 0.39658548067751132 -0.31343780486306111 0 0.37803363593076222 -0.31568495230070781 0 0.37968823468359431 -0.29384833891714152 0 0.39658548067751132 -0.31343780486306111 0 0.37968823468359431 -0.29384833891714152 0 0.41067184346860491 -0.29979657683132821 0 0.37968823468359431 -0.29384833891714152 0 0.39834599146683591 -0.27514649052580892 0 0.41067184346860491 -0.29979657683132821 0 0.39834599146683591 -0.27514649052580892 0 0.41067184346860491 -0.29979657683132821 0 0.37968823468359431 -0.29384833891714152 0 0.39834599146683591 -0.27514649052580892 0 0.37462931490804291 -0.27075778155104729 0 0.38602013946506702 -0.25049640422028968 0 0.39834599146683591 -0.27514649052580892 0 0.37462931490804291 -0.27075778155104729 0 0.40061421951448112 -0.25500368953924613 0 0.39834599146683591 -0.27514649052580892 0 0.41161184359053349 -0.26204353694678179 0 0.38602013946506702 -0.25049640422028968 0 0.39834599146683591 -0.27514649052580892 0 0.38602013946506702 -0.25049640422028968 0 0.40061421951448112 -0.25500368953924613 0 0.39834599146683591 -0.27514649052580892 0 0.39834599146683591 -0.27514649052580892 0 0.41161184359053349 -0.26204353694678179 0 0.42367166171685539 -0.27745279171496562 0 0.41161184359053349 -0.26204353694678179 0 0.42367499757022142 -0.25822245551072132 0 0.42367166171685539 -0.27745279171496562 0 0.41079780246735448 -0.2481836971440492 0 0.40061421951448112 -0.25500368953924613 0 0.41161184359053349 -0.26204353694678179 0 0.41079780246735448 -0.2481836971440492 0 0.41161184359053349 -0.26204353694678179 0 0.42367499757022142 -0.25822245551072132 0 0.43147852106014828 -0.24901274229835921 0 0.44108430964842921 -0.249400311665992 0 0.43587982984158108 -0.26220494814056561 0 0.43147852106014828 -0.24901274229835921 0 0.42367499757022142 -0.25822245551072132 0 0.43587982984158108 -0.26220494814056561 0 0.45189153723238717 -0.28738622772927841 0 0.43587982984158108 -0.26220494814056561 0 0.42367166171685539 -0.27745279171496562 0 0.42367499757022142 -0.25822245551072132 0 0.43587982984158108 -0.26220494814056561 0 0.42367166171685539 -0.27745279171496562 0 0.45189153723238717 -0.28738622772927841 0 0.42367166171685539 -0.27745279171496562 0 0.43233602393106102 -0.3005221000116049 0 0.42367166171685539 -0.27745279171496562 0 0.43233602393106102 -0.3005221000116049 0 0.41067184346860491 -0.29979657683132821 0 0.4229976954703738 -0.32444666313684739 0 0.43233602393106102 -0.3005221000116049 0 0.41067184346860491 -0.29979657683132821 0 0.4229976954703738 -0.32444666313684739 0 0.41067184346860491 -0.29979657683132821 0 0.39834599146683591 -0.27514649052580892 0 0.42367166171685539 -0.27745279171496562 0 0.41067184346860491 -0.29979657683132821 0 0.45075238454890409 -0.5 0 0.43973161619715739 -0.47515858035801228 0 0.43337891646549093 -0.5000000000000191 0 0.45075238454890409 -0.5 0 0.43973161619715739 -0.47515858035801228 0 0.46096375205579371 -0.48172388962458063 0 0.46096375205579371 -0.48172388962458063 0 0.46980533902539179 -0.47357072330225181 0 0.46015584289788669 -0.46472093949001558 0 0.43973161619715739 -0.47515858035801228 0 0.46096375205579371 -0.48172388962458063 0 0.46015584289788669 -0.46472093949001558 0 0.45075238454890409 -0.5 0 0.46096375205579371 -0.48172388962458063 0 0.46812585263231732 -0.50000000000000566 0 0.5 -0.5 0 0.49047389822397419 -0.49065046998026512 0 0.5 -0.46133700699384522 0 0.47530220284245051 -0.49999999999999939 0 0.49047389822397419 -0.49065046998026512 0 0.47845674551999312 -0.47805265419656201 0 0.46812585263231732 -0.50000000000000566 0 0.47530220284245051 -0.49999999999999939 0 0.47845674551999312 -0.47805265419656201 0 0.46096375205579371 -0.48172388962458063 0 0.46812585263231732 -0.50000000000000566 0 0.47845674551999312 -0.47805265419656201 0 0.46812585263231732 -0.50000000000000566 0 0.47845674551999312 -0.47805265419656201 0 0.47530220284245051 -0.49999999999999939 0 0.47845674551999312 -0.47805265419656201 0 0.47530220284245051 -0.49999999999999939 0 0.5 -0.5 0 0.49047389822397419 -0.49065046998026512 0 0.49047389822397419 -0.49065046998026512 0 0.4810625677608803 -0.47251674530224858 0 0.49047389822397419 -0.49065046998026512 0 0.4810625677608803 -0.47251674530224858 0 0.5 -0.46133700699384522 0 0.49047389822397419 -0.49065046998026512 0 0.4810625677608803 -0.47251674530224858 0 0.47845674551999312 -0.47805265419656201 0 0.46096375205579371 -0.48172388962458063 0 0.47845674551999312 -0.47805265419656201 0 0.46980533902539179 -0.47357072330225181 0 0.47964501562789258 -0.46978540989784889 0 0.46980533902539179 -0.47357072330225181 0 0.46015584289788669 -0.46472093949001558 0 0.47964501562789258 -0.46978540989784889 0 0.47845674551999312 -0.47805265419656201 0 0.4810625677608803 -0.47251674530224858 0 0.47964501562789258 -0.46978540989784889 0 0.47845674551999312 -0.47805265419656201 0 0.4810625677608803 -0.47251674530224858 0 0.47845674551999312 -0.47805265419656201 0 0.4810625677608803 -0.47251674530224858 0 0.47964501562789258 -0.46978540989784889 0 0.47964501562789258 -0.46978540989784889 0 0.47845674551999312 -0.47805265419656201 0 0.46980533902539179 -0.47357072330225181 0 0.47964501562789258 -0.46978540989784889 0 0.48261093694494162 -0.44915037419697168 0 0.46723245895584059 -0.44586893112538323 0 0.4810625677608803 -0.47251674530224858 0 0.47964501562789258 -0.46978540989784889 0 0.49053128388044132 -0.45240104095314831 0 0.47964501562789258 -0.46978540989784889 0 0.48261093694494162 -0.44915037419697168 0 0.47964501562789258 -0.46978540989784889 0 0.49053128388044132 -0.45240104095314831 0 0.48261093694494162 -0.44915037419697168 0 0.47964501562789258 -0.46978540989784889 0 0.46723245895584059 -0.44586893112538323 0 0.46015584289788669 -0.46472093949001558 0 0.47964501562789258 -0.46978540989784889 0 0.46723245895584059 -0.44586893112538323 0 0.4810625677608803 -0.47251674530224858 0 0.5 -0.46133700699384522 0 0.49053128388044132 -0.45240104095314831 0 0.4810625677608803 -0.47251674530224858 0 0.49053128388044132 -0.45240104095314831 0 0.49053128388044132 -0.45240104095314831 0 0.48967976977184369 -0.44058802256256552 0 0.50000000000000133 -0.43228533660404728 0 0.48967976977184369 -0.44058802256256552 0 0.48261093694494162 -0.44915037419697168 0 0.48557685826198982 -0.42851533849609441 0 0.49053128388044132 -0.45240104095314831 0 0.50000000000000133 -0.43228533660404728 0 0.5 -0.46133700699384522 0 0.49053128388044132 -0.45240104095314831 0 0.50000000000000133 -0.43228533660404728 0 0.49053128388044132 -0.45240104095314831 0 0.48967976977184369 -0.44058802256256552 0 0.48261093694494162 -0.44915037419697168 0 0.48261093694494162 -0.44915037419697168 0 0.48557685826198982 -0.42851533849609441 0 0.48261093694494162 -0.44915037419697168 0 0.47583756081273271 -0.43594347629945551 0 0.48557685826198982 -0.42851533849609441 0 0.48261093694494162 -0.44915037419697168 0 0.46723245895584059 -0.44586893112538323 0 0.47583756081273271 -0.43594347629945551 0 0.46723245895584059 -0.44586893112538323 0 0.44608431592881931 -0.45031716071600419 0 0.452437015660481 -0.42547574107399633 0 0.46723245895584059 -0.44586893112538323 0 0.46015584289788669 -0.46472093949001558 0 0.44608431592881931 -0.45031716071600419 0 0.43973161619715739 -0.47515858035801228 0 0.46015584289788669 -0.46472093949001558 0 0.44608431592881931 -0.45031716071600419 0 0.43973161619715739 -0.47515858035801228 0 0.44608431592881931 -0.45031716071600419 0 0.43973161619715739 -0.47515858035801228 0 0.44608431592881931 -0.45031716071600419 0 0.43075983822997249 -0.47261077789297762 0 0.44608431592881931 -0.45031716071600419 0 0.4364472537460754 -0.44522155578595601 0 0.43075983822997249 -0.47261077789297762 0 0.44608431592881931 -0.45031716071600419 0 0.452437015660481 -0.42547574107399633 0 0.4364472537460754 -0.44522155578595601 0 0.44608431592881931 -0.45031716071600419 0 0.452437015660481 -0.42547574107399633 0 0.452437015660481 -0.42547574107399633 0 0.44213466926217831 -0.41783233367893441 0 0.4364472537460754 -0.44522155578595601 0 0.44213466926217831 -0.41783233367893441 0 0.4364472537460754 -0.44522155578595601 0 0.452437015660481 -0.42547574107399633 0 0.44213466926217831 -0.41783233367893441 0 0.4587897153921397 -0.40063432143198757 0 0.44213466926217831 -0.41783233367893441 0 0.4587897153921397 -0.40063432143198757 0 0.43743987778849841 -0.40326785995322151 0 0.452437015660481 -0.42547574107399633 0 0.4548199022837896 -0.42195245235291678 0 0.4587897153921397 -0.40063432143198757 0 0.46386080026840171 -0.41332177395493802 0 0.4548199022837896 -0.42195245235291678 0 0.4587897153921397 -0.40063432143198757 0 0.452437015660481 -0.42547574107399633 0 0.4587897153921397 -0.40063432143198757 0 0.46386080026840171 -0.41332177395493802 0 0.4698330075484814 -0.40719597976628152 0 0.4587897153921397 -0.40063432143198757 0 0.46386080026840171 -0.41332177395493802 0 0.47208302216873382 -0.41640152403171471 0 0.4698330075484814 -0.40719597976628152 0 0.46386080026840171 -0.41332177395493802 0 0.46476344965269373 -0.42108375487829292 0 0.4548199022837896 -0.42195245235291678 0 0.46386080026840171 -0.41332177395493802 0 0.46476344965269373 -0.42108375487829292 0 0.47208302216873382 -0.41640152403171471 0 0.46723245895584059 -0.44586893112538323 0 0.452437015660481 -0.42547574107399633 0 0.4548199022837896 -0.42195245235291678 0 0.46723245895584059 -0.44586893112538323 0 0.4548199022837896 -0.42195245235291678 0 0.467864907251826 -0.43046352727124959 0 0.46723245895584059 -0.44586893112538323 0 0.4548199022837896 -0.42195245235291678 0 0.46476344965269373 -0.42108375487829292 0 0.4548199022837896 -0.42195245235291678 0 0.467864907251826 -0.43046352727124959 0 0.46723245895584059 -0.44586893112538323 0 0.467864907251826 -0.43046352727124959 0 0.47583756081273271 -0.43594347629945551 0 0.467864907251826 -0.43046352727124959 0 0.47583756081273271 -0.43594347629945551 0 0.47530625029363771 -0.42504399657536368 0 0.46476344965269373 -0.42108375487829292 0 0.467864907251826 -0.43046352727124959 0 0.47530625029363771 -0.42504399657536368 0 0.47530625029363771 -0.42504399657536368 0 0.48557685826198982 -0.42851533849609441 0 0.48227648364658648 -0.41396712680181608 0 0.47583756081273271 -0.43594347629945551 0 0.47530625029363771 -0.42504399657536368 0 0.48557685826198982 -0.42851533849609441 0 0.48967976977184369 -0.44058802256256552 0 0.48557685826198982 -0.42851533849609441 0 0.50000000000000133 -0.43228533660404728 0 0.48557685826198982 -0.42851533849609441 0 0.50000000000000133 -0.43228533660404728 0 0.50000000000000044 -0.42177076901642802 0 0.50000000000000044 -0.42177076901642802 0 0.48227648364658648 -0.41396712680181608 0 0.49733363687103538 -0.40007369206877402 0 0.50000000000000044 -0.42177076901642802 0 0.49733363687103538 -0.40007369206877402 0 0.48557685826198982 -0.42851533849609441 0 0.50000000000000044 -0.42177076901642802 0 0.48227648364658648 -0.41396712680181608 0 0.50000000000000044 -0.42177076901642802 0 0.49733363687103538 -0.40007369206877402 0 0.5 -0.40286913815689579 0 0.46476344965269373 -0.42108375487829292 0 0.47530625029363771 -0.42504399657536368 0 0.47208302216873382 -0.41640152403171471 0 0.47530625029363771 -0.42504399657536368 0 0.48227648364658648 -0.41396712680181608 0 0.47208302216873382 -0.41640152403171471 0 0.48227648364658648 -0.41396712680181608 0 0.47208302216873382 -0.41640152403171471 0 0.4698330075484814 -0.40719597976628152 0 0.48227648364658648 -0.41396712680181608 0 0.4698330075484814 -0.40719597976628152 0 0.47543722966824797 -0.39858082243387399 0 0.47543722966824797 -0.39858082243387399 0 0.49733363687103538 -0.40007369206877402 0 0.47958959306754989 -0.38327944692607641 0 0.49733363687103538 -0.40007369206877402 0 0.5 -0.40286913815689579 0 0.50000000000000044 -0.38396750729736362 0 0.48227648364658648 -0.41396712680181608 0 0.47543722966824797 -0.39858082243387399 0 0.49733363687103538 -0.40007369206877402 0 0.49733363687103538 -0.40007369206877402 0 0.49466727374206981 -0.37837661512112009 0 0.47958959306754989 -0.38327944692607641 0 0.49733363687103538 -0.40007369206877402 0 0.49466727374206981 -0.37837661512112009 0 0.49733363687103538 -0.40007369206877402 0 0.50000000000000044 -0.38396750729736362 0 0.49466727374206981 -0.37837661512112009 0 0.48081818480590349 -0.36973260894661869 0 0.49466727374206981 -0.37837661512112009 0 0.47958959306754989 -0.38327944692607641 0 0.47543722966824797 -0.39858082243387399 0 0.47958959306754989 -0.38327944692607641 0 0.46415337265378981 -0.37966042584734389 0 0.48081818480590349 -0.36973260894661869 0 0.47958959306754989 -0.38327944692607641 0 0.46415337265378981 -0.37966042584734389 0 0.46415337265378981 -0.37966042584734389 0 0.4587897153921397 -0.40063432143198757 0 0.46415337265378981 -0.37966042584734389 0 0.4587897153921397 -0.40063432143198757 0 0.44661099661233722 -0.38950613895597119 0 0.47543722966824797 -0.39858082243387399 0 0.46415337265378981 -0.37966042584734389 0 0.4587897153921397 -0.40063432143198757 0 0.47543722966824797 -0.39858082243387399 0 0.4587897153921397 -0.40063432143198757 0 0.4698330075484814 -0.40719597976628152 0 0.47543722966824797 -0.39858082243387399 0 0.4587897153921397 -0.40063432143198757 0 0.4587897153921397 -0.40063432143198757 0 0.44661099661233722 -0.38950613895597119 0 0.43743987778849841 -0.40326785995322151 0 0.44661099661233722 -0.38950613895597119 0 0.43048163215456081 -0.38432733794234358 0 0.43743987778849841 -0.40326785995322151 0 0.4587897153921397 -0.40063432143198757 0 0.43743987778849841 -0.40326785995322151 0 0.44132644307966729 -0.37312150504568198 0 0.46415337265378981 -0.37966042584734389 0 0.44661099661233722 -0.38950613895597119 0 0.44132644307966729 -0.37312150504568198 0 0.44661099661233722 -0.38950613895597119 0 0.43048163215456081 -0.38432733794234358 0 0.43048163215456081 -0.38432733794234358 0 0.41449287506642701 -0.3840925576828923 0 0.42088573012764602 -0.37592765065276618 0 0.43048163215456081 -0.38432733794234358 0 0.42395286018787759 -0.3949904356120843 0 0.41449287506642701 -0.3840925576828923 0 0.42800482762547509 -0.37270999720683612 0 0.43048163215456081 -0.38432733794234358 0 0.42088573012764602 -0.37592765065276618 0 0.44132644307966729 -0.37312150504568198 0 0.42800482762547509 -0.37270999720683612 0 0.43048163215456081 -0.38432733794234358 0 0.43743987778849841 -0.40326785995322151 0 0.41609004018485712 -0.40590139847445639 0 0.43048163215456081 -0.38432733794234358 0 0.42395286018787759 -0.3949904356120843 0 0.43743987778849841 -0.40326785995322151 0 0.42395286018787759 -0.3949904356120843 0 0.43743987778849841 -0.40326785995322151 0 0.41609004018485712 -0.40590139847445639 0 0.42395286018787759 -0.3949904356120843 0 0.40689605732959522 -0.39604899307323332 0 0.41609004018485712 -0.40590139847445639 0 0.42395286018787759 -0.3949904356120843 0 0.40689605732959522 -0.39604899307323332 0 0.41449287506642701 -0.3840925576828923 0 0.41050438841544012 -0.37334979929249063 0 0.41449287506642701 -0.3840925576828923 0 0.39689245483270919 -0.38344361433647162 0 0.41050438841544012 -0.37334979929249063 0 0.41449287506642701 -0.3840925576828923 0 0.42088573012764602 -0.37592765065276618 0 0.40689605732959522 -0.39604899307323332 0 0.41449287506642701 -0.3840925576828923 0 0.39689245483270919 -0.38344361433647162 0 0.40063874089319862 -0.36483485416844869 0 0.39689245483270919 -0.38344361433647162 0 0.38383717015070351 -0.37971395254385532 0 0.38383717015070351 -0.37971395254385532 0 0.38360777978888772 -0.39431997728362372 0 0.36316007360264041 -0.38883775200739179 0 0.39689245483270919 -0.38344361433647162 0 0.38383717015070351 -0.37971395254385532 0 0.38360777978888772 -0.39431997728362372 0 0.38360777978888772 -0.39431997728362372 0 0.39474020258121578 -0.40853493699569088 0 0.38128501912533791 -0.41019465659633542 0 0.38360777978888772 -0.39431997728362372 0 0.38128501912533791 -0.41019465659633542 0 0.36316007360264041 -0.38883775200739179 0 0.39689245483270919 -0.38344361433647162 0 0.39474020258121578 -0.40853493699569088 0 0.39689245483270919 -0.38344361433647162 0 0.38360777978888772 -0.39431997728362372 0 0.39474020258121578 -0.40853493699569088 0 0.40689605732959522 -0.39604899307323332 0 0.39689245483270919 -0.38344361433647162 0 0.39474020258121578 -0.40853493699569088 0 0.40689605732959522 -0.39604899307323332 0 0.41609004018485712 -0.40590139847445639 0 0.39474020258121578 -0.40853493699569088 0 0.39474020258121578 -0.40853493699569088 0 0.38458216295694969 -0.41407973234122869 0 0.39299003902863638 -0.42893864124258008 0 0.39474020258121578 -0.40853493699569088 0 0.39299003902863638 -0.42893864124258008 0 0.4058649800888301 -0.41976609811620003 0 0.39474020258121578 -0.40853493699569088 0 0.39299003902863638 -0.42893864124258008 0 0.41609004018485712 -0.40590139847445639 0 0.4058649800888301 -0.41976609811620003 0 0.39474020258121578 -0.40853493699569088 0 0.41609004018485712 -0.40590139847445639 0 0.39474020258121578 -0.40853493699569088 0 0.39474020258121578 -0.40853493699569088 0 0.38128501912533791 -0.41019465659633542 0 0.39474020258121578 -0.40853493699569088 0 0.38458216295694969 -0.41407973234122869 0 0.38128501912533791 -0.41019465659633542 0 0.38458216295694969 -0.41407973234122869 0 0.38128501912533791 -0.41019465659633542 0 0.38458216295694969 -0.41407973234122869 0 0.37898970483988992 -0.41591126064682338 0 0.38303086063618019 -0.42279170908155611 0 0.37898970483988992 -0.41591126064682338 0 0.37645311040362611 -0.42314857690183899 0 0.38303086063618019 -0.42279170908155611 0 0.37898970483988992 -0.41591126064682338 0 0.37645311040362611 -0.42314857690183899 0 0.37228040643750432 -0.4169479350886498 0 0.37898970483988992 -0.41591126064682338 0 0.37635425318110782 -0.41080287490199208 0 0.37228040643750432 -0.4169479350886498 0 0.37635425318110782 -0.41080287490199208 0 0.38128501912533791 -0.41019465659633542 0 0.37898970483988992 -0.41591126064682338 0 0.37635425318110782 -0.41080287490199208 0 0.38128501912533791 -0.41019465659633542 0 0.38458216295694969 -0.41407973234122869 0 0.37898970483988992 -0.41591126064682338 0 0.38128501912533791 -0.41019465659633542 0 0.38203882817592949 -0.43300446577425489 0 0.39299003902863638 -0.42893864124258008 0 0.3912398754760571 -0.44934234548946922 0 0.38203882817592949 -0.43300446577425489 0 0.37718924257732972 -0.44409853690570278 0 0.37108874227166028 -0.43240490062185122 0 0.38203882817592949 -0.43300446577425489 0 0.37645311040362611 -0.42314857690183899 0 0.37108874227166028 -0.43240490062185122 0 0.38203882817592949 -0.43300446577425489 0 0.37645311040362611 -0.42314857690183899 0 0.38303086063618019 -0.42279170908155611 0 0.38458216295694969 -0.41407973234122869 0 0.38303086063618019 -0.42279170908155611 0 0.39299003902863638 -0.42893864124258008 0 0.38203882817592949 -0.43300446577425489 0 0.38303086063618019 -0.42279170908155611 0 0.39299003902863638 -0.42893864124258008 0 0.4058649800888301 -0.41976609811620003 0 0.39299003902863638 -0.42893864124258008 0 0.40583883429739381 -0.43109232952341558 0 0.39299003902863638 -0.42893864124258008 0 0.40583883429739381 -0.43109232952341558 0 0.40701250376598758 -0.4434049348412924 0 0.40583883429739381 -0.43109232952341558 0 0.4174878143061212 -0.4322596438935904 0 0.40701250376598758 -0.4434049348412924 0 0.4058649800888301 -0.41976609811620003 0 0.4174878143061212 -0.4322596438935904 0 0.41809239085738092 -0.42023280100385929 0 0.4058649800888301 -0.41976609811620003 0 0.40583883429739381 -0.43109232952341558 0 0.4174878143061212 -0.4322596438935904 0 0.41609004018485712 -0.40590139847445639 0 0.4058649800888301 -0.41976609811620003 0 0.41809239085738092 -0.42023280100385929 0 0.41609004018485712 -0.40590139847445639 0 0.41809239085738092 -0.42023280100385929 0 0.42902162480870271 -0.41541979829621312 0 0.43743987778849841 -0.40326785995322151 0 0.41609004018485712 -0.40590139847445639 0 0.42902162480870271 -0.41541979829621312 0 0.44213466926217831 -0.41783233367893441 0 0.43743987778849841 -0.40326785995322151 0 0.42902162480870271 -0.41541979829621312 0 0.44213466926217831 -0.41783233367893441 0 0.42902162480870271 -0.41541979829621312 0 0.43256275878119549 -0.43012982273999228 0 0.44213466926217831 -0.41783233367893441 0 0.43256275878119549 -0.43012982273999228 0 0.4364472537460754 -0.44522155578595601 0 0.4174878143061212 -0.4322596438935904 0 0.43256275878119549 -0.43012982273999228 0 0.42735730016268048 -0.43810934821996211 0 0.41809239085738092 -0.42023280100385929 0 0.42902162480870271 -0.41541979829621312 0 0.43256275878119549 -0.43012982273999228 0 0.4174878143061212 -0.4322596438935904 0 0.41809239085738092 -0.42023280100385929 0 0.43256275878119549 -0.43012982273999228 0 0.42293137381732981 -0.44482637046030959 0 0.4364472537460754 -0.44522155578595601 0 0.42541276213519408 -0.45653711593494067 0 0.42735730016268048 -0.43810934821996211 0 0.42293137381732981 -0.44482637046030959 0 0.4364472537460754 -0.44522155578595601 0 0.4174878143061212 -0.4322596438935904 0 0.42735730016268048 -0.43810934821996211 0 0.42293137381732981 -0.44482637046030959 0 0.43256275878119549 -0.43012982273999228 0 0.42735730016268048 -0.43810934821996211 0 0.4364472537460754 -0.44522155578595601 0 0.4364472537460754 -0.44522155578595601 0 0.42541276213519408 -0.45653711593494067 0 0.43075983822997249 -0.47261077789297762 0 0.42541276213519408 -0.45653711593494067 0 0.41850793250310447 -0.4661111433890156 0 0.43075983822997249 -0.47261077789297762 0 0.4364472537460754 -0.44522155578595601 0 0.43075983822997249 -0.47261077789297762 0 0.42541276213519408 -0.45653711593494067 0 0.4164940781267526 -0.45420266612564858 0 0.41850793250310447 -0.4661111433890156 0 0.41850793250310447 -0.4661111433890156 0 0.40456668933447709 -0.46067211230180549 0 0.40981976248376439 -0.47557251599412081 0 0.4164940781267526 -0.45420266612564858 0 0.41850793250310447 -0.4661111433890156 0 0.40456668933447709 -0.46067211230180549 0 0.4164940781267526 -0.45420266612564858 0 0.40701250376598758 -0.4434049348412924 0 0.40456668933447709 -0.46067211230180549 0 0.4174878143061212 -0.4322596438935904 0 0.42293137381732981 -0.44482637046030959 0 0.40701250376598758 -0.4434049348412924 0 0.42293137381732981 -0.44482637046030959 0 0.4164940781267526 -0.45420266612564858 0 0.40701250376598758 -0.4434049348412924 0 0.42293137381732981 -0.44482637046030959 0 0.42541276213519408 -0.45653711593494067 0 0.4164940781267526 -0.45420266612564858 0 0.40701250376598758 -0.4434049348412924 0 0.3912398754760571 -0.44934234548946922 0 0.40456668933447709 -0.46067211230180549 0 0.39299003902863638 -0.42893864124258008 0 0.40701250376598758 -0.4434049348412924 0 0.3912398754760571 -0.44934234548946922 0 0.39299003902863638 -0.42893864124258008 0 0.3912398754760571 -0.44934234548946922 0 0.38203882817592949 -0.43300446577425489 0 0.3912398754760571 -0.44934234548946922 0 0.37718924257732972 -0.44409853690570278 0 0.3912398754760571 -0.44934234548946922 0 0.37718924257732972 -0.44409853690570278 0 0.37808344977556008 -0.45773515392008368 0 0.3912398754760571 -0.44934234548946922 0 0.37808344977556008 -0.45773515392008368 0 0.38948971192347781 -0.46974604973635831 0 0.3912398754760571 -0.44934234548946922 0 0.38948971192347781 -0.46974604973635831 0 0.37808344977556008 -0.45773515392008368 0 0.37732329984677909 -0.47636844092054242 0 0.38948971192347781 -0.46974604973635831 0 0.40456668933447709 -0.46067211230180549 0 0.38948971192347781 -0.46974604973635831 0 0.40981976248376439 -0.47557251599412081 0 0.3912398754760571 -0.44934234548946922 0 0.40456668933447709 -0.46067211230180549 0 0.38948971192347781 -0.46974604973635831 0 0.39336904957986912 -0.48439780133086041 0 0.40973509684386927 -0.48864280919941649 0 0.40981976248376439 -0.47557251599412081 0 0.38948971192347781 -0.46974604973635831 0 0.39336904957986912 -0.48439780133086041 0 0.40981976248376439 -0.47557251599412081 0 0.37732329984677909 -0.47636844092054242 0 0.38948971192347781 -0.46974604973635831 0 0.39336904957986912 -0.48439780133086041 0 0.37580887543001668 -0.5 0 0.40044064907194321 -0.5 0 0.39336904957986912 -0.48439780133086041 0 0.37732329984677909 -0.47636844092054242 0 0.37580887543001668 -0.5 0 0.39336904957986912 -0.48439780133086041 0 0.40044064907194321 -0.5 0 0.39336904957986912 -0.48439780133086041 0 0.40973509684386927 -0.48864280919941649 0 0.40044064907194321 -0.5 0 0.40973509684386927 -0.48864280919941649 0 0.4250724227138698 -0.49999999999999928 0 0.40973509684386927 -0.48864280919941649 0 0.41997360036990011 -0.48324372867210141 0 0.4250724227138698 -0.49999999999999928 0 0.40973509684386927 -0.48864280919941649 0 0.40981976248376439 -0.47557251599412081 0 0.41997360036990011 -0.48324372867210141 0 0.41850793250310447 -0.4661111433890156 0 0.40981976248376439 -0.47557251599412081 0 0.4197652833966854 -0.47438454148705378 0 0.40981976248376439 -0.47557251599412081 0 0.4197652833966854 -0.47438454148705378 0 0.41997360036990011 -0.48324372867210141 0 0.4197652833966854 -0.47438454148705378 0 0.41997360036990011 -0.48324372867210141 0 0.43075983822997249 -0.47261077789297762 0 0.43973161619715739 -0.47515858035801228 0 0.43075983822997249 -0.47261077789297762 0 0.43337891646549093 -0.5000000000000191 0 0.41850793250310447 -0.4661111433890156 0 0.4197652833966854 -0.47438454148705378 0 0.43075983822997249 -0.47261077789297762 0 0.43973161619715739 -0.47515858035801228 0 0.43337891646549093 -0.5000000000000191 0 0.41997360036990011 -0.48324372867210141 0 0.43075983822997249 -0.47261077789297762 0 0.4250724227138698 -0.49999999999999928 0 0.43075983822997249 -0.47261077789297762 0 0.4250724227138698 -0.49999999999999928 0 0.43337891646549093 -0.5000000000000191 0 0.43075983822997249 -0.47261077789297762 0 0.4250724227138698 -0.49999999999999928 0 0.32654532814616372 -0.50000000000000322 0 0.31963877639873101 -0.48322572552436821 0 0.32654532814616372 -0.50000000000000322 0 0.31963877639873101 -0.48322572552436821 0 0.33437468036929391 -0.48854685236594247 0 0.32654532814616372 -0.50000000000000322 0 0.31963877639873101 -0.48322572552436821 0 0.29705367144924688 -0.5 0 0.31963877639873101 -0.48322572552436821 0 0.31273222465129952 -0.46645145104873259 0 0.31963877639873101 -0.48322572552436821 0 0.32908147338826182 -0.47531999578469109 0 0.31273222465129952 -0.46645145104873259 0 0.32908147338826182 -0.47531999578469109 0 0.31273222465129952 -0.46645145104873259 0 0.31963877639873101 -0.48322572552436821 0 0.32908147338826182 -0.47531999578469109 0 0.33437468036929391 -0.48854685236594247 0 0.32908147338826182 -0.47531999578469109 0 0.34543072212522402 -0.48418854052064958 0 0.32908147338826182 -0.47531999578469109 0 0.34093112071850162 -0.47128650753443491 0 0.34543072212522402 -0.48418854052064958 0 0.32908147338826182 -0.47531999578469109 0 0.33437468036929391 -0.48854685236594247 0 0.34543072212522402 -0.48418854052064958 0 0.32908147338826182 -0.47531999578469109 0 0.34093112071850162 -0.47128650753443491 0 0.33361502305384472 -0.46050539399440699 0 0.33437468036929391 -0.48854685236594247 0 0.35117710178809008 -0.5 0 0.34543072212522402 -0.48418854052064958 0 0.32654532814616372 -0.50000000000000322 0 0.33437468036929391 -0.48854685236594247 0 0.35117710178809008 -0.5 0 0.35117710178809008 -0.5 0 0.36139188383742771 -0.48197960124160832 0 0.34543072212522402 -0.48418854052064958 0 0.37732329984677909 -0.47636844092054242 0 0.37580887543001668 -0.5 0 0.36139188383742771 -0.48197960124160832 0 0.37580887543001668 -0.5 0 0.35117710178809008 -0.5 0 0.36139188383742771 -0.48197960124160832 0 0.36139188383742771 -0.48197960124160832 0 0.35274522256592872 -0.47065884135915892 0 0.36579682853432421 -0.46435203929434382 0 0.37732329984677909 -0.47636844092054242 0 0.36139188383742771 -0.48197960124160832 0 0.36579682853432421 -0.46435203929434382 0 0.36139188383742771 -0.48197960124160832 0 0.35274522256592872 -0.47065884135915892 0 0.34543072212522402 -0.48418854052064958 0 0.34093112071850162 -0.47128650753443491 0 0.35274522256592872 -0.47065884135915892 0 0.34543072212522402 -0.48418854052064958 0 0.34093112071850162 -0.47128650753443491 0 0.35274522256592872 -0.47065884135915892 0 0.34461513482808298 -0.46234808605774358 0 0.35274522256592872 -0.47065884135915892 0 0.34461513482808298 -0.46234808605774358 0 0.35357555937116159 -0.45642396798715251 0 0.34461513482808298 -0.46234808605774358 0 0.35357555937116159 -0.45642396798715251 0 0.34153797157959631 -0.45007841157416978 0 0.35274522256592872 -0.47065884135915892 0 0.35357555937116159 -0.45642396798715251 0 0.36579682853432421 -0.46435203929434382 0 0.37808344977556008 -0.45773515392008368 0 0.36579682853432421 -0.46435203929434382 0 0.36427308276285358 -0.4467367599010893 0 0.35357555937116159 -0.45642396798715251 0 0.36579682853432421 -0.46435203929434382 0 0.36427308276285358 -0.4467367599010893 0 0.37808344977556008 -0.45773515392008368 0 0.37732329984677909 -0.47636844092054242 0 0.36579682853432421 -0.46435203929434382 0 0.37718924257732972 -0.44409853690570278 0 0.36427308276285358 -0.4467367599010893 0 0.37108874227166028 -0.43240490062185122 0 0.37718924257732972 -0.44409853690570278 0 0.37808344977556008 -0.45773515392008368 0 0.36427308276285358 -0.4467367599010893 0 0.36427308276285358 -0.4467367599010893 0 0.3560965150094289 -0.43903684118910269 0 0.36151717898042751 -0.43341303119252911 0 0.36427308276285358 -0.4467367599010893 0 0.36151717898042751 -0.43341303119252911 0 0.37108874227166028 -0.43240490062185122 0 0.36427308276285358 -0.4467367599010893 0 0.3560965150094289 -0.43903684118910269 0 0.35050407288275931 -0.44472577717588391 0 0.35357555937116159 -0.45642396798715251 0 0.36427308276285358 -0.4467367599010893 0 0.35050407288275931 -0.44472577717588391 0 0.35357555937116159 -0.45642396798715251 0 0.35050407288275931 -0.44472577717588391 0 0.34153797157959631 -0.45007841157416978 0 0.35050407288275931 -0.44472577717588391 0 0.34208990806822448 -0.44023402336456519 0 0.34153797157959631 -0.45007841157416978 0 0.3560965150094289 -0.43903684118910269 0 0.35050407288275931 -0.44472577717588391 0 0.34794280178124698 -0.43543936328436061 0 0.35050407288275931 -0.44472577717588391 0 0.34208990806822448 -0.44023402336456519 0 0.34794280178124698 -0.43543936328436061 0 0.34208990806822448 -0.44023402336456519 0 0.33532331203467208 -0.44075566860433218 0 0.34153797157959631 -0.45007841157416978 0 0.34208990806822448 -0.44023402336456519 0 0.33532331203467208 -0.44075566860433218 0 0.33721379245253841 -0.43644079356035959 0 0.33073316457969199 -0.44626115325976418 0 0.32638244242941378 -0.4399681416008453 0 0.33026969203736362 -0.43412119360856022 0 0.33532331203467208 -0.44075566860433218 0 0.33073316457969199 -0.44626115325976418 0 0.33026969203736362 -0.43412119360856022 0 0.33532331203467208 -0.44075566860433218 0 0.33390744594772348 -0.43628465200554911 0 0.33721379245253841 -0.43644079356035959 0 0.33073316457969199 -0.44626115325976418 0 0.33026969203736362 -0.43412119360856022 0 0.33532331203467208 -0.44075566860433218 0 0.33073316457969199 -0.44626115325976418 0 0.34153797157959631 -0.45007841157416978 0 0.33073316457969199 -0.44626115325976418 0 0.34153797157959631 -0.45007841157416978 0 0.33361502305384472 -0.46050539399440699 0 0.34461513482808298 -0.46234808605774358 0 0.34153797157959631 -0.45007841157416978 0 0.33361502305384472 -0.46050539399440699 0 0.34093112071850162 -0.47128650753443491 0 0.34461513482808298 -0.46234808605774358 0 0.33361502305384472 -0.46050539399440699 0 0.32908147338826182 -0.47531999578469109 0 0.33361502305384472 -0.46050539399440699 0 0.32375509294251698 -0.46325614218471561 0 0.33073316457969199 -0.44626115325976418 0 0.33361502305384472 -0.46050539399440699 0 0.32465120334026148 -0.45498746156532988 0 0.32908147338826182 -0.47531999578469109 0 0.32375509294251698 -0.46325614218471561 0 0.31273222465129952 -0.46645145104873259 0 0.32465120334026148 -0.45498746156532988 0 0.32090296357378562 -0.45873791447603968 0 0.31617326522604638 -0.45508947308698627 0 0.32465120334026148 -0.45498746156532988 0 0.32090296357378562 -0.45873791447603968 0 0.32375509294251698 -0.46325614218471561 0 0.33361502305384472 -0.46050539399440699 0 0.32465120334026148 -0.45498746156532988 0 0.32375509294251698 -0.46325614218471561 0 0.32090296357378562 -0.45873791447603968 0 0.32375509294251698 -0.46325614218471561 0 0.31668711776290132 -0.46052693975048159 0 0.32375509294251698 -0.46325614218471561 0 0.31273222465129952 -0.46645145104873259 0 0.31668711776290132 -0.46052693975048159 0 0.31273222465129952 -0.46645145104873259 0 0.31668711776290132 -0.46052693975048159 0 0.30966571719709168 -0.45900367687725929 0 0.32090296357378562 -0.45873791447603968 0 0.31668711776290132 -0.46052693975048159 0 0.31617326522604638 -0.45508947308698627 0 0.31668711776290132 -0.46052693975048159 0 0.31617326522604638 -0.45508947308698627 0 0.30966571719709168 -0.45900367687725929 0 0.31617326522604638 -0.45508947308698627 0 0.3153557243238308 -0.44670449229277659 0 0.31050454124171573 -0.44984891472225119 0 0.31617326522604638 -0.45508947308698627 0 0.3153557243238308 -0.44670449229277659 0 0.32289804244015857 -0.44656666420253699 0 0.32171997942527158 -0.43692123763373131 0 0.30419031432719712 -0.44570530252736268 0 0.3153557243238308 -0.44670449229277659 0 0.32171997942527158 -0.43692123763373131 0 0.30419031432719712 -0.44570530252736268 0 0.32171997942527158 -0.43692123763373131 0 0.31517448724003849 -0.43375720001638091 0 0.30419031432719712 -0.44570530252736268 0 0.3153557243238308 -0.44670449229277659 0 0.32289804244015857 -0.44656666420253699 0 0.32171997942527158 -0.43692123763373131 0 0.32638244242941378 -0.4399681416008453 0 0.32289804244015857 -0.44656666420253699 0 0.32171997942527158 -0.43692123763373131 0 0.33073316457969199 -0.44626115325976418 0 0.32638244242941378 -0.4399681416008453 0 0.32289804244015857 -0.44656666420253699 0 0.32465120334026148 -0.45498746156532988 0 0.31617326522604638 -0.45508947308698627 0 0.32289804244015857 -0.44656666420253699 0 0.33073316457969199 -0.44626115325976418 0 0.32465120334026148 -0.45498746156532988 0 0.32289804244015857 -0.44656666420253699 0 0.31558375959101298 -0.41426665223061299 0 0.33026969203736362 -0.43412119360856022 0 0.31841773006693358 -0.42921919189343388 0 0.31558375959101298 -0.41426665223061299 0 0.33026969203736362 -0.43412119360856022 0 0.32419746098974561 -0.43505744118414269 0 0.31841773006693358 -0.42921919189343388 0 0.33026969203736362 -0.43412119360856022 0 0.32638244242941378 -0.4399681416008453 0 0.32419746098974561 -0.43505744118414269 0 0.33026969203736362 -0.43412119360856022 0 0.32171997942527158 -0.43692123763373131 0 0.32419746098974561 -0.43505744118414269 0 0.31841773006693358 -0.42921919189343388 0 0.32638244242941378 -0.4399681416008453 0 0.32171997942527158 -0.43692123763373131 0 0.32419746098974561 -0.43505744118414269 0 0.32171997942527158 -0.43692123763373131 0 0.31517448724003849 -0.43375720001638091 0 0.31841773006693358 -0.42921919189343388 0 0.31517448724003849 -0.43375720001638091 0 0.31841773006693358 -0.42921919189343388 0 0.3114414805474266 -0.42943150389202361 0 0.31841773006693358 -0.42921919189343388 0 0.30903352907966558 -0.42227811729063169 0 0.3114414805474266 -0.42943150389202361 0 0.31841773006693358 -0.42921919189343388 0 0.31558375959101298 -0.41426665223061299 0 0.30903352907966558 -0.42227811729063169 0 0.31558375959101298 -0.41426665223061299 0 0.33026969203736362 -0.43412119360856022 0 0.32914985554398868 -0.40478877668220908 0 0.31558375959101298 -0.41426665223061299 0 0.32914985554398868 -0.40478877668220908 0 0.31599824525108122 -0.40099515050614659 0 0.33026969203736362 -0.43412119360856022 0 0.32914985554398868 -0.40478877668220908 0 0.3331333239794198 -0.42156083419883089 0 0.33026969203736362 -0.43412119360856022 0 0.32914985554398868 -0.40478877668220908 0 0.3331333239794198 -0.42156083419883089 0 0.33937088912046559 -0.41352578223997732 0 0.32914985554398868 -0.40478877668220908 0 0.3331333239794198 -0.42156083419883089 0 0.33937088912046559 -0.41352578223997732 0 0.33900070396590332 -0.42276906506663892 0 0.33937088912046559 -0.41352578223997732 0 0.34354056864096022 -0.419510768795677 0 0.33900070396590332 -0.42276906506663892 0 0.33937088912046559 -0.41352578223997732 0 0.34354056864096022 -0.419510768795677 0 0.34751937546815548 -0.41589886099170159 0 0.34108934459570389 -0.42673760111015102 0 0.33900070396590332 -0.42276906506663892 0 0.34441365928632939 -0.42402861249269042 0 0.34354056864096022 -0.419510768795677 0 0.33900070396590332 -0.42276906506663892 0 0.34441365928632939 -0.42402861249269042 0 0.34108934459570389 -0.42673760111015102 0 0.34528750025718452 -0.42973939297119479 0 0.34441365928632939 -0.42402861249269042 0 0.34108934459570389 -0.42673760111015102 0 0.33969344848774757 -0.43039499889742971 0 0.34528750025718452 -0.42973939297119479 0 0.34108934459570389 -0.42673760111015102 0 0.33743332372030099 -0.42737418810688349 0 0.33969344848774757 -0.43039499889742971 0 0.33743332372030099 -0.42737418810688349 0 0.33593221487637381 -0.43067199984599169 0 0.33969344848774757 -0.43039499889742971 0 0.33743332372030099 -0.42737418810688349 0 0.33516322495175888 -0.42895794010741778 0 0.33593221487637381 -0.43067199984599169 0 0.33743332372030099 -0.42737418810688349 0 0.33900070396590332 -0.42276906506663892 0 0.33402381841814272 -0.42664566852226232 0 0.34108934459570389 -0.42673760111015102 0 0.33743332372030099 -0.42737418810688349 0 0.33900070396590332 -0.42276906506663892 0 0.3331333239794198 -0.42156083419883089 0 0.33402381841814272 -0.42664566852226232 0 0.33026969203736362 -0.43412119360856022 0 0.3331333239794198 -0.42156083419883089 0 0.33900070396590332 -0.42276906506663892 0 0.33402381841814272 -0.42664566852226232 0 0.33743332372030099 -0.42737418810688349 0 0.33402381841814272 -0.42664566852226232 0 0.33516322495175888 -0.42895794010741778 0 0.33402381841814272 -0.42664566852226232 0 0.33516322495175888 -0.42895794010741778 0 0.33326354279221793 -0.43113990395453389 0 0.33026969203736362 -0.43412119360856022 0 0.33212403159686321 -0.43350906747826962 0 0.33326354279221793 -0.43113990395453389 0 0.33212403159686321 -0.43350906747826962 0 0.33326354279221793 -0.43113990395453389 0 0.33416964972735558 -0.43377294300852748 0 0.33402381841814272 -0.42664566852226232 0 0.33026969203736362 -0.43412119360856022 0 0.33326354279221793 -0.43113990395453389 0 0.33326354279221793 -0.43113990395453389 0 0.33593221487637381 -0.43067199984599169 0 0.33498469775821282 -0.43216560586570663 0 0.33516322495175888 -0.42895794010741778 0 0.33326354279221793 -0.43113990395453389 0 0.33593221487637381 -0.43067199984599169 0 0.33498469775821282 -0.43216560586570663 0 0.33416964972735558 -0.43377294300852748 0 0.33697864057274612 -0.43326767570277319 0 0.33326354279221793 -0.43113990395453389 0 0.33498469775821282 -0.43216560586570663 0 0.33416964972735558 -0.43377294300852748 0 0.33532331203467208 -0.44075566860433218 0 0.33026969203736362 -0.43412119360856022 0 0.33390744594772348 -0.43628465200554911 0 0.33416964972735558 -0.43377294300852748 0 0.33390744594772348 -0.43628465200554911 0 0.33721379245253841 -0.43644079356035959 0 0.33212403159686321 -0.43350906747826962 0 0.33416964972735558 -0.43377294300852748 0 0.33390744594772348 -0.43628465200554911 0 0.33026969203736362 -0.43412119360856022 0 0.33212403159686321 -0.43350906747826962 0 0.33390744594772348 -0.43628465200554911 0 0.33721379245253841 -0.43644079356035959 0 0.33697864057274612 -0.43326767570277319 0 0.34138013201504308 -0.43419396262234572 0 0.33416964972735558 -0.43377294300852748 0 0.33721379245253841 -0.43644079356035959 0 0.33697864057274612 -0.43326767570277319 0 0.33697864057274612 -0.43326767570277319 0 0.33969344848774757 -0.43039499889742971 0 0.34138013201504308 -0.43419396262234572 0 0.33593221487637381 -0.43067199984599169 0 0.33697864057274612 -0.43326767570277319 0 0.33969344848774757 -0.43039499889742971 0 0.33593221487637381 -0.43067199984599169 0 0.33498469775821282 -0.43216560586570663 0 0.33697864057274612 -0.43326767570277319 0 0.33969344848774757 -0.43039499889742971 0 0.34138013201504308 -0.43419396262234572 0 0.34528750025718452 -0.42973939297119479 0 0.34208990806822448 -0.44023402336456519 0 0.33721379245253841 -0.43644079356035959 0 0.34138013201504308 -0.43419396262234572 0 0.34208990806822448 -0.44023402336456519 0 0.34138013201504308 -0.43419396262234572 0 0.34794280178124698 -0.43543936328436061 0 0.34138013201504308 -0.43419396262234572 0 0.34528750025718452 -0.42973939297119479 0 0.34794280178124698 -0.43543936328436061 0 0.34528750025718452 -0.42973939297119479 0 0.34794280178124698 -0.43543936328436061 0 0.35295302802820239 -0.43019373259871402 0 0.34441365928632939 -0.42402861249269042 0 0.34876285514367061 -0.42587036018443292 0 0.3482799578089103 -0.42140526673729228 0 0.34528750025718452 -0.42973939297119479 0 0.34441365928632939 -0.42402861249269042 0 0.34876285514367061 -0.42587036018443292 0 0.34528750025718452 -0.42973939297119479 0 0.34876285514367061 -0.42587036018443292 0 0.35295302802820239 -0.43019373259871402 0 0.34876285514367061 -0.42587036018443292 0 0.35325608407356779 -0.42398411852721629 0 0.3482799578089103 -0.42140526673729228 0 0.35295302802820239 -0.43019373259871402 0 0.36151717898042751 -0.43341303119252911 0 0.35950711526229928 -0.42521989658488413 0 0.35325608407356779 -0.42398411852721629 0 0.35295302802820239 -0.43019373259871402 0 0.35950711526229928 -0.42521989658488413 0 0.34876285514367061 -0.42587036018443292 0 0.35325608407356779 -0.42398411852721629 0 0.35295302802820239 -0.43019373259871402 0 0.35325608407356779 -0.42398411852721629 0 0.35950711526229928 -0.42521989658488413 0 0.35868667014487282 -0.41757423556722623 0 0.3560965150094289 -0.43903684118910269 0 0.34794280178124698 -0.43543936328436061 0 0.35295302802820239 -0.43019373259871402 0 0.3560965150094289 -0.43903684118910269 0 0.35295302802820239 -0.43019373259871402 0 0.36151717898042751 -0.43341303119252911 0 0.36151717898042751 -0.43341303119252911 0 0.36537523179822962 -0.42678263416163709 0 0.37108874227166028 -0.43240490062185122 0 0.36151717898042751 -0.43341303119252911 0 0.35950711526229928 -0.42521989658488413 0 0.36537523179822962 -0.42678263416163709 0 0.36537523179822962 -0.42678263416163709 0 0.37015769951945249 -0.42380710046162728 0 0.36559100668624239 -0.41975145553415888 0 0.35950711526229928 -0.42521989658488413 0 0.36537523179822962 -0.42678263416163709 0 0.36559100668624239 -0.41975145553415888 0 0.36537523179822962 -0.42678263416163709 0 0.37015769951945249 -0.42380710046162728 0 0.37108874227166028 -0.43240490062185122 0 0.37645311040362611 -0.42314857690183899 0 0.37015769951945249 -0.42380710046162728 0 0.37108874227166028 -0.43240490062185122 0 0.37635425318110782 -0.41080287490199208 0 0.37228040643750432 -0.4169479350886498 0 0.36545985602269082 -0.40985139636597828 0 0.37228040643750432 -0.4169479350886498 0 0.36559100668624239 -0.41975145553415888 0 0.36545985602269082 -0.40985139636597828 0 0.37645311040362611 -0.42314857690183899 0 0.37015769951945249 -0.42380710046162728 0 0.37228040643750432 -0.4169479350886498 0 0.37015769951945249 -0.42380710046162728 0 0.37228040643750432 -0.4169479350886498 0 0.36559100668624239 -0.41975145553415888 0 0.36559100668624239 -0.41975145553415888 0 0.36545985602269082 -0.40985139636597828 0 0.35868667014487282 -0.41757423556722623 0 0.35950711526229928 -0.42521989658488413 0 0.36559100668624239 -0.41975145553415888 0 0.35868667014487282 -0.41757423556722623 0 0.36545985602269082 -0.40985139636597828 0 0.35868667014487282 -0.41757423556722623 0 0.35693579773266743 -0.40559149734259442 0 0.35283302162863922 -0.41344488635000348 0 0.35868667014487282 -0.41757423556722623 0 0.35693579773266743 -0.40559149734259442 0 0.35283302162863922 -0.41344488635000348 0 0.34883606055672173 -0.40902095841646002 0 0.35693579773266743 -0.40559149734259442 0 0.35283302162863922 -0.41344488635000348 0 0.35868667014487282 -0.41757423556722623 0 0.35225575505323642 -0.41848550341079938 0 0.35325608407356779 -0.42398411852721629 0 0.35868667014487282 -0.41757423556722623 0 0.35225575505323642 -0.41848550341079938 0 0.35325608407356779 -0.42398411852721629 0 0.35225575505323642 -0.41848550341079938 0 0.3482799578089103 -0.42140526673729228 0 0.35225575505323642 -0.41848550341079938 0 0.3482799578089103 -0.42140526673729228 0 0.34751937546815548 -0.41589886099170159 0 0.35283302162863922 -0.41344488635000348 0 0.35225575505323642 -0.41848550341079938 0 0.34751937546815548 -0.41589886099170159 0 0.34354056864096022 -0.419510768795677 0 0.3482799578089103 -0.42140526673729228 0 0.34751937546815548 -0.41589886099170159 0 0.34354056864096022 -0.419510768795677 0 0.34441365928632939 -0.42402861249269042 0 0.3482799578089103 -0.42140526673729228 0 0.33937088912046559 -0.41352578223997732 0 0.34883606055672173 -0.40902095841646002 0 0.34540113696701802 -0.39910195085232031 0 0.33937088912046559 -0.41352578223997732 0 0.34751937546815548 -0.41589886099170159 0 0.34883606055672173 -0.40902095841646002 0 0.35283302162863922 -0.41344488635000348 0 0.34751937546815548 -0.41589886099170159 0 0.34883606055672173 -0.40902095841646002 0 0.34540113696701802 -0.39910195085232031 0 0.36316007360264041 -0.38883775200739179 0 0.34201688026891669 -0.3857878187663849 0 0.34540113696701802 -0.39910195085232031 0 0.35693579773266743 -0.40559149734259442 0 0.36316007360264041 -0.38883775200739179 0 0.34883606055672173 -0.40902095841646002 0 0.34540113696701802 -0.39910195085232031 0 0.35693579773266743 -0.40559149734259442 0 0.37635425318110782 -0.41080287490199208 0 0.36545985602269082 -0.40985139636597828 0 0.36316007360264041 -0.38883775200739179 0 0.37635425318110782 -0.41080287490199208 0 0.38128501912533791 -0.41019465659633542 0 0.36316007360264041 -0.38883775200739179 0 0.38128501912533791 -0.41019465659633542 0 0.36316007360264041 -0.38883775200739179 0 0.36545985602269082 -0.40985139636597828 0 0.35693579773266743 -0.40559149734259442 0 0.36316007360264041 -0.38883775200739179 0 0.38383717015070351 -0.37971395254385532 0 0.36316007360264041 -0.38883775200739179 0 0.37488680163608168 -0.36713356492334082 0 0.36316007360264041 -0.38883775200739179 0 0.34201688026891669 -0.3857878187663849 0 0.34503512807994258 -0.36748084741844872 0 0.36316007360264041 -0.38883775200739179 0 0.34503512807994258 -0.36748084741844872 0 0.34201688026891669 -0.3857878187663849 0 0.32803001905061419 -0.37545635975585828 0 0.34503512807994258 -0.36748084741844872 0 0.32914985554398868 -0.40478877668220908 0 0.32803001905061419 -0.37545635975585828 0 0.34201688026891669 -0.3857878187663849 0 0.32914985554398868 -0.40478877668220908 0 0.32803001905061419 -0.37545635975585828 0 0.33937088912046559 -0.41352578223997732 0 0.34540113696701802 -0.39910195085232031 0 0.32914985554398868 -0.40478877668220908 0 0.34540113696701802 -0.39910195085232031 0 0.34201688026891669 -0.3857878187663849 0 0.32914985554398868 -0.40478877668220908 0 0.32914985554398868 -0.40478877668220908 0 0.31599824525108122 -0.40099515050614659 0 0.31836153872466122 -0.39051306225909821 0 0.32914985554398868 -0.40478877668220908 0 0.31836153872466122 -0.39051306225909821 0 0.32803001905061419 -0.37545635975585828 0 0.31836153872466122 -0.39051306225909821 0 0.32803001905061419 -0.37545635975585828 0 0.30809438424973817 -0.38558603378173362 0 0.32803001905061419 -0.37545635975585828 0 0.30809438424973817 -0.38558603378173362 0 0.30551081985283268 -0.3744948090686685 0 0.31836153872466122 -0.39051306225909821 0 0.30809438424973817 -0.38558603378173362 0 0.30089782714466201 -0.39441211085266631 0 0.30809438424973817 -0.38558603378173362 0 0.30089782714466201 -0.39441211085266631 0 0.28621189469831099 -0.37455756947471941 0 0.30809438424973817 -0.38558603378173362 0 0.30551081985283268 -0.3744948090686685 0 0.28621189469831099 -0.37455756947471941 0 0.31558375959101298 -0.41426665223061299 0 0.31599824525108122 -0.40099515050614659 0 0.30089782714466201 -0.39441211085266631 0 0.31558375959101298 -0.41426665223061299 0 0.30089782714466201 -0.39441211085266631 0 0.31599824525108122 -0.40099515050614659 0 0.31836153872466122 -0.39051306225909821 0 0.30089782714466201 -0.39441211085266631 0 0.30089782714466201 -0.39441211085266631 0 0.29254895944955639 -0.40404921415205658 0 0.30219096389795658 -0.41126617990700087 0 0.30089782714466201 -0.39441211085266631 0 0.29254895944955639 -0.40404921415205658 0 0.28615161821982937 -0.38351013453576299 0 0.29254895944955639 -0.40404921415205658 0 0.28422081102790309 -0.39581034096517731 0 0.28615161821982937 -0.38351013453576299 0 0.29254895944955639 -0.40404921415205658 0 0.28615161821982937 -0.38351013453576299 0 0.29254895944955639 -0.40404921415205658 0 0.28659722587340952 -0.4029761222663546 0 0.28422081102790309 -0.39581034096517731 0 0.28659722587340952 -0.4029761222663546 0 0.28422081102790309 -0.39581034096517731 0 0.2788909313583039 -0.40115712989703489 0 0.28659722587340952 -0.4029761222663546 0 0.2788909313583039 -0.40115712989703489 0 0.28079649900150061 -0.40889919055378648 0 0.30089782714466201 -0.39441211085266631 0 0.28621189469831099 -0.37455756947471941 0 0.28615161821982937 -0.38351013453576299 0 0.27722940980115302 -0.38474775425997609 0 0.2811623443521909 -0.38938121636899581 0 0.28422081102790309 -0.39581034096517731 0 0.28615161821982937 -0.38351013453576299 0 0.2811623443521909 -0.38938121636899581 0 0.30089782714466201 -0.39441211085266631 0 0.28615161821982937 -0.38351013453576299 0 0.28621189469831099 -0.37455756947471941 0 0.28615161821982937 -0.38351013453576299 0 0.27800350514257421 -0.37770493228931212 0 0.28621189469831099 -0.37455756947471941 0 0.28615161821982937 -0.38351013453576299 0 0.27800350514257421 -0.37770493228931212 0 0.27722940980115302 -0.38474775425997609 0 0.27800350514257421 -0.37770493228931212 0 0.27722940980115302 -0.38474775425997609 0 0.27013441380304593 -0.37892580729428937 0 0.27722940980115302 -0.38474775425997609 0 0.2811623443521909 -0.38938121636899581 0 0.27704753835987811 -0.39345663571506662 0 0.27722940980115302 -0.38474775425997609 0 0.26933740632555092 -0.38876464484057888 0 0.27704753835987811 -0.39345663571506662 0 0.27722940980115302 -0.38474775425997609 0 0.26933740632555092 -0.38876464484057888 0 0.27013441380304593 -0.37892580729428937 0 0.26933740632555092 -0.38876464484057888 0 0.27013441380304593 -0.37892580729428937 0 0.26150843915567101 -0.38341440870993121 0 0.27800350514257421 -0.37770493228931212 0 0.27013441380304593 -0.37892580729428937 0 0.27134036376906839 -0.36877535851481652 0 0.26150843915567101 -0.38341440870993121 0 0.25247051514062402 -0.38352618598174032 0 0.25586688092642701 -0.36754687605740738 0 0.27013441380304593 -0.37892580729428937 0 0.26150843915567101 -0.38341440870993121 0 0.25586688092642701 -0.36754687605740738 0 0.26933740632555092 -0.38876464484057888 0 0.26150843915567101 -0.38341440870993121 0 0.26030334895769042 -0.39325088284927312 0 0.26150843915567101 -0.38341440870993121 0 0.25247051514062402 -0.38352618598174032 0 0.26030334895769042 -0.39325088284927312 0 0.25247051514062402 -0.38352618598174032 0 0.25086081389379089 -0.39982980891506231 0 0.26030334895769042 -0.39325088284927312 0 0.25086081389379089 -0.39982980891506231 0 0.26030334895769042 -0.39325088284927312 0 0.26252351961373599 -0.4045828996473948 0 0.26030334895769042 -0.39325088284927312 0 0.26252351961373599 -0.4045828996473948 0 0.27011463912253653 -0.39803382830744261 0 0.26252351961373599 -0.4045828996473948 0 0.27011463912253653 -0.39803382830744261 0 0.27258509012005971 -0.40699077689530749 0 0.26933740632555092 -0.38876464484057888 0 0.26030334895769042 -0.39325088284927312 0 0.27011463912253653 -0.39803382830744261 0 0.26933740632555092 -0.38876464484057888 0 0.27011463912253653 -0.39803382830744261 0 0.27704753835987811 -0.39345663571506662 0 0.27011463912253653 -0.39803382830744261 0 0.27704753835987811 -0.39345663571506662 0 0.2788909313583039 -0.40115712989703489 0 0.28422081102790309 -0.39581034096517731 0 0.27704753835987811 -0.39345663571506662 0 0.2788909313583039 -0.40115712989703489 0 0.28422081102790309 -0.39581034096517731 0 0.2811623443521909 -0.38938121636899581 0 0.27704753835987811 -0.39345663571506662 0 0.27011463912253653 -0.39803382830744261 0 0.2788909313583039 -0.40115712989703489 0 0.27258509012005971 -0.40699077689530749 0 0.2788909313583039 -0.40115712989703489 0 0.28079649900150061 -0.40889919055378648 0 0.27258509012005971 -0.40699077689530749 0 0.28079649900150061 -0.40889919055378648 0 0.27726113358283161 -0.41519132735218478 0 0.27258509012005971 -0.40699077689530749 0 0.28079649900150061 -0.40889919055378648 0 0.27726113358283161 -0.41519132735218478 0 0.28506475805188891 -0.41704641222572669 0 0.27726113358283161 -0.41519132735218478 0 0.27273102599057109 -0.42161220085361722 0 0.28066446831866548 -0.42232599020513489 0 0.27726113358283161 -0.41519132735218478 0 0.28066446831866548 -0.42232599020513489 0 0.28506475805188891 -0.41704641222572669 0 0.27726113358283161 -0.41519132735218478 0 0.27273102599057109 -0.42161220085361722 0 0.26651896188976337 -0.41405331445060573 0 0.27273102599057109 -0.42161220085361722 0 0.26651896188976337 -0.41405331445060573 0 0.26305458834566708 -0.42690358077333268 0 0.26252351961373599 -0.4045828996473948 0 0.26651896188976337 -0.41405331445060573 0 0.27258509012005971 -0.40699077689530749 0 0.27726113358283161 -0.41519132735218478 0 0.26651896188976337 -0.41405331445060573 0 0.27258509012005971 -0.40699077689530749 0 0.26252351961373599 -0.4045828996473948 0 0.26651896188976337 -0.41405331445060573 0 0.25495278799212262 -0.41563391091884339 0 0.25086081389379089 -0.39982980891506231 0 0.26252351961373599 -0.4045828996473948 0 0.25495278799212262 -0.41563391091884339 0 0.26651896188976337 -0.41405331445060573 0 0.25495278799212262 -0.41563391091884339 0 0.26305458834566708 -0.42690358077333268 0 0.26305458834566708 -0.42690358077333268 0 0.26884416430053237 -0.44264465522237278 0 0.24893837452042869 -0.43184688769129798 0 0.25495278799212262 -0.41563391091884339 0 0.26305458834566708 -0.42690358077333268 0 0.24893837452042869 -0.43184688769129798 0 0.26884416430053237 -0.44264465522237278 0 0.24893837452042869 -0.43184688769129798 0 0.26305458834566708 -0.42690358077333268 0 0.27467321261211702 -0.43047297788623717 0 0.26884416430053237 -0.44264465522237278 0 0.27273102599057109 -0.42161220085361722 0 0.26305458834566708 -0.42690358077333268 0 0.27467321261211702 -0.43047297788623717 0 0.28066446831866548 -0.42232599020513489 0 0.27467321261211702 -0.43047297788623717 0 0.28386665572936087 -0.43012178657130817 0 0.27273102599057109 -0.42161220085361722 0 0.28066446831866548 -0.42232599020513489 0 0.27467321261211702 -0.43047297788623717 0 0.27467321261211702 -0.43047297788623717 0 0.28386665572936087 -0.43012178657130817 0 0.2810930172783318 -0.43880156512709001 0 0.27467321261211702 -0.43047297788623717 0 0.2810930172783318 -0.43880156512709001 0 0.26884416430053237 -0.44264465522237278 0 0.28386665572936087 -0.43012178657130817 0 0.29033215578802279 -0.43678080492771609 0 0.28918279775033823 -0.42893339875420688 0 0.28386665572936087 -0.43012178657130817 0 0.29033215578802279 -0.43678080492771609 0 0.2810930172783318 -0.43880156512709001 0 0.29033215578802279 -0.43678080492771609 0 0.29539377010030371 -0.42434071239685839 0 0.30419031432719712 -0.44570530252736268 0 0.29033215578802279 -0.43678080492771609 0 0.29539377010030371 -0.42434071239685839 0 0.28918279775033823 -0.42893339875420688 0 0.29539377010030371 -0.42434071239685839 0 0.28713860938366509 -0.42449029112094488 0 0.28506475805188891 -0.41704641222572669 0 0.29539377010030371 -0.42434071239685839 0 0.28918279775033823 -0.42893339875420688 0 0.28713860938366509 -0.42449029112094488 0 0.28386665572936087 -0.43012178657130817 0 0.28918279775033823 -0.42893339875420688 0 0.28713860938366509 -0.42449029112094488 0 0.28066446831866548 -0.42232599020513489 0 0.28386665572936087 -0.43012178657130817 0 0.28713860938366509 -0.42449029112094488 0 0.28659722587340952 -0.4029761222663546 0 0.29539377010030371 -0.42434071239685839 0 0.28696306325677562 -0.41331560936068151 0 0.29254895944955639 -0.40404921415205658 0 0.29894630067928352 -0.42458829376835022 0 0.28659722587340952 -0.4029761222663546 0 0.29539377010030371 -0.42434071239685839 0 0.29254895944955639 -0.40404921415205658 0 0.28659722587340952 -0.4029761222663546 0 0.29539377010030371 -0.42434071239685839 0 0.28066446831866548 -0.42232599020513489 0 0.28713860938366509 -0.42449029112094488 0 0.28506475805188891 -0.41704641222572669 0 0.29254895944955639 -0.40404921415205658 0 0.29539377010030371 -0.42434071239685839 0 0.29894630067928352 -0.42458829376835022 0 0.28659722587340952 -0.4029761222663546 0 0.28079649900150061 -0.40889919055378648 0 0.28696306325677562 -0.41331560936068151 0 0.28079649900150061 -0.40889919055378648 0 0.28506475805188891 -0.41704641222572669 0 0.28696306325677562 -0.41331560936068151 0 0.29539377010030371 -0.42434071239685839 0 0.28506475805188891 -0.41704641222572669 0 0.28696306325677562 -0.41331560936068151 0 0.31558375959101298 -0.41426665223061299 0 0.30089782714466201 -0.39441211085266631 0 0.30219096389795658 -0.41126617990700087 0 0.29254895944955639 -0.40404921415205658 0 0.30219096389795658 -0.41126617990700087 0 0.29894630067928352 -0.42458829376835022 0 0.3044179453867184 -0.41909425432175379 0 0.30219096389795658 -0.41126617990700087 0 0.29894630067928352 -0.42458829376835022 0 0.31558375959101298 -0.41426665223061299 0 0.3044179453867184 -0.41909425432175379 0 0.30219096389795658 -0.41126617990700087 0 0.31558375959101298 -0.41426665223061299 0 0.3044179453867184 -0.41909425432175379 0 0.30903352907966558 -0.42227811729063169 0 0.3044179453867184 -0.41909425432175379 0 0.30903352907966558 -0.42227811729063169 0 0.30446700947932281 -0.42361333843189991 0 0.29894630067928352 -0.42458829376835022 0 0.30419031432719712 -0.44570530252736268 0 0.29539377010030371 -0.42434071239685839 0 0.30419031432719712 -0.44570530252736268 0 0.30547026277162342 -0.42849268834686371 0 0.30911139357887191 -0.43341032191280771 0 0.30419031432719712 -0.44570530252736268 0 0.30547026277162342 -0.42849268834686371 0 0.29894630067928352 -0.42458829376835022 0 0.30419031432719712 -0.44570530252736268 0 0.29539377010030371 -0.42434071239685839 0 0.29894630067928352 -0.42458829376835022 0 0.30419031432719712 -0.44570530252736268 0 0.30903352907966558 -0.42227811729063169 0 0.30547026277162342 -0.42849268834686371 0 0.30446700947932281 -0.42361333843189991 0 0.30903352907966558 -0.42227811729063169 0 0.30547026277162342 -0.42849268834686371 0 0.3114414805474266 -0.42943150389202361 0 0.31517448724003849 -0.43375720001638091 0 0.3114414805474266 -0.42943150389202361 0 0.30911139357887191 -0.43341032191280771 0 0.30547026277162342 -0.42849268834686371 0 0.3114414805474266 -0.42943150389202361 0 0.30911139357887191 -0.43341032191280771 0 0.30547026277162342 -0.42849268834686371 0 0.29894630067928352 -0.42458829376835022 0 0.30446700947932281 -0.42361333843189991 0 0.3044179453867184 -0.41909425432175379 0 0.29894630067928352 -0.42458829376835022 0 0.30446700947932281 -0.42361333843189991 0 0.30419031432719712 -0.44570530252736268 0 0.29877471476237821 -0.45888028965508387 0 0.28874995408063531 -0.45344242275344881 0 0.31517448724003849 -0.43375720001638091 0 0.30911139357887191 -0.43341032191280771 0 0.30419031432719712 -0.44570530252736268 0 0.3153557243238308 -0.44670449229277659 0 0.30419031432719712 -0.44570530252736268 0 0.31050454124171573 -0.44984891472225119 0 0.30419031432719712 -0.44570530252736268 0 0.31050454124171573 -0.44984891472225119 0 0.30872250553584119 -0.45671285334142431 0 0.30419031432719712 -0.44570530252736268 0 0.30872250553584119 -0.45671285334142431 0 0.31617326522604638 -0.45508947308698627 0 0.30872250553584119 -0.45671285334142431 0 0.31617326522604638 -0.45508947308698627 0 0.31050454124171573 -0.44984891472225119 0 0.30872250553584119 -0.45671285334142431 0 0.30966571719709168 -0.45900367687725929 0 0.31124763502198299 -0.46408252682212309 0 0.29877471476237821 -0.45888028965508387 0 0.31617326522604638 -0.45508947308698627 0 0.30872250553584119 -0.45671285334142431 0 0.30966571719709168 -0.45900367687725929 0 0.31273222465129952 -0.46645145104873259 0 0.29877471476237821 -0.45888028965508387 0 0.29468306639394121 -0.47629027881366992 0 0.30872250553584119 -0.45671285334142431 0 0.30966571719709168 -0.45900367687725929 0 0.29877471476237821 -0.45888028965508387 0 0.30872250553584119 -0.45671285334142431 0 0.30966571719709168 -0.45900367687725929 0 0.31273222465129952 -0.46645145104873259 0 0.31124763502198299 -0.46408252682212309 0 0.29877471476237821 -0.45888028965508387 0 0.31273222465129952 -0.46645145104873259 0 0.29877471476237821 -0.45888028965508387 0 0.30966571719709168 -0.45900367687725929 0 0.31124763502198299 -0.46408252682212309 0 0.31273222465129952 -0.46645145104873259 0 0.30966571719709168 -0.45900367687725929 0 0.31124763502198299 -0.46408252682212309 0 0.31273222465129952 -0.46645145104873259 0 0.30966571719709168 -0.45900367687725929 0 0.30419031432719712 -0.44570530252736268 0 0.30872250553584119 -0.45671285334142431 0 0.29877471476237821 -0.45888028965508387 0 0.30872250553584119 -0.45671285334142431 0 0.29877471476237821 -0.45888028965508387 0 0.29877471476237821 -0.45888028965508387 0 0.28030604203864012 -0.46290426571551307 0 0.29468306639394121 -0.47629027881366992 0 0.29877471476237821 -0.45888028965508387 0 0.28874995408063531 -0.45344242275344881 0 0.29877471476237821 -0.45888028965508387 0 0.28874995408063531 -0.45344242275344881 0 0.28030604203864012 -0.46290426571551307 0 0.29877471476237821 -0.45888028965508387 0 0.28030604203864012 -0.46290426571551307 0 0.29033215578802279 -0.43678080492771609 0 0.28874995408063531 -0.45344242275344881 0 0.2810930172783318 -0.43880156512709001 0 0.29033215578802279 -0.43678080492771609 0 0.30419031432719712 -0.44570530252736268 0 0.28874995408063531 -0.45344242275344881 0 0.30419031432719712 -0.44570530252736268 0 0.28874995408063531 -0.45344242275344881 0 0.28874995408063531 -0.45344242275344881 0 0.2810930172783318 -0.43880156512709001 0 0.26884416430053237 -0.44264465522237278 0 0.28874995408063531 -0.45344242275344881 0 0.26884416430053237 -0.44264465522237278 0 0.26884416430053237 -0.44264465522237278 0 0.25365615665351798 -0.44365701231061638 0 0.24893837452042869 -0.43184688769129798 0 0.25365615665351798 -0.44365701231061638 0 0.25733192381407688 -0.45583179146920721 0 0.2409449395678665 -0.44325517654743851 0 0.26884416430053237 -0.44264465522237278 0 0.25365615665351798 -0.44365701231061638 0 0.25733192381407688 -0.45583179146920721 0 0.25016576724891132 -0.46058260857959832 0 0.26010330569213658 -0.46779717608283528 0 0.2425727184692941 -0.4711256464825383 0 0.26884416430053237 -0.44264465522237278 0 0.25733192381407688 -0.45583179146920721 0 0.26183736931490198 -0.466928241775942 0 0.25016576724891132 -0.46058260857959832 0 0.25733192381407688 -0.45583179146920721 0 0.26010330569213658 -0.46779717608283528 0 0.25733192381407688 -0.45583179146920721 0 0.26010330569213658 -0.46779717608283528 0 0.26183736931490198 -0.466928241775942 0 0.25733192381407688 -0.45583179146920721 0 0.26010330569213658 -0.46779717608283528 0 0.26010330569213658 -0.46779717608283528 0 0.26183736931490198 -0.466928241775942 0 0.28874995408063531 -0.45344242275344881 0 0.26183736931490198 -0.466928241775942 0 0.28874995408063531 -0.45344242275344881 0 0.26884416430053237 -0.44264465522237278 0 0.26183736931490198 -0.466928241775942 0 0.26183736931490198 -0.466928241775942 0 0.28030604203864012 -0.46290426571551307 0 0.27309598009690828 -0.47420698043175158 0 0.28874995408063531 -0.45344242275344881 0 0.26183736931490198 -0.466928241775942 0 0.28030604203864012 -0.46290426571551307 0 0.26183736931490198 -0.466928241775942 0 0.28030604203864012 -0.46290426571551307 0 0.26010330569213658 -0.46779717608283528 0 0.27309598009690828 -0.47420698043175158 0 0.26383266022223339 -0.48389858804141711 0 0.27309598009690828 -0.47420698043175158 0 0.26383266022223339 -0.48389858804141711 0 0.27924547858293203 -0.48687916945736748 0 0.26010330569213658 -0.46779717608283528 0 0.26383266022223339 -0.48389858804141711 0 0.2428823192776938 -0.47642656297359959 0 0.26010330569213658 -0.46779717608283528 0 0.26383266022223339 -0.48389858804141711 0 0.26010330569213658 -0.46779717608283528 0 0.26183736931490198 -0.466928241775942 0 0.27309598009690828 -0.47420698043175158 0 0.26010330569213658 -0.46779717608283528 0 0.2425727184692941 -0.4711256464825383 0 0.26010330569213658 -0.46779717608283528 0 0.2428823192776938 -0.47642656297359959 0 0.26383266022223339 -0.48389858804141711 0 0.2675620147523301 -0.499999999999999 0 0.2442591293392051 -0.50000000000000278 0 0.26383266022223339 -0.48389858804141711 0 0.2442591293392051 -0.50000000000000278 0 0.2428823192776938 -0.47642656297359959 0 0.26383266022223339 -0.48389858804141711 0 0.2675620147523301 -0.499999999999999 0 0.26383266022223339 -0.48389858804141711 0 0.2675620147523301 -0.499999999999999 0 0.27924547858293203 -0.48687916945736748 0 0.27924547858293203 -0.48687916945736748 0 0.29468306639394121 -0.47629027881366992 0 0.29705367144924688 -0.5 0 0.2675620147523301 -0.499999999999999 0 0.27924547858293203 -0.48687916945736748 0 0.29705367144924688 -0.5 0 0.27309598009690828 -0.47420698043175158 0 0.27924547858293203 -0.48687916945736748 0 0.29468306639394121 -0.47629027881366992 0 0.28030604203864012 -0.46290426571551307 0 0.27309598009690828 -0.47420698043175158 0 0.29468306639394121 -0.47629027881366992 0 0.31963877639873101 -0.48322572552436821 0 0.31273222465129952 -0.46645145104873259 0 0.29468306639394121 -0.47629027881366992 0 0.31963877639873101 -0.48322572552436821 0 0.29468306639394121 -0.47629027881366992 0 0.29705367144924688 -0.5 0 0.33689365111759861 -0.28763766032882382 0 0.33111656952362828 -0.28015968989757251 0 0.35358426210206978 -0.28122162772740111 0 0.33689365111759861 -0.28763766032882382 0 0.33233780418112358 -0.29749377677319139 0 0.32445113432754102 -0.28744874450712121 0 0.33689365111759861 -0.28763766032882382 0 0.32445113432754102 -0.28744874450712121 0 0.33111656952362828 -0.28015968989757251 0 0.33689365111759861 -0.28763766032882382 0 0.33233780418112358 -0.29749377677319139 0 0.34630283457668709 -0.29343179412255221 0 0.34022697477816988 -0.30452149844175253 0 0.33233780418112358 -0.29749377677319139 0 0.33030625580165618 -0.31402647470396311 0 0.34022697477816988 -0.30452149844175253 0 0.33233780418112358 -0.29749377677319139 0 0.34630283457668709 -0.29343179412255221 0 0.34022697477816988 -0.30452149844175253 0 0.3347558891166133 -0.31554892867663598 0 0.34022697477816988 -0.30452149844175253 0 0.34537239246792312 -0.31352368332602332 0 0.3347558891166133 -0.31554892867663598 0 0.34022697477816988 -0.30452149844175253 0 0.33030625580165618 -0.31402647470396311 0 0.3347558891166133 -0.31554892867663598 0 0.33233780418112358 -0.29749377677319139 0 0.32038366666876061 -0.29802583723083043 0 0.33030625580165618 -0.31402647470396311 0 0.32038366666876061 -0.29802583723083043 0 0.33030625580165618 -0.31402647470396311 0 0.30872008123170808 -0.30664070718052 0 0.33030625580165618 -0.31402647470396311 0 0.30872008123170808 -0.30664070718052 0 0.33030625580165618 -0.31402647470396311 0 0.31741374240551429 -0.31646952446418519 0 0.30872008123170808 -0.30664070718052 0 0.32038366666876061 -0.29802583723083043 0 0.33030625580165618 -0.31402647470396311 0 0.32038366666876061 -0.29802583723083043 0 0.32445113432754102 -0.28744874450712121 0 0.31046107753586361 -0.28202519975769869 0 0.32038366666876061 -0.29802583723083043 0 0.31046107753586361 -0.28202519975769869 0 0.33233780418112358 -0.29749377677319139 0 0.32038366666876061 -0.29802583723083043 0 0.32445113432754102 -0.28744874450712121 0 0.32445113432754102 -0.28744874450712121 0 0.31866117959459478 -0.27838602649460881 0 0.33111656952362828 -0.28015968989757251 0 0.32445113432754102 -0.28744874450712121 0 0.31866117959459478 -0.27838602649460881 0 0.31046107753586361 -0.28202519975769869 0 0.31866117959459478 -0.27838602649460881 0 0.31046107753586361 -0.28202519975769869 0 0.31866117959459478 -0.27838602649460881 0 0.31046107753586361 -0.28202519975769869 0 0.30971561242460099 -0.27000948688666909 0 0.31866117959459478 -0.27838602649460881 0 0.31557966540668653 -0.26862999560321721 0 0.30971561242460099 -0.27000948688666909 0 0.31866117959459478 -0.27838602649460881 0 0.31557966540668653 -0.26862999560321721 0 0.32748028952054542 -0.26859491653766082 0 0.31866117959459478 -0.27838602649460881 0 0.32748028952054542 -0.26859491653766082 0 0.33111656952362828 -0.28015968989757251 0 0.32198599075348749 -0.24344946400233511 0 0.31952803891305842 -0.25444384210600129 0 0.33616067166654651 -0.25479429281005672 0 0.31557966540668653 -0.26862999560321721 0 0.32748028952054542 -0.26859491653766082 0 0.30137631693902089 -0.25596820534792042 0 0.32748028952054542 -0.26859491653766082 0 0.30137631693902089 -0.25596820534792042 0 0.32748028952054542 -0.26859491653766082 0 0.31952803891305842 -0.25444384210600129 0 0.33616067166654651 -0.25479429281005672 0 0.32748028952054542 -0.26859491653766082 0 0.31952803891305842 -0.25444384210600129 0 0.30137631693902089 -0.25596820534792042 0 0.32748028952054542 -0.26859491653766082 0 0.33111656952362828 -0.28015968989757251 0 0.35358426210206978 -0.28122162772740111 0 0.32748028952054542 -0.26859491653766082 0 0.33616067166654651 -0.25479429281005672 0 0.35358426210206978 -0.28122162772740111 0 0.32748028952054542 -0.26859491653766082 0 0.35358426210206978 -0.28122162772740111 0 0.33616067166654651 -0.25479429281005672 0 0.35358426210206978 -0.28122162772740111 0 0.35525525418870241 -0.2500088543183005 0 0.38602013946506702 -0.25049640422028968 0 0.35525525418870241 -0.2500088543183005 0 0.37462931490804291 -0.27075778155104729 0 0.35358426210206978 -0.28122162772740111 0 0.35525525418870241 -0.2500088543183005 0 0.37462931490804291 -0.27075778155104729 0 0.37968823468359431 -0.29384833891714152 0 0.35358426210206978 -0.28122162772740111 0 0.37968823468359431 -0.29384833891714152 0 0.35358426210206978 -0.28122162772740111 0 0.3593305792153087 -0.30348447990149241 0 0.37968823468359431 -0.29384833891714152 0 0.35358426210206978 -0.28122162772740111 0 0.37462931490804291 -0.27075778155104729 0 0.35358426210206978 -0.28122162772740111 0 0.34630283457668709 -0.29343179412255221 0 0.3593305792153087 -0.30348447990149241 0 0.33689365111759861 -0.28763766032882382 0 0.35358426210206978 -0.28122162772740111 0 0.34630283457668709 -0.29343179412255221 0 0.34022697477816988 -0.30452149844175253 0 0.34630283457668709 -0.29343179412255221 0 0.3593305792153087 -0.30348447990149241 0 0.34022697477816988 -0.30452149844175253 0 0.3593305792153087 -0.30348447990149241 0 0.35060489648048149 -0.31121776358576958 0 0.34022697477816988 -0.30452149844175253 0 0.35060489648048149 -0.31121776358576958 0 0.34537239246792312 -0.31352368332602332 0 0.37803363593076222 -0.31568495230070781 0 0.37968823468359431 -0.29384833891714152 0 0.3593305792153087 -0.30348447990149241 0 0.37803363593076222 -0.31568495230070781 0 0.3593305792153087 -0.30348447990149241 0 0.36013602273401829 -0.32423280946360161 0 0.37803363593076222 -0.31568495230070781 0 0.36013602273401829 -0.32423280946360161 0 0.37004954035729931 -0.34240091732144351 0 0.36013602273401829 -0.32423280946360161 0 0.37004954035729931 -0.34240091732144351 0 0.35601445562730732 -0.33715262145542252 0 0.37004954035729931 -0.34240091732144351 0 0.35601445562730732 -0.33715262145542252 0 0.35207859518841039 -0.34913538678363037 0 0.36013602273401829 -0.32423280946360161 0 0.35601445562730732 -0.33715262145542252 0 0.34263822005238193 -0.33391234185665603 0 0.35601445562730732 -0.33715262145542252 0 0.35207859518841039 -0.34913538678363037 0 0.34263822005238193 -0.33391234185665603 0 0.35207859518841039 -0.34913538678363037 0 0.340008900754872 -0.3471332146560584 0 0.34263822005238193 -0.33391234185665603 0 0.35207859518841039 -0.34913538678363037 0 0.34263822005238193 -0.33391234185665603 0 0.36013602273401829 -0.32423280946360161 0 0.34537239246792312 -0.31352368332602332 0 0.3347558891166133 -0.31554892867663598 0 0.36013602273401829 -0.32423280946360161 0 0.3347558891166133 -0.31554892867663598 0 0.34263822005238193 -0.33391234185665603 0 0.36013602273401829 -0.32423280946360161 0 0.3347558891166133 -0.31554892867663598 0 0.3593305792153087 -0.30348447990149241 0 0.35060489648048149 -0.31121776358576958 0 0.36013602273401829 -0.32423280946360161 0 0.35060489648048149 -0.31121776358576958 0 0.36013602273401829 -0.32423280946360161 0 0.34537239246792312 -0.31352368332602332 0 0.36316007360264041 -0.38883775200739179 0 0.37488680163608168 -0.36713356492334082 0 0.36048608054186521 -0.36283514437455411 0 0.37004954035729931 -0.34240091732144351 0 0.37488680163608168 -0.36713356492334082 0 0.36048608054186521 -0.36283514437455411 0 0.37004954035729931 -0.34240091732144351 0 0.36048608054186521 -0.36283514437455411 0 0.35207859518841039 -0.34913538678363037 0 0.35207859518841039 -0.34913538678363037 0 0.34503512807994258 -0.36748084741844872 0 0.340008900754872 -0.3471332146560584 0 0.36316007360264041 -0.38883775200739179 0 0.36048608054186521 -0.36283514437455411 0 0.34503512807994258 -0.36748084741844872 0 0.36048608054186521 -0.36283514437455411 0 0.35207859518841039 -0.34913538678363037 0 0.34503512807994258 -0.36748084741844872 0 0.32803001905061419 -0.37545635975585828 0 0.34503512807994258 -0.36748084741844872 0 0.32691018255724302 -0.34612394282950698 0 0.34503512807994258 -0.36748084741844872 0 0.340008900754872 -0.3471332146560584 0 0.32691018255724302 -0.34612394282950698 0 0.34503512807994258 -0.36748084741844872 0 0.32691018255724302 -0.34612394282950698 0 0.340008900754872 -0.3471332146560584 0 0.32691018255724302 -0.34612394282950698 0 0.3339860506177631 -0.33989670664367833 0 0.31389963652012531 -0.35758644822873259 0 0.32691018255724302 -0.34612394282950698 0 0.32228845318741722 -0.34067808738879651 0 0.31389963652012531 -0.35758644822873259 0 0.32228845318741722 -0.34067808738879651 0 0.3029951878846544 -0.34168335466378102 0 0.31389963652012531 -0.35758644822873259 0 0.32228845318741722 -0.34067808738879651 0 0.32803001905061419 -0.37545635975585828 0 0.31389963652012531 -0.35758644822873259 0 0.32691018255724302 -0.34612394282950698 0 0.32803001905061419 -0.37545635975585828 0 0.32691018255724302 -0.34612394282950698 0 0.32803001905061419 -0.37545635975585828 0 0.31389963652012531 -0.35758644822873259 0 0.30551081985283268 -0.3744948090686685 0 0.3347558891166133 -0.31554892867663598 0 0.33319784491635251 -0.31868929692968218 0 0.34263822005238193 -0.33391234185665603 0 0.33319784491635251 -0.31868929692968218 0 0.3263868991065535 -0.33241732723249318 0 0.32615178635150982 -0.32625890553749448 0 0.33319784491635251 -0.31868929692968218 0 0.32615178635150982 -0.32625890553749448 0 0.32518175533255961 -0.31988718041801539 0 0.33319784491635251 -0.31868929692968218 0 0.3263868991065535 -0.33241732723249318 0 0.33030625580165618 -0.31402647470396311 0 0.33319784491635251 -0.31868929692968218 0 0.32518175533255961 -0.31988718041801539 0 0.33030625580165618 -0.31402647470396311 0 0.33319784491635251 -0.31868929692968218 0 0.33030625580165618 -0.31402647470396311 0 0.3347558891166133 -0.31554892867663598 0 0.33319784491635251 -0.31868929692968218 0 0.33030625580165618 -0.31402647470396311 0 0.3347558891166133 -0.31554892867663598 0 0.3347558891166133 -0.31554892867663598 0 0.33319784491635251 -0.31868929692968218 0 0.33319784491635251 -0.31868929692968218 0 0.34263822005238193 -0.33391234185665603 0 0.34263822005238193 -0.33391234185665603 0 0.3339860506177631 -0.33989670664367833 0 0.3263868991065535 -0.33241732723249318 0 0.33319784491635251 -0.31868929692968218 0 0.34263822005238193 -0.33391234185665603 0 0.3263868991065535 -0.33241732723249318 0 0.340008900754872 -0.3471332146560584 0 0.34263822005238193 -0.33391234185665603 0 0.3339860506177631 -0.33989670664367833 0 0.32691018255724302 -0.34612394282950698 0 0.3339860506177631 -0.33989670664367833 0 0.3263868991065535 -0.33241732723249318 0 0.3263868991065535 -0.33241732723249318 0 0.32615178635150982 -0.32625890553749448 0 0.32039514374516281 -0.32892950666396098 0 0.32228845318741722 -0.34067808738879651 0 0.3047111799245879 -0.31996651352293792 0 0.3263868991065535 -0.33241732723249318 0 0.32039514374516281 -0.32892950666396098 0 0.32615178635150982 -0.32625890553749448 0 0.3263868991065535 -0.33241732723249318 0 0.32039514374516281 -0.32892950666396098 0 0.32228845318741722 -0.34067808738879651 0 0.32228845318741722 -0.34067808738879651 0 0.3047111799245879 -0.31996651352293792 0 0.3263868991065535 -0.33241732723249318 0 0.32228845318741722 -0.34067808738879651 0 0.32691018255724302 -0.34612394282950698 0 0.3263868991065535 -0.33241732723249318 0 0.32691018255724302 -0.34612394282950698 0 0.3263868991065535 -0.33241732723249318 0 0.32228845318741722 -0.34067808738879651 0 0.32691018255724302 -0.34612394282950698 0 0.32228845318741722 -0.34067808738879651 0 0.32039514374516281 -0.32892950666396098 0 0.31891738869602199 -0.32242330106198941 0 0.3047111799245879 -0.31996651352293792 0 0.32039514374516281 -0.32892950666396098 0 0.31891738869602199 -0.32242330106198941 0 0.32615178635150982 -0.32625890553749448 0 0.31891738869602199 -0.32242330106198941 0 0.32615178635150982 -0.32625890553749448 0 0.32518175533255961 -0.31988718041801539 0 0.33030625580165618 -0.31402647470396311 0 0.32518175533255961 -0.31988718041801539 0 0.31741374240551429 -0.31646952446418519 0 0.31891738869602199 -0.32242330106198941 0 0.32518175533255961 -0.31988718041801539 0 0.31741374240551429 -0.31646952446418519 0 0.31891738869602199 -0.32242330106198941 0 0.31741374240551429 -0.31646952446418519 0 0.3047111799245879 -0.31996651352293792 0 0.31741374240551429 -0.31646952446418519 0 0.3047111799245879 -0.31996651352293792 0 0.30872008123170808 -0.30664070718052 0 0.32228845318741722 -0.34067808738879651 0 0.3047111799245879 -0.31996651352293792 0 0.3029951878846544 -0.34168335466378102 0 0.3047111799245879 -0.31996651352293792 0 0.3029951878846544 -0.34168335466378102 0 0.28162294333378268 -0.33478179001491493 0 0.3047111799245879 -0.31996651352293792 0 0.28162294333378268 -0.33478179001491493 0 0.27905791414798731 -0.31595640104844008 0 0.29951901938215708 -0.36551069023391092 0 0.30551081985283268 -0.3744948090686685 0 0.28621189469831099 -0.37455756947471941 0 0.31389963652012531 -0.35758644822873259 0 0.29951901938215708 -0.36551069023391092 0 0.29245372645735918 -0.35540393416352323 0 0.31389963652012531 -0.35758644822873259 0 0.30551081985283268 -0.3744948090686685 0 0.31389963652012531 -0.35758644822873259 0 0.29951901938215708 -0.36551069023391092 0 0.30551081985283268 -0.3744948090686685 0 0.31389963652012531 -0.35758644822873259 0 0.3029951878846544 -0.34168335466378102 0 0.29245372645735918 -0.35540393416352323 0 0.3029951878846544 -0.34168335466378102 0 0.28162294333378268 -0.33478179001491493 0 0.29245372645735918 -0.35540393416352323 0 0.28162294333378268 -0.33478179001491493 0 0.29245372645735918 -0.35540393416352323 0 0.27152596225195991 -0.35470302809677268 0 0.29951901938215708 -0.36551069023391092 0 0.29245372645735918 -0.35540393416352323 0 0.28621189469831099 -0.37455756947471941 0 0.29245372645735918 -0.35540393416352323 0 0.28621189469831099 -0.37455756947471941 0 0.27152596225195991 -0.35470302809677268 0 0.28621189469831099 -0.37455756947471941 0 0.27152596225195991 -0.35470302809677268 0 0.28621189469831099 -0.37455756947471941 0 0.27134036376906839 -0.36877535851481652 0 0.27152596225195991 -0.35470302809677268 0 0.27134036376906839 -0.36877535851481652 0 0.27152596225195991 -0.35470302809677268 0 0.25586688092642701 -0.36754687605740738 0 0.27013441380304593 -0.37892580729428937 0 0.27134036376906839 -0.36877535851481652 0 0.25586688092642701 -0.36754687605740738 0 0.27800350514257421 -0.37770493228931212 0 0.28621189469831099 -0.37455756947471941 0 0.27134036376906839 -0.36877535851481652 0 0.27152596225195991 -0.35470302809677268 0 0.25684002980560888 -0.33484848671882589 0 0.24436844440619529 -0.35151014120133101 0 0.27152596225195991 -0.35470302809677268 0 0.25586688092642701 -0.36754687605740738 0 0.24436844440619529 -0.35151014120133101 0 0.27152596225195991 -0.35470302809677268 0 0.25684002980560888 -0.33484848671882589 0 0.28162294333378268 -0.33478179001491493 0 0.27905791414798731 -0.31595640104844008 0 0.26363800812109262 -0.31885276495870662 0 0.27905791414798731 -0.31595640104844008 0 0.26363800812109262 -0.31885276495870662 0 0.27299732049187941 -0.30660714024068941 0 0.28162294333378268 -0.33478179001491493 0 0.25684002980560888 -0.33484848671882589 0 0.26363800812109262 -0.31885276495870662 0 0.28162294333378268 -0.33478179001491493 0 0.27152596225195991 -0.35470302809677268 0 0.25684002980560888 -0.33484848671882589 0 0.25684002980560888 -0.33484848671882589 0 0.26363800812109262 -0.31885276495870662 0 0.24350493118392369 -0.31174007597001291 0 0.2609443039057322 -0.30400055047633978 0 0.24350493118392369 -0.31174007597001291 0 0.26363800812109262 -0.31885276495870662 0 0.2609443039057322 -0.30400055047633978 0 0.24350493118392369 -0.31174007597001291 0 0.25170848628356057 -0.28713403706334711 0 0.27838367662754038 -0.29626102498266632 0 0.2609443039057322 -0.30400055047633978 0 0.25170848628356057 -0.28713403706334711 0 0.24143293375944391 -0.29904221722822721 0 0.25170848628356057 -0.28713403706334711 0 0.27743646752242662 -0.28782829662543807 0 0.26485928246985602 -0.27685268054567419 0 0.2609443039057322 -0.30400055047633978 0 0.25170848628356057 -0.28713403706334711 0 0.27838367662754038 -0.29626102498266632 0 0.25170848628356057 -0.28713403706334711 0 0.27838367662754038 -0.29626102498266632 0 0.27743646752242662 -0.28782829662543807 0 0.27838367662754038 -0.29626102498266632 0 0.27743646752242662 -0.28782829662543807 0 0.28289422763480598 -0.29425926006438913 0 0.27838367662754038 -0.29626102498266632 0 0.28289422763480598 -0.29425926006438913 0 0.27743646752242662 -0.28782829662543807 0 0.28289422763480598 -0.29425926006438913 0 0.27743646752242662 -0.28782829662543807 0 0.28374542343303921 -0.28492817476465121 0 0.28258006339272379 -0.27770819330322472 0 0.27905791414798731 -0.31595640104844008 0 0.27299732049187941 -0.30660714024068941 0 0.28713390666175959 -0.29925493965707839 0 0.2609443039057322 -0.30400055047633978 0 0.27838367662754038 -0.29626102498266632 0 0.27299732049187941 -0.30660714024068941 0 0.2609443039057322 -0.30400055047633978 0 0.27838367662754038 -0.29626102498266632 0 0.26363800812109262 -0.31885276495870662 0 0.2609443039057322 -0.30400055047633978 0 0.27299732049187941 -0.30660714024068941 0 0.27838367662754038 -0.29626102498266632 0 0.27299732049187941 -0.30660714024068941 0 0.28713390666175959 -0.29925493965707839 0 0.3047111799245879 -0.31996651352293792 0 0.27905791414798731 -0.31595640104844008 0 0.28713390666175959 -0.29925493965707839 0 0.3047111799245879 -0.31996651352293792 0 0.28713390666175959 -0.29925493965707839 0 0.27838367662754038 -0.29626102498266632 0 0.28713390666175959 -0.29925493965707839 0 0.27838367662754038 -0.29626102498266632 0 0.28713390666175959 -0.29925493965707839 0 0.28289422763480598 -0.29425926006438913 0 0.28713390666175959 -0.29925493965707839 0 0.28289422763480598 -0.29425926006438913 0 0.28713390666175959 -0.29925493965707839 0 0.28289422763480598 -0.29425926006438913 0 0.30108053486618552 -0.2937310582573287 0 0.28289422763480598 -0.29425926006438913 0 0.30041404737001481 -0.27891916118851529 0 0.29207093518219929 -0.27991694906555081 0 0.28289422763480598 -0.29425926006438913 0 0.31046107753586361 -0.28202519975769869 0 0.27743646752242662 -0.28782829662543807 0 0.28289422763480598 -0.29425926006438913 0 0.28374542343303921 -0.28492817476465121 0 0.28289422763480598 -0.29425926006438913 0 0.28374542343303921 -0.28492817476465121 0 0.29207093518219929 -0.27991694906555081 0 0.28289422763480598 -0.29425926006438913 0 0.30108053486618552 -0.2937310582573287 0 0.31046107753586361 -0.28202519975769869 0 0.32038366666876061 -0.29802583723083043 0 0.30108053486618552 -0.2937310582573287 0 0.31046107753586361 -0.28202519975769869 0 0.28289422763480598 -0.29425926006438913 0 0.31046107753586361 -0.28202519975769869 0 0.30041404737001481 -0.27891916118851529 0 0.28713390666175959 -0.29925493965707839 0 0.30108053486618552 -0.2937310582573287 0 0.30872008123170808 -0.30664070718052 0 0.32038366666876061 -0.29802583723083043 0 0.30108053486618552 -0.2937310582573287 0 0.30872008123170808 -0.30664070718052 0 0.3047111799245879 -0.31996651352293792 0 0.28713390666175959 -0.29925493965707839 0 0.30872008123170808 -0.30664070718052 0 0.28713390666175959 -0.29925493965707839 0 0.30872008123170808 -0.30664070718052 0 0.31063692568569162 -0.24941233183203379 0 0.31952803891305842 -0.25444384210600129 0 0.30137631693902089 -0.25596820534792042 0 0.29932153317934862 -0.26406216526364462 0 0.30137631693902089 -0.25596820534792042 0 0.30971561242460099 -0.27000948688666909 0 0.29932153317934862 -0.26406216526364462 0 0.30137631693902089 -0.25596820534792042 0 0.29444706443518881 -0.26106927191952101 0 0.31063692568569162 -0.24941233183203379 0 0.30261454585862779 -0.24507070061696229 0 0.30137631693902089 -0.25596820534792042 0 0.31557966540668653 -0.26862999560321721 0 0.30137631693902089 -0.25596820534792042 0 0.30971561242460099 -0.27000948688666909 0 0.31046107753586361 -0.28202519975769869 0 0.29932153317934862 -0.26406216526364462 0 0.30041404737001481 -0.27891916118851529 0 0.31046107753586361 -0.28202519975769869 0 0.29932153317934862 -0.26406216526364462 0 0.31046107753586361 -0.28202519975769869 0 0.29932153317934862 -0.26406216526364462 0 0.30971561242460099 -0.27000948688666909 0 0.29932153317934862 -0.26406216526364462 0 0.30041404737001481 -0.27891916118851529 0 0.29571046844588361 -0.27268816509894678 0 0.29932153317934862 -0.26406216526364462 0 0.29571046844588361 -0.27268816509894678 0 0.28951424354803229 -0.26773867072461782 0 0.29571046844588361 -0.27268816509894678 0 0.28951424354803229 -0.26773867072461782 0 0.29207093518219929 -0.27991694906555081 0 0.30041404737001481 -0.27891916118851529 0 0.29571046844588361 -0.27268816509894678 0 0.29207093518219929 -0.27991694906555081 0 0.28374542343303921 -0.28492817476465121 0 0.29207093518219929 -0.27991694906555081 0 0.28258006339272379 -0.27770819330322472 0 0.28951424354803229 -0.26773867072461782 0 0.29207093518219929 -0.27991694906555081 0 0.28258006339272379 -0.27770819330322472 0 0.28951424354803229 -0.26773867072461782 0 0.28258006339272379 -0.27770819330322472 0 0.27752711331176783 -0.26598181149404448 0 0.28951424354803229 -0.26773867072461782 0 0.28757616407435338 -0.25650804634190111 0 0.27752711331176783 -0.26598181149404448 0 0.27527234435749648 -0.24334149415817999 0 0.30137631693902089 -0.25596820534792042 0 0.28757616407435338 -0.25650804634190111 0 0.29932153317934862 -0.26406216526364462 0 0.28951424354803229 -0.26773867072461782 0 0.29444706443518881 -0.26106927191952101 0 0.28951424354803229 -0.26773867072461782 0 0.29444706443518881 -0.26106927191952101 0 0.28757616407435338 -0.25650804634190111 0 0.30137631693902089 -0.25596820534792042 0 0.29444706443518881 -0.26106927191952101 0 0.28757616407435338 -0.25650804634190111 0 0.27527234435749648 -0.24334149415817999 0 0.28757616407435338 -0.25650804634190111 0 0.27459567189731071 -0.2517918539975712 0 0.2576596218415082 -0.24945354819836341 0 0.27459567189731071 -0.2517918539975712 0 0.2576596218415082 -0.24945354819836341 0 0.27752711331176783 -0.26598181149404448 0 0.2576596218415082 -0.24945354819836341 0 0.27459567189731071 -0.2517918539975712 0 0.27752711331176783 -0.26598181149404448 0 0.28757616407435338 -0.25650804634190111 0 0.27459567189731071 -0.2517918539975712 0 0.27752711331176783 -0.26598181149404448 0 0.27752711331176783 -0.26598181149404448 0 0.26485928246985602 -0.27685268054567419 0 0.25826916966781011 -0.26629200619787852 0 0.27743646752242662 -0.28782829662543807 0 0.28258006339272379 -0.27770819330322472 0 0.27493976413214299 -0.27789162547214752 0 0.28258006339272379 -0.27770819330322472 0 0.27493976413214299 -0.27789162547214752 0 0.27752711331176783 -0.26598181149404448 0 0.27493976413214299 -0.27789162547214752 0 0.27752711331176783 -0.26598181149404448 0 0.26485928246985602 -0.27685268054567419 0 0.27743646752242662 -0.28782829662543807 0 0.27493976413214299 -0.27789162547214752 0 0.26485928246985602 -0.27685268054567419 0 0.26485928246985602 -0.27685268054567419 0 0.25826916966781011 -0.26629200619787852 0 0.25140113028855959 -0.27359606074010812 0 0.25826916966781011 -0.26629200619787852 0 0.25140113028855959 -0.27359606074010812 0 0.2434584934868057 -0.26391342483940111 0 0.25170848628356057 -0.28713403706334711 0 0.26485928246985602 -0.27685268054567419 0 0.25140113028855959 -0.27359606074010812 0 0.2576596218415082 -0.24945354819836341 0 0.27752711331176783 -0.26598181149404448 0 0.25826916966781011 -0.26629200619787852 0 0.2576596218415082 -0.24945354819836341 0 0.25826916966781011 -0.26629200619787852 0 0.2434584934868057 -0.26391342483940111 0 0.2576596218415082 -0.24945354819836341 0 0.2434584934868057 -0.26391342483940111 0 0.23703469152610371 -0.25545178565859999 0 0.2576596218415082 -0.24945354819836341 0 0.23703469152610371 -0.25545178565859999 0 0.23064896167212509 -0.24572427347926451 0 0.2434584934868057 -0.26391342483940111 0 0.23703469152610371 -0.25545178565859999 0 0.2320127369377066 -0.26494221864688122 0 0.25170848628356057 -0.28713403706334711 0 0.23871021953476579 -0.27378815505423948 0 0.2250332959395803 -0.27800704914402979 0 0.25170848628356057 -0.28713403706334711 0 0.25140113028855959 -0.27359606074010812 0 0.23871021953476579 -0.27378815505423948 0 0.25140113028855959 -0.27359606074010812 0 0.2434584934868057 -0.26391342483940111 0 0.23871021953476579 -0.27378815505423948 0 0.2434584934868057 -0.26391342483940111 0 0.23871021953476579 -0.27378815505423948 0 0.2320127369377066 -0.26494221864688122 0 0.23871021953476579 -0.27378815505423948 0 0.2250332959395803 -0.27800704914402979 0 0.2320127369377066 -0.26494221864688122 0 0.2250332959395803 -0.27800704914402979 0 0.2213936436923723 -0.25322546312908928 0 0.23703469152610371 -0.25545178565859999 0 0.2213936436923723 -0.25322546312908928 0 0.23064896167212509 -0.24572427347926451 0 0.2250332959395803 -0.27800704914402979 0 0.2320127369377066 -0.26494221864688122 0 0.2213936436923723 -0.25322546312908928 0 0.23703469152610371 -0.25545178565859999 0 0.2320127369377066 -0.26494221864688122 0 0.2213936436923723 -0.25322546312908928 0 0.2213936436923723 -0.25322546312908928 0 0.2073309720590584 -0.26462288536087658 0 0.20931755118314879 -0.27262986492583191 0 0.2073309720590584 -0.26462288536087658 0 0.2057469254243183 -0.24228612966306071 0 0.2213936436923723 -0.25322546312908928 0 0.2073309720590584 -0.26462288536087658 0 0.2057469254243183 -0.24228612966306071 0 0.2213936436923723 -0.25322546312908928 0 0.2073309720590584 -0.26462288536087658 0 0.2073309720590584 -0.26462288536087658 0 0.20931755118314879 -0.27262986492583191 0 0.20861961654540459 -0.28279415408604808 0 0.2250332959395803 -0.27800704914402979 0 0.2213936436923723 -0.25322546312908928 0 0.20931755118314879 -0.27262986492583191 0 0.2250332959395803 -0.27800704914402979 0 0.20931755118314879 -0.27262986492583191 0 0.2168505502394685 -0.28362934214650393 0 0.2250332959395803 -0.27800704914402979 0 0.20931755118314879 -0.27262986492583191 0 0.2073309720590584 -0.26462288536087658 0 0.20861961654540459 -0.28279415408604808 0 0.20931755118314879 -0.27262986492583191 0 0.20861961654540459 -0.28279415408604808 0 0.2168505502394685 -0.28362934214650393 0 0.2073309720590584 -0.26462288536087658 0 0.18754745680492549 -0.28065689955532808 0 0.18590318071622211 -0.26001116497107729 0 0.2073309720590584 -0.26462288536087658 0 0.18754745680492549 -0.28065689955532808 0 0.2073309720590584 -0.26462288536087658 0 0.18754745680492549 -0.28065689955532808 0 0.20861961654540459 -0.28279415408604808 0 0.2073309720590584 -0.26462288536087658 0 0.19504556091500019 -0.25145433893977859 0 0.2057469254243183 -0.24228612966306071 0 0.2073309720590584 -0.26462288536087658 0 0.19504556091500019 -0.25145433893977859 0 0.18590318071622211 -0.26001116497107729 0 0.19615416125225391 -0.29686212603855311 0 0.19887287673815929 -0.31427262494618002 0 0.18349872324405861 -0.3093156867827761 0 0.19615416125225391 -0.29686212603855311 0 0.2100414215789364 -0.30596791700005999 0 0.19887287673815929 -0.31427262494618002 0 0.18754745680492549 -0.28065689955532808 0 0.19615416125225391 -0.29686212603855311 0 0.20861961654540459 -0.28279415408604808 0 0.19615416125225391 -0.29686212603855311 0 0.20861961654540459 -0.28279415408604808 0 0.21443594974225011 -0.29436399305930122 0 0.20861961654540459 -0.28279415408604808 0 0.2168505502394685 -0.28362934214650393 0 0.21443594974225011 -0.29436399305930122 0 0.21443594974225011 -0.29436399305930122 0 0.2100414215789364 -0.30596791700005999 0 0.22632997140751229 -0.30603497492657061 0 0.2100414215789364 -0.30596791700005999 0 0.22632997140751229 -0.30603497492657061 0 0.21580337069153219 -0.32206939018524178 0 0.19615416125225391 -0.29686212603855311 0 0.21443594974225011 -0.29436399305930122 0 0.2100414215789364 -0.30596791700005999 0 0.21443594974225011 -0.29436399305930122 0 0.22632997140751229 -0.30603497492657061 0 0.22684633778695881 -0.29035164951730841 0 0.22632997140751229 -0.30603497492657061 0 0.22684633778695881 -0.29035164951730841 0 0.24143293375944391 -0.29904221722822721 0 0.2250332959395803 -0.27800704914402979 0 0.2168505502394685 -0.28362934214650393 0 0.22684633778695881 -0.29035164951730841 0 0.2250332959395803 -0.27800704914402979 0 0.22684633778695881 -0.29035164951730841 0 0.2168505502394685 -0.28362934214650393 0 0.21443594974225011 -0.29436399305930122 0 0.22684633778695881 -0.29035164951730841 0 0.25170848628356057 -0.28713403706334711 0 0.22684633778695881 -0.29035164951730841 0 0.24143293375944391 -0.29904221722822721 0 0.25170848628356057 -0.28713403706334711 0 0.2250332959395803 -0.27800704914402979 0 0.22684633778695881 -0.29035164951730841 0 0.25170848628356057 -0.28713403706334711 0 0.2250332959395803 -0.27800704914402979 0 0.22632997140751229 -0.30603497492657061 0 0.24143293375944391 -0.29904221722822721 0 0.24350493118392369 -0.31174007597001291 0 0.2609443039057322 -0.30400055047633978 0 0.24143293375944391 -0.29904221722822721 0 0.24350493118392369 -0.31174007597001291 0 0.25684002980560888 -0.33484848671882589 0 0.24350493118392369 -0.31174007597001291 0 0.2320892669855299 -0.32185993861890733 0 0.25684002980560888 -0.33484848671882589 0 0.2310646503875956 -0.33757127356527122 0 0.2320892669855299 -0.32185993861890733 0 0.25684002980560888 -0.33484848671882589 0 0.2310646503875956 -0.33757127356527122 0 0.24436844440619529 -0.35151014120133101 0 0.2310646503875956 -0.33757127356527122 0 0.21580337069153219 -0.32206939018524178 0 0.2116746164449711 -0.34131435180429209 0 0.2310646503875956 -0.33757127356527122 0 0.2320892669855299 -0.32185993861890733 0 0.21580337069153219 -0.32206939018524178 0 0.22632997140751229 -0.30603497492657061 0 0.2320892669855299 -0.32185993861890733 0 0.21580337069153219 -0.32206939018524178 0 0.22632997140751229 -0.30603497492657061 0 0.24350493118392369 -0.31174007597001291 0 0.2320892669855299 -0.32185993861890733 0 0.25586688092642701 -0.36754687605740738 0 0.23668337535051359 -0.37028961759340218 0 0.24436844440619529 -0.35151014120133101 0 0.23668337535051359 -0.37028961759340218 0 0.24436844440619529 -0.35151014120133101 0 0.22554168061278501 -0.35490828114470141 0 0.2310646503875956 -0.33757127356527122 0 0.24436844440619529 -0.35151014120133101 0 0.22554168061278501 -0.35490828114470141 0 0.2310646503875956 -0.33757127356527122 0 0.22554168061278501 -0.35490828114470141 0 0.2116746164449711 -0.34131435180429209 0 0.23668337535051359 -0.37028961759340218 0 0.22554168061278501 -0.35490828114470141 0 0.2221033310603199 -0.36971198453144283 0 0.23668337535051359 -0.37028961759340218 0 0.2221033310603199 -0.36971198453144283 0 0.2241674355705339 -0.38385508133998347 0 0.22554168061278501 -0.35490828114470141 0 0.2221033310603199 -0.36971198453144283 0 0.207652272968328 -0.35952546139927699 0 0.207652272968328 -0.35952546139927699 0 0.1957441215455312 -0.37472839632236588 0 0.21187294487235231 -0.37883725794681827 0 0.2221033310603199 -0.36971198453144283 0 0.207652272968328 -0.35952546139927699 0 0.21187294487235231 -0.37883725794681827 0 0.22554168061278501 -0.35490828114470141 0 0.207652272968328 -0.35952546139927699 0 0.2116746164449711 -0.34131435180429209 0 0.207652272968328 -0.35952546139927699 0 0.1893348976659284 -0.34581277286369738 0 0.1924163480554448 -0.36132519520763051 0 0.207652272968328 -0.35952546139927699 0 0.1893348976659284 -0.34581277286369738 0 0.2116746164449711 -0.34131435180429209 0 0.1924163480554448 -0.36132519520763051 0 0.1957441215455312 -0.37472839632236588 0 0.1769341000419915 -0.36523415024518158 0 0.207652272968328 -0.35952546139927699 0 0.1924163480554448 -0.36132519520763051 0 0.1957441215455312 -0.37472839632236588 0 0.21580337069153219 -0.32206939018524178 0 0.20065082634365741 -0.32799893166756411 0 0.19887287673815929 -0.31427262494618002 0 0.2100414215789364 -0.30596791700005999 0 0.21580337069153219 -0.32206939018524178 0 0.19887287673815929 -0.31427262494618002 0 0.21580337069153219 -0.32206939018524178 0 0.2116746164449711 -0.34131435180429209 0 0.20065082634365741 -0.32799893166756411 0 0.1893348976659284 -0.34581277286369738 0 0.20065082634365741 -0.32799893166756411 0 0.18451664353132599 -0.32502443354651278 0 0.1893348976659284 -0.34581277286369738 0 0.2116746164449711 -0.34131435180429209 0 0.20065082634365741 -0.32799893166756411 0 0.19887287673815929 -0.31427262494618002 0 0.18451664353132599 -0.32502443354651278 0 0.18349872324405861 -0.3093156867827761 0 0.20065082634365741 -0.32799893166756411 0 0.19887287673815929 -0.31427262494618002 0 0.18451664353132599 -0.32502443354651278 0 0.18451664353132599 -0.32502443354651278 0 0.1701314502575057 -0.31524031759961457 0 0.18349872324405861 -0.3093156867827761 0 0.18451664353132599 -0.32502443354651278 0 0.1670677998654343 -0.3321129763048194 0 0.1701314502575057 -0.31524031759961457 0 0.1893348976659284 -0.34581277286369738 0 0.18451664353132599 -0.32502443354651278 0 0.1670677998654343 -0.3321129763048194 0 0.1893348976659284 -0.34581277286369738 0 0.1670677998654343 -0.3321129763048194 0 0.1633932095616572 -0.35207510318816471 0 0.1670677998654343 -0.3321129763048194 0 0.1633932095616572 -0.35207510318816471 0 0.1459347215642143 -0.33999887926565298 0 0.1670677998654343 -0.3321129763048194 0 0.1701314502575057 -0.31524031759961457 0 0.14798042629665589 -0.31272492794422613 0 0.1957441215455312 -0.37472839632236588 0 0.1769341000419915 -0.36523415024518158 0 0.1766416994497105 -0.38330762737337831 0 0.1893348976659284 -0.34581277286369738 0 0.1924163480554448 -0.36132519520763051 0 0.1769341000419915 -0.36523415024518158 0 0.1893348976659284 -0.34581277286369738 0 0.1769341000419915 -0.36523415024518158 0 0.1633932095616572 -0.35207510318816471 0 0.1769341000419915 -0.36523415024518158 0 0.1633932095616572 -0.35207510318816471 0 0.15855630085558869 -0.37410422149499212 0 0.1769341000419915 -0.36523415024518158 0 0.15855630085558869 -0.37410422149499212 0 0.1766416994497105 -0.38330762737337831 0 0.1633932095616572 -0.35207510318816471 0 0.15855630085558869 -0.37410422149499212 0 0.1362379080380321 -0.36332994668916352 0 0.15855630085558869 -0.37410422149499212 0 0.1362379080380321 -0.36332994668916352 0 0.14049570413409271 -0.38427710135478782 0 0.1633932095616572 -0.35207510318816471 0 0.1362379080380321 -0.36332994668916352 0 0.1459347215642143 -0.33999887926565298 0 0.12658994079620289 -0.34776094089500581 0 0.1362379080380321 -0.36332994668916352 0 0.1459347215642143 -0.33999887926565298 0 0.14798042629665589 -0.31272492794422613 0 0.1459347215642143 -0.33999887926565298 0 0.12819691104252109 -0.32875894213867513 0 0.1670677998654343 -0.3321129763048194 0 0.14798042629665589 -0.31272492794422613 0 0.1459347215642143 -0.33999887926565298 0 0.12658994079620289 -0.34776094089500581 0 0.1459347215642143 -0.33999887926565298 0 0.12819691104252109 -0.32875894213867513 0 0.14798042629665589 -0.31272492794422613 0 0.12819691104252109 -0.32875894213867513 0 0.14798042629665589 -0.31272492794422613 0 0.12819691104252109 -0.32875894213867513 0 0.12817816698517329 -0.31052561580320021 0 0.14798042629665589 -0.31272492794422613 0 0.13219515344532601 -0.29260295030503042 0 0.1516935557866976 -0.28028021131434577 0 0.14798042629665589 -0.31272492794422613 0 0.1516935557866976 -0.28028021131434577 0 0.16776394155079069 -0.29669091374977707 0 0.14798042629665589 -0.31272492794422613 0 0.12817816698517329 -0.31052561580320021 0 0.13219515344532601 -0.29260295030503042 0 0.13219515344532601 -0.29260295030503042 0 0.13083059843867501 -0.27080759548624311 0 0.1516935557866976 -0.28028021131434577 0 0.13083059843867501 -0.27080759548624311 0 0.10996764109065239 -0.2613349796581404 0 0.1369019475988357 -0.2498452913983702 0 0.13083059843867501 -0.27080759548624311 0 0.14721046807477259 -0.26437109839891021 0 0.1369019475988357 -0.2498452913983702 0 0.14721046807477259 -0.26437109839891021 0 0.16199683441912749 -0.25415610895316398 0 0.1369019475988357 -0.2498452913983702 0 0.13083059843867501 -0.27080759548624311 0 0.1516935557866976 -0.28028021131434577 0 0.13083059843867501 -0.27080759548624311 0 0.14721046807477259 -0.26437109839891021 0 0.1516935557866976 -0.28028021131434577 0 0.14721046807477259 -0.26437109839891021 0 0.1516935557866976 -0.28028021131434577 0 0.1682454518996199 -0.27326384366485751 0 0.14721046807477259 -0.26437109839891021 0 0.1682454518996199 -0.27326384366485751 0 0.16199683441912749 -0.25415610895316398 0 0.16199683441912749 -0.25415610895316398 0 0.18590318071622211 -0.26001116497107729 0 0.1812011654604006 -0.23889717576409741 0 0.1682454518996199 -0.27326384366485751 0 0.16199683441912749 -0.25415610895316398 0 0.18590318071622211 -0.26001116497107729 0 0.19504556091500019 -0.25145433893977859 0 0.18590318071622211 -0.26001116497107729 0 0.1812011654604006 -0.23889717576409741 0 0.18754745680492549 -0.28065689955532808 0 0.1682454518996199 -0.27326384366485751 0 0.18590318071622211 -0.26001116497107729 0 0.18754745680492549 -0.28065689955532808 0 0.1682454518996199 -0.27326384366485751 0 0.16776394155079069 -0.29669091374977707 0 0.18754745680492549 -0.28065689955532808 0 0.16776394155079069 -0.29669091374977707 0 0.18754745680492549 -0.28065689955532808 0 0.19615416125225391 -0.29686212603855311 0 0.16776394155079069 -0.29669091374977707 0 0.19615416125225391 -0.29686212603855311 0 0.18349872324405861 -0.3093156867827761 0 0.16776394155079069 -0.29669091374977707 0 0.1701314502575057 -0.31524031759961457 0 0.18349872324405861 -0.3093156867827761 0 0.16776394155079069 -0.29669091374977707 0 0.14798042629665589 -0.31272492794422613 0 0.16776394155079069 -0.29669091374977707 0 0.1701314502575057 -0.31524031759961457 0 0.14798042629665589 -0.31272492794422613 0 0.16776394155079069 -0.29669091374977707 0 0.1516935557866976 -0.28028021131434577 0 0.1682454518996199 -0.27326384366485751 0 0.16776394155079069 -0.29669091374977707 0 0.20309485982101841 -0.49636394476982137 0 0.19583867134393071 -0.49999999999999928 0 0.1767341020656133 -0.4854706413949002 0 0.20309485982101841 -0.49636394476982137 0 0.1767341020656133 -0.4854706413949002 0 0.20309485982101841 -0.49636394476982137 0 0.2016009560349582 -0.48005262210528532 0 0.1767341020656133 -0.4854706413949002 0 0.20309485982101841 -0.49636394476982137 0 0.19583867134393071 -0.49999999999999928 0 0.2016009560349582 -0.48005262210528532 0 0.1767341020656133 -0.4854706413949002 0 0.1877631787327157 -0.47850349751530158 0 0.19025234288061399 -0.47121964218312962 0 0.2016009560349582 -0.48005262210528532 0 0.1877631787327157 -0.47850349751530158 0 0.2016009560349582 -0.48005262210528532 0 0.1767341020656133 -0.4854706413949002 0 0.19025234288061399 -0.47121964218312962 0 0.2016009560349582 -0.48005262210528532 0 0.2014789722190273 -0.46772012579482852 0 0.2016009560349582 -0.48005262210528532 0 0.22646781000430299 -0.47463460281567038 0 0.2016009560349582 -0.48005262210528532 0 0.22799791979065751 -0.48388509285796172 0 0.22646781000430299 -0.47463460281567038 0 0.2016009560349582 -0.48005262210528532 0 0.22646781000430299 -0.47463460281567038 0 0.21194974542791731 -0.46692741355112849 0 0.2016009560349582 -0.48005262210528532 0 0.21194974542791731 -0.46692741355112849 0 0.2014789722190273 -0.46772012579482852 0 0.20309485982101841 -0.49636394476982137 0 0.22799791979065751 -0.48388509285796172 0 0.20309485982101841 -0.49636394476982137 0 0.2122832752582178 -0.49999999999999889 0 0.22799791979065751 -0.48388509285796172 0 0.20309485982101841 -0.49636394476982137 0 0.2016009560349582 -0.48005262210528532 0 0.22799791979065751 -0.48388509285796172 0 0.20309485982101841 -0.49636394476982137 0 0.19583867134393071 -0.49999999999999928 0 0.2122832752582178 -0.49999999999999889 0 0.20309485982101841 -0.49636394476982137 0 0.2122832752582178 -0.49999999999999889 0 0.2122832752582178 -0.49999999999999889 0 0.2306634625901654 -0.49999999999999872 0 0.22799791979065751 -0.48388509285796172 0 0.2306634625901654 -0.49999999999999872 0 0.23645070774943061 -0.49007791395789091 0 0.22799791979065751 -0.48388509285796172 0 0.2306634625901654 -0.49999999999999872 0 0.22799791979065751 -0.48388509285796172 0 0.23645070774943061 -0.49007791395789091 0 0.2442591293392051 -0.50000000000000278 0 0.2428823192776938 -0.47642656297359959 0 0.2442591293392051 -0.50000000000000278 0 0.2428823192776938 -0.47642656297359959 0 0.2306634625901654 -0.49999999999999872 0 0.23645070774943061 -0.49007791395789091 0 0.2442591293392051 -0.50000000000000278 0 0.2425727184692941 -0.4711256464825383 0 0.22646781000430299 -0.47463460281567038 0 0.2428823192776938 -0.47642656297359959 0 0.2425727184692941 -0.4711256464825383 0 0.22646781000430299 -0.47463460281567038 0 0.26010330569213658 -0.46779717608283528 0 0.2428823192776938 -0.47642656297359959 0 0.2425727184692941 -0.4711256464825383 0 0.2428823192776938 -0.47642656297359959 0 0.2425727184692941 -0.4711256464825383 0 0.23645070774943061 -0.49007791395789091 0 0.2428823192776938 -0.47642656297359959 0 0.22799791979065751 -0.48388509285796172 0 0.2428823192776938 -0.47642656297359959 0 0.22799791979065751 -0.48388509285796172 0 0.2428823192776938 -0.47642656297359959 0 0.22799791979065751 -0.48388509285796172 0 0.22646781000430299 -0.47463460281567038 0 0.22799791979065751 -0.48388509285796172 0 0.22646781000430299 -0.47463460281567038 0 0.22646781000430299 -0.47463460281567038 0 0.2329236849694831 -0.45872040723726443 0 0.22170927183646891 -0.44586620310341007 0 0.22646781000430299 -0.47463460281567038 0 0.22170927183646891 -0.44586620310341007 0 0.21194974542791731 -0.46692741355112849 0 0.2425727184692941 -0.4711256464825383 0 0.22646781000430299 -0.47463460281567038 0 0.2329236849694831 -0.45872040723726443 0 0.22646781000430299 -0.47463460281567038 0 0.22170927183646891 -0.44586620310341007 0 0.25016576724891132 -0.46058260857959832 0 0.2425727184692941 -0.4711256464825383 0 0.2409449395678665 -0.44325517654743851 0 0.2425727184692941 -0.4711256464825383 0 0.2329236849694831 -0.45872040723726443 0 0.2409449395678665 -0.44325517654743851 0 0.2425727184692941 -0.4711256464825383 0 0.2409449395678665 -0.44325517654743851 0 0.25016576724891132 -0.46058260857959832 0 0.25733192381407688 -0.45583179146920721 0 0.2409449395678665 -0.44325517654743851 0 0.25365615665351798 -0.44365701231061638 0 0.2409449395678665 -0.44325517654743851 0 0.24893837452042869 -0.43184688769129798 0 0.2329236849694831 -0.45872040723726443 0 0.2409449395678665 -0.44325517654743851 0 0.22170927183646891 -0.44586620310341007 0 0.2409449395678665 -0.44325517654743851 0 0.22170927183646891 -0.44586620310341007 0 0.2291765257702206 -0.42985330453380682 0 0.22170927183646891 -0.44586620310341007 0 0.20575988227325201 -0.45586777996260919 0 0.20866735569831341 -0.43652233082490399 0 0.22170927183646891 -0.44586620310341007 0 0.21194974542791731 -0.46692741355112849 0 0.20575988227325201 -0.45586777996260919 0 0.21194974542791731 -0.46692741355112849 0 0.20575988227325201 -0.45586777996260919 0 0.2014789722190273 -0.46772012579482852 0 0.20575988227325201 -0.45586777996260919 0 0.19553148427504641 -0.46145350094616538 0 0.19466758984727059 -0.45007890712419463 0 0.20575988227325201 -0.45586777996260919 0 0.19553148427504641 -0.46145350094616538 0 0.2014789722190273 -0.46772012579482852 0 0.19025234288061399 -0.47121964218312962 0 0.19553148427504641 -0.46145350094616538 0 0.2014789722190273 -0.46772012579482852 0 0.19025234288061399 -0.47121964218312962 0 0.19553148427504641 -0.46145350094616538 0 0.18434840905339361 -0.46084121455315258 0 0.19553148427504641 -0.46145350094616538 0 0.19466758984727059 -0.45007890712419463 0 0.18434840905339361 -0.46084121455315258 0 0.20575988227325201 -0.45586777996260919 0 0.19466758984727059 -0.45007890712419463 0 0.20866735569831341 -0.43652233082490399 0 0.19466758984727059 -0.45007890712419463 0 0.19263107070592339 -0.43700924904655358 0 0.20866735569831341 -0.43652233082490399 0 0.19466758984727059 -0.45007890712419463 0 0.19263107070592339 -0.43700924904655358 0 0.18062466621009041 -0.44643972749405159 0 0.19263107070592339 -0.43700924904655358 0 0.20765050772561991 -0.42051091159011561 0 0.20866735569831341 -0.43652233082490399 0 0.19263107070592339 -0.43700924904655358 0 0.1972141203772739 -0.41317517031159751 0 0.18421854133501139 -0.41592388195039581 0 0.19263107070592339 -0.43700924904655358 0 0.1972141203772739 -0.41317517031159751 0 0.20765050772561991 -0.42051091159011561 0 0.19263107070592339 -0.43700924904655358 0 0.20765050772561991 -0.42051091159011561 0 0.1972141203772739 -0.41317517031159751 0 0.19179219021413749 -0.4046488226723497 0 0.18421854133501139 -0.41592388195039581 0 0.1972141203772739 -0.41317517031159751 0 0.20501728869696301 -0.4020148352479026 0 0.19179219021413749 -0.4046488226723497 0 0.20765050772561991 -0.42051091159011561 0 0.22266994474531629 -0.40401257413367742 0 0.20501728869696301 -0.4020148352479026 0 0.20765050772561991 -0.42051091159011561 0 0.22266994474531629 -0.40401257413367742 0 0.20765050772561991 -0.42051091159011561 0 0.2169507336686351 -0.41709780339114949 0 0.22266994474531629 -0.40401257413367742 0 0.1972141203772739 -0.41317517031159751 0 0.20765050772561991 -0.42051091159011561 0 0.20501728869696301 -0.4020148352479026 0 0.22170927183646891 -0.44586620310341007 0 0.2169507336686351 -0.41709780339114949 0 0.20866735569831341 -0.43652233082490399 0 0.20765050772561991 -0.42051091159011561 0 0.2169507336686351 -0.41709780339114949 0 0.20866735569831341 -0.43652233082490399 0 0.22170927183646891 -0.44586620310341007 0 0.2169507336686351 -0.41709780339114949 0 0.2291765257702206 -0.42985330453380682 0 0.22170927183646891 -0.44586620310341007 0 0.2169507336686351 -0.41709780339114949 0 0.2409449395678665 -0.44325517654743851 0 0.24893837452042869 -0.43184688769129798 0 0.23931716066643921 -0.41538470661233873 0 0.2409449395678665 -0.44325517654743851 0 0.2291765257702206 -0.42985330453380682 0 0.23931716066643921 -0.41538470661233873 0 0.2409449395678665 -0.44325517654743851 0 0.23931716066643921 -0.41538470661233873 0 0.25495278799212262 -0.41563391091884339 0 0.24893837452042869 -0.43184688769129798 0 0.23931716066643921 -0.41538470661233873 0 0.25086081389379089 -0.39982980891506231 0 0.25495278799212262 -0.41563391091884339 0 0.23931716066643921 -0.41538470661233873 0 0.23931716066643921 -0.41538470661233873 0 0.22739281670487549 -0.41712032627262968 0 0.22266994474531629 -0.40401257413367742 0 0.2291765257702206 -0.42985330453380682 0 0.23931716066643921 -0.41538470661233873 0 0.22739281670487549 -0.41712032627262968 0 0.2169507336686351 -0.41709780339114949 0 0.2291765257702206 -0.42985330453380682 0 0.22739281670487549 -0.41712032627262968 0 0.2169507336686351 -0.41709780339114949 0 0.22739281670487549 -0.41712032627262968 0 0.22266994474531629 -0.40401257413367742 0 0.22266994474531629 -0.40401257413367742 0 0.2376893817650125 -0.38751423667723911 0 0.2241674355705339 -0.38385508133998347 0 0.22266994474531629 -0.40401257413367742 0 0.2241674355705339 -0.38385508133998347 0 0.21398563562968859 -0.39276481715732098 0 0.22266994474531629 -0.40401257413367742 0 0.2376893817650125 -0.38751423667723911 0 0.23931716066643921 -0.41538470661233873 0 0.22266994474531629 -0.40401257413367742 0 0.2376893817650125 -0.38751423667723911 0 0.25086081389379089 -0.39982980891506231 0 0.23931716066643921 -0.41538470661233873 0 0.2376893817650125 -0.38751423667723911 0 0.23931716066643921 -0.41538470661233873 0 0.2376893817650125 -0.38751423667723911 0 0.25247051514062402 -0.38352618598174032 0 0.25586688092642701 -0.36754687605740738 0 0.2376893817650125 -0.38751423667723911 0 0.23668337535051359 -0.37028961759340218 0 0.2376893817650125 -0.38751423667723911 0 0.25247051514062402 -0.38352618598174032 0 0.25086081389379089 -0.39982980891506231 0 0.2376893817650125 -0.38751423667723911 0 0.25586688092642701 -0.36754687605740738 0 0.23668337535051359 -0.37028961759340218 0 0.2376893817650125 -0.38751423667723911 0 0.25586688092642701 -0.36754687605740738 0 0.2376893817650125 -0.38751423667723911 0 0.23668337535051359 -0.37028961759340218 0 0.2376893817650125 -0.38751423667723911 0 0.2241674355705339 -0.38385508133998347 0 0.2221033310603199 -0.36971198453144283 0 0.2241674355705339 -0.38385508133998347 0 0.21187294487235231 -0.37883725794681827 0 0.1957441215455312 -0.37472839632236588 0 0.21187294487235231 -0.37883725794681827 0 0.2043461851085423 -0.3877870703876472 0 0.21187294487235231 -0.37883725794681827 0 0.2043461851085423 -0.3877870703876472 0 0.21398563562968859 -0.39276481715732098 0 0.2241674355705339 -0.38385508133998347 0 0.21187294487235231 -0.37883725794681827 0 0.21398563562968859 -0.39276481715732098 0 0.22266994474531629 -0.40401257413367742 0 0.21398563562968859 -0.39276481715732098 0 0.20501728869696301 -0.4020148352479026 0 0.2043461851085423 -0.3877870703876472 0 0.21398563562968859 -0.39276481715732098 0 0.20501728869696301 -0.4020148352479026 0 0.2043461851085423 -0.3877870703876472 0 0.20501728869696301 -0.4020148352479026 0 0.1936480915725379 -0.39154899801347981 0 0.20501728869696301 -0.4020148352479026 0 0.19179219021413749 -0.4046488226723497 0 0.1936480915725379 -0.39154899801347981 0 0.19179219021413749 -0.4046488226723497 0 0.1936480915725379 -0.39154899801347981 0 0.17886290908890151 -0.40058122783837302 0 0.1957441215455312 -0.37472839632236588 0 0.2043461851085423 -0.3877870703876472 0 0.1936480915725379 -0.39154899801347981 0 0.1957441215455312 -0.37472839632236588 0 0.1936480915725379 -0.39154899801347981 0 0.1766416994497105 -0.38330762737337831 0 0.1936480915725379 -0.39154899801347981 0 0.1766416994497105 -0.38330762737337831 0 0.17886290908890151 -0.40058122783837302 0 0.17886290908890151 -0.40058122783837302 0 0.15763518390804879 -0.3964014001192771 0 0.16675887873008749 -0.4134355467505465 0 0.1766416994497105 -0.38330762737337831 0 0.17886290908890151 -0.40058122783837302 0 0.15763518390804879 -0.3964014001192771 0 0.15855630085558869 -0.37410422149499212 0 0.1766416994497105 -0.38330762737337831 0 0.15763518390804879 -0.3964014001192771 0 0.14049570413409271 -0.38427710135478782 0 0.12919674487039109 -0.40206023946192831 0 0.10891331270232341 -0.38144360499474811 0 0.15855630085558869 -0.37410422149499212 0 0.15763518390804879 -0.3964014001192771 0 0.14049570413409271 -0.38427710135478782 0 0.1362379080380321 -0.36332994668916352 0 0.14049570413409271 -0.38427710135478782 0 0.10891331270232341 -0.38144360499474811 0 0.15763518390804879 -0.3964014001192771 0 0.14049570413409271 -0.38427710135478782 0 0.12919674487039109 -0.40206023946192831 0 0.15763518390804879 -0.3964014001192771 0 0.12919674487039109 -0.40206023946192831 0 0.14948017703845881 -0.42267687392910841 0 0.12919674487039109 -0.40206023946192831 0 0.14948017703845881 -0.42267687392910841 0 0.12919674487039109 -0.40206023946192831 0 0.14948017703845881 -0.42267687392910841 0 0.1226010267693714 -0.42817805704762568 0 0.14948017703845881 -0.42267687392910841 0 0.14039785537041949 -0.44915072819729063 0 0.1226010267693714 -0.42817805704762568 0 0.14948017703845881 -0.42267687392910841 0 0.16675887873008749 -0.4134355467505465 0 0.17678164927510531 -0.43003506951313958 0 0.14948017703845881 -0.42267687392910841 0 0.17678164927510531 -0.43003506951313958 0 0.16375736010246911 -0.44403510663025858 0 0.15763518390804879 -0.3964014001192771 0 0.14948017703845881 -0.42267687392910841 0 0.16675887873008749 -0.4134355467505465 0 0.17886290908890151 -0.40058122783837302 0 0.16675887873008749 -0.4134355467505465 0 0.18421854133501139 -0.41592388195039581 0 0.16675887873008749 -0.4134355467505465 0 0.18421854133501139 -0.41592388195039581 0 0.17678164927510531 -0.43003506951313958 0 0.19179219021413749 -0.4046488226723497 0 0.17886290908890151 -0.40058122783837302 0 0.18421854133501139 -0.41592388195039581 0 0.19263107070592339 -0.43700924904655358 0 0.18421854133501139 -0.41592388195039581 0 0.17678164927510531 -0.43003506951313958 0 0.17678164927510531 -0.43003506951313958 0 0.18062466621009041 -0.44643972749405159 0 0.16375736010246911 -0.44403510663025858 0 0.19263107070592339 -0.43700924904655358 0 0.17678164927510531 -0.43003506951313958 0 0.18062466621009041 -0.44643972749405159 0 0.18062466621009041 -0.44643972749405159 0 0.1715619182763802 -0.45663881809701068 0 0.16375736010246911 -0.44403510663025858 0 0.19466758984727059 -0.45007890712419463 0 0.18062466621009041 -0.44643972749405159 0 0.18434840905339361 -0.46084121455315258 0 0.19025234288061399 -0.47121964218312962 0 0.18434840905339361 -0.46084121455315258 0 0.1788814333774276 -0.47117307547419118 0 0.17563993833795061 -0.46421850738246989 0 0.16749343506729511 -0.4675123292782204 0 0.1788814333774276 -0.47117307547419118 0 0.18434840905339361 -0.46084121455315258 0 0.17563993833795061 -0.46421850738246989 0 0.1788814333774276 -0.47117307547419118 0 0.18434840905339361 -0.46084121455315258 0 0.17563993833795061 -0.46421850738246989 0 0.1715619182763802 -0.45663881809701068 0 0.18062466621009041 -0.44643972749405159 0 0.18434840905339361 -0.46084121455315258 0 0.1715619182763802 -0.45663881809701068 0 0.1715619182763802 -0.45663881809701068 0 0.16749343506729511 -0.4675123292782204 0 0.15733294109281309 -0.45853094995325372 0 0.16749343506729511 -0.4675123292782204 0 0.15733294109281309 -0.45853094995325372 0 0.15009717314583801 -0.47539161095020072 0 0.17563993833795061 -0.46421850738246989 0 0.1715619182763802 -0.45663881809701068 0 0.16749343506729511 -0.4675123292782204 0 0.1715619182763802 -0.45663881809701068 0 0.15733294109281309 -0.45853094995325372 0 0.16375736010246911 -0.44403510663025858 0 0.14948017703845881 -0.42267687392910841 0 0.16375736010246911 -0.44403510663025858 0 0.14039785537041949 -0.44915072819729063 0 0.15733294109281309 -0.45853094995325372 0 0.16375736010246911 -0.44403510663025858 0 0.14039785537041949 -0.44915072819729063 0 0.14039785537041949 -0.44915072819729063 0 0.11660750757989639 -0.44662653256243878 0 0.1226010267693714 -0.42817805704762568 0 0.14039785537041949 -0.44915072819729063 0 0.12359832980824841 -0.4649054440403888 0 0.11660750757989639 -0.44662653256243878 0 0.14039785537041949 -0.44915072819729063 0 0.15009717314583801 -0.47539161095020072 0 0.12359832980824841 -0.4649054440403888 0 0.15733294109281309 -0.45853094995325372 0 0.14039785537041949 -0.44915072819729063 0 0.15009717314583801 -0.47539161095020072 0 0.15009717314583801 -0.47539161095020072 0 0.12359832980824841 -0.4649054440403888 0 0.15009717314583801 -0.47539161095020072 0 0.1301681516496847 -0.48369534833919342 0 0.12359832980824841 -0.4649054440403888 0 0.1301681516496847 -0.48369534833919342 0 0.14544944917035091 -0.5 0 0.12025483808356099 -0.49999999999999922 0 0.15009717314583801 -0.47539161095020072 0 0.1301681516496847 -0.48369534833919342 0 0.14544944917035091 -0.5 0 0.15009717314583801 -0.47539161095020072 0 0.14544944917035091 -0.5 0 0.16069667476418931 -0.49031734720255338 0 0.17064406025714091 -0.5 0 0.16069667476418931 -0.49031734720255338 0 0.1767341020656133 -0.4854706413949002 0 0.14544944917035091 -0.5 0 0.17064406025714091 -0.5 0 0.16069667476418931 -0.49031734720255338 0 0.15009717314583801 -0.47539161095020072 0 0.16069667476418931 -0.49031734720255338 0 0.1767341020656133 -0.4854706413949002 0 0.15009717314583801 -0.47539161095020072 0 0.1767341020656133 -0.4854706413949002 0 0.15009717314583801 -0.47539161095020072 0 0.17168998366742819 -0.47762184849584749 0 0.1767341020656133 -0.4854706413949002 0 0.16749343506729511 -0.4675123292782204 0 0.15009717314583801 -0.47539161095020072 0 0.17168998366742819 -0.47762184849584749 0 0.17744270826503661 -0.47788416243570753 0 0.18221475306428139 -0.47685020380064602 0 0.1767341020656133 -0.4854706413949002 0 0.17168998366742819 -0.47762184849584749 0 0.17744270826503661 -0.47788416243570753 0 0.1767341020656133 -0.4854706413949002 0 0.16749343506729511 -0.4675123292782204 0 0.17168998366742819 -0.47762184849584749 0 0.1788814333774276 -0.47117307547419118 0 0.17168998366742819 -0.47762184849584749 0 0.17744270826503661 -0.47788416243570753 0 0.1788814333774276 -0.47117307547419118 0 0.17744270826503661 -0.47788416243570753 0 0.1788814333774276 -0.47117307547419118 0 0.18221475306428139 -0.47685020380064602 0 0.19025234288061399 -0.47121964218312962 0 0.1788814333774276 -0.47117307547419118 0 0.18221475306428139 -0.47685020380064602 0 0.1877631787327157 -0.47850349751530158 0 0.19025234288061399 -0.47121964218312962 0 0.18221475306428139 -0.47685020380064602 0 0.1877631787327157 -0.47850349751530158 0 0.18221475306428139 -0.47685020380064602 0 0.1767341020656133 -0.4854706413949002 0 0.19583867134393071 -0.49999999999999928 0 0.17064406025714091 -0.5 0 0.1767341020656133 -0.4854706413949002 0 0.067444263309055369 -0.48895928002819711 0 0.088512049523833958 -0.49994264512903219 0 0.067444263309055369 -0.48895928002819711 0 0.088512049523833958 -0.49994264512903219 0 0.059908663758844287 -0.5 0 0.063181138744275001 -0.47384827458262468 0 0.080608608962939615 -0.4810828201376029 0 0.072705168402045939 -0.46222299514617332 0 0.067444263309055369 -0.48895928002819711 0 0.063181138744275001 -0.47384827458262468 0 0.080608608962939615 -0.4810828201376029 0 0.080608608962939615 -0.4810828201376029 0 0.072705168402045939 -0.46222299514617332 0 0.080608608962939615 -0.4810828201376029 0 0.09078518610014627 -0.46848279984353342 0 0.072705168402045939 -0.46222299514617332 0 0.080608608962939615 -0.4810828201376029 0 0.095480754050590005 -0.48574649084542137 0 0.09078518610014627 -0.46848279984353342 0 0.067444263309055369 -0.48895928002819711 0 0.080608608962939615 -0.4810828201376029 0 0.088512049523833958 -0.49994264512903219 0 0.080608608962939615 -0.4810828201376029 0 0.088512049523833958 -0.49994264512903219 0 0.095480754050590005 -0.48574649084542137 0 0.080608608962939615 -0.4810828201376029 0 0.088512049523833958 -0.49994264512903219 0 0.088512049523833958 -0.49994264512903219 0 0.095480754050590005 -0.48574649084542137 0 0.1043834438036975 -0.5 0 0.095480754050590005 -0.48574649084542137 0 0.1043834438036975 -0.5 0 0.11144096804042521 -0.47817968670537719 0 0.1301681516496847 -0.48369534833919342 0 0.12025483808356099 -0.49999999999999922 0 0.11144096804042521 -0.47817968670537719 0 0.12025483808356099 -0.49999999999999922 0 0.11144096804042521 -0.47817968670537719 0 0.1043834438036975 -0.5 0 0.12025483808356099 -0.49999999999999922 0 0.11144096804042521 -0.47817968670537719 0 0.1301681516496847 -0.48369534833919342 0 0.11144096804042521 -0.47817968670537719 0 0.12359832980824841 -0.4649054440403888 0 0.095480754050590005 -0.48574649084542137 0 0.11144096804042521 -0.47817968670537719 0 0.09078518610014627 -0.46848279984353342 0 0.11144096804042521 -0.47817968670537719 0 0.10262709799728929 -0.45635937341075539 0 0.09078518610014627 -0.46848279984353342 0 0.11144096804042521 -0.47817968670537719 0 0.10262709799728929 -0.45635937341075539 0 0.10262709799728929 -0.45635937341075539 0 0.12359832980824841 -0.4649054440403888 0 0.11660750757989639 -0.44662653256243878 0 0.11144096804042521 -0.47817968670537719 0 0.10262709799728929 -0.45635937341075539 0 0.12359832980824841 -0.4649054440403888 0 0.10262709799728929 -0.45635937341075539 0 0.093813227954153255 -0.43453906011613358 0 0.10262709799728929 -0.45635937341075539 0 0.11660750757989639 -0.44662653256243878 0 0.093813227954153255 -0.43453906011613358 0 0.10262709799728929 -0.45635937341075539 0 0.083270168602976938 -0.4487385079340297 0 0.093813227954153255 -0.43453906011613358 0 0.083270168602976938 -0.4487385079340297 0 0.09078518610014627 -0.46848279984353342 0 0.072705168402045939 -0.46222299514617332 0 0.10262709799728929 -0.45635937341075539 0 0.083270168602976938 -0.4487385079340297 0 0.09078518610014627 -0.46848279984353342 0 0.083270168602976938 -0.4487385079340297 0 0.064801727841152235 -0.44336317015474369 0 0.074888603323074676 -0.42746364893283878 0 0.072705168402045939 -0.46222299514617332 0 0.064801727841152235 -0.44336317015474369 0 0.083270168602976938 -0.4487385079340297 0 0.072705168402045939 -0.46222299514617332 0 0.064801727841152235 -0.44336317015474369 0 0.064801727841152235 -0.44336317015474369 0 0.074888603323074676 -0.42746364893283878 0 0.054129788669525593 -0.42411645895892658 0 0.074888603323074676 -0.42746364893283878 0 0.068694896053593038 -0.40854008145476062 0 0.054129788669525593 -0.42411645895892658 0 0.074888603323074676 -0.42746364893283878 0 0.068694896053593038 -0.40854008145476062 0 0.08521003790612805 -0.41388270368101432 0 0.074888603323074676 -0.42746364893283878 0 0.08521003790612805 -0.41388270368101432 0 0.093813227954153255 -0.43453906011613358 0 0.083270168602976938 -0.4487385079340297 0 0.074888603323074676 -0.42746364893283878 0 0.093813227954153255 -0.43453906011613358 0 0.093813227954153255 -0.43453906011613358 0 0.1226010267693714 -0.42817805704762568 0 0.1041744621097849 -0.40742991137405299 0 0.11660750757989639 -0.44662653256243878 0 0.093813227954153255 -0.43453906011613358 0 0.1226010267693714 -0.42817805704762568 0 0.12919674487039109 -0.40206023946192831 0 0.1226010267693714 -0.42817805704762568 0 0.1041744621097849 -0.40742991137405299 0 0.08521003790612805 -0.41388270368101432 0 0.093813227954153255 -0.43453906011613358 0 0.1041744621097849 -0.40742991137405299 0 0.1041744621097849 -0.40742991137405299 0 0.10891331270232341 -0.38144360499474811 0 0.084479000090034312 -0.39144081652728507 0 0.12919674487039109 -0.40206023946192831 0 0.1041744621097849 -0.40742991137405299 0 0.10891331270232341 -0.38144360499474811 0 0.12919674487039109 -0.40206023946192831 0 0.10891331270232341 -0.38144360499474811 0 0.10891331270232341 -0.38144360499474811 0 0.084479000090034312 -0.39144081652728507 0 0.088409687624838917 -0.37475072894731609 0 0.084479000090034312 -0.39144081652728507 0 0.075810689404869638 -0.37563758875815001 0 0.088409687624838917 -0.37475072894731609 0 0.08521003790612805 -0.41388270368101432 0 0.1041744621097849 -0.40742991137405299 0 0.084479000090034312 -0.39144081652728507 0 0.068694896053593038 -0.40854008145476062 0 0.08521003790612805 -0.41388270368101432 0 0.084479000090034312 -0.39144081652728507 0 0.068694896053593038 -0.40854008145476062 0 0.084479000090034312 -0.39144081652728507 0 0.05722368337897233 -0.38514730289724691 0 0.068694896053593038 -0.40854008145476062 0 0.05722368337897233 -0.38514730289724691 0 0.084479000090034312 -0.39144081652728507 0 0.075810689404869638 -0.37563758875815001 0 0.05722368337897233 -0.38514730289724691 0 0.075810689404869638 -0.37563758875815001 0 0.05722368337897233 -0.38514730289724691 0 0.064716367060602256 -0.36696410283815639 0 0.068694896053593038 -0.40854008145476062 0 0.05722368337897233 -0.38514730289724691 0 0.0444810354524681 -0.40524297288683392 0 0.0444810354524681 -0.40524297288683392 0 0.031951973385333107 -0.3857832005238796 0 0.022361035639484661 -0.4058142147531828 0 0.05722368337897233 -0.38514730289724691 0 0.0444810354524681 -0.40524297288683392 0 0.031951973385333107 -0.3857832005238796 0 0.05722368337897233 -0.38514730289724691 0 0.031951973385333107 -0.3857832005238796 0 0.045752470704351622 -0.36175452433973321 0 0.031951973385333107 -0.3857832005238796 0 0.01345801989319451 -0.37851461018506999 0 0.0081381410838362658 -0.39426642413936558 0 -0.0032689191707280219 -0.38784704684875643 0 0.01345801989319451 -0.37851461018506999 0 0.0081381410838362658 -0.39426642413936558 0 -0.0070999278623810006 -0.37038466258880981 0 -0.0032689191707280219 -0.38784704684875643 0 0.01345801989319451 -0.37851461018506999 0 0.0081381410838362658 -0.39426642413936558 0 0.022361035639484661 -0.4058142147531828 0 0.0033072375369987321 -0.40645944597256622 0 -0.010095241589031939 -0.4043639430644913 0 0.0081381410838362658 -0.39426642413936558 0 0.0033072375369987321 -0.40645944597256622 0 0.031951973385333107 -0.3857832005238796 0 0.0081381410838362658 -0.39426642413936558 0 0.022361035639484661 -0.4058142147531828 0 0.022361035639484661 -0.4058142147531828 0 0.015126719611032371 -0.42067622484206502 0 0.033263892814801049 -0.42142670901740359 0 0.022361035639484661 -0.4058142147531828 0 0.015126719611032371 -0.42067622484206502 0 0.0033072375369987321 -0.40645944597256622 0 -0.001979991684668675 -0.42759904443131869 0 0.015126719611032371 -0.42067622484206502 0 0.00025612791897663132 -0.41717800300300478 0 0.015126719611032371 -0.42067622484206502 0 0.00025612791897663132 -0.41717800300300478 0 0.0033072375369987321 -0.40645944597256622 0 0.015126719611032371 -0.42067622484206502 0 0.0096838121378725935 -0.43834270478387921 0 -0.001979991684668675 -0.42759904443131869 0 0.015126719611032371 -0.42067622484206502 0 0.0096838121378725935 -0.43834270478387921 0 -0.001979991684668675 -0.42759904443131869 0 -0.0016826269874589291 -0.44126704767427422 0 0.0096838121378725935 -0.43834270478387921 0 0.015126719611032371 -0.42067622484206502 0 0.02432981776101369 -0.43379442449665562 0 0.0096838121378725935 -0.43834270478387921 0 0.015126719611032371 -0.42067622484206502 0 0.02432981776101369 -0.43379442449665562 0 0.033263892814801049 -0.42142670901740359 0 0.033263892814801049 -0.42142670901740359 0 0.054129788669525593 -0.42411645895892658 0 0.039983482127774993 -0.43814796327246969 0 0.02432981776101369 -0.43379442449665562 0 0.033263892814801049 -0.42142670901740359 0 0.039983482127774993 -0.43814796327246969 0 0.0444810354524681 -0.40524297288683392 0 0.022361035639484661 -0.4058142147531828 0 0.033263892814801049 -0.42142670901740359 0 0.0444810354524681 -0.40524297288683392 0 0.033263892814801049 -0.42142670901740359 0 0.054129788669525593 -0.42411645895892658 0 0.068694896053593038 -0.40854008145476062 0 0.0444810354524681 -0.40524297288683392 0 0.054129788669525593 -0.42411645895892658 0 0.064801727841152235 -0.44336317015474369 0 0.054129788669525593 -0.42411645895892658 0 0.039983482127774993 -0.43814796327246969 0 0.064801727841152235 -0.44336317015474369 0 0.048771175953057619 -0.45900036267378719 0 0.039983482127774993 -0.43814796327246969 0 0.072705168402045939 -0.46222299514617332 0 0.064801727841152235 -0.44336317015474369 0 0.048771175953057619 -0.45900036267378719 0 0.063181138744275001 -0.47384827458262468 0 0.072705168402045939 -0.46222299514617332 0 0.048771175953057619 -0.45900036267378719 0 0.048771175953057619 -0.45900036267378719 0 0.025308690879497522 -0.46699254982652849 0 0.046376477094276433 -0.4779759149273628 0 0.048771175953057619 -0.45900036267378719 0 0.025248226858573579 -0.44884253077888392 0 0.025308690879497522 -0.46699254982652849 0 0.048771175953057619 -0.45900036267378719 0 0.039983482127774993 -0.43814796327246969 0 0.025248226858573579 -0.44884253077888392 0 0.02432981776101369 -0.43379442449665562 0 0.039983482127774993 -0.43814796327246969 0 0.025248226858573579 -0.44884253077888392 0 0.02432981776101369 -0.43379442449665562 0 0.025248226858573579 -0.44884253077888392 0 0.0096838121378725935 -0.43834270478387921 0 0.025248226858573579 -0.44884253077888392 0 0.0096838121378725935 -0.43834270478387921 0 0.0042409046647181644 -0.45600918472569513 0 0.0096838121378725935 -0.43834270478387921 0 0.0042409046647181644 -0.45600918472569513 0 -0.0016826269874589291 -0.44126704767427422 0 0.0096838121378725935 -0.43834270478387921 0 0.0042409046647181644 -0.45600918472569513 0 0.0042409046647181644 -0.45600918472569513 0 0.025308690879497522 -0.46699254982652849 0 -0.001841178523428006 -0.47575028838721822 0 0.0042409046647181644 -0.45600918472569513 0 -0.001841178523428006 -0.47575028838721822 0 0.0042409046647181644 -0.45600918472569513 0 0.010954560247555079 -0.4709224229626463 0 0.0042409046647181644 -0.45600918472569513 0 0.025308690879497522 -0.46699254982652849 0 0.010954560247555079 -0.4709224229626463 0 0.025248226858573579 -0.44884253077888392 0 0.0042409046647181644 -0.45600918472569513 0 0.025308690879497522 -0.46699254982652849 0 0.025308690879497522 -0.46699254982652849 0 0.016109823969432661 -0.4849376689111432 0 0.046376477094276433 -0.4779759149273628 0 0.025308690879497522 -0.46699254982652849 0 0.010954560247555079 -0.4709224229626463 0 0.016109823969432661 -0.4849376689111432 0 -0.001841178523428006 -0.47575028838721822 0 0.0019752836915401168 -0.48835755068953651 0 0.016109823969432661 -0.4849376689111432 0 -0.001841178523428006 -0.47575028838721822 0 0.010954560247555079 -0.4709224229626463 0 0.016109823969432661 -0.4849376689111432 0 0.002701892228864633 -0.5 0 0.0019752836915401168 -0.48835755068953651 0 0.016109823969432661 -0.4849376689111432 0 0.002701892228864633 -0.5 0 0.016109823969432661 -0.4849376689111432 0 0.031305277993854408 -0.5 0 0.031305277993854408 -0.5 0 0.046376477094276433 -0.4779759149273628 0 0.059908663758844287 -0.5 0 0.016109823969432661 -0.4849376689111432 0 0.031305277993854408 -0.5 0 0.046376477094276433 -0.4779759149273628 0 0.025308690879497522 -0.46699254982652849 0 0.046376477094276433 -0.4779759149273628 0 0.063181138744275001 -0.47384827458262468 0 0.048771175953057619 -0.45900036267378719 0 0.046376477094276433 -0.4779759149273628 0 0.067444263309055369 -0.48895928002819711 0 0.046376477094276433 -0.4779759149273628 0 0.067444263309055369 -0.48895928002819711 0 0.063181138744275001 -0.47384827458262468 0 0.046376477094276433 -0.4779759149273628 0 0.067444263309055369 -0.48895928002819711 0 0.046376477094276433 -0.4779759149273628 0 0.059908663758844287 -0.5 0 0.077060755635833506 -0.29717061420942498 0 0.073227212047482879 -0.28010700128925448 0 0.090340652267396029 -0.27556280361878288 0 0.077060755635833506 -0.29717061420942498 0 0.090340652267396029 -0.27556280361878288 0 0.096061417493057868 -0.29244365732354161 0 0.077060755635833506 -0.29717061420942498 0 0.092966490329917745 -0.32041846559688281 0 0.071681467377036998 -0.31846947201907261 0 0.077060755635833506 -0.29717061420942498 0 0.096061417493057868 -0.29244365732354161 0 0.092966490329917745 -0.32041846559688281 0 0.077060755635833506 -0.29717061420942498 0 0.071681467377036998 -0.31846947201907261 0 0.053560477607455831 -0.30670125821252969 0 0.077060755635833506 -0.29717061420942498 0 0.059339898902209073 -0.28936321648372182 0 0.053560477607455831 -0.30670125821252969 0 0.077060755635833506 -0.29717061420942498 0 0.073227212047482879 -0.28010700128925448 0 0.059339898902209073 -0.28936321648372182 0 0.073227212047482879 -0.28010700128925448 0 0.059339898902209073 -0.28936321648372182 0 0.060172332273088922 -0.27535741372482059 0 0.072881247528199022 -0.26603572198801279 0 0.073227212047482879 -0.28010700128925448 0 0.060172332273088922 -0.27535741372482059 0 0.072881247528199022 -0.26603572198801279 0 0.059907189982764779 -0.26352186264137939 0 0.060172332273088922 -0.27535741372482059 0 0.072881247528199022 -0.26603572198801279 0 0.064592416027369579 -0.25387350061472919 0 0.089104683742629823 -0.25186236383003768 0 0.072881247528199022 -0.26603572198801279 0 0.064592416027369579 -0.25387350061472919 0 0.059907189982764779 -0.26352186264137939 0 0.072881247528199022 -0.26603572198801279 0 0.089104683742629823 -0.25186236383003768 0 0.090340652267396029 -0.27556280361878288 0 0.072881247528199022 -0.26603572198801279 0 0.073227212047482879 -0.28010700128925448 0 0.090340652267396029 -0.27556280361878288 0 0.090340652267396029 -0.27556280361878288 0 0.10996764109065239 -0.2613349796581404 0 0.111999824664791 -0.28224552033941602 0 0.089104683742629823 -0.25186236383003768 0 0.10996764109065239 -0.2613349796581404 0 0.089104683742629823 -0.25186236383003768 0 0.090340652267396029 -0.27556280361878288 0 0.10996764109065239 -0.2613349796581404 0 0.089104683742629823 -0.25186236383003768 0 0.10996764109065239 -0.2613349796581404 0 0.1123268442063263 -0.2422076389170805 0 0.10996764109065239 -0.2613349796581404 0 0.1123268442063263 -0.2422076389170805 0 0.1369019475988357 -0.2498452913983702 0 0.13083059843867501 -0.27080759548624311 0 0.10996764109065239 -0.2613349796581404 0 0.111999824664791 -0.28224552033941602 0 0.13083059843867501 -0.27080759548624311 0 0.10996764109065239 -0.2613349796581404 0 0.13219515344532601 -0.29260295030503042 0 0.13083059843867501 -0.27080759548624311 0 0.111999824664791 -0.28224552033941602 0 0.13219515344532601 -0.29260295030503042 0 0.111999824664791 -0.28224552033941602 0 0.11260348525363879 -0.30072113564475778 0 0.111999824664791 -0.28224552033941602 0 0.096061417493057868 -0.29244365732354161 0 0.11260348525363879 -0.30072113564475778 0 0.090340652267396029 -0.27556280361878288 0 0.111999824664791 -0.28224552033941602 0 0.096061417493057868 -0.29244365732354161 0 0.096061417493057868 -0.29244365732354161 0 0.11260348525363879 -0.30072113564475778 0 0.092966490329917745 -0.32041846559688281 0 0.12817816698517329 -0.31052561580320021 0 0.11260348525363879 -0.30072113564475778 0 0.1128448779895864 -0.31925518441769818 0 0.12817816698517329 -0.31052561580320021 0 0.13219515344532601 -0.29260295030503042 0 0.11260348525363879 -0.30072113564475778 0 0.12819691104252109 -0.32875894213867513 0 0.12817816698517329 -0.31052561580320021 0 0.1128448779895864 -0.31925518441769818 0 0.12819691104252109 -0.32875894213867513 0 0.1128448779895864 -0.31925518441769818 0 0.1084133957883862 -0.34479295633312412 0 0.12658994079620289 -0.34776094089500581 0 0.12819691104252109 -0.32875894213867513 0 0.1084133957883862 -0.34479295633312412 0 0.12819691104252109 -0.32875894213867513 0 0.1084133957883862 -0.34479295633312412 0 0.1084133957883862 -0.34479295633312412 0 0.092966490329917745 -0.32041846559688281 0 0.088118561352087246 -0.33979857477652331 0 0.1128448779895864 -0.31925518441769818 0 0.1084133957883862 -0.34479295633312412 0 0.092966490329917745 -0.32041846559688281 0 0.11260348525363879 -0.30072113564475778 0 0.1128448779895864 -0.31925518441769818 0 0.092966490329917745 -0.32041846559688281 0 0.1362379080380321 -0.36332994668916352 0 0.10891331270232341 -0.38144360499474811 0 0.1119545884721031 -0.36072015866415719 0 0.12658994079620289 -0.34776094089500581 0 0.1119545884721031 -0.36072015866415719 0 0.1084133957883862 -0.34479295633312412 0 0.12658994079620289 -0.34776094089500581 0 0.1362379080380321 -0.36332994668916352 0 0.1119545884721031 -0.36072015866415719 0 0.1119545884721031 -0.36072015866415719 0 0.1084133957883862 -0.34479295633312412 0 0.088629880534251013 -0.36082697052757251 0 0.1084133957883862 -0.34479295633312412 0 0.088629880534251013 -0.36082697052757251 0 0.1084133957883862 -0.34479295633312412 0 0.088629880534251013 -0.36082697052757251 0 0.088118561352087246 -0.33979857477652331 0 0.10891331270232341 -0.38144360499474811 0 0.1119545884721031 -0.36072015866415719 0 0.088629880534251013 -0.36082697052757251 0 0.10891331270232341 -0.38144360499474811 0 0.088629880534251013 -0.36082697052757251 0 0.10891331270232341 -0.38144360499474811 0 0.088409687624838917 -0.37475072894731609 0 0.088629880534251013 -0.36082697052757251 0 0.075810689404869638 -0.37563758875815001 0 0.084215555392716232 -0.36440466392882509 0 0.074488565180136607 -0.36602323175103801 0 0.075810689404869638 -0.37563758875815001 0 0.088409687624838917 -0.37475072894731609 0 0.084215555392716232 -0.36440466392882509 0 0.088409687624838917 -0.37475072894731609 0 0.088629880534251013 -0.36082697052757251 0 0.084215555392716232 -0.36440466392882509 0 0.088629880534251013 -0.36082697052757251 0 0.084215555392716232 -0.36440466392882509 0 0.088629880534251013 -0.36082697052757251 0 0.084215555392716232 -0.36440466392882509 0 0.073211648862358342 -0.35708657147902029 0 0.088629880534251013 -0.36082697052757251 0 0.069633587391853657 -0.34151861932234828 0 0.088629880534251013 -0.36082697052757251 0 0.088118561352087246 -0.33979857477652331 0 0.069633587391853657 -0.34151861932234828 0 0.088629880534251013 -0.36082697052757251 0 0.073211648862358342 -0.35708657147902029 0 0.069633587391853657 -0.34151861932234828 0 0.073211648862358342 -0.35708657147902029 0 0.069633587391853657 -0.34151861932234828 0 0.056372104383058078 -0.34798263864643442 0 0.073211648862358342 -0.35708657147902029 0 0.064716367060602256 -0.36696410283815639 0 0.056372104383058078 -0.34798263864643442 0 0.084215555392716232 -0.36440466392882509 0 0.073211648862358342 -0.35708657147902029 0 0.074488565180136607 -0.36602323175103801 0 0.073211648862358342 -0.35708657147902029 0 0.074488565180136607 -0.36602323175103801 0 0.064716367060602256 -0.36696410283815639 0 0.075810689404869638 -0.37563758875815001 0 0.074488565180136607 -0.36602323175103801 0 0.064716367060602256 -0.36696410283815639 0 0.092966490329917745 -0.32041846559688281 0 0.088118561352087246 -0.33979857477652331 0 0.071681467377036998 -0.31846947201907261 0 0.088118561352087246 -0.33979857477652331 0 0.069633587391853657 -0.34151861932234828 0 0.071681467377036998 -0.31846947201907261 0 0.069633587391853657 -0.34151861932234828 0 0.071681467377036998 -0.31846947201907261 0 0.05063729424945175 -0.32221026811712872 0 0.071681467377036998 -0.31846947201907261 0 0.05063729424945175 -0.32221026811712872 0 0.053560477607455831 -0.30670125821252969 0 0.05063729424945175 -0.32221026811712872 0 0.037297639051797123 -0.31638393869123338 0 0.053560477607455831 -0.30670125821252969 0 0.05063729424945175 -0.32221026811712872 0 0.034281258029730907 -0.3383617457822195 0 0.056372104383058078 -0.34798263864643442 0 0.069633587391853657 -0.34151861932234828 0 0.05063729424945175 -0.32221026811712872 0 0.056372104383058078 -0.34798263864643442 0 0.069633587391853657 -0.34151861932234828 0 0.05063729424945175 -0.32221026811712872 0 0.05063729424945175 -0.32221026811712872 0 0.034281258029730907 -0.3383617457822195 0 0.037297639051797123 -0.31638393869123338 0 0.034281258029730907 -0.3383617457822195 0 0.037297639051797123 -0.31638393869123338 0 0.022810045355110199 -0.3149689672247058 0 0.05722368337897233 -0.38514730289724691 0 0.064716367060602256 -0.36696410283815639 0 0.045752470704351622 -0.36175452433973321 0 0.05722368337897233 -0.38514730289724691 0 0.045752470704351622 -0.36175452433973321 0 0.064716367060602256 -0.36696410283815639 0 0.056372104383058078 -0.34798263864643442 0 0.045752470704351622 -0.36175452433973321 0 0.034281258029730907 -0.3383617457822195 0 0.056372104383058078 -0.34798263864643442 0 0.045752470704351622 -0.36175452433973321 0 0.034281258029730907 -0.3383617457822195 0 0.045752470704351622 -0.36175452433973321 0 0.034281258029730907 -0.3383617457822195 0 0.045752470704351622 -0.36175452433973321 0 0.017894737123697772 -0.35993508370626359 0 0.031951973385333107 -0.3857832005238796 0 0.045752470704351622 -0.36175452433973321 0 0.017894737123697772 -0.35993508370626359 0 0.031951973385333107 -0.3857832005238796 0 0.01345801989319451 -0.37851461018506999 0 0.017894737123697772 -0.35993508370626359 0 0.034281258029730907 -0.3383617457822195 0 0.017894737123697772 -0.35993508370626359 0 0.013938549193566871 -0.33797033000678861 0 -0.006052289153830593 -0.34246752775901951 0 0.017894737123697772 -0.35993508370626359 0 0.013938549193566871 -0.33797033000678861 0 -0.006052289153830593 -0.34246752775901951 0 -0.0070999278623810006 -0.37038466258880981 0 0.017894737123697772 -0.35993508370626359 0 -0.0070999278623810006 -0.37038466258880981 0 0.01345801989319451 -0.37851461018506999 0 0.017894737123697772 -0.35993508370626359 0 0.034281258029730907 -0.3383617457822195 0 0.022810045355110199 -0.3149689672247058 0 0.034281258029730907 -0.3383617457822195 0 0.01749519224460926 -0.32496284364003591 0 0.022810045355110199 -0.3149689672247058 0 0.01749519224460926 -0.32496284364003591 0 0.01699403200972743 -0.31367921540614779 0 0.022810045355110199 -0.3149689672247058 0 0.01699403200972743 -0.31367921540614779 0 0.022810045355110199 -0.3149689672247058 0 0.02279568864926524 -0.30927346193558852 0 0.037297639051797123 -0.31638393869123338 0 0.022810045355110199 -0.3149689672247058 0 0.02937689745304153 -0.31056919698947949 0 0.034281258029730907 -0.3383617457822195 0 0.01749519224460926 -0.32496284364003591 0 0.013938549193566871 -0.33797033000678861 0 -0.006052289153830593 -0.34246752775901951 0 0.013938549193566871 -0.33797033000678861 0 0.0061281706768574404 -0.3253655865646834 0 0.01749519224460926 -0.32496284364003591 0 0.013938549193566871 -0.33797033000678861 0 0.0061281706768574404 -0.3253655865646834 0 0.01749519224460926 -0.32496284364003591 0 0.0061281706768574404 -0.3253655865646834 0 0.0112213373696365 -0.3184859859232429 0 0.01749519224460926 -0.32496284364003591 0 0.01699403200972743 -0.31367921540614779 0 0.0112213373696365 -0.3184859859232429 0 0.01699403200972743 -0.31367921540614779 0 0.0112213373696365 -0.3184859859232429 0 0.0099581614676340184 -0.30986601398847857 0 0.0112213373696365 -0.3184859859232429 0 0.0051242209150190194 -0.31313469937757182 0 0.0099581614676340184 -0.30986601398847857 0 -0.0050046504452801862 -0.31455039292922921 0 0.0061281706768574404 -0.3253655865646834 0 0.0051242209150190194 -0.31313469937757182 0 0.0061281706768574404 -0.3253655865646834 0 0.0112213373696365 -0.3184859859232429 0 0.0051242209150190194 -0.31313469937757182 0 0.0051242209150190194 -0.31313469937757182 0 0.0064827862787574259 -0.30433489661295221 0 0.0099581614676340184 -0.30986601398847857 0 -0.0050046504452801862 -0.31455039292922921 0 0.0051242209150190194 -0.31313469937757182 0 0.0014857439162202829 -0.30163961953822932 0 0.0051242209150190194 -0.31313469937757182 0 0.0014857439162202829 -0.30163961953822932 0 0.0064827862787574259 -0.30433489661295221 0 0.01699403200972743 -0.31367921540614779 0 0.0099217668276059406 -0.29907353287026561 0 0.014496102527578381 -0.29030676702027519 0 0.0014857439162202829 -0.30163961953822932 0 0.004838065355767654 -0.29794440145418821 0 0.0014310531297864919 -0.29324006875599529 0 0.004838065355767654 -0.29794440145418821 0 0.0064827862787574259 -0.30433489661295221 0 0.0099217668276059406 -0.29907353287026561 0 0.0014857439162202829 -0.30163961953822932 0 0.004838065355767654 -0.29794440145418821 0 0.0064827862787574259 -0.30433489661295221 0 0.0064827862787574259 -0.30433489661295221 0 0.0099217668276059406 -0.29907353287026561 0 0.0099581614676340184 -0.30986601398847857 0 0.01699403200972743 -0.31367921540614779 0 0.0099217668276059406 -0.29907353287026561 0 0.0099581614676340184 -0.30986601398847857 0 0.0058382633899371544 -0.2842275103588342 0 0.0079395088448345197 -0.27995465494010402 0 0.0051759561947027823 -0.28010057957113099 0 0.0058382633899371544 -0.2842275103588342 0 0.002786342644558007 -0.28257127437115609 0 0.0051759561947027823 -0.28010057957113099 0 0.0058382633899371544 -0.2842275103588342 0 0.002786342644558007 -0.28257127437115609 0 0.0015919351063143729 -0.28595620194625088 0 0.002786342644558007 -0.28257127437115609 0 0.000320648496330543 -0.28135187959247648 0 0.0015919351063143729 -0.28595620194625088 0 0.002786342644558007 -0.28257127437115609 0 0.000320648496330543 -0.28135187959247648 0 0.0051759561947027823 -0.28010057957113099 0 0.0058382633899371544 -0.2842275103588342 0 0.0015919351063143729 -0.28595620194625088 0 0.0051481916019487147 -0.29032685470139491 0 0.0058382633899371544 -0.2842275103588342 0 0.0051481916019487147 -0.29032685470139491 0 0.0098253041083862878 -0.28814305259389239 0 0.004838065355767654 -0.29794440145418821 0 0.0099217668276059406 -0.29907353287026561 0 0.0051481916019487147 -0.29032685470139491 0 0.0015919351063143729 -0.28595620194625088 0 0.0051481916019487147 -0.29032685470139491 0 0.0014310531297864919 -0.29324006875599529 0 0.004838065355767654 -0.29794440145418821 0 0.0051481916019487147 -0.29032685470139491 0 0.0014310531297864919 -0.29324006875599529 0 0.0099217668276059406 -0.29907353287026561 0 0.0051481916019487147 -0.29032685470139491 0 0.0098253041083862878 -0.28814305259389239 0 0.0099217668276059406 -0.29907353287026561 0 0.014496102527578381 -0.29030676702027519 0 0.0098253041083862878 -0.28814305259389239 0 0.0058382633899371544 -0.2842275103588342 0 0.0098253041083862878 -0.28814305259389239 0 0.01370497444645079 -0.28290439622684038 0 0.0058382633899371544 -0.2842275103588342 0 0.01370497444645079 -0.28290439622684038 0 0.0079395088448345197 -0.27995465494010402 0 0.014496102527578381 -0.29030676702027519 0 0.0098253041083862878 -0.28814305259389239 0 0.01370497444645079 -0.28290439622684038 0 0.014496102527578381 -0.29030676702027519 0 0.01370497444645079 -0.28290439622684038 0 0.017911229969499919 -0.28333858463439132 0 0.014496102527578381 -0.29030676702027519 0 0.01370497444645079 -0.28290439622684038 0 0.017911229969499919 -0.28333858463439132 0 0.017291934488230739 -0.30780796654212422 0 0.017911229969499919 -0.28333858463439132 0 0.02618656513952097 -0.29489596334891272 0 0.02236126715651179 -0.30005486142631332 0 0.014496102527578381 -0.29030676702027519 0 0.017911229969499919 -0.28333858463439132 0 0.017291934488230739 -0.30780796654212422 0 0.02618656513952097 -0.29489596334891272 0 0.02690189659213138 -0.28638753548788243 0 0.032709667491242253 -0.29166488220354447 0 0.02618656513952097 -0.29489596334891272 0 0.032564911578608087 -0.29936760712160321 0 0.032709667491242253 -0.29166488220354447 0 0.02690189659213138 -0.28638753548788243 0 0.032709667491242253 -0.29166488220354447 0 0.032934409978921317 -0.28278493728509752 0 0.017911229969499919 -0.28333858463439132 0 0.02618656513952097 -0.29489596334891272 0 0.02690189659213138 -0.28638753548788243 0 0.017911229969499919 -0.28333858463439132 0 0.02690189659213138 -0.28638753548788243 0 0.0274957664859053 -0.27924877245720559 0 0.02690189659213138 -0.28638753548788243 0 0.032934409978921317 -0.28278493728509752 0 0.0274957664859053 -0.27924877245720559 0 0.01699403200972743 -0.31367921540614779 0 0.014496102527578381 -0.29030676702027519 0 0.01699403200972743 -0.31367921540614779 0 0.014496102527578381 -0.29030676702027519 0 0.017291934488230739 -0.30780796654212422 0 0.017911229969499919 -0.28333858463439132 0 0.017291934488230739 -0.30780796654212422 0 0.02236126715651179 -0.30005486142631332 0 0.02279568864926524 -0.30927346193558852 0 0.017291934488230739 -0.30780796654212422 0 0.02236126715651179 -0.30005486142631332 0 0.01699403200972743 -0.31367921540614779 0 0.02279568864926524 -0.30927346193558852 0 0.017291934488230739 -0.30780796654212422 0 0.02618656513952097 -0.29489596334891272 0 0.02236126715651179 -0.30005486142631332 0 0.027620917536042101 -0.30495833067054978 0 0.02618656513952097 -0.29489596334891272 0 0.027620917536042101 -0.30495833067054978 0 0.032564911578608087 -0.29936760712160321 0 0.02279568864926524 -0.30927346193558852 0 0.02236126715651179 -0.30005486142631332 0 0.027620917536042101 -0.30495833067054978 0 0.02279568864926524 -0.30927346193558852 0 0.027620917536042101 -0.30495833067054978 0 0.02937689745304153 -0.31056919698947949 0 0.022810045355110199 -0.3149689672247058 0 0.02279568864926524 -0.30927346193558852 0 0.02937689745304153 -0.31056919698947949 0 0.037297639051797123 -0.31638393869123338 0 0.02937689745304153 -0.31056919698947949 0 0.037121736423052637 -0.3057134306234961 0 0.037297639051797123 -0.31638393869123338 0 0.037121736423052637 -0.3057134306234961 0 0.053560477607455831 -0.30670125821252969 0 0.037121736423052637 -0.3057134306234961 0 0.042546091362869388 -0.29605001154180682 0 0.053560477607455831 -0.30670125821252969 0 0.027620917536042101 -0.30495833067054978 0 0.02937689745304153 -0.31056919698947949 0 0.037121736423052637 -0.3057134306234961 0 0.037121736423052637 -0.3057134306234961 0 0.032564911578608087 -0.29936760712160321 0 0.042546091362869388 -0.29605001154180682 0 0.027620917536042101 -0.30495833067054978 0 0.037121736423052637 -0.3057134306234961 0 0.032564911578608087 -0.29936760712160321 0 0.032564911578608087 -0.29936760712160321 0 0.032709667491242253 -0.29166488220354447 0 0.042546091362869388 -0.29605001154180682 0 0.032709667491242253 -0.29166488220354447 0 0.032934409978921317 -0.28278493728509752 0 0.045950176700451748 -0.28375997481696191 0 0.032709667491242253 -0.29166488220354447 0 0.045950176700451748 -0.28375997481696191 0 0.042546091362869388 -0.29605001154180682 0 0.045950176700451748 -0.28375997481696191 0 0.042546091362869388 -0.29605001154180682 0 0.059339898902209073 -0.28936321648372182 0 0.045950176700451748 -0.28375997481696191 0 0.059339898902209073 -0.28936321648372182 0 0.060172332273088922 -0.27535741372482059 0 0.042546091362869388 -0.29605001154180682 0 0.059339898902209073 -0.28936321648372182 0 0.053560477607455831 -0.30670125821252969 0 0.050347596805600678 -0.25499520659891772 0 0.059907189982764779 -0.26352186264137939 0 0.049728268477426049 -0.2693567051295932 0 0.064592416027369579 -0.25387350061472919 0 0.050347596805600678 -0.25499520659891772 0 0.059907189982764779 -0.26352186264137939 0 0.059907189982764779 -0.26352186264137939 0 0.060172332273088922 -0.27535741372482059 0 0.049728268477426049 -0.2693567051295932 0 0.045950176700451748 -0.28375997481696191 0 0.060172332273088922 -0.27535741372482059 0 0.049728268477426049 -0.2693567051295932 0 0.049728268477426049 -0.2693567051295932 0 0.034742845505046673 -0.27245763073049101 0 0.037080308223933732 -0.26046963527854972 0 0.045950176700451748 -0.28375997481696191 0 0.049728268477426049 -0.2693567051295932 0 0.034742845505046673 -0.27245763073049101 0 0.032934409978921317 -0.28278493728509752 0 0.034742845505046673 -0.27245763073049101 0 0.0274957664859053 -0.27924877245720559 0 0.032934409978921317 -0.28278493728509752 0 0.045950176700451748 -0.28375997481696191 0 0.034742845505046673 -0.27245763073049101 0 0.034742845505046673 -0.27245763073049101 0 0.037080308223933732 -0.26046963527854972 0 0.02795489550682366 -0.26293084166227432 0 0.037080308223933732 -0.26046963527854972 0 0.02443234797044128 -0.25158256542750629 0 0.041678195104438667 -0.24748963371488081 0 0.049728268477426049 -0.2693567051295932 0 0.037080308223933732 -0.26046963527854972 0 0.050347596805600678 -0.25499520659891772 0 0.049728268477426049 -0.2693567051295932 0 0.037080308223933732 -0.26046963527854972 0 0.050347596805600678 -0.25499520659891772 0 0.037080308223933732 -0.26046963527854972 0 0.041678195104438667 -0.24748963371488081 0 0.037080308223933732 -0.26046963527854972 0 0.02443234797044128 -0.25158256542750629 0 0.02443234797044128 -0.25158256542750629 0 0.02795489550682366 -0.26293084166227432 0 0.018530525450769279 -0.25886920272665842 0 0.02795489550682366 -0.26293084166227432 0 0.018530525450769279 -0.25886920272665842 0 0.024988450383927219 -0.27127517414816588 0 0.037080308223933732 -0.26046963527854972 0 0.02443234797044128 -0.25158256542750629 0 0.02795489550682366 -0.26293084166227432 0 0.018530525450769279 -0.25886920272665842 0 0.018814840887928039 -0.24763543270171909 0 0.02443234797044128 -0.25158256542750629 0 0.018530525450769279 -0.25886920272665842 0 0.018814840887928039 -0.24763543270171909 0 0.02443234797044128 -0.25158256542750629 0 0.018530525450769279 -0.25886920272665842 0 0.017911229969499919 -0.28333858463439132 0 0.018530525450769279 -0.25886920272665842 0 0.024988450383927219 -0.27127517414816588 0 0.017911229969499919 -0.28333858463439132 0 0.018530525450769279 -0.25886920272665842 0 0.017911229969499919 -0.28333858463439132 0 0.018530525450769279 -0.25886920272665842 0 0.01199817304542276 -0.26693431863440342 0 0.034742845505046673 -0.27245763073049101 0 0.0274957664859053 -0.27924877245720559 0 0.024988450383927219 -0.27127517414816588 0 0.017911229969499919 -0.28333858463439132 0 0.0274957664859053 -0.27924877245720559 0 0.024988450383927219 -0.27127517414816588 0 0.034742845505046673 -0.27245763073049101 0 0.02795489550682366 -0.26293084166227432 0 0.024988450383927219 -0.27127517414816588 0 -0.0031700831309584491 -0.26566344111058909 0 0.000320648496330543 -0.28135187959247648 0 0.008049893640766961 -0.27180902977345511 0 0.01370497444645079 -0.28290439622684038 0 0.008049893640766961 -0.27180902977345511 0 0.01199817304542276 -0.26693431863440342 0 0.01370497444645079 -0.28290439622684038 0 0.01199817304542276 -0.26693431863440342 0 0.01370497444645079 -0.28290439622684038 0 0.017911229969499919 -0.28333858463439132 0 0.01199817304542276 -0.26693431863440342 0 0.01370497444645079 -0.28290439622684038 0 0.008049893640766961 -0.27180902977345511 0 0.01370497444645079 -0.28290439622684038 0 0.0079395088448345197 -0.27995465494010402 0 0.008049893640766961 -0.27180902977345511 0 0.008049893640766961 -0.27180902977345511 0 0.01199817304542276 -0.26693431863440342 0 0.000320648496330543 -0.28135187959247648 0 0.008049893640766961 -0.27180902977345511 0 0.0051759561947027823 -0.28010057957113099 0 0.000320648496330543 -0.28135187959247648 0 0.008049893640766961 -0.27180902977345511 0 0.0079395088448345197 -0.27995465494010402 0 0.008049893640766961 -0.27180902977345511 0 0.0051759561947027823 -0.28010057957113099 0 0.01199817304542276 -0.26693431863440342 0 0.0092146759469183132 -0.24088989154706639 0 -0.002551672636748862 -0.24918423983054741 0 0.01199817304542276 -0.26693431863440342 0 0.0092146759469183132 -0.24088989154706639 0 -0.002551672636748862 -0.24918423983054741 0 0.008049893640766961 -0.27180902977345511 0 -0.002551672636748862 -0.24918423983054741 0 0.008049893640766961 -0.27180902977345511 0 0.01199817304542276 -0.26693431863440342 0 0.018530525450769279 -0.25886920272665842 0 0.01199817304542276 -0.26693431863440342 0 0.0092146759469183132 -0.24088989154706639 0 -0.0031700831309584491 -0.26566344111058909 0 -0.002551672636748862 -0.24918423983054741 0 0.008049893640766961 -0.27180902977345511 0 0.018530525450769279 -0.25886920272665842 0 0.01199817304542276 -0.26693431863440342 0 -0.002309199691408137 -0.24272289981668541 0 -0.002551672636748862 -0.24918423983054741 0 0.0092146759469183132 -0.24088989154706639 0 0.018530525450769279 -0.25886920272665842 0 0.0092146759469183132 -0.24088989154706639 0 0.018814840887928039 -0.24763543270171909 0 0.0092146759469183132 -0.24088989154706639 0 0.018814840887928039 -0.24763543270171909 0 0.0092146759469183132 -0.24088989154706639 0 0.0081550825674195013 -0.230975563801114 0 0.0092146759469183132 -0.24088989154706639 0 0.0031312501796658611 -0.2366153817728677 0 0.0081550825674195013 -0.230975563801114 0 -0.002309199691408137 -0.24272289981668541 0 0.0092146759469183132 -0.24088989154706639 0 0.0031312501796658611 -0.2366153817728677 0 0.0092146759469183132 -0.24088989154706639 0 0.0031312501796658611 -0.2366153817728677 0 -0.002309199691408137 -0.24272289981668541 0 0.0031312501796658611 -0.2366153817728677 0 -0.0031065021843879131 -0.23223243465240129 0 0.0031312501796658611 -0.2366153817728677 0 -0.0031065021843879131 -0.23223243465240129 0 -0.00087582063982097553 -0.20452668205685129 0 0.0075652150232455567 -0.22545633324264649 0 -0.0031065021843879131 -0.23223243465240129 0 0.0075652150232455567 -0.22545633324264649 0 -0.0031065021843879131 -0.23223243465240129 0 0.0030037936503003438 -0.23151056137015341 0 0.0075652150232455567 -0.22545633324264649 0 -0.0031065021843879131 -0.23223243465240129 0 0.0031312501796658611 -0.2366153817728677 0 0.0030037936503003438 -0.23151056137015341 0 0.0030037936503003438 -0.23151056137015341 0 0.0075652150232455567 -0.22545633324264649 0 0.0081550825674195013 -0.230975563801114 0 0.0031312501796658611 -0.2366153817728677 0 0.0081550825674195013 -0.230975563801114 0 0.0031312501796658611 -0.2366153817728677 0 0.0030037936503003438 -0.23151056137015341 0 0.0081550825674195013 -0.230975563801114 0 0.0075652150232455567 -0.22545633324264649 0 0.02024105808119336 -0.21740769436441951 0 0.0081550825674195013 -0.230975563801114 0 0.02024105808119336 -0.21740769436441951 0 0.0075652150232455567 -0.22545633324264649 0 0.0081550825674195013 -0.230975563801114 0 0.02024105808119336 -0.21740769436441951 0 0.0092146759469183132 -0.24088989154706639 0 0.0081550825674195013 -0.230975563801114 0 0.019346678880467261 -0.22662163985786099 0 0.0075652150232455567 -0.22545633324264649 0 0.0081550825674195013 -0.230975563801114 0 0.028752594722460528 -0.2262271903581497 0 0.02024105808119336 -0.21740769436441951 0 0.036250745175255679 -0.21876228914566431 0 0.0081550825674195013 -0.230975563801114 0 0.019346678880467261 -0.22662163985786099 0 0.02024105808119336 -0.21740769436441951 0 0.019346678880467261 -0.22662163985786099 0 0.028752594722460528 -0.2262271903581497 0 0.02024105808119336 -0.21740769436441951 0 0.019346678880467261 -0.22662163985786099 0 0.028752594722460528 -0.2262271903581497 0 0.027141871756007189 -0.23694849337899951 0 0.019346678880467261 -0.22662163985786099 0 0.027141871756007189 -0.23694849337899951 0 0.018814840887928039 -0.24763543270171909 0 0.02443234797044128 -0.25158256542750629 0 0.027141871756007189 -0.23694849337899951 0 0.040782619719378813 -0.23139583504380351 0 0.0092146759469183132 -0.24088989154706639 0 0.019346678880467261 -0.22662163985786099 0 0.018814840887928039 -0.24763543270171909 0 0.019346678880467261 -0.22662163985786099 0 0.018814840887928039 -0.24763543270171909 0 0.02443234797044128 -0.25158256542750629 0 0.027141871756007189 -0.23694849337899951 0 0.018814840887928039 -0.24763543270171909 0 0.02443234797044128 -0.25158256542750629 0 0.018814840887928039 -0.24763543270171909 0 -0.00087582063982097553 -0.20452668205685129 0 0.0049457380200389261 -0.20094659768246981 0 0.00013481440495943361 -0.17759560879793659 0 0.0049457380200389261 -0.20094659768246981 0 0.002326261016831655 -0.17643686212229309 0 0.0085292779997215538 -0.18775414117759889 0 0.0049457380200389261 -0.20094659768246981 0 0.0059546607577080236 -0.18352636874058431 0 0.0098824592075063018 -0.19108056875364249 0 0.016034261900112982 -0.19092769310400459 0 0.01366510472054849 -0.18557460339829551 0 0.01324193116129265 -0.19516894730359341 0 0.0098824592075063018 -0.19108056875364249 0 0.016034261900112982 -0.19092769310400459 0 0.01324193116129265 -0.19516894730359341 0 0.0098824592075063018 -0.19108056875364249 0 0.0099392933698488062 -0.19668103192984529 0 0.0098824592075063018 -0.19108056875364249 0 0.0085292779997215538 -0.18775414117759889 0 0.01366510472054849 -0.18557460339829551 0 0.0098824592075063018 -0.19108056875364249 0 0.0085292779997215538 -0.18775414117759889 0 0.0049457380200389261 -0.20094659768246981 0 0.0049457380200389261 -0.20094659768246981 0 0.0099392933698488062 -0.19668103192984529 0 0.012591042409193899 -0.20096778549068589 0 0.0098824592075063018 -0.19108056875364249 0 0.0049457380200389261 -0.20094659768246981 0 0.0099392933698488062 -0.19668103192984529 0 0.01324193116129265 -0.19516894730359341 0 0.012591042409193899 -0.20096778549068589 0 0.01776259891980126 -0.1961876572397884 0 0.01324193116129265 -0.19516894730359341 0 0.0099392933698488062 -0.19668103192984529 0 0.012591042409193899 -0.20096778549068589 0 0.0075652150232455567 -0.22545633324264649 0 0.0049457380200389261 -0.20094659768246981 0 0.0075652150232455567 -0.22545633324264649 0 0.0049457380200389261 -0.20094659768246981 0 0.0134326623124038 -0.2100357671332771 0 -0.00087582063982097553 -0.20452668205685129 0 0.0075652150232455567 -0.22545633324264649 0 0.0049457380200389261 -0.20094659768246981 0 0.0049457380200389261 -0.20094659768246981 0 0.012591042409193899 -0.20096778549068589 0 0.0134326623124038 -0.2100357671332771 0 0.012591042409193899 -0.20096778549068589 0 0.0134326623124038 -0.2100357671332771 0 0.01609572918976342 -0.20543077392715911 0 0.0075652150232455567 -0.22545633324264649 0 0.0134326623124038 -0.2100357671332771 0 0.02024105808119336 -0.21740769436441951 0 0.02024105808119336 -0.21740769436441951 0 0.042119696604798508 -0.20351565895354259 0 0.02024105808119336 -0.21740769436441951 0 0.03828525624081526 -0.197151048598385 0 0.02024105808119336 -0.21740769436441951 0 0.025178125881277331 -0.20510695066224849 0 0.03828525624081526 -0.197151048598385 0 0.0134326623124038 -0.2100357671332771 0 0.02024105808119336 -0.21740769436441951 0 0.01885550048650916 -0.2083715565747627 0 0.02024105808119336 -0.21740769436441951 0 0.025178125881277331 -0.20510695066224849 0 0.01885550048650916 -0.2083715565747627 0 0.025178125881277331 -0.20510695066224849 0 0.01885550048650916 -0.2083715565747627 0 0.01950371155094684 -0.2023479865099107 0 0.0134326623124038 -0.2100357671332771 0 0.01885550048650916 -0.2083715565747627 0 0.01609572918976342 -0.20543077392715911 0 0.01885550048650916 -0.2083715565747627 0 0.01609572918976342 -0.20543077392715911 0 0.01950371155094684 -0.2023479865099107 0 0.012591042409193899 -0.20096778549068589 0 0.01950371155094684 -0.2023479865099107 0 0.01776259891980126 -0.1961876572397884 0 0.012591042409193899 -0.20096778549068589 0 0.01609572918976342 -0.20543077392715911 0 0.01950371155094684 -0.2023479865099107 0 0.01950371155094684 -0.2023479865099107 0 0.01776259891980126 -0.1961876572397884 0 0.023644653724715529 -0.19868315255065611 0 0.01776259891980126 -0.1961876572397884 0 0.023644653724715529 -0.19868315255065611 0 0.022258026223151262 -0.19220512564754849 0 0.025178125881277331 -0.20510695066224849 0 0.01950371155094684 -0.2023479865099107 0 0.023644653724715529 -0.19868315255065611 0 0.025178125881277331 -0.20510695066224849 0 0.029380327624970389 -0.19911919892392449 0 0.03828525624081526 -0.197151048598385 0 0.025178125881277331 -0.20510695066224849 0 0.029380327624970389 -0.19911919892392449 0 0.023644653724715529 -0.19868315255065611 0 0.029380327624970389 -0.19911919892392449 0 0.028071003261256201 -0.1942804515191327 0 0.032495425892055202 -0.19598398683425261 0 0.029380327624970389 -0.19911919892392449 0 0.023644653724715529 -0.19868315255065611 0 0.028071003261256201 -0.1942804515191327 0 0.023644653724715529 -0.19868315255065611 0 0.028071003261256201 -0.1942804515191327 0 0.022258026223151262 -0.19220512564754849 0 0.028071003261256201 -0.1942804515191327 0 0.032784883211337067 -0.19155706646391771 0 0.032495425892055202 -0.19598398683425261 0 0.028071003261256201 -0.1942804515191327 0 0.027516230561243318 -0.18770279133546991 0 0.032784883211337067 -0.19155706646391771 0 0.028071003261256201 -0.1942804515191327 0 0.027516230561243318 -0.18770279133546991 0 0.022258026223151262 -0.19220512564754849 0 0.027516230561243318 -0.18770279133546991 0 0.022258026223151262 -0.19220512564754849 0 0.020299448487014479 -0.1867890277921701 0 0.01776259891980126 -0.1961876572397884 0 0.022258026223151262 -0.19220512564754849 0 0.016034261900112982 -0.19092769310400459 0 0.01324193116129265 -0.19516894730359341 0 0.01776259891980126 -0.1961876572397884 0 0.016034261900112982 -0.19092769310400459 0 0.022258026223151262 -0.19220512564754849 0 0.016034261900112982 -0.19092769310400459 0 0.020299448487014479 -0.1867890277921701 0 0.016034261900112982 -0.19092769310400459 0 0.020299448487014479 -0.1867890277921701 0 0.01366510472054849 -0.18557460339829551 0 0.032784883211337067 -0.19155706646391771 0 0.03828525624081526 -0.197151048598385 0 0.034934833246328047 -0.18424443092605339 0 0.027516230561243318 -0.18770279133546991 0 0.032784883211337067 -0.19155706646391771 0 0.034934833246328047 -0.18424443092605339 0 0.032784883211337067 -0.19155706646391771 0 0.03828525624081526 -0.197151048598385 0 0.032495425892055202 -0.19598398683425261 0 0.029380327624970389 -0.19911919892392449 0 0.03828525624081526 -0.197151048598385 0 0.032495425892055202 -0.19598398683425261 0 0.02024105808119336 -0.21740769436441951 0 0.03828525624081526 -0.197151048598385 0 0.042119696604798508 -0.20351565895354259 0 0.02024105808119336 -0.21740769436441951 0 0.042119696604798508 -0.20351565895354259 0 0.036250745175255679 -0.21876228914566431 0 0.042119696604798508 -0.20351565895354259 0 0.047966551590419383 -0.21637456006014791 0 0.036250745175255679 -0.21876228914566431 0 0.047966551590419383 -0.21637456006014791 0 0.059771456076752438 -0.21337061057231579 0 0.055478977061962233 -0.20504102357742379 0 0.047966551590419383 -0.21637456006014791 0 0.059771456076752438 -0.21337061057231579 0 0.056010943433504198 -0.2260635753025963 0 0.059771456076752438 -0.21337061057231579 0 0.055478977061962233 -0.20504102357742379 0 0.066714671644623538 -0.20293462137867591 0 0.042119696604798508 -0.20351565895354259 0 0.047966551590419383 -0.21637456006014791 0 0.055478977061962233 -0.20504102357742379 0 0.03828525624081526 -0.197151048598385 0 0.06399833512840325 -0.18962362354266521 0 0.056329454400437753 -0.17689440283235089 0 0.042119696604798508 -0.20351565895354259 0 0.055478977061962233 -0.20504102357742379 0 0.06399833512840325 -0.18962362354266521 0 0.042119696604798508 -0.20351565895354259 0 0.06399833512840325 -0.18962362354266521 0 0.03828525624081526 -0.197151048598385 0 0.042119696604798508 -0.20351565895354259 0 0.06399833512840325 -0.18962362354266521 0 0.055478977061962233 -0.20504102357742379 0 0.06399833512840325 -0.18962362354266521 0 0.066714671644623538 -0.20293462137867591 0 0.041678195104438667 -0.24748963371488081 0 0.040782619719378813 -0.23139583504380351 0 0.055748102802838817 -0.23900492622562691 0 0.02443234797044128 -0.25158256542750629 0 0.040782619719378813 -0.23139583504380351 0 0.02443234797044128 -0.25158256542750629 0 0.041678195104438667 -0.24748963371488081 0 0.040782619719378813 -0.23139583504380351 0 0.028752594722460528 -0.2262271903581497 0 0.027141871756007189 -0.23694849337899951 0 0.040782619719378813 -0.23139583504380351 0 0.028752594722460528 -0.2262271903581497 0 0.036250745175255679 -0.21876228914566431 0 0.040782619719378813 -0.23139583504380351 0 0.047966551590419383 -0.21637456006014791 0 0.036250745175255679 -0.21876228914566431 0 0.040782619719378813 -0.23139583504380351 0 0.040782619719378813 -0.23139583504380351 0 0.056010943433504198 -0.2260635753025963 0 0.055748102802838817 -0.23900492622562691 0 0.047966551590419383 -0.21637456006014791 0 0.040782619719378813 -0.23139583504380351 0 0.056010943433504198 -0.2260635753025963 0 0.059771456076752438 -0.21337061057231579 0 0.056010943433504198 -0.2260635753025963 0 0.068108202654691405 -0.220600567098893 0 0.056010943433504198 -0.2260635753025963 0 0.055748102802838817 -0.23900492622562691 0 0.068629048167386519 -0.23182755555620241 0 0.064592416027369579 -0.25387350061472919 0 0.050347596805600678 -0.25499520659891772 0 0.055748102802838817 -0.23900492622562691 0 0.050347596805600678 -0.25499520659891772 0 0.041678195104438667 -0.24748963371488081 0 0.055748102802838817 -0.23900492622562691 0 0.064592416027369579 -0.25387350061472919 0 0.055748102802838817 -0.23900492622562691 0 0.068241726394607183 -0.24238974800193491 0 0.064592416027369579 -0.25387350061472919 0 0.089104683742629823 -0.25186236383003768 0 0.068241726394607183 -0.24238974800193491 0 0.055748102802838817 -0.23900492622562691 0 0.068241726394607183 -0.24238974800193491 0 0.068629048167386519 -0.23182755555620241 0 0.068241726394607183 -0.24238974800193491 0 0.082372433331934058 -0.23696481675495451 0 0.068629048167386519 -0.23182755555620241 0 0.089104683742629823 -0.25186236383003768 0 0.082372433331934058 -0.23696481675495451 0 0.09750170390633553 -0.22903325908424119 0 0.089104683742629823 -0.25186236383003768 0 0.068241726394607183 -0.24238974800193491 0 0.089104683742629823 -0.25186236383003768 0 0.068241726394607183 -0.24238974800193491 0 0.082372433331934058 -0.23696481675495451 0 0.079761919339725207 -0.22008991635524919 0 0.090894790512065213 -0.20835227715429719 0 0.09750170390633553 -0.22903325908424119 0 0.082372433331934058 -0.23696481675495451 0 0.079761919339725207 -0.22008991635524919 0 0.09750170390633553 -0.22903325908424119 0 0.079761919339725207 -0.22008991635524919 0 0.068629048167386519 -0.23182755555620241 0 0.082372433331934058 -0.23696481675495451 0 0.079761919339725207 -0.22008991635524919 0 0.068629048167386519 -0.23182755555620241 0 0.079761919339725207 -0.22008991635524919 0 0.068629048167386519 -0.23182755555620241 0 0.068108202654691405 -0.220600567098893 0 0.056010943433504198 -0.2260635753025963 0 0.068629048167386519 -0.23182755555620241 0 0.068108202654691405 -0.220600567098893 0 0.059771456076752438 -0.21337061057231579 0 0.068108202654691405 -0.220600567098893 0 0.070045743855220249 -0.212743654042615 0 0.059771456076752438 -0.21337061057231579 0 0.070045743855220249 -0.212743654042615 0 0.066714671644623538 -0.20293462137867591 0 0.070045743855220249 -0.212743654042615 0 0.075872469560308561 -0.2067225548079408 0 0.066714671644623538 -0.20293462137867591 0 0.079761919339725207 -0.22008991635524919 0 0.070045743855220249 -0.212743654042615 0 0.075872469560308561 -0.2067225548079408 0 0.079761919339725207 -0.22008991635524919 0 0.068108202654691405 -0.220600567098893 0 0.070045743855220249 -0.212743654042615 0 0.06399833512840325 -0.18962362354266521 0 0.066714671644623538 -0.20293462137867591 0 0.075445735843100742 -0.19533972858262599 0 0.075872469560308561 -0.2067225548079408 0 0.066714671644623538 -0.20293462137867591 0 0.075445735843100742 -0.19533972858262599 0 0.06399833512840325 -0.18962362354266521 0 0.075445735843100742 -0.19533972858262599 0 0.071593842318696949 -0.1824001613223647 0 0.075445735843100742 -0.19533972858262599 0 0.090894790512065213 -0.20835227715429719 0 0.082634221536064673 -0.18249501711030749 0 0.090894790512065213 -0.20835227715429719 0 0.096629506669042478 -0.1819964024634701 0 0.082634221536064673 -0.18249501711030749 0 0.090894790512065213 -0.20835227715429719 0 0.082634221536064673 -0.18249501711030749 0 0.079761919339725207 -0.22008991635524919 0 0.090894790512065213 -0.20835227715429719 0 0.079761919339725207 -0.22008991635524919 0 0.075872469560308561 -0.2067225548079408 0 0.090894790512065213 -0.20835227715429719 0 0.075872469560308561 -0.2067225548079408 0 0.075445735843100742 -0.19533972858262599 0 0.090894790512065213 -0.20835227715429719 0 0.090894790512065213 -0.20835227715429719 0 0.10876908588037811 -0.2120604579685543 0 0.10737622789356149 -0.19097552299066331 0 0.090894790512065213 -0.20835227715429719 0 0.09750170390633553 -0.22903325908424119 0 0.090894790512065213 -0.20835227715429719 0 0.10876908588037811 -0.2120604579685543 0 0.09750170390633553 -0.22903325908424119 0 0.090894790512065213 -0.20835227715429719 0 0.10737622789356149 -0.19097552299066331 0 0.090894790512065213 -0.20835227715429719 0 0.10737622789356149 -0.19097552299066331 0 0.096629506669042478 -0.1819964024634701 0 0.10737622789356149 -0.19097552299066331 0 0.1235098410480293 -0.1897733682860277 0 0.12529485837298551 -0.2052603223955643 0 0.10876908588037811 -0.2120604579685543 0 0.10737622789356149 -0.19097552299066331 0 0.12529485837298551 -0.2052603223955643 0 0.10876908588037811 -0.2120604579685543 0 0.12183539310184011 -0.22622498648806369 0 0.12529485837298551 -0.2052603223955643 0 0.12183539310184011 -0.22622498648806369 0 0.1123268442063263 -0.2422076389170805 0 0.09750170390633553 -0.22903325908424119 0 0.12183539310184011 -0.22622498648806369 0 0.1123268442063263 -0.2422076389170805 0 0.1369019475988357 -0.2498452913983702 0 0.089104683742629823 -0.25186236383003768 0 0.1123268442063263 -0.2422076389170805 0 0.09750170390633553 -0.22903325908424119 0 0.10876908588037811 -0.2120604579685543 0 0.12183539310184011 -0.22622498648806369 0 0.09750170390633553 -0.22903325908424119 0 0.10792504489528271 -0.1436606208568707 0 0.098337381410934246 -0.15519886427276169 0 0.1177942791398789 -0.15530355353830849 0 0.10792504489528271 -0.1436606208568707 0 0.098337381410934246 -0.15519886427276169 0 0.093639805884414631 -0.1350093289304051 0 0.10792504489528271 -0.1436606208568707 0 0.093639805884414631 -0.1350093289304051 0 0.112905959208769 -0.1133809007944933 0 0.10792504489528271 -0.1436606208568707 0 0.12319275534426111 -0.13963038495700819 0 0.112905959208769 -0.1133809007944933 0 0.12319275534426111 -0.13963038495700819 0 0.1177942791398789 -0.15530355353830849 0 0.1273970520991638 -0.1532817867802074 0 0.10792504489528271 -0.1436606208568707 0 0.12319275534426111 -0.13963038495700819 0 0.1177942791398789 -0.15530355353830849 0 0.1238576652750592 -0.17359876882703071 0 0.1090159651295127 -0.16900761211569851 0 0.1307563894025707 -0.1664409111024284 0 0.1090159651295127 -0.16900761211569851 0 0.1307563894025707 -0.1664409111024284 0 0.1177942791398789 -0.15530355353830849 0 0.1090159651295127 -0.16900761211569851 0 0.1307563894025707 -0.1664409111024284 0 0.10737622789356149 -0.19097552299066331 0 0.1235098410480293 -0.1897733682860277 0 0.1238576652750592 -0.17359876882703071 0 0.10737622789356149 -0.19097552299066331 0 0.1238576652750592 -0.17359876882703071 0 0.1090159651295127 -0.16900761211569851 0 0.10737622789356149 -0.19097552299066331 0 0.1238576652750592 -0.17359876882703071 0 0.10737622789356149 -0.19097552299066331 0 0.096629506669042478 -0.1819964024634701 0 0.1090159651295127 -0.16900761211569851 0 0.096629506669042478 -0.1819964024634701 0 0.1090159651295127 -0.16900761211569851 0 0.087275540856454628 -0.1715743131289687 0 0.098337381410934246 -0.15519886427276169 0 0.1090159651295127 -0.16900761211569851 0 0.087275540856454628 -0.1715743131289687 0 0.098337381410934246 -0.15519886427276169 0 0.1177942791398789 -0.15530355353830849 0 0.1090159651295127 -0.16900761211569851 0 0.1090159651295127 -0.16900761211569851 0 0.087275540856454628 -0.1715743131289687 0 0.098337381410934246 -0.15519886427276169 0 0.087275540856454628 -0.1715743131289687 0 0.074373652560062092 -0.15663775706631849 0 0.082634221536064673 -0.18249501711030749 0 0.074373652560062092 -0.15663775706631849 0 0.087275540856454628 -0.1715743131289687 0 0.082634221536064673 -0.18249501711030749 0 0.074373652560062092 -0.15663775706631849 0 0.096629506669042478 -0.1819964024634701 0 0.087275540856454628 -0.1715743131289687 0 0.082634221536064673 -0.18249501711030749 0 0.075445735843100742 -0.19533972858262599 0 0.082634221536064673 -0.18249501711030749 0 0.071593842318696949 -0.1824001613223647 0 0.082634221536064673 -0.18249501711030749 0 0.071593842318696949 -0.1824001613223647 0 0.071137209079861638 -0.17191982145859261 0 0.071593842318696949 -0.1824001613223647 0 0.071137209079861638 -0.17191982145859261 0 0.056329454400437753 -0.17689440283235089 0 0.06399833512840325 -0.18962362354266521 0 0.071593842318696949 -0.1824001613223647 0 0.056329454400437753 -0.17689440283235089 0 0.082634221536064673 -0.18249501711030749 0 0.071137209079861638 -0.17191982145859261 0 0.074373652560062092 -0.15663775706631849 0 0.074373652560062092 -0.15663775706631849 0 0.056329454400437753 -0.17689440283235089 0 0.071137209079861638 -0.17191982145859261 0 0.074373652560062092 -0.15663775706631849 0 0.056329454400437753 -0.17689440283235089 0 0.074373652560062092 -0.15663775706631849 0 0.068037275856194429 -0.1368036099700822 0 0.057238716073529518 -0.14976405586003039 0 0.074373652560062092 -0.15663775706631849 0 0.068037275856194429 -0.1368036099700822 0 0.074373652560062092 -0.15663775706631849 0 0.093639805884414631 -0.1350093289304051 0 0.074373652560062092 -0.15663775706631849 0 0.093639805884414631 -0.1350093289304051 0 0.068037275856194429 -0.1368036099700822 0 0.098337381410934246 -0.15519886427276169 0 0.074373652560062092 -0.15663775706631849 0 0.093639805884414631 -0.1350093289304051 0 0.093639805884414631 -0.1350093289304051 0 0.068037275856194429 -0.1368036099700822 0 0.074088235244244849 -0.1151598881146773 0 0.068037275856194429 -0.1368036099700822 0 0.048343327885973342 -0.1376607601685037 0 0.051443199373898567 -0.1204896733513115 0 0.068037275856194429 -0.1368036099700822 0 0.048343327885973342 -0.1376607601685037 0 0.057238716073529518 -0.14976405586003039 0 0.074373652560062092 -0.15663775706631849 0 0.057238716073529518 -0.14976405586003039 0 0.051448738971843003 -0.1616204158297366 0 0.057238716073529518 -0.14976405586003039 0 0.043482311448939999 -0.15063682519479629 0 0.051448738971843003 -0.1616204158297366 0 0.048343327885973342 -0.1376607601685037 0 0.057238716073529518 -0.14976405586003039 0 0.043482311448939999 -0.15063682519479629 0 0.043482311448939999 -0.15063682519479629 0 0.031666305584476757 -0.14012137478838929 0 0.031579969327171227 -0.16038476915116689 0 0.048343327885973342 -0.1376607601685037 0 0.043482311448939999 -0.15063682519479629 0 0.031666305584476757 -0.14012137478838929 0 0.048343327885973342 -0.1376607601685037 0 0.036683546128011633 -0.12671383904542469 0 0.051443199373898567 -0.1204896733513115 0 0.048343327885973342 -0.1376607601685037 0 0.036683546128011633 -0.12671383904542469 0 0.031666305584476757 -0.14012137478838929 0 0.03828525624081526 -0.197151048598385 0 0.056329454400437753 -0.17689440283235089 0 0.074373652560062092 -0.15663775706631849 0 0.056329454400437753 -0.17689440283235089 0 0.051448738971843003 -0.1616204158297366 0 0.056329454400437753 -0.17689440283235089 0 0.051448738971843003 -0.1616204158297366 0 0.045688330020917468 -0.17540468487375671 0 0.043482311448939999 -0.15063682519479629 0 0.051448738971843003 -0.1616204158297366 0 0.031579969327171227 -0.16038476915116689 0 0.051448738971843003 -0.1616204158297366 0 0.031579969327171227 -0.16038476915116689 0 0.045688330020917468 -0.17540468487375671 0 0.031579969327171227 -0.16038476915116689 0 0.045688330020917468 -0.17540468487375671 0 0.031579969327171227 -0.16038476915116689 0 0.045688330020917468 -0.17540468487375671 0 0.032882988694005369 -0.17404179602742931 0 0.03828525624081526 -0.197151048598385 0 0.056329454400437753 -0.17689440283235089 0 0.045688330020917468 -0.17540468487375671 0 0.03828525624081526 -0.197151048598385 0 0.045688330020917468 -0.17540468487375671 0 0.034934833246328047 -0.18424443092605339 0 0.045688330020917468 -0.17540468487375671 0 0.032882988694005369 -0.17404179602742931 0 0.034934833246328047 -0.18424443092605339 0 0.032882988694005369 -0.17404179602742931 0 0.034934833246328047 -0.18424443092605339 0 0.028621173795873131 -0.18105499821633531 0 0.018629787969523821 -0.18125989128642039 0 0.020299448487014479 -0.1867890277921701 0 0.01366510472054849 -0.18557460339829551 0 0.018629787969523821 -0.18125989128642039 0 0.023889305679515891 -0.18289619123855869 0 0.02388251079827303 -0.17638978155416529 0 0.018629787969523821 -0.18125989128642039 0 0.020299448487014479 -0.1867890277921701 0 0.023889305679515891 -0.18289619123855869 0 0.027516230561243318 -0.18770279133546991 0 0.028621173795873131 -0.18105499821633531 0 0.023889305679515891 -0.18289619123855869 0 0.027516230561243318 -0.18770279133546991 0 0.020299448487014479 -0.1867890277921701 0 0.023889305679515891 -0.18289619123855869 0 0.027516230561243318 -0.18770279133546991 0 0.034934833246328047 -0.18424443092605339 0 0.028621173795873131 -0.18105499821633531 0 0.028621173795873131 -0.18105499821633531 0 0.023889305679515891 -0.18289619123855869 0 0.02388251079827303 -0.17638978155416529 0 0.032882988694005369 -0.17404179602742931 0 0.028621173795873131 -0.18105499821633531 0 0.02388251079827303 -0.17638978155416529 0 0.032882988694005369 -0.17404179602742931 0 0.02388251079827303 -0.17638978155416529 0 0.025663657133298729 -0.16836397490439661 0 0.018629787969523821 -0.18125989128642039 0 0.02388251079827303 -0.17638978155416529 0 0.016744013669873329 -0.17646066784830861 0 0.018629787969523821 -0.18125989128642039 0 0.016744013669873329 -0.17646066784830861 0 0.012716535403566379 -0.179798477657856 0 0.02388251079827303 -0.17638978155416529 0 0.016744013669873329 -0.17646066784830861 0 0.017033451361837849 -0.1702136052927451 0 0.02388251079827303 -0.17638978155416529 0 0.017033451361837849 -0.1702136052927451 0 0.025663657133298729 -0.16836397490439661 0 0.017033451361837849 -0.1702136052927451 0 0.025663657133298729 -0.16836397490439661 0 0.017132406232319201 -0.15844025946753951 0 0.031579969327171227 -0.16038476915116689 0 0.032882988694005369 -0.17404179602742931 0 0.025663657133298729 -0.16836397490439661 0 0.031579969327171227 -0.16038476915116689 0 0.025663657133298729 -0.16836397490439661 0 0.017132406232319201 -0.15844025946753951 0 -0.00029321598637492558 -0.1519271265621164 0 0.0069045142837660372 -0.16450819743325271 0 0.002326261016831655 -0.17643686212229309 0 -0.00029321598637492558 -0.1519271265621164 0 0.017132406232319201 -0.15844025946753951 0 0.0069045142837660372 -0.16450819743325271 0 -0.00029321598637492558 -0.1519271265621164 0 0.002326261016831655 -0.17643686212229309 0 0.0069045142837660372 -0.16450819743325271 0 0.0072041890365963524 -0.17388227251172969 0 0.002326261016831655 -0.17643686212229309 0 0.0069045142837660372 -0.16450819743325271 0 0.010154048231353191 -0.17115616820469359 0 0.0072041890365963524 -0.17388227251172969 0 0.017033451361837849 -0.1702136052927451 0 0.0069045142837660372 -0.16450819743325271 0 0.010154048231353191 -0.17115616820469359 0 0.017033451361837849 -0.1702136052927451 0 0.017132406232319201 -0.15844025946753951 0 0.0069045142837660372 -0.16450819743325271 0 0.0049457380200389261 -0.20094659768246981 0 0.002326261016831655 -0.17643686212229309 0 0.0059546607577080236 -0.18352636874058431 0 0.0049457380200389261 -0.20094659768246981 0 0.00013481440495943361 -0.17759560879793659 0 0.002326261016831655 -0.17643686212229309 0 0.016744013669873329 -0.17646066784830861 0 0.017033451361837849 -0.1702136052927451 0 0.01199624860200183 -0.17503895265842509 0 0.017033451361837849 -0.1702136052927451 0 0.010154048231353191 -0.17115616820469359 0 0.01199624860200183 -0.17503895265842509 0 0.016744013669873329 -0.17646066784830861 0 0.01199624860200183 -0.17503895265842509 0 0.012716535403566379 -0.179798477657856 0 0.01199624860200183 -0.17503895265842509 0 0.008125253908783877 -0.17872252443521769 0 0.0072041890365963524 -0.17388227251172969 0 0.01199624860200183 -0.17503895265842509 0 0.008125253908783877 -0.17872252443521769 0 0.012716535403566379 -0.179798477657856 0 0.010154048231353191 -0.17115616820469359 0 0.01199624860200183 -0.17503895265842509 0 0.0072041890365963524 -0.17388227251172969 0 0.008125253908783877 -0.17872252443521769 0 0.0072041890365963524 -0.17388227251172969 0 0.0059025911799799784 -0.17814200695245619 0 0.002326261016831655 -0.17643686212229309 0 0.0059025911799799784 -0.17814200695245619 0 0.0059546607577080236 -0.18352636874058431 0 0.0072041890365963524 -0.17388227251172969 0 0.002326261016831655 -0.17643686212229309 0 0.0059025911799799784 -0.17814200695245619 0 0.008125253908783877 -0.17872252443521769 0 0.0059025911799799784 -0.17814200695245619 0 0.0059546607577080236 -0.18352636874058431 0 0.0085292779997215538 -0.18775414117759889 0 0.009876182918511861 -0.18296740929988431 0 0.01366510472054849 -0.18557460339829551 0 0.0085292779997215538 -0.18775414117759889 0 0.0059546607577080236 -0.18352636874058431 0 0.009876182918511861 -0.18296740929988431 0 0.008125253908783877 -0.17872252443521769 0 0.009876182918511861 -0.18296740929988431 0 0.012716535403566379 -0.179798477657856 0 0.008125253908783877 -0.17872252443521769 0 0.0059546607577080236 -0.18352636874058431 0 0.009876182918511861 -0.18296740929988431 0 0.018629787969523821 -0.18125989128642039 0 0.012716535403566379 -0.179798477657856 0 0.01366510472054849 -0.18557460339829551 0 0.009876182918511861 -0.18296740929988431 0 0.012716535403566379 -0.179798477657856 0 0.01366510472054849 -0.18557460339829551 0 0.01747160863342449 -0.14536485342857741 0 0.0070531049726929827 -0.13427320002273149 0 0.022405976644837251 -0.1242135834057001 0 0.036683546128011633 -0.12671383904542469 0 0.031666305584476757 -0.14012137478838929 0 0.022405976644837251 -0.1242135834057001 0 0.031666305584476757 -0.14012137478838929 0 0.01747160863342449 -0.14536485342857741 0 0.022405976644837251 -0.1242135834057001 0 0.031666305584476757 -0.14012137478838929 0 0.01747160863342449 -0.14536485342857741 0 0.031666305584476757 -0.14012137478838929 0 0.031579969327171227 -0.16038476915116689 0 0.01747160863342449 -0.14536485342857741 0 0.031579969327171227 -0.16038476915116689 0 0.01747160863342449 -0.14536485342857741 0 0.031579969327171227 -0.16038476915116689 0 0.017132406232319201 -0.15844025946753951 0 0.01747160863342449 -0.14536485342857741 0 -0.00029321598637492558 -0.1519271265621164 0 0.017132406232319201 -0.15844025946753951 0 0.01747160863342449 -0.14536485342857741 0 -0.00029321598637492558 -0.1519271265621164 0 0.01747160863342449 -0.14536485342857741 0 0.0070531049726929827 -0.13427320002273149 0 -0.00029321598637492558 -0.1519271265621164 0 0.01747160863342449 -0.14536485342857741 0 -0.003365398688040238 -0.12318154661688729 0 -0.00029321598637492558 -0.1519271265621164 0 0.0070531049726929827 -0.13427320002273149 0 -0.003365398688040238 -0.12318154661688729 0 0.0070531049726929827 -0.13427320002273149 0 0.0096353595797366628 -0.1177586483662684 0 0.0070531049726929827 -0.13427320002273149 0 0.0096353595797366628 -0.1177586483662684 0 0.022405976644837251 -0.1242135834057001 0 0.01747160863342449 -0.14536485342857741 0 0.0070531049726929827 -0.13427320002273149 0 -0.003365398688040238 -0.12318154661688729 0 0.0070531049726929827 -0.13427320002273149 0 -0.0042178102837748012 -0.1152057626057062 0 0.0096353595797366628 -0.1177586483662684 0 0.018497602973985429 -0.10390643231313131 0 -0.0042178102837748012 -0.1152057626057062 0 -0.003365398688040238 -0.12318154661688729 0 0.0096353595797366628 -0.1177586483662684 0 -0.0042178102837748012 -0.1152057626057062 0 0.018497602973985429 -0.10390643231313131 0 0.0096353595797366628 -0.1177586483662684 0 0.022405976644837251 -0.1242135834057001 0 0.018497602973985429 -0.10390643231313131 0 0.022405976644837251 -0.1242135834057001 0 0.018497602973985429 -0.10390643231313131 0 0.035889483117247892 -0.1110170682638876 0 0.018497602973985429 -0.10390643231313131 0 0.041213016231746141 -0.092607102020557608 0 0.018497602973985429 -0.10390643231313131 0 0.025164505554147409 -0.088363954385675236 0 0.041213016231746141 -0.092607102020557608 0 -0.0063575468247982752 -0.095184828379244052 0 0.018497602973985429 -0.10390643231313131 0 0.0093292929231258565 -0.083383488769817202 0 -0.0063575468247982752 -0.095184828379244052 0 -0.0042178102837748012 -0.1152057626057062 0 0.018497602973985429 -0.10390643231313131 0 -0.008497283365819109 -0.075163894152781574 0 0.0093292929231258565 -0.083383488769817202 0 0.011137116921547461 -0.069263182716445465 0 -0.008497283365819109 -0.075163894152781574 0 0.011137116921547461 -0.069263182716445465 0 0.002974761349226791 -0.057600111844622673 0 0.0093292929231258565 -0.083383488769817202 0 0.011137116921547461 -0.069263182716445465 0 0.025151296679735868 -0.071763989857217797 0 0.011137116921547461 -0.069263182716445465 0 0.025151296679735868 -0.071763989857217797 0 0.021401024806239 -0.055359675166318179 0 0.025151296679735868 -0.071763989857217797 0 0.03991228784683809 -0.063564952647474054 0 0.021401024806239 -0.055359675166318179 0 0.018497602973985429 -0.10390643231313131 0 0.0093292929231258565 -0.083383488769817202 0 0.025164505554147409 -0.088363954385675236 0 0.0093292929231258565 -0.083383488769817202 0 0.025151296679735868 -0.071763989857217797 0 0.025164505554147409 -0.088363954385675236 0 0.025164505554147409 -0.088363954385675236 0 0.041213016231746141 -0.092607102020557608 0 0.047197573153018882 -0.077008714885212229 0 0.025151296679735868 -0.071763989857217797 0 0.025164505554147409 -0.088363954385675236 0 0.047197573153018882 -0.077008714885212229 0 0.025151296679735868 -0.071763989857217797 0 0.03991228784683809 -0.063564952647474054 0 0.047197573153018882 -0.077008714885212229 0 0.047197573153018882 -0.077008714885212229 0 0.056693753894908411 -0.0645930394684711 0 0.063928429489506944 -0.081307771727983827 0 0.03991228784683809 -0.063564952647474054 0 0.047197573153018882 -0.077008714885212229 0 0.056693753894908411 -0.0645930394684711 0 0.041213016231746141 -0.092607102020557608 0 0.047197573153018882 -0.077008714885212229 0 0.063928429489506944 -0.081307771727983827 0 0.041213016231746141 -0.092607102020557608 0 0.057721305516795093 -0.10151199169140721 0 0.063928429489506944 -0.081307771727983827 0 0.041213016231746141 -0.092607102020557608 0 0.063928429489506944 -0.081307771727983827 0 0.057721305516795093 -0.10151199169140721 0 0.051443199373898567 -0.1204896733513115 0 0.074088235244244849 -0.1151598881146773 0 0.057721305516795093 -0.10151199169140721 0 0.051443199373898567 -0.1204896733513115 0 0.035889483117247892 -0.1110170682638876 0 0.036683546128011633 -0.12671383904542469 0 0.051443199373898567 -0.1204896733513115 0 0.035889483117247892 -0.1110170682638876 0 0.036683546128011633 -0.12671383904542469 0 0.022405976644837251 -0.1242135834057001 0 0.035889483117247892 -0.1110170682638876 0 0.041213016231746141 -0.092607102020557608 0 0.057721305516795093 -0.10151199169140721 0 0.035889483117247892 -0.1110170682638876 0 0.018497602973985429 -0.10390643231313131 0 0.041213016231746141 -0.092607102020557608 0 0.035889483117247892 -0.1110170682638876 0 0.01430788918599761 0.002469668747611693 0 0.022197175706914572 -0.0088692473301535488 0 0.02591885077931003 -0.022472547228299208 0 0.01430788918599761 0.002469668747611693 0 0.02591885077931003 -0.022472547228299208 0 0.01430788918599761 0.002469668747611693 0 0.0134751505872869 -0.0064892176571990576 0 0.02591885077931003 -0.022472547228299208 0 0.02489961239455241 0.001425054730708031 0 0.026967908296219281 -0.0049299988027727767 0 0.022197175706914572 -0.0088692473301535488 0 0.02489961239455241 0.001425054730708031 0 0.026967908296219281 -0.0049299988027727767 0 0.033373904277048422 -0.0035952080332354152 0 0.026967908296219281 -0.0049299988027727767 0 0.027851905006188161 -0.0092953317526173248 0 0.022197175706914572 -0.0088692473301535488 0 0.026967908296219281 -0.0049299988027727767 0 0.027851905006188161 -0.0092953317526173248 0 0.033373904277048422 -0.0035952080332354152 0 0.027851905006188161 -0.0092953317526173248 0 0.032334211153766543 -0.01412740980449638 0 0.033373904277048422 -0.0035952080332354152 0 0.024668178221883521 -0.01533900552630797 0 0.022197175706914572 -0.0088692473301535488 0 0.02591885077931003 -0.022472547228299208 0 0.027851905006188161 -0.0092953317526173248 0 0.024668178221883521 -0.01533900552630797 0 0.032334211153766543 -0.01412740980449638 0 0.027851905006188161 -0.0092953317526173248 0 0.024668178221883521 -0.01533900552630797 0 0.022197175706914572 -0.0088692473301535488 0 0.01430788918599761 0.002469668747611693 0 0.02489961239455241 0.001425054730708031 0 0.022197175706914572 -0.0088692473301535488 0 0.01430788918599761 0.002469668747611693 0 0.0134751505872869 -0.0064892176571990576 0 0.0020542870866122722 -0.002457931916927811 0 0.0134751505872869 -0.0064892176571990576 0 0.0020542870866122722 -0.002457931916927811 0 0.0001562072125391549 -0.018999867950155999 0 0.0134751505872869 -0.0064892176571990576 0 0.0001562072125391549 -0.018999867950155999 0 0.0134751505872869 -0.0064892176571990576 0 0.013198767574944471 -0.019540032616593039 0 0.0001562072125391549 -0.018999867950155999 0 0.013198767574944471 -0.019540032616593039 0 0.0029138699203563249 -0.030526754590547031 0 0.014446806064269371 -0.040036329536461551 0 0.013198767574944471 -0.019540032616593039 0 0.0001562072125391549 -0.018999867950155999 0 0.0029138699203563249 -0.030526754590547031 0 0.013198767574944471 -0.019540032616593039 0 0.02591885077931003 -0.022472547228299208 0 0.014446806064269371 -0.040036329536461551 0 0.0134751505872869 -0.0064892176571990576 0 0.013198767574944471 -0.019540032616593039 0 0.02591885077931003 -0.022472547228299208 0 0.02591885077931003 -0.022472547228299208 0 0.027686319776973532 -0.026269355366557029 0 0.014446806064269371 -0.040036329536461551 0 0.025972287004753469 -0.020371663231087651 0 0.02591885077931003 -0.022472547228299208 0 0.027688532957454649 -0.020129438165937739 0 0.025972287004753469 -0.020371663231087651 0 0.025928584284886699 -0.018751673427441651 0 0.027688532957454649 -0.020129438165937739 0 0.02591885077931003 -0.022472547228299208 0 0.02744216922628142 -0.023194699279580872 0 0.027688532957454649 -0.020129438165937739 0 0.024668178221883521 -0.01533900552630797 0 0.025972287004753469 -0.020371663231087651 0 0.02591885077931003 -0.022472547228299208 0 0.024668178221883521 -0.01533900552630797 0 0.025972287004753469 -0.020371663231087651 0 0.025928584284886699 -0.018751673427441651 0 0.024668178221883521 -0.01533900552630797 0 0.025928584284886699 -0.018751673427441651 0 0.029055165523747969 -0.017916752244247078 0 0.024668178221883521 -0.01533900552630797 0 0.029055165523747969 -0.017916752244247078 0 0.032334211153766543 -0.01412740980449638 0 0.025928584284886699 -0.018751673427441651 0 0.029055165523747969 -0.017916752244247078 0 0.027688532957454649 -0.020129438165937739 0 0.02744216922628142 -0.023194699279580872 0 0.029741594372660361 -0.020956127920253309 0 0.029720495650589089 -0.02340590657578917 0 0.02744216922628142 -0.023194699279580872 0 0.027688532957454649 -0.020129438165937739 0 0.029741594372660361 -0.020956127920253309 0 0.029055165523747969 -0.017916752244247078 0 0.027688532957454649 -0.020129438165937739 0 0.029741594372660361 -0.020956127920253309 0 0.029055165523747969 -0.017916752244247078 0 0.029741594372660361 -0.020956127920253309 0 0.032916234323039112 -0.02129384448866746 0 0.029741594372660361 -0.020956127920253309 0 0.029720495650589089 -0.02340590657578917 0 0.032916234323039112 -0.02129384448866746 0 0.029720495650589089 -0.02340590657578917 0 0.027686319776973532 -0.026269355366557029 0 0.032435899178401957 -0.026841704232335381 0 0.02744216922628142 -0.023194699279580872 0 0.029720495650589089 -0.02340590657578917 0 0.027686319776973532 -0.026269355366557029 0 0.027686319776973532 -0.026269355366557029 0 0.031277885651264631 -0.03211358484664821 0 0.032435899178401957 -0.026841704232335381 0 0.02591885077931003 -0.022472547228299208 0 0.02744216922628142 -0.023194699279580872 0 0.027686319776973532 -0.026269355366557029 0 0.02591885077931003 -0.022472547228299208 0 0.027686319776973532 -0.026269355366557029 0 0.02591885077931003 -0.022472547228299208 0 0.014446806064269371 -0.040036329536461551 0 0.02637374231175383 -0.03825668542074219 0 0.014446806064269371 -0.040036329536461551 0 0.021401024806239 -0.055359675166318179 0 0.027686319776973532 -0.026269355366557029 0 0.02637374231175383 -0.03825668542074219 0 0.031277885651264631 -0.03211358484664821 0 0.02637374231175383 -0.03825668542074219 0 0.034139667465722209 -0.037909201738954047 0 0.031277885651264631 -0.03211358484664821 0 0.027686319776973532 -0.026269355366557029 0 0.02637374231175383 -0.03825668542074219 0 0.014446806064269371 -0.040036329536461551 0 -6.9695087766884393e-05 -0.042547024606407399 0 0.014446806064269371 -0.040036329536461551 0 0.002974761349226791 -0.057600111844622673 0 -6.9695087766884393e-05 -0.042547024606407399 0 0.0029138699203563249 -0.030526754590547031 0 0.014446806064269371 -0.040036329536461551 0 0.014446806064269371 -0.040036329536461551 0 0.002974761349226791 -0.057600111844622673 0 0.021401024806239 -0.055359675166318179 0 0.014446806064269371 -0.040036329536461551 0 0.002974761349226791 -0.057600111844622673 0 0.011137116921547461 -0.069263182716445465 0 0.002974761349226791 -0.057600111844622673 0 0.021401024806239 -0.055359675166318179 0 0.02637374231175383 -0.03825668542074219 0 0.021401024806239 -0.055359675166318179 0 0.036558724574953842 -0.048051445741573107 0 0.03991228784683809 -0.063564952647474054 0 0.021401024806239 -0.055359675166318179 0 0.036558724574953842 -0.048051445741573107 0 0.036558724574953842 -0.048051445741573107 0 0.049011651700788493 -0.054791792410274612 0 0.047014247252220878 -0.045108286122823471 0 0.03991228784683809 -0.063564952647474054 0 0.036558724574953842 -0.048051445741573107 0 0.049011651700788493 -0.054791792410274612 0 0.03991228784683809 -0.063564952647474054 0 0.056693753894908411 -0.0645930394684711 0 0.049011651700788493 -0.054791792410274612 0 0.056693753894908411 -0.0645930394684711 0 0.059124578218799892 -0.054181434489200493 0 0.066584568119809978 -0.058389208855861907 0 0.056693753894908411 -0.0645930394684711 0 0.049011651700788493 -0.054791792410274612 0 0.059124578218799892 -0.054181434489200493 0 0.059124578218799892 -0.054181434489200493 0 0.059864148488327829 -0.044991466214337812 0 0.068161587803436965 -0.049502266140622309 0 0.059124578218799892 -0.054181434489200493 0 0.053889359673946043 -0.048102818152418812 0 0.059864148488327829 -0.044991466214337812 0 0.049011651700788493 -0.054791792410274612 0 0.053889359673946043 -0.048102818152418812 0 0.047014247252220878 -0.045108286122823471 0 0.049011651700788493 -0.054791792410274612 0 0.059124578218799892 -0.054181434489200493 0 0.053889359673946043 -0.048102818152418812 0 0.047014247252220878 -0.045108286122823471 0 0.053133021386967877 -0.039614199169100042 0 0.046443262635460281 -0.034671929626247273 0 0.053889359673946043 -0.048102818152418812 0 0.047014247252220878 -0.045108286122823471 0 0.053133021386967877 -0.039614199169100042 0 0.053133021386967877 -0.039614199169100042 0 0.059864148488327829 -0.044991466214337812 0 0.060946845115729342 -0.039003827311988232 0 0.053889359673946043 -0.048102818152418812 0 0.053133021386967877 -0.039614199169100042 0 0.059864148488327829 -0.044991466214337812 0 0.059864148488327829 -0.044991466214337812 0 0.060946845115729342 -0.039003827311988232 0 0.065863164603128188 -0.042535096889701793 0 0.053133021386967877 -0.039614199169100042 0 0.060946845115729342 -0.039003827311988232 0 0.059617608454032252 -0.030845149206413559 0 0.053133021386967877 -0.039614199169100042 0 0.051671134094524812 -0.028078911788863379 0 0.059617608454032252 -0.030845149206413559 0 0.060946845115729342 -0.039003827311988232 0 0.059617608454032252 -0.030845149206413559 0 0.066215378998319571 -0.035816863424849257 0 0.053133021386967877 -0.039614199169100042 0 0.046443262635460281 -0.034671929626247273 0 0.051671134094524812 -0.028078911788863379 0 0.046443262635460281 -0.034671929626247273 0 0.039981940290365767 -0.039406368140850058 0 0.036506044500272977 -0.031717924544956679 0 0.047014247252220878 -0.045108286122823471 0 0.046443262635460281 -0.034671929626247273 0 0.039981940290365767 -0.039406368140850058 0 0.036558724574953842 -0.048051445741573107 0 0.047014247252220878 -0.045108286122823471 0 0.039981940290365767 -0.039406368140850058 0 0.02637374231175383 -0.03825668542074219 0 0.036558724574953842 -0.048051445741573107 0 0.034139667465722209 -0.037909201738954047 0 0.036558724574953842 -0.048051445741573107 0 0.039981940290365767 -0.039406368140850058 0 0.034139667465722209 -0.037909201738954047 0 0.034139667465722209 -0.037909201738954047 0 0.031277885651264631 -0.03211358484664821 0 0.036506044500272977 -0.031717924544956679 0 0.039981940290365767 -0.039406368140850058 0 0.034139667465722209 -0.037909201738954047 0 0.036506044500272977 -0.031717924544956679 0 0.036506044500272977 -0.031717924544956679 0 0.037100376632050007 -0.024812439284442919 0 0.032435899178401957 -0.026841704232335381 0 0.031277885651264631 -0.03211358484664821 0 0.036506044500272977 -0.031717924544956679 0 0.032435899178401957 -0.026841704232335381 0 0.029720495650589089 -0.02340590657578917 0 0.032435899178401957 -0.026841704232335381 0 0.032916234323039112 -0.02129384448866746 0 0.037100376632050007 -0.024812439284442919 0 0.032435899178401957 -0.026841704232335381 0 0.032916234323039112 -0.02129384448866746 0 0.032916234323039112 -0.02129384448866746 0 0.039271825468791211 -0.018875922358166791 0 0.032334211153766543 -0.01412740980449638 0 0.029055165523747969 -0.017916752244247078 0 0.032916234323039112 -0.02129384448866746 0 0.032334211153766543 -0.01412740980449638 0 0.037100376632050007 -0.024812439284442919 0 0.032916234323039112 -0.02129384448866746 0 0.039271825468791211 -0.018875922358166791 0 0.039271825468791211 -0.018875922358166791 0 0.043638524530178233 -0.02565327733336745 0 0.050471826270186877 -0.015922774665167248 0 0.037100376632050007 -0.024812439284442919 0 0.039271825468791211 -0.018875922358166791 0 0.043638524530178233 -0.02565327733336745 0 0.046443262635460281 -0.034671929626247273 0 0.036506044500272977 -0.031717924544956679 0 0.043638524530178233 -0.02565327733336745 0 0.036506044500272977 -0.031717924544956679 0 0.037100376632050007 -0.024812439284442919 0 0.043638524530178233 -0.02565327733336745 0 0.046443262635460281 -0.034671929626247273 0 0.043638524530178233 -0.02565327733336745 0 0.051671134094524812 -0.028078911788863379 0 0.051671134094524812 -0.028078911788863379 0 0.059617608454032252 -0.030845149206413559 0 0.061451742544522757 -0.02044742978429202 0 0.043638524530178233 -0.02565327733336745 0 0.051671134094524812 -0.028078911788863379 0 0.050471826270186877 -0.015922774665167248 0 0.051671134094524812 -0.028078911788863379 0 0.061451742544522757 -0.02044742978429202 0 0.050471826270186877 -0.015922774665167248 0 0.048853995343869742 0.0017607055935350299 0 0.050471826270186877 -0.015922774665167248 0 0.066681340165404196 -0.0086072927627725351 0 0.061451742544522757 -0.02044742978429202 0 0.050471826270186877 -0.015922774665167248 0 0.066681340165404196 -0.0086072927627725351 0 0.048853995343869742 0.0017607055935350299 0 0.050471826270186877 -0.015922774665167248 0 0.040861152502732562 -0.01015212185350616 0 0.048853995343869742 0.0017607055935350299 0 0.040861152502732562 -0.01015212185350616 0 0.033373904277048422 -0.0035952080332354152 0 0.039271825468791211 -0.018875922358166791 0 0.050471826270186877 -0.015922774665167248 0 0.040861152502732562 -0.01015212185350616 0 0.040861152502732562 -0.01015212185350616 0 0.032334211153766543 -0.01412740980449638 0 0.033373904277048422 -0.0035952080332354152 0 0.039271825468791211 -0.018875922358166791 0 0.040861152502732562 -0.01015212185350616 0 0.032334211153766543 -0.01412740980449638 0 0.084919212964707058 -0.0048832671748185591 0 0.066681340165404196 -0.0086072927627725351 0 0.072178352652277747 -0.02532832572589605 0 0.061667211381634501 0.0094624597644218846 0 0.084919212964707058 -0.0048832671748185591 0 0.066681340165404196 -0.0086072927627725351 0 0.061451742544522757 -0.02044742978429202 0 0.066681340165404196 -0.0086072927627725351 0 0.072178352652277747 -0.02532832572589605 0 0.059617608454032252 -0.030845149206413559 0 0.072178352652277747 -0.02532832572589605 0 0.066215378998319571 -0.035816863424849257 0 0.059617608454032252 -0.030845149206413559 0 0.061451742544522757 -0.02044742978429202 0 0.072178352652277747 -0.02532832572589605 0 0.072178352652277747 -0.02532832572589605 0 0.087669270620807885 -0.02701393853663904 0 0.074046055314085174 -0.040928338045633908 0 0.084919212964707058 -0.0048832671748185591 0 0.087669270620807885 -0.02701393853663904 0 0.1017380561937988 -0.020962996105803131 0 0.084919212964707058 -0.0048832671748185591 0 0.072178352652277747 -0.02532832572589605 0 0.087669270620807885 -0.02701393853663904 0 0.087669270620807885 -0.02701393853663904 0 0.086246064992538438 -0.044831442015586177 0 0.074046055314085174 -0.040928338045633908 0 0.087669270620807885 -0.02701393853663904 0 0.086246064992538438 -0.044831442015586177 0 0.096211825209036553 -0.035056342803163068 0 0.086246064992538438 -0.044831442015586177 0 0.074046055314085174 -0.040928338045633908 0 0.077348431090306854 -0.048941309960618427 0 0.072178352652277747 -0.02532832572589605 0 0.066215378998319571 -0.035816863424849257 0 0.074046055314085174 -0.040928338045633908 0 0.065863164603128188 -0.042535096889701793 0 0.074046055314085174 -0.040928338045633908 0 0.068161587803436965 -0.049502266140622309 0 0.059864148488327829 -0.044991466214337812 0 0.065863164603128188 -0.042535096889701793 0 0.068161587803436965 -0.049502266140622309 0 0.066215378998319571 -0.035816863424849257 0 0.065863164603128188 -0.042535096889701793 0 0.074046055314085174 -0.040928338045633908 0 0.060946845115729342 -0.039003827311988232 0 0.066215378998319571 -0.035816863424849257 0 0.065863164603128188 -0.042535096889701793 0 0.074046055314085174 -0.040928338045633908 0 0.077348431090306854 -0.048941309960618427 0 0.068161587803436965 -0.049502266140622309 0 0.077348431090306854 -0.048941309960618427 0 0.068161587803436965 -0.049502266140622309 0 0.074396120347237624 -0.056057269546352553 0 0.077348431090306854 -0.048941309960618427 0 0.074396120347237624 -0.056057269546352553 0 0.081677504216908919 -0.054510213563818202 0 0.068161587803436965 -0.049502266140622309 0 0.066584568119809978 -0.058389208855861907 0 0.074396120347237624 -0.056057269546352553 0 0.059124578218799892 -0.054181434489200493 0 0.068161587803436965 -0.049502266140622309 0 0.066584568119809978 -0.058389208855861907 0 0.066584568119809978 -0.058389208855861907 0 0.074396120347237624 -0.056057269546352553 0 0.07376933615285039 -0.062592623223170829 0 0.074396120347237624 -0.056057269546352553 0 0.081271879088679166 -0.06211914574018694 0 0.07376933615285039 -0.062592623223170829 0 0.081271879088679166 -0.06211914574018694 0 0.081677504216908919 -0.054510213563818202 0 0.090975598817404815 -0.05556492827846999 0 0.074396120347237624 -0.056057269546352553 0 0.081271879088679166 -0.06211914574018694 0 0.081677504216908919 -0.054510213563818202 0 0.086246064992538438 -0.044831442015586177 0 0.077348431090306854 -0.048941309960618427 0 0.081677504216908919 -0.054510213563818202 0 0.086246064992538438 -0.044831442015586177 0 0.090975598817404815 -0.05556492827846999 0 0.100360724236018 -0.046264580484598167 0 0.086246064992538438 -0.044831442015586177 0 0.081677504216908919 -0.054510213563818202 0 0.090975598817404815 -0.05556492827846999 0 0.081271879088679166 -0.06211914574018694 0 0.090975598817404815 -0.05556492827846999 0 0.090499386096577775 -0.062478149830971982 0 0.090975598817404815 -0.05556492827846999 0 0.10935925600502901 -0.058709111142837153 0 0.100360724236018 -0.046264580484598167 0 0.090975598817404815 -0.05556492827846999 0 0.090499386096577775 -0.062478149830971982 0 0.10935925600502901 -0.058709111142837153 0 0.10935925600502901 -0.058709111142837153 0 0.1125473342757712 -0.047494700880263939 0 0.100360724236018 -0.046264580484598167 0 0.10935925600502901 -0.058709111142837153 0 0.1264271382118354 -0.046576590720045212 0 0.10935925600502901 -0.058709111142837153 0 0.1125473342757712 -0.047494700880263939 0 0.1264271382118354 -0.046576590720045212 0 0.10935925600502901 -0.058709111142837153 0 0.1264271382118354 -0.046576590720045212 0 0.1315172523849571 -0.047687056783647923 0 0.10935925600502901 -0.058709111142837153 0 0.1315172523849571 -0.047687056783647923 0 0.10935925600502901 -0.058709111142837153 0 0.1315172523849571 -0.047687056783647923 0 0.12695815916544401 -0.061607372685781307 0 0.1125473342757712 -0.047494700880263939 0 0.117198255746378 -0.037393935701280981 0 0.1069589766034806 -0.035909925149025232 0 0.1125473342757712 -0.047494700880263939 0 0.12045352027335519 -0.04231815827615798 0 0.117198255746378 -0.037393935701280981 0 0.1125473342757712 -0.047494700880263939 0 0.12045352027335519 -0.04231815827615798 0 0.1264271382118354 -0.046576590720045212 0 0.12045352027335519 -0.04231815827615798 0 0.12564135285943631 -0.037807405803041788 0 0.1264271382118354 -0.046576590720045212 0 0.12045352027335519 -0.04231815827615798 0 0.117198255746378 -0.037393935701280981 0 0.12564135285943631 -0.037807405803041788 0 0.117198255746378 -0.037393935701280981 0 0.1220257778387514 -0.02963631632841995 0 0.12564135285943631 -0.037807405803041788 0 0.117198255746378 -0.037393935701280981 0 0.1137494024099137 -0.028542592954446729 0 0.1220257778387514 -0.02963631632841995 0 0.117198255746378 -0.037393935701280981 0 0.1069589766034806 -0.035909925149025232 0 0.1137494024099137 -0.028542592954446729 0 0.1125473342757712 -0.047494700880263939 0 0.1069589766034806 -0.035909925149025232 0 0.100360724236018 -0.046264580484598167 0 0.1069589766034806 -0.035909925149025232 0 0.100360724236018 -0.046264580484598167 0 0.096211825209036553 -0.035056342803163068 0 0.086246064992538438 -0.044831442015586177 0 0.100360724236018 -0.046264580484598167 0 0.096211825209036553 -0.035056342803163068 0 0.087669270620807885 -0.02701393853663904 0 0.096211825209036553 -0.035056342803163068 0 0.1017380561937988 -0.020962996105803131 0 0.1069589766034806 -0.035909925149025232 0 0.1017380561937988 -0.020962996105803131 0 0.1137494024099137 -0.028542592954446729 0 0.1069589766034806 -0.035909925149025232 0 0.096211825209036553 -0.035056342803163068 0 0.1017380561937988 -0.020962996105803131 0 0.1017380561937988 -0.020962996105803131 0 0.1137494024099137 -0.028542592954446729 0 0.11840595204219891 -0.018509042490778269 0 0.1137494024099137 -0.028542592954446729 0 0.1220257778387514 -0.02963631632841995 0 0.11840595204219891 -0.018509042490778269 0 0.1220257778387514 -0.02963631632841995 0 0.11840595204219891 -0.018509042490778269 0 0.12813942609465009 -0.023412037735025031 0 0.11840595204219891 -0.018509042490778269 0 0.12758964050691429 -0.014698979293720381 0 0.12813942609465009 -0.023412037735025031 0 0.11840595204219891 -0.018509042490778269 0 0.1229139003049859 -0.0047206540506318957 0 0.10695025709943851 -0.005097154849052799 0 0.11840595204219891 -0.018509042490778269 0 0.1229139003049859 -0.0047206540506318957 0 0.12758964050691429 -0.014698979293720381 0 0.1017380561937988 -0.020962996105803131 0 0.11840595204219891 -0.018509042490778269 0 0.10695025709943851 -0.005097154849052799 0 0.098844404307482883 0.0099372200349232241 0 0.084919212964707058 -0.0048832671748185591 0 0.10695025709943851 -0.005097154849052799 0 0.084919212964707058 -0.0048832671748185591 0 0.1017380561937988 -0.020962996105803131 0 0.10695025709943851 -0.005097154849052799 0 0.092837830820642425 -0.1070739961975478 0 0.081957787034019708 -0.089070344629088916 0 0.093794420455722644 -0.093742320652834027 0 0.092837830820642425 -0.1070739961975478 0 0.074088235244244849 -0.1151598881146773 0 0.081957787034019708 -0.089070344629088916 0 0.093639805884414631 -0.1350093289304051 0 0.092837830820642425 -0.1070739961975478 0 0.074088235244244849 -0.1151598881146773 0 0.068037275856194429 -0.1368036099700822 0 0.051443199373898567 -0.1204896733513115 0 0.074088235244244849 -0.1151598881146773 0 0.057721305516795093 -0.10151199169140721 0 0.074088235244244849 -0.1151598881146773 0 0.081957787034019708 -0.089070344629088916 0 0.057721305516795093 -0.10151199169140721 0 0.063928429489506944 -0.081307771727983827 0 0.081957787034019708 -0.089070344629088916 0 0.063928429489506944 -0.081307771727983827 0 0.086643842747267774 -0.070008441435410046 0 0.081957787034019708 -0.089070344629088916 0 0.056693753894908411 -0.0645930394684711 0 0.063928429489506944 -0.081307771727983827 0 0.067856605474948414 -0.066994613142570741 0 0.063928429489506944 -0.081307771727983827 0 0.076286074462960124 -0.068168619637879679 0 0.086643842747267774 -0.070008441435410046 0 0.063928429489506944 -0.081307771727983827 0 0.086643842747267774 -0.070008441435410046 0 0.056693753894908411 -0.0645930394684711 0 0.066584568119809978 -0.058389208855861907 0 0.067856605474948414 -0.066994613142570741 0 0.066584568119809978 -0.058389208855861907 0 0.067856605474948414 -0.066994613142570741 0 0.07376933615285039 -0.062592623223170829 0 0.063928429489506944 -0.081307771727983827 0 0.067856605474948414 -0.066994613142570741 0 0.076286074462960124 -0.068168619637879679 0 0.067856605474948414 -0.066994613142570741 0 0.076286074462960124 -0.068168619637879679 0 0.07376933615285039 -0.062592623223170829 0 0.081271879088679166 -0.06211914574018694 0 0.076286074462960124 -0.068168619637879679 0 0.07376933615285039 -0.062592623223170829 0 0.091090854964528206 -0.071695007461437532 0 0.086643842747267774 -0.070008441435410046 0 0.081957787034019708 -0.089070344629088916 0 0.081271879088679166 -0.06211914574018694 0 0.090499386096577775 -0.062478149830971982 0 0.084246353824508111 -0.065989122557955734 0 0.076286074462960124 -0.068168619637879679 0 0.084246353824508111 -0.065989122557955734 0 0.086643842747267774 -0.070008441435410046 0 0.081271879088679166 -0.06211914574018694 0 0.076286074462960124 -0.068168619637879679 0 0.084246353824508111 -0.065989122557955734 0 0.090499386096577775 -0.062478149830971982 0 0.084246353824508111 -0.065989122557955734 0 0.086643842747267774 -0.070008441435410046 0 0.091090854964528206 -0.071695007461437532 0 0.081957787034019708 -0.089070344629088916 0 0.095808115866621774 -0.084077621671887912 0 0.081957787034019708 -0.089070344629088916 0 0.095808115866621774 -0.084077621671887912 0 0.093794420455722644 -0.093742320652834027 0 0.095808115866621774 -0.084077621671887912 0 0.1064249490675009 -0.090618258099173232 0 0.093794420455722644 -0.093742320652834027 0 0.095808115866621774 -0.084077621671887912 0 0.1064249490675009 -0.090618258099173232 0 0.10593541629158559 -0.074898908406753228 0 0.10935925600502901 -0.058709111142837153 0 0.086643842747267774 -0.070008441435410046 0 0.10935925600502901 -0.058709111142837153 0 0.091090854964528206 -0.071695007461437532 0 0.090499386096577775 -0.062478149830971982 0 0.10935925600502901 -0.058709111142837153 0 0.086643842747267774 -0.070008441435410046 0 0.10935925600502901 -0.058709111142837153 0 0.091090854964528206 -0.071695007461437532 0 0.086643842747267774 -0.070008441435410046 0 0.10935925600502901 -0.058709111142837153 0 0.091090854964528206 -0.071695007461437532 0 0.10593541629158559 -0.074898908406753228 0 0.091090854964528206 -0.071695007461437532 0 0.095808115866621774 -0.084077621671887912 0 0.10593541629158559 -0.074898908406753228 0 0.10935925600502901 -0.058709111142837153 0 0.10593541629158559 -0.074898908406753228 0 0.1205600760898554 -0.073636645005437207 0 0.10935925600502901 -0.058709111142837153 0 0.1205600760898554 -0.073636645005437207 0 0.12695815916544401 -0.061607372685781307 0 0.1064249490675009 -0.090618258099173232 0 0.1205600760898554 -0.073636645005437207 0 0.13217211253312319 -0.091752472658581677 0 0.1064249490675009 -0.090618258099173232 0 0.10593541629158559 -0.074898908406753228 0 0.1205600760898554 -0.073636645005437207 0 0.1064249490675009 -0.090618258099173232 0 0.112905959208769 -0.1133809007944933 0 0.13217211253312319 -0.091752472658581677 0 0.112905959208769 -0.1133809007944933 0 0.13217211253312319 -0.091752472658581677 0 0.092837830820642425 -0.1070739961975478 0 0.1064249490675009 -0.090618258099173232 0 0.093794420455722644 -0.093742320652834027 0 0.092837830820642425 -0.1070739961975478 0 0.1064249490675009 -0.090618258099173232 0 0.112905959208769 -0.1133809007944933 0 0.093639805884414631 -0.1350093289304051 0 0.092837830820642425 -0.1070739961975478 0 0.112905959208769 -0.1133809007944933 0 0.093639805884414631 -0.1350093289304051 0 0.112905959208769 -0.1133809007944933 0 0.12319275534426111 -0.13963038495700819 0 0.112905959208769 -0.1133809007944933 0 0.13071413744654301 -0.1199166731996731 0 0.13071413744654301 -0.1199166731996731 0 0.14899920342532449 -0.1138473029921208 0 0.14231341405360681 -0.13536434312621151 0 0.14899920342532449 -0.1138473029921208 0 0.13217211253312319 -0.091752472658581677 0 0.15772668754238359 -0.095061041553098358 0 0.13071413744654301 -0.1199166731996731 0 0.14899920342532449 -0.1138473029921208 0 0.13217211253312319 -0.091752472658581677 0 0.112905959208769 -0.1133809007944933 0 0.13071413744654301 -0.1199166731996731 0 0.13217211253312319 -0.091752472658581677 0 0.1205600760898554 -0.073636645005437207 0 0.13217211253312319 -0.091752472658581677 0 0.13549635290062911 -0.070971034432690538 0 0.13217211253312319 -0.091752472658581677 0 0.13549635290062911 -0.070971034432690538 0 0.14662627881573459 -0.081050264206841527 0 0.1205600760898554 -0.073636645005437207 0 0.13549635290062911 -0.070971034432690538 0 0.12695815916544401 -0.061607372685781307 0 0.13549635290062911 -0.070971034432690538 0 0.12695815916544401 -0.061607372685781307 0 0.13744645814552131 -0.057428174155580013 0 0.13549635290062911 -0.070971034432690538 0 0.15357466130066591 -0.062947327499895622 0 0.13744645814552131 -0.057428174155580013 0 0.13549635290062911 -0.070971034432690538 0 0.15357466130066591 -0.062947327499895622 0 0.14662627881573459 -0.081050264206841527 0 0.13217211253312319 -0.091752472658581677 0 0.14662627881573459 -0.081050264206841527 0 0.15772668754238359 -0.095061041553098358 0 0.17240221775609221 -0.082933097070454764 0 0.1734485448797021 -0.094885510012080038 0 0.15772668754238359 -0.095061041553098358 0 0.14662627881573459 -0.081050264206841527 0 0.17240221775609221 -0.082933097070454764 0 0.15772668754238359 -0.095061041553098358 0 0.15357466130066591 -0.062947327499895622 0 0.14662627881573459 -0.081050264206841527 0 0.17240221775609221 -0.082933097070454764 0 0.15357466130066591 -0.062947327499895622 0 0.17227163989913599 -0.064253078282438411 0 0.17240221775609221 -0.082933097070454764 0 0.1843821839217035 -0.070545878875945614 0 0.17227163989913599 -0.064253078282438411 0 0.17240221775609221 -0.082933097070454764 0 0.1843821839217035 -0.070545878875945614 0 0.17227163989913599 -0.064253078282438411 0 0.18276577523080559 -0.053864837928145073 0 0.1843821839217035 -0.070545878875945614 0 0.17240221775609221 -0.082933097070454764 0 0.19562642886452061 -0.083419464066169721 0 0.17240221775609221 -0.082933097070454764 0 0.18622890667791009 -0.096822154755258169 0 0.19562642886452061 -0.083419464066169721 0 0.17240221775609221 -0.082933097070454764 0 0.18622890667791009 -0.096822154755258169 0 0.1734485448797021 -0.094885510012080038 0 0.18622890667791009 -0.096822154755258169 0 0.1734485448797021 -0.094885510012080038 0 0.1727840574399907 -0.10615926190495049 0 0.18622890667791009 -0.096822154755258169 0 0.1727840574399907 -0.10615926190495049 0 0.1847960892898739 -0.10995059135664149 0 0.1847960892898739 -0.10995059135664149 0 0.17768273851846769 -0.11865678954162651 0 0.19089281935413971 -0.1194352299247846 0 0.17768273851846769 -0.11865678954162651 0 0.19089281935413971 -0.1194352299247846 0 0.18912169851740859 -0.12926756383743199 0 0.1727840574399907 -0.10615926190495049 0 0.1847960892898739 -0.10995059135664149 0 0.17768273851846769 -0.11865678954162651 0 0.1727840574399907 -0.10615926190495049 0 0.17768273851846769 -0.11865678954162651 0 0.16398616931028109 -0.13485785702842679 0 0.14899920342532449 -0.1138473029921208 0 0.1727840574399907 -0.10615926190495049 0 0.16398616931028109 -0.13485785702842679 0 0.1727840574399907 -0.10615926190495049 0 0.16398616931028109 -0.13485785702842679 0 0.1734485448797021 -0.094885510012080038 0 0.1727840574399907 -0.10615926190495049 0 0.15772668754238359 -0.095061041553098358 0 0.14899920342532449 -0.1138473029921208 0 0.1727840574399907 -0.10615926190495049 0 0.15772668754238359 -0.095061041553098358 0 0.15037820031583721 0.002661057603983683 0 0.15603104089381589 -0.01140451905796833 0 0.1432393588182404 -0.0091159307863454813 0 0.1432393588182404 -0.0091159307863454813 0 0.13618309835098441 -0.017547828768313491 0 0.14599208772959191 -0.020175151737474271 0 0.15603104089381589 -0.01140451905796833 0 0.1432393588182404 -0.0091159307863454813 0 0.14599208772959191 -0.020175151737474271 0 0.15037820031583721 0.002661057603983683 0 0.13760439479590361 0.00073270495442658609 0 0.1432393588182404 -0.0091159307863454813 0 0.13760439479590361 0.00073270495442658609 0 0.1432393588182404 -0.0091159307863454813 0 0.13324733082330939 -0.0089618477127270859 0 0.13760439479590361 0.00073270495442658609 0 0.1229139003049859 -0.0047206540506318957 0 0.13324733082330939 -0.0089618477127270859 0 0.1229139003049859 -0.0047206540506318957 0 0.12758964050691429 -0.014698979293720381 0 0.13324733082330939 -0.0089618477127270859 0 0.12758964050691429 -0.014698979293720381 0 0.13324733082330939 -0.0089618477127270859 0 0.13618309835098441 -0.017547828768313491 0 0.1432393588182404 -0.0091159307863454813 0 0.13324733082330939 -0.0089618477127270859 0 0.13618309835098441 -0.017547828768313491 0 0.13618309835098441 -0.017547828768313491 0 0.12813942609465009 -0.023412037735025031 0 0.13664642179635689 -0.026946532471422341 0 0.13618309835098441 -0.017547828768313491 0 0.13664642179635689 -0.026946532471422341 0 0.14599208772959191 -0.020175151737474271 0 0.12758964050691429 -0.014698979293720381 0 0.13618309835098441 -0.017547828768313491 0 0.12813942609465009 -0.023412037735025031 0 0.1220257778387514 -0.02963631632841995 0 0.12813942609465009 -0.023412037735025031 0 0.12902027787993131 -0.032152883285946919 0 0.12813942609465009 -0.023412037735025031 0 0.13664642179635689 -0.026946532471422341 0 0.12902027787993131 -0.032152883285946919 0 0.14349502041864129 -0.034444070297252452 0 0.16056290262544709 -0.022311549874459709 0 0.15367524876488581 -0.03666500242445956 0 0.14349502041864129 -0.034444070297252452 0 0.16056290262544709 -0.022311549874459709 0 0.13664642179635689 -0.026946532471422341 0 0.14599208772959191 -0.020175151737474271 0 0.14349502041864129 -0.034444070297252452 0 0.14599208772959191 -0.020175151737474271 0 0.14349502041864129 -0.034444070297252452 0 0.16056290262544709 -0.022311549874459709 0 0.15603104089381589 -0.01140451905796833 0 0.14599208772959191 -0.020175151737474271 0 0.16056290262544709 -0.022311549874459709 0 0.15367524876488581 -0.03666500242445956 0 0.14257392239334191 -0.048532377707370233 0 0.14765673027800341 -0.052349277465793452 0 0.15367524876488581 -0.03666500242445956 0 0.14765673027800341 -0.052349277465793452 0 0.15695138706003309 -0.047596504690529763 0 0.15367524876488581 -0.03666500242445956 0 0.1315172523849571 -0.047687056783647923 0 0.14257392239334191 -0.048532377707370233 0 0.15367524876488581 -0.03666500242445956 0 0.1315172523849571 -0.047687056783647923 0 0.15367524876488581 -0.03666500242445956 0 0.14349502041864129 -0.034444070297252452 0 0.1315172523849571 -0.047687056783647923 0 0.14349502041864129 -0.034444070297252452 0 0.13224604223324021 -0.035585496515541742 0 0.1264271382118354 -0.046576590720045212 0 0.14349502041864129 -0.034444070297252452 0 0.1264271382118354 -0.046576590720045212 0 0.1315172523849571 -0.047687056783647923 0 0.14349502041864129 -0.034444070297252452 0 0.1264271382118354 -0.046576590720045212 0 0.13664642179635689 -0.026946532471422341 0 0.14349502041864129 -0.034444070297252452 0 0.13224604223324021 -0.035585496515541742 0 0.13664642179635689 -0.026946532471422341 0 0.12902027787993131 -0.032152883285946919 0 0.13224604223324021 -0.035585496515541742 0 0.1220257778387514 -0.02963631632841995 0 0.12902027787993131 -0.032152883285946919 0 0.12564135285943631 -0.037807405803041788 0 0.12902027787993131 -0.032152883285946919 0 0.13224604223324021 -0.035585496515541742 0 0.12564135285943631 -0.037807405803041788 0 0.13224604223324021 -0.035585496515541742 0 0.12564135285943631 -0.037807405803041788 0 0.1264271382118354 -0.046576590720045212 0 0.1315172523849571 -0.047687056783647923 0 0.13744645814552131 -0.057428174155580013 0 0.14257392239334191 -0.048532377707370233 0 0.1315172523849571 -0.047687056783647923 0 0.12695815916544401 -0.061607372685781307 0 0.13744645814552131 -0.057428174155580013 0 0.15357466130066591 -0.062947327499895622 0 0.13744645814552131 -0.057428174155580013 0 0.14765673027800341 -0.052349277465793452 0 0.13744645814552131 -0.057428174155580013 0 0.14257392239334191 -0.048532377707370233 0 0.14765673027800341 -0.052349277465793452 0 0.15357466130066591 -0.062947327499895622 0 0.14765673027800341 -0.052349277465793452 0 0.15695138706003309 -0.047596504690529763 0 0.15357466130066591 -0.062947327499895622 0 0.17227163989913599 -0.064253078282438411 0 0.16823336128641289 -0.050974250037751037 0 0.15357466130066591 -0.062947327499895622 0 0.15695138706003309 -0.047596504690529763 0 0.16823336128641289 -0.050974250037751037 0 0.17227163989913599 -0.064253078282438411 0 0.16823336128641289 -0.050974250037751037 0 0.18276577523080559 -0.053864837928145073 0 0.16823336128641289 -0.050974250037751037 0 0.18276577523080559 -0.053864837928145073 0 0.17810527762960349 -0.041146112088514757 0 0.18276577523080559 -0.053864837928145073 0 0.17810527762960349 -0.041146112088514757 0 0.19037850837777229 -0.03424286581711234 0 0.18276577523080559 -0.053864837928145073 0 0.19037850837777229 -0.03424286581711234 0 0.17810527762960349 -0.041146112088514757 0 0.1758332451448143 -0.025642948065271232 0 0.19037850837777229 -0.03424286581711234 0 0.17810527762960349 -0.041146112088514757 0 0.16662943566269259 -0.040221978757321912 0 0.1758332451448143 -0.025642948065271232 0 0.15367524876488581 -0.03666500242445956 0 0.16662943566269259 -0.040221978757321912 0 0.1758332451448143 -0.025642948065271232 0 0.16823336128641289 -0.050974250037751037 0 0.17810527762960349 -0.041146112088514757 0 0.16662943566269259 -0.040221978757321912 0 0.15367524876488581 -0.03666500242445956 0 0.15695138706003309 -0.047596504690529763 0 0.16662943566269259 -0.040221978757321912 0 0.15695138706003309 -0.047596504690529763 0 0.16823336128641289 -0.050974250037751037 0 0.16662943566269259 -0.040221978757321912 0 0.15367524876488581 -0.03666500242445956 0 0.1758332451448143 -0.025642948065271232 0 0.15367524876488581 -0.03666500242445956 0 0.16056290262544709 -0.022311549874459709 0 0.1758332451448143 -0.025642948065271232 0 0.15603104089381589 -0.01140451905796833 0 0.16056290262544709 -0.022311549874459709 0 0.169737108883556 -0.01508854612762942 0 0.16056290262544709 -0.022311549874459709 0 0.1758332451448143 -0.025642948065271232 0 0.169737108883556 -0.01508854612762942 0 0.1758332451448143 -0.025642948065271232 0 0.19799124152474179 -0.014620893706080841 0 0.1758332451448143 -0.025642948065271232 0 0.1824305123019167 -0.01156922214160001 0 0.19799124152474179 -0.014620893706080841 0 0.1758332451448143 -0.025642948065271232 0 0.1824305123019167 -0.01156922214160001 0 0.169737108883556 -0.01508854612762942 0 0.1824305123019167 -0.01156922214160001 0 0.17379024406466809 -0.0051448253471361076 0 0.169737108883556 -0.01508854612762942 0 0.188810358682136 0.001653760543012469 0 0.1824305123019167 -0.01156922214160001 0 0.17379024406466809 -0.0051448253471361076 0 0.17379024406466809 -0.0051448253471361076 0 0.169737108883556 -0.01508854612762942 0 0.16288979187378999 -0.0015153279663161589 0 0.15603104089381589 -0.01140451905796833 0 0.169737108883556 -0.01508854612762942 0 0.16288979187378999 -0.0015153279663161589 0 0.15037820031583721 0.002661057603983683 0 0.15603104089381589 -0.01140451905796833 0 0.16288979187378999 -0.0015153279663161589 0 0.20681538404149369 0.0081235103108312241 0 0.19799124152474179 -0.014620893706080841 0 0.22089310829929931 -0.0032288158219694399 0 0.19799124152474179 -0.014620893706080841 0 0.22089310829929931 -0.0032288158219694399 0 0.19799124152474179 -0.014620893706080841 0 0.21743932776805741 -0.02500179271580702 0 0.22089310829929931 -0.0032288158219694399 0 0.20681538404149369 0.0081235103108312241 0 0.188810358682136 0.001653760543012469 0 0.19799124152474179 -0.014620893706080841 0 0.188810358682136 0.001653760543012469 0 0.1824305123019167 -0.01156922214160001 0 0.19799124152474179 -0.014620893706080841 0 0.20681538404149369 0.0081235103108312241 0 0.19799124152474179 -0.014620893706080841 0 0.19799124152474179 -0.014620893706080841 0 0.20548040453249389 -0.034224144530851881 0 0.19037850837777229 -0.03424286581711234 0 0.19799124152474179 -0.014620893706080841 0 0.19037850837777229 -0.03424286581711234 0 0.1758332451448143 -0.025642948065271232 0 0.19799124152474179 -0.014620893706080841 0 0.19037850837777229 -0.03424286581711234 0 0.19799124152474179 -0.014620893706080841 0 0.21743932776805741 -0.02500179271580702 0 0.20548040453249389 -0.034224144530851881 0 0.21743932776805741 -0.02500179271580702 0 0.20548040453249389 -0.034224144530851881 0 0.22843744600651061 -0.039120107817885087 0 0.20548040453249389 -0.034224144530851881 0 0.20801472303223709 -0.049111886055220703 0 0.22843744600651061 -0.039120107817885087 0 0.18276577523080559 -0.053864837928145073 0 0.19037850837777229 -0.03424286581711234 0 0.1957558350323744 -0.047166931761824751 0 0.20548040453249389 -0.034224144530851881 0 0.19037850837777229 -0.03424286581711234 0 0.1957558350323744 -0.047166931761824751 0 0.20548040453249389 -0.034224144530851881 0 0.1957558350323744 -0.047166931761824751 0 0.20801472303223709 -0.049111886055220703 0 0.1957558350323744 -0.047166931761824751 0 0.20801472303223709 -0.049111886055220703 0 0.20243455912652891 -0.06446172691138502 0 0.18276577523080559 -0.053864837928145073 0 0.1957558350323744 -0.047166931761824751 0 0.20243455912652891 -0.06446172691138502 0 0.20801472303223709 -0.049111886055220703 0 0.22051918602121881 -0.055132727610052473 0 0.20243455912652891 -0.06446172691138502 0 0.22051918602121881 -0.055132727610052473 0 0.23324639232980851 -0.060959439386943717 0 0.22843744600651061 -0.039120107817885087 0 0.20801472303223709 -0.049111886055220703 0 0.22051918602121881 -0.055132727610052473 0 0.22843744600651061 -0.039120107817885087 0 0.22051918602121881 -0.055132727610052473 0 0.23324639232980851 -0.060959439386943717 0 0.21968061038163761 -0.069421444936947713 0 0.25154037507169252 -0.057607439739242518 0 0.23324639232980851 -0.060959439386943717 0 0.22843744600651061 -0.039120107817885087 0 0.25154037507169252 -0.057607439739242518 0 0.24896172546995729 -0.037521104912331522 0 0.22843744600651061 -0.039120107817885087 0 0.24896172546995729 -0.037521104912331522 0 0.22843744600651061 -0.039120107817885087 0 0.24618848066494531 -0.019387664510027571 0 0.21743932776805741 -0.02500179271580702 0 0.22843744600651061 -0.039120107817885087 0 0.23056924641786819 -0.015686229995554461 0 0.22843744600651061 -0.039120107817885087 0 0.23056924641786819 -0.015686229995554461 0 0.24618848066494531 -0.019387664510027571 0 0.24379497507385561 0.0081632620621440027 0 0.23056924641786819 -0.015686229995554461 0 0.24618848066494531 -0.019387664510027571 0 0.21743932776805741 -0.02500179271580702 0 0.23056924641786819 -0.015686229995554461 0 0.22089310829929931 -0.0032288158219694399 0 0.24379497507385561 0.0081632620621440027 0 0.23056924641786819 -0.015686229995554461 0 0.22089310829929931 -0.0032288158219694399 0 0.2045950829692984 -0.098263736782735631 0 0.21402066615414389 -0.086800577904236911 0 0.2200078936451105 -0.1031526428031164 0 0.2082213899375045 -0.10930766451895391 0 0.2045950829692984 -0.098263736782735631 0 0.2200078936451105 -0.1031526428031164 0 0.2082213899375045 -0.10930766451895391 0 0.2200078936451105 -0.1031526428031164 0 0.22100751941270841 -0.1172314169642418 0 0.2082213899375045 -0.10930766451895391 0 0.20988388920491649 -0.11965744042234611 0 0.22100751941270841 -0.1172314169642418 0 0.20988388920491649 -0.11965744042234611 0 0.22100751941270841 -0.1172314169642418 0 0.21443252218934089 -0.13030165766589191 0 0.20988388920491649 -0.11965744042234611 0 0.2014268814114831 -0.11915697474252721 0 0.20531829200403809 -0.12688904783513319 0 0.2082213899375045 -0.10930766451895391 0 0.20988388920491649 -0.11965744042234611 0 0.2014268814114831 -0.11915697474252721 0 0.2014268814114831 -0.11915697474252721 0 0.19089281935413971 -0.1194352299247846 0 0.19639192445886139 -0.1086795206565879 0 0.2082213899375045 -0.10930766451895391 0 0.2014268814114831 -0.11915697474252721 0 0.19639192445886139 -0.1086795206565879 0 0.2014268814114831 -0.11915697474252721 0 0.19089281935413971 -0.1194352299247846 0 0.19785297350943851 -0.13097294509735741 0 0.1847960892898739 -0.10995059135664149 0 0.19089281935413971 -0.1194352299247846 0 0.19639192445886139 -0.1086795206565879 0 0.18622890667791009 -0.096822154755258169 0 0.1847960892898739 -0.10995059135664149 0 0.19639192445886139 -0.1086795206565879 0 0.18622890667791009 -0.096822154755258169 0 0.2045950829692984 -0.098263736782735631 0 0.19639192445886139 -0.1086795206565879 0 0.2082213899375045 -0.10930766451895391 0 0.2045950829692984 -0.098263736782735631 0 0.19639192445886139 -0.1086795206565879 0 0.18622890667791009 -0.096822154755258169 0 0.2045950829692984 -0.098263736782735631 0 0.19562642886452061 -0.083419464066169721 0 0.1843821839217035 -0.070545878875945614 0 0.18276577523080559 -0.053864837928145073 0 0.20243455912652891 -0.06446172691138502 0 0.1843821839217035 -0.070545878875945614 0 0.19562642886452061 -0.083419464066169721 0 0.20243455912652891 -0.06446172691138502 0 0.22051918602121881 -0.055132727610052473 0 0.20243455912652891 -0.06446172691138502 0 0.21968061038163761 -0.069421444936947713 0 0.20243455912652891 -0.06446172691138502 0 0.21402066615414389 -0.086800577904236911 0 0.21968061038163761 -0.069421444936947713 0 0.19562642886452061 -0.083419464066169721 0 0.20243455912652891 -0.06446172691138502 0 0.21402066615414389 -0.086800577904236911 0 0.2045950829692984 -0.098263736782735631 0 0.19562642886452061 -0.083419464066169721 0 0.21402066615414389 -0.086800577904236911 0 0.21402066615414389 -0.086800577904236911 0 0.22908573211038449 -0.078384976644612511 0 0.21968061038163761 -0.069421444936947713 0 0.21402066615414389 -0.086800577904236911 0 0.22908573211038449 -0.078384976644612511 0 0.23252467765138879 -0.094733503775097649 0 0.23324639232980851 -0.060959439386943717 0 0.22908573211038449 -0.078384976644612511 0 0.21968061038163761 -0.069421444936947713 0 0.23324639232980851 -0.060959439386943717 0 0.22908573211038449 -0.078384976644612511 0 0.24550632562069369 -0.08148075171338201 0 0.25154037507169252 -0.057607439739242518 0 0.23324639232980851 -0.060959439386943717 0 0.24550632562069369 -0.08148075171338201 0 0.24550632562069369 -0.08148075171338201 0 0.24722441108325799 -0.1041764247766344 0 0.23252467765138879 -0.094733503775097649 0 0.22908573211038449 -0.078384976644612511 0 0.24550632562069369 -0.08148075171338201 0 0.23252467765138879 -0.094733503775097649 0 0.24722441108325799 -0.1041764247766344 0 0.23252467765138879 -0.094733503775097649 0 0.23442235853106591 -0.11008282933656929 0 0.21402066615414389 -0.086800577904236911 0 0.23252467765138879 -0.094733503775097649 0 0.2200078936451105 -0.1031526428031164 0 0.23252467765138879 -0.094733503775097649 0 0.2200078936451105 -0.1031526428031164 0 0.23442235853106591 -0.11008282933656929 0 0.2200078936451105 -0.1031526428031164 0 0.22100751941270841 -0.1172314169642418 0 0.23442235853106591 -0.11008282933656929 0 0.22100751941270841 -0.1172314169642418 0 0.235271169526163 -0.1227351101261135 0 0.23442235853106591 -0.11008282933656929 0 0.22100751941270841 -0.1172314169642418 0 0.235271169526163 -0.1227351101261135 0 0.22559392783497431 -0.128158856034185 0 0.235271169526163 -0.1227351101261135 0 0.23442235853106591 -0.11008282933656929 0 0.24837467886543441 -0.1184499432751434 0 0.24722441108325799 -0.1041764247766344 0 0.23442235853106591 -0.11008282933656929 0 0.24837467886543441 -0.1184499432751434 0 0.235271169526163 -0.1227351101261135 0 0.24837467886543441 -0.1184499432751434 0 0.24534171350248241 -0.1279746456375026 0 0.24534171350248241 -0.1279746456375026 0 0.2499934808746547 -0.1361915394396816 0 0.23699980487883779 -0.13443536232179579 0 0.2499934808746547 -0.1361915394396816 0 0.23699980487883779 -0.13443536232179579 0 0.24233785801107449 -0.14328091949908889 0 0.235271169526163 -0.1227351101261135 0 0.24534171350248241 -0.1279746456375026 0 0.23699980487883779 -0.13443536232179579 0 0.2453120823184772 -0.15291632623737991 0 0.22631608284255711 -0.15515901711086769 0 0.2453120823184772 -0.15291632623737991 0 0.23274959446042429 -0.14779222835259251 0 0.22631608284255711 -0.15515901711086769 0 0.25228952762352358 -0.1456491711810157 0 0.2453120823184772 -0.15291632623737991 0 0.24233785801107449 -0.14328091949908889 0 0.25228952762352358 -0.1456491711810157 0 0.2499934808746547 -0.1361915394396816 0 0.24233785801107449 -0.14328091949908889 0 0.2453120823184772 -0.15291632623737991 0 0.24233785801107449 -0.14328091949908889 0 0.23274959446042429 -0.14779222835259251 0 0.23699980487883779 -0.13443536232179579 0 0.24233785801107449 -0.14328091949908889 0 0.23274959446042429 -0.14779222835259251 0 0.2453120823184772 -0.15291632623737991 0 0.23274959446042429 -0.14779222835259251 0 0.23274959446042429 -0.14779222835259251 0 0.22464749156044289 -0.14664305340323289 0 0.22631608284255711 -0.15515901711086769 0 0.23274959446042429 -0.14779222835259251 0 0.22464749156044289 -0.14664305340323289 0 0.22801969862985219 -0.13884646662353031 0 0.22464749156044289 -0.14664305340323289 0 0.22801969862985219 -0.13884646662353031 0 0.21846111123534381 -0.14194380613559529 0 0.22464749156044289 -0.14664305340323289 0 0.21846111123534381 -0.14194380613559529 0 0.21769097063403711 -0.1494737487935785 0 0.22464749156044289 -0.14664305340323289 0 0.22631608284255711 -0.15515901711086769 0 0.21769097063403711 -0.1494737487935785 0 0.235271169526163 -0.1227351101261135 0 0.23699980487883779 -0.13443536232179579 0 0.22559392783497431 -0.128158856034185 0 0.23699980487883779 -0.13443536232179579 0 0.23274959446042429 -0.14779222835259251 0 0.22801969862985219 -0.13884646662353031 0 0.23699980487883779 -0.13443536232179579 0 0.22801969862985219 -0.13884646662353031 0 0.22559392783497431 -0.128158856034185 0 0.22801969862985219 -0.13884646662353031 0 0.22099919438916271 -0.13485137860121699 0 0.22559392783497431 -0.128158856034185 0 0.22801969862985219 -0.13884646662353031 0 0.22099919438916271 -0.13485137860121699 0 0.21846111123534381 -0.14194380613559529 0 0.22099919438916271 -0.13485137860121699 0 0.22559392783497431 -0.128158856034185 0 0.21443252218934089 -0.13030165766589191 0 0.22100751941270841 -0.1172314169642418 0 0.22559392783497431 -0.128158856034185 0 0.21443252218934089 -0.13030165766589191 0 0.20988388920491649 -0.11965744042234611 0 0.21443252218934089 -0.13030165766589191 0 0.20531829200403809 -0.12688904783513319 0 0.21443252218934089 -0.13030165766589191 0 0.20531829200403809 -0.12688904783513319 0 0.2040457271088722 -0.13510734145316861 0 0.21443252218934089 -0.13030165766589191 0 0.2040457271088722 -0.13510734145316861 0 0.21405663773024311 -0.1375358769543798 0 0.2040457271088722 -0.13510734145316861 0 0.21405663773024311 -0.1375358769543798 0 0.2120107625263529 -0.14522857169944031 0 0.22099919438916271 -0.13485137860121699 0 0.21443252218934089 -0.13030165766589191 0 0.21405663773024311 -0.1375358769543798 0 0.22099919438916271 -0.13485137860121699 0 0.21405663773024311 -0.1375358769543798 0 0.21846111123534381 -0.14194380613559529 0 0.2040457271088722 -0.13510734145316861 0 0.20732008336663729 -0.1574017079843581 0 0.22631608284255711 -0.15515901711086769 0 0.21769097063403711 -0.1494737487935785 0 0.20732008336663729 -0.1574017079843581 0 0.2040457271088722 -0.13510734145316861 0 0.20225225970696881 -0.14544317081530769 0 0.20732008336663729 -0.1574017079843581 0 0.2040457271088722 -0.13510734145316861 0 0.2120107625263529 -0.14522857169944031 0 0.20732008336663729 -0.1574017079843581 0 0.21846111123534381 -0.14194380613559529 0 0.2120107625263529 -0.14522857169944031 0 0.21769097063403711 -0.1494737487935785 0 0.21405663773024311 -0.1375358769543798 0 0.21846111123534381 -0.14194380613559529 0 0.2120107625263529 -0.14522857169944031 0 0.2120107625263529 -0.14522857169944031 0 0.21769097063403711 -0.1494737487935785 0 0.20732008336663729 -0.1574017079843581 0 0.1946361981446614 -0.14617160100395549 0 0.19305368414082591 -0.1590860164821406 0 0.18536821132964701 -0.13887140301188361 0 0.19305368414082591 -0.1590860164821406 0 0.18536821132964701 -0.13887140301188361 0 0.20225225970696881 -0.14544317081530769 0 0.19785297350943851 -0.13097294509735741 0 0.19979025484292659 -0.15829068872634511 0 0.1946361981446614 -0.14617160100395549 0 0.19785297350943851 -0.13097294509735741 0 0.19979025484292659 -0.15829068872634511 0 0.19785297350943851 -0.13097294509735741 0 0.19979025484292659 -0.15829068872634511 0 0.1946361981446614 -0.14617160100395549 0 0.19305368414082591 -0.1590860164821406 0 0.19979025484292659 -0.15829068872634511 0 0.20225225970696881 -0.14544317081530769 0 0.19979025484292659 -0.15829068872634511 0 0.20732008336663729 -0.1574017079843581 0 0.1946361981446614 -0.14617160100395549 0 0.19174477037528881 -0.13632087823765709 0 0.19785297350943851 -0.13097294509735741 0 0.1946361981446614 -0.14617160100395549 0 0.19174477037528881 -0.13632087823765709 0 0.18536821132964701 -0.13887140301188361 0 0.19174477037528881 -0.13632087823765709 0 0.18912169851740859 -0.12926756383743199 0 0.18536821132964701 -0.13887140301188361 0 0.19089281935413971 -0.1194352299247846 0 0.18912169851740859 -0.12926756383743199 0 0.19785297350943851 -0.13097294509735741 0 0.19174477037528881 -0.13632087823765709 0 0.18912169851740859 -0.12926756383743199 0 0.19785297350943851 -0.13097294509735741 0 0.20531829200403809 -0.12688904783513319 0 0.2040457271088722 -0.13510734145316861 0 0.19785297350943851 -0.13097294509735741 0 0.2014268814114831 -0.11915697474252721 0 0.20531829200403809 -0.12688904783513319 0 0.19785297350943851 -0.13097294509735741 0 0.2040457271088722 -0.13510734145316861 0 0.20225225970696881 -0.14544317081530769 0 0.19785297350943851 -0.13097294509735741 0 0.1988337245418571 -0.174288891493208 0 0.19730385488983149 -0.1833537047679987 0 0.2014042701792351 -0.18105003524374669 0 0.1988337245418571 -0.174288891493208 0 0.20091311619985691 -0.1741242376019233 0 0.1988337245418571 -0.174288891493208 0 0.20091311619985691 -0.1741242376019233 0 0.2014042701792351 -0.18105003524374669 0 0.20091311619985691 -0.1741242376019233 0 0.2014042701792351 -0.18105003524374669 0 0.1988337245418571 -0.174288891493208 0 0.2014042701792351 -0.18105003524374669 0 0.19730385488983149 -0.1833537047679987 0 0.18765669005810079 -0.18306628881120879 0 0.1881809371519125 -0.19339638888673469 0 0.1988337245418571 -0.174288891493208 0 0.19730385488983149 -0.1833537047679987 0 0.18765669005810079 -0.18306628881120879 0 0.1988337245418571 -0.174288891493208 0 0.1834334742507881 -0.17550834004080881 0 0.1988337245418571 -0.174288891493208 0 0.18765669005810079 -0.18306628881120879 0 0.1834334742507881 -0.17550834004080881 0 0.1988337245418571 -0.174288891493208 0 0.19305368414082591 -0.1590860164821406 0 0.1834334742507881 -0.17550834004080881 0 0.20091311619985691 -0.1741242376019233 0 0.19979025484292659 -0.15829068872634511 0 0.1988337245418571 -0.174288891493208 0 0.20091311619985691 -0.1741242376019233 0 0.19979025484292659 -0.15829068872634511 0 0.20091311619985691 -0.1741242376019233 0 0.19979025484292659 -0.15829068872634511 0 0.20442441853775351 -0.16581178386575901 0 0.1988337245418571 -0.174288891493208 0 0.19305368414082591 -0.1590860164821406 0 0.19979025484292659 -0.15829068872634511 0 0.19305368414082591 -0.1590860164821406 0 0.19979025484292659 -0.15829068872634511 0 0.1988337245418571 -0.174288891493208 0 0.19305368414082591 -0.1590860164821406 0 0.22631608284255711 -0.15515901711086769 0 0.20732008336663729 -0.1574017079843581 0 0.20732008336663729 -0.1574017079843581 0 0.20967421974159359 -0.17343050115040931 0 0.21924294206232911 -0.16438058387595419 0 0.22631608284255711 -0.15515901711086769 0 0.20732008336663729 -0.1574017079843581 0 0.21924294206232911 -0.16438058387595419 0 0.20442441853775351 -0.16581178386575901 0 0.20732008336663729 -0.1574017079843581 0 0.20967421974159359 -0.17343050115040931 0 0.20091311619985691 -0.1741242376019233 0 0.20442441853775351 -0.16581178386575901 0 0.20967421974159359 -0.17343050115040931 0 0.20732008336663729 -0.1574017079843581 0 0.20967421974159359 -0.17343050115040931 0 0.19979025484292659 -0.15829068872634511 0 0.20442441853775351 -0.16581178386575901 0 0.20732008336663729 -0.1574017079843581 0 0.19979025484292659 -0.15829068872634511 0 0.20732008336663729 -0.1574017079843581 0 0.20967421974159359 -0.17343050115040931 0 0.21269204352823229 -0.19397819490435431 0 0.2014042701792351 -0.18105003524374669 0 0.20967421974159359 -0.17343050115040931 0 0.21269204352823229 -0.19397819490435431 0 0.20967421974159359 -0.17343050115040931 0 0.2267529540335487 -0.1869536844570244 0 0.21269204352823229 -0.19397819490435431 0 0.20091311619985691 -0.1741242376019233 0 0.2014042701792351 -0.18105003524374669 0 0.20967421974159359 -0.17343050115040931 0 0.20091311619985691 -0.1741242376019233 0 0.20967421974159359 -0.17343050115040931 0 0.20967421974159359 -0.17343050115040931 0 0.2267529540335487 -0.1869536844570244 0 0.2336613822985287 -0.1715311092581816 0 0.20967421974159359 -0.17343050115040931 0 0.2336613822985287 -0.1715311092581816 0 0.20967421974159359 -0.17343050115040931 0 0.2336613822985287 -0.1715311092581816 0 0.21924294206232911 -0.16438058387595419 0 0.22631608284255711 -0.15515901711086769 0 0.2336613822985287 -0.1715311092581816 0 0.21924294206232911 -0.16438058387595419 0 0.25764854485546401 -0.16963171736595609 0 0.2453120823184772 -0.15291632623737991 0 0.2336613822985287 -0.1715311092581816 0 0.25764854485546401 -0.16963171736595609 0 0.2336613822985287 -0.1715311092581816 0 0.2453120823184772 -0.15291632623737991 0 0.22631608284255711 -0.15515901711086769 0 0.2336613822985287 -0.1715311092581816 0 0.2267529540335487 -0.1869536844570244 0 0.2336613822985287 -0.1715311092581816 0 0.247303987410086 -0.19043137930135631 0 0.25764854485546401 -0.16963171736595609 0 0.2336613822985287 -0.1715311092581816 0 0.247303987410086 -0.19043137930135631 0 0.2267529540335487 -0.1869536844570244 0 0.247303987410086 -0.19043137930135631 0 0.23043313718930281 -0.20539723767082041 0 0.247303987410086 -0.19043137930135631 0 0.24828930851351119 -0.21071368277046901 0 0.23043313718930281 -0.20539723767082041 0 0.24828930851351119 -0.21071368277046901 0 0.23043313718930281 -0.20539723767082041 0 0.2324302835378341 -0.22261842884489369 0 0.2324302835378341 -0.22261842884489369 0 0.215688857919383 -0.21452897429185999 0 0.23043313718930281 -0.20539723767082041 0 0.21269204352823229 -0.19397819490435431 0 0.215688857919383 -0.21452897429185999 0 0.23043313718930281 -0.20539723767082041 0 0.2324302835378341 -0.22261842884489369 0 0.215688857919383 -0.21452897429185999 0 0.2267529540335487 -0.1869536844570244 0 0.23043313718930281 -0.20539723767082041 0 0.21269204352823229 -0.19397819490435431 0 0.2576596218415082 -0.24945354819836341 0 0.2420600592086338 -0.2364758816983151 0 0.23064896167212509 -0.24572427347926451 0 0.2576596218415082 -0.24945354819836341 0 0.23064896167212509 -0.24572427347926451 0 0.2576596218415082 -0.24945354819836341 0 0.2420600592086338 -0.2364758816983151 0 0.2491683717759762 -0.23071478296843109 0 0.2576596218415082 -0.24945354819836341 0 0.2420600592086338 -0.2364758816983151 0 0.2420600592086338 -0.2364758816983151 0 0.23064896167212509 -0.24572427347926451 0 0.2491683717759762 -0.23071478296843109 0 0.2324302835378341 -0.22261842884489369 0 0.2420600592086338 -0.2364758816983151 0 0.2491683717759762 -0.23071478296843109 0 0.2324302835378341 -0.22261842884489369 0 0.24828930851351119 -0.21071368277046901 0 0.2491683717759762 -0.23071478296843109 0 0.2324302835378341 -0.22261842884489369 0 0.2420600592086338 -0.2364758816983151 0 0.22887248084934289 -0.22550480527021599 0 0.2324302835378341 -0.22261842884489369 0 0.2420600592086338 -0.2364758816983151 0 0.22887248084934289 -0.22550480527021599 0 0.2420600592086338 -0.2364758816983151 0 0.2491683717759762 -0.23071478296843109 0 0.22887248084934289 -0.22550480527021599 0 0.22705572442083249 -0.23456834532353199 0 0.215688857919383 -0.21452897429185999 0 0.22705572442083249 -0.23456834532353199 0 0.22007758599243099 -0.2442647177401156 0 0.215688857919383 -0.21452897429185999 0 0.22887248084934289 -0.22550480527021599 0 0.2324302835378341 -0.22261842884489369 0 0.215688857919383 -0.21452897429185999 0 0.22887248084934289 -0.22550480527021599 0 0.215688857919383 -0.21452897429185999 0 0.2420600592086338 -0.2364758816983151 0 0.22887248084934289 -0.22550480527021599 0 0.22705572442083249 -0.23456834532353199 0 0.2420600592086338 -0.2364758816983151 0 0.22705572442083249 -0.23456834532353199 0 0.23064896167212509 -0.24572427347926451 0 0.22705572442083249 -0.23456834532353199 0 0.22007758599243099 -0.2442647177401156 0 0.23064896167212509 -0.24572427347926451 0 0.2213936436923723 -0.25322546312908928 0 0.23064896167212509 -0.24572427347926451 0 0.2213936436923723 -0.25322546312908928 0 0.22007758599243099 -0.2442647177401156 0 0.23064896167212509 -0.24572427347926451 0 0.2213936436923723 -0.25322546312908928 0 0.22007758599243099 -0.2442647177401156 0 0.22007758599243099 -0.2442647177401156 0 0.23064896167212509 -0.24572427347926451 0 0.2213936436923723 -0.25322546312908928 0 0.22007758599243099 -0.2442647177401156 0 0.2057469254243183 -0.24228612966306071 0 0.22007758599243099 -0.2442647177401156 0 0.2057469254243183 -0.24228612966306071 0 0.2045508544894088 -0.2254202472550072 0 0.22007758599243099 -0.2442647177401156 0 0.2057469254243183 -0.24228612966306071 0 0.2057469254243183 -0.24228612966306071 0 0.2045508544894088 -0.2254202472550072 0 0.22007758599243099 -0.2442647177401156 0 0.2045508544894088 -0.2254202472550072 0 0.215688857919383 -0.21452897429185999 0 0.22007758599243099 -0.2442647177401156 0 0.215688857919383 -0.21452897429185999 0 0.2045508544894088 -0.2254202472550072 0 0.1870097551832019 -0.21745706546592311 0 0.1812011654604006 -0.23889717576409741 0 0.2057469254243183 -0.24228612966306071 0 0.2045508544894088 -0.2254202472550072 0 0.1812011654604006 -0.23889717576409741 0 0.19504556091500019 -0.25145433893977859 0 0.2057469254243183 -0.24228612966306071 0 0.1812011654604006 -0.23889717576409741 0 0.2057469254243183 -0.24228612966306071 0 0.1812011654604006 -0.23889717576409741 0 0.21269204352823229 -0.19397819490435431 0 0.20837080005482431 -0.19937365854239339 0 0.215688857919383 -0.21452897429185999 0 0.2014042701792351 -0.18105003524374669 0 0.20837080005482431 -0.19937365854239339 0 0.20335478355449421 -0.20855436484695419 0 0.2014042701792351 -0.18105003524374669 0 0.21269204352823229 -0.19397819490435431 0 0.20837080005482431 -0.19937365854239339 0 0.2014042701792351 -0.18105003524374669 0 0.20837080005482431 -0.19937365854239339 0 0.2045508544894088 -0.2254202472550072 0 0.20335478355449421 -0.20855436484695419 0 0.21269204352823229 -0.19397819490435431 0 0.215688857919383 -0.21452897429185999 0 0.2045508544894088 -0.2254202472550072 0 0.215688857919383 -0.21452897429185999 0 0.20335478355449421 -0.20855436484695419 0 0.215688857919383 -0.21452897429185999 0 0.20636816858276261 -0.20678290477326269 0 0.215688857919383 -0.21452897429185999 0 0.20335478355449421 -0.20855436484695419 0 0.20837080005482431 -0.19937365854239339 0 0.20636816858276261 -0.20678290477326269 0 0.20335478355449421 -0.20855436484695419 0 0.215688857919383 -0.21452897429185999 0 0.20636816858276261 -0.20678290477326269 0 0.20335478355449421 -0.20855436484695419 0 0.20837080005482431 -0.19937365854239339 0 0.215688857919383 -0.21452897429185999 0 0.20636816858276261 -0.20678290477326269 0 0.20335478355449421 -0.20855436484695419 0 0.18324681161101589 -0.19882796961922841 0 0.20335478355449421 -0.20855436484695419 0 0.18324681161101589 -0.19882796961922841 0 0.1870097551832019 -0.21745706546592311 0 0.2045508544894088 -0.2254202472550072 0 0.20335478355449421 -0.20855436484695419 0 0.1870097551832019 -0.21745706546592311 0 0.20335478355449421 -0.20855436484695419 0 0.2002648571499244 -0.20339365411293489 0 0.18324681161101589 -0.19882796961922841 0 0.2014042701792351 -0.18105003524374669 0 0.20335478355449421 -0.20855436484695419 0 0.2014042701792351 -0.18105003524374669 0 0.20335478355449421 -0.20855436484695419 0 0.2002648571499244 -0.20339365411293489 0 0.2002648571499244 -0.20339365411293489 0 0.1881809371519125 -0.19339638888673469 0 0.19730385488983149 -0.1833537047679987 0 0.2002648571499244 -0.20339365411293489 0 0.1881809371519125 -0.19339638888673469 0 0.2002648571499244 -0.20339365411293489 0 0.1881809371519125 -0.19339638888673469 0 0.18324681161101589 -0.19882796961922841 0 0.19730385488983149 -0.1833537047679987 0 0.2014042701792351 -0.18105003524374669 0 0.2002648571499244 -0.20339365411293489 0 0.19730385488983149 -0.1833537047679987 0 0.1881809371519125 -0.19339638888673469 0 0.18324681161101589 -0.19882796961922841 0 0.16779852360695549 -0.21583374354560891 0 0.1679624139491544 -0.19143477785951679 0 0.1881809371519125 -0.19339638888673469 0 0.18324681161101589 -0.19882796961922841 0 0.1679624139491544 -0.19143477785951679 0 0.18324681161101589 -0.19882796961922841 0 0.1679624139491544 -0.19143477785951679 0 0.1881809371519125 -0.19339638888673469 0 0.18324681161101589 -0.19882796961922841 0 0.18324681161101589 -0.19882796961922841 0 0.1870097551832019 -0.21745706546592311 0 0.16779852360695549 -0.21583374354560891 0 0.18324681161101589 -0.19882796961922841 0 0.16779852360695549 -0.21583374354560891 0 0.16779852360695549 -0.21583374354560891 0 0.15647475406626449 -0.1987539046758271 0 0.1679624139491544 -0.19143477785951679 0 0.15647475406626449 -0.1987539046758271 0 0.1679624139491544 -0.19143477785951679 0 0.15267801628729299 -0.18404158609980509 0 0.1679624139491544 -0.19143477785951679 0 0.15267801628729299 -0.18404158609980509 0 0.1870097551832019 -0.21745706546592311 0 0.16779852360695549 -0.21583374354560891 0 0.1812011654604006 -0.23889717576409741 0 0.16779852360695549 -0.21583374354560891 0 0.1523502356028956 -0.23283951747198961 0 0.16779852360695549 -0.21583374354560891 0 0.1812011654604006 -0.23889717576409741 0 0.1523502356028956 -0.23283951747198961 0 0.16199683441912749 -0.25415610895316398 0 0.1812011654604006 -0.23889717576409741 0 0.1523502356028956 -0.23283951747198961 0 0.16199683441912749 -0.25415610895316398 0 0.1523502356028956 -0.23283951747198961 0 0.1369019475988357 -0.2498452913983702 0 0.1523502356028956 -0.23283951747198961 0 0.14057202625213441 -0.22182136198060171 0 0.1369019475988357 -0.2498452913983702 0 0.1523502356028956 -0.23283951747198961 0 0.1369019475988357 -0.2498452913983702 0 0.16779852360695549 -0.21583374354560891 0 0.1523502356028956 -0.23283951747198961 0 0.14057202625213441 -0.22182136198060171 0 0.12183539310184011 -0.22622498648806369 0 0.14057202625213441 -0.22182136198060171 0 0.1369019475988357 -0.2498452913983702 0 0.14240522355222471 -0.20525461765563979 0 0.1507304351516435 -0.1780978871441235 0 0.15267801628729299 -0.18404158609980509 0 0.14240522355222471 -0.20525461765563979 0 0.1507304351516435 -0.1780978871441235 0 0.14240522355222471 -0.20525461765563979 0 0.14165545632939749 -0.18409561460941681 0 0.1507304351516435 -0.1780978871441235 0 0.15647475406626449 -0.1987539046758271 0 0.14240522355222471 -0.20525461765563979 0 0.15267801628729299 -0.18404158609980509 0 0.16779852360695549 -0.21583374354560891 0 0.14057202625213441 -0.22182136198060171 0 0.14240522355222471 -0.20525461765563979 0 0.16779852360695549 -0.21583374354560891 0 0.15647475406626449 -0.1987539046758271 0 0.14240522355222471 -0.20525461765563979 0 0.14057202625213441 -0.22182136198060171 0 0.14240522355222471 -0.20525461765563979 0 0.12529485837298551 -0.2052603223955643 0 0.12183539310184011 -0.22622498648806369 0 0.14057202625213441 -0.22182136198060171 0 0.12529485837298551 -0.2052603223955643 0 0.14240522355222471 -0.20525461765563979 0 0.13278120198650559 -0.19096592431229051 0 0.14165545632939749 -0.18409561460941681 0 0.14240522355222471 -0.20525461765563979 0 0.12529485837298551 -0.2052603223955643 0 0.13278120198650559 -0.19096592431229051 0 0.1235098410480293 -0.1897733682860277 0 0.12529485837298551 -0.2052603223955643 0 0.13278120198650559 -0.19096592431229051 0 0.1235098410480293 -0.1897733682860277 0 0.13278120198650559 -0.19096592431229051 0 0.12875941044611591 -0.18168788496672789 0 0.13278120198650559 -0.19096592431229051 0 0.12875941044611591 -0.18168788496672789 0 0.13493725038366319 -0.17892145425979891 0 0.1235098410480293 -0.1897733682860277 0 0.1238576652750592 -0.17359876882703071 0 0.12875941044611591 -0.18168788496672789 0 0.1238576652750592 -0.17359876882703071 0 0.12875941044611591 -0.18168788496672789 0 0.130345661194292 -0.1744871852072401 0 0.12875941044611591 -0.18168788496672789 0 0.130345661194292 -0.1744871852072401 0 0.13493725038366319 -0.17892145425979891 0 0.13493725038366319 -0.17892145425979891 0 0.14165545632939749 -0.18409561460941681 0 0.1412924309356999 -0.175838536784272 0 0.130345661194292 -0.1744871852072401 0 0.13594408242631459 -0.1731366992354334 0 0.13493725038366319 -0.17892145425979891 0 0.13594408242631459 -0.1731366992354334 0 0.13493725038366319 -0.17892145425979891 0 0.1412924309356999 -0.175838536784272 0 0.13594408242631459 -0.1731366992354334 0 0.1412924309356999 -0.175838536784272 0 0.1425089792112498 -0.17011478905469471 0 0.13278120198650559 -0.19096592431229051 0 0.13493725038366319 -0.17892145425979891 0 0.14165545632939749 -0.18409561460941681 0 0.14165545632939749 -0.18409561460941681 0 0.1474110067751393 -0.17836073171067821 0 0.1507304351516435 -0.1780978871441235 0 0.14165545632939749 -0.18409561460941681 0 0.1412924309356999 -0.175838536784272 0 0.1474110067751393 -0.17836073171067821 0 0.1412924309356999 -0.175838536784272 0 0.14623369136605069 -0.17454235074135219 0 0.1425089792112498 -0.17011478905469471 0 0.14623369136605069 -0.17454235074135219 0 0.1474110067751393 -0.17836073171067821 0 0.1507304351516435 -0.1780978871441235 0 0.1412924309356999 -0.175838536784272 0 0.14623369136605069 -0.17454235074135219 0 0.1474110067751393 -0.17836073171067821 0 0.1474110067751393 -0.17836073171067821 0 0.1507304351516435 -0.1780978871441235 0 0.14623369136605069 -0.17454235074135219 0 0.1507304351516435 -0.1780978871441235 0 0.14922560475652069 -0.1702998090129923 0 0.15249681367562881 -0.1638742100891597 0 0.1425089792112498 -0.17011478905469471 0 0.1307563894025707 -0.1664409111024284 0 0.15249681367562881 -0.1638742100891597 0 0.1307563894025707 -0.1664409111024284 0 0.15249681367562881 -0.1638742100891597 0 0.15518828118056821 -0.16355645215190209 0 0.15214981295147101 -0.14937756232198079 0 0.15249681367562881 -0.1638742100891597 0 0.15518828118056821 -0.16355645215190209 0 0.15518828118056821 -0.16355645215190209 0 0.154566057818081 -0.16558613655948379 0 0.1507304351516435 -0.1780978871441235 0 0.154566057818081 -0.16558613655948379 0 0.14922560475652069 -0.1702998090129923 0 0.1507304351516435 -0.1780978871441235 0 0.154566057818081 -0.16558613655948379 0 0.15249681367562881 -0.1638742100891597 0 0.154566057818081 -0.16558613655948379 0 0.15249681367562881 -0.1638742100891597 0 0.15518828118056821 -0.16355645215190209 0 0.154566057818081 -0.16558613655948379 0 0.15249681367562881 -0.1638742100891597 0 0.154566057818081 -0.16558613655948379 0 0.14922560475652069 -0.1702998090129923 0 0.15249681367562881 -0.1638742100891597 0 0.14922560475652069 -0.1702998090129923 0 0.1425089792112498 -0.17011478905469471 0 0.14623369136605069 -0.17454235074135219 0 0.14922560475652069 -0.1702998090129923 0 0.1425089792112498 -0.17011478905469471 0 0.15249681367562881 -0.1638742100891597 0 0.13784478450994461 -0.15175229752308431 0 0.15249681367562881 -0.1638742100891597 0 0.1307563894025707 -0.1664409111024284 0 0.13784478450994461 -0.15175229752308431 0 0.13594408242631459 -0.1731366992354334 0 0.1425089792112498 -0.17011478905469471 0 0.1307563894025707 -0.1664409111024284 0 0.1238576652750592 -0.17359876882703071 0 0.130345661194292 -0.1744871852072401 0 0.1307563894025707 -0.1664409111024284 0 0.130345661194292 -0.1744871852072401 0 0.13594408242631459 -0.1731366992354334 0 0.1307563894025707 -0.1664409111024284 0 0.1307563894025707 -0.1664409111024284 0 0.1273970520991638 -0.1532817867802074 0 0.13784478450994461 -0.15175229752308431 0 0.1177942791398789 -0.15530355353830849 0 0.1307563894025707 -0.1664409111024284 0 0.1273970520991638 -0.1532817867802074 0 0.12319275534426111 -0.13963038495700819 0 0.13784478450994461 -0.15175229752308431 0 0.14231341405360681 -0.13536434312621151 0 0.12319275534426111 -0.13963038495700819 0 0.1273970520991638 -0.1532817867802074 0 0.13784478450994461 -0.15175229752308431 0 0.12319275534426111 -0.13963038495700819 0 0.13784478450994461 -0.15175229752308431 0 0.12319275534426111 -0.13963038495700819 0 0.13071413744654301 -0.1199166731996731 0 0.14231341405360681 -0.13536434312621151 0 0.14899920342532449 -0.1138473029921208 0 0.14231341405360681 -0.13536434312621151 0 0.16398616931028109 -0.13485785702842679 0 0.14231341405360681 -0.13536434312621151 0 0.15214981295147101 -0.14937756232198079 0 0.16398616931028109 -0.13485785702842679 0 0.13784478450994461 -0.15175229752308431 0 0.14231341405360681 -0.13536434312621151 0 0.15214981295147101 -0.14937756232198079 0 0.15249681367562881 -0.1638742100891597 0 0.13784478450994461 -0.15175229752308431 0 0.15214981295147101 -0.14937756232198079 0 0.15518828118056821 -0.16355645215190209 0 0.17102783862073151 -0.14953705007479901 0 0.16398616931028109 -0.13485785702842679 0 0.15518828118056821 -0.16355645215190209 0 0.16398616931028109 -0.13485785702842679 0 0.15518828118056821 -0.16355645215190209 0 0.15214981295147101 -0.14937756232198079 0 0.16398616931028109 -0.13485785702842679 0 0.17768273851846769 -0.11865678954162651 0 0.18536821132964701 -0.13887140301188361 0 0.17768273851846769 -0.11865678954162651 0 0.18912169851740859 -0.12926756383743199 0 0.18536821132964701 -0.13887140301188361 0 0.17768273851846769 -0.11865678954162651 0 0.16398616931028109 -0.13485785702842679 0 0.18536821132964701 -0.13887140301188361 0 0.19305368414082591 -0.1590860164821406 0 0.18536821132964701 -0.13887140301188361 0 0.180968110424547 -0.1517649602487576 0 0.17102783862073151 -0.14953705007479901 0 0.16398616931028109 -0.13485785702842679 0 0.18536821132964701 -0.13887140301188361 0 0.17102783862073151 -0.14953705007479901 0 0.180968110424547 -0.1517649602487576 0 0.17412098266069689 -0.16132123431702119 0 0.17102783862073151 -0.14953705007479901 0 0.18536821132964701 -0.13887140301188361 0 0.180968110424547 -0.1517649602487576 0 0.19305368414082591 -0.1590860164821406 0 0.17412098266069689 -0.16132123431702119 0 0.1834334742507881 -0.17550834004080881 0 0.19305368414082591 -0.1590860164821406 0 0.17412098266069689 -0.16132123431702119 0 0.19305368414082591 -0.1590860164821406 0 0.180968110424547 -0.1517649602487576 0 0.17412098266069689 -0.16132123431702119 0 0.17412098266069689 -0.16132123431702119 0 0.1834334742507881 -0.17550834004080881 0 0.16803322395971931 -0.17672778858841051 0 0.1881809371519125 -0.19339638888673469 0 0.16803322395971931 -0.17672778858841051 0 0.1881809371519125 -0.19339638888673469 0 0.1679624139491544 -0.19143477785951679 0 0.16803322395971931 -0.17672778858841051 0 0.18765669005810079 -0.18306628881120879 0 0.1834334742507881 -0.17550834004080881 0 0.16803322395971931 -0.17672778858841051 0 0.18765669005810079 -0.18306628881120879 0 0.1881809371519125 -0.19339638888673469 0 0.16803322395971931 -0.17672778858841051 0 0.1834334742507881 -0.17550834004080881 0 0.16803322395971931 -0.17672778858841051 0 0.1507304351516435 -0.1780978871441235 0 0.15267801628729299 -0.18404158609980509 0 0.16803322395971931 -0.17672778858841051 0 0.1507304351516435 -0.1780978871441235 0 0.16803322395971931 -0.17672778858841051 0 0.1507304351516435 -0.1780978871441235 0 0.154566057818081 -0.16558613655948379 0 0.16803322395971931 -0.17672778858841051 0 0.1679624139491544 -0.19143477785951679 0 0.15267801628729299 -0.18404158609980509 0 0.16803322395971931 -0.17672778858841051 0 0.15518828118056821 -0.16355645215190209 0 0.17412098266069689 -0.16132123431702119 0 0.16803322395971931 -0.17672778858841051 0 0.15518828118056821 -0.16355645215190209 0 0.154566057818081 -0.16558613655948379 0 0.16803322395971931 -0.17672778858841051 0 0.154566057818081 -0.16558613655948379 0 0.16803322395971931 -0.17672778858841051 0 0.15518828118056821 -0.16355645215190209 0 0.17102783862073151 -0.14953705007479901 0 0.17412098266069689 -0.16132123431702119 0 0.15518828118056821 -0.16355645215190209 0 0.17412098266069689 -0.16132123431702119 0 
</DataArray>
</Points>
<Cells>
<DataArray type="UInt32" Name="connectivity" format="ascii">
0 1 2 3 4 5 6 7 8 9 10 11 12 13 14 15 16 17 18 19 20 21 22 23 24 25 26 27 28 29 30 31 32 33 34 35 36 37 38 39 40 41 42 43 44 45 46 47 48 49 50 51 52 53 54 55 56 57 58 59 60 61 62 63 64 65 66 67 68 69 70 71 72 73 74 75 76 77 78 79 80 81 82 83 84 85 86 87 88 89 90 91 92 93 94 95 96 97 98 99 100 101 102 103 104 105 106 107 108 109 110 111 112 113 114 115 116 117 118 119 120 121 122 123 124 125 126 127 128 129 130 131 132 133 134 135 136 137 138 139 140 141 142 143 144 145 146 147 148 149 150 151 152 153 154 155 156 157 158 159 160 161 162 163 164 165 166 167 168 169 170 171 172 173 174 175 176 177 178 179 180 181 182 183 184 185 186 187 188 189 190 191 192 193 194 195 196 197 198 199 200 201 202 203 204 205 206 207 208 209 210 211 212 213 214 215 216 217 218 219 220 221 222 223 224 225 226 227 228 229 230 231 232 233 234 235 236 237 238 239 240 241 242 243 244 245 246 247 248 249 250 251 252 253 254 255 256 257 258 259 260 261 262 263 264 265 266 267 268 269 270 271 272 273 274 275 276 277 278 279 280 281 282 283 284 285 286 287 288 289 290 291 292 293 294 295 296 297 298 299 300 301 302 303 304 305 306 307 308 309 310 311 312 313 314 315 316 317 318 319 320 321 322 323 324 325 326 327 328 329 330 331 332 333 334 335 336 337 338 339 340 341 342 343 344 345 346 347 348 349 350 351 352 353 354 355 356 357 358 359 360 361 362 363 364 365 366 367 368 369 370 371 372 373 374 375 376 377 378 379 380 381 382 383 384 385 386 387 388 389 390 391 392 393 394 395 396 397 398 399 400 401 402 403 404 405 406 407 408 409 410 411 412 413 414 415 416 417 418 419 420 421 422 423 424 425 426 427 428 429 430 431 432 433 434 435 436 437 438 439 440 441 442 443 444 445 446 447 448 449 450 451 452 453 454 455 456 457 458 459 460 461 462 463 464 465 466 467 468 469 470 471 472 473 474 475 476 477 478 479 480 481 482 483 484 485 486 487 488 489 490 491 492 493 494 495 496 497 498 499 500 501 502 503 504 505 506 507 508 509 510 511 512 513 514 515 516 517 518 519 520 521 522 523 524 525 526 527 528 529 530 531 532 533 534 535 536 537 538 539 540 541 542 543 544 545 546 547 548 549 550 551 552 553 554 555 556 557 558 559 560 561 562 563 564 565 566 567 568 569 570 571 572 573 574 575 576 577 578 579 580 581 582 583 584 585 586 587 588 589 590 591 592 593 594 595 596 597 598 599 600 601 602 603 604 605 606 607 608 609 610 611 612 613 614 615 616 617 618 619 620 621 622 623 624 625 626 627 628 629 630 631 632 633 634 635 636 637 638 639 640 641 642 643 644 645 646 647 648 649 650 651 652 653 654 655 656 657 658 659 660 661 662 663 664 665 666 667 668 669 670 671 672 673 674 675 676 677 678 679 680 681 682 683 684 685 686 687 688 689 690 691 692 693 694 695 696 697 698 699 700 701 702 703 704 705 706 707 708 709 710 711 712 713 714 715 716 717 718 719 720 721 722 723 724 725 726 727 728 729 730 731 732 733 734 735 736 737 738 739 740 741 742 743 744 745 746 747 748 749 750 751 752 753 754 755 756 757 758 759 760 761 762 763 764 765 766 767 768 769 770 771 772 773 774 775 776 777 778 779 780 781 782 783 784 785 786 787 788 789 790 791 792 793 794 795 796 797 798 799 800 801 802 803 804 805 806 807 808 809 810 811 812 813 814 815 816 817 818 819 820 821 822 823 824 825 826 827 828 829 830 831 832 833 834 835 836 837 838 839 840 841 842 843 844 845 846 847 848 849 850 851 852 853 854 855 856 857 858 859 860 861 862 863 864 865 866 867 868 869 870 871 872 873 874 875 876 877 878 879 880 881 882 883 884 885 886 887 888 889 890 891 892 893 894 895 896 897 898 899 900 901 902 903 904 905 906 907 908 909 910 911 912 913 914 915 916 917 918 919 920 921 922 923 924 925 926 927 928 929 930 931 932 933 934 935 936 937 938 939 940 941 942 943 944 945 946 947 948 949 950 951 952 953 954 955 956 957 958 959 960 961 962 963 964 965 966 967 968 969 970 971 972 973 974 975 976 977 978 979 980 981 982 983 984 985 986 987 988 989 990 991 992 993 994 995 996 997 998 999 1000 1001 1002 1003 1004 1005 1006 1007 1008 1009 1010 1011 1012 1013 1014 1015 1016 1017 1018 1019 1020 1021 1022 1023 1024 1025 1026 1027 1028 1029 1030 1031 1032 1033 1034 1035 1036 1037 1038 1039 1040 1041 1042 1043 1044 1045 1046 1047 1048 1049 1050 1051 1052 1053 1054 1055 1056 1057 1058 1059 1060 1061 1062 1063 1064 1065 1066 1067 1068 1069 1070 1071 1072 1073 1074 1075 1076 1077 1078 1079 1080 1081 1082 1083 1084 1085 1086 1087 1088 1089 1090 1091 1092 1093 1094 1095 1096 1097 1098 1099 1100 1101 1102 1103 1104 1105 1106 1107 1108 1109 1110 1111 1112 1113 1114 1115 1116 1117 1118 1119 1120 1121 1122 1123 1124 1125 1126 1127 1128 1129 1130 1131 1132 1133 1134 1135 1136 1137 1138 1139 1140 1141 1142 1143 1144 1145 1146 1147 1148 1149 1150 1151 1152 1153 1154 1155 1156 1157 1158 1159 1160 1161 1162 1163 1164 1165 1166 1167 1168 1169 1170 1171 1172 1173 1174 1175 1176 1177 1178 1179 1180 1181 1182 1183 1184 1185 1186 1187 1188 1189 1190 1191 1192 1193 1194 1195 1196 1197 1198 1199 1200 1201 1202 1203 1204 1205 1206 1207 1208 1209 1210 1211 1212 1213 1214 1215 1216 1217 1218 1219 1220 1221 1222 1223 1224 1225 1226 1227 1228 1229 1230 1231 1232 1233 1234 1235 1236 1237 1238 1239 1240 1241 1242 1243 1244 1245 1246 1247 1248 1249 1250 1251 1252 1253 1254 1255 1256 1257 1258 1259 1260 1261 1262 1263 1264 1265 1266 1267 1268 1269 1270 1271 1272 1273 1274 1275 1276 1277 1278 1279 1280 1281 1282 1283 1284 1285 1286 1287 1288 1289 1290 1291 1292 1293 1294 1295 1296 1297 1298 1299 1300 1301 1302 1303 1304 1305 1306 1307 1308 1309 1310 1311 1312 1313 1314 1315 1316 1317 1318 1319 1320 1321 1322 1323 1324 1325 1326 1327 1328 1329 1330 1331 1332 1333 1334 1335 1336 1337 1338 1339 1340 1341 1342 1343 1344 1345 1346 1347 1348 1349 1350 1351 1352 1353 1354 1355 1356 1357 1358 1359 1360 1361 1362 1363 1364 1365 1366 1367 1368 1369 1370 1371 1372 1373 1374 1375 1376 1377 1378 1379 1380 1381 1382 1383 1384 1385 1386 1387 1388 1389 1390 1391 1392 1393 1394 1395 1396 1397 1398 1399 1400 1401 1402 1403 1404 1405 1406 1407 1408 1409 1410 1411 1412 1413 1414 1415 1416 1417 1418 1419 1420 1421 1422 1423 1424 1425 1426 1427 1428 1429 1430 1431 1432 1433 1434 1435 1436 1437 1438 1439 1440 1441 1442 1443 1444 1445 1446 1447 1448 1449 1450 1451 1452 1453 1454 1455 1456 1457 1458 1459 1460 1461 1462 1463 1464 1465 1466 1467 1468 1469 1470 1471 1472 1473 1474 1475 1476 1477 1478 1479 1480 1481 1482 1483 1484 1485 1486 1487 1488 1489 1490 1491 1492 1493 1494 1495 1496 1497 1498 1499 1500 1501 1502 1503 1504 1505 1506 1507 1508 1509 1510 1511 1512 1513 1514 1515 1516 1517 1518 1519 1520 1521 1522 1523 1524 1525 1526 1527 1528 1529 1530 1531 1532 1533 1534 1535 1536 1537 1538 1539 1540 1541 1542 1543 1544 1545 1546 1547 1548 1549 1550 1551 1552 1553 1554 1555 1556 1557 1558 1559 1560 1561 1562 1563 1564 1565 1566 1567 1568 1569 1570 1571 1572 1573 1574 1575 1576 1577 1578 1579 1580 1581 1582 1583 1584 1585 1586 1587 1588 1589 1590 1591 1592 1593 1594 1595 1596 1597 1598 1599 1600 1601 1602 1603 1604 1605 1606 1607 1608 1609 1610 1611 1612 1613 1614 1615 1616 1617 1618 1619 1620 1621 1622 1623 1624 1625 1626 1627 1628 1629 1630 1631 1632 1633 1634 1635 1636 1637 1638 1639 1640 1641 1642 1643 1644 1645 1646 1647 1648 1649 1650 1651 1652 1653 1654 1655 1656 1657 1658 1659 1660 1661 1662 1663 1664 1665 1666 1667 1668 1669 1670 1671 1672 1673 1674 1675 1676 1677 1678 1679 1680 1681 1682 1683 1684 1685 1686 1687 1688 1689 1690 1691 1692 1693 1694 1695 1696 1697 1698 1699 1700 1701 1702 1703 1704 1705 1706 1707 1708 1709 1710 1711 1712 1713 1714 1715 1716 1717 1718 1719 1720 1721 1722 1723 1724 1725 1726 1727 1728 1729 1730 1731 1732 1733 1734 1735 1736 1737 1738 1739 1740 1741 1742 1743 1744 1745 1746 1747 1748 1749 1750 1751 1752 1753 1754 1755 1756 1757 1758 1759 1760 1761 1762 1763 1764 1765 1766 1767 1768 1769 1770 1771 1772 1773 1774 1775 1776 1777 1778 1779 1780 1781 1782 1783 1784 1785 1786 1787 1788 1789 1790 1791 1792 1793 1794 1795 1796 1797 1798 1799 1800 1801 1802 1803 1804 1805 1806 1807 1808 1809 1810 1811 1812 1813 1814 1815 1816 1817 1818 1819 1820 1821 1822 1823 1824 1825 1826 1827 1828 1829 1830 1831 1832 1833 1834 1835 1836 1837 1838 1839 1840 1841 1842 1843 1844 1845 1846 1847 1848 1849 1850 1851 1852 1853 1854 1855 1856 1857 1858 1859 1860 1861 1862 1863 1864 1865 1866 1867 1868 1869 1870 1871 1872 1873 1874 1875 1876 1877 1878 1879 1880 1881 1882 1883 1884 1885 1886 1887 1888 1889 1890 1891 1892 1893 1894 1895 1896 1897 1898 1899 1900 1901 1902 1903 1904 1905 1906 1907 1908 1909 1910 1911 1912 1913 1914 1915 1916 1917 1918 1919 1920 1921 1922 1923 1924 1925 1926 1927 1928 1929 1930 1931 1932 1933 1934 1935 1936 1937 1938 1939 1940 1941 1942 1943 1944 1945 1946 1947 1948 1949 1950 1951 1952 1953 1954 1955 1956 1957 1958 1959 1960 1961 1962 1963 1964 1965 1966 1967 1968 1969 1970 1971 1972 1973 1974 1975 1976 1977 1978 1979 1980 1981 1982 1983 1984 1985 1986 1987 1988 1989 1990 1991 1992 1993 1994 1995 1996 1997 1998 1999 2000 2001 2002 2003 2004 2005 2006 2007 2008 2009 2010 2011 2012 2013 2014 2015 2016 2017 2018 2019 2020 2021 2022 2023 2024 2025 2026 2027 2028 2029 2030 2031 2032 2033 2034 2035 2036 2037 2038 2039 2040 2041 2042 2043 2044 2045 2046 2047 2048 2049 2050 2051 2052 2053 2054 2055 2056 2057 2058 2059 2060 2061 2062 2063 2064 2065 2066 2067 2068 2069 2070 2071 2072 2073 2074 2075 2076 2077 2078 2079 2080 2081 2082 2083 2084 2085 2086 2087 2088 2089 2090 2091 2092 2093 2094 2095 2096 2097 2098 2099 2100 2101 2102 2103 2104 2105 2106 2107 2108 2109 2110 2111 2112 2113 2114 2115 2116 2117 2118 2119 2120 2121 2122 2123 2124 2125 2126 2127 2128 2129 2130 2131 2132 2133 2134 2135 2136 2137 2138 2139 2140 2141 2142 2143 2144 2145 2146 2147 2148 2149 2150 2151 2152 2153 2154 2155 2156 2157 2158 2159 2160 2161 2162 2163 2164 2165 2166 2167 2168 2169 2170 2171 2172 2173 2174 2175 2176 2177 2178 2179 2180 2181 2182 2183 2184 2185 2186 2187 2188 2189 2190 2191 2192 2193 2194 2195 2196 2197 2198 2199 2200 2201 2202 2203 2204 2205 2206 2207 2208 2209 2210 2211 2212 2213 2214 2215 2216 2217 2218 2219 2220 2221 2222 2223 2224 2225 2226 2227 2228 2229 2230 2231 2232 2233 2234 2235 2236 2237 2238 2239 2240 2241 2242 2243 2244 2245 2246 2247 2248 2249 2250 2251 2252 2253 2254 2255 2256 2257 2258 2259 2260 2261 2262 2263 2264 2265 2266 2267 2268 2269 2270 2271 2272 2273 2274 2275 2276 2277 2278 2279 2280 2281 2282 2283 2284 2285 2286 2287 2288 2289 2290 2291 2292 2293 2294 2295 2296 2297 2298 2299 2300 2301 2302 2303 2304 2305 2306 2307 2308 2309 2310 2311 2312 2313 2314 2315 2316 2317 2318 2319 2320 2321 2322 2323 2324 2325 2326 2327 2328 2329 2330 2331 2332 2333 2334 2335 2336 2337 2338 2339 2340 2341 2342 2343 2344 2345 2346 2347 2348 2349 2350 2351 2352 2353 2354 2355 2356 2357 2358 2359 2360 2361 2362 2363 2364 2365 2366 2367 2368 2369 2370 2371 2372 2373 2374 2375 2376 2377 2378 2379 2380 2381 2382 2383 2384 2385 2386 2387 2388 2389 2390 2391 2392 2393 2394 2395 2396 2397 2398 2399 2400 2401 2402 2403 2404 2405 2406 2407 2408 2409 2410 2411 2412 2413 2414 2415 2416 2417 2418 2419 2420 2421 2422 2423 2424 2425 2426 2427 2428 2429 2430 2431 2432 2433 2434 2435 2436 2437 2438 2439 2440 2441 2442 2443 2444 2445 2446 2447 2448 2449 2450 2451 2452 2453 2454 2455 2456 2457 2458 2459 2460 2461 2462 2463 2464 2465 2466 2467 2468 2469 2470 2471 2472 2473 2474 2475 2476 2477 2478 2479 2480 2481 2482 2483 2484 2485 2486 2487 2488 2489 2490 2491 2492 2493 2494 2495 2496 2497 2498 2499 2500 2501 2502 2503 2504 2505 2506 2507 2508 2509 2510 2511 2512 2513 2514 2515 2516 2517 2518 2519 2520 2521 2522 2523 2524 2525 2526 2527 2528 2529 2530 2531 2532 2533 2534 2535 2536 2537 2538 2539 2540 2541 2542 2543 2544 2545 2546 2547 2548 2549 2550 2551 2552 2553 2554 2555 2556 2557 2558 2559 2560 2561 2562 2563 2564 2565 2566 2567 2568 2569 2570 2571 2572 2573 2574 2575 2576 2577 2578 2579 2580 2581 2582 2583 2584 2585 2586 2587 2588 2589 2590 2591 2592 2593 2594 2595 2596 2597 2598 2599 2600 2601 2602 2603 2604 2605 2606 2607 2608 2609 2610 2611 2612 2613 2614 2615 2616 2617 2618 2619 2620 2621 2622 2623 2624 2625 2626 2627 2628 2629 2630 2631 2632 2633 2634 2635 2636 2637 2638 2639 2640 2641 2642 2643 2644 2645 2646 2647 2648 2649 2650 2651 2652 2653 2654 2655 2656 2657 2658 2659 2660 2661 2662 2663 2664 2665 2666 2667 2668 2669 2670 2671 2672 2673 2674 2675 2676 2677 2678 2679 2680 2681 2682 2683 2684 2685 2686 2687 2688 2689 2690 2691 2692 2693 2694 2695 2696 2697 2698 2699 2700 2701 2702 2703 2704 2705 2706 2707 2708 2709 2710 2711 2712 2713 2714 2715 2716 2717 2718 2719 2720 2721 2722 2723 2724 2725 2726 2727 2728 2729 2730 2731 2732 2733 2734 2735 2736 2737 2738 2739 2740 2741 2742 2743 2744 2745 2746 2747 2748 2749 2750 2751 2752 2753 2754 2755 2756 2757 2758 2759 2760 2761 2762 2763 2764 2765 2766 2767 2768 2769 2770 2771 2772 2773 2774 2775 2776 2777 2778 2779 2780 2781 2782 2783 2784 2785 2786 2787 2788 2789 2790 2791 2792 2793 2794 2795 2796 2797 2798 2799 2800 2801 2802 2803 2804 2805 2806 2807 2808 2809 2810 2811 2812 2813 2814 2815 2816 2817 2818 2819 2820 2821 2822 2823 2824 2825 2826 2827 2828 2829 2830 2831 2832 2833 2834 2835 2836 2837 2838 2839 2840 2841 2842 2843 2844 2845 2846 2847 2848 2849 2850 2851 2852 2853 2854 2855 2856 2857 2858 2859 2860 2861 2862 2863 2864 2865 2866 2867 2868 2869 2870 2871 2872 2873 2874 2875 2876 2877 2878 2879 2880 2881 2882 2883 2884 2885 2886 2887 2888 2889 2890 2891 2892 2893 2894 2895 2896 2897 2898 2899 2900 2901 2902 2903 2904 2905 2906 2907 2908 2909 2910 2911 2912 2913 2914 2915 2916 2917 2918 2919 2920 2921 2922 2923 2924 2925 2926 2927 2928 2929 2930 2931 2932 2933 2934 2935 2936 2937 2938 2939 2940 2941 2942 2943 2944 2945 2946 2947 2948 2949 2950 2951 2952 2953 2954 2955 2956 2957 2958 2959 2960 2961 2962 2963 2964 2965 2966 2967 2968 2969 2970 2971 2972 2973 2974 2975 2976 2977 2978 2979 2980 2981 2982 2983 2984 2985 2986 2987 2988 2989 2990 2991 2992 2993 2994 2995 2996 2997 2998 2999 3000 3001 3002 3003 3004 3005 3006 3007 3008 3009 3010 3011 3012 3013 3014 3015 3016 3017 3018 3019 3020 3021 3022 3023 3024 3025 3026 3027 3028 3029 3030 3031 3032 3033 3034 3035 3036 3037 3038 3039 3040 3041 3042 3043 3044 3045 3046 3047 3048 3049 3050 3051 3052 3053 3054 3055 3056 3057 3058 3059 3060 3061 3062 3063 3064 3065 3066 3067 3068 3069 3070 3071 3072 3073 3074 3075 3076 3077 3078 3079 3080 3081 3082 3083 3084 3085 3086 3087 3088 3089 3090 3091 3092 3093 3094 3095 3096 3097 3098 3099 3100 3101 3102 3103 3104 3105 3106 3107 3108 3109 3110 3111 3112 3113 3114 3115 3116 3117 3118 3119 3120 3121 3122 3123 3124 3125 3126 3127 3128 3129 3130 3131 3132 3133 3134 3135 3136 3137 3138 3139 3140 3141 3142 3143 3144 3145 3146 3147 3148 3149 3150 3151 3152 3153 3154 3155 3156 3157 3158 3159 3160 3161 3162 3163 3164 3165 3166 3167 3168 3169 3170 3171 3172 3173 3174 3175 3176 3177 3178 3179 3180 3181 3182 3183 3184 3185 3186 3187 3188 3189 3190 3191 3192 3193 3194 3195 3196 3197 3198 3199 3200 3201 3202 3203 3204 3205 3206 3207 3208 3209 3210 3211 3212 3213 3214 3215 3216 3217 3218 3219 3220 3221 3222 3223 3224 3225 3226 3227 3228 3229 3230 3231 3232 3233 3234 3235 3236 3237 3238 3239 3240 3241 3242 3243 3244 3245 3246 3247 3248 3249 3250 3251 3252 3253 3254 3255 3256 3257 3258 3259 3260 3261 3262 3263 3264 3265 3266 3267 3268 3269 3270 3271 3272 3273 3274 3275 3276 3277 3278 3279 3280 3281 3282 3283 3284 3285 3286 3287 3288 3289 3290 3291 3292 3293 3294 3295 3296 3297 3298 3299 3300 3301 3302 3303 3304 3305 3306 3307 3308 3309 3310 3311 3312 3313 3314 3315 3316 3317 3318 3319 3320 3321 3322 3323 3324 3325 3326 3327 3328 3329 3330 3331 3332 3333 3334 3335 3336 3337 3338 3339 3340 3341 3342 3343 3344 3345 3346 3347 3348 3349 3350 3351 3352 3353 3354 3355 3356 3357 3358 3359 3360 3361 3362 3363 3364 3365 3366 3367 3368 3369 3370 3371 3372 3373 3374 3375 3376 3377 3378 3379 3380 3381 3382 3383 3384 3385 3386 3387 3388 3389 3390 3391 3392 3393 3394 3395 3396 3397 3398 3399 3400 3401 3402 3403 3404 3405 3406 3407 3408 3409 3410 3411 3412 3413 3414 3415 3416 3417 3418 3419 3420 3421 3422 3423 3424 3425 3426 3427 3428 3429 3430 3431 3432 3433 3434 3435 3436 3437 3438 3439 3440 3441 3442 3443 3444 3445 3446 3447 3448 3449 3450 3451 3452 3453 3454 3455 3456 3457 3458 3459 3460 3461 3462 3463 3464 3465 3466 3467 3468 3469 3470 3471 3472 3473 3474 3475 3476 3477 3478 3479 3480 3481 3482 3483 3484 3485 3486 3487 3488 3489 3490 3491 3492 3493 3494 3495 3496 3497 3498 3499 3500 3501 3502 3503 3504 3505 3506 3507 3508 3509 3510 3511 3512 3513 3514 3515 3516 3517 3518 3519 3520 3521 3522 3523 3524 3525 3526 3527 3528 3529 3530 3531 3532 3533 3534 3535 3536 3537 3538 3539 3540 3541 3542 3543 3544 3545 3546 3547 3548 3549 3550 3551 3552 3553 3554 3555 3556 3557 3558 3559 3560 3561 3562 3563 3564 3565 3566 3567 3568 3569 3570 3571 3572 3573 3574 3575 3576 3577 3578 3579 3580 3581 3582 3583 3584 3585 3586 3587 3588 3589 3590 3591 3592 3593 3594 3595 3596 3597 3598 3599 3600 3601 3602 3603 3604 3605 3606 3607 3608 3609 3610 3611 3612 3613 3614 3615 3616 3617 3618 3619 3620 3621 3622 3623 3624 3625 3626 3627 3628 3629 3630 3631 3632 3633 3634 3635 3636 3637 3638 3639 3640 3641 3642 3643 3644 3645 3646 3647 3648 3649 3650 3651 3652 3653 3654 3655 3656 3657 3658 3659 3660 3661 3662 3663 3664 3665 3666 3667 3668 3669 3670 3671 3672 3673 3674 3675 3676 3677 3678 3679 3680 3681 3682 3683 3684 3685 3686 3687 3688 3689 3690 3691 3692 3693 3694 3695 3696 3697 3698 3699 3700 3701 3702 3703 3704 3705 3706 3707 3708 3709 3710 3711 3712 3713 3714 3715 3716 3717 3718 3719 3720 3721 3722 3723 3724 3725 3726 3727 3728 3729 3730 3731 3732 3733 3734 3735 3736 3737 3738 3739 3740 3741 3742 3743 3744 3745 3746 3747 3748 3749 3750 3751 3752 3753 3754 3755 3756 3757 3758 3759 3760 3761 3762 3763 3764 3765 3766 3767 3768 3769 3770 3771 3772 3773 3774 3775 3776 3777 3778 3779 3780 3781 3782 3783 3784 3785 3786 3787 3788 3789 3790 3791 3792 3793 3794 3795 3796 3797 3798 3799 3800 3801 3802 3803 3804 3805 3806 3807 3808 3809 3810 3811 3812 3813 3814 3815 3816 3817 3818 3819 3820 3821 3822 3823 3824 3825 3826 3827 3828 3829 3830 3831 3832 3833 3834 3835 3836 3837 3838 3839 3840 3841 3842 3843 3844 3845 3846 3847 3848 3849 3850 3851 3852 3853 3854 3855 3856 3857 3858 3859 3860 3861 3862 3863 3864 3865 3866 3867 3868 3869 3870 3871 3872 3873 3874 3875 3876 3877 3878 3879 3880 3881 3882 3883 3884 3885 3886 3887 3888 3889 3890 3891 3892 3893 3894 3895 3896 3897 3898 3899 3900 3901 3902 3903 3904 3905 3906 3907 3908 3909 3910 3911 3912 3913 3914 3915 3916 3917 3918 3919 3920 3921 3922 3923 3924 3925 3926 3927 3928 3929 3930 3931 3932 3933 3934 3935 3936 3937 3938 3939 3940 3941 3942 3943 3944 3945 3946 3947 3948 3949 3950 3951 3952 3953 3954 3955 3956 3957 3958 3959 3960 3961 3962 3963 3964 3965 3966 3967 3968 3969 3970 3971 3972 3973 3974 3975 3976 3977 3978 3979 3980 3981 3982 3983 3984 3985 3986 3987 3988 3989 3990 3991 3992 3993 3994 3995 3996 3997 3998 3999 4000 4001 4002 4003 4004 4005 4006 4007 4008 4009 4010 4011 4012 4013 4014 4015 4016 4017 4018 4019 4020 4021 4022 4023 4024 4025 4026 4027 4028 4029 4030 4031 4032 4033 4034 4035 4036 4037 4038 4039 4040 4041 4042 4043 4044 4045 4046 4047 4048 4049 4050 4051 4052 4053 4054 4055 4056 4057 4058 4059 4060 4061 4062 4063 4064 4065 4066 4067 4068 4069 4070 4071 4072 4073 4074 4075 4076 4077 4078 4079 4080 4081 4082 4083 4084 4085 4086 4087 4088 4089 4090 4091 4092 4093 4094 4095 4096 4097 4098 4099 4100 4101 4102 4103 4104 4105 4106 4107 4108 4109 4110 4111 4112 4113 4114 4115 4116 4117 4118 4119 4120 4121 4122 4123 4124 4125 4126 4127 4128 4129 4130 4131 4132 4133 4134 4135 4136 4137 4138 4139 4140 4141 4142 4143 4144 4145 4146 4147 4148 4149 4150 4151 4152 4153 4154 4155 4156 4157 4158 4159 4160 4161 4162 4163 4164 4165 4166 4167 4168 4169 4170 4171 4172 4173 4174 4175 4176 4177 4178 4179 4180 4181 4182 4183 4184 4185 4186 4187 4188 4189 4190 4191 4192 4193 4194 4195 4196 4197 4198 4199 4200 4201 4202 4203 4204 4205 4206 4207 4208 4209 4210 4211 4212 4213 4214 4215 4216 4217 4218 4219 4220 4221 4222 4223 4224 4225 4226 4227 4228 4229 4230 4231 4232 4233 4234 4235 4236 4237 4238 4239 4240 4241 4242 4243 4244 4245 4246 4247 4248 4249 4250 4251 4252 4253 4254 4255 4256 4257 4258 4259 4260 4261 4262 4263 4264 4265 4266 4267 4268 4269 4270 4271 4272 4273 4274 4275 4276 4277 4278 4279 4280 4281 4282 4283 4284 4285 4286 4287 4288 4289 4290 4291 4292 4293 4294 4295 4296 4297 4298 4299 4300 4301 4302 4303 4304 4305 4306 4307 4308 4309 4310 4311 4312 4313 4314 4315 4316 4317 4318 4319 4320 4321 4322 4323 4324 4325 4326 4327 4328 4329 4330 4331 4332 4333 4334 4335 4336 4337 4338 4339 4340 4341 4342 4343 4344 4345 4346 4347 4348 4349 4350 4351 4352 4353 4354 4355 4356 4357 4358 4359 4360 4361 4362 4363 4364 4365 4366 4367 4368 4369 4370 4371 4372 4373 4374 4375 4376 4377 4378 4379 4380 4381 4382 4383 4384 4385 4386 4387 4388 4389 4390 4391 4392 4393 4394 4395 4396 4397 4398 4399 4400 4401 4402 4403 4404 4405 4406 4407 4408 4409 4410 4411 4412 4413 4414 4415 4416 4417 4418 4419 4420 4421 4422 4423 4424 4425 4426 4427 4428 4429 4430 4431 4432 4433 4434 4435 4436 4437 4438 4439 4440 4441 4442 4443 4444 4445 4446 4447 4448 4449 4450 4451 4452 4453 4454 4455 4456 4457 4458 4459 4460 4461 4462 4463 4464 4465 4466 4467 4468 4469 4470 4471 4472 4473 4474 4475 4476 4477 4478 4479 4480 4481 4482 4483 4484 4485 4486 4487 4488 4489 4490 4491 4492 4493 4494 4495 4496 4497 4498 4499 4500 4501 4502 4503 4504 4505 4506 4507 4508 4509 4510 4511 4512 4513 4514 4515 4516 4517 4518 4519 4520 4521 4522 4523 4524 4525 4526 4527 4528 4529 4530 4531 4532 4533 4534 4535 4536 4537 4538 4539 4540 4541 4542 4543 4544 4545 4546 4547 4548 4549 4550 4551 4552 4553 4554 4555 4556 4557 4558 4559 4560 4561 4562 4563 4564 4565 4566 4567 4568 4569 4570 4571 4572 4573 4574 4575 4576 4577 4578 4579 4580 4581 4582 4583 4584 4585 4586 4587 4588 4589 4590 4591 4592 4593 4594 4595 4596 4597 4598 4599 4600 4601 4602 4603 4604 4605 4606 4607 4608 4609 4610 4611 4612 4613 4614 4615 4616 4617 4618 4619 4620 4621 4622 4623 4624 4625 4626 4627 4628 4629 4630 4631 4632 4633 4634 4635 4636 4637 4638 4639 4640 4641 4642 4643 4644 4645 4646 4647 4648 4649 4650 4651 4652 4653 4654 4655 4656 4657 4658 4659 4660 4661 4662 4663 4664 4665 4666 4667 4668 4669 4670 4671 4672 4673 4674 4675 4676 4677 4678 4679 4680 4681 4682 4683 4684 4685 4686 4687 4688 4689 4690 4691 4692 4693 4694 4695 4696 4697 4698 4699 4700 4701 4702 4703 4704 4705 4706 4707 4708 4709 4710 4711 4712 4713 4714 4715 4716 4717 4718 4719 4720 4721 4722 4723 4724 4725 4726 4727 4728 4729 4730 4731 4732 4733 4734 4735 4736 4737 4738 4739 4740 4741 4742 4743 4744 4745 4746 4747 4748 4749 4750 4751 4752 4753 4754 4755 4756 4757 4758 4759 4760 4761 4762 4763 4764 4765 4766 4767 4768 4769 4770 4771 4772 4773 4774 4775 4776 4777 4778 4779 4780 4781 4782 4783 4784 4785 4786 4787 4788 4789 4790 4791 4792 4793 4794 4795 4796 4797 4798 4799 4800 4801 4802 4803 4804 4805 4806 4807 4808 4809 4810 4811 4812 4813 4814 4815 4816 4817 4818 4819 4820 4821 4822 4823 4824 4825 4826 4827 4828 4829 4830 4831 4832 4833 4834 4835 4836 4837 4838 4839 4840 4841 4842 4843 4844 4845 4846 4847 4848 4849 4850 4851 4852 4853 4854 4855 4856 4857 4858 4859 4860 4861 4862 4863 4864 4865 4866 4867 4868 4869 4870 4871 4872 4873 4874 4875 4876 4877 4878 4879 4880 4881 4882 4883 4884 4885 4886 4887 4888 4889 4890 4891 4892 4893 4894 4895 4896 4897 4898 4899 4900 4901 4902 4903 4904 4905 4906 4907 4908 4909 4910 4911 4912 4913 4914 4915 4916 4917 4918 4919 4920 4921 4922 4923 4924 4925 4926 4927 4928 4929 4930 4931 4932 4933 4934 4935 4936 4937 4938 4939 4940 4941 4942 4943 4944 4945 4946 4947 4948 4949 4950 4951 4952 4953 4954 4955 4956 4957 4958 4959 4960 4961 4962 4963 4964 4965 4966 4967 4968 4969 4970 4971 4972 4973 4974 4975 4976 4977 4978 4979 4980 4981 4982 4983 4984 4985 4986 4987 4988 4989 4990 4991 4992 4993 4994 4995 4996 4997 4998 4999 5000 5001 5002 5003 5004 5005 5006 5007 5008 5009 5010 5011 5012 5013 5014 5015 5016 5017 5018 5019 5020 5021 5022 5023 5024 5025 5026 5027 5028 5029 5030 5031 5032 5033 5034 5035 5036 5037 5038 5039 5040 5041 5042 5043 5044 5045 5046 5047 5048 5049 5050 5051 5052 5053 5054 5055 5056 5057 5058 5059 5060 5061 5062 5063 5064 5065 5066 5067 5068 5069 5070 5071 5072 5073 5074 5075 5076 5077 5078 5079 5080 5081 5082 5083 5084 5085 5086 5087 5088 5089 5090 5091 5092 5093 5094 5095 5096 5097 5098 5099 5100 5101 5102 5103 5104 5105 5106 5107 5108 5109 5110 5111 5112 5113 5114 5115 5116 5117 5118 5119 5120 5121 5122 5123 5124 5125 5126 5127 5128 5129 5130 5131 5132 5133 5134 5135 5136 5137 5138 5139 5140 5141 5142 5143 5144 5145 5146 5147 5148 5149 5150 5151 5152 5153 5154 5155 5156 5157 5158 5159 5160 5161 5162 5163 5164 5165 5166 5167 5168 5169 5170 5171 5172 5173 5174 5175 5176 5177 5178 5179 5180 5181 5182 5183 5184 5185 5186 5187 5188 5189 5190 5191 5192 5193 5194 5195 5196 5197 5198 5199 5200 5201 5202 5203 5204 5205 5206 5207 5208 5209 5210 5211 5212 5213 5214 5215 5216 5217 5218 5219 5220 5221 5222 5223 5224 5225 5226 5227 5228 5229 5230 5231 5232 5233 5234 5235 5236 5237 5238 5239 5240 5241 5242 5243 5244 5245 5246 5247 5248 5249 5250 5251 5252 5253 5254 5255 5256 5257 5258 5259 5260 5261 5262 5263 5264 5265 5266 5267 5268 5269 5270 5271 5272 5273 5274 5275 5276 5277 5278 5279 5280 5281 5282 5283 5284 5285 5286 5287 5288 5289 5290 5291 5292 5293 5294 5295 5296 5297 5298 5299 5300 5301 5302 5303 5304 5305 5306 5307 5308 5309 5310 5311 5312 5313 5314 5315 5316 5317 5318 5319 5320 5321 5322 5323 5324 5325 5326 5327 5328 5329 5330 5331 5332 5333 5334 5335 5336 5337 5338 5339 5340 5341 5342 5343 5344 5345 5346 5347 5348 5349 5350 5351 5352 5353 5354 5355 5356 5357 5358 5359 5360 5361 5362 5363 5364 5365 5366 5367 5368 5369 5370 5371 5372 5373 5374 5375 5376 5377 5378 5379 5380 5381 5382 5383 5384 5385 5386 5387 5388 5389 5390 5391 5392 5393 5394 5395 5396 5397 5398 5399 5400 5401 5402 5403 5404 5405 5406 5407 5408 5409 5410 5411 5412 5413 5414 5415 5416 5417 5418 5419 5420 5421 5422 5423 5424 5425 5426 5427 5428 5429 5430 5431 5432 5433 5434 5435 5436 5437 5438 5439 5440 5441 5442 5443 5444 5445 5446 5447 5448 5449 5450 5451 5452 5453 5454 5455 5456 5457 5458 5459 5460 5461 5462 5463 5464 5465 5466 5467 5468 5469 5470 5471 5472 5473 5474 5475 5476 5477 5478 5479 5480 5481 5482 5483 5484 5485 5486 5487 5488 5489 5490 5491 5492 5493 5494 5495 5496 5497 5498 5499 5500 5501 5502 5503 5504 5505 5506 5507 5508 5509 5510 5511 5512 5513 5514 5515 5516 5517 5518 5519 5520 5521 5522 5523 5524 5525 5526 5527 5528 5529 5530 5531 5532 5533 5534 5535 5536 5537 5538 5539 5540 5541 5542 5543 5544 5545 5546 5547 5548 5549 5550 5551 5552 5553 5554 5555 5556 5557 5558 5559 5560 5561 5562 5563 5564 5565 5566 5567 5568 5569 5570 5571 5572 5573 5574 5575 5576 5577 5578 5579 5580 5581 5582 5583 5584 5585 5586 5587 5588 5589 5590 5591 5592 5593 5594 5595 5596 5597 5598 5599 5600 5601 5602 5603 5604 5605 5606 5607 5608 5609 5610 5611 5612 5613 5614 5615 5616 5617 5618 5619 5620 5621 5622 5623 5624 5625 5626 5627 5628 5629 5630 5631 5632 5633 5634 5635 5636 5637 5638 5639 5640 5641 5642 5643 5644 5645 5646 5647 5648 5649 5650 5651 5652 5653 5654 5655 5656 5657 5658 5659 5660 5661 5662 5663 5664 5665 5666 5667 5668 5669 5670 5671 5672 5673 5674 5675 5676 5677 5678 5679 5680 5681 5682 5683 5684 5685 5686 5687 5688 5689 5690 5691 5692 5693 5694 5695 5696 5697 5698 5699 5700 5701 5702 5703 5704 5705 5706 5707 5708 5709 5710 5711 5712 5713 5714 5715 5716 5717 5718 5719 5720 5721 5722 5723 5724 5725 5726 5727 5728 5729 5730 5731 5732 5733 5734 5735 5736 5737 5738 5739 5740 5741 5742 5743 5744 5745 5746 5747 5748 5749 5750 5751 5752 5753 5754 5755 5756 5757 5758 5759 5760 5761 5762 5763 5764 5765 5766 5767 5768 5769 5770 5771 5772 5773 5774 5775 5776 5777 5778 5779 5780 5781 5782 5783 5784 5785 5786 5787 5788 5789 5790 5791 5792 5793 5794 5795 5796 5797 5798 5799 5800 5801 5802 5803 5804 5805 5806 5807 5808 5809 5810 5811 5812 5813 5814 5815 5816 5817 5818 5819 5820 5821 5822 5823 5824 5825 5826 5827 5828 5829 5830 5831 5832 5833 5834 5835 5836 5837 5838 5839 5840 5841 5842 5843 5844 5845 5846 5847 5848 5849 5850 5851 5852 5853 5854 5855 5856 5857 5858 5859 5860 5861 5862 5863 5864 5865 5866 5867 5868 5869 5870 5871 5872 5873 5874 5875 5876 5877 5878 5879 5880 5881 5882 5883 5884 5885 5886 5887 5888 5889 5890 5891 5892 5893 5894 5895 5896 5897 5898 5899 5900 5901 5902 5903 5904 5905 5906 5907 5908 5909 5910 5911 5912 5913 5914 5915 5916 5917 5918 5919 5920 5921 5922 5923 5924 5925 5926 5927 5928 5929 5930 5931 5932 5933 5934 5935 5936 5937 5938 5939 5940 5941 5942 5943 5944 5945 5946 5947 5948 5949 5950 5951 5952 5953 5954 5955 5956 5957 5958 5959 5960 5961 5962 5963 5964 5965 5966 5967 5968 5969 5970 5971 5972 5973 5974 5975 5976 5977 5978 5979 5980 5981 5982 5983 5984 5985 5986 5987 5988 5989 5990 5991 5992 5993 5994 5995 5996 5997 5998 5999 6000 6001 6002 6003 6004 6005 6006 6007 6008 6009 6010 6011 6012 6013 6014 6015 6016 6017 6018 6019 6020 6021 6022 6023 6024 6025 6026 6027 6028 6029 6030 6031 6032 6033 6034 6035 6036 6037 6038 6039 6040 6041 6042 6043 6044 6045 6046 6047 6048 6049 6050 6051 6052 6053 6054 6055 6056 6057 6058 6059 6060 6061 6062 6063 6064 6065 6066 6067 6068 6069 6070 6071 6072 6073 6074 6075 6076 6077 6078 6079 6080 6081 6082 6083 6084 6085 6086 6087 6088 6089 6090 6091 6092 6093 6094 6095 6096 6097 6098 6099 6100 6101 6102 6103 6104 6105 6106 6107 6108 6109 6110 6111 6112 6113 6114 6115 6116 6117 6118 6119 6120 6121 6122 6123 6124 6125 6126 6127 6128 6129 6130 6131 6132 6133 6134 6135 6136 6137 6138 6139 6140 6141 6142 6143 6144 6145 6146 6147 6148 6149 6150 6151 6152 6153 6154 6155 6156 6157 6158 6159 6160 6161 6162 6163 6164 6165 6166 6167 6168 6169 6170 6171 6172 6173 6174 6175 6176 6177 6178 6179 6180 6181 6182 6183 6184 6185 6186 6187 6188 6189 6190 6191 6192 6193 6194 6195 6196 6197 6198 6199 6200 6201 6202 6203 6204 6205 6206 6207 6208 6209 6210 6211 6212 6213 6214 6215 6216 6217 6218 6219 6220 6221 6222 6223 6224 6225 6226 6227 6228 6229 6230 6231 6232 6233 6234 6235 6236 6237 6238 6239 6240 6241 6242 6243 6244 6245 6246 6247 6248 6249 6250 6251 6252 6253 6254 6255 6256 6257 6258 6259 6260 6261 6262 6263 6264 6265 6266 6267 6268 6269 6270 6271 6272 6273 6274 6275 6276 6277 6278 6279 6280 6281 6282 6283 6284 6285 6286 6287 6288 6289 6290 6291 6292 6293 6294 6295 6296 6297 6298 6299 6300 6301 6302 6303 6304 6305 6306 6307 6308 6309 6310 6311 6312 6313 6314 6315 6316 6317 6318 6319 6320 6321 6322 6323 6324 6325 6326 6327 6328 6329 6330 6331 6332 6333 6334 6335 6336 6337 6338 6339 6340 6341 6342 6343 6344 6345 6346 6347 6348 6349 6350 6351 6352 6353 6354 6355 6356 6357 6358 6359 6360 6361 6362 6363 6364 6365 6366 6367 6368 6369 6370 6371 6372 6373 6374 6375 6376 6377 6378 6379 6380 6381 6382 6383 6384 6385 6386 6387 6388 6389 6390 6391 6392 6393 6394 6395 6396 6397 6398 6399 6400 6401 6402 6403 6404 6405 6406 6407 6408 6409 6410 6411 6412 6413 6414 6415 6416 6417 6418 6419 6420 6421 6422 6423 6424 6425 6426 6427 6428 6429 6430 6431 6432 6433 6434 6435 6436 6437 6438 6439 6440 6441 6442 6443 6444 6445 6446 6447 6448 6449 6450 6451 6452 6453 6454 6455 6456 6457 6458 6459 6460 6461 6462 6463 6464 6465 6466 6467 6468 6469 6470 6471 6472 6473 6474 6475 6476 6477 6478 6479 6480 6481 6482 6483 6484 6485 6486 6487 6488 6489 6490 6491 6492 6493 6494 6495 6496 6497 6498 6499 6500 6501 6502 6503 6504 6505 6506 6507 6508 6509 6510 6511 6512 6513 6514 6515 6516 6517 6518 6519 6520 6521 6522 6523 6524 6525 6526 6527 6528 6529 6530 6531 6532 6533 6534 6535 6536 6537 6538 6539 6540 6541 6542 6543 6544 6545 6546 6547 6548 6549 6550 6551 6552 6553 6554 6555 6556 6557 6558 6559 6560 6561 6562 6563 6564 6565 6566 6567 6568 6569 6570 6571 6572 6573 6574 6575 6576 6577 6578 6579 6580 6581 6582 6583 6584 6585 6586 6587 6588 6589 6590 6591 6592 6593 6594 6595 6596 6597 6598 6599 6600 6601 6602 6603 6604 6605 6606 6607 6608 6609 6610 6611 6612 6613 6614 6615 6616 6617 6618 6619 6620 6621 6622 6623 6624 6625 6626 6627 6628 6629 6630 6631 6632 6633 6634 6635 6636 6637 6638 6639 6640 6641 6642 6643 6644 6645 6646 6647 6648 6649 6650 6651 6652 6653 6654 6655 6656 6657 6658 6659 6660 6661 6662 6663 6664 6665 6666 6667 6668 6669 6670 6671 6672 6673 6674 6675 6676 6677 6678 6679 6680 6681 6682 6683 6684 6685 6686 6687 6688 6689 6690 6691 6692 6693 6694 6695 6696 6697 6698 6699 6700 6701 6702 6703 6704 6705 6706 6707 6708 6709 6710 6711 6712 6713 6714 6715 6716 6717 6718 6719 6720 6721 6722 6723 6724 6725 6726 6727 6728 6729 6730 6731 6732 6733 6734 6735 6736 6737 6738 6739 6740 6741 6742 6743 6744 6745 6746 6747 6748 6749 6750 6751 6752 6753 6754 6755 6756 6757 6758 6759 6760 6761 6762 6763 6764 6765 6766 6767 6768 6769 6770 6771 6772 6773 6774 6775 6776 6777 6778 6779 6780 6781 6782 6783 6784 6785 6786 6787 6788 6789 6790 6791 6792 6793 6794 6795 6796 6797 6798 6799 6800 6801 6802 6803 6804 6805 6806 6807 6808 6809 6810 6811 6812 6813 6814 6815 6816 6817 6818 6819 6820 6821 6822 6823 6824 6825 6826 6827 6828 6829 6830 6831 6832 6833 6834 6835 6836 6837 6838 6839 6840 6841 6842 6843 6844 6845 6846 6847 6848 6849 6850 6851 6852 6853 6854 6855 6856 6857 6858 6859 6860 6861 6862 6863 6864 6865 6866 6867 6868 6869 6870 6871 6872 6873 6874 6875 6876 6877 6878 6879 6880 6881 6882 6883 6884 6885 6886 6887 6888 6889 6890 6891 6892 6893 6894 6895 6896 6897 6898 6899 6900 6901 6902 6903 6904 6905 6906 6907 6908 6909 6910 6911 6912 6913 6914 6915 6916 6917 6918 6919 6920 6921 6922 6923 6924 6925 6926 6927 6928 6929 6930 6931 6932 6933 6934 6935 6936 6937 6938 6939 6940 6941 6942 6943 6944 6945 6946 6947 6948 6949 6950 6951 6952 6953 6954 6955 6956 6957 6958 6959 6960 6961 6962 6963 6964 6965 6966 6967 6968 6969 6970 6971 6972 6973 6974 6975 6976 6977 6978 6979 6980 6981 6982 6983 6984 6985 6986 6987 6988 6989 6990 6991 6992 6993 6994 6995 6996 6997 6998 6999 7000 7001 7002 7003 7004 7005 7006 7007 7008 7009 7010 7011 7012 7013 7014 7015 7016 7017 7018 7019 7020 7021 7022 7023 7024 7025 7026 7027 7028 7029 7030 7031 7032 7033 7034 7035 7036 7037 7038 7039 7040 7041 7042 7043 7044 7045 7046 7047 7048 7049 7050 7051 7052 7053 7054 7055 7056 7057 7058 7059 7060 7061 7062 7063 7064 7065 7066 7067 7068 7069 7070 7071 7072 7073 7074 7075 7076 7077 7078 7079 7080 7081 7082 7083 7084 7085 7086 7087 7088 7089 7090 7091 7092 7093 7094 7095 7096 7097 7098 7099 7100 7101 7102 7103 7104 7105 7106 7107 7108 7109 7110 7111 7112 7113 7114 7115 7116 7117 7118 7119 7120 7121 7122 7123 7124 7125 7126 7127 7128 7129 7130 7131 7132 7133 7134 7135 7136 7137 7138 7139 7140 7141 7142 7143 7144 7145 7146 7147 7148 7149 7150 7151 7152 7153 7154 7155 7156 7157 7158 7159 7160 7161 7162 7163 7164 7165 7166 7167 7168 7169 7170 7171 7172 7173 7174 7175 7176 7177 7178 7179 7180 7181 7182 7183 7184 7185 7186 7187 7188 7189 7190 7191 7192 7193 7194 7195 7196 7197 7198 7199 7200 7201 7202 7203 7204 7205 7206 7207 7208 7209 7210 7211 7212 7213 7214 7215 7216 7217 7218 7219 7220 7221 7222 7223 7224 7225 7226 7227 7228 7229 7230 7231 7232 7233 7234 7235 7236 7237 7238 7239 7240 7241 7242 7243 7244 7245 7246 7247 7248 7249 7250 7251 7252 7253 7254 7255 7256 7257 7258 7259 7260 7261 7262 7263 7264 7265 7266 7267 7268 7269 7270 7271 7272 7273 7274 7275 7276 7277 7278 7279 7280 7281 7282 7283 7284 7285 7286 7287 7288 7289 7290 7291 7292 7293 7294 7295 7296 7297 7298 7299 7300 7301 7302 7303 7304 7305 7306 7307 7308 7309 7310 7311 7312 7313 7314 7315 7316 7317 7318 7319 7320 7321 7322 7323 7324 7325 7326 7327 7328 7329 7330 7331 7332 7333 7334 7335 7336 7337 7338 7339 7340 7341 7342 7343 7344 7345 7346 7347 7348 7349 7350 7351 7352 7353 7354 7355 7356 7357 7358 7359 7360 7361 7362 7363 7364 7365 7366 7367 7368 7369 7370 7371 7372 7373 7374 7375 7376 7377 7378 7379 7380 7381 7382 7383 7384 7385 7386 7387 7388 7389 7390 7391 7392 7393 7394 7395 7396 7397 7398 7399 7400 7401 7402 7403 7404 7405 7406 7407 7408 7409 7410 7411 7412 7413 7414 7415 7416 7417 7418 7419 7420 7421 7422 7423 7424 7425 7426 7427 7428 7429 7430 7431 7432 7433 7434 7435 7436 7437 7438 7439 7440 7441 7442 7443 7444 7445 7446 7447 7448 7449 7450 7451 7452 7453 7454 7455 7456 7457 7458 7459 7460 7461 7462 7463 7464 7465 7466 7467 7468 7469 7470 7471 7472 7473 7474 7475 7476 7477 7478 7479 7480 7481 7482 7483 7484 7485 7486 7487 7488 7489 7490 7491 7492 7493 7494 7495 7496 7497 7498 7499 7500 7501 7502 7503 7504 7505 7506 7507 7508 7509 7510 7511 7512 7513 7514 7515 7516 7517 7518 7519 7520 7521 7522 7523 7524 7525 7526 7527 7528 7529 7530 7531 7532 7533 7534 7535 7536 7537 7538 7539 7540 7541 7542 7543 7544 7545 7546 7547 7548 7549 7550 7551 7552 7553 7554 7555 7556 7557 7558 7559 7560 7561 7562 7563 7564 7565 7566 7567 7568 7569 7570 7571 7572 7573 7574 7575 7576 7577 7578 7579 7580 7581 7582 7583 7584 7585 7586 7587 7588 7589 7590 7591 7592 7593 7594 7595 7596 7597 7598 7599 7600 7601 7602 7603 7604 7605 7606 7607 7608 7609 7610 7611 7612 7613 7614 7615 7616 7617 7618 7619 7620 7621 7622 7623 7624 7625 7626 7627 7628 7629 7630 7631 7632 7633 7634 7635 7636 7637 7638 7639 7640 7641 7642 7643 7644 7645 7646 7647 7648 7649 7650 7651 7652 7653 7654 7655 7656 7657 7658 7659 7660 7661 7662 7663 7664 7665 7666 7667 7668 7669 7670 7671 7672 7673 7674 7675 7676 7677 7678 7679 7680 7681 7682 7683 7684 7685 7686 7687 7688 7689 7690 7691 7692 7693 7694 7695 7696 7697 7698 7699 7700 7701 7702 7703 7704 7705 7706 7707 7708 7709 7710 7711 7712 7713 7714 7715 7716 7717 7718 7719 7720 7721 7722 7723 7724 7725 7726 7727 7728 7729 7730 7731 7732 7733 7734 7735 7736 7737 7738 7739 7740 7741 7742 7743 7744 7745 7746 7747 7748 7749 7750 7751 7752 7753 7754 7755 7756 7757 7758 7759 7760 7761 7762 7763 7764 7765 7766 7767 7768 7769 7770 7771 7772 7773 7774 7775 7776 7777 7778 7779 7780 7781 7782 7783 7784 7785 7786 7787 7788 7789 7790 7791 7792 7793 7794 7795 7796 7797 7798 7799 7800 7801 7802 7803 7804 7805 7806 7807 7808 7809 7810 7811 7812 7813 7814 7815 7816 7817 7818 7819 7820 7821 7822 7823 7824 7825 7826 7827 7828 7829 7830 7831 7832 7833 7834 7835 7836 7837 7838 7839 7840 7841 7842 7843 7844 7845 7846 7847 7848 7849 7850 7851 7852 7853 7854 7855 7856 7857 7858 7859 7860 7861 7862 7863 7864 7865 7866 7867 7868 7869 7870 7871 7872 7873 7874 7875 7876 7877 7878 7879 7880 7881 7882 7883 7884 7885 7886 7887 7888 7889 7890 7891 7892 7893 7894 7895 7896 7897 7898 7899 7900 7901 7902 7903 7904 7905 7906 7907 7908 7909 7910 7911 7912 7913 7914 7915 7916 7917 7918 7919 7920 7921 7922 7923 7924 7925 7926 7927 7928 7929 7930 7931 7932 7933 7934 7935 7936 7937 7938 7939 7940 7941 7942 7943 7944 7945 7946 7947 7948 7949 7950 7951 7952 7953 7954 7955 7956 7957 7958 7959 7960 7961 7962 7963 7964 7965 7966 7967 7968 7969 7970 7971 7972 7973 7974 7975 7976 7977 7978 7979 7980 7981 7982 7983 7984 7985 7986 7987 7988 7989 7990 7991 7992 7993 7994 7995 7996 7997 7998 7999 8000 8001 8002 8003 8004 8005 8006 8007 8008 8009 8010 8011 8012 8013 8014 8015 8016 8017 8018 8019 8020 8021 8022 8023 8024 8025 8026 8027 8028 8029 8030 8031 8032 8033 8034 8035 8036 8037 8038 8039 8040 8041 8042 8043 8044 8045 8046 8047 8048 8049 8050 8051 8052 8053 8054 8055 8056 8057 8058 8059 8060 8061 8062 8063 8064 8065 8066 8067 8068 8069 8070 8071 8072 8073 8074 8075 8076 8077 8078 8079 8080 8081 8082 8083 8084 8085 8086 8087 8088 8089 8090 8091 8092 8093 8094 8095 8096 8097 8098 8099 8100 8101 8102 8103 8104 8105 8106 8107 8108 8109 8110 8111 8112 8113 8114 8115 8116 8117 8118 8119 8120 8121 8122 8123 8124 8125 8126 8127 8128 8129 8130 8131 8132 8133 8134 8135 8136 8137 8138 8139 8140 8141 8142 8143 8144 8145 8146 8147 8148 8149 8150 8151 8152 8153 8154 8155 8156 8157 8158 8159 8160 8161 8162 8163 8164 8165 8166 8167 8168 8169 8170 8171 8172 8173 8174 8175 8176 8177 8178 8179 8180 8181 8182 8183 8184 8185 8186 8187 8188 8189 8190 8191 8192 8193 8194 8195 8196 8197 8198 8199 8200 8201 8202 8203 8204 8205 8206 8207 8208 8209 8210 8211 8212 8213 8214 8215 8216 8217 8218 8219 8220 8221 8222 8223 8224 8225 8226 8227 8228 8229 8230 8231 8232 8233 8234 8235 8236 8237 8238 8239 8240 8241 8242 8243 8244 8245 8246 8247 8248 8249 8250 8251 8252 8253 8254 8255 8256 8257 8258 8259 8260 8261 8262 8263 8264 8265 8266 8267 8268 8269 8270 8271 8272 8273 8274 8275 8276 8277 8278 8279 8280 8281 8282 8283 8284 8285 8286 8287 8288 8289 8290 8291 8292 8293 8294 8295 8296 8297 8298 8299 8300 8301 8302 8303 8304 8305 8306 8307 8308 8309 8310 8311 8312 8313 8314 8315 8316 8317 8318 8319 8320 8321 8322 8323 8324 8325 8326 8327 8328 8329 8330 8331 8332 8333 8334 8335 8336 8337 8338 8339 8340 8341 8342 8343 8344 8345 8346 8347 8348 8349 8350 8351 8352 8353 8354 8355 8356 8357 8358 8359 8360 8361 8362 8363 8364 8365 8366 8367 8368 8369 8370 8371 8372 8373 8374 8375 8376 8377 8378 8379 8380 8381 8382 8383 8384 8385 8386 8387 8388 8389 8390 8391 8392 8393 8394 8395 8396 8397 8398 8399 8400 8401 8402 8403 8404 8405 8406 8407 8408 8409 8410 8411 8412 8413 8414 8415 8416 8417 8418 8419 8420 8421 8422 8423 8424 8425 8426 8427 8428 8429 8430 8431 8432 8433 8434 8435 8436 8437 8438 8439 8440 8441 8442 8443 8444 8445 8446 8447 8448 8449 8450 8451 8452 8453 8454 8455 8456 8457 8458 8459 8460 8461 8462 8463 8464 8465 8466 8467 8468 8469 8470 8471 8472 8473 8474 8475 8476 8477 8478 8479 8480 8481 8482 8483 8484 8485 8486 8487 8488 8489 8490 8491 8492 8493 8494 8495 8496 8497 8498 8499 8500 8501 8502 8503 8504 8505 8506 8507 8508 8509 8510 8511 8512 8513 8514 8515 8516 8517 8518 8519 8520 8521 8522 8523 8524 8525 8526 8527 8528 8529 8530 8531 8532 8533 8534 8535 8536 8537 8538 8539 8540 8541 8542 8543 8544 8545 8546 8547 8548 8549 8550 8551 8552 8553 8554 8555 8556 8557 8558 8559 8560 8561 8562 8563 8564 8565 8566 8567 8568 8569 8570 8571 8572 8573 8574 8575 8576 8577 8578 8579 8580 8581 8582 8583 8584 8585 8586 8587 8588 8589 8590 8591 8592 8593 8594 8595 8596 8597 8598 8599 8600 8601 8602 8603 8604 8605 8606 8607 8608 8609 8610 8611 8612 8613 8614 8615 8616 8617 8618 8619 8620 8621 8622 8623 8624 8625 8626 8627 8628 8629 8630 8631 8632 8633 8634 8635 8636 8637 8638 8639 8640 8641 8642 8643 8644 8645 8646 8647 8648 8649 8650 8651 8652 8653 8654 8655 8656 8657 8658 8659 8660 8661 8662 8663 8664 8665 8666 8667 8668 8669 8670 8671 8672 8673 8674 8675 8676 8677 8678 8679 8680 8681 8682 8683 8684 8685 8686 8687 8688 8689 8690 8691 8692 8693 8694 8695 8696 8697 8698 8699 8700 8701 8702 8703 8704 8705 8706 8707 8708 8709 8710 8711 8712 8713 8714 8715 8716 8717 8718 8719 8720 8721 8722 8723 8724 8725 8726 8727 8728 8729 8730 8731 8732 8733 8734 8735 8736 8737 8738 8739 8740 8741 8742 8743 8744 8745 8746 8747 8748 8749 8750 8751 8752 8753 8754 8755 8756 8757 8758 8759 8760 8761 8762 8763 8764 8765 8766 8767 8768 8769 8770 8771 8772 8773 8774 8775 8776 8777 8778 8779 8780 8781 8782 8783 8784 8785 8786 8787 8788 8789 8790 8791 8792 8793 8794 8795 8796 8797 8798 8799 8800 8801 8802 8803 8804 8805 8806 8807 8808 8809 8810 8811 8812 8813 8814 8815 8816 8817 8818 8819 8820 8821 8822 8823 8824 8825 8826 8827 8828 8829 8830 8831 8832 8833 8834 8835 8836 8837 8838 8839 8840 8841 8842 8843 8844 8845 8846 8847 8848 8849 8850 8851 8852 8853 8854 8855 8856 8857 8858 8859 8860 8861 8862 8863 8864 8865 8866 8867 8868 8869 8870 8871 8872 8873 8874 8875 8876 8877 8878 8879 8880 8881 8882 8883 8884 8885 8886 8887 8888 8889 8890 8891 8892 8893 8894 8895 8896 8897 8898 8899 8900 8901 8902 8903 8904 8905 8906 8907 8908 8909 8910 8911 8912 8913 8914 8915 8916 8917 8918 8919 8920 8921 8922 8923 8924 8925 8926 8927 8928 8929 8930 8931 8932 8933 8934 8935 8936 8937 8938 8939 8940 8941 8942 8943 8944 8945 8946 8947 8948 8949 8950 8951 8952 8953 8954 8955 8956 8957 8958 8959 8960 8961 8962 8963 8964 8965 8966 8967 8968 8969 8970 8971 8972 8973 8974 8975 8976 8977 8978 8979 8980 8981 8982 8983 8984 8985 8986 8987 8988 8989 8990 8991 8992 8993 8994 8995 8996 8997 8998 8999 9000 9001 9002 9003 9004 9005 9006 9007 9008 9009 9010 9011 9012 9013 9014 9015 9016 9017 9018 9019 9020 9021 9022 9023 9024 9025 9026 9027 9028 9029 9030 9031 9032 9033 9034 9035 9036 9037 9038 9039 9040 9041 9042 9043 9044 9045 9046 9047 9048 9049 9050 9051 9052 9053 9054 9055 9056 9057 9058 9059 9060 9061 9062 9063 9064 9065 9066 9067 9068 9069 9070 9071 9072 9073 9074 9075 9076 9077 9078 9079 9080 9081 9082 9083 9084 9085 9086 9087 9088 9089 9090 9091 9092 9093 9094 9095 9096 9097 9098 9099 9100 9101 9102 9103 9104 9105 9106 9107 9108 9109 9110 9111 9112 9113 9114 9115 9116 9117 9118 9119 9120 9121 9122 9123 9124 9125 9126 9127 9128 9129 9130 9131 9132 9133 9134 9135 9136 9137 9138 9139 9140 9141 9142 9143 9144 9145 9146 9147 9148 9149 9150 9151 9152 9153 9154 9155 9156 9157 9158 9159 9160 9161 9162 9163 9164 9165 9166 9167 9168 9169 9170 9171 9172 9173 9174 9175 9176 9177 9178 9179 9180 9181 9182 9183 9184 9185 9186 9187 9188 9189 9190 9191 9192 9193 9194 9195 9196 9197 9198 9199 9200 9201 9202 9203 9204 9205 9206 9207 9208 9209 9210 9211 9212 9213 9214 9215 9216 9217 9218 9219 9220 9221 9222 9223 9224 9225 9226 9227 9228 9229 9230 9231 9232 9233 9234 9235 9236 9237 9238 9239 9240 9241 9242 9243 9244 9245 9246 9247 9248 9249 9250 9251 9252 9253 9254 9255 9256 9257 9258 9259 9260 9261 9262 9263 9264 9265 9266 9267 9268 9269 9270 9271 9272 9273 9274 9275 9276 9277 9278 9279 9280 9281 9282 9283 9284 9285 9286 9287 9288 9289 9290 9291 9292 9293 9294 9295 9296 9297 9298 9299 9300 9301 9302 9303 9304 9305 9306 9307 9308 9309 9310 9311 9312 9313 9314 9315 9316 9317 9318 9319 9320 9321 9322 9323 9324 9325 9326 9327 9328 9329 9330 9331 9332 9333 9334 9335 9336 9337 9338 9339 9340 9341 9342 9343 9344 9345 9346 9347 9348 9349 9350 9351 9352 9353 9354 9355 9356 9357 9358 9359 9360 9361 9362 9363 9364 9365 9366 9367 9368 9369 9370 9371 9372 9373 9374 9375 9376 9377 9378 9379 9380 9381 9382 9383 9384 9385 9386 9387 9388 9389 9390 9391 9392 9393 9394 9395 9396 9397 9398 9399 9400 9401 9402 9403 9404 9405 9406 9407 9408 9409 9410 9411 9412 9413 9414 9415 9416 9417 9418 9419 9420 9421 9422 9423 9424 9425 9426 9427 9428 9429 9430 9431 9432 9433 9434 9435 9436 9437 9438 9439 9440 9441 9442 9443 9444 9445 9446 9447 9448 9449 9450 9451 9452 9453 9454 9455 9456 9457 9458 9459 9460 9461 9462 9463 9464 9465 9466 9467 9468 9469 9470 9471 9472 9473 9474 9475 9476 9477 9478 9479 9480 9481 9482 9483 9484 9485 9486 9487 9488 9489 9490 9491 9492 9493 9494 9495 9496 9497 9498 9499 9500 9501 9502 9503 9504 9505 9506 9507 9508 9509 9510 9511 9512 9513 9514 9515 9516 9517 9518 9519 9520 9521 9522 9523 9524 9525 9526 9527 9528 9529 9530 9531 9532 9533 9534 9535 9536 9537 9538 9539 9540 9541 9542 9543 9544 9545 9546 9547 9548 9549 9550 9551 9552 9553 9554 9555 9556 9557 9558 9559 9560 9561 9562 9563 9564 9565 9566 9567 9568 9569 9570 9571 9572 9573 9574 9575 9576 9577 9578 9579 9580 9581 9582 9583 9584 9585 9586 9587 9588 9589 9590 9591 9592 9593 9594 9595 9596 9597 9598 9599 9600 9601 9602 9603 9604 9605 9606 9607 9608 9609 9610 9611 9612 9613 9614 9615 9616 9617 9618 9619 9620 9621 9622 9623 9624 9625 9626 9627 9628 9629 9630 9631 9632 9633 9634 9635 9636 9637 9638 9639 9640 9641 9642 9643 9644 9645 9646 9647 9648 9649 9650 9651 9652 9653 9654 9655 9656 9657 9658 9659 9660 9661 9662 9663 9664 9665 9666 9667 9668 9669 9670 9671 9672 9673 9674 9675 9676 9677 9678 9679 9680 9681 9682 9683 9684 9685 9686 9687 9688 9689 9690 9691 9692 9693 9694 9695 9696 9697 9698 9699 9700 9701 9702 9703 9704 9705 9706 9707 9708 9709 9710 9711 9712 9713 9714 9715 9716 9717 9718 9719 9720 9721 9722 9723 9724 9725 9726 9727 9728 9729 9730 9731 9732 9733 9734 9735 9736 9737 9738 9739 9740 9741 9742 9743 9744 9745 9746 9747 9748 9749 9750 9751 9752 9753 9754 9755 9756 9757 9758 9759 9760 9761 9762 9763 9764 9765 9766 9767 9768 9769 9770 9771 9772 9773 9774 9775 9776 9777 9778 9779 9780 9781 9782 9783 9784 9785 9786 9787 9788 9789 9790 9791 9792 9793 9794 9795 9796 9797 9798 9799 9800 9801 9802 9803 9804 9805 9806 9807 9808 9809 9810 9811 9812 9813 9814 9815 9816 9817 9818 9819 9820 9821 9822 9823 9824 9825 9826 9827 9828 9829 9830 9831 9832 9833 9834 9835 9836 9837 9838 9839 9840 9841 9842 9843 9844 9845 9846 9847 9848 9849 9850 9851 9852 9853 9854 9855 9856 9857 9858 9859 9860 9861 9862 9863 9864 9865 9866 9867 9868 9869 9870 9871 9872 9873 9874 9875 9876 9877 9878 9879 9880 9881 9882 9883 9884 9885 9886 9887 9888 9889 9890 9891 9892 9893 9894 9895 9896 9897 9898 9899 9900 9901 9902 9903 9904 9905 9906 9907 9908 9909 9910 9911 9912 9913 9914 9915 9916 9917 9918 9919 9920 9921 9922 9923 9924 9925 9926 9927 9928 9929 9930 9931 9932 9933 9934 9935 9936 9937 9938 9939 9940 9941 9942 9943 9944 9945 9946 9947 9948 9949 9950 9951 9952 9953 9954 9955 9956 9957 9958 9959 9960 9961 9962 9963 9964 9965 9966 9967 9968 9969 9970 9971 9972 9973 9974 9975 9976 9977 9978 9979 9980 9981 9982 9983 9984 9985 9986 9987 9988 9989 9990 9991 9992 9993 9994 9995 9996 9997 9998 9999 10000 10001 10002 10003 10004 10005 10006 10007 10008 10009 10010 10011 10012 10013 10014 10015 10016 10017 10018 10019 10020 10021 10022 10023 10024 10025 10026 10027 10028 10029 10030 10031 10032 10033 10034 10035 10036 10037 10038 10039 10040 10041 10042 10043 10044 10045 10046 10047 10048 10049 10050 10051 10052 10053 10054 10055 10056 10057 10058 10059 10060 10061 10062 10063 10064 10065 10066 10067 10068 10069 10070 10071 10072 10073 10074 10075 10076 10077 10078 10079 10080 10081 10082 10083 10084 10085 10086 10087 10088 10089 10090 10091 10092 10093 10094 10095 10096 10097 10098 10099 10100 10101 10102 10103 10104 10105 10106 10107 10108 10109 10110 10111 10112 10113 10114 10115 10116 10117 10118 10119 10120 10121 10122 10123 10124 10125 10126 10127 10128 10129 10130 10131 10132 10133 10134 10135 10136 10137 10138 10139 10140 10141 10142 10143 10144 10145 10146 10147 10148 10149 10150 10151 10152 10153 10154 10155 10156 10157 10158 10159 10160 10161 10162 10163 10164 10165 10166 10167 10168 10169 10170 10171 10172 10173 10174 10175 10176 10177 10178 10179 10180 10181 10182 10183 10184 10185 10186 10187 10188 10189 10190 10191 10192 10193 10194 10195 10196 10197 10198 10199 10200 10201 10202 10203 10204 10205 10206 10207 10208 10209 10210 10211 10212 10213 10214 10215 10216 10217 10218 10219 10220 10221 10222 10223 10224 10225 10226 10227 10228 10229 10230 10231 10232 10233 10234 10235 10236 10237 10238 10239 10240 10241 10242 10243 10244 10245 10246 10247 10248 10249 10250 10251 10252 10253 10254 10255 10256 10257 10258 10259 10260 10261 10262 10263 10264 10265 10266 10267 10268 10269 10270 10271 10272 10273 10274 10275 10276 10277 10278 10279 10280 10281 10282 10283 10284 10285 10286 10287 10288 10289 10290 10291 10292 10293 10294 10295 10296 10297 10298 10299 10300 10301 10302 10303 10304 10305 10306 10307 10308 10309 10310 10311 10312 10313 10314 10315 10316 10317 10318 10319 10320 10321 10322 10323 10324 10325 10326 10327 10328 10329 10330 10331 10332 10333 10334 10335 10336 10337 10338 10339 10340 10341 10342 10343 10344 10345 10346 10347 10348 10349 10350 10351 10352 10353 10354 10355 10356 10357 10358 10359 10360 10361 10362 10363 10364 10365 10366 10367 10368 10369 10370 10371 10372 10373 10374 10375 10376 10377 10378 10379 10380 10381 10382 10383 10384 10385 10386 10387 10388 10389 10390 10391 10392 10393 10394 10395 10396 10397 10398 10399 10400 10401 10402 10403 10404 10405 10406 10407 10408 10409 10410 10411 10412 10413 10414 10415 10416 10417 10418 10419 10420 10421 10422 10423 10424 10425 10426 10427 10428 10429 10430 10431 10432 10433 10434 10435 10436 10437 10438 10439 10440 10441 10442 10443 10444 10445 10446 10447 10448 10449 10450 10451 10452 10453 10454 10455 10456 10457 10458 10459 10460 10461 10462 10463 10464 10465 10466 10467 10468 10469 10470 10471 10472 10473 10474 10475 10476 10477 10478 10479 10480 10481 10482 10483 10484 10485 10486 10487 10488 10489 10490 10491 10492 10493 10494 10495 10496 10497 10498 10499 10500 10501 10502 10503 10504 10505 10506 10507 10508 10509 10510 10511 10512 10513 10514 10515 10516 10517 10518 10519 10520 10521 10522 10523 10524 10525 10526 10527 10528 10529 10530 10531 10532 10533 10534 10535 10536 10537 10538 10539 10540 10541 10542 10543 10544 10545 10546 10547 10548 10549 10550 10551 10552 10553 10554 10555 10556 10557 10558 10559 10560 10561 10562 10563 10564 10565 10566 10567 10568 10569 10570 10571 10572 10573 10574 10575 10576 10577 10578 10579 10580 10581 10582 10583 10584 10585 10586 10587 10588 10589 10590 10591 10592 10593 10594 10595 10596 10597 10598 10599 10600 10601 10602 10603 10604 10605 10606 10607 10608 10609 10610 10611 10612 10613 10614 10615 10616 10617 10618 10619 10620 10621 10622 10623 10624 10625 10626 10627 10628 10629 10630 10631 10632 10633 10634 10635 10636 10637 10638 10639 10640 10641 10642 10643 10644 10645 10646 10647 10648 10649 10650 10651 10652 10653 10654 10655 10656 10657 10658 10659 10660 10661 10662 10663 10664 10665 10666 10667 10668 10669 10670 10671 10672 10673 10674 10675 10676 10677 10678 10679 10680 10681 10682 10683 10684 10685 10686 10687 10688 10689 10690 10691 10692 10693 10694 10695 10696 10697 10698 10699 10700 10701 10702 10703 10704 10705 10706 10707 10708 10709 10710 10711 10712 10713 10714 10715 10716 10717 10718 10719 10720 10721 10722 10723 10724 10725 10726 10727 10728 10729 10730 10731 10732 10733 10734 10735 10736 10737 10738 10739 10740 10741 10742 10743 10744 10745 10746 10747 10748 10749 10750 10751 10752 10753 10754 10755 10756 10757 10758 10759 10760 10761 10762 10763 10764 10765 10766 10767 10768 10769 10770 10771 10772 10773 10774 10775 10776 10777 10778 10779 10780 10781 10782 10783 10784 10785 10786 10787 10788 10789 10790 10791 10792 10793 10794 10795 10796 10797 10798 10799 10800 10801 10802 10803 10804 10805 10806 10807 10808 10809 10810 10811 10812 10813 10814 10815 10816 10817 10818 10819 10820 10821 10822 10823 10824 10825 10826 10827 10828 10829 10830 10831 10832 10833 10834 10835 10836 10837 10838 10839 10840 10841 10842 10843 10844 10845 10846 10847 10848 10849 10850 10851 10852 10853 10854 10855 10856 10857 10858 10859 10860 10861 10862 10863 10864 10865 10866 10867 10868 10869 10870 10871 10872 10873 10874 10875 10876 10877 10878 10879 10880 10881 10882 10883 10884 10885 10886 10887 10888 10889 10890 10891 10892 10893 10894 10895 10896 10897 10898 10899 10900 10901 10902 10903 10904 10905 10906 10907 10908 10909 10910 10911 10912 10913 10914 10915 10916 10917 10918 10919 10920 10921 10922 10923 10924 10925 10926 10927 10928 10929 10930 10931 10932 10933 10934 10935 10936 10937 10938 10939 10940 10941 10942 10943 10944 10945 10946 10947 10948 10949 10950 10951 10952 10953 10954 10955 10956 10957 10958 10959 10960 10961 10962 10963 10964 10965 10966 10967 10968 10969 10970 10971 10972 10973 10974 10975 10976 10977 10978 10979 10980 10981 10982 10983 10984 10985 10986 10987 10988 10989 10990 10991 10992 10993 10994 10995 10996 10997 10998 10999 11000 11001 11002 11003 11004 11005 11006 11007 11008 11009 11010 11011 11012 11013 11014 11015 11016 11017 11018 11019 11020 11021 11022 11023 11024 11025 11026 11027 11028 11029 11030 11031 11032 11033 11034 11035 11036 11037 11038 11039 11040 11041 11042 11043 11044 11045 11046 11047 11048 11049 11050 11051 11052 11053 11054 11055 11056 11057 11058 11059 11060 11061 11062 11063 11064 11065 11066 11067 11068 11069 11070 11071 11072 11073 11074 11075 11076 11077 11078 11079 11080 11081 11082 11083 11084 11085 11086 11087 11088 11089 11090 11091 11092 11093 11094 11095 11096 11097 11098 11099 11100 11101 11102 11103 11104 11105 11106 11107 11108 11109 11110 11111 11112 11113 11114 11115 11116 11117 11118 11119 11120 11121 11122 11123 11124 11125 11126 11127 11128 11129 11130 11131 11132 11133 11134 11135 11136 11137 11138 11139 11140 11141 11142 11143 11144 11145 11146 11147 11148 11149 11150 11151 11152 11153 11154 11155 11156 11157 11158 11159 11160 11161 11162 11163 11164 11165 11166 11167 11168 11169 11170 11171 11172 11173 11174 11175 11176 11177 11178 11179 11180 11181 11182 11183 11184 11185 11186 11187 11188 11189 11190 11191 11192 11193 11194 11195 11196 11197 11198 11199 11200 11201 11202 11203 11204 11205 11206 11207 11208 11209 11210 11211 11212 11213 11214 11215 11216 11217 11218 11219 11220 11221 11222 11223 11224 11225 11226 11227 11228 11229 11230 11231 11232 11233 11234 11235 11236 11237 11238 11239 11240 11241 11242 11243 11244 11245 11246 11247 11248 11249 11250 11251 11252 11253 11254 11255 11256 11257 11258 11259 11260 11261 11262 11263 11264 11265 11266 11267 11268 11269 11270 11271 11272 11273 11274 11275 11276 11277 11278 11279 11280 11281 11282 11283 11284 11285 11286 11287 11288 11289 11290 11291 11292 11293 11294 11295 11296 11297 11298 11299 11300 11301 11302 11303 11304 11305 11306 11307 11308 11309 11310 11311 11312 11313 11314 11315 11316 11317 11318 11319 11320 11321 11322 11323 11324 11325 11326 11327 11328 11329 11330 11331 11332 11333 11334 11335 11336 11337 11338 11339 11340 11341 11342 11343 11344 11345 11346 11347 11348 11349 11350 11351 11352 11353 11354 11355 11356 11357 11358 11359 11360 11361 11362 11363 11364 11365 11366 11367 11368 11369 11370 11371 11372 11373 11374 11375 11376 11377 11378 11379 11380 11381 11382 11383 11384 11385 11386 11387 11388 11389 11390 11391 11392 11393 11394 11395 11396 11397 11398 11399 11400 11401 11402 11403 11404 11405 11406 11407 11408 11409 11410 11411 11412 11413 11414 11415 11416 11417 11418 11419 11420 11421 11422 11423 11424 11425 11426 11427 11428 11429 11430 11431 11432 11433 11434 11435 11436 11437 11438 11439 11440 11441 11442 11443 11444 11445 11446 11447 11448 11449 11450 11451 11452 11453 11454 11455 11456 11457 11458 11459 11460 11461 11462 11463 11464 11465 11466 11467 11468 11469 11470 11471 11472 11473 11474 11475 11476 11477 11478 11479 11480 11481 11482 11483 11484 11485 11486 11487 11488 11489 11490 11491 11492 11493 11494 11495 11496 11497 11498 11499 11500 11501 11502 11503 11504 11505 11506 11507 11508 11509 11510 11511 11512 11513 11514 11515 11516 11517 11518 11519 11520 11521 11522 11523 11524 11525 11526 11527 11528 11529 11530 11531 11532 11533 11534 11535 11536 11537 11538 11539 11540 11541 11542 11543 11544 11545 11546 11547 11548 11549 11550 11551 11552 11553 11554 11555 11556 11557 11558 11559 11560 11561 11562 11563 11564 11565 11566 11567 11568 11569 11570 11571 11572 11573 11574 11575 11576 11577 11578 11579 11580 11581 11582 11583 11584 11585 11586 11587 11588 11589 11590 11591 11592 11593 11594 11595 11596 11597 11598 11599 11600 11601 11602 11603 11604 11605 11606 11607 11608 11609 11610 11611 11612 11613 11614 11615 11616 11617 11618 11619 11620 11621 11622 11623 11624 11625 11626 11627 11628 11629 11630 11631 11632 11633 11634 11635 11636 11637 11638 11639 11640 11641 11642 11643 11644 11645 11646 11647 11648 11649 11650 11651 11652 11653 11654 11655 11656 11657 11658 11659 11660 11661 11662 11663 11664 11665 11666 11667 11668 11669 11670 11671 11672 11673 11674 11675 11676 11677 11678 11679 11680 11681 11682 11683 11684 11685 11686 11687 11688 11689 11690 11691 11692 11693 11694 11695 11696 11697 11698 11699 11700 11701 11702 11703 11704 11705 11706 11707 11708 11709 11710 11711 11712 11713 11714 11715 11716 11717 11718 11719 11720 11721 11722 11723 11724 11725 11726 11727 11728 11729 11730 11731 11732 11733 11734 11735 11736 11737 11738 11739 11740 11741 11742 11743 11744 11745 11746 11747 11748 11749 11750 11751 11752 11753 11754 11755 11756 11757 11758 11759 11760 11761 11762 11763 11764 11765 11766 11767 11768 11769 11770 11771 11772 11773 11774 11775 11776 11777 11778 11779 11780 11781 11782 11783 11784 11785 11786 11787 11788 11789 11790 11791 11792 11793 11794 11795 11796 11797 11798 11799 11800 11801 11802 11803 11804 11805 11806 11807 11808 11809 11810 11811 11812 11813 11814 11815 11816 11817 11818 11819 11820 11821 11822 11823 11824 11825 11826 11827 11828 11829 11830 11831 11832 11833 11834 11835 11836 11837 11838 11839 11840 11841 11842 11843 11844 11845 11846 11847 11848 11849 11850 11851 11852 11853 11854 11855 11856 11857 11858 11859 11860 11861 11862 11863 11864 11865 11866 11867 11868 11869 11870 11871 11872 11873 11874 11875 11876 11877 11878 11879 11880 11881 11882 11883 11884 11885 11886 11887 11888 11889 11890 11891 11892 11893 11894 11895 11896 11897 11898 11899 11900 11901 11902 11903 11904 11905 11906 11907 11908 11909 11910 11911 11912 11913 11914 11915 11916 11917 11918 11919 11920 11921 11922 11923 11924 11925 11926 11927 11928 11929 11930 11931 11932 11933 11934 11935 11936 11937 11938 11939 11940 11941 11942 11943 11944 11945 11946 11947 11948 11949 11950 11951 11952 11953 11954 11955 11956 11957 11958 11959 11960 11961 11962 11963 11964 11965 11966 11967 11968 11969 11970 11971 11972 11973 11974 11975 11976 11977 11978 11979 11980 11981 11982 11983 11984 11985 11986 11987 11988 11989 11990 11991 11992 11993 11994 11995 11996 11997 11998 11999 12000 12001 12002 12003 12004 12005 12006 12007 12008 12009 12010 12011 12012 12013 12014 12015 12016 12017 12018 12019 12020 12021 12022 12023 12024 12025 12026 12027 12028 12029 12030 12031 12032 12033 12034 12035 12036 12037 12038 12039 12040 12041 12042 12043 12044 12045 12046 12047 12048 12049 12050 12051 12052 12053 12054 12055 12056 12057 12058 12059 12060 12061 12062 12063 12064 12065 12066 12067 12068 12069 12070 12071 12072 12073 12074 12075 12076 12077 12078 12079 12080 12081 12082 12083 12084 12085 12086 12087 12088 12089 12090 12091 12092 12093 12094 12095 12096 12097 12098 12099 12100 12101 12102 12103 12104 12105 12106 12107 12108 12109 12110 12111 12112 12113 12114 12115 12116 12117 12118 12119 12120 12121 12122 12123 12124 12125 12126 12127 12128 12129 12130 12131 12132 12133 12134 12135 12136 12137 12138 12139 12140 12141 12142 12143 12144 12145 12146 12147 12148 12149 12150 12151 12152 12153 12154 12155 12156 12157 12158 12159 12160 12161 12162 12163 12164 12165 12166 12167 12168 12169 12170 12171 12172 12173 12174 12175 12176 12177 12178 12179 12180 12181 12182 12183 12184 12185 12186 12187 12188 12189 12190 12191 12192 12193 12194 12195 12196 12197 12198 12199 12200 12201 12202 12203 12204 12205 12206 12207 12208 12209 12210 12211 12212 12213 12214 12215 12216 12217 12218 12219 12220 12221 12222 12223 12224 12225 12226 12227 12228 12229 12230 12231 12232 12233 12234 12235 12236 12237 12238 12239 12240 12241 12242 12243 12244 12245 12246 12247 12248 12249 12250 12251 12252 12253 12254 12255 12256 12257 12258 12259 12260 12261 12262 12263 12264 12265 12266 12267 12268 12269 12270 12271 12272 12273 12274 12275 12276 12277 12278 12279 12280 12281 12282 12283 12284 12285 12286 12287 12288 12289 12290 12291 12292 12293 12294 12295 12296 12297 12298 12299 12300 12301 12302 12303 12304 12305 12306 12307 12308 12309 12310 12311 12312 12313 12314 12315 12316 12317 12318 12319 12320 12321 12322 12323 12324 12325 12326 12327 12328 12329 12330 12331 12332 12333 12334 12335 12336 12337 12338 12339 12340 12341 12342 12343 12344 12345 12346 12347 12348 12349 12350 12351 12352 12353 12354 12355 12356 12357 12358 12359 12360 12361 12362 12363 12364 12365 12366 12367 12368 12369 12370 12371 12372 12373 12374 12375 12376 12377 12378 12379 12380 12381 12382 12383 12384 12385 12386 12387 12388 12389 12390 12391 12392 12393 12394 12395 12396 12397 12398 12399 12400 12401 12402 12403 12404 12405 12406 12407 12408 12409 12410 12411 12412 12413 12414 12415 12416 12417 12418 12419 12420 12421 12422 12423 12424 12425 12426 12427 12428 12429 12430 12431 12432 12433 12434 12435 12436 12437 12438 12439 12440 12441 12442 12443 12444 12445 12446 12447 12448 12449 12450 12451 12452 12453 12454 12455 12456 12457 12458 12459 12460 12461 12462 12463 12464 12465 12466 12467 12468 12469 12470 12471 12472 12473 12474 12475 12476 12477 12478 12479 12480 12481 12482 12483 12484 12485 12486 12487 12488 12489 12490 12491 12492 12493 12494 12495 12496 12497 12498 12499 12500 12501 12502 12503 12504 12505 12506 12507 12508 12509 12510 12511 12512 12513 12514 12515 12516 12517 12518 12519 12520 12521 12522 12523 12524 12525 12526 12527 12528 12529 12530 12531 12532 12533 12534 12535 12536 12537 12538 12539 12540 12541 12542 12543 12544 12545 12546 12547 12548 12549 12550 12551 12552 12553 12554 12555 12556 12557 12558 12559 12560 12561 12562 12563 12564 12565 12566 12567 12568 12569 12570 12571 12572 12573 12574 12575 12576 12577 12578 12579 12580 12581 12582 12583 12584 12585 12586 12587 12588 12589 12590 12591 12592 12593 12594 12595 12596 12597 12598 12599 12600 12601 12602 12603 12604 12605 12606 12607 12608 12609 12610 12611 12612 12613 12614 12615 12616 12617 12618 12619 12620 12621 12622 12623 12624 12625 12626 12627 12628 12629 12630 12631 12632 12633 12634 12635 12636 12637 12638 12639 12640 12641 12642 12643 12644 12645 12646 12647 12648 12649 12650 12651 12652 12653 12654 12655 12656 12657 12658 12659 12660 12661 12662 12663 12664 12665 12666 12667 12668 12669 12670 12671 12672 12673 12674 12675 12676 12677 12678 12679 12680 12681 12682 12683 12684 12685 12686 12687 12688 12689 12690 12691 12692 12693 12694 12695 12696 12697 12698 12699 12700 12701 12702 12703 12704 12705 12706 12707 12708 12709 12710 12711 12712 12713 12714 12715 12716 12717 12718 12719 12720 12721 12722 12723 12724 12725 12726 12727 12728 12729 12730 12731 12732 12733 12734 12735 12736 12737 12738 12739 12740 12741 12742 12743 12744 12745 12746 12747 12748 12749 12750 12751 12752 12753 12754 12755 12756 12757 12758 12759 12760 12761 12762 12763 12764 12765 12766 12767 12768 12769 12770 12771 12772 12773 12774 12775 12776 12777 12778 12779 12780 12781 12782 12783 12784 12785 12786 12787 12788 12789 12790 12791 12792 12793 12794 12795 12796 12797 12798 12799 12800 12801 12802 12803 12804 12805 12806 12807 12808 12809 12810 12811 12812 12813 12814 12815 12816 12817 12818 12819 12820 12821 12822 12823 12824 12825 12826 12827 12828 12829 12830 12831 12832 12833 12834 12835 12836 12837 12838 12839 12840 12841 12842 12843 12844 12845 12846 12847 12848 12849 12850 12851 12852 12853 12854 12855 12856 12857 12858 12859 12860 12861 12862 12863 12864 12865 12866 12867 12868 12869 12870 12871 12872 12873 12874 12875 12876 12877 12878 12879 12880 12881 12882 12883 12884 12885 12886 12887 12888 12889 12890 12891 12892 12893 12894 12895 12896 12897 12898 12899 12900 12901 12902 12903 12904 12905 12906 12907 12908 12909 12910 12911 12912 12913 12914 12915 12916 12917 12918 12919 12920 12921 12922 12923 12924 12925 12926 12927 12928 12929 12930 12931 12932 12933 12934 12935 12936 12937 12938 12939 12940 12941 12942 12943 12944 12945 12946 12947 12948 12949 12950 12951 12952 12953 12954 12955 12956 12957 12958 12959 12960 12961 12962 12963 12964 12965 12966 12967 12968 12969 12970 12971 12972 12973 12974 12975 12976 12977 12978 12979 12980 12981 12982 12983 12984 12985 12986 12987 12988 12989 12990 12991 12992 12993 12994 12995 12996 12997 12998 12999 13000 13001 13002 13003 13004 13005 13006 13007 13008 13009 13010 13011 13012 13013 13014 13015 13016 13017 13018 13019 13020 13021 13022 13023 13024 13025 13026 13027 13028 13029 13030 13031 13032 13033 13034 13035 13036 13037 13038 13039 13040 13041 13042 13043 13044 13045 13046 13047 13048 13049 13050 13051 13052 13053 13054 13055 13056 13057 13058 13059 13060 13061 13062 13063 13064 13065 13066 13067 13068 13069 13070 13071 13072 13073 13074 13075 13076 13077 13078 13079 13080 13081 13082 13083 13084 13085 13086 13087 13088 13089 13090 13091 13092 13093 13094 13095 13096 13097 13098 13099 13100 13101 13102 13103 13104 13105 13106 13107 13108 13109 13110 13111 13112 13113 13114 13115 13116 13117 13118 13119 13120 13121 13122 13123 13124 13125 13126 13127 13128 13129 13130 13131 13132 13133 13134 13135 13136 13137 13138 13139 13140 13141 13142 13143 13144 13145 13146 13147 13148 13149 13150 13151 13152 13153 13154 13155 13156 13157 13158 13159 13160 13161 13162 13163 13164 13165 13166 13167 13168 13169 13170 13171 13172 13173 13174 13175 13176 13177 13178 13179 13180 13181 13182 13183 13184 13185 13186 13187 13188 13189 13190 13191 13192 13193 13194 13195 13196 13197 13198 13199 13200 13201 13202 13203 13204 13205 13206 13207 13208 13209 13210 13211 13212 13213 13214 13215 13216 13217 13218 13219 13220 13221 13222 13223 13224 13225 13226 13227 13228 13229 13230 13231 13232 13233 13234 13235 13236 13237 13238 13239 13240 13241 13242 13243 13244 13245 13246 13247 13248 13249 13250 13251 13252 13253 13254 13255 13256 13257 13258 13259 13260 13261 13262 13263 13264 13265 13266 13267 13268 13269 13270 13271 13272 13273 13274 13275 13276 13277 13278 13279 13280 13281 13282 13283 13284 13285 13286 13287 13288 13289 13290 13291 13292 13293 13294 13295 13296 13297 13298 13299 13300 13301 13302 13303 13304 13305 13306 13307 13308 13309 13310 13311 13312 13313 13314 13315 13316 13317 13318 13319 13320 13321 13322 13323 13324 13325 13326 13327 13328 13329 13330 13331 13332 13333 13334 13335 13336 13337 13338 13339 13340 13341 13342 13343 13344 13345 13346 13347 13348 13349 13350 13351 13352 13353 13354 13355 13356 13357 13358 13359 13360 13361 13362 13363 13364 13365 13366 13367 13368 13369 13370 13371 13372 13373 13374 13375 13376 13377 13378 13379 13380 13381 13382 13383 13384 13385 13386 13387 13388 13389 13390 13391 13392 13393 13394 13395 13396 13397 13398 13399 13400 13401 13402 13403 13404 13405 13406 13407 13408 13409 13410 13411 13412 13413 13414 13415 13416 13417 13418 13419 13420 13421 13422 13423 13424 13425 13426 13427 13428 13429 13430 13431 13432 13433 13434 13435 13436 13437 13438 13439 13440 13441 13442 13443 13444 13445 13446 13447 13448 13449 13450 13451 13452 13453 13454 13455 13456 13457 13458 13459 13460 13461 13462 13463 13464 13465 13466 13467 13468 13469 13470 13471 13472 13473 13474 13475 13476 13477 13478 13479 13480 13481 13482 13483 13484 13485 13486 13487 13488 13489 13490 13491 13492 13493 13494 13495 13496 13497 13498 13499 13500 13501 13502 13503 13504 13505 13506 13507 13508 13509 13510 13511 13512 13513 13514 13515 13516 13517 13518 13519 13520 13521 13522 13523 13524 13525 13526 13527 13528 13529 13530 13531 13532 13533 13534 13535 13536 13537 13538 13539 13540 13541 13542 13543 13544 13545 13546 13547 13548 13549 13550 13551 13552 13553 13554 13555 13556 13557 13558 13559 13560 13561 13562 13563 13564 13565 13566 13567 13568 13569 13570 13571 13572 13573 13574 13575 13576 13577 13578 13579 13580 13581 13582 13583 13584 13585 13586 13587 13588 13589 13590 13591 13592 13593 13594 13595 13596 13597 13598 13599 13600 13601 13602 13603 13604 13605 13606 13607 13608 13609 13610 13611 13612 13613 13614 13615 13616 13617 13618 13619 13620 13621 13622 13623 13624 13625 13626 13627 13628 13629 13630 13631 13632 13633 13634 13635 13636 13637 13638 13639 13640 13641 13642 13643 13644 13645 13646 13647 13648 13649 13650 13651 13652 13653 13654 13655 13656 13657 13658 13659 13660 13661 13662 13663 13664 13665 13666 13667 13668 13669 13670 13671 13672 13673 13674 13675 13676 13677 13678 13679 13680 13681 13682 13683 13684 13685 13686 13687 13688 13689 13690 13691 13692 13693 13694 13695 13696 13697 13698 13699 13700 13701 13702 13703 13704 13705 13706 13707 13708 13709 13710 13711 13712 13713 13714 13715 13716 13717 13718 13719 13720 13721 13722 13723 13724 13725 13726 13727 13728 13729 13730 13731 13732 13733 13734 13735 13736 13737 13738 13739 13740 13741 13742 13743 13744 13745 13746 13747 13748 13749 13750 13751 13752 13753 13754 13755 13756 13757 13758 13759 13760 13761 13762 13763 13764 13765 13766 13767 13768 13769 13770 13771 13772 13773 13774 13775 13776 13777 13778 13779 13780 13781 13782 13783 13784 13785 13786 13787 13788 13789 13790 13791 13792 13793 13794 13795 13796 13797 13798 13799 13800 13801 13802 13803 13804 13805 13806 13807 13808 13809 13810 13811 13812 13813 13814 13815 13816 13817 13818 13819 13820 13821 13822 13823 13824 13825 13826 13827 13828 13829 13830 13831 13832 13833 13834 13835 13836 13837 13838 13839 13840 13841 13842 13843 13844 13845 13846 13847 13848 13849 13850 13851 13852 13853 13854 13855 13856 13857 13858 13859 13860 13861 13862 13863 13864 13865 13866 13867 13868 13869 13870 13871 13872 13873 13874 13875 13876 13877 13878 13879 13880 13881 13882 13883 13884 13885 13886 13887 13888 13889 13890 13891 13892 13893 13894 13895 13896 13897 13898 13899 13900 13901 13902 13903 13904 13905 13906 13907 13908 13909 13910 13911 13912 13913 13914 13915 13916 13917 13918 13919 13920 13921 13922 13923 13924 13925 13926 13927 13928 13929 13930 13931 13932 13933 13934 13935 13936 13937 13938 13939 13940 13941 13942 13943 13944 13945 13946 13947 13948 13949 13950 13951 13952 13953 13954 13955 13956 13957 13958 13959 13960 13961 13962 13963 13964 13965 13966 13967 13968 13969 13970 13971 13972 13973 13974 13975 13976 13977 13978 13979 13980 13981 13982 13983 13984 13985 13986 13987 13988 13989 13990 13991 13992 13993 13994 13995 13996 13997 13998 13999 14000 14001 14002 14003 14004 14005 14006 14007 14008 14009 14010 14011 14012 14013 14014 14015 14016 14017 14018 14019 14020 14021 14022 14023 14024 14025 14026 14027 14028 14029 14030 14031 14032 14033 14034 14035 14036 14037 14038 14039 14040 14041 14042 14043 14044 14045 14046 14047 14048 14049 14050 14051 14052 14053 14054 14055 14056 14057 14058 14059 14060 14061 14062 14063 14064 14065 14066 14067 14068 14069 14070 14071 14072 14073 14074 14075 14076 14077 14078 14079 14080 14081 14082 14083 14084 14085 14086 14087 14088 14089 14090 14091 14092 14093 14094 14095 14096 14097 14098 14099 14100 14101 14102 14103 14104 14105 14106 14107 14108 14109 14110 14111 14112 14113 14114 14115 14116 14117 14118 14119 14120 14121 14122 14123 14124 14125 14126 14127 14128 14129 14130 14131 14132 14133 14134 14135 14136 14137 14138 14139 14140 14141 14142 14143 14144 14145 14146 14147 14148 14149 14150 14151 14152 14153 14154 14155 14156 14157 14158 14159 14160 14161 14162 14163 14164 14165 14166 14167 14168 14169 14170 14171 14172 14173 14174 14175 14176 14177 14178 14179 14180 14181 14182 14183 14184 14185 14186 14187 14188 14189 14190 14191 14192 14193 14194 14195 14196 14197 14198 14199 14200 14201 14202 14203 14204 14205 14206 14207 14208 14209 14210 14211 14212 14213 14214 14215 14216 14217 14218 14219 14220 14221 14222 14223 14224 14225 14226 14227 14228 14229 14230 14231 14232 14233 14234 14235 14236 14237 14238 14239 14240 14241 14242 14243 14244 14245 14246 14247 14248 14249 14250 14251 14252 14253 14254 14255 14256 14257 14258 14259 14260 14261 14262 14263 14264 14265 14266 14267 14268 14269 14270 14271 14272 14273 14274 14275 14276 14277 14278 14279 14280 14281 14282 14283 14284 14285 14286 14287 14288 14289 14290 14291 14292 14293 14294 14295 14296 14297 14298 14299 14300 14301 14302 14303 14304 14305 14306 14307 14308 14309 14310 14311 14312 14313 14314 14315 14316 14317 14318 14319 14320 14321 14322 14323 14324 14325 14326 14327 14328 14329 14330 14331 14332 14333 14334 14335 14336 14337 14338 14339 14340 14341 14342 14343 14344 14345 14346 14347 14348 14349 14350 14351 14352 14353 14354 14355 14356 14357 14358 14359 14360 14361 14362 14363 14364 14365 14366 14367 14368 14369 14370 14371 14372 14373 14374 14375 14376 14377 14378 14379 14380 14381 14382 14383 14384 14385 14386 14387 14388 14389 14390 14391 14392 14393 14394 14395 14396 14397 14398 14399 14400 14401 14402 14403 14404 14405 14406 14407 14408 14409 14410 14411 14412 14413 14414 14415 14416 14417 14418 14419 14420 14421 14422 14423 14424 14425 14426 14427 14428 14429 14430 14431 14432 14433 14434 14435 14436 14437 14438 14439 14440 14441 14442 14443 14444 14445 14446 14447 14448 14449 14450 14451 14452 14453 14454 14455 14456 14457 14458 14459 14460 14461 14462 14463 14464 14465 14466 14467 14468 14469 14470 14471 14472 14473 14474 14475 14476 14477 14478 14479 14480 14481 14482 14483 14484 14485 14486 14487 14488 14489 14490 14491 14492 14493 14494 14495 14496 14497 14498 14499 14500 14501 14502 14503 14504 14505 14506 14507 14508 14509 14510 14511 14512 14513 14514 14515 14516 14517 14518 14519 14520 14521 14522 14523 14524 14525 14526 14527 14528 14529 14530 14531 14532 14533 14534 14535 14536 14537 14538 14539 14540 14541 14542 14543 14544 14545 14546 14547 14548 14549 14550 14551 14552 14553 14554 14555 14556 14557 14558 14559 14560 14561 14562 14563 14564 14565 14566 14567 14568 14569 14570 14571 14572 14573 14574 14575 14576 14577 14578 14579 14580 14581 14582 14583 14584 14585 14586 14587 14588 14589 14590 14591 14592 14593 14594 14595 14596 14597 14598 14599 14600 14601 14602 14603 14604 14605 14606 14607 14608 14609 14610 14611 14612 14613 14614 14615 14616 14617 14618 14619 14620 14621 14622 14623 14624 14625 14626 14627 14628 14629 14630 14631 14632 14633 14634 14635 14636 14637 14638 14639 14640 14641 14642 14643 14644 14645 14646 14647 14648 14649 14650 14651 14652 14653 14654 14655 14656 14657 14658 14659 14660 14661 14662 14663 14664 14665 14666 14667 14668 14669 14670 14671 14672 14673 14674 14675 14676 14677 14678 14679 14680 14681 14682 14683 14684 14685 14686 14687 14688 14689 14690 14691 14692 14693 14694 14695 14696 14697 14698 14699 14700 14701 14702 14703 14704 14705 14706 14707 14708 14709 14710 14711 14712 14713 14714 14715 14716 14717 14718 14719 14720 14721 14722 14723 14724 14725 14726 14727 14728 14729 14730 14731 14732 14733 14734 14735 14736 14737 14738 14739 14740 14741 14742 14743 14744 14745 14746 14747 14748 14749 14750 14751 14752 14753 14754 14755 14756 14757 14758 14759 14760 14761 14762 14763 14764 14765 14766 14767 14768 14769 14770 14771 14772 14773 14774 14775 14776 14777 14778 14779 14780 14781 14782 14783 14784 14785 14786 14787 14788 14789 14790 14791 14792 14793 14794 14795 14796 14797 14798 14799 14800 14801 14802 14803 14804 14805 14806 14807 14808 14809 14810 14811 14812 14813 14814 14815 14816 14817 14818 14819 14820 14821 14822 14823 14824 14825 14826 14827 14828 14829 14830 14831 14832 14833 14834 14835 14836 14837 14838 14839 14840 14841 14842 14843 14844 14845 14846 14847 14848 14849 14850 14851 14852 14853 14854 14855 14856 14857 14858 14859 14860 14861 14862 14863 14864 14865 14866 14867 14868 14869 14870 14871 14872 14873 14874 14875 14876 14877 14878 14879 14880 14881 14882 14883 14884 14885 14886 14887 14888 14889 14890 14891 14892 14893 14894 14895 14896 14897 14898 14899 14900 14901 14902 14903 14904 14905 14906 14907 14908 14909 14910 14911 14912 14913 14914 14915 14916 14917 14918 14919 14920 14921 14922 14923 14924 14925 14926 14927 14928 14929 14930 14931 14932 14933 14934 14935 14936 14937 14938 14939 14940 14941 14942 14943 14944 14945 14946 14947 14948 14949 14950 14951 14952 14953 14954 14955 14956 14957 14958 14959 14960 14961 14962 14963 14964 14965 14966 14967 14968 14969 14970 14971 14972 14973 14974 14975 14976 14977 14978 14979 14980 14981 14982 14983 14984 14985 14986 14987 14988 14989 14990 14991 14992 14993 14994 14995 14996 14997 14998 14999 15000 15001 15002 15003 15004 15005 15006 15007 15008 15009 15010 15011 15012 15013 15014 15015 15016 15017 15018 15019 15020 15021 15022 15023 15024 15025 15026 15027 15028 15029 15030 15031 15032 15033 15034 15035 15036 15037 15038 15039 15040 15041 15042 15043 15044 15045 15046 15047 15048 15049 15050 15051 15052 15053 15054 15055 15056 15057 15058 15059 15060 15061 15062 15063 15064 15065 15066 15067 15068 15069 15070 15071 15072 15073 15074 15075 15076 15077 15078 15079 15080 15081 15082 15083 15084 15085 15086 15087 15088 15089 15090 15091 15092 15093 15094 15095 15096 15097 15098 15099 15100 15101 15102 15103 15104 15105 15106 15107 15108 15109 15110 15111 15112 15113 15114 15115 15116 15117 15118 15119 15120 15121 15122 15123 15124 15125 15126 15127 15128 15129 15130 15131 15132 15133 15134 15135 15136 15137 15138 15139 15140 15141 15142 15143 15144 15145 15146 15147 15148 15149 15150 15151 15152 15153 15154 15155 15156 15157 15158 15159 15160 15161 15162 15163 15164 15165 15166 15167 15168 15169 15170 15171 15172 15173 15174 15175 15176 15177 15178 15179 15180 15181 15182 15183 15184 15185 15186 15187 15188 15189 15190 15191 15192 15193 15194 15195 15196 15197 15198 15199 15200 15201 15202 15203 15204 15205 15206 15207 15208 15209 15210 15211 15212 15213 15214 15215 15216 15217 15218 15219 15220 15221 15222 15223 15224 15225 15226 15227 15228 15229 15230 15231 15232 15233 15234 15235 15236 15237 15238 15239 15240 15241 15242 15243 15244 15245 15246 15247 15248 15249 15250 15251 15252 15253 15254 15255 15256 15257 15258 15259 15260 15261 15262 15263 15264 15265 15266 15267 15268 15269 15270 15271 15272 15273 15274 15275 15276 15277 15278 15279 15280 15281 15282 15283 15284 15285 15286 15287 15288 15289 15290 15291 15292 15293 15294 15295 15296 15297 15298 15299 15300 15301 15302 15303 15304 15305 15306 15307 15308 15309 15310 15311 15312 15313 15314 15315 15316 15317 15318 15319 15320 15321 15322 15323 15324 15325 15326 15327 15328 15329 15330 15331 15332 15333 15334 15335 15336 15337 15338 15339 15340 15341 15342 15343 15344 15345 15346 15347 15348 15349 15350 15351 15352 15353 15354 15355 15356 15357 15358 15359 15360 15361 15362 15363 15364 15365 15366 15367 15368 15369 15370 15371 15372 15373 15374 15375 15376 15377 15378 15379 15380 15381 15382 15383 15384 15385 15386 15387 15388 15389 15390 15391 15392 15393 15394 15395 15396 15397 15398 15399 15400 15401 15402 15403 15404 15405 15406 15407 15408 15409 15410 15411 15412 15413 15414 15415 15416 15417 15418 15419 15420 15421 15422 15423 15424 15425 15426 15427 15428 15429 15430 15431 15432 15433 15434 15435 15436 15437 15438 15439 15440 15441 15442 15443 15444 15445 15446 15447 15448 15449 15450 15451 15452 15453 15454 15455 15456 15457 15458 15459 15460 15461 15462 15463 15464 15465 15466 15467 15468 15469 15470 15471 15472 15473 15474 15475 15476 15477 15478 15479 15480 15481 15482 15483 15484 15485 15486 15487 15488 15489 15490 15491 15492 15493 15494 15495 15496 15497 15498 15499 15500 15501 15502 15503 15504 15505 15506 15507 15508 15509 15510 15511 15512 15513 15514 15515 15516 15517 15518 15519 15520 15521 15522 15523 15524 15525 15526 15527 15528 15529 15530 15531 15532 15533 15534 15535 15536 15537 15538 15539 15540 15541 15542 15543 15544 15545 15546 15547 15548 15549 15550 15551 15552 15553 15554 15555 15556 15557 15558 15559 15560 15561 15562 15563 15564 15565 15566 15567 15568 15569 15570 15571 15572 15573 15574 15575 15576 15577 15578 15579 15580 15581 15582 15583 15584 15585 15586 15587 15588 15589 15590 15591 15592 15593 15594 15595 15596 15597 15598 15599 15600 15601 15602 15603 15604 15605 15606 15607 15608 15609 15610 15611 15612 15613 15614 15615 15616 15617 15618 15619 15620 15621 15622 15623 15624 15625 15626 15627 15628 15629 15630 15631 15632 15633 15634 15635 15636 15637 15638 15639 15640 15641 15642 15643 15644 15645 15646 15647 15648 15649 15650 15651 15652 15653 15654 15655 15656 15657 15658 15659 15660 15661 15662 15663 15664 15665 15666 15667 15668 15669 15670 15671 15672 15673 15674 15675 15676 15677 15678 15679 15680 15681 15682 15683 15684 15685 15686 15687 15688 15689 15690 15691 15692 15693 15694 15695 15696 15697 15698 15699 15700 15701 15702 15703 15704 15705 15706 15707 15708 15709 15710 15711 15712 15713 15714 15715 15716 15717 15718 15719 15720 15721 15722 15723 15724 15725 15726 15727 15728 15729 15730 15731 15732 15733 15734 15735 15736 15737 15738 15739 15740 15741 15742 15743 15744 15745 15746 15747 15748 15749 15750 15751 15752 15753 15754 15755 15756 15757 15758 15759 15760 15761 15762 15763 15764 15765 15766 15767 15768 15769 15770 15771 15772 15773 15774 15775 15776 15777 15778 15779 15780 15781 15782 15783 15784 15785 15786 15787 15788 15789 15790 15791 15792 15793 15794 15795 15796 15797 15798 15799 15800 15801 15802 15803 15804 15805 15806 15807 15808 15809 15810 15811 15812 15813 15814 15815 15816 15817 15818 15819 15820 15821 15822 15823 15824 15825 15826 15827 15828 15829 15830 15831 15832 15833 15834 15835 15836 15837 15838 15839 15840 15841 15842 15843 15844 15845 15846 15847 15848 15849 15850 15851 15852 15853 15854 15855 15856 15857 15858 15859 15860 15861 15862 15863 15864 15865 15866 15867 15868 15869 15870 15871 15872 15873 15874 15875 15876 15877 15878 15879 15880 15881 15882 15883 15884 15885 15886 15887 15888 15889 15890 15891 15892 15893 15894 15895 15896 15897 15898 15899 15900 15901 15902 15903 15904 15905 15906 15907 15908 15909 15910 15911 15912 15913 15914 15915 15916 15917 15918 15919 15920 15921 15922 15923 15924 15925 15926 15927 15928 15929 15930 15931 15932 15933 15934 15935 15936 15937 15938 15939 15940 15941 15942 15943 15944 15945 15946 15947 15948 15949 15950 15951 15952 15953 15954 15955 15956 15957 15958 15959 15960 15961 15962 15963 15964 15965 15966 15967 15968 15969 15970 15971 15972 15973 15974 15975 15976 15977 15978 15979 15980 15981 15982 15983 15984 15985 15986 15987 15988 15989 15990 15991 15992 15993 15994 15995 15996 15997 15998 15999 16000 16001 16002 16003 16004 16005 16006 16007 16008 16009 16010 16011 16012 16013 16014 16015 16016 16017 16018 16019 16020 16021 16022 16023 16024 16025 16026 16027 16028 16029 16030 16031 16032 16033 16034 16035 16036 16037 16038 16039 16040 16041 16042 16043 16044 16045 16046 16047 16048 16049 16050 16051 16052 16053 16054 16055 16056 16057 16058 16059 16060 16061 16062 16063 16064 16065 16066 16067 16068 16069 16070 16071 16072 16073 16074 16075 16076 16077 16078 16079 16080 16081 16082 16083 16084 16085 16086 16087 16088 16089 16090 16091 16092 16093 16094 16095 16096 16097 16098 16099 16100 16101 16102 16103 16104 16105 16106 16107 16108 16109 16110 16111 16112 16113 16114 16115 16116 16117 16118 16119 16120 16121 16122 16123 16124 16125 16126 16127 16128 16129 16130 16131 16132 16133 16134 16135 16136 16137 16138 16139 16140 16141 16142 16143 16144 16145 16146 16147 16148 16149 16150 16151 16152 16153 16154 16155 16156 16157 16158 16159 16160 16161 16162 16163 16164 16165 16166 16167 16168 16169 16170 16171 16172 16173 16174 16175 16176 16177 16178 16179 16180 16181 16182 16183 16184 16185 16186 16187 16188 16189 16190 16191 16192 16193 16194 16195 16196 16197 16198 16199 16200 16201 16202 16203 16204 16205 16206 16207 16208 16209 16210 16211 16212 16213 16214 16215 16216 16217 16218 16219 16220 16221 16222 16223 16224 16225 16226 16227 16228 16229 16230 16231 16232 16233 16234 16235 16236 16237 16238 16239 16240 16241 16242 16243 16244 16245 16246 16247 16248 16249 16250 16251 16252 16253 16254 16255 16256 16257 16258 16259 16260 16261 16262 16263 16264 16265 16266 16267 16268 16269 16270 16271 16272 16273 16274 16275 16276 16277 16278 16279 16280 16281 16282 16283 16284 16285 16286 16287 16288 16289 16290 16291 16292 16293 16294 16295 16296 16297 16298 16299 16300 16301 16302 16303 16304 16305 16306 16307 16308 16309 16310 16311 16312 16313 16314 16315 16316 16317 16318 16319 16320 16321 16322 16323 16324 16325 16326 16327 16328 16329 16330 16331 16332 16333 16334 16335 16336 16337 16338 16339 16340 16341 16342 16343 16344 16345 16346 16347 16348 16349 16350 16351 16352 16353 16354 16355 16356 16357 16358 16359 16360 16361 16362 16363 16364 16365 16366 16367 16368 16369 16370 16371 16372 16373 16374 16375 16376 16377 16378 16379 16380 16381 16382 16383 16384 16385 16386 16387 16388 16389 16390 16391 16392 16393 16394 16395 16396 16397 16398 16399 16400 16401 16402 16403 16404 16405 16406 16407 16408 16409 16410 16411 16412 16413 16414 16415 16416 16417 16418 16419 16420 16421 16422 16423 16424 16425 16426 16427 16428 16429 16430 16431 16432 16433 16434 16435 16436 16437 16438 16439 16440 16441 16442 16443 16444 16445 16446 16447 16448 16449 16450 16451 16452 16453 16454 16455 16456 16457 16458 16459 16460 16461 16462 16463 16464 16465 16466 16467 16468 16469 16470 16471 16472 16473 16474 16475 16476 16477 16478 16479 16480 16481 16482 16483 16484 16485 16486 16487 16488 16489 16490 16491 16492 16493 16494 16495 16496 16497 16498 16499 16500 16501 16502 16503 16504 16505 16506 16507 16508 16509 16510 16511 16512 16513 16514 16515 16516 16517 16518 16519 16520 16521 16522 16523 16524 16525 16526 16527 16528 16529 16530 16531 16532 16533 16534 16535 16536 16537 16538 16539 16540 16541 16542 16543 16544 16545 16546 16547 16548 16549 16550 16551 16552 16553 16554 16555 16556 16557 16558 16559 16560 16561 16562 16563 16564 16565 16566 16567 16568 16569 16570 16571 16572 16573 16574 16575 16576 16577 16578 16579 16580 16581 16582 16583 16584 16585 16586 16587 16588 16589 16590 16591 16592 16593 16594 16595 16596 16597 16598 16599 16600 16601 16602 16603 16604 16605 16606 16607 16608 16609 16610 16611 16612 16613 16614 16615 16616 16617 16618 16619 16620 16621 16622 16623 16624 16625 16626 16627 16628 16629 16630 16631 16632 16633 16634 16635 16636 16637 16638 16639 16640 16641 16642 16643 16644 16645 16646 16647 16648 16649 16650 16651 16652 16653 16654 16655 16656 16657 16658 16659 16660 16661 16662 16663 16664 16665 16666 16667 16668 16669 16670 16671 16672 16673 16674 16675 16676 16677 16678 16679 16680 16681 16682 16683 16684 16685 16686 16687 16688 16689 16690 16691 16692 16693 16694 16695 16696 16697 16698 16699 16700 16701 16702 16703 16704 16705 16706 16707 16708 16709 16710 16711 16712 16713 16714 16715 16716 16717 16718 16719 16720 16721 16722 16723 16724 16725 16726 16727 16728 16729 16730 16731 16732 16733 16734 16735 16736 16737 16738 16739 16740 16741 16742 16743 16744 16745 16746 16747 16748 16749 16750 16751 16752 16753 16754 16755 16756 16757 16758 16759 16760 16761 16762 16763 16764 16765 16766 16767 16768 16769 16770 16771 16772 16773 16774 16775 16776 16777 16778 16779 16780 16781 16782 16783 16784 16785 16786 16787 16788 16789 16790 16791 16792 16793 16794 16795 16796 16797 16798 16799 16800 16801 16802 16803 16804 16805 16806 16807 16808 16809 16810 16811 16812 16813 16814 16815 16816 16817 16818 16819 16820 16821 16822 16823 16824 16825 16826 16827 16828 16829 16830 16831 16832 16833 16834 16835 16836 16837 16838 16839 16840 16841 16842 16843 16844 16845 16846 16847 16848 16849 16850 16851 16852 16853 16854 16855 16856 16857 16858 16859 16860 16861 16862 16863 16864 16865 16866 16867 16868 16869 16870 16871 16872 16873 16874 16875 16876 16877 16878 16879 16880 16881 16882 16883 16884 16885 16886 16887 16888 16889 16890 16891 16892 16893 16894 16895 16896 16897 16898 16899 16900 16901 16902 16903 16904 16905 16906 16907 16908 16909 16910 16911 16912 16913 16914 16915 16916 16917 16918 16919 16920 16921 16922 16923 16924 16925 16926 16927 16928 16929 16930 16931 16932 16933 16934 16935 16936 16937 16938 16939 16940 16941 16942 16943 16944 16945 16946 16947 16948 16949 16950 16951 16952 16953 16954 16955 16956 16957 16958 16959 16960 16961 16962 16963 16964 16965 16966 16967 16968 16969 16970 16971 16972 16973 16974 16975 16976 16977 16978 16979 16980 16981 16982 16983 16984 16985 16986 16987 16988 16989 16990 16991 16992 16993 16994 16995 16996 16997 16998 16999 17000 17001 17002 17003 17004 17005 17006 17007 17008 17009 17010 17011 17012 17013 17014 17015 17016 17017 17018 17019 17020 17021 17022 17023 17024 17025 17026 17027 17028 17029 17030 17031 17032 17033 17034 17035 17036 17037 17038 17039 17040 17041 17042 17043 17044 17045 17046 17047 17048 17049 17050 17051 17052 17053 17054 17055 17056 17057 17058 17059 17060 17061 17062 17063 17064 17065 17066 17067 17068 17069 17070 17071 17072 17073 17074 17075 17076 17077 17078 17079 17080 17081 17082 17083 17084 17085 17086 17087 17088 17089 17090 17091 17092 17093 17094 17095 17096 17097 17098 17099 17100 17101 17102 17103 17104 17105 17106 17107 17108 17109 17110 17111 17112 17113 17114 17115 17116 17117 17118 17119 17120 17121 17122 17123 17124 17125 17126 17127 17128 17129 17130 17131 17132 17133 17134 17135 17136 17137 17138 17139 17140 17141 17142 17143 17144 17145 17146 17147 17148 17149 17150 17151 17152 17153 17154 17155 17156 17157 17158 17159 17160 17161 17162 17163 17164 17165 17166 17167 17168 17169 17170 17171 17172 17173 17174 17175 17176 17177 17178 17179 17180 17181 17182 17183 17184 17185 17186 17187 17188 17189 17190 17191 17192 17193 17194 17195 17196 17197 17198 17199 17200 17201 17202 17203 17204 17205 17206 17207 17208 17209 17210 17211 17212 17213 17214 17215 17216 17217 17218 17219 17220 17221 17222 17223 17224 17225 17226 17227 17228 17229 17230 17231 17232 17233 17234 17235 17236 17237 17238 17239 17240 17241 17242 17243 17244 17245 17246 17247 17248 17249 17250 17251 17252 17253 17254 17255 17256 17257 17258 17259 17260 17261 17262 17263 17264 17265 17266 17267 17268 17269 17270 17271 17272 17273 17274 17275 17276 17277 17278 17279 17280 17281 17282 17283 17284 17285 17286 17287 17288 17289 17290 17291 17292 17293 17294 17295 17296 17297 17298 17299 17300 17301 17302 17303 17304 17305 17306 17307 17308 17309 17310 17311 17312 17313 17314 17315 17316 17317 17318 17319 17320 17321 17322 17323 17324 17325 17326 17327 17328 17329 17330 17331 17332 17333 17334 17335 17336 17337 17338 17339 17340 17341 17342 17343 17344 17345 17346 17347 17348 17349 17350 17351 17352 17353 17354 17355 17356 17357 17358 17359 17360 17361 17362 17363 17364 17365 17366 17367 17368 17369 17370 17371 17372 17373 17374 17375 17376 17377 17378 17379 17380 17381 17382 17383 17384 17385 17386 17387 17388 17389 17390 17391 17392 17393 17394 17395 17396 17397 17398 17399 17400 17401 17402 17403 17404 17405 17406 17407 17408 17409 17410 17411 17412 17413 17414 17415 17416 17417 17418 17419 17420 17421 17422 17423 17424 17425 17426 17427 17428 17429 17430 17431 17432 17433 17434 17435 17436 17437 17438 17439 17440 17441 17442 17443 17444 17445 17446 17447 17448 17449 17450 17451 17452 17453 17454 17455 17456 17457 17458 17459 17460 17461 17462 17463 17464 17465 17466 17467 17468 17469 17470 17471 17472 17473 17474 17475 17476 17477 17478 17479 17480 17481 17482 17483 17484 17485 17486 17487 17488 17489 17490 17491 17492 17493 17494 17495 17496 17497 17498 17499 17500 17501 17502 17503 17504 17505 17506 17507 17508 17509 17510 17511 17512 17513 17514 17515 17516 17517 17518 17519 17520 17521 17522 17523 17524 17525 17526 17527 17528 17529 17530 17531 17532 17533 17534 17535 17536 17537 17538 17539 17540 17541 17542 17543 17544 17545 17546 17547 17548 17549 17550 17551 17552 17553 17554 17555 17556 17557 17558 17559 17560 17561 17562 17563 17564 17565 17566 17567 17568 17569 17570 17571 17572 17573 17574 17575 17576 17577 17578 17579 17580 17581 17582 17583 17584 17585 17586 17587 17588 17589 17590 17591 17592 17593 17594 17595 17596 17597 17598 17599 17600 17601 17602 17603 17604 17605 17606 17607 17608 17609 17610 17611 17612 17613 17614 17615 17616 17617 17618 17619 17620 17621 17622 17623 17624 17625 17626 17627 17628 17629 17630 17631 17632 17633 17634 17635 17636 17637 17638 17639 17640 17641 17642 17643 17644 17645 17646 17647 17648 17649 17650 17651 17652 17653 17654 17655 17656 17657 17658 17659 17660 17661 17662 17663 17664 17665 17666 17667 17668 17669 17670 17671 17672 17673 17674 17675 17676 17677 17678 17679 17680 17681 17682 17683 17684 17685 17686 17687 17688 17689 17690 17691 17692 17693 17694 17695 17696 17697 17698 17699 17700 17701 17702 17703 17704 17705 17706 17707 17708 17709 17710 17711 17712 17713 17714 17715 17716 17717 17718 17719 17720 17721 17722 17723 17724 17725 17726 17727 17728 17729 17730 17731 17732 17733 17734 17735 17736 17737 17738 17739 17740 17741 17742 17743 17744 17745 17746 17747 17748 17749 17750 17751 17752 17753 17754 17755 17756 17757 17758 17759 17760 17761 17762 17763 17764 17765 17766 17767 17768 17769 17770 17771 17772 17773 17774 17775 17776 17777 17778 17779 17780 17781 17782 17783 17784 17785 17786 17787 17788 17789 17790 17791 17792 17793 17794 17795 17796 17797 17798 17799 17800 17801 17802 17803 17804 17805 17806 17807 17808 17809 17810 17811 17812 17813 17814 17815 17816 17817 17818 17819 17820 17821 17822 17823 17824 17825 17826 17827 17828 17829 17830 17831 17832 17833 17834 17835 17836 17837 17838 17839 17840 17841 17842 17843 17844 17845 17846 17847 17848 17849 17850 17851 17852 17853 17854 17855 17856 17857 17858 17859 17860 17861 17862 17863 17864 17865 17866 17867 17868 17869 17870 17871 17872 17873 17874 17875 17876 17877 17878 17879 17880 17881 17882 17883 17884 17885 17886 17887 17888 17889 17890 17891 17892 17893 17894 17895 17896 17897 17898 17899 17900 17901 17902 17903 17904 17905 17906 17907 17908 17909 17910 17911 17912 17913 17914 17915 17916 17917 17918 17919 17920 17921 17922 17923 17924 17925 17926 17927 17928 17929 17930 17931 17932 17933 17934 17935 17936 17937 17938 17939 17940 17941 17942 17943 17944 17945 17946 17947 17948 17949 17950 17951 17952 17953 17954 17955 17956 17957 17958 17959 17960 17961 17962 17963 17964 17965 17966 17967 17968 17969 17970 17971 17972 17973 17974 17975 17976 17977 17978 17979 17980 17981 17982 17983 17984 17985 17986 17987 17988 17989 17990 17991 17992 17993 17994 17995 17996 17997 17998 17999 18000 18001 18002 18003 18004 18005 18006 18007 18008 18009 18010 18011 18012 18013 18014 18015 18016 18017 18018 18019 18020 18021 18022 18023 18024 18025 18026 18027 18028 18029 18030 18031 18032 18033 18034 18035 18036 18037 18038 18039 18040 18041 18042 18043 18044 18045 18046 18047 18048 18049 18050 18051 18052 18053 18054 18055 18056 18057 18058 18059 18060 18061 18062 18063 18064 18065 18066 18067 18068 18069 18070 18071 18072 18073 18074 18075 18076 18077 18078 18079 18080 18081 18082 18083 18084 18085 18086 18087 18088 18089 18090 18091 18092 18093 18094 18095 18096 18097 18098 18099 18100 18101 18102 18103 18104 18105 18106 18107 18108 18109 18110 18111 18112 18113 18114 18115 18116 18117 18118 18119 18120 18121 18122 18123 18124 18125 18126 18127 18128 18129 18130 18131 18132 18133 18134 18135 18136 18137 18138 18139 18140 18141 18142 18143 18144 18145 18146 18147 18148 18149 18150 18151 18152 18153 18154 18155 18156 18157 18158 18159 18160 18161 18162 18163 18164 18165 18166 18167 18168 18169 18170 18171 18172 18173 18174 18175 18176 18177 18178 18179 18180 18181 18182 18183 18184 18185 18186 18187 18188 18189 18190 18191 18192 18193 18194 18195 18196 18197 18198 18199 18200 18201 18202 18203 18204 18205 18206 18207 18208 18209 18210 18211 18212 18213 18214 18215 18216 18217 18218 18219 18220 18221 18222 18223 18224 18225 18226 18227 18228 18229 18230 18231 18232 18233 18234 18235 18236 18237 18238 18239 18240 18241 18242 18243 18244 18245 18246 18247 18248 18249 18250 18251 18252 18253 18254 18255 18256 18257 18258 18259 18260 18261 18262 18263 18264 18265 18266 18267 18268 18269 18270 18271 18272 18273 18274 18275 18276 18277 18278 18279 18280 18281 18282 18283 18284 18285 18286 18287 18288 18289 18290 18291 18292 18293 18294 18295 18296 18297 18298 18299 18300 18301 18302 18303 18304 18305 18306 18307 18308 18309 18310 18311 18312 18313 18314 18315 18316 18317 18318 18319 18320 18321 18322 18323 18324 18325 18326 18327 18328 18329 18330 18331 18332 18333 18334 18335 18336 18337 18338 18339 18340 18341 18342 18343 18344 18345 18346 18347 18348 18349 18350 18351 18352 18353 18354 18355 18356 18357 18358 18359 18360 18361 18362 18363 18364 18365 18366 18367 18368 18369 18370 18371 18372 18373 18374 18375 18376 18377 18378 18379 18380 18381 18382 18383 18384 18385 18386 18387 18388 18389 18390 18391 18392 18393 18394 18395 18396 18397 18398 18399 18400 18401 18402 18403 18404 18405 18406 18407 18408 18409 18410 18411 18412 18413 18414 18415 18416 18417 18418 18419 18420 18421 18422 18423 18424 18425 18426 18427 18428 18429 18430 18431 18432 18433 18434 18435 18436 18437 18438 18439 18440 18441 18442 18443 18444 18445 18446 18447 18448 18449 18450 18451 18452 18453 18454 18455 18456 18457 18458 18459 18460 18461 18462 18463 18464 18465 18466 18467 18468 18469 18470 18471 18472 18473 18474 18475 18476 18477 18478 18479 18480 18481 18482 18483 18484 18485 18486 18487 18488 18489 18490 18491 18492 18493 18494 18495 18496 18497 18498 18499 18500 18501 18502 18503 18504 18505 18506 18507 18508 18509 18510 18511 18512 18513 18514 18515 18516 18517 18518 18519 18520 18521 18522 18523 18524 18525 18526 18527 18528 18529 18530 18531 18532 18533 18534 18535 18536 18537 18538 18539 18540 18541 18542 18543 18544 18545 18546 18547 18548 18549 18550 18551 18552 18553 18554 18555 18556 18557 18558 18559 18560 18561 18562 18563 18564 18565 18566 18567 18568 18569 18570 18571 18572 18573 18574 18575 18576 18577 18578 18579 18580 18581 18582 18583 18584 18585 18586 18587 18588 18589 18590 18591 18592 18593 18594 18595 18596 18597 18598 18599 18600 18601 18602 18603 18604 18605 18606 18607 18608 18609 18610 18611 18612 18613 18614 18615 18616 18617 18618 18619 18620 18621 18622 18623 18624 18625 18626 18627 18628 18629 18630 18631 18632 18633 18634 18635 18636 18637 18638 18639 18640 18641 18642 18643 18644 18645 18646 18647 18648 18649 18650 18651 18652 18653 18654 18655 18656 18657 18658 18659 18660 18661 18662 18663 18664 18665 18666 18667 18668 18669 18670 18671 18672 18673 18674 18675 18676 18677 18678 18679 18680 18681 18682 18683 18684 18685 18686 18687 18688 18689 18690 18691 18692 18693 18694 18695 18696 18697 18698 18699 18700 18701 18702 18703 18704 18705 18706 18707 18708 18709 18710 18711 18712 18713 18714 18715 18716 18717 18718 18719 18720 18721 18722 18723 18724 18725 18726 18727 18728 18729 18730 18731 18732 18733 18734 18735 18736 18737 18738 18739 18740 18741 18742 18743 18744 18745 18746 18747 18748 18749 18750 18751 18752 18753 18754 18755 18756 18757 18758 18759 18760 18761 18762 18763 18764 18765 18766 18767 18768 18769 18770 18771 18772 18773 18774 18775 18776 18777 18778 18779 18780 18781 18782 18783 18784 18785 18786 18787 18788 18789 18790 18791 18792 18793 18794 18795 18796 18797 18798 18799 18800 18801 18802 18803 18804 18805 18806 18807 18808 18809 18810 18811 18812 18813 18814 18815 18816 18817 18818 18819 18820 18821 18822 18823 18824 18825 18826 18827 18828 18829 18830 18831 18832 18833 18834 18835 18836 18837 18838 18839 18840 18841 18842 18843 18844 18845 18846 18847 18848 18849 18850 18851 18852 18853 18854 18855 18856 18857 18858 18859 18860 18861 18862 18863 18864 18865 18866 18867 18868 18869 18870 18871 18872 18873 18874 18875 18876 18877 18878 18879 18880 18881 18882 18883 18884 18885 18886 18887 18888 18889 18890 18891 18892 18893 18894 18895 18896 18897 18898 18899 18900 18901 18902 18903 18904 18905 18906 18907 18908 18909 18910 18911 18912 18913 18914 18915 18916 18917 18918 18919 18920 18921 18922 18923 18924 18925 18926 18927 18928 18929 18930 18931 18932 18933 18934 18935 18936 18937 18938 18939 18940 18941 18942 18943 18944 18945 18946 18947 18948 18949 18950 18951 18952 18953 18954 18955 18956 18957 18958 18959 18960 18961 18962 18963 18964 18965 18966 18967 18968 18969 18970 18971 18972 18973 18974 18975 18976 18977 18978 18979 18980 18981 18982 18983 18984 18985 18986 18987 18988 18989 18990 18991 18992 18993 18994 18995 18996 18997 18998 18999 19000 19001 19002 19003 19004 19005 19006 19007 19008 19009 19010 19011 19012 19013 19014 19015 19016 19017 19018 19019 19020 19021 19022 19023 19024 19025 19026 19027 19028 19029 19030 19031 19032 19033 19034 19035 19036 19037 19038 19039 19040 19041 19042 19043 19044 19045 19046 19047 19048 19049 19050 19051 19052 19053 19054 19055 19056 19057 19058 19059 19060 19061 19062 19063 19064 19065 19066 19067 19068 19069 19070 19071 19072 19073 19074 19075 19076 19077 19078 19079 19080 19081 19082 19083 19084 19085 19086 19087 19088 19089 19090 19091 19092 19093 19094 19095 19096 19097 19098 19099 19100 19101 19102 19103 19104 19105 19106 19107 19108 19109 19110 19111 19112 19113 19114 19115 19116 19117 19118 19119 19120 19121 19122 19123 19124 19125 19126 19127 19128 19129 19130 19131 19132 19133 19134 19135 19136 19137 19138 19139 19140 19141 19142 19143 19144 19145 19146 19147 19148 19149 19150 19151 19152 19153 19154 19155 19156 19157 19158 19159 19160 19161 19162 19163 19164 19165 19166 19167 19168 19169 19170 19171 19172 19173 19174 19175 19176 19177 19178 19179 19180 19181 19182 19183 19184 19185 19186 19187 19188 19189 19190 19191 19192 19193 19194 19195 19196 19197 19198 19199 19200 19201 19202 19203 19204 19205 19206 19207 19208 19209 19210 19211 19212 19213 19214 19215 19216 19217 19218 19219 19220 19221 19222 19223 19224 19225 19226 19227 19228 19229 19230 19231 19232 19233 19234 19235 19236 19237 19238 19239 19240 19241 19242 19243 19244 19245 19246 19247 19248 19249 19250 19251 19252 19253 19254 19255 19256 19257 19258 19259 19260 19261 19262 19263 19264 19265 19266 19267 19268 19269 19270 19271 19272 19273 19274 19275 19276 19277 19278 19279 19280 19281 19282 19283 19284 19285 19286 19287 19288 19289 19290 19291 19292 19293 19294 19295 19296 19297 19298 19299 19300 19301 19302 19303 19304 19305 19306 19307 19308 19309 19310 19311 19312 19313 19314 19315 19316 19317 19318 19319 19320 19321 19322 19323 19324 19325 19326 19327 19328 19329 19330 19331 19332 19333 19334 19335 19336 19337 19338 19339 19340 19341 19342 19343 19344 19345 19346 19347 19348 19349 19350 19351 19352 19353 19354 19355 19356 19357 19358 19359 19360 19361 19362 19363 19364 19365 19366 19367 19368 19369 19370 19371 19372 19373 19374 19375 19376 19377 19378 19379 19380 19381 19382 19383 19384 19385 19386 19387 19388 19389 19390 19391 19392 19393 19394 19395 19396 19397 19398 19399 19400 19401 19402 19403 19404 19405 19406 19407 19408 19409 19410 19411 19412 19413 19414 19415 19416 19417 19418 19419 19420 19421 19422 19423 19424 19425 19426 19427 19428 19429 19430 19431 19432 19433 19434 19435 19436 19437 19438 19439 19440 19441 19442 19443 19444 19445 19446 19447 19448 19449 19450 19451 19452 19453 19454 19455 19456 19457 19458 19459 19460 19461 19462 19463 19464 19465 19466 19467 19468 19469 19470 19471 19472 19473 19474 19475 19476 19477 19478 19479 19480 19481 19482 19483 19484 19485 19486 19487 19488 19489 19490 19491 19492 19493 19494 19495 19496 19497 19498 19499 19500 19501 19502 19503 19504 19505 19506 19507 19508 19509 19510 19511 19512 19513 19514 19515 19516 19517 19518 19519 19520 19521 19522 19523 19524 19525 19526 19527 19528 19529 19530 19531 19532 19533 19534 19535 19536 19537 19538 19539 19540 19541 19542 19543 19544 19545 19546 19547 19548 19549 19550 19551 19552 19553 19554 19555 19556 19557 19558 19559 19560 19561 19562 19563 19564 19565 19566 19567 19568 19569 19570 19571 19572 19573 19574 19575 19576 19577 19578 19579 19580 19581 19582 19583 19584 19585 19586 19587 19588 19589 19590 19591 19592 19593 19594 19595 19596 19597 19598 19599 19600 19601 19602 19603 19604 19605 19606 19607 19608 19609 19610 19611 19612 19613 19614 19615 19616 19617 19618 19619 19620 19621 19622 19623 19624 19625 19626 19627 19628 19629 19630 19631 19632 19633 19634 19635 19636 19637 19638 19639 19640 19641 19642 19643 19644 19645 19646 19647 19648 19649 19650 19651 19652 19653 19654 19655 19656 19657 19658 19659 19660 19661 19662 19663 19664 19665 19666 19667 19668 19669 19670 19671 19672 19673 19674 19675 19676 19677 19678 19679 19680 19681 19682 19683 19684 19685 19686 19687 19688 19689 19690 19691 19692 19693 19694 19695 19696 19697 19698 19699 19700 19701 19702 19703 19704 19705 19706 19707 19708 19709 19710 19711 19712 19713 19714 19715 19716 19717 19718 19719 19720 19721 19722 19723 19724 19725 19726 19727 19728 19729 19730 19731 19732 19733 19734 19735 19736 19737 19738 19739 19740 19741 19742 19743 19744 19745 19746 19747 19748 19749 19750 19751 19752 19753 19754 19755 19756 19757 19758 19759 19760 19761 19762 19763 19764 19765 19766 19767 19768 19769 19770 19771 19772 19773 19774 19775 19776 19777 19778 19779 19780 19781 19782 19783 19784 19785 19786 19787 19788 19789 19790 19791 19792 19793 19794 19795 19796 19797 19798 19799 19800 19801 19802 19803 19804 19805 19806 19807 19808 19809 19810 19811 19812 19813 19814 19815 19816 19817 19818 19819 19820 19821 19822 19823 19824 19825 19826 19827 19828 19829 19830 19831 19832 19833 19834 19835 19836 19837 19838 19839 19840 19841 19842 19843 19844 19845 19846 19847 19848 19849 19850 19851 19852 19853 19854 19855 19856 19857 19858 19859 19860 19861 19862 19863 19864 19865 19866 19867 19868 19869 19870 19871 19872 19873 19874 19875 19876 19877 19878 19879 19880 19881 19882 19883 19884 19885 19886 19887 19888 19889 19890 19891 19892 19893 19894 19895 19896 19897 19898 19899 19900 19901 19902 19903 19904 19905 19906 19907 19908 19909 19910 19911 19912 19913 19914 19915 19916 19917 19918 19919 19920 19921 19922 19923 19924 19925 19926 19927 19928 19929 19930 19931 19932 19933 19934 19935 19936 19937 19938 19939 19940 19941 19942 19943 19944 19945 19946 19947 19948 19949 19950 19951 19952 19953 19954 19955 19956 19957 19958 19959 19960 19961 19962 19963 19964 19965 19966 19967 19968 19969 19970 19971 19972 19973 19974 19975 19976 19977 19978 19979 19980 19981 19982 19983 19984 19985 19986 19987 19988 19989 19990 19991 19992 19993 19994 19995 19996 19997 19998 19999 20000 20001 20002 20003 20004 20005 20006 20007 20008 20009 20010 20011 20012 20013 20014 20015 20016 20017 20018 20019 20020 20021 20022 20023 20024 20025 20026 20027 20028 20029 20030 20031 20032 20033 20034 20035 20036 20037 20038 20039 20040 20041 20042 20043 20044 20045 20046 20047 20048 20049 20050 20051 20052 20053 20054 20055 20056 20057 20058 20059 20060 20061 20062 20063 20064 20065 20066 20067 20068 20069 20070 20071 20072 20073 20074 20075 20076 20077 20078 20079 20080 20081 20082 20083 20084 20085 20086 20087 20088 20089 20090 20091 20092 20093 20094 20095 20096 20097 20098 20099 20100 20101 20102 20103 20104 20105 20106 20107 20108 20109 20110 20111 20112 20113 20114 20115 20116 20117 20118 20119 20120 20121 20122 20123 20124 20125 20126 20127 20128 20129 20130 20131 20132 20133 20134 20135 20136 20137 20138 20139 20140 20141 20142 20143 20144 20145 20146 20147 20148 20149 20150 20151 20152 20153 20154 20155 20156 20157 20158 20159 20160 20161 20162 20163 20164 20165 20166 20167 20168 20169 20170 20171 20172 20173 20174 20175 20176 20177 20178 20179 20180 20181 20182 20183 20184 20185 20186 20187 20188 20189 20190 20191 20192 20193 20194 20195 20196 20197 20198 20199 20200 20201 20202 20203 20204 20205 20206 20207 20208 20209 20210 20211 20212 20213 20214 20215 20216 20217 20218 20219 20220 20221 20222 20223 20224 20225 20226 20227 20228 20229 20230 20231 20232 20233 20234 20235 20236 20237 20238 20239 20240 20241 20242 20243 20244 20245 20246 20247 20248 20249 20250 20251 20252 20253 20254 20255 20256 20257 20258 20259 20260 20261 20262 20263 20264 20265 20266 20267 20268 20269 20270 20271 20272 20273 20274 20275 20276 20277 20278 20279 20280 20281 20282 20283 20284 20285 20286 20287 20288 20289 20290 20291 20292 20293 20294 20295 20296 20297 20298 20299 20300 20301 20302 20303 20304 20305 20306 20307 20308 20309 20310 20311 20312 20313 20314 20315 20316 20317 20318 20319 20320 20321 20322 20323 20324 20325 20326 20327 20328 20329 20330 20331 20332 20333 20334 20335 20336 20337 20338 20339 20340 20341 20342 20343 20344 20345 20346 20347 20348 20349 20350 20351 20352 20353 20354 20355 20356 20357 20358 20359 20360 20361 20362 20363 20364 20365 20366 20367 20368 20369 20370 20371 20372 20373 20374 20375 20376 20377 20378 20379 20380 20381 20382 20383 20384 20385 20386 20387 20388 20389 20390 20391 20392 20393 20394 20395 20396 20397 20398 20399 20400 20401 20402 20403 20404 20405 20406 20407 20408 20409 20410 20411 20412 20413 20414 20415 20416 20417 20418 20419 20420 20421 20422 20423 20424 20425 20426 20427 20428 20429 20430 20431 20432 20433 20434 20435 20436 20437 20438 20439 20440 20441 20442 20443 20444 20445 20446 20447 20448 20449 20450 20451 20452 20453 20454 20455 20456 20457 20458 20459 20460 20461 20462 20463 20464 20465 20466 20467 20468 20469 20470 20471 20472 20473 20474 20475 20476 20477 20478 20479 20480 20481 20482 20483 20484 20485 20486 20487 20488 20489 20490 20491 20492 20493 20494 20495 20496 20497 20498 20499 20500 20501 20502 20503 20504 20505 20506 20507 20508 20509 20510 20511 20512 20513 20514 20515 20516 20517 20518 20519 20520 20521 20522 20523 20524 20525 20526 20527 20528 20529 20530 20531 20532 20533 20534 20535 20536 20537 20538 20539 20540 20541 20542 20543 20544 20545 20546 20547 20548 20549 20550 20551 20552 20553 20554 20555 20556 20557 20558 20559 20560 20561 20562 20563 20564 20565 20566 20567 20568 20569 20570 20571 20572 20573 20574 20575 20576 20577 20578 20579 20580 20581 20582 20583 20584 20585 20586 20587 20588 20589 20590 20591 20592 20593 20594 20595 20596 20597 20598 20599 20600 20601 20602 20603 20604 20605 20606 20607 20608 20609 20610 20611 20612 20613 20614 20615 20616 20617 20618 20619 20620 20621 20622 20623 20624 20625 20626 20627 20628 20629 20630 20631 20632 20633 20634 20635 20636 20637 20638 20639 20640 20641 20642 20643 20644 20645 20646 20647 20648 20649 20650 20651 20652 20653 20654 20655 20656 20657 20658 20659 20660 20661 20662 20663 20664 20665 20666 20667 20668 20669 20670 20671 20672 20673 20674 20675 20676 20677 20678 20679 20680 20681 20682 20683 20684 20685 20686 20687 20688 20689 20690 20691 20692 20693 20694 20695 20696 20697 20698 20699 20700 20701 20702 20703 20704 20705 20706 20707 20708 20709 20710 20711 20712 20713 20714 20715 20716 20717 20718 20719 20720 20721 20722 20723 20724 20725 20726 20727 20728 20729 20730 20731 20732 20733 20734 20735 20736 20737 20738 20739 20740 20741 20742 20743 20744 20745 20746 20747 20748 20749 20750 20751 20752 20753 20754 20755 20756 20757 20758 20759 20760 20761 20762 20763 20764 20765 20766 20767 20768 20769 20770 20771 20772 20773 20774 20775 20776 20777 20778 20779 20780 20781 20782 20783 20784 20785 20786 20787 20788 20789 20790 20791 20792 20793 20794 20795 20796 20797 20798 20799 20800 20801 20802 20803 20804 20805 20806 20807 20808 20809 20810 20811 20812 20813 20814 20815 20816 20817 20818 20819 20820 20821 20822 20823 20824 20825 20826 20827 20828 20829 20830 20831 20832 20833 20834 20835 20836 20837 20838 20839 20840 20841 20842 20843 20844 20845 20846 20847 20848 20849 20850 20851 20852 20853 20854 20855 20856 20857 20858 20859 20860 20861 20862 20863 20864 20865 20866 20867 20868 20869 20870 20871 20872 20873 20874 20875 20876 20877 20878 20879 20880 20881 20882 20883 20884 20885 20886 20887 20888 20889 20890 20891 20892 20893 20894 20895 20896 20897 20898 20899 20900 20901 20902 20903 20904 20905 20906 20907 20908 20909 20910 20911 20912 20913 20914 20915 20916 20917 20918 20919 20920 20921 20922 20923 20924 20925 20926 20927 20928 20929 20930 20931 20932 20933 20934 20935 20936 20937 20938 20939 20940 20941 20942 20943 20944 20945 20946 20947 20948 20949 20950 20951 20952 20953 20954 20955 20956 20957 20958 20959 20960 20961 20962 20963 20964 20965 20966 20967 20968 20969 20970 20971 20972 20973 20974 20975 20976 20977 20978 20979 20980 20981 20982 20983 20984 20985 20986 20987 20988 20989 20990 20991 20992 20993 20994 20995 20996 20997 20998 20999 21000 21001 21002 21003 21004 21005 21006 21007 21008 21009 21010 21011 21012 21013 21014 21015 21016 21017 21018 21019 21020 21021 21022 21023 21024 21025 21026 21027 21028 21029 21030 21031 21032 21033 21034 21035 21036 21037 21038 21039 21040 21041 21042 21043 21044 21045 21046 21047 21048 21049 21050 21051 21052 21053 21054 21055 21056 21057 21058 21059 21060 21061 21062 21063 21064 21065 21066 21067 21068 21069 21070 21071 21072 21073 21074 21075 21076 21077 21078 21079 21080 21081 21082 21083 21084 21085 21086 21087 21088 21089 21090 21091 21092 21093 21094 21095 21096 21097 21098 21099 21100 21101 21102 21103 21104 21105 21106 21107 21108 21109 21110 21111 21112 21113 21114 21115 21116 21117 21118 21119 21120 21121 21122 21123 21124 21125 21126 21127 21128 21129 21130 21131 21132 21133 21134 21135 21136 21137 21138 21139 21140 21141 21142 21143 21144 21145 21146 21147 21148 21149 21150 21151 21152 21153 21154 21155 21156 21157 21158 21159 21160 21161 21162 21163 21164 21165 21166 21167 21168 21169 21170 21171 21172 21173 21174 21175 21176 21177 21178 21179 21180 21181 21182 21183 21184 21185 21186 21187 21188 21189 21190 21191 21192 21193 21194 21195 21196 21197 21198 21199 21200 21201 21202 21203 21204 21205 21206 21207 21208 21209 21210 21211 21212 21213 21214 21215 21216 21217 21218 21219 21220 21221 21222 21223 21224 21225 21226 21227 21228 21229 21230 21231 21232 21233 21234 21235 21236 21237 21238 21239 21240 21241 21242 21243 21244 21245 21246 21247 21248 21249 21250 21251 21252 21253 21254 21255 21256 21257 21258 21259 21260 21261 21262 21263 21264 21265 21266 21267 21268 21269 21270 21271 21272 21273 21274 21275 21276 21277 21278 21279 21280 21281 21282 21283 21284 21285 21286 21287 21288 21289 21290 21291 21292 21293 21294 21295 21296 21297 21298 21299 21300 21301 21302 21303 21304 21305 21306 21307 21308 21309 21310 21311 21312 21313 21314 21315 21316 21317 21318 21319 21320 21321 21322 21323 21324 21325 21326 21327 21328 21329 21330 21331 21332 21333 21334 21335 21336 21337 21338 21339 21340 21341 21342 21343 21344 21345 21346 21347 21348 21349 21350 21351 21352 21353 21354 21355 21356 21357 21358 21359 21360 21361 21362 21363 21364 21365 21366 21367 21368 21369 21370 21371 21372 21373 21374 21375 21376 21377 21378 21379 21380 21381 21382 21383 21384 21385 21386 21387 21388 21389 21390 21391 21392 21393 21394 21395 21396 21397 21398 21399 21400 21401 21402 21403 21404 21405 21406 21407 21408 21409 21410 21411 21412 21413 21414 21415 21416 21417 21418 21419 21420 21421 21422 21423 21424 21425 21426 21427 21428 21429 21430 21431 21432 21433 21434 21435 21436 21437 21438 21439 21440 21441 21442 21443 21444 21445 21446 21447 21448 21449 21450 21451 21452 21453 21454 21455 21456 21457 21458 21459 21460 21461 21462 21463 21464 21465 21466 21467 21468 21469 21470 21471 21472 21473 21474 21475 21476 21477 21478 21479 21480 21481 21482 21483 21484 21485 21486 21487 21488 21489 21490 21491 21492 21493 21494 21495 21496 21497 21498 21499 21500 21501 21502 21503 21504 21505 21506 21507 21508 21509 21510 21511 21512 21513 21514 21515 21516 21517 21518 21519 21520 21521 21522 21523 21524 21525 21526 21527 21528 21529 21530 21531 21532 21533 21534 21535 21536 21537 21538 21539 21540 21541 21542 21543 21544 21545 21546 21547 21548 21549 21550 21551 21552 21553 21554 21555 21556 21557 21558 21559 21560 21561 21562 21563 21564 21565 21566 21567 21568 21569 21570 21571 21572 21573 21574 21575 21576 21577 21578 21579 21580 21581 21582 21583 21584 21585 21586 21587 21588 21589 21590 21591 21592 21593 21594 21595 21596 21597 21598 21599 21600 21601 21602 21603 21604 21605 21606 21607 21608 21609 21610 21611 21612 21613 21614 21615 21616 21617 21618 21619 21620 21621 21622 21623 21624 21625 21626 21627 21628 21629 21630 21631 21632 21633 21634 21635 21636 21637 21638 21639 21640 21641 21642 21643 21644 21645 21646 21647 21648 21649 21650 21651 21652 21653 21654 21655 21656 21657 21658 21659 21660 21661 21662 21663 21664 21665 21666 21667 21668 21669 21670 21671 21672 21673 21674 21675 21676 21677 21678 21679 21680 21681 21682 21683 21684 21685 21686 21687 21688 21689 21690 21691 21692 21693 21694 21695 21696 21697 21698 21699 21700 21701 21702 21703 21704 21705 21706 21707 21708 21709 21710 21711 21712 21713 21714 21715 21716 21717 21718 21719 21720 21721 21722 21723 21724 21725 21726 21727 21728 21729 21730 21731 21732 21733 21734 21735 21736 21737 21738 21739 21740 21741 21742 21743 21744 21745 21746 21747 21748 21749 21750 21751 21752 21753 21754 21755 21756 21757 21758 21759 21760 21761 21762 21763 21764 21765 21766 21767 21768 21769 21770 21771 21772 21773 21774 21775 21776 21777 21778 21779 21780 21781 21782 21783 21784 21785 21786 21787 21788 21789 21790 21791 21792 21793 21794 21795 21796 21797 21798 21799 21800 21801 21802 21803 21804 21805 21806 21807 21808 21809 21810 21811 21812 21813 21814 21815 21816 21817 21818 21819 21820 21821 21822 21823 21824 21825 21826 21827 21828 21829 21830 21831 21832 21833 21834 21835 21836 21837 21838 21839 21840 21841 21842 21843 21844 21845 21846 21847 21848 21849 21850 21851 21852 21853 21854 21855 21856 21857 21858 21859 21860 21861 21862 21863 21864 21865 21866 21867 21868 21869 21870 21871 21872 21873 21874 21875 21876 21877 21878 21879 21880 21881 21882 21883 21884 21885 21886 21887 21888 21889 21890 21891 21892 21893 21894 21895 21896 21897 21898 21899 21900 21901 21902 21903 21904 21905 21906 21907 21908 21909 21910 21911 21912 21913 21914 21915 21916 21917 21918 21919 21920 21921 21922 21923 21924 21925 21926 21927 21928 21929 21930 21931 21932 21933 21934 21935 21936 21937 21938 21939 21940 21941 21942 21943 21944 21945 21946 21947 21948 21949 21950 21951 21952 21953 21954 21955 21956 21957 21958 21959 21960 21961 21962 21963 21964 21965 21966 21967 21968 21969 21970 21971 21972 21973 21974 21975 21976 21977 21978 21979 21980 21981 21982 21983 21984 21985 21986 21987 21988 21989 21990 21991 21992 21993 21994 21995 21996 21997 21998 21999 22000 22001 22002 22003 22004 22005 22006 22007 22008 22009 22010 22011 22012 22013 22014 22015 22016 22017 22018 22019 22020 22021 22022 22023 22024 22025 22026 22027 22028 22029 22030 22031 22032 22033 22034 22035 22036 22037 22038 22039 22040 22041 22042 22043 22044 22045 22046 22047 22048 22049 22050 22051 22052 22053 22054 22055 22056 22057 22058 22059 22060 22061 22062 22063 22064 22065 22066 22067 22068 22069 22070 22071 22072 22073 22074 22075 22076 22077 22078 22079 22080 22081 22082 22083 22084 22085 22086 22087 22088 22089 22090 22091 22092 22093 22094 22095 22096 22097 22098 22099 22100 22101 22102 22103 22104 22105 22106 22107 22108 22109 22110 22111 22112 22113 22114 22115 22116 22117 22118 22119 22120 22121 22122 22123 22124 22125 22126 22127 22128 22129 22130 22131 22132 22133 22134 22135 22136 22137 22138 22139 22140 22141 22142 22143 22144 22145 22146 22147 22148 22149 22150 22151 22152 22153 22154 22155 22156 22157 22158 22159 22160 22161 22162 22163 22164 22165 22166 22167 22168 22169 22170 22171 22172 22173 22174 22175 22176 22177 22178 22179 22180 22181 22182 22183 22184 22185 22186 22187 22188 22189 22190 22191 22192 22193 22194 22195 22196 22197 22198 22199 22200 22201 22202 22203 22204 22205 22206 22207 22208 22209 22210 22211 22212 22213 22214 22215 22216 22217 22218 22219 22220 22221 22222 22223 22224 22225 22226 22227 22228 22229 22230 22231 22232 22233 22234 22235 22236 22237 22238 22239 22240 22241 22242 22243 22244 22245 22246 22247 22248 22249 22250 22251 22252 22253 22254 22255 22256 22257 22258 22259 22260 22261 22262 22263 22264 22265 22266 22267 22268 22269 22270 22271 22272 22273 22274 22275 22276 22277 22278 22279 22280 22281 22282 22283 22284 22285 22286 22287 22288 22289 22290 22291 22292 22293 22294 22295 22296 22297 22298 22299 22300 22301 22302 22303 22304 22305 22306 22307 22308 22309 22310 22311 22312 22313 22314 22315 22316 22317 22318 22319 22320 22321 22322 22323 22324 22325 22326 22327 22328 22329 22330 22331 22332 22333 22334 22335 22336 22337 22338 22339 22340 22341 22342 22343 22344 22345 22346 22347 22348 22349 22350 22351 22352 22353 22354 22355 22356 22357 22358 22359 22360 22361 22362 22363 22364 22365 22366 22367 22368 22369 22370 22371 22372 22373 22374 22375 22376 22377 22378 22379 22380 22381 22382 22383 22384 22385 22386 22387 22388 22389 22390 22391 22392 22393 22394 22395 22396 22397 22398 22399 22400 22401 22402 22403 22404 22405 22406 22407 22408 22409 22410 22411 22412 22413 22414 22415 22416 22417 22418 22419 22420 22421 22422 22423 22424 22425 22426 22427 22428 22429 22430 22431 22432 22433 22434 22435 22436 22437 22438 22439 22440 22441 22442 22443 22444 22445 22446 22447 22448 22449 22450 22451 22452 22453 22454 22455 22456 22457 22458 22459 22460 22461 22462 22463 22464 22465 22466 22467 22468 22469 22470 22471 22472 22473 22474 22475 22476 22477 22478 22479 22480 22481 22482 22483 22484 22485 22486 22487 22488 22489 22490 22491 22492 22493 22494 22495 22496 22497 22498 22499 22500 22501 22502 22503 22504 22505 22506 22507 22508 22509 22510 22511 22512 22513 22514 22515 22516 22517 22518 22519 22520 22521 22522 22523 22524 22525 22526 22527 22528 22529 22530 22531 22532 22533 22534 22535 22536 22537 22538 22539 22540 22541 22542 22543 22544 22545 22546 22547 22548 22549 22550 22551 22552 22553 22554 22555 22556 22557 22558 22559 22560 22561 22562 22563 22564 22565 22566 22567 22568 22569 22570 22571 22572 22573 22574 22575 22576 22577 22578 22579 22580 22581 22582 22583 22584 22585 22586 22587 22588 22589 22590 22591 22592 22593 22594 22595 22596 22597 22598 22599 22600 22601 22602 22603 22604 22605 22606 22607 22608 22609 22610 22611 22612 22613 22614 22615 22616 22617 22618 22619 22620 22621 22622 22623 22624 22625 22626 22627 22628 22629 22630 22631 22632 22633 22634 22635 22636 22637 22638 22639 22640 22641 22642 22643 22644 22645 22646 22647 22648 22649 22650 22651 22652 22653 22654 22655 22656 22657 22658 22659 22660 22661 22662 22663 22664 22665 22666 22667 22668 22669 22670 22671 22672 22673 22674 22675 22676 22677 22678 22679 22680 22681 22682 22683 22684 22685 22686 22687 22688 22689 22690 22691 22692 22693 22694 22695 22696 22697 22698 22699 22700 22701 22702 22703 22704 22705 22706 22707 22708 22709 22710 22711 22712 22713 22714 22715 22716 22717 22718 22719 22720 22721 22722 22723 22724 22725 22726 22727 22728 22729 22730 22731 22732 22733 22734 22735 22736 22737 22738 22739 22740 22741 22742 22743 22744 22745 22746 22747 22748 22749 22750 22751 22752 22753 22754 22755 22756 22757 22758 22759 22760 22761 22762 22763 22764 22765 22766 22767 22768 22769 22770 22771 22772 22773 22774 22775 22776 22777 22778 22779 22780 22781 22782 22783 22784 22785 22786 22787 22788 22789 22790 22791 22792 22793 22794 22795 22796 22797 22798 22799 22800 22801 22802 22803 22804 22805 22806 22807 22808 22809 22810 22811 22812 22813 22814 22815 22816 22817 22818 22819 22820 22821 22822 22823 22824 22825 22826 22827 22828 22829 22830 22831 22832 22833 22834 22835 22836 22837 22838 22839 22840 22841 22842 22843 22844 22845 22846 22847 22848 22849 22850 22851 22852 22853 22854 22855 22856 22857 22858 22859 22860 22861 22862 22863 22864 22865 22866 22867 22868 22869 22870 22871 22872 22873 22874 22875 22876 22877 22878 22879 22880 22881 22882 22883 22884 22885 22886 22887 22888 22889 22890 22891 22892 22893 22894 22895 22896 22897 22898 22899 22900 22901 22902 22903 22904 22905 22906 22907 22908 22909 22910 22911 22912 22913 22914 22915 22916 22917 22918 22919 22920 22921 22922 22923 22924 22925 22926 22927 22928 22929 22930 22931 22932 22933 22934 22935 22936 22937 22938 22939 22940 22941 22942 22943 22944 22945 22946 22947 22948 22949 22950 22951 22952 22953 22954 22955 22956 22957 22958 22959 22960 22961 22962 22963 22964 22965 22966 22967 22968 22969 22970 22971 22972 22973 22974 22975 22976 22977 22978 22979 22980 22981 22982 22983 22984 22985 22986 22987 22988 22989 22990 22991 22992 22993 22994 22995 22996 22997 22998 22999 23000 23001 23002 23003 23004 23005 23006 23007 23008 23009 23010 23011 23012 23013 23014 23015 23016 23017 23018 23019 23020 23021 23022 23023 23024 23025 23026 23027 23028 23029 23030 23031 23032 23033 23034 23035 23036 23037 23038 23039 23040 23041 23042 23043 23044 23045 23046 23047 23048 23049 23050 23051 23052 23053 23054 23055 23056 23057 23058 23059 23060 23061 23062 23063 23064 23065 23066 23067 23068 23069 23070 23071 23072 23073 23074 23075 23076 23077 23078 23079 23080 23081 23082 23083 23084 23085 23086 23087 23088 23089 23090 23091 23092 23093 23094 23095 23096 23097 23098 23099 23100 23101 23102 23103 23104 23105 23106 23107 23108 23109 23110 23111 23112 23113 23114 23115 23116 23117 23118 23119 23120 23121 23122 23123 23124 23125 23126 23127 23128 23129 23130 23131 23132 23133 23134 23135 23136 23137 23138 23139 23140 23141 23142 23143 23144 23145 23146 23147 23148 23149 23150 23151 23152 23153 23154 23155 23156 23157 23158 23159 23160 23161 23162 23163 23164 23165 23166 23167 23168 23169 23170 23171 23172 23173 23174 23175 23176 23177 23178 23179 23180 23181 23182 23183 23184 23185 23186 23187 23188 23189 23190 23191 23192 23193 23194 23195 23196 23197 23198 23199 23200 23201 23202 23203 23204 23205 23206 23207 23208 23209 23210 23211 23212 23213 23214 23215 23216 23217 23218 23219 23220 23221 23222 23223 23224 23225 23226 23227 23228 23229 23230 23231 23232 23233 23234 23235 23236 23237 23238 23239 23240 23241 23242 23243 23244 23245 23246 23247 23248 23249 23250 23251 23252 23253 23254 23255 23256 23257 23258 23259 23260 23261 23262 23263 23264 23265 23266 23267 23268 23269 23270 23271 23272 23273 23274 23275 23276 23277 23278 23279 23280 23281 23282 23283 23284 23285 23286 23287 23288 23289 23290 23291 23292 23293 23294 23295 23296 23297 23298 23299 23300 23301 23302 23303 23304 23305 23306 23307 23308 23309 23310 23311 23312 23313 23314 23315 23316 23317 23318 23319 23320 23321 23322 23323 23324 23325 23326 23327 23328 23329 23330 23331 23332 23333 23334 23335 23336 23337 23338 23339 23340 23341 23342 23343 23344 23345 23346 23347 23348 23349 23350 23351 23352 23353 23354 23355 23356 23357 23358 23359 23360 23361 23362 23363 23364 23365 23366 23367 23368 23369 23370 23371 23372 23373 23374 23375 23376 23377 23378 23379 23380 23381 23382 23383 23384 23385 23386 23387 23388 23389 23390 23391 23392 23393 23394 23395 23396 23397 23398 23399 23400 23401 23402 23403 23404 23405 23406 23407 23408 23409 23410 23411 23412 23413 23414 23415 23416 23417 23418 23419 23420 23421 23422 23423 23424 23425 23426 23427 23428 23429 23430 23431 23432 23433 23434 23435 23436 23437 23438 23439 23440 23441 23442 23443 23444 23445 23446 23447 23448 23449 23450 23451 23452 23453 23454 23455 23456 23457 23458 23459 23460 23461 23462 23463 23464 23465 23466 23467 23468 23469 23470 23471 23472 23473 23474 23475 23476 23477 23478 23479 23480 23481 23482 23483 23484 23485 23486 23487 23488 23489 23490 23491 23492 23493 23494 23495 23496 23497 23498 23499 23500 23501 23502 23503 23504 23505 23506 23507 23508 23509 23510 23511 23512 23513 23514 23515 23516 23517 23518 23519 23520 23521 23522 23523 23524 23525 23526 23527 23528 23529 23530 23531 23532 23533 23534 23535 23536 23537 23538 23539 23540 23541 23542 23543 23544 23545 23546 23547 23548 23549 23550 23551 23552 23553 23554 23555 23556 23557 23558 23559 23560 23561 23562 23563 23564 23565 23566 23567 23568 23569 23570 23571 23572 23573 23574 23575 23576 23577 23578 23579 23580 23581 23582 23583 23584 23585 23586 23587 23588 23589 23590 23591 23592 23593 23594 23595 23596 23597 23598 23599 23600 23601 23602 23603 23604 23605 23606 23607 23608 23609 23610 23611 23612 23613 23614 23615 23616 23617 23618 23619 23620 23621 23622 23623 23624 23625 23626 23627 23628 23629 23630 23631 23632 23633 23634 23635 23636 23637 23638 23639 23640 23641 23642 23643 23644 23645 23646 23647 23648 23649 23650 23651 23652 23653 23654 23655 23656 23657 23658 23659 23660 23661 23662 23663 23664 23665 23666 23667 23668 23669 23670 23671 23672 23673 23674 23675 23676 23677 23678 23679 23680 23681 23682 23683 23684 23685 23686 23687 23688 23689 23690 23691 23692 23693 23694 23695 23696 23697 23698 23699 23700 23701 23702 23703 23704 23705 23706 23707 23708 23709 23710 23711 23712 23713 23714 23715 23716 23717 23718 23719 23720 23721 23722 23723 23724 23725 23726 23727 23728 23729 23730 23731 23732 23733 23734 23735 23736 23737 23738 23739 23740 23741 23742 23743 23744 23745 23746 23747 23748 23749 23750 23751 23752 23753 23754 23755 23756 23757 23758 23759 23760 23761 23762 23763 23764 23765 23766 23767 23768 23769 23770 23771 23772 23773 23774 23775 23776 23777 23778 23779 23780 23781 23782 23783 23784 23785 23786 23787 23788 23789 23790 23791 23792 23793 23794 23795 23796 23797 23798 23799 23800 23801 23802 23803 23804 23805 23806 23807 23808 23809 23810 23811 23812 23813 23814 23815 23816 23817 23818 23819 23820 23821 23822 23823 23824 23825 23826 23827 23828 23829 23830 23831 23832 23833 23834 23835 23836 23837 23838 23839 23840 23841 23842 23843 23844 23845 23846 23847 23848 23849 23850 23851 23852 23853 23854 23855 23856 23857 23858 23859 23860 23861 23862 23863 23864 23865 23866 23867 23868 23869 23870 23871 23872 23873 23874 23875 23876 23877 23878 23879 23880 23881 23882 23883 23884 23885 23886 23887 23888 23889 23890 23891 23892 23893 23894 23895 23896 23897 23898 23899 23900 23901 23902 23903 23904 23905 23906 23907 23908 23909 23910 23911 23912 23913 23914 23915 23916 23917 23918 23919 23920 23921 23922 23923 23924 23925 23926 23927 23928 23929 23930 23931 23932 23933 23934 23935 23936 23937 23938 23939 23940 23941 23942 23943 23944 23945 23946 23947 23948 23949 23950 23951 23952 23953 23954 23955 23956 23957 23958 23959 23960 23961 23962 23963 23964 23965 23966 23967 23968 23969 23970 23971 23972 23973 23974 23975 23976 23977 23978 23979 23980 23981 23982 23983 23984 23985 23986 23987 23988 23989 23990 23991 23992 23993 23994 23995 23996 23997 23998 23999 24000 24001 24002 24003 24004 24005 24006 24007 24008 24009 24010 24011 24012 24013 24014 24015 24016 24017 24018 24019 24020 24021 24022 24023 24024 24025 24026 24027 24028 24029 24030 24031 24032 24033 24034 24035 24036 24037 24038 24039 24040 24041 24042 24043 24044 24045 24046 24047 24048 24049 24050 24051 24052 24053 24054 24055 24056 24057 24058 24059 24060 24061 24062 24063 24064 24065 24066 24067 24068 24069 24070 24071 24072 24073 24074 24075 24076 24077 24078 24079 24080 24081 24082 24083 24084 24085 24086 24087 24088 24089 24090 24091 24092 24093 24094 24095 24096 24097 24098 24099 24100 24101 24102 24103 24104 24105 24106 24107 24108 24109 24110 24111 24112 24113 24114 24115 24116 24117 24118 24119 24120 24121 24122 24123 24124 24125 24126 24127 24128 24129 24130 24131 24132 24133 24134 24135 24136 24137 24138 24139 24140 24141 24142 24143 24144 24145 24146 24147 24148 24149 24150 24151 24152 24153 24154 24155 24156 24157 24158 24159 24160 24161 24162 24163 24164 24165 24166 24167 24168 24169 24170 24171 24172 24173 24174 24175 24176 24177 24178 24179 24180 24181 24182 24183 24184 24185 24186 24187 24188 24189 24190 24191 24192 24193 24194 24195 24196 24197 24198 24199 24200 24201 24202 24203 24204 24205 24206 24207 24208 24209 24210 24211 24212 24213 24214 24215 24216 24217 24218 24219 24220 24221 24222 24223 24224 24225 24226 24227 24228 24229 24230 24231 24232 24233 24234 24235 24236 24237 24238 24239 24240 24241 24242 24243 24244 24245 24246 24247 24248 24249 24250 24251 24252 24253 24254 24255 24256 24257 24258 24259 24260 24261 24262 24263 24264 24265 24266 24267 24268 24269 24270 24271 24272 24273 24274 24275 24276 24277 24278 24279 24280 24281 24282 24283 24284 24285 24286 24287 24288 24289 24290 24291 24292 24293 24294 24295 24296 24297 24298 24299 24300 24301 24302 24303 24304 24305 24306 24307 24308 24309 24310 24311 24312 24313 24314 24315 24316 24317 24318 24319 24320 24321 24322 24323 24324 24325 24326 24327 24328 24329 24330 24331 24332 24333 24334 24335 24336 24337 24338 24339 24340 24341 24342 24343 24344 24345 24346 24347 24348 24349 24350 24351 24352 24353 24354 24355 24356 24357 24358 24359 24360 24361 24362 24363 24364 24365 24366 24367 24368 24369 24370 24371 24372 24373 24374 24375 24376 24377 24378 24379 24380 24381 24382 24383 24384 24385 24386 24387 24388 24389 24390 24391 24392 24393 24394 24395 24396 24397 24398 24399 24400 24401 24402 24403 24404 24405 24406 24407 24408 24409 24410 24411 24412 24413 24414 24415 24416 24417 24418 24419 24420 24421 24422 24423 24424 24425 24426 24427 24428 24429 24430 24431 24432 24433 24434 24435 24436 24437 24438 24439 24440 24441 24442 24443 24444 24445 24446 24447 24448 24449 24450 24451 24452 24453 24454 24455 24456 24457 24458 24459 24460 24461 24462 24463 24464 24465 24466 24467 24468 24469 24470 24471 24472 24473 24474 24475 24476 24477 24478 24479 24480 24481 24482 24483 24484 24485 24486 24487 24488 24489 24490 24491 24492 24493 24494 24495 24496 24497 24498 24499 24500 24501 24502 24503 24504 24505 24506 24507 24508 24509 24510 24511 24512 24513 24514 24515 24516 24517 24518 24519 24520 24521 24522 24523 24524 24525 24526 24527 24528 24529 24530 24531 24532 24533 24534 24535 24536 24537 24538 24539 24540 24541 24542 24543 24544 24545 24546 24547 24548 24549 24550 24551 24552 24553 24554 24555 24556 24557 24558 24559 24560 24561 24562 24563 24564 24565 24566 24567 24568 24569 24570 24571 24572 24573 24574 24575 24576 24577 24578 24579 24580 24581 24582 24583 24584 24585 24586 24587 24588 24589 24590 24591 24592 24593 24594 24595 24596 24597 24598 24599 24600 24601 24602 24603 24604 24605 24606 24607 24608 24609 24610 24611 24612 24613 24614 24615 24616 24617 24618 24619 24620 24621 24622 24623 24624 24625 24626 24627 24628 24629 24630 24631 24632 24633 24634 24635 24636 24637 24638 24639 24640 24641 24642 24643 24644 24645 24646 24647 24648 24649 24650 24651 24652 24653 24654 24655 24656 24657 24658 24659 24660 24661 24662 24663 24664 24665 24666 24667 24668 24669 24670 24671 24672 24673 24674 24675 24676 24677 24678 24679 24680 24681 24682 24683 24684 24685 24686 24687 24688 24689 24690 24691 24692 24693 24694 24695 24696 24697 24698 24699 24700 24701 24702 24703 24704 24705 24706 24707 24708 24709 24710 24711 24712 24713 24714 24715 24716 24717 24718 24719 24720 24721 24722 24723 24724 24725 24726 24727 24728 24729 24730 24731 24732 24733 24734 24735 24736 24737 24738 24739 24740 24741 24742 24743 24744 24745 24746 24747 24748 24749 24750 24751 24752 24753 24754 24755 24756 24757 24758 24759 24760 24761 24762 24763 24764 24765 24766 24767 24768 24769 24770 24771 24772 24773 24774 24775 24776 24777 24778 24779 24780 24781 24782 24783 24784 24785 24786 24787 24788 24789 24790 24791 24792 24793 24794 24795 24796 24797 24798 24799 24800 24801 24802 24803 24804 24805 24806 24807 24808 24809 24810 24811 24812 24813 24814 24815 24816 24817 24818 24819 24820 24821 24822 24823 24824 24825 24826 24827 24828 24829 24830 24831 24832 24833 24834 24835 24836 24837 24838 24839 24840 24841 24842 24843 24844 24845 24846 24847 24848 24849 24850 24851 24852 24853 24854 24855 24856 24857 24858 24859 24860 24861 24862 24863 24864 24865 24866 24867 24868 24869 24870 24871 24872 24873 24874 24875 24876 24877 24878 24879 24880 24881 24882 24883 24884 24885 24886 24887 24888 24889 24890 24891 24892 24893 24894 24895 24896 24897 24898 24899 24900 24901 24902 24903 24904 24905 24906 24907 24908 24909 24910 24911 24912 24913 24914 24915 24916 24917 24918 24919 24920 24921 24922 24923 24924 24925 24926 24927 24928 24929 24930 24931 24932 24933 24934 24935 24936 24937 24938 24939 24940 24941 24942 24943 24944 24945 24946 24947 24948 24949 24950 24951 24952 24953 24954 24955 24956 24957 24958 24959 24960 24961 24962 24963 24964 24965 24966 24967 24968 24969 24970 24971 24972 24973 24974 24975 24976 24977 24978 24979 24980 24981 24982 24983 24984 24985 24986 24987 24988 24989 24990 24991 24992 24993 24994 24995 24996 24997 24998 24999 25000 25001 25002 25003 25004 25005 25006 25007 25008 25009 25010 25011 25012 25013 25014 25015 25016 25017 25018 25019 25020 25021 25022 25023 25024 25025 25026 25027 25028 25029 25030 25031 25032 25033 25034 25035 25036 25037 25038 25039 25040 25041 25042 25043 25044 25045 25046 25047 25048 25049 25050 25051 25052 25053 25054 25055 25056 25057 25058 25059 25060 25061 25062 25063 25064 25065 25066 25067 25068 25069 25070 25071 25072 25073 25074 25075 25076 25077 25078 25079 25080 25081 25082 25083 25084 25085 25086 25087 25088 25089 25090 25091 25092 25093 25094 25095 25096 25097 25098 25099 25100 25101 25102 25103 25104 25105 25106 25107 25108 25109 25110 25111 25112 25113 25114 25115 25116 25117 25118 25119 25120 25121 25122 25123 25124 25125 25126 25127 25128 25129 25130 25131 25132 25133 25134 25135 25136 25137 25138 25139 25140 25141 25142 25143 25144 25145 25146 25147 25148 25149 25150 25151 25152 25153 25154 25155 25156 25157 25158 25159 25160 25161 25162 25163 25164 25165 25166 25167 25168 25169 25170 25171 25172 25173 25174 25175 25176 25177 25178 25179 25180 25181 25182 25183 25184 25185 25186 25187 25188 25189 25190 25191 25192 25193 25194 25195 25196 25197 25198 25199 25200 25201 25202 25203 25204 25205 25206 25207 25208 25209 25210 25211 25212 25213 25214 25215 25216 25217 25218 25219 25220 25221 25222 25223 25224 25225 25226 25227 25228 25229 25230 25231 25232 25233 25234 25235 25236 25237 25238 25239 25240 25241 25242 25243 25244 25245 25246 25247 25248 25249 25250 25251 25252 25253 25254 25255 25256 25257 25258 25259 25260 25261 25262 25263 25264 25265 25266 25267 25268 25269 25270 25271 25272 25273 25274 25275 25276 25277 25278 25279 25280 25281 25282 25283 25284 25285 25286 25287 25288 25289 25290 25291 25292 25293 25294 25295 25296 25297 25298 25299 25300 25301 25302 25303 25304 25305 25306 25307 25308 25309 25310 25311 25312 25313 25314 25315 25316 25317 25318 25319 25320 25321 25322 25323 25324 25325 25326 25327 25328 25329 25330 25331 25332 25333 25334 25335 25336 25337 25338 25339 25340 25341 25342 25343 25344 25345 25346 25347 25348 25349 25350 25351 25352 25353 25354 25355 25356 25357 25358 25359 25360 25361 25362 25363 25364 25365 25366 25367 25368 25369 25370 25371 25372 25373 25374 25375 25376 25377 25378 25379 25380 25381 25382 25383 25384 25385 25386 25387 25388 25389 25390 25391 25392 25393 25394 25395 25396 25397 25398 25399 25400 25401 25402 25403 25404 25405 25406 25407 25408 25409 25410 25411 25412 25413 25414 25415 25416 25417 25418 25419 25420 25421 25422 25423 25424 25425 25426 25427 25428 25429 25430 25431 25432 25433 25434 25435 25436 25437 25438 25439 25440 25441 25442 25443 25444 25445 25446 25447 25448 25449 25450 25451 25452 25453 25454 25455 25456 25457 25458 25459 25460 25461 25462 25463 25464 25465 25466 25467 25468 25469 25470 25471 25472 25473 25474 25475 25476 25477 25478 25479 25480 25481 25482 25483 25484 25485 25486 25487 25488 25489 25490 25491 25492 25493 25494 25495 25496 25497 25498 25499 25500 25501 25502 25503 25504 25505 25506 25507 25508 25509 25510 25511 25512 25513 25514 25515 25516 25517 25518 25519 25520 25521 25522 25523 25524 25525 25526 25527 25528 25529 25530 25531 25532 25533 25534 25535 25536 25537 25538 25539 25540 25541 25542 25543 25544 25545 25546 25547 25548 25549 25550 25551 25552 25553 25554 25555 25556 25557 25558 25559 25560 25561 25562 25563 25564 25565 25566 25567 25568 25569 25570 25571 25572 25573 25574 25575 25576 25577 25578 25579 25580 25581 25582 25583 25584 25585 25586 25587 25588 25589 25590 25591 25592 25593 25594 25595 25596 25597 25598 25599 25600 25601 25602 25603 25604 25605 25606 25607 25608 25609 25610 25611 25612 25613 25614 25615 25616 25617 25618 25619 25620 25621 25622 25623 25624 25625 25626 25627 25628 25629 25630 25631 25632 25633 25634 25635 25636 25637 25638 25639 25640 25641 25642 25643 25644 25645 25646 25647 25648 25649 25650 25651 25652 25653 25654 25655 25656 25657 25658 25659 25660 25661 25662 25663 25664 25665 25666 25667 25668 25669 25670 25671 25672 25673 25674 25675 25676 25677 25678 25679 25680 25681 25682 25683 25684 25685 25686 25687 25688 25689 25690 25691 25692 25693 25694 25695 25696 25697 25698 25699 25700 25701 25702 25703 25704 25705 25706 25707 25708 25709 25710 25711 25712 25713 25714 25715 25716 25717 25718 25719 25720 25721 25722 25723 25724 25725 25726 25727 25728 25729 25730 25731 25732 25733 25734 25735 25736 25737 25738 25739 25740 25741 25742 25743 25744 25745 25746 25747 25748 25749 25750 25751 25752 25753 25754 25755 25756 25757 25758 25759 25760 25761 25762 25763 25764 25765 25766 25767 25768 25769 25770 25771 25772 25773 25774 25775 25776 25777 25778 25779 25780 25781 25782 25783 25784 25785 25786 25787 25788 25789 25790 25791 25792 25793 25794 25795 25796 25797 25798 25799 25800 25801 25802 25803 25804 25805 25806 25807 25808 25809 25810 25811 25812 25813 25814 25815 25816 25817 25818 25819 25820 25821 25822 25823 25824 25825 25826 25827 25828 25829 25830 25831 25832 25833 25834 25835 25836 25837 25838 25839 25840 25841 25842 25843 25844 25845 25846 25847 25848 25849 25850 25851 25852 25853 25854 25855 25856 25857 25858 25859 25860 25861 25862 25863 25864 25865 25866 25867 25868 25869 25870 25871 25872 25873 25874 25875 25876 25877 25878 25879 25880 25881 25882 25883 25884 25885 25886 25887 25888 25889 25890 25891 25892 25893 25894 25895 25896 25897 25898 25899 25900 25901 25902 25903 25904 25905 25906 25907 25908 25909 25910 25911 25912 25913 25914 25915 25916 25917 25918 25919 25920 25921 25922 25923 25924 25925 25926 25927 25928 25929 25930 25931 25932 25933 25934 25935 25936 25937 25938 25939 25940 25941 25942 25943 25944 25945 25946 25947 25948 25949 25950 25951 25952 25953 25954 25955 25956 25957 25958 25959 25960 25961 25962 25963 25964 25965 25966 25967 25968 25969 25970 25971 25972 25973 25974 25975 25976 25977 25978 25979 25980 25981 25982 25983 25984 25985 25986 25987 25988 25989 25990 25991 25992 25993 25994 25995 25996 25997 25998 25999 26000 26001 26002 26003 26004 26005 26006 26007 26008 26009 26010 26011 26012 26013 26014 26015 26016 26017 26018 26019 26020 26021 26022 26023 26024 26025 26026 26027 26028 26029 26030 26031 26032 26033 26034 26035 26036 26037 26038 26039 26040 26041 26042 26043 26044 26045 26046 26047 26048 26049 26050 26051 26052 26053 26054 26055 26056 26057 26058 26059 26060 26061 26062 26063 26064 26065 26066 26067 26068 26069 26070 26071 26072 26073 26074 26075 26076 26077 26078 26079 26080 26081 26082 26083 26084 26085 26086 26087 26088 26089 26090 26091 26092 26093 26094 26095 26096 26097 26098 26099 26100 26101 26102 26103 26104 26105 26106 26107 26108 26109 26110 26111 26112 26113 26114 26115 26116 26117 26118 26119 26120 26121 26122 26123 26124 26125 26126 26127 26128 26129 26130 26131 26132 26133 26134 26135 26136 26137 26138 26139 26140 26141 26142 26143 26144 26145 26146 26147 26148 26149 26150 26151 26152 26153 26154 26155 26156 26157 26158 26159 26160 26161 26162 26163 26164 26165 26166 26167 26168 26169 26170 26171 26172 26173 26174 26175 26176 26177 26178 26179 26180 26181 26182 26183 26184 26185 26186 26187 26188 26189 26190 26191 26192 26193 26194 26195 26196 26197 26198 26199 26200 26201 26202 26203 26204 26205 26206 26207 26208 26209 26210 26211 26212 26213 26214 26215 26216 26217 26218 26219 26220 26221 26222 26223 26224 26225 26226 26227 26228 26229 26230 26231 26232 26233 26234 26235 26236 26237 26238 26239 26240 26241 26242 26243 26244 26245 26246 26247 26248 26249 26250 26251 26252 26253 26254 26255 26256 26257 26258 26259 26260 26261 26262 26263 26264 26265 26266 26267 26268 26269 26270 26271 26272 26273 26274 26275 26276 26277 26278 26279 26280 26281 26282 26283 26284 26285 26286 26287 26288 26289 26290 26291 26292 26293 26294 26295 26296 26297 26298 26299 26300 26301 26302 26303 26304 26305 26306 26307 26308 26309 26310 26311 26312 26313 26314 26315 26316 26317 26318 26319 26320 26321 26322 26323 26324 26325 26326 26327 26328 26329 26330 26331 26332 26333 26334 26335 26336 26337 26338 26339 26340 26341 26342 26343 26344 26345 26346 26347 26348 26349 26350 26351 26352 26353 26354 26355 26356 26357 26358 26359 26360 26361 26362 26363 26364 26365 26366 26367 26368 26369 26370 26371 26372 26373 26374 26375 26376 26377 26378 26379 26380 26381 26382 26383 26384 26385 26386 26387 26388 26389 26390 26391 26392 26393 26394 26395 26396 26397 26398 26399 26400 26401 26402 26403 26404 26405 26406 26407 26408 26409 26410 26411 26412 26413 26414 26415 26416 26417 26418 26419 26420 26421 26422 26423 26424 26425 26426 26427 26428 26429 26430 26431 26432 26433 26434 26435 26436 26437 26438 26439 26440 26441 26442 26443 26444 26445 26446 26447 26448 26449 26450 26451 26452 26453 26454 26455 26456 26457 26458 26459 26460 26461 26462 26463 26464 26465 26466 26467 26468 26469 26470 26471 26472 26473 26474 26475 26476 26477 26478 26479 26480 26481 26482 26483 26484 26485 26486 26487 26488 26489 26490 26491 26492 26493 26494 26495 26496 26497 26498 26499 26500 26501 26502 26503 26504 26505 26506 26507 26508 26509 26510 26511 26512 26513 26514 26515 26516 26517 26518 26519 26520 26521 26522 26523 26524 26525 26526 26527 26528 26529 26530 26531 26532 26533 26534 26535 26536 26537 26538 26539 26540 26541 26542 26543 26544 26545 26546 26547 26548 26549 26550 26551 26552 26553 26554 26555 26556 26557 26558 26559 26560 26561 26562 26563 26564 26565 26566 26567 26568 26569 26570 26571 26572 26573 26574 26575 26576 26577 26578 26579 26580 26581 26582 26583 26584 26585 26586 26587 26588 26589 26590 26591 26592 26593 26594 26595 26596 26597 26598 26599 26600 26601 26602 26603 26604 26605 26606 26607 26608 26609 26610 26611 26612 26613 26614 26615 26616 26617 26618 26619 26620 26621 26622 26623 26624 26625 26626 26627 26628 26629 26630 26631 26632 26633 26634 26635 26636 26637 26638 26639 26640 26641 26642 26643 26644 26645 26646 26647 26648 26649 26650 26651 26652 26653 26654 26655 26656 26657 26658 26659 26660 26661 26662 26663 26664 26665 26666 26667 26668 26669 26670 26671 26672 26673 26674 26675 26676 26677 26678 26679 26680 26681 26682 26683 26684 26685 26686 26687 26688 26689 26690 26691 26692 26693 26694 26695 26696 26697 26698 26699 26700 26701 26702 26703 26704 26705 26706 26707 26708 26709 26710 26711 26712 26713 26714 26715 26716 26717 26718 26719 26720 26721 26722 26723 26724 26725 26726 26727 26728 26729 26730 26731 26732 26733 26734 26735 26736 26737 26738 26739 26740 26741 26742 26743 26744 26745 26746 26747 26748 26749 26750 26751 26752 26753 26754 26755 26756 26757 26758 26759 26760 26761 26762 26763 26764 26765 26766 26767 26768 26769 26770 26771 26772 26773 26774 26775 26776 26777 26778 26779 26780 26781 26782 26783 26784 26785 26786 26787 26788 26789 26790 26791 26792 26793 26794 26795 26796 26797 26798 26799 26800 26801 26802 26803 26804 26805 26806 26807 26808 26809 26810 26811 26812 26813 26814 26815 26816 26817 26818 26819 26820 26821 26822 26823 26824 26825 26826 26827 26828 26829 26830 26831 26832 26833 26834 26835 26836 26837 26838 26839 26840 26841 26842 26843 26844 26845 26846 26847 26848 26849 26850 26851 26852 26853 26854 26855 26856 26857 26858 26859 26860 26861 26862 26863 26864 26865 26866 26867 26868 26869 26870 26871 26872 26873 26874 26875 26876 26877 26878 26879 26880 26881 26882 26883 26884 26885 26886 26887 26888 26889 26890 26891 26892 26893 26894 26895 26896 26897 26898 26899 26900 26901 26902 26903 26904 26905 26906 26907 26908 26909 26910 26911 26912 26913 26914 26915 26916 26917 26918 26919 26920 26921 26922 26923 26924 26925 26926 26927 26928 26929 26930 26931 26932 26933 26934 26935 26936 26937 26938 26939 26940 26941 26942 26943 26944 26945 26946 26947 26948 26949 26950 26951 26952 26953 26954 26955 26956 26957 26958 26959 26960 26961 26962 26963 26964 26965 26966 26967 26968 26969 26970 26971 26972 26973 26974 26975 26976 26977 26978 26979 26980 26981 26982 26983 26984 26985 26986 26987 26988 26989 26990 26991 26992 26993 26994 26995 26996 26997 26998 26999 27000 27001 27002 27003 27004 27005 27006 27007 27008 27009 27010 27011 27012 27013 27014 27015 27016 27017 27018 27019 27020 27021 27022 27023 27024 27025 27026 27027 27028 27029 27030 27031 27032 27033 27034 27035 27036 27037 27038 27039 27040 27041 27042 27043 27044 27045 27046 27047 27048 27049 27050 27051 27052 27053 27054 27055 27056 27057 27058 27059 27060 27061 27062 27063 27064 27065 27066 27067 27068 27069 27070 27071 27072 27073 27074 27075 27076 27077 27078 27079 27080 27081 27082 27083 27084 27085 27086 27087 27088 27089 27090 27091 27092 27093 27094 27095 27096 27097 27098 27099 27100 27101 27102 27103 27104 27105 27106 27107 27108 27109 27110 27111 27112 27113 27114 27115 27116 27117 27118 27119 27120 27121 27122 27123 27124 27125 27126 27127 27128 27129 27130 27131 27132 27133 27134 27135 27136 27137 27138 27139 27140 27141 27142 27143 27144 27145 27146 27147 27148 27149 27150 27151 27152 27153 27154 27155 27156 27157 27158 27159 27160 27161 27162 27163 27164 27165 27166 27167 27168 27169 27170 27171 27172 27173 27174 27175 27176 27177 27178 27179 27180 27181 27182 27183 27184 27185 27186 27187 27188 27189 27190 27191 27192 27193 27194 27195 27196 27197 27198 27199 27200 27201 27202 27203 27204 27205 27206 27207 27208 27209 27210 27211 27212 27213 27214 27215 27216 27217 27218 27219 27220 27221 27222 27223 27224 27225 27226 27227 27228 27229 27230 27231 27232 27233 27234 27235 27236 27237 27238 27239 27240 27241 27242 27243 27244 27245 27246 27247 27248 27249 27250 27251 27252 27253 27254 27255 27256 27257 27258 27259 27260 27261 27262 27263 27264 27265 27266 27267 27268 27269 27270 27271 27272 27273 27274 27275 27276 27277 27278 27279 27280 27281 27282 27283 27284 27285 27286 27287 27288 27289 27290 27291 27292 27293 27294 27295 27296 27297 27298 27299 27300 27301 27302 27303 27304 27305 27306 27307 27308 27309 27310 27311 27312 27313 27314 27315 27316 27317 27318 27319 27320 27321 27322 27323 27324 27325 27326 27327 27328 27329 27330 27331 27332 27333 27334 27335 27336 27337 27338 27339 27340 27341 27342 27343 27344 27345 27346 27347 27348 27349 27350 27351 27352 27353 27354 27355 27356 27357 27358 27359 27360 27361 27362 27363 27364 27365 27366 27367 27368 27369 27370 27371 27372 27373 27374 27375 27376 27377 27378 27379 27380 27381 27382 27383 27384 27385 27386 27387 27388 27389 27390 27391 27392 27393 27394 27395 27396 27397 27398 27399 27400 27401 27402 27403 27404 27405 27406 27407 27408 27409 27410 27411 27412 27413 27414 27415 27416 27417 27418 27419 27420 27421 27422 27423 27424 27425 27426 27427 27428 27429 27430 27431 27432 27433 27434 27435 27436 27437 27438 27439 27440 27441 27442 27443 27444 27445 27446 27447 27448 27449 27450 27451 27452 27453 27454 27455 27456 27457 27458 27459 27460 27461 27462 27463 27464 27465 27466 27467 27468 27469 27470 27471 27472 27473 27474 27475 27476 27477 27478 27479 27480 27481 27482 27483 27484 27485 27486 27487 27488 27489 27490 27491 27492 27493 27494 27495 27496 27497 27498 27499 27500 27501 27502 27503 27504 27505 27506 27507 27508 27509 27510 27511 27512 27513 27514 27515 27516 27517 27518 27519 27520 27521 27522 27523 27524 27525 27526 27527 27528 27529 27530 27531 27532 27533 27534 27535 27536 27537 27538 27539 27540 27541 27542 27543 27544 27545 27546 27547 27548 27549 27550 27551 27552 27553 27554 27555 27556 27557 27558 27559 27560 27561 27562 27563 27564 27565 27566 27567 27568 27569 27570 27571 27572 27573 27574 27575 27576 27577 27578 27579 27580 27581 27582 27583 27584 27585 27586 27587 27588 27589 27590 27591 27592 27593 27594 27595 27596 27597 27598 27599 27600 27601 27602 27603 27604 27605 27606 27607 27608 27609 27610 27611 27612 27613 27614 27615 27616 27617 27618 27619 27620 27621 27622 27623 27624 27625 27626 27627 27628 27629 27630 27631 27632 27633 27634 27635 27636 27637 27638 27639 27640 27641 27642 27643 27644 27645 27646 27647 27648 27649 27650 27651 27652 27653 27654 27655 27656 27657 27658 27659 27660 27661 27662 27663 27664 27665 27666 27667 27668 27669 27670 27671 27672 27673 27674 27675 27676 27677 27678 27679 27680 27681 27682 27683 27684 27685 27686 27687 27688 27689 27690 27691 27692 27693 27694 27695 27696 27697 27698 27699 27700 27701 27702 27703 27704 27705 27706 27707 27708 27709 27710 27711 27712 27713 27714 27715 27716 27717 27718 27719 27720 27721 27722 27723 27724 27725 27726 27727 27728 27729 27730 27731 27732 27733 27734 27735 27736 27737 27738 27739 27740 27741 27742 27743 27744 27745 27746 27747 27748 27749 27750 27751 27752 27753 27754 27755 27756 27757 27758 27759 27760 27761 27762 27763 27764 27765 27766 27767 27768 27769 27770 27771 27772 27773 27774 27775 27776 27777 27778 27779 27780 27781 27782 27783 27784 27785 27786 27787 27788 27789 27790 27791 27792 27793 27794 27795 27796 27797 27798 27799 27800 27801 27802 27803 27804 27805 27806 27807 27808 27809 27810 27811 27812 27813 27814 27815 27816 27817 27818 27819 27820 27821 27822 27823 27824 27825 27826 27827 27828 27829 27830 27831 27832 27833 27834 27835 27836 27837 27838 27839 27840 27841 27842 27843 27844 27845 27846 27847 27848 27849 27850 27851 27852 27853 27854 27855 27856 27857 27858 27859 27860 27861 27862 27863 27864 27865 27866 27867 27868 27869 27870 27871 27872 27873 27874 27875 27876 27877 27878 27879 27880 27881 27882 27883 27884 27885 27886 27887 27888 27889 27890 27891 27892 27893 27894 27895 27896 27897 27898 27899 27900 27901 27902 27903 27904 27905 27906 27907 27908 27909 27910 27911 27912 27913 27914 27915 27916 27917 27918 27919 27920 27921 27922 27923 27924 27925 27926 27927 27928 27929 27930 27931 27932 27933 27934 27935 27936 27937 27938 27939 27940 27941 27942 27943 27944 27945 27946 27947 27948 27949 27950 27951 27952 27953 27954 27955 27956 27957 27958 27959 27960 27961 27962 27963 27964 27965 27966 27967 27968 27969 27970 27971 27972 27973 27974 27975 27976 27977 27978 27979 27980 27981 27982 27983 27984 27985 27986 27987 27988 27989 27990 27991 27992 27993 27994 27995 27996 27997 27998 27999 28000 28001 28002 28003 28004 28005 28006 28007 28008 28009 28010 28011 28012 28013 28014 28015 28016 28017 28018 28019 28020 28021 28022 28023 28024 28025 28026 28027 28028 28029 28030 28031 28032 28033 28034 28035 28036 28037 28038 28039 28040 28041 28042 28043 28044 28045 28046 28047 28048 28049 28050 28051 28052 28053 28054 28055 28056 28057 28058 28059 28060 28061 28062 28063 28064 28065 28066 28067 28068 28069 28070 28071 28072 28073 28074 28075 28076 28077 28078 28079 28080 28081 28082 28083 28084 28085 28086 28087 28088 28089 28090 28091 28092 28093 28094 28095 28096 28097 28098 28099 28100 28101 28102 28103 28104 28105 28106 28107 28108 28109 28110 28111 28112 28113 28114 28115 28116 28117 28118 28119 28120 28121 28122 28123 28124 28125 28126 28127 28128 28129 28130 28131 28132 28133 28134 28135 28136 28137 28138 28139 28140 28141 28142 28143 28144 28145 28146 28147 28148 28149 28150 28151 28152 28153 28154 28155 28156 28157 28158 28159 28160 28161 28162 28163 28164 28165 28166 28167 28168 28169 28170 28171 28172 28173 28174 28175 28176 28177 28178 28179 28180 28181 28182 28183 28184 28185 28186 28187 28188 28189 28190 28191 28192 28193 28194 28195 28196 28197 28198 28199 28200 28201 28202 28203 28204 28205 28206 28207 28208 28209 28210 28211 28212 28213 28214 28215 28216 28217 28218 28219 28220 28221 28222 28223 28224 28225 28226 28227 28228 28229 28230 28231 28232 28233 28234 28235 28236 28237 28238 28239 28240 28241 28242 28243 28244 28245 28246 28247 28248 28249 28250 28251 28252 28253 28254 28255 28256 28257 28258 28259 28260 28261 28262 28263 28264 28265 28266 28267 28268 28269 28270 28271 28272 28273 28274 28275 28276 28277 28278 28279 28280 28281 28282 28283 28284 28285 28286 28287 28288 28289 28290 28291 28292 28293 28294 28295 28296 28297 28298 28299 28300 28301 28302 28303 28304 28305 28306 28307 28308 28309 28310 28311 28312 28313 28314 28315 28316 28317 28318 28319 28320 28321 28322 28323 28324 28325 28326 28327 28328 28329 28330 28331 28332 28333 28334 28335 28336 28337 28338 28339 28340 28341 28342 28343 28344 28345 28346 28347 28348 28349 28350 28351 28352 28353 28354 28355 28356 28357 28358 28359 28360 28361 28362 28363 28364 28365 28366 28367 28368 28369 28370 28371 28372 28373 28374 28375 28376 28377 28378 28379 28380 28381 28382 28383 28384 28385 28386 28387 28388 28389 28390 28391 28392 28393 28394 28395 28396 28397 28398 28399 28400 28401 28402 28403 28404 28405 28406 28407 28408 28409 28410 28411 28412 28413 28414 28415 28416 28417 28418 28419 28420 28421 28422 28423 28424 28425 28426 28427 28428 28429 28430 28431 28432 28433 28434 28435 28436 28437 28438 28439 28440 28441 28442 28443 28444 28445 28446 28447 28448 28449 28450 28451 28452 28453 28454 28455 28456 28457 28458 28459 28460 28461 28462 28463 28464 28465 28466 28467 28468 28469 28470 28471 28472 28473 28474 28475 28476 28477 28478 28479 28480 28481 28482 28483 28484 28485 28486 28487 28488 28489 28490 28491 28492 28493 28494 28495 28496 28497 28498 28499 28500 28501 28502 28503 28504 28505 28506 28507 28508 28509 28510 28511 28512 28513 28514 28515 28516 28517 28518 28519 28520 28521 28522 28523 28524 28525 28526 28527 28528 28529 28530 28531 28532 28533 28534 28535 28536 28537 28538 28539 28540 28541 28542 28543 28544 28545 28546 28547 28548 28549 28550 28551 28552 28553 28554 28555 28556 28557 28558 28559 28560 28561 28562 28563 28564 28565 28566 28567 28568 28569 28570 28571 28572 28573 28574 28575 28576 28577 28578 28579 28580 28581 28582 28583 28584 28585 28586 28587 28588 28589 28590 28591 28592 28593 28594 28595 28596 28597 28598 28599 28600 28601 28602 28603 28604 28605 28606 28607 28608 28609 28610 28611 28612 28613 28614 28615 28616 28617 28618 28619 28620 28621 28622 28623 28624 28625 28626 28627 28628 28629 28630 28631 28632 28633 28634 28635 28636 28637 28638 28639 28640 28641 28642 28643 28644 28645 28646 28647 28648 28649 28650 28651 28652 28653 28654 28655 28656 28657 28658 28659 28660 28661 28662 28663 28664 28665 28666 28667 28668 28669 28670 28671 28672 28673 28674 28675 28676 28677 28678 28679 28680 28681 28682 28683 28684 28685 28686 28687 28688 28689 28690 28691 28692 28693 28694 28695 28696 28697 28698 28699 28700 28701 28702 28703 28704 28705 28706 28707 28708 28709 28710 28711 28712 28713 28714 28715 28716 28717 28718 28719 28720 28721 28722 28723 28724 28725 28726 28727 28728 28729 28730 28731 28732 28733 28734 28735 28736 28737 28738 28739 28740 28741 28742 28743 28744 28745 28746 28747 28748 28749 28750 28751 28752 28753 28754 28755 28756 28757 28758 28759 28760 28761 28762 28763 28764 28765 28766 28767 28768 28769 28770 28771 28772 28773 28774 28775 28776 28777 28778 28779 28780 28781 28782 28783 28784 28785 28786 28787 28788 28789 28790 28791 28792 28793 28794 28795 28796 28797 28798 28799 28800 28801 28802 28803 28804 28805 28806 28807 28808 28809 28810 28811 28812 28813 28814 28815 28816 28817 28818 28819 28820 28821 28822 28823 28824 28825 28826 28827 28828 28829 28830 28831 28832 28833 28834 28835 28836 28837 28838 28839 28840 28841 28842 28843 28844 28845 28846 28847 28848 28849 28850 28851 28852 28853 28854 28855 28856 28857 28858 28859 28860 28861 28862 28863 28864 28865 28866 28867 28868 28869 28870 28871 28872 28873 28874 28875 28876 28877 28878 28879 28880 28881 28882 28883 28884 28885 28886 28887 28888 28889 28890 28891 28892 28893 28894 28895 28896 28897 28898 28899 28900 28901 28902 28903 28904 28905 28906 28907 28908 28909 28910 28911 28912 28913 28914 28915 28916 28917 28918 28919 28920 28921 28922 28923 28924 28925 28926 28927 28928 28929 28930 28931 28932 28933 28934 28935 28936 28937 28938 28939 28940 28941 28942 28943 28944 28945 28946 28947 28948 28949 28950 28951 28952 28953 28954 28955 28956 28957 28958 28959 28960 28961 28962 28963 28964 28965 28966 28967 28968 28969 28970 28971 28972 28973 28974 28975 28976 28977 28978 28979 28980 28981 28982 28983 28984 28985 28986 28987 28988 28989 28990 28991 28992 28993 28994 28995 28996 28997 28998 28999 29000 29001 29002 29003 29004 29005 29006 29007 29008 29009 29010 29011 29012 29013 29014 29015 29016 29017 29018 29019 29020 29021 29022 29023 29024 29025 29026 29027 29028 29029 29030 29031 29032 29033 29034 29035 29036 29037 29038 29039 29040 29041 29042 29043 29044 29045 29046 29047 29048 29049 29050 29051 29052 29053 29054 29055 29056 29057 29058 29059 29060 29061 29062 29063 29064 29065 29066 29067 29068 29069 29070 29071 29072 29073 29074 29075 29076 29077 29078 29079 29080 29081 29082 29083 29084 29085 29086 29087 29088 29089 29090 29091 29092 29093 29094 29095 29096 29097 29098 29099 29100 29101 29102 29103 29104 29105 29106 29107 29108 29109 29110 29111 29112 29113 29114 29115 29116 29117 29118 29119 29120 29121 29122 29123 29124 29125 29126 29127 29128 29129 29130 29131 29132 29133 29134 29135 29136 29137 29138 29139 29140 29141 29142 29143 29144 29145 29146 29147 29148 29149 29150 29151 29152 29153 29154 29155 29156 29157 29158 29159 29160 29161 29162 29163 29164 29165 29166 29167 29168 29169 29170 29171 29172 29173 29174 29175 29176 29177 29178 29179 29180 29181 29182 29183 29184 29185 29186 29187 29188 29189 29190 29191 29192 29193 29194 29195 29196 29197 29198 29199 29200 29201 29202 29203 29204 29205 29206 29207 29208 29209 29210 29211 29212 29213 29214 29215 29216 29217 29218 29219 29220 29221 29222 29223 29224 29225 29226 29227 29228 29229 29230 29231 29232 29233 29234 29235 29236 29237 29238 29239 29240 29241 29242 29243 29244 29245 29246 29247 29248 29249 29250 29251 29252 29253 29254 29255 29256 29257 29258 29259 29260 29261 29262 29263 29264 29265 29266 29267 29268 29269 29270 29271 29272 29273 29274 29275 29276 29277 29278 29279 29280 29281 29282 29283 29284 29285 29286 29287 29288 29289 29290 29291 29292 29293 29294 29295 29296 29297 29298 29299 29300 29301 29302 29303 29304 29305 29306 29307 29308 29309 29310 29311 29312 29313 29314 29315 29316 29317 29318 29319 29320 29321 29322 29323 29324 29325 29326 29327 29328 29329 29330 29331 29332 29333 29334 29335 29336 29337 29338 29339 29340 29341 29342 29343 29344 29345 29346 29347 29348 29349 29350 29351 29352 29353 29354 29355 29356 29357 29358 29359 29360 29361 29362 29363 29364 29365 29366 29367 29368 29369 29370 29371 29372 29373 29374 29375 29376 29377 29378 29379 29380 29381 29382 29383 29384 29385 29386 29387 29388 29389 29390 29391 29392 29393 29394 29395 29396 29397 29398 29399 29400 29401 29402 29403 29404 29405 29406 29407 29408 29409 29410 29411 29412 29413 29414 29415 29416 29417 29418 29419 29420 29421 29422 29423 29424 29425 29426 29427 29428 29429 29430 29431 29432 29433 29434 29435 29436 29437 29438 29439 29440 29441 29442 29443 29444 29445 29446 29447 29448 29449 29450 29451 29452 29453 29454 29455 29456 29457 29458 29459 29460 29461 29462 29463 29464 29465 29466 29467 29468 29469 29470 29471 29472 29473 29474 29475 29476 29477 29478 29479 29480 29481 29482 29483 29484 29485 29486 29487 29488 29489 29490 29491 29492 29493 29494 29495 29496 29497 29498 29499 29500 29501 29502 29503 29504 29505 29506 29507 29508 29509 29510 29511 29512 29513 29514 29515 29516 29517 29518 29519 29520 29521 29522 29523 29524 29525 29526 29527 29528 29529 29530 29531 29532 29533 29534 29535 29536 29537 29538 29539 29540 29541 29542 29543 29544 29545 29546 29547 29548 29549 29550 29551 29552 29553 29554 29555 29556 29557 29558 29559 29560 29561 29562 29563 29564 29565 29566 29567 29568 29569 29570 29571 29572 29573 29574 29575 29576 29577 29578 29579 29580 29581 29582 29583 29584 29585 29586 29587 29588 29589 29590 29591 29592 29593 29594 29595 29596 29597 29598 29599 29600 29601 29602 29603 29604 29605 29606 29607 29608 29609 29610 29611 29612 29613 29614 29615 29616 29617 29618 29619 29620 29621 29622 29623 29624 29625 29626 29627 29628 29629 29630 29631 29632 29633 29634 29635 29636 29637 29638 29639 29640 29641 29642 29643 29644 29645 29646 29647 29648 29649 29650 29651 29652 29653 29654 29655 29656 29657 29658 29659 29660 29661 29662 29663 29664 29665 29666 29667 29668 29669 29670 29671 29672 29673 29674 29675 29676 29677 29678 29679 29680 29681 29682 29683 29684 29685 29686 29687 29688 29689 29690 29691 29692 29693 29694 29695 29696 29697 29698 29699 29700 29701 29702 29703 29704 29705 29706 29707 29708 29709 29710 29711 29712 29713 29714 29715 29716 29717 29718 29719 29720 29721 29722 29723 29724 29725 29726 29727 29728 29729 29730 29731 29732 29733 29734 29735 29736 29737 29738 29739 29740 29741 29742 29743 29744 29745 29746 29747 29748 29749 29750 29751 29752 29753 29754 29755 29756 29757 29758 29759 29760 29761 29762 29763 29764 29765 29766 29767 29768 29769 29770 29771 29772 29773 29774 29775 29776 29777 29778 29779 29780 29781 29782 29783 29784 29785 29786 29787 29788 29789 29790 29791 29792 29793 29794 29795 29796 29797 29798 29799 29800 29801 29802 29803 29804 29805 29806 29807 29808 29809 29810 29811 29812 29813 29814 29815 29816 29817 29818 29819 29820 29821 29822 29823 29824 29825 29826 29827 29828 29829 29830 29831 29832 29833 29834 29835 29836 29837 29838 29839 29840 29841 29842 29843 29844 29845 29846 29847 29848 29849 29850 29851 29852 29853 29854 29855 29856 29857 29858 29859 29860 29861 29862 29863 29864 29865 29866 29867 29868 29869 29870 29871 29872 29873 29874 29875 29876 29877 29878 29879 29880 29881 29882 29883 29884 29885 29886 29887 29888 29889 29890 29891 29892 29893 29894 29895 29896 29897 29898 29899 29900 29901 29902 29903 29904 29905 29906 29907 29908 29909 29910 29911 29912 29913 29914 29915 29916 29917 29918 29919 29920 29921 29922 29923 29924 29925 29926 29927 29928 29929 29930 29931 29932 29933 29934 29935 29936 29937 29938 29939 29940 29941 29942 29943 29944 29945 29946 29947 29948 29949 29950 29951 29952 29953 29954 29955 29956 29957 29958 29959 29960 29961 29962 29963 29964 29965 29966 29967 29968 29969 29970 29971 29972 29973 29974 29975 29976 29977 29978 29979 29980 29981 29982 29983 29984 29985 29986 29987 29988 29989 29990 29991 29992 29993 29994 29995 29996 29997 29998 29999 30000 30001 30002 30003 30004 30005 30006 30007 30008 30009 30010 30011 30012 30013 30014 30015 30016 30017 30018 30019 30020 30021 30022 30023 30024 30025 30026 30027 30028 30029 30030 30031 30032 30033 30034 30035 30036 30037 30038 30039 30040 30041 30042 30043 30044 30045 30046 30047 30048 30049 30050 30051 30052 30053 30054 30055 30056 30057 30058 30059 30060 30061 30062 30063 30064 30065 30066 30067 30068 30069 30070 30071 30072 30073 30074 30075 30076 30077 30078 30079 30080 30081 30082 30083 30084 30085 30086 30087 30088 30089 30090 30091 30092 30093 30094 30095 30096 30097 30098 30099 30100 30101 30102 30103 30104 30105 30106 30107 30108 30109 30110 30111 30112 30113 30114 30115 30116 30117 30118 30119 30120 30121 30122 30123 30124 30125 30126 30127 30128 30129 30130 30131 30132 30133 30134 30135 30136 30137 30138 30139 30140 30141 30142 30143 30144 30145 30146 30147 30148 30149 30150 30151 30152 30153 30154 30155 30156 30157 30158 30159 30160 30161 30162 30163 30164 30165 30166 30167 30168 30169 30170 30171 30172 30173 30174 30175 30176 30177 30178 30179 30180 30181 30182 30183 30184 30185 30186 30187 30188 30189 30190 30191 30192 30193 30194 30195 30196 30197 30198 30199 30200 30201 30202 30203 30204 30205 30206 30207 30208 30209 30210 30211 30212 30213 30214 30215 30216 30217 30218 30219 30220 30221 30222 30223 30224 30225 30226 30227 30228 30229 30230 30231 30232 30233 30234 30235 30236 30237 30238 30239 30240 30241 30242 30243 30244 30245 30246 30247 30248 30249 30250 30251 30252 30253 30254 30255 30256 30257 30258 30259 30260 30261 30262 30263 30264 30265 30266 30267 30268 30269 30270 30271 30272 30273 30274 30275 30276 30277 30278 30279 30280 30281 30282 30283 30284 30285 30286 30287 30288 30289 30290 30291 30292 30293 30294 30295 30296 30297 30298 30299 30300 30301 30302 30303 30304 30305 30306 30307 30308 30309 30310 30311 30312 30313 30314 30315 30316 30317 30318 30319 30320 30321 30322 30323 30324 30325 30326 30327 30328 30329 30330 30331 30332 30333 30334 30335 30336 30337 30338 30339 30340 30341 30342 30343 30344 30345 30346 30347 30348 30349 30350 30351 30352 30353 30354 30355 30356 30357 30358 30359 30360 30361 30362 30363 30364 30365 30366 30367 30368 30369 30370 30371 30372 30373 30374 30375 30376 30377 30378 30379 30380 30381 30382 30383 30384 30385 30386 30387 30388 30389 30390 30391 30392 30393 30394 30395 30396 30397 30398 30399 30400 30401 30402 30403 30404 30405 30406 30407 30408 30409 30410 30411 30412 30413 30414 30415 30416 30417 30418 30419 30420 30421 30422 30423 30424 30425 30426 30427 30428 30429 30430 30431 30432 30433 30434 30435 30436 30437 30438 30439 30440 30441 30442 30443 30444 30445 30446 30447 30448 30449 30450 30451 30452 30453 30454 30455 30456 30457 30458 30459 30460 30461 30462 30463 30464 30465 30466 30467 30468 30469 30470 30471 30472 30473 30474 30475 30476 30477 30478 30479 30480 30481 30482 30483 30484 30485 30486 30487 30488 30489 30490 30491 30492 30493 30494 30495 30496 30497 30498 30499 30500 30501 30502 30503 30504 30505 30506 30507 30508 30509 30510 30511 30512 30513 30514 30515 30516 30517 30518 30519 30520 30521 30522 30523 30524 30525 30526 30527 30528 30529 30530 30531 30532 30533 30534 30535 30536 30537 30538 30539 30540 30541 30542 30543 30544 30545 30546 30547 30548 30549 30550 30551 30552 30553 30554 30555 30556 30557 30558 30559 30560 30561 30562 30563 30564 30565 30566 30567 30568 30569 30570 30571 30572 30573 30574 30575 30576 30577 30578 30579 30580 30581 30582 30583 30584 30585 30586 30587 30588 30589 30590 30591 30592 30593 30594 30595 30596 30597 30598 30599 30600 30601 30602 30603 30604 30605 30606 30607 30608 30609 30610 30611 30612 30613 30614 30615 30616 30617 30618 30619 30620 30621 30622 30623 30624 30625 30626 30627 30628 30629 30630 30631 30632 30633 30634 30635 30636 30637 30638 30639 30640 30641 30642 30643 30644 30645 30646 30647 30648 30649 30650 30651 30652 30653 30654 30655 30656 30657 30658 30659 30660 30661 30662 30663 30664 30665 30666 30667 30668 30669 30670 30671 30672 30673 30674 30675 30676 30677 30678 30679 30680 30681 30682 30683 30684 30685 30686 30687 30688 30689 30690 30691 30692 30693 30694 30695 30696 30697 30698 30699 30700 30701 30702 30703 30704 30705 30706 30707 30708 30709 30710 30711 30712 30713 30714 30715 30716 30717 30718 30719 30720 30721 30722 30723 30724 30725 30726 30727 30728 30729 30730 30731 30732 30733 30734 30735 30736 30737 30738 30739 30740 30741 30742 30743 30744 30745 30746 30747 30748 30749 30750 30751 30752 30753 30754 30755 30756 30757 30758 30759 30760 30761 30762 30763 30764 30765 30766 30767 30768 30769 30770 30771 30772 30773 30774 30775 30776 30777 30778 30779 30780 30781 30782 30783 30784 30785 30786 30787 30788 30789 30790 30791 30792 30793 30794 30795 30796 30797 30798 30799 30800 30801 30802 30803 30804 30805 30806 30807 30808 30809 30810 30811 30812 30813 30814 30815 30816 30817 30818 30819 30820 30821 30822 30823 30824 30825 30826 30827 30828 30829 30830 30831 30832 30833 30834 30835 30836 30837 30838 30839 30840 30841 30842 30843 30844 30845 30846 30847 30848 30849 30850 30851 30852 30853 30854 30855 30856 30857 30858 30859 30860 30861 30862 30863 30864 30865 30866 30867 30868 30869 30870 30871 30872 30873 30874 30875 30876 30877 30878 30879 30880 30881 30882 30883 30884 30885 30886 30887 30888 30889 30890 30891 30892 30893 30894 30895 30896 30897 30898 30899 30900 30901 30902 30903 30904 30905 30906 30907 30908 30909 30910 30911 30912 30913 30914 30915 30916 30917 30918 30919 30920 30921 30922 30923 30924 30925 30926 30927 30928 30929 30930 30931 30932 30933 30934 30935 30936 30937 30938 30939 30940 30941 30942 30943 30944 30945 30946 30947 30948 30949 30950 30951 30952 30953 30954 30955 30956 30957 30958 30959 30960 30961 30962 30963 30964 30965 30966 30967 30968 30969 30970 30971 30972 30973 30974 30975 30976 30977 30978 30979 30980 30981 30982 30983 30984 30985 30986 30987 30988 30989 30990 30991 30992 30993 30994 30995 30996 30997 30998 30999 31000 31001 31002 31003 31004 31005 31006 31007 31008 31009 31010 31011 31012 31013 31014 31015 31016 31017 31018 31019 31020 31021 31022 31023 31024 31025 31026 31027 31028 31029 31030 31031 31032 31033 31034 31035 31036 31037 31038 31039 31040 31041 31042 31043 31044 31045 31046 31047 31048 31049 31050 31051 31052 31053 31054 31055 31056 31057 31058 31059 31060 31061 31062 31063 31064 31065 31066 31067 31068 31069 31070 31071 31072 31073 31074 31075 31076 31077 31078 31079 31080 31081 31082 31083 31084 31085 31086 31087 31088 31089 31090 31091 31092 31093 31094 31095 31096 31097 31098 31099 31100 31101 31102 31103 31104 31105 31106 31107 31108 31109 31110 31111 31112 31113 31114 31115 31116 31117 31118 31119 31120 31121 31122 31123 31124 31125 31126 31127 31128 31129 31130 31131 31132 31133 31134 31135 31136 31137 31138 31139 31140 31141 31142 31143 31144 31145 31146 31147 31148 31149 31150 31151 31152 31153 31154 31155 31156 31157 31158 31159 31160 31161 31162 31163 31164 31165 31166 31167 31168 31169 31170 31171 31172 31173 31174 31175 31176 31177 31178 31179 31180 31181 31182 31183 31184 31185 31186 31187 31188 31189 31190 31191 31192 31193 31194 31195 31196 31197 31198 31199 31200 31201 31202 31203 31204 31205 31206 31207 31208 31209 31210 31211 31212 31213 31214 31215 31216 31217 31218 31219 31220 31221 31222 31223 31224 31225 31226 31227 31228 31229 31230 31231 31232 31233 31234 31235 31236 31237 31238 31239 31240 31241 31242 31243 31244 31245 31246 31247 31248 31249 31250 31251 31252 31253 31254 31255 31256 31257 31258 31259 31260 31261 31262 31263 31264 31265 31266 31267 31268 31269 31270 31271 31272 31273 31274 31275 31276 31277 31278 31279 31280 31281 31282 31283 31284 31285 31286 31287 31288 31289 31290 31291 31292 31293 31294 31295 31296 31297 31298 31299 31300 31301 31302 31303 31304 31305 31306 31307 31308 31309 31310 31311 31312 31313 31314 31315 31316 31317 31318 31319 31320 31321 31322 31323 31324 31325 31326 31327 31328 31329 31330 31331 31332 31333 31334 31335 31336 31337 31338 31339 31340 31341 31342 31343 31344 31345 31346 31347 31348 31349 31350 31351 31352 31353 31354 31355 31356 31357 31358 31359 31360 31361 31362 31363 31364 31365 31366 31367 31368 31369 31370 31371 31372 31373 31374 31375 31376 31377 31378 31379 31380 31381 31382 31383 31384 31385 31386 31387 31388 31389 31390 31391 31392 31393 31394 31395 31396 31397 31398 31399 31400 31401 31402 31403 31404 31405 31406 31407 31408 31409 31410 31411 31412 31413 31414 31415 31416 31417 31418 31419 31420 31421 31422 31423 31424 31425 31426 31427 31428 31429 31430 31431 31432 31433 31434 31435 31436 31437 31438 31439 31440 31441 31442 31443 31444 31445 31446 31447 31448 31449 31450 31451 31452 31453 31454 31455 31456 31457 31458 31459 31460 31461 31462 31463 31464 31465 31466 31467 31468 31469 31470 31471 31472 31473 31474 31475 31476 31477 31478 31479 31480 31481 31482 31483 31484 31485 31486 31487 31488 31489 31490 31491 31492 31493 31494 31495 31496 31497 31498 31499 31500 31501 31502 31503 31504 31505 31506 31507 31508 31509 31510 31511 31512 31513 31514 31515 31516 31517 31518 31519 31520 31521 31522 31523 31524 31525 31526 31527 31528 31529 31530 31531 31532 31533 31534 31535 31536 31537 31538 31539 31540 31541 31542 31543 31544 31545 31546 31547 31548 31549 31550 31551 31552 31553 31554 31555 31556 31557 31558 31559 31560 31561 31562 31563 31564 31565 31566 31567 31568 31569 31570 31571 31572 31573 31574 31575 31576 31577 31578 31579 31580 31581 31582 31583 31584 31585 31586 31587 31588 31589 31590 31591 31592 31593 31594 31595 31596 31597 31598 31599 31600 31601 31602 31603 31604 31605 31606 31607 31608 31609 31610 31611 31612 31613 31614 31615 31616 31617 31618 31619 31620 31621 31622 31623 31624 31625 31626 31627 31628 31629 31630 31631 31632 31633 31634 31635 31636 31637 31638 31639 31640 31641 31642 31643 31644 31645 31646 31647 31648 31649 31650 31651 31652 31653 
</DataArray>
<DataArray type="UInt32" Name="offsets" format="ascii">
3 5 8 11 14 16 19 22 25 28 31 33 36 39 42 44 47 50 53 56 59 61 64 67 69 72 75 78 81 84 87 90 93 96 99 102 105 108 111 114 117 119 122 125 128 131 134 137 140 143 146 149 152 155 158 161 164 167 170 172 175 178 181 184 187 190 193 196 199 202 205 208 210 213 216 219 222 225 227 230 232 235 238 241 244 247 250 252 255 258 261 264 267 270 273 276 279 282 285 288 291 294 297 300 303 306 309 312 315 318 321 324 327 330 333 336 338 341 344 346 349 351 354 357 360 363 366 369 372 375 377 380 383 385 388 391 394 397 400 403 406 408 411 414 416 419 422 425 428 431 434 437 440 442 445 448 451 454 456 459 462 464 467 470 473 476 479 481 484 487 490 493 496 499 502 505 508 510 513 515 518 521 524 527 530 533 536 538 541 544 546 548 551 554 557 560 562 565 568 571 574 577 579 582 585 588 591 594 597 599 602 605 608 610 613 616 619 622 625 628 631 634 637 640 643 646 649 652 655 658 661 664 667 670 673 676 678 681 684 686 689 692 695 698 701 704 707 710 713 716 719 722 725 728 731 734 737 740 742 745 748 751 754 757 760 763 766 769 772 774 777 780 783 786 789 792 795 797 799 801 804 807 810 813 816 819 822 825 828 830 833 836 839 842 845 848 851 853 856 859 862 864 867 870 872 875 878 881 884 887 890 893 896 899 902 905 908 911 914 917 919 922 925 928 930 933 936 939 942 945 948 951 954 957 960 963 966 969 972 975 978 981 984 987 990 993 996 999 1002 1005 1008 1011 1013 1016 1019 1021 1024 1027 1030 1033 1036 1039 1042 1045 1048 1051 1053 1056 1059 1062 1064 1067 1070 1073 1076 1079 1082 1085 1087 1090 1093 1096 1099 1101 1104 1106 1109 1112 1115 1118 1121 1123 1126 1129 1132 1135 1138 1141 1144 1147 1150 1153 1156 1158 1161 1163 1166 1168 1170 1173 1175 1178 1181 1183 1186 1189 1192 1195 1198 1201 1204 1207 1210 1213 1216 1219 1222 1225 1228 1230 1233 1236 1239 1242 1245 1248 1251 1253 1255 1258 1261 1264 1267 1270 1273 1276 1279 1282 1285 1288 1291 1294 1297 1300 1302 1305 1308 1311 1313 1316 1318 1320 1323 1326 1329 1332 1334 1337 1339 1342 1345 1348 1351 1354 1357 1360 1363 1366 1369 1371 1374 1377 1380 1382 1385 1388 1391 1394 1397 1400 1403 1406 1409 1411 1414 1416 1419 1421 1424 1427 1429 1431 1434 1437 1440 1443 1445 1448 1451 1454 1457 1459 1461 1464 1467 1470 1473 1476 1479 1481 1484 1487 1490 1493 1496 1499 1502 1505 1508 1511 1513 1516 1519 1522 1524 1527 1529 1532 1535 1538 1540 1543 1546 1548 1551 1554 1556 1558 1561 1564 1567 1570 1573 1576 1579 1582 1585 1588 1591 1594 1597 1600 1603 1606 1609 1612 1615 1617 1620 1623 1626 1629 1631 1633 1636 1639 1641 1644 1647 1650 1653 1655 1658 1661 1664 1666 1669 1672 1675 1678 1681 1684 1686 1689 1692 1695 1698 1701 1704 1707 1709 1712 1715 1717 1720 1722 1725 1728 1731 1734 1737 1740 1743 1746 1749 1752 1755 1757 1759 1762 1765 1768 1771 1774 1777 1780 1783 1786 1788 1791 1794 1797 1800 1803 1806 1809 1812 1815 1818 1821 1824 1827 1830 1833 1836 1839 1842 1845 1848 1851 1854 1857 1860 1863 1866 1869 1872 1875 1878 1881 1884 1886 1889 1892 1895 1898 1900 1903 1906 1909 1912 1915 1918 1921 1924 1927 1930 1933 1935 1938 1940 1943 1946 1949 1952 1955 1957 1960 1963 1966 1969 1972 1975 1978 1981 1984 1987 1990 1993 1996 1999 2002 2005 2008 2011 2014 2017 2020 2023 2026 2029 2032 2035 2038 2041 2044 2047 2050 2053 2056 2059 2062 2065 2068 2071 2074 2077 2080 2083 2086 2089 2092 2095 2098 2100 2103 2106 2109 2112 2115 2118 2121 2124 2127 2130 2133 2136 2139 2142 2145 2148 2151 2154 2157 2160 2163 2166 2169 2172 2175 2178 2181 2184 2186 2189 2192 2195 2198 2201 2204 2207 2210 2213 2216 2219 2222 2225 2228 2231 2234 2237 2239 2242 2245 2248 2251 2254 2257 2260 2263 2266 2269 2272 2275 2278 2281 2284 2287 2290 2293 2296 2299 2302 2305 2308 2311 2314 2317 2320 2323 2326 2329 2332 2335 2338 2341 2344 2347 2349 2352 2355 2357 2360 2363 2366 2369 2372 2375 2378 2381 2384 2387 2390 2393 2396 2399 2402 2405 2407 2410 2413 2416 2419 2421 2423 2426 2429 2431 2434 2437 2440 2443 2446 2449 2452 2455 2458 2460 2462 2465 2468 2471 2474 2476 2479 2482 2485 2488 2490 2493 2496 2499 2501 2504 2507 2510 2513 2516 2519 2522 2525 2528 2530 2533 2536 2539 2542 2545 2548 2551 2554 2557 2560 2563 2566 2569 2572 2575 2578 2581 2584 2587 2590 2593 2596 2599 2602 2604 2607 2610 2613 2616 2619 2622 2625 2628 2630 2633 2636 2639 2642 2644 2647 2650 2653 2656 2658 2660 2663 2666 2669 2672 2675 2678 2681 2684 2687 2690 2692 2695 2698 2701 2704 2707 2710 2713 2716 2719 2721 2724 2727 2729 2732 2734 2737 2740 2742 2745 2748 2751 2753 2756 2759 2762 2765 2768 2771 2774 2777 2780 2783 2786 2788 2791 2794 2797 2800 2803 2805 2807 2810 2813 2816 2819 2821 2824 2827 2830 2832 2835 2838 2841 2844 2847 2850 2852 2855 2858 2861 2864 2867 2869 2872 2875 2878 2881 2883 2886 2889 2891 2894 2896 2898 2901 2903 2906 2909 2912 2915 2917 2920 2922 2925 2928 2931 2934 2937 2940 2943 2946 2948 2951 2954 2957 2959 2962 2965 2968 2971 2974 2977 2979 2982 2985 2988 2991 2994 2997 2999 3001 3004 3007 3010 3013 3016 3019 3021 3024 3027 3030 3033 3035 3038 3041 3044 3047 3050 3053 3056 3059 3062 3064 3067 3070 3073 3076 3079 3082 3084 3087 3089 3092 3095 3098 3101 3103 3106 3109 3111 3114 3117 3119 3122 3124 3127 3130 3133 3136 3139 3142 3145 3148 3150 3153 3155 3158 3161 3164 3167 3170 3173 3176 3179 3182 3185 3187 3190 3193 3196 3199 3202 3205 3208 3211 3214 3216 3219 3222 3225 3228 3230 3232 3235 3238 3240 3243 3246 3249 3252 3255 3258 3261 3264 3267 3270 3273 3276 3279 3282 3284 3287 3289 3292 3295 3298 3301 3304 3307 3310 3313 3316 3318 3321 3324 3327 3330 3333 3336 3339 3342 3345 3348 3351 3354 3357 3360 3363 3366 3369 3372 3375 3378 3381 3384 3387 3390 3393 3396 3399 3402 3405 3408 3411 3414 3417 3420 3423 3426 3429 3432 3435 3438 3441 3444 3447 3450 3453 3456 3459 3462 3465 3468 3471 3474 3477 3479 3482 3484 3487 3490 3493 3495 3498 3501 3503 3505 3508 3511 3514 3517 3520 3523 3526 3529 3532 3534 3537 3540 3543 3546 3549 3552 3555 3558 3561 3564 3567 3570 3573 3576 3579 3582 3585 3588 3591 3594 3597 3600 3603 3606 3609 3612 3615 3618 3621 3624 3627 3629 3632 3635 3638 3641 3643 3646 3649 3652 3655 3658 3661 3664 3666 3669 3672 3675 3678 3681 3684 3687 3689 3692 3695 3698 3701 3704 3707 3709 3712 3714 3717 3719 3722 3725 3728 3731 3734 3737 3740 3743 3745 3748 3751 3754 3757 3760 3763 3765 3768 3771 3773 3776 3779 3782 3785 3788 3791 3794 3797 3800 3803 3806 3809 3812 3814 3817 3819 3822 3825 3828 3831 3834 3837 3839 3842 3845 3848 3851 3853 3856 3859 3862 3865 3868 3870 3872 3875 3877 3880 3883 3886 3888 3891 3894 3897 3900 3903 3906 3909 3912 3915 3918 3921 3924 3927 3930 3933 3936 3939 3941 3944 3947 3950 3953 3956 3959 3962 3965 3968 3971 3974 3977 3980 3983 3986 3989 3992 3994 3997 4000 4003 4006 4009 4012 4014 4017 4019 4022 4025 4027 4030 4033 4036 4039 4042 4044 4047 4050 4052 4055 4057 4059 4061 4064 4067 4070 4073 4076 4079 4082 4085 4088 4090 4093 4096 4099 4101 4104 4107 4110 4113 4115 4118 4121 4124 4127 4130 4133 4136 4139 4142 4145 4148 4151 4154 4157 4160 4163 4166 4169 4172 4174 4177 4180 4183 4186 4188 4191 4194 4197 4200 4203 4206 4209 4212 4214 4217 4220 4223 4226 4229 4231 4234 4237 4240 4243 4246 4249 4252 4255 4258 4261 4264 4267 4270 4273 4276 4279 4282 4285 4288 4290 4293 4296 4298 4300 4302 4305 4308 4310 4312 4315 4318 4321 4324 4326 4329 4332 4335 4338 4341 4344 4347 4350 4352 4354 4357 4359 4362 4364 4367 4370 4373 4376 4379 4382 4385 4388 4390 4393 4396 4399 4402 4405 4408 4410 4413 4416 4419 4422 4425 4428 4431 4433 4436 4439 4442 4445 4448 4451 4454 4457 4460 4463 4466 4468 4471 4474 4477 4480 4483 4486 4489 4492 4495 4498 4501 4504 4507 4510 4513 4516 4519 4522 4525 4528 4531 4534 4536 4539 4542 4545 4548 4550 4553 4556 4559 4561 4564 4566 4569 4572 4575 4578 4581 4583 4586 4589 4592 4595 4598 4601 4604 4607 4610 4613 4616 4619 4622 4625 4628 4631 4634 4637 4640 4643 4646 4649 4652 4655 4658 4661 4663 4666 4669 4672 4675 4678 4681 4684 4687 4690 4692 4694 4697 4699 4702 4705 4708 4710 4713 4716 4718 4721 4724 4726 4729 4732 4735 4737 4740 4743 4746 4748 4751 4753 4756 4759 4762 4765 4768 4771 4774 4777 4780 4783 4786 4789 4791 4794 4797 4800 4803 4806 4809 4812 4815 4818 4821 4824 4827 4830 4833 4836 4839 4842 4844 4847 4850 4853 4855 4858 4861 4864 4866 4869 4872 4875 4878 4881 4884 4887 4889 4892 4895 4898 4901 4903 4906 4909 4912 4915 4918 4921 4924 4927 4929 4932 4935 4938 4941 4944 4947 4950 4953 4956 4959 4962 4965 4968 4971 4974 4977 4980 4983 4986 4989 4992 4995 4998 5001 5004 5007 5010 5013 5016 5019 5022 5025 5028 5030 5033 5036 5039 5042 5045 5048 5051 5054 5057 5060 5063 5066 5069 5072 5074 5077 5079 5082 5085 5088 5090 5093 5096 5099 5102 5105 5107 5110 5113 5116 5119 5122 5125 5128 5131 5133 5136 5139 5141 5144 5147 5150 5153 5156 5159 5162 5165 5168 5171 5174 5177 5179 5182 5185 5187 5190 5192 5195 5198 5201 5204 5206 5209 5212 5214 5217 5220 5223 5226 5229 5232 5235 5238 5241 5244 5247 5249 5252 5254 5257 5260 5262 5264 5267 5269 5272 5275 5278 5281 5283 5286 5289 5292 5295 5298 5301 5304 5307 5310 5313 5316 5318 5321 5324 5326 5329 5331 5334 5337 5340 5343 5346 5349 5352 5355 5358 5361 5363 5366 5369 5372 5375 5378 5381 5384 5387 5390 5393 5396 5399 5402 5405 5408 5411 5414 5417 5420 5423 5426 5429 5432 5435 5438 5441 5444 5447 5450 5453 5456 5459 5462 5465 5468 5470 5473 5476 5479 5482 5485 5488 5490 5493 5496 5499 5502 5504 5507 5510 5513 5516 5518 5521 5524 5527 5530 5533 5536 5539 5542 5545 5547 5550 5553 5556 5559 5562 5564 5566 5569 5572 5575 5577 5580 5582 5585 5588 5591 5594 5597 5600 5603 5606 5609 5611 5614 5616 5619 5622 5625 5628 5631 5633 5636 5638 5641 5644 5647 5650 5653 5656 5659 5661 5664 5667 5670 5673 5676 5679 5682 5685 5688 5691 5694 5697 5700 5703 5706 5709 5712 5715 5718 5721 5724 5726 5728 5730 5733 5736 5739 5742 5744 5747 5750 5753 5756 5759 5762 5765 5768 5771 5774 5777 5780 5783 5786 5789 5792 5795 5798 5801 5804 5807 5810 5813 5816 5819 5822 5825 5828 5831 5834 5837 5840 5843 5846 5849 5851 5854 5857 5860 5863 5866 5869 5872 5875 5878 5881 5884 5887 5890 5893 5896 5899 5902 5905 5907 5910 5913 5916 5918 5921 5924 5927 5930 5933 5936 5939 5942 5945 5947 5950 5953 5956 5959 5962 5965 5968 5971 5974 5977 5980 5983 5986 5989 5992 5995 5998 6000 6003 6005 6008 6011 6014 6017 6020 6023 6026 6029 6032 6035 6038 6041 6044 6046 6049 6052 6055 6058 6061 6064 6067 6069 6072 6075 6078 6081 6084 6087 6089 6092 6095 6098 6101 6104 6107 6110 6113 6116 6119 6122 6124 6127 6130 6133 6136 6139 6141 6144 6147 6150 6153 6156 6159 6161 6164 6167 6170 6173 6176 6178 6181 6183 6186 6189 6192 6195 6198 6201 6204 6207 6210 6213 6216 6219 6222 6225 6228 6230 6233 6236 6239 6242 6245 6248 6251 6254 6257 6260 6262 6264 6267 6270 6272 6275 6278 6280 6283 6285 6288 6291 6294 6297 6300 6303 6306 6309 6312 6314 6316 6319 6322 6325 6328 6331 6333 6336 6339 6342 6345 6348 6351 6354 6356 6359 6362 6365 6368 6371 6374 6377 6380 6383 6386 6389 6392 6395 6398 6401 6404 6407 6410 6413 6416 6419 6422 6425 6428 6431 6434 6437 6440 6443 6446 6449 6452 6455 6458 6461 6464 6467 6470 6473 6476 6479 6482 6485 6488 6490 6493 6496 6498 6501 6504 6507 6510 6513 6516 6519 6521 6524 6527 6530 6532 6535 6538 6540 6543 6546 6548 6550 6553 6556 6558 6561 6564 6567 6570 6573 6576 6579 6582 6585 6588 6591 6594 6597 6600 6603 6605 6608 6611 6614 6617 6620 6623 6626 6629 6632 6635 6638 6641 6644 6646 6649 6652 6655 6658 6661 6664 6667 6670 6673 6676 6679 6682 6685 6688 6691 6694 6697 6700 6703 6706 6709 6712 6715 6718 6721 6724 6726 6729 6732 6735 6738 6741 6744 6747 6750 6753 6756 6759 6762 6764 6767 6770 6773 6776 6779 6782 6785 6788 6791 6794 6797 6799 6802 6805 6808 6810 6813 6816 6819 6822 6825 6828 6830 6833 6836 6839 6842 6845 6848 6851 6854 6857 6860 6863 6866 6869 6872 6875 6878 6881 6884 6887 6890 6893 6896 6899 6902 6905 6907 6910 6912 6915 6918 6921 6924 6926 6929 6932 6934 6937 6940 6943 6946 6949 6952 6955 6958 6961 6964 6967 6970 6973 6976 6979 6982 6985 6988 6991 6994 6997 7000 7003 7006 7009 7012 7015 7018 7020 7023 7026 7029 7032 7035 7038 7041 7044 7047 7050 7053 7056 7059 7062 7065 7068 7071 7074 7076 7079 7082 7085 7088 7090 7093 7095 7098 7101 7104 7107 7110 7113 7116 7119 7122 7125 7128 7131 7134 7137 7140 7143 7146 7149 7152 7155 7158 7161 7164 7167 7170 7173 7176 7179 7182 7184 7187 7190 7193 7196 7199 7202 7205 7207 7210 7213 7216 7219 7222 7225 7228 7230 7233 7236 7239 7241 7244 7247 7250 7253 7256 7259 7262 7264 7267 7270 7273 7275 7277 7279 7282 7285 7287 7290 7293 7296 7298 7301 7304 7307 7310 7313 7316 7319 7322 7325 7327 7329 7332 7335 7338 7341 7344 7347 7350 7353 7356 7359 7362 7365 7367 7370 7373 7376 7379 7382 7385 7387 7390 7393 7396 7399 7402 7405 7408 7411 7414 7417 7420 7423 7426 7429 7432 7435 7438 7440 7443 7446 7449 7452 7454 7457 7460 7463 7466 7468 7471 7474 7477 7480 7483 7486 7489 7492 7495 7498 7501 7504 7507 7510 7513 7516 7519 7522 7525 7528 7531 7534 7537 7540 7543 7545 7548 7551 7554 7557 7560 7563 7566 7569 7571 7574 7577 7580 7583 7586 7589 7592 7595 7598 7601 7604 7606 7609 7612 7615 7618 7621 7624 7627 7630 7633 7636 7639 7642 7645 7648 7651 7653 7656 7659 7662 7665 7668 7670 7673 7676 7679 7682 7685 7688 7691 7694 7697 7700 7703 7706 7709 7711 7714 7717 7720 7723 7725 7728 7731 7733 7736 7739 7742 7745 7748 7751 7754 7757 7760 7763 7766 7769 7772 7775 7778 7781 7784 7787 7790 7793 7796 7799 7802 7805 7808 7811 7814 7817 7820 7823 7826 7829 7831 7834 7836 7839 7842 7845 7848 7851 7854 7857 7860 7862 7865 7868 7871 7874 7877 7880 7883 7886 7889 7892 7895 7897 7900 7902 7905 7908 7911 7914 7916 7919 7922 7925 7928 7931 7934 7937 7940 7943 7946 7949 7952 7954 7957 7960 7963 7966 7969 7972 7975 7978 7981 7983 7986 7989 7991 7994 7997 8000 8003 8005 8008 8010 8013 8016 8019 8022 8025 8028 8031 8034 8037 8040 8043 8046 8049 8052 8055 8058 8061 8064 8067 8070 8073 8075 8078 8081 8084 8087 8090 8093 8096 8098 8101 8103 8106 8109 8112 8115 8117 8119 8122 8125 8128 8131 8134 8136 8138 8141 8144 8147 8150 8152 8155 8158 8160 8162 8165 8167 8169 8171 8174 8177 8180 8183 8186 8189 8192 8195 8197 8199 8202 8205 8208 8211 8213 8215 8218 8221 8224 8227 8230 8233 8236 8239 8242 8244 8247 8250 8253 8256 8259 8262 8264 8267 8270 8273 8276 8279 8282 8285 8288 8290 8293 8296 8299 8302 8305 8308 8310 8313 8316 8318 8320 8323 8326 8328 8331 8333 8336 8338 8341 8344 8347 8349 8352 8354 8357 8360 8362 8364 8366 8369 8372 8375 8378 8380 8383 8385 8387 8390 8392 8394 8397 8400 8402 8405 8408 8411 8413 8416 8419 8422 8425 8428 8430 8433 8436 8439 8441 8443 8446 8449 8452 8454 8457 8460 8463 8466 8469 8471 8474 8477 8480 8483 8486 8489 8492 8495 8498 8501 8504 8507 8510 8513 8516 8519 8522 8524 8527 8530 8533 8536 8539 8542 8544 8547 8550 8553 8555 8558 8561 8564 8567 8570 8573 8575 8578 8580 8583 8586 8589 8592 8595 8598 8601 8604 8607 8610 8613 8616 8619 8622 8625 8628 8631 8634 8637 8640 8643 8646 8649 8651 8654 8657 8660 8662 8665 8668 8671 8674 8677 8680 8683 8686 8689 8692 8695 8698 8701 8704 8707 8710 8713 8716 8718 8721 8724 8727 8730 8733 8736 8739 8742 8745 8748 8751 8754 8757 8760 8763 8766 8769 8772 8775 8778 8781 8784 8786 8789 8792 8795 8798 8801 8804 8807 8810 8813 8816 8819 8822 8824 8827 8829 8832 8835 8838 8841 8844 8846 8849 8852 8855 8857 8860 8863 8865 8868 8870 8873 8876 8878 8880 8883 8886 8889 8892 8895 8898 8901 8904 8907 8910 8913 8916 8919 8922 8925 8928 8931 8933 8935 8938 8941 8944 8947 8950 8953 8956 8959 8962 8965 8968 8971 8974 8977 8980 8983 8986 8989 8992 8995 8998 9001 9003 9006 9008 9011 9014 9017 9019 9022 9025 9028 9030 9033 9036 9039 9042 9045 9048 9051 9054 9057 9059 9062 9065 9068 9070 9073 9076 9079 9082 9085 9088 9091 9094 9097 9099 9102 9105 9108 9111 9114 9117 9120 9123 9126 9129 9132 9135 9138 9141 9144 9147 9150 9153 9156 9159 9162 9165 9168 9171 9174 9177 9180 9183 9186 9189 9192 9195 9198 9201 9204 9207 9210 9213 9216 9219 9222 9225 9228 9231 9234 9236 9239 9242 9245 9248 9250 9252 9255 9258 9260 9262 9265 9268 9271 9274 9276 9279 9282 9285 9288 9291 9294 9297 9300 9303 9305 9308 9311 9314 9317 9319 9322 9325 9328 9331 9333 9336 9339 9342 9344 9346 9349 9352 9355 9358 9361 9364 9367 9370 9372 9375 9378 9381 9384 9387 9390 9392 9395 9398 9401 9404 9407 9410 9412 9415 9418 9421 9424 9426 9429 9431 9434 9436 9439 9442 9445 9447 9449 9452 9455 9458 9461 9463 9466 9468 9471 9474 9477 9480 9482 9484 9487 9489 9492 9495 9498 9501 9504 9506 9509 9512 9514 9516 9518 9520 9523 9526 9529 9531 9534 9536 9538 9541 9544 9547 9550 9553 9556 9559 9562 9565 9568 9571 9574 9577 9580 9583 9586 9589 9592 9595 9598 9600 9603 9606 9609 9612 9615 9617 9620 9623 9625 9628 9630 9633 9636 9639 9642 9645 9648 9651 9654 9657 9659 9662 9665 9667 9670 9672 9675 9678 9680 9682 9685 9687 9690 9693 9696 9698 9701 9703 9706 9709 9711 9714 9717 9719 9722 9725 9728 9731 9734 9737 9740 9743 9746 9749 9752 9755 9758 9761 9764 9767 9770 9773 9776 9779 9782 9785 9788 9791 9794 9797 9800 9802 9805 9808 9811 9813 9816 9819 9821 9824 9827 9830 9833 9836 9839 9842 9845 9848 9851 9854 9857 9860 9863 9866 9869 9872 9875 9878 9881 9884 9887 9889 9892 9895 9897 9900 9903 9905 9908 9911 9914 9916 9919 9922 9925 9928 9931 9934 9937 9940 9943 9946 9949 9952 9955 9958 9960 9963 9966 9968 9971 9974 9977 9979 9982 9985 9988 9991 9994 9997 10000 10003 10005 10008 10011 10014 10017 10019 10022 10025 10028 10031 10034 10037 10040 10043 10046 10049 10052 10055 10058 10061 10064 10067 10069 10072 10075 10078 10080 10083 10086 10089 10092 10095 10098 10101 10104 10107 10110 10113 10116 10119 10122 10125 10128 10131 10134 10137 10140 10143 10146 10149 10152 10155 10158 10161 10164 10167 10170 10173 10176 10179 10182 10185 10188 10191 10194 10197 10200 10203 10206 10209 10212 10215 10218 10221 10224 10227 10230 10233 10235 10238 10241 10243 10246 10249 10252 10255 10258 10261 10264 10267 10270 10273 10276 10279 10282 10285 10288 10291 10294 10297 10300 10302 10305 10307 10309 10311 10314 10317 10320 10323 10326 10329 10332 10335 10338 10341 10344 10347 10350 10353 10356 10359 10362 10364 10366 10369 10372 10375 10377 10380 10383 10386 10389 10391 10393 10396 10398 10401 10404 10407 10409 10412 10415 10418 10421 10423 10426 10429 10432 10435 10438 10440 10443 10446 10448 10450 10453 10456 10458 10461 10463 10466 10469 10471 10474 10477 10480 10483 10486 10489 10492 10495 10498 10500 10503 10506 10509 10512 10514 10517 10520 10523 10526 10529 10532 10535 10538 10541 10544 10547 10549 10552 10555 10558 10561 10564 10567 10570 10573 10576 10578 10581 10584 10587 10590 10593 10596 10599 10602 10604 10607 10610 10612 10615 10618 10621 10624 10627 10630 10633 10636 10639 10642 10645 10648 10651 10654 10657 10660 10663 10666 10668 10671 10674 10677 10680 10683 10686 10689 10692 10695 10698 10701 10703 10706 10709 10712 10715 10718 10721 10724 10726 10729 10732 10734 10737 10740 10743 10746 10748 10751 10754 10757 10760 10762 10765 10768 10771 10774 10776 10779 10781 10784 10787 10790 10793 10795 10798 10801 10804 10806 10809 10812 10815 10818 10821 10824 10827 10830 10833 10836 10839 10842 10845 10848 10851 10854 10857 10860 10863 10866 10869 10872 10875 10878 10881 10884 10887 10890 10893 10895 10898 10900 10903 10905 10907 10910 10913 10916 10918 10921 10924 10927 10930 10932 10935 10937 10940 10943 10946 10948 10951 10954 10957 10960 10963 10966 10969 10972 10974 10977 10980 10983 10986 10989 10992 10995 10998 11001 11004 11007 11010 11013 11016 11018 11021 11023 11026 11029 11032 11035 11038 11040 11043 11046 11049 11051 11054 11057 11060 11063 11065 11068 11071 11074 11077 11080 11083 11086 11089 11091 11094 11097 11099 11102 11105 11108 11111 11113 11116 11119 11122 11125 11128 11131 11133 11136 11139 11142 11145 11148 11150 11153 11155 11157 11160 11163 11166 11169 11172 11175 11178 11181 11184 11187 11190 11192 11195 11198 11201 11204 11207 11210 11213 11215 11218 11221 11224 11227 11230 11233 11236 11239 11242 11245 11248 11251 11254 11257 11260 11263 11266 11269 11272 11275 11278 11281 11284 11287 11290 11293 11296 11299 11302 11304 11307 11310 11313 11316 11318 11321 11324 11327 11330 11332 11335 11338 11341 11344 11347 11350 11353 11356 11359 11362 11365 11368 11370 11373 11376 11379 11382 11385 11388 11391 11394 11397 11400 11403 11406 11409 11412 11415 11418 11421 11424 11427 11430 11433 11436 11439 11442 11445 11448 11451 11454 11457 11460 11463 11466 11469 11472 11475 11477 11480 11483 11486 11488 11491 11494 11497 11500 11503 11506 11509 11512 11515 11518 11521 11524 11527 11529 11532 11535 11538 11541 11544 11547 11550 11553 11555 11557 11560 11562 11565 11568 11571 11574 11577 11579 11582 11585 11588 11591 11594 11596 11599 11602 11604 11607 11610 11613 11615 11618 11621 11623 11626 11629 11632 11635 11638 11640 11642 11645 11648 11651 11654 11657 11660 11663 11666 11669 11672 11675 11678 11681 11684 11686 11689 11692 11695 11698 11701 11703 11706 11708 11711 11714 11716 11719 11721 11723 11725 11728 11731 11734 11736 11739 11742 11745 11748 11751 11754 11757 11760 11762 11764 11767 11769 11772 11774 11777 11780 11783 11786 11789 11792 11795 11798 11801 11804 11807 11810 11813 11816 11819 11822 11825 11828 11831 11834 11837 11840 11843 11846 11849 11852 11855 11858 11861 11864 11867 11870 11873 11876 11879 11881 11884 11887 11890 11893 11896 11899 11902 11905 11908 11911 11914 11917 11920 11923 11926 11929 11932 11935 11938 11941 11944 11947 11950 11953 11956 11959 11961 11964 11967 11970 11973 11976 11979 11981 11984 11987 11989 11992 11994 11997 12000 12003 12006 12008 12011 12014 12017 12019 12022 12025 12028 12031 12034 12037 12039 12042 12045 12047 12050 12053 12056 12058 12061 12064 12066 12069 12072 12075 12078 12081 12083 12086 12089 12091 12093 12096 12099 12101 12104 12106 12109 12112 12115 12117 12120 12123 12125 12127 12130 12132 12135 12138 12140 12143 12146 12149 12152 12155 12158 12161 12164 12167 12170 12173 12176 12179 12182 12185 12188 12191 12194 12196 12199 12202 12205 12208 12211 12214 12217 12220 12223 12226 12228 12231 12234 12237 12240 12243 12246 12249 12251 12254 12257 12260 12263 12266 12269 12272 12275 12278 12281 12284 12287 12290 12293 12296 12299 12302 12305 12308 12311 12313 12315 12318 12321 12324 12327 12330 12333 12336 12339 12342 12345 12348 12350 12353 12356 12359 12362 12365 12368 12370 12373 12376 12379 12382 12384 12387 12390 12393 12396 12399 12402 12405 12408 12411 12413 12416 12419 12422 12425 12428 12431 12434 12437 12440 12443 12446 12449 12452 12455 12458 12461 12463 12466 12469 12472 12475 12478 12481 12484 12487 12490 12493 12496 12499 12502 12504 12507 12510 12513 12516 12519 12522 12525 12528 12531 12534 12536 12539 12542 12545 12547 12550 12553 12556 12559 12562 12565 12567 12570 12573 12576 12579 12582 12585 12588 12591 12594 12597 12600 12602 12605 12608 12611 12614 12617 12620 12623 12626 12628 12631 12634 12636 12639 12642 12644 12647 12649 12651 12654 12656 12659 12662 12665 12668 12670 12672 12675 12678 12681 12684 12687 12689 12692 12695 12698 12701 12703 12706 12709 12712 12714 12717 12720 12722 12725 12728 12731 12734 12737 12740 12743 12746 12749 12752 12754 12757 12759 12762 12764 12766 12769 12772 12775 12777 12780 12783 12785 12787 12790 12793 12796 12799 12802 12804 12807 12810 12813 12816 12819 12822 12825 12828 12831 12834 12837 12840 12843 12846 12849 12852 12854 12857 12860 12862 12865 12868 12871 12873 12876 12879 12882 12884 12887 12889 12892 12895 12898 12901 12904 12907 12910 12913 12915 12918 12921 12924 12926 12928 12931 12934 12937 12940 12943 12946 12949 12952 12955 12958 12961 12964 12967 12969 12972 12974 12977 12980 12983 12986 12989 12992 12995 12998 13001 13004 13007 13010 13013 13016 13019 13022 13025 13028 13031 13034 13037 13040 13043 13046 13049 13051 13054 13057 13060 13063 13065 13068 13070 13073 13076 13078 13081 13084 13087 13090 13093 13096 13099 13102 13105 13108 13111 13114 13117 13120 13123 13126 13129 13132 13135 13138 13141 13144 13147 13150 13153 13156 13159 13162 13165 13168 13171 13174 13176 13179 13182 13185 13188 13191 13194 13197 13199 13202 13205 13208 13211 13214 13217 13220 13223 13226 13229 13232 13234 13236 13239 13242 13245 13248 13251 13253 13256 13259 13261 13264 13266 13269 13272 13275 13278 13281 13284 13287 13290 13293 13296 13299 13302 13304 13307 13310 13313 13316 13319 13321 13323 13326 13329 13332 13335 13337 13340 13343 13346 13349 13352 13355 13358 13361 13364 13367 13369 13372 13375 13378 13381 13384 13387 13390 13393 13396 13399 13402 13405 13408 13411 13414 13417 13420 13423 13426 13429 13432 13435 13438 13441 13444 13447 13450 13453 13456 13459 13462 13465 13468 13471 13474 13477 13480 13483 13486 13489 13492 13495 13498 13501 13504 13507 13510 13513 13516 13519 13522 13525 13528 13531 13534 13537 13539 13542 13545 13548 13550 13553 13556 13559 13562 13565 13568 13571 13573 13576 13579 13582 13585 13588 13590 13593 13596 13599 13602 13604 13607 13610 13613 13616 13619 13622 13625 13628 13631 13634 13637 13640 13643 13646 13649 13651 13653 13656 13659 13662 13664 13666 13669 13672 13675 13678 13681 13684 13686 13689 13692 13694 13697 13700 13703 13706 13709 13712 13715 13718 13721 13724 13726 13728 13731 13734 13736 13739 13742 13745 13748 13751 13754 13757 13759 13762 13765 13768 13771 13774 13777 13780 13783 13786 13789 13792 13795 13798 13800 13803 13806 13809 13812 13815 13818 13820 13823 13826 13829 13832 13835 13838 13841 13844 13847 13849 13852 13855 13858 13861 13863 13866 13869 13872 13875 13878 13881 13884 13887 13889 13892 13895 13898 13901 13904 13907 13910 13913 13915 13918 13921 13924 13927 13930 13932 13934 13937 13940 13942 13945 13948 13951 13953 13956 13959 13962 13965 13968 13971 13973 13976 13979 13981 13984 13987 13989 13992 13995 13998 14001 14004 14006 14009 14012 14015 14018 14020 14023 14026 14029 14032 14035 14038 14041 14044 14047 14050 14053 14056 14058 14061 14064 14067 14070 14073 14075 14078 14081 14084 14087 14090 14093 14095 14098 14101 14104 14107 14110 14113 14116 14119 14122 14125 14128 14131 14134 14137 14140 14143 14146 14149 14152 14155 14157 14160 14163 14166 14169 14171 14174 14177 14180 14183 14186 14189 14191 14194 14197 14200 14203 14206 14209 14212 14215 14218 14220 14223 14226 14229 14232 14235 14238 14241 14244 14247 14250 14253 14256 14259 14262 14265 14268 14271 14274 14277 14280 14283 14286 14289 14292 14295 14298 14301 14304 14307 14310 14312 14315 14318 14321 14324 14327 14330 14333 14336 14338 14341 14344 14346 14349 14352 14355 14358 14361 14363 14366 14369 14372 14375 14377 14380 14383 14386 14389 14392 14395 14398 14401 14403 14406 14409 14412 14414 14417 14419 14422 14425 14428 14430 14432 14434 14437 14440 14443 14446 14448 14451 14454 14457 14460 14463 14466 14469 14472 14475 14478 14481 14483 14486 14489 14492 14495 14498 14501 14504 14507 14510 14513 14516 14519 14522 14525 14528 14531 14533 14536 14539 14542 14545 14548 14551 14554 14557 14560 14563 14566 14569 14572 14575 14578 14581 14584 14587 14590 14593 14596 14599 14602 14605 14608 14611 14614 14617 14620 14623 14626 14629 14632 14635 14638 14641 14644 14647 14650 14653 14656 14659 14662 14665 14668 14671 14674 14677 14680 14683 14686 14689 14692 14695 14698 14700 14703 14705 14708 14711 14713 14716 14719 14722 14725 14728 14731 14734 14736 14739 14742 14744 14747 14749 14752 14755 14758 14761 14764 14767 14770 14773 14776 14779 14782 14784 14787 14790 14792 14795 14798 14800 14803 14805 14808 14811 14814 14817 14820 14823 14826 14828 14831 14834 14837 14840 14843 14846 14849 14852 14855 14858 14861 14864 14867 14870 14873 14876 14879 14882 14885 14888 14891 14894 14896 14899 14902 14905 14908 14911 14914 14917 14920 14923 14926 14929 14932 14935 14937 14940 14943 14946 14949 14952 14955 14957 14960 14963 14966 14969 14972 14975 14978 14981 14984 14987 14990 14993 14996 14999 15002 15005 15008 15011 15014 15017 15020 15023 15026 15029 15032 15035 15038 15040 15043 15046 15049 15052 15055 15058 15061 15063 15066 15069 15072 15075 15078 15081 15084 15087 15090 15092 15095 15098 15101 15104 15106 15108 15110 15113 15116 15119 15122 15124 15127 15130 15132 15135 15138 15141 15144 15147 15150 15153 15156 15158 15161 15164 15166 15169 15172 15175 15177 15180 15183 15186 15188 15191 15194 15197 15199 15202 15205 15208 15211 15214 15217 15220 15223 15226 15229 15232 15235 15238 15241 15243 15246 15249 15252 15254 15257 15260 15262 15265 15268 15271 15274 15277 15280 15283 15286 15289 15292 15295 15298 15301 15304 15307 15310 15313 15315 15318 15320 15323 15326 15329 15332 15335 15338 15341 15344 15347 15349 15352 15354 15356 15359 15362 15365 15368 15371 15374 15377 15379 15382 15385 15387 15390 15392 15395 15398 15401 15404 15407 15410 15413 15416 15419 15422 15425 15428 15431 15434 15437 15439 15442 15445 15448 15451 15453 15456 15459 15462 15465 15468 15470 15472 15475 15478 15480 15483 15486 15489 15492 15494 15497 15500 15503 15506 15509 15512 15515 15518 15521 15524 15526 15529 15531 15534 15537 15540 15543 15545 15548 15551 15554 15557 15560 15563 15566 15569 15572 15575 15577 15580 15583 15586 15589 15591 15594 15597 15600 15603 15605 15608 15611 15614 15616 15618 15621 15623 15626 15629 15632 15635 15638 15641 15644 15646 15649 15651 15654 15657 15659 15661 15664 15666 15669 15672 15675 15678 15681 15684 15686 15689 15692 15695 15698 15701 15703 15706 15709 15712 15715 15718 15721 15724 15726 15729 15732 15735 15738 15741 15744 15747 15750 15753 15756 15759 15762 15765 15768 15771 15774 15776 15779 15782 15785 15788 15791 15794 15797 15800 15803 15806 15809 15812 15815 15818 15821 15824 15827 15830 15833 15835 15838 15841 15844 15847 15850 15853 15856 15859 15862 15865 15867 15870 15872 15875 15878 15881 15884 15887 15889 15892 15895 15897 15900 15903 15906 15909 15912 15915 15918 15921 15924 15926 15929 15932 15934 15937 15940 15943 15946 15949 15952 15954 15957 15960 15962 15964 15967 15970 15973 15976 15979 15981 15984 15987 15990 15993 15995 15998 16001 16004 16007 16010 16013 16016 16019 16022 16025 16028 16031 16034 16037 16040 16043 16046 16049 16052 16055 16058 16061 16064 16067 16070 16073 16076 16078 16081 16084 16087 16090 16093 16096 16099 16102 16105 16108 16111 16113 16116 16119 16122 16125 16128 16131 16134 16137 16140 16143 16146 16149 16152 16155 16158 16161 16164 16167 16170 16173 16176 16179 16182 16185 16188 16190 16193 16196 16199 16201 16204 16207 16210 16213 16216 16219 16222 16225 16228 16231 16234 16237 16240 16243 16246 16249 16252 16255 16258 16261 16263 16266 16269 16272 16275 16278 16281 16284 16287 16290 16293 16296 16299 16302 16305 16308 16311 16314 16317 16320 16323 16326 16329 16332 16335 16338 16341 16344 16346 16349 16352 16354 16357 16360 16363 16366 16369 16372 16375 16378 16381 16384 16387 16390 16392 16395 16398 16401 16404 16406 16408 16410 16413 16416 16419 16422 16425 16428 16431 16433 16436 16439 16442 16444 16447 16450 16453 16456 16459 16462 16465 16468 16470 16473 16476 16479 16482 16484 16487 16490 16492 16494 16497 16500 16503 16506 16508 16510 16513 16516 16518 16521 16523 16526 16529 16532 16535 16538 16541 16544 16547 16549 16552 16555 16558 16561 16564 16566 16568 16571 16573 16576 16578 16581 16583 16585 16587 16590 16593 16596 16599 16601 16604 16606 16609 16611 16614 16617 16620 16623 16626 16629 16631 16634 16637 16640 16643 16646 16649 16652 16654 16657 16659 16661 16664 16666 16669 16671 16674 16676 16679 16682 16685 16688 16691 16693 16696 16699 16701 16704 16707 16710 16713 16716 16718 16721 16724 16727 16730 16732 16734 16737 16740 16743 16746 16749 16752 16755 16758 16761 16764 16767 16770 16773 16776 16779 16782 16785 16788 16791 16793 16796 16798 16801 16804 16807 16809 16812 16815 16818 16820 16823 16826 16829 16832 16835 16837 16839 16842 16845 16848 16850 16853 16855 16858 16861 16864 16866 16868 16871 16874 16876 16878 16881 16883 16885 16887 16890 16892 16895 16898 16901 16903 16905 16908 16911 16914 16917 16920 16923 16926 16929 16932 16935 16938 16940 16942 16945 16948 16950 16953 16956 16959 16962 16965 16968 16971 16974 16977 16980 16983 16986 16989 16991 16994 16997 17000 17003 17006 17009 17012 17015 17017 17019 17022 17025 17028 17030 17033 17036 17038 17041 17044 17047 17050 17053 17055 17057 17060 17062 17065 17068 17071 17074 17077 17080 17083 17086 17089 17092 17095 17098 17101 17104 17107 17110 17113 17116 17119 17122 17125 17128 17131 17134 17137 17140 17143 17146 17148 17151 17154 17157 17160 17163 17166 17169 17172 17175 17178 17181 17183 17185 17188 17191 17193 17196 17199 17202 17205 17208 17211 17214 17217 17220 17222 17225 17228 17230 17233 17236 17239 17242 17245 17247 17250 17253 17256 17259 17262 17265 17268 17271 17274 17277 17280 17282 17285 17288 17291 17294 17297 17299 17302 17305 17308 17310 17313 17316 17319 17322 17325 17328 17331 17334 17337 17339 17341 17344 17347 17350 17353 17356 17358 17361 17364 17367 17369 17371 17374 17377 17380 17383 17386 17389 17392 17395 17398 17401 17404 17407 17410 17413 17416 17419 17422 17425 17428 17431 17434 17437 17440 17443 17446 17449 17452 17455 17458 17461 17464 17467 17470 17473 17476 17479 17482 17485 17488 17491 17494 17497 17500 17503 17506 17509 17512 17515 17518 17521 17524 17527 17530 17532 17535 17538 17541 17544 17546 17549 17552 17555 17558 17561 17564 17567 17570 17573 17576 17579 17582 17585 17588 17591 17594 17597 17599 17602 17604 17607 17610 17613 17615 17618 17621 17624 17627 17630 17633 17636 17639 17642 17645 17648 17651 17654 17656 17659 17662 17665 17668 17671 17674 17677 17680 17683 17686 17689 17692 17695 17698 17701 17704 17707 17710 17713 17716 17719 17722 17724 17727 17729 17732 17735 17738 17740 17743 17746 17748 17751 17754 17756 17758 17760 17763 17766 17769 17772 17775 17778 17781 17783 17786 17789 17791 17794 17797 17800 17803 17806 17809 17812 17815 17818 17821 17824 17826 17829 17832 17835 17838 17841 17843 17846 17849 17852 17855 17858 17861 17864 17867 17870 17873 17876 17879 17881 17884 17887 17890 17893 17896 17899 17901 17904 17907 17910 17913 17916 17919 17922 17925 17928 17931 17934 17937 17940 17943 17946 17949 17952 17955 17958 17961 17964 17967 17970 17973 17976 17979 17981 17984 17986 17989 17992 17995 17998 18001 18004 18007 18010 18013 18016 18019 18022 18025 18028 18031 18034 18036 18039 18042 18045 18048 18050 18053 18056 18059 18062 18065 18067 18070 18073 18076 18078 18081 18084 18086 18089 18092 18095 18098 18101 18104 18107 18110 18112 18115 18118 18121 18124 18127 18130 18133 18136 18139 18142 18145 18148 18151 18154 18157 18160 18163 18166 18169 18172 18175 18178 18181 18184 18186 18189 18192 18195 18198 18201 18204 18207 18210 18213 18215 18218 18220 18223 18226 18229 18232 18235 18238 18241 18244 18247 18249 18252 18255 18258 18261 18264 18267 18270 18273 18276 18279 18282 18285 18288 18290 18293 18296 18299 18301 18304 18307 18309 18312 18314 18317 18319 18321 18324 18327 18330 18332 18334 18337 18339 18342 18345 18348 18350 18353 18356 18359 18362 18365 18368 18371 18373 18376 18379 18382 18385 18388 18390 18393 18396 18399 18401 18403 18405 18408 18411 18414 18417 18420 18423 18425 18428 18431 18434 18437 18440 18443 18446 18449 18452 18455 18458 18460 18463 18465 18468 18471 18474 18476 18479 18482 18484 18487 18490 18493 18496 18499 18502 18505 18508 18511 18514 18517 18520 18523 18526 18529 18531 18534 18537 18540 18543 18546 18549 18552 18555 18558 18561 18564 18567 18570 18573 18576 18578 18581 18584 18587 18590 18593 18595 18598 18601 18604 18607 18609 18612 18615 18618 18621 18624 18627 18630 18633 18636 18638 18641 18644 18647 18649 18651 18654 18657 18659 18662 18665 18667 18670 18673 18675 18678 18681 18684 18687 18689 18692 18695 18697 18700 18703 18706 18709 18712 18715 18718 18721 18724 18727 18730 18732 18735 18738 18741 18744 18747 18750 18753 18756 18759 18762 18764 18767 18770 18773 18776 18779 18782 18785 18788 18791 18794 18797 18800 18803 18805 18808 18811 18814 18817 18820 18823 18825 18827 18830 18833 18836 18839 18841 18844 18847 18849 18852 18855 18857 18860 18863 18866 18869 18872 18875 18877 18879 18882 18885 18888 18890 18893 18896 18899 18902 18905 18908 18911 18913 18916 18919 18922 18925 18927 18930 18933 18936 18939 18942 18945 18948 18951 18954 18956 18959 18962 18965 18968 18970 18973 18976 18979 18982 18985 18988 18991 18994 18996 18999 19002 19005 19008 19011 19014 19017 19020 19023 19026 19029 19032 19035 19038 19041 19044 19047 19050 19053 19056 19059 19062 19065 19068 19070 19073 19076 19078 19081 19083 19086 19089 19092 19095 19098 19101 19104 19107 19110 19112 19115 19117 19120 19123 19126 19129 19132 19135 19138 19140 19143 19146 19149 19151 19154 19157 19159 19162 19165 19168 19170 19173 19175 19178 19181 19184 19186 19189 19192 19195 19198 19201 19203 19205 19208 19211 19214 19217 19220 19223 19226 19228 19231 19234 19236 19239 19242 19245 19248 19251 19254 19257 19260 19263 19266 19269 19272 19275 19278 19281 19284 19287 19290 19293 19296 19299 19302 19305 19308 19311 19314 19317 19320 19323 19326 19328 19330 19333 19336 19339 19342 19345 19347 19350 19352 19355 19358 19360 19363 19366 19369 19372 19375 19378 19381 19384 19387 19390 19393 19396 19399 19401 19404 19407 19410 19413 19415 19418 19421 19424 19427 19430 19433 19436 19439 19442 19445 19448 19451 19454 19457 19460 19463 19466 19469 19471 19474 19476 19479 19482 19484 19487 19490 19493 19496 19499 19502 19504 19507 19510 19513 19516 19519 19522 19525 19528 19531 19534 19537 19540 19543 19546 19549 19552 19555 19558 19561 19563 19566 19569 19572 19575 19577 19580 19583 19586 19589 19592 19595 19597 19600 19603 19606 19609 19611 19614 19617 19620 19623 19625 19627 19630 19633 19635 19638 19641 19644 19647 19649 19652 19654 19657 19659 19662 19664 19667 19670 19672 19675 19678 19681 19684 19686 19689 19692 19695 19697 19700 19703 19706 19709 19712 19715 19718 19720 19723 19726 19729 19732 19734 19737 19739 19742 19744 19747 19750 19753 19756 19759 19761 19764 19766 19769 19771 19774 19777 19780 19783 19786 19789 19792 19795 19798 19801 19804 19807 19810 19813 19816 19819 19822 19825 19828 19831 19834 19837 19840 19843 19846 19849 19852 19855 19857 19860 19863 19866 19869 19871 19874 19877 19880 19883 19886 19888 19891 19894 19897 19900 19903 19906 19908 19911 19914 19917 19920 19923 19926 19929 19932 19935 19938 19941 19944 19947 19950 19952 19955 19958 19961 19964 19967 19970 19972 19975 19978 19981 19984 19987 19990 19993 19995 19998 20001 20003 20006 20009 20011 20014 20017 20020 20023 20026 20029 20032 20035 20038 20041 20043 20046 20049 20052 20055 20058 20061 20064 20067 20070 20073 20076 20079 20082 20085 20088 20091 20094 20097 20100 20103 20106 20109 20112 20115 20118 20120 20123 20126 20128 20131 20134 20137 20139 20142 20145 20148 20151 20154 20157 20160 20163 20166 20169 20172 20175 20178 20181 20184 20187 20190 20193 20196 20199 20202 20204 20207 20210 20213 20215 20218 20221 20223 20226 20229 20232 20235 20238 20241 20244 20247 20250 20253 20256 20259 20262 20265 20268 20271 20274 20276 20279 20282 20284 20287 20290 20293 20296 20298 20301 20304 20307 20310 20313 20316 20319 20322 20325 20328 20331 20334 20337 20340 20342 20345 20348 20351 20354 20356 20359 20362 20365 20368 20371 20373 20376 20378 20381 20384 20387 20390 20393 20395 20398 20401 20404 20407 20409 20412 20415 20418 20421 20423 20426 20429 20432 20435 20438 20441 20444 20447 20449 20452 20455 20458 20461 20463 20466 20469 20472 20475 20477 20480 20483 20486 20489 20492 20495 20498 20501 20504 20507 20510 20513 20515 20518 20521 20524 20526 20529 20532 20535 20538 20540 20543 20546 20549 20552 20554 20557 20560 20563 20566 20569 20572 20575 20578 20581 20584 20587 20590 20592 20595 20598 20601 20604 20607 20610 20613 20616 20619 20622 20625 20628 20630 20633 20636 20639 20642 20645 20648 20651 20654 20657 20660 20663 20666 20669 20672 20675 20678 20681 20684 20687 20690 20693 20696 20699 20702 20705 20708 20711 20714 20717 20720 20723 20726 20729 20732 20735 20738 20741 20744 20747 20749 20752 20755 20758 20761 20764 20767 20770 20773 20775 20778 20780 20783 20786 20789 20792 20795 20798 20801 20804 20807 20810 20813 20816 20819 20822 20825 20828 20831 20834 20837 20840 20843 20846 20849 20852 20855 20858 20861 20864 20867 20870 20873 20876 20879 20882 20885 20888 20891 20894 20897 20900 20903 20906 20909 20912 20915 20918 20921 20924 20927 20930 20933 20936 20939 20942 20945 20948 20951 20954 20957 20960 20963 20966 20969 20972 20975 20978 20981 20984 20987 20990 20993 20996 20999 21002 21005 21008 21011 21014 21017 21020 21023 21026 21029 21032 21034 21037 21040 21043 21046 21049 21052 21055 21058 21061 21064 21067 21070 21073 21076 21079 21082 21085 21088 21091 21094 21097 21100 21103 21106 21109 21111 21114 21117 21120 21123 21126 21129 21132 21134 21137 21140 21143 21146 21148 21150 21153 21156 21158 21160 21163 21166 21169 21171 21174 21177 21179 21181 21184 21187 21190 21193 21196 21199 21202 21204 21207 21210 21212 21215 21218 21221 21224 21227 21229 21232 21235 21238 21241 21244 21247 21250 21253 21256 21259 21262 21265 21268 21271 21274 21277 21280 21283 21286 21289 21292 21295 21298 21301 21304 21307 21310 21313 21316 21319 21322 21325 21328 21331 21334 21337 21340 21343 21346 21349 21352 21355 21358 21361 21364 21367 21370 21373 21376 21379 21382 21385 21388 21391 21394 21397 21400 21403 21406 21409 21412 21415 21418 21421 21424 21427 21430 21433 21436 21439 21441 21444 21446 21449 21452 21455 21458 21461 21463 21465 21468 21471 21474 21477 21480 21483 21486 21489 21492 21495 21498 21501 21504 21507 21510 21513 21516 21519 21521 21524 21527 21529 21532 21535 21537 21540 21542 21545 21548 21550 21552 21554 21557 21560 21563 21566 21569 21571 21574 21577 21580 21583 21585 21588 21591 21594 21597 21599 21602 21605 21608 21611 21614 21616 21619 21621 21624 21627 21630 21633 21636 21638 21641 21644 21647 21649 21652 21655 21658 21661 21664 21667 21670 21673 21676 21679 21682 21685 21688 21691 21694 21697 21700 21703 21706 21709 21712 21714 21717 21720 21723 21726 21729 21732 21735 21738 21741 21744 21747 21750 21753 21756 21759 21762 21764 21767 21770 21772 21775 21778 21781 21784 21787 21790 21793 21795 21798 21801 21804 21807 21810 21813 21816 21819 21822 21825 21828 21831 21834 21837 21840 21843 21846 21848 21851 21854 21857 21860 21863 21865 21868 21871 21873 21876 21879 21882 21885 21888 21890 21893 21896 21899 21902 21905 21908 21911 21914 21917 21920 21922 21925 21928 21930 21933 21936 21939 21942 21945 21947 21949 21951 21953 21956 21959 21962 21965 21967 21970 21973 21976 21979 21982 21985 21987 21990 21993 21996 21999 22002 22005 22008 22011 22014 22017 22020 22023 22026 22028 22031 22034 22037 22040 22042 22044 22047 22050 22053 22056 22059 22062 22065 22068 22071 22074 22077 22080 22083 22085 22088 22091 22094 22097 22099 22101 22104 22107 22110 22112 22114 22117 22119 22122 22125 22128 22131 22133 22135 22138 22141 22144 22147 22150 22153 22156 22159 22162 22164 22167 22170 22173 22176 22179 22182 22185 22188 22191 22194 22197 22200 22203 22206 22209 22212 22215 22218 22221 22223 22226 22229 22232 22235 22238 22241 22244 22247 22250 22253 22256 22259 22262 22265 22268 22271 22274 22277 22280 22283 22286 22289 22292 22295 22298 22301 22304 22306 22309 22312 22315 22318 22321 22324 22327 22330 22333 22336 22338 22341 22343 22346 22349 22351 22354 22357 22360 22363 22366 22369 22372 22375 22378 22381 22384 22386 22389 22392 22394 22397 22399 22402 22405 22408 22411 22414 22417 22420 22423 22426 22429 22432 22434 22437 22440 22443 22446 22449 22452 22454 22457 22460 22463 22466 22468 22471 22474 22477 22480 22483 22486 22489 22492 22495 22498 22501 22503 22506 22509 22512 22515 22518 22521 22524 22527 22530 22533 22536 22539 22542 22545 22548 22551 22554 22556 22559 22562 22565 22568 22571 22574 22577 22579 22582 22585 22588 22591 22594 22597 22600 22603 22606 22608 22611 22614 22617 22620 22622 22624 22627 22630 22633 22636 22639 22642 22645 22648 22651 22654 22657 22660 22663 22666 22669 22672 22675 22678 22681 22684 22687 22690 22693 22696 22699 22702 22705 22708 22711 22714 22717 22720 22723 22726 22729 22732 22735 22738 22741 22744 22747 22750 22753 22756 22759 22762 22765 22768 22771 22774 22777 22780 22783 22786 22789 22792 22795 22798 22801 22804 22807 22810 22813 22816 22819 22822 22825 22828 22831 22834 22837 22840 22843 22846 22849 22852 22855 22858 22861 22864 22867 22870 22873 22876 22879 22881 22884 22886 22889 22892 22895 22898 22901 22904 22907 22910 22913 22916 22919 22921 22924 22927 22930 22932 22935 22938 22941 22944 22947 22950 22953 22956 22959 22962 22964 22967 22970 22973 22976 22979 22982 22985 22988 22991 22994 22997 23000 23003 23006 23009 23012 23015 23017 23020 23023 23025 23028 23031 23034 23037 23040 23042 23045 23047 23050 23052 23055 23058 23061 23064 23067 23070 23073 23076 23079 23082 23085 23088 23091 23094 23097 23100 23103 23106 23109 23112 23115 23118 23121 23124 23127 23130 23133 23136 23139 23142 23145 23148 23151 23154 23157 23160 23163 23166 23169 23172 23175 23178 23181 23183 23186 23189 23191 23194 23197 23200 23202 23205 23208 23211 23214 23217 23220 23223 23226 23229 23232 23235 23238 23241 23244 23247 23250 23253 23256 23259 23262 23265 23268 23271 23274 23277 23280 23283 23286 23289 23292 23295 23298 23301 23304 23307 23310 23313 23316 23319 23322 23325 23328 23331 23333 23336 23339 23342 23345 23347 23350 23353 23356 23359 23362 23365 23368 23371 23373 23376 23379 23382 23384 23387 23390 23393 23396 23399 23402 23405 23407 23410 23413 23416 23419 23422 23424 23427 23430 23433 23436 23439 23442 23445 23448 23451 23454 23457 23460 23463 23466 23469 23472 23474 23476 23479 23482 23485 23487 23490 23492 23495 23498 23501 23504 23507 23510 23513 23516 23519 23522 23525 23528 23531 23534 23536 23539 23542 23544 23546 23549 23552 23555 23558 23561 23564 23567 23570 23573 23576 23578 23581 23584 23586 23589 23592 23595 23598 23600 23603 23606 23608 23611 23614 23617 23620 23623 23626 23628 23631 23634 23637 23640 23643 23646 23648 23651 23654 23656 23659 23661 23664 23667 23670 23673 23676 23679 23682 23685 23688 23691 23694 23697 23700 23703 23706 23709 23712 23715 23717 23720 23723 23726 23729 23732 23735 23738 23741 23744 23747 23750 23752 23755 23758 23761 23764 23767 23770 23773 23776 23779 23782 23785 23787 23790 23793 23796 23799 23802 23804 23807 23810 23813 23816 23819 23822 23825 23828 23831 23834 23837 23840 23842 23845 23848 23851 23854 23857 23859 23862 23864 23867 23870 23873 23876 23879 23882 23885 23888 23891 23894 23897 23900 23903 23906 23909 23912 23915 23918 23921 23924 23927 23930 23932 23935 23938 23941 23944 23946 23949 23952 23955 23958 23961 23964 23967 23970 23973 23976 23979 23982 23985 23988 23991 23994 23997 24000 24003 24006 24009 24012 24015 24018 24021 24024 24027 24030 24033 24036 24039 24042 24045 24048 24051 24054 24057 24060 24063 24066 24069 24072 24075 24078 24081 24084 24087 24089 24092 24095 24098 24101 24104 24107 24110 24113 24116 24119 24122 24125 24128 24131 24134 24137 24139 24142 24145 24148 24151 24154 24157 24160 24163 24166 24169 24172 24175 24178 24181 24184 24186 24189 24192 24194 24197 24199 24202 24205 24208 24211 24214 24217 24219 24221 24224 24226 24229 24232 24235 24238 24241 24244 24247 24250 24253 24255 24258 24260 24263 24266 24269 24272 24275 24278 24281 24284 24287 24289 24291 24294 24296 24299 24302 24305 24308 24311 24314 24317 24319 24322 24324 24327 24330 24333 24336 24339 24342 24345 24348 24351 24354 24357 24360 24363 24366 24369 24372 24374 24377 24380 24382 24385 24388 24391 24394 24397 24399 24402 24405 24408 24411 24414 24417 24420 24423 24426 24429 24432 24435 24438 24441 24444 24447 24450 24453 24456 24459 24462 24464 24467 24470 24473 24476 24479 24482 24485 24488 24491 24494 24497 24500 24503 24506 24509 24512 24515 24518 24521 24523 24526 24529 24532 24535 24537 24540 24543 24546 24548 24551 24554 24557 24560 24563 24566 24569 24572 24575 24578 24581 24584 24586 24589 24592 24595 24598 24601 24604 24607 24610 24613 24616 24619 24622 24625 24628 24631 24634 24637 24640 24643 24646 24649 24651 24654 24657 24660 24663 24665 24668 24671 24674 24676 24679 24682 24685 24688 24691 24694 24697 24700 24703 24706 24709 24711 24714 24717 24720 24723 24725 24728 24731 24734 24737 24740 24743 24746 24748 24751 24754 24757 24760 24763 24766 24769 24772 24775 24778 24781 24784 24787 24790 24793 24795 24798 24801 24804 24807 24810 24813 24816 24818 24821 24824 24826 24829 24832 24834 24837 24840 24843 24845 24848 24851 24854 24857 24860 24862 24865 24868 24871 24873 24876 24879 24882 24885 24888 24891 24894 24897 24900 24903 24906 24909 24912 24914 24917 24920 24923 24926 24929 24932 24934 24937 24940 24943 24946 24948 24951 24954 24957 24960 24962 24964 24967 24969 24972 24974 24977 24980 24983 24986 24989 24992 24994 24997 25000 25003 25006 25009 25011 25014 25017 25020 25023 25026 25029 25031 25034 25037 25039 25042 25045 25048 25050 25052 25055 25058 25061 25064 25067 25070 25073 25075 25078 25081 25084 25087 25090 25092 25095 25098 25100 25103 25106 25109 25112 25114 25117 25119 25122 25125 25128 25131 25134 25136 25139 25142 25145 25147 25149 25152 25155 25158 25161 25164 25166 25169 25172 25175 25178 25180 25183 25185 25188 25191 25194 25196 25198 25201 25203 25205 25208 25211 25213 25216 25219 25221 25224 25226 25229 25232 25234 25237 25240 25243 25245 25248 25250 25252 25255 25257 25260 25263 25266 25269 25271 25274 25276 25279 25282 25284 25287 25289 25292 25295 25298 25301 25304 25307 25310 25313 25316 25319 25322 25324 25327 25330 25333 25335 25338 25341 25344 25347 25350 25352 25355 25358 25361 25364 25367 25369 25372 25375 25378 25381 25384 25387 25390 25393 25396 25398 25401 25404 25407 25409 25412 25415 25418 25421 25424 25427 25430 25433 25436 25439 25442 25445 25447 25450 25453 25456 25459 25462 25465 25468 25471 25474 25477 25479 25481 25484 25486 25489 25492 25495 25498 25500 25503 25505 25507 25510 25513 25516 25518 25521 25524 25526 25529 25531 25534 25537 25539 25542 25545 25547 25550 25553 25556 25559 25562 25564 25567 25570 25573 25575 25578 25580 25583 25586 25589 25592 25594 25597 25600 25603 25606 25609 25612 25614 25617 25620 25623 25626 25629 25632 25635 25638 25641 25643 25646 25649 25652 25655 25658 25661 25664 25667 25670 25673 25675 25678 25681 25684 25687 25689 25692 25695 25697 25700 25703 25706 25708 25711 25714 25717 25720 25723 25726 25728 25731 25734 25737 25740 25743 25746 25749 25752 25755 25758 25761 25764 25766 25769 25772 25775 25778 25780 25783 25786 25788 25790 25793 25795 25798 25801 25804 25807 25809 25812 25815 25818 25821 25824 25827 25830 25833 25836 25839 25842 25845 25848 25851 25854 25857 25860 25863 25866 25869 25872 25875 25878 25881 25884 25887 25890 25893 25895 25898 25901 25904 25907 25910 25913 25916 25919 25922 25924 25927 25930 25933 25935 25938 25941 25944 25947 25950 25953 25956 25959 25962 25965 25968 25971 25974 25977 25980 25983 25986 25988 25991 25994 25996 25998 26001 26004 26006 26009 26011 26014 26016 26019 26022 26025 26028 26031 26034 26037 26040 26043 26046 26049 26052 26055 26058 26061 26064 26067 26070 26073 26076 26079 26082 26085 26088 26091 26094 26097 26100 26103 26106 26109 26112 26115 26118 26120 26123 26126 26129 26132 26135 26138 26141 26144 26147 26150 26153 26156 26159 26162 26165 26168 26171 26173 26176 26179 26182 26185 26188 26191 26194 26196 26199 26202 26205 26208 26211 26214 26217 26220 26223 26226 26229 26231 26234 26237 26240 26243 26246 26249 26252 26255 26258 26261 26264 26267 26270 26273 26276 26279 26282 26285 26288 26291 26294 26297 26300 26303 26306 26309 26312 26315 26318 26321 26324 26327 26330 26333 26336 26339 26342 26345 26348 26351 26354 26357 26360 26363 26366 26369 26372 26375 26378 26381 26384 26387 26390 26393 26396 26399 26402 26405 26408 26411 26414 26417 26420 26423 26426 26429 26432 26435 26438 26441 26444 26447 26450 26453 26456 26459 26462 26465 26468 26470 26473 26476 26479 26481 26484 26486 26489 26492 26495 26498 26501 26504 26507 26510 26513 26516 26519 26521 26524 26527 26530 26533 26535 26538 26541 26544 26546 26549 26552 26555 26558 26561 26564 26567 26570 26573 26576 26579 26582 26585 26588 26591 26594 26597 26600 26603 26606 26609 26612 26615 26618 26621 26624 26627 26630 26633 26636 26639 26642 26645 26648 26651 26654 26657 26660 26663 26665 26668 26671 26674 26677 26680 26683 26686 26689 26692 26695 26698 26701 26704 26707 26710 26712 26714 26717 26720 26723 26726 26729 26732 26735 26738 26741 26744 26747 26750 26752 26754 26757 26760 26763 26766 26769 26772 26775 26778 26781 26784 26787 26790 26793 26795 26797 26800 26803 26806 26809 26812 26814 26817 26819 26821 26824 26826 26829 26831 26834 26836 26839 26841 26844 26847 26849 26852 26854 26857 26860 26863 26866 26869 26872 26875 26877 26879 26881 26884 26887 26890 26892 26895 26898 26901 26903 26906 26908 26910 26913 26916 26918 26921 26924 26927 26930 26933 26936 26939 26942 26945 26948 26951 26954 26957 26959 26962 26965 26968 26971 26973 26976 26978 26981 26983 26986 26989 26992 26994 26997 27000 27003 27006 27009 27012 27014 27017 27020 27023 27026 27028 27031 27034 27037 27039 27042 27045 27048 27051 27054 27057 27060 27063 27066 27069 27072 27075 27078 27081 27084 27086 27089 27092 27094 27097 27100 27103 27106 27109 27112 27115 27118 27121 27124 27126 27129 27132 27135 27137 27140 27142 27145 27148 27151 27154 27156 27159 27161 27164 27166 27168 27170 27173 27176 27179 27182 27184 27187 27190 27193 27195 27197 27199 27202 27204 27207 27210 27213 27216 27219 27222 27225 27228 27231 27234 27237 27240 27242 27245 27248 27251 27254 27257 27260 27262 27265 27268 27271 27274 27277 27280 27282 27285 27288 27291 27294 27297 27299 27302 27304 27307 27310 27313 27316 27319 27321 27323 27326 27329 27332 27334 27337 27340 27343 27345 27347 27350 27352 27355 27358 27360 27363 27366 27369 27372 27375 27378 27381 27384 27386 27389 27392 27395 27398 27401 27404 27406 27409 27412 27415 27418 27421 27424 27427 27430 27433 27436 27439 27442 27445 27448 27450 27452 27455 27458 27461 27464 27467 27470 27473 27476 27479 27482 27485 27488 27491 27494 27497 27500 27503 27506 27509 27512 27514 27517 27520 27523 27526 27528 27531 27533 27536 27539 27542 27544 27546 27549 27552 27554 27557 27560 27563 27566 27569 27572 27575 27578 27581 27584 27587 27590 27593 27596 27598 27601 27604 27607 27609 27612 27615 27618 27621 27624 27627 27630 27633 27636 27639 27642 27645 27648 27651 27654 27657 27660 27663 27666 27669 27672 27675 27678 27681 27684 27687 27690 27693 27696 27699 27702 27705 27708 27711 27714 27717 27720 27723 27726 27729 27732 27735 27738 27741 27744 27747 27750 27753 27755 27758 27761 27764 27767 27770 27773 27776 27779 27781 27784 27787 27790 27793 27796 27799 27802 27805 27807 27810 27813 27816 27818 27821 27824 27827 27829 27832 27834 27836 27839 27842 27845 27847 27850 27853 27856 27858 27861 27864 27867 27869 27872 27875 27877 27880 27882 27885 27887 27890 27893 27895 27898 27900 27903 27905 27908 27911 27914 27916 27919 27922 27924 27927 27930 27933 27936 27939 27942 27945 27948 27951 27954 27957 27960 27963 27966 27969 27972 27975 27978 27980 27983 27986 27989 27991 27994 27997 28000 28003 28006 28008 28011 28014 28016 28019 28022 28025 28028 28031 28034 28037 28040 28042 28045 28048 28050 28053 28055 28058 28061 28063 28066 28069 28072 28075 28078 28081 28084 28087 28090 28093 28096 28099 28102 28105 28108 28111 28114 28117 28120 28123 28126 28128 28131 28134 28137 28140 28143 28146 28149 28152 28155 28158 28161 28164 28167 28170 28173 28176 28179 28182 28185 28188 28191 28194 28197 28200 28203 28206 28209 28212 28214 28217 28220 28223 28226 28229 28232 28235 28237 28240 28243 28246 28249 28252 28255 28258 28261 28264 28267 28270 28272 28275 28278 28281 28283 28286 28289 28292 28295 28297 28300 28303 28306 28308 28311 28314 28317 28320 28322 28325 28328 28330 28333 28336 28339 28342 28345 28347 28350 28353 28356 28359 28362 28365 28368 28371 28374 28377 28380 28383 28385 28388 28391 28394 28397 28400 28402 28405 28408 28411 28414 28417 28420 28423 28426 28429 28432 28435 28438 28441 28444 28447 28450 28452 28455 28458 28461 28464 28467 28470 28473 28476 28479 28482 28485 28488 28491 28494 28497 28500 28503 28506 28509 28511 28514 28516 28518 28521 28524 28527 28530 28533 28536 28539 28542 28545 28548 28551 28553 28556 28558 28561 28564 28567 28570 28573 28576 28579 28582 28585 28588 28591 28594 28597 28600 28603 28606 28609 28611 28614 28617 28620 28623 28625 28628 28631 28634 28637 28640 28643 28646 28649 28652 28655 28657 28660 28663 28666 28669 28672 28675 28678 28680 28683 28686 28688 28691 28694 28697 28700 28702 28705 28707 28710 28713 28716 28719 28722 28725 28728 28731 28734 28737 28740 28743 28746 28749 28751 28754 28757 28760 28762 28765 28768 28770 28773 28776 28779 28782 28785 28788 28791 28793 28796 28799 28802 28805 28808 28811 28814 28817 28820 28823 28826 28829 28832 28835 28838 28841 28844 28847 28850 28853 28856 28859 28862 28865 28868 28871 28874 28877 28880 28883 28886 28889 28892 28895 28898 28901 28904 28907 28909 28911 28914 28917 28920 28923 28926 28929 28932 28935 28937 28940 28943 28946 28949 28952 28955 28958 28961 28964 28967 28970 28973 28976 28979 28982 28985 28988 28991 28994 28997 29000 29003 29006 29009 29012 29015 29018 29021 29024 29027 29030 29032 29035 29038 29040 29043 29046 29049 29051 29054 29056 29059 29061 29064 29067 29070 29073 29076 29079 29081 29084 29086 29089 29091 29094 29096 29099 29101 29104 29106 29109 29112 29115 29117 29120 29123 29125 29127 29130 29133 29135 29137 29139 29142 29144 29147 29150 29153 29155 29158 29160 29162 29165 29168 29170 29173 29176 29179 29182 29185 29188 29191 29193 29196 29198 29201 29203 29206 29209 29212 29215 29218 29221 29224 29227 29230 29233 29235 29238 29241 29244 29247 29250 29252 29254 29257 29260 29263 29266 29269 29272 29275 29278 29281 29284 29287 29290 29293 29296 29299 29302 29305 29308 29311 29314 29317 29320 29323 29326 29329 29332 29335 29338 29341 29344 29347 29350 29353 29356 29359 29362 29365 29367 29370 29373 29376 29378 29381 29384 29387 29390 29393 29396 29399 29402 29405 29408 29411 29414 29417 29420 29423 29425 29428 29431 29434 29436 29439 29442 29445 29448 29451 29454 29457 29460 29463 29466 29469 29472 29475 29477 29479 29482 29485 29488 29490 29493 29495 29498 29501 29504 29507 29510 29513 29516 29519 29522 29525 29528 29531 29534 29537 29540 29542 29545 29548 29551 29553 29556 29559 29562 29565 29567 29570 29572 29575 29578 29581 29584 29587 29590 29593 29595 29598 29601 29603 29605 29608 29611 29614 29617 29620 29623 29626 29629 29632 29635 29638 29641 29643 29646 29649 29652 29655 29657 29660 29663 29666 29669 29672 29675 29678 29681 29684 29687 29690 29693 29696 29699 29702 29705 29708 29711 29714 29717 29720 29723 29726 29728 29731 29734 29737 29740 29743 29746 29749 29752 29755 29758 29761 29764 29767 29770 29773 29776 29779 29782 29785 29788 29791 29794 29797 29800 29803 29805 29808 29810 29813 29816 29819 29821 29824 29827 29830 29832 29834 29837 29840 29842 29845 29848 29850 29853 29856 29859 29862 29865 29868 29871 29874 29877 29880 29883 29886 29889 29892 29895 29898 29901 29903 29906 29909 29912 29915 29918 29921 29924 29926 29929 29932 29935 29938 29941 29944 29947 29950 29953 29956 29959 29962 29964 29967 29970 29973 29976 29979 29982 29985 29988 29991 29994 29997 30000 30003 30006 30009 30012 30015 30018 30021 30024 30027 30030 30033 30035 30037 30040 30043 30046 30049 30052 30055 30058 30060 30063 30066 30069 30072 30075 30078 30081 30084 30087 30090 30093 30096 30099 30102 30105 30108 30111 30114 30117 30120 30123 30126 30129 30132 30135 30138 30141 30144 30147 30150 30153 30156 30159 30162 30165 30168 30171 30174 30177 30180 30183 30186 30189 30192 30195 30198 30201 30204 30207 30210 30213 30216 30219 30222 30225 30228 30231 30234 30237 30240 30243 30246 30249 30252 30255 30258 30261 30264 30267 30270 30273 30276 30279 30282 30285 30288 30291 30294 30297 30300 30303 30306 30308 30311 30314 30316 30319 30322 30325 30328 30331 30334 30337 30340 30343 30346 30349 30352 30355 30358 30361 30364 30367 30370 30373 30376 30379 30382 30385 30388 30391 30394 30397 30400 30403 30406 30409 30412 30415 30417 30420 30423 30426 30429 30432 30435 30438 30441 30444 30447 30450 30453 30456 30459 30461 30463 30466 30469 30472 30475 30478 30481 30484 30487 30490 30492 30495 30498 30501 30503 30506 30509 30512 30515 30518 30521 30524 30527 30530 30533 30536 30539 30542 30545 30548 30551 30554 30557 30560 30563 30566 30569 30572 30575 30578 30581 30584 30587 30589 30592 30595 30598 30601 30604 30607 30610 30613 30616 30619 30622 30625 30628 30631 30634 30637 30639 30642 30645 30648 30651 30654 30657 30660 30662 30665 30668 30671 30673 30676 30679 30682 30685 30688 30691 30694 30697 30700 30703 30706 30709 30712 30715 30718 30720 30723 30726 30729 30732 30735 30738 30740 30743 30746 30749 30751 30754 30757 30760 30763 30766 30769 30772 30775 30777 30780 30783 30786 30788 30791 30793 30796 30799 30802 30805 30808 30811 30814 30817 30820 30823 30826 30829 30832 30835 30838 30841 30844 30847 30850 30853 30856 30859 30862 30865 30868 30871 30874 30877 30880 30883 30886 30889 30892 30895 30898 30901 30904 30907 30910 30913 30916 30919 30922 30925 30928 30931 30934 30937 30940 30943 30946 30949 30952 30955 30958 30961 30964 30967 30970 30973 30976 30978 30981 30984 30987 30990 30993 30995 30998 31001 31004 31007 31010 31013 31016 31019 31022 31025 31028 31031 31034 31037 31040 31043 31046 31049 31051 31054 31057 31060 31063 31066 31069 31072 31074 31077 31080 31082 31085 31088 31091 31094 31097 31100 31103 31106 31109 31112 31115 31117 31120 31122 31124 31127 31130 31132 31135 31138 31140 31143 31146 31149 31151 31153 31155 31158 31161 31164 31167 31169 31172 31174 31176 31179 31182 31185 31187 31190 31192 31195 31198 31201 31203 31206 31209 31212 31215 31218 31221 31223 31226 31229 31232 31235 31237 31240 31242 31244 31246 31249 31252 31255 31257 31259 31262 31265 31268 31270 31273 31276 31279 31281 31284 31286 31288 31291 31294 31296 31298 31301 31303 31306 31309 31312 31314 31317 31320 31323 31325 31327 31329 31332 31334 31336 31339 31342 31345 31347 31350 31353 31356 31358 31361 31363 31366 31369 31372 31374 31377 31380 31382 31384 31387 31389 31392 31395 31397 31400 31402 31405 31408 31411 31414 31416 31419 31422 31425 31427 31430 31433 31436 31439 31442 31445 31448 31451 31454 31457 31460 31463 31466 31469 31472 31475 31478 31481 31484 31487 31490 31493 31496 31499 31501 31504 31507 31509 31512 31514 31516 31519 31521 31523 31526 31529 31532 31535 31537 31540 31543 31546 31549 31552 31555 31558 31561 31563 31566 31569 31572 31575 31578 31581 31583 31586 31588 31591 31594 31597 31600 31603 31606 31609 31611 31614 31617 31619 31622 31625 31628 31630 31633 31635 31638 31641 31644 31647 31649 31652 31654 
</DataArray>
<DataArray type="UInt32" Name="types" format="ascii">
5 3 5 5 5 3 5 5 5 5 5 3 5 5 5 3 5 5 5 5 5 3 5 5 3 5 5 5 5 5 5 5 5 5 5 5 5 5 5 5 5 3 5 5 5 5 5 5 5 5 5 5 5 5 5 5 5 5 5 3 5 5 5 5 5 5 5 5 5 5 5 5 3 5 5 5 5 5 3 5 3 5 5 5 5 5 5 3 5 5 5 5 5 5 5 5 5 5 5 5 5 5 5 5 5 5 5 5 5 5 5 5 5 5 5 5 3 5 5 3 5 3 5 5 5 5 5 5 5 5 3 5 5 3 5 5 5 5 5 5 5 3 5 5 3 5 5 5 5 5 5 5 5 3 5 5 5 5 3 5 5 3 5 5 5 5 5 3 5 5 5 5 5 5 5 5 5 3 5 3 5 5 5 5 5 5 5 3 5 5 3 3 5 5 5 5 3 5 5 5 5 5 3 5 5 5 5 5 5 3 5 5 5 3 5 5 5 5 5 5 5 5 5 5 5 5 5 5 5 5 5 5 5 5 5 5 3 5 5 3 5 5 5 5 5 5 5 5 5 5 5 5 5 5 5 5 5 5 3 5 5 5 5 5 5 5 5 5 5 3 5 5 5 5 5 5 5 3 3 3 5 5 5 5 5 5 5 5 5 3 5 5 5 5 5 5 5 3 5 5 5 3 5 5 3 5 5 5 5 5 5 5 5 5 5 5 5 5 5 5 3 5 5 5 3 5 5 5 5 5 5 5 5 5 5 5 5 5 5 5 5 5 5 5 5 5 5 5 5 5 5 5 3 5 5 3 5 5 5 5 5 5 5 5 5 5 3 5 5 5 3 5 5 5 5 5 5 5 3 5 5 5 5 3 5 3 5 5 5 5 5 3 5 5 5 5 5 5 5 5 5 5 5 3 5 3 5 3 3 5 3 5 5 3 5 5 5 5 5 5 5 5 5 5 5 5 5 5 5 3 5 5 5 5 5 5 5 3 3 5 5 5 5 5 5 5 5 5 5 5 5 5 5 5 3 5 5 5 3 5 3 3 5 5 5 5 3 5 3 5 5 5 5 5 5 5 5 5 5 3 5 5 5 3 5 5 5 5 5 5 5 5 5 3 5 3 5 3 5 5 3 3 5 5 5 5 3 5 5 5 5 3 3 5 5 5 5 5 5 3 5 5 5 5 5 5 5 5 5 5 3 5 5 5 3 5 3 5 5 5 3 5 5 3 5 5 3 3 5 5 5 5 5 5 5 5 5 5 5 5 5 5 5 5 5 5 5 3 5 5 5 5 3 3 5 5 3 5 5 5 5 3 5 5 5 3 5 5 5 5 5 5 3 5 5 5 5 5 5 5 3 5 5 3 5 3 5 5 5 5 5 5 5 5 5 5 5 3 3 5 5 5 5 5 5 5 5 5 3 5 5 5 5 5 5 5 5 5 5 5 5 5 5 5 5 5 5 5 5 5 5 5 5 5 5 5 5 5 5 5 5 3 5 5 5 5 3 5 5 5 5 5 5 5 5 5 5 5 3 5 3 5 5 5 5 5 3 5 5 5 5 5 5 5 5 5 5 5 5 5 5 5 5 5 5 5 5 5 5 5 5 5 5 5 5 5 5 5 5 5 5 5 5 5 5 5 5 5 5 5 5 5 5 5 3 5 5 5 5 5 5 5 5 5 5 5 5 5 5 5 5 5 5 5 5 5 5 5 5 5 5 5 5 3 5 5 5 5 5 5 5 5 5 5 5 5 5 5 5 5 5 3 5 5 5 5 5 5 5 5 5 5 5 5 5 5 5 5 5 5 5 5 5 5 5 5 5 5 5 5 5 5 5 5 5 5 5 5 3 5 5 3 5 5 5 5 5 5 5 5 5 5 5 5 5 5 5 5 3 5 5 5 5 3 3 5 5 3 5 5 5 5 5 5 5 5 5 3 3 5 5 5 5 3 5 5 5 5 3 5 5 5 3 5 5 5 5 5 5 5 5 5 3 5 5 5 5 5 5 5 5 5 5 5 5 5 5 5 5 5 5 5 5 5 5 5 5 3 5 5 5 5 5 5 5 5 3 5 5 5 5 3 5 5 5 5 3 3 5 5 5 5 5 5 5 5 5 5 3 5 5 5 5 5 5 5 5 5 3 5 5 3 5 3 5 5 3 5 5 5 3 5 5 5 5 5 5 5 5 5 5 5 3 5 5 5 5 5 3 3 5 5 5 5 3 5 5 5 3 5 5 5 5 5 5 3 5 5 5 5 5 3 5 5 5 5 3 5 5 3 5 3 3 5 3 5 5 5 5 3 5 3 5 5 5 5 5 5 5 5 3 5 5 5 3 5 5 5 5 5 5 3 5 5 5 5 5 5 3 3 5 5 5 5 5 5 3 5 5 5 5 3 5 5 5 5 5 5 5 5 5 3 5 5 5 5 5 5 3 5 3 5 5 5 5 3 5 5 3 5 5 3 5 3 5 5 5 5 5 5 5 5 3 5 3 5 5 5 5 5 5 5 5 5 5 3 5 5 5 5 5 5 5 5 5 3 5 5 5 5 3 3 5 5 3 5 5 5 5 5 5 5 5 5 5 5 5 5 5 3 5 3 5 5 5 5 5 5 5 5 5 3 5 5 5 5 5 5 5 5 5 5 5 5 5 5 5 5 5 5 5 5 5 5 5 5 5 5 5 5 5 5 5 5 5 5 5 5 5 5 5 5 5 5 5 5 5 5 5 5 5 5 5 5 5 3 5 3 5 5 5 3 5 5 3 3 5 5 5 5 5 5 5 5 5 3 5 5 5 5 5 5 5 5 5 5 5 5 5 5 5 5 5 5 5 5 5 5 5 5 5 5 5 5 5 5 5 3 5 5 5 5 3 5 5 5 5 5 5 5 3 5 5 5 5 5 5 5 3 5 5 5 5 5 5 3 5 3 5 3 5 5 5 5 5 5 5 5 3 5 5 5 5 5 5 3 5 5 3 5 5 5 5 5 5 5 5 5 5 5 5 5 3 5 3 5 5 5 5 5 5 3 5 5 5 5 3 5 5 5 5 5 3 3 5 3 5 5 5 3 5 5 5 5 5 5 5 5 5 5 5 5 5 5 5 5 5 3 5 5 5 5 5 5 5 5 5 5 5 5 5 5 5 5 5 3 5 5 5 5 5 5 3 5 3 5 5 3 5 5 5 5 5 3 5 5 3 5 3 3 3 5 5 5 5 5 5 5 5 5 3 5 5 5 3 5 5 5 5 3 5 5 5 5 5 5 5 5 5 5 5 5 5 5 5 5 5 5 5 3 5 5 5 5 3 5 5 5 5 5 5 5 5 3 5 5 5 5 5 3 5 5 5 5 5 5 5 5 5 5 5 5 5 5 5 5 5 5 5 3 5 5 3 3 3 5 5 3 3 5 5 5 5 3 5 5 5 5 5 5 5 5 3 3 5 3 5 3 5 5 5 5 5 5 5 5 3 5 5 5 5 5 5 3 5 5 5 5 5 5 5 3 5 5 5 5 5 5 5 5 5 5 5 3 5 5 5 5 5 5 5 5 5 5 5 5 5 5 5 5 5 5 5 5 5 5 3 5 5 5 5 3 5 5 5 3 5 3 5 5 5 5 5 3 5 5 5 5 5 5 5 5 5 5 5 5 5 5 5 5 5 5 5 5 5 5 5 5 5 5 3 5 5 5 5 5 5 5 5 5 3 3 5 3 5 5 5 3 5 5 3 5 5 3 5 5 5 3 5 5 5 3 5 3 5 5 5 5 5 5 5 5 5 5 5 5 3 5 5 5 5 5 5 5 5 5 5 5 5 5 5 5 5 5 3 5 5 5 3 5 5 5 3 5 5 5 5 5 5 5 3 5 5 5 5 3 5 5 5 5 5 5 5 5 3 5 5 5 5 5 5 5 5 5 5 5 5 5 5 5 5 5 5 5 5 5 5 5 5 5 5 5 5 5 5 5 5 5 3 5 5 5 5 5 5 5 5 5 5 5 5 5 5 3 5 3 5 5 5 3 5 5 5 5 5 3 5 5 5 5 5 5 5 5 3 5 5 3 5 5 5 5 5 5 5 5 5 5 5 5 3 5 5 3 5 3 5 5 5 5 3 5 5 3 5 5 5 5 5 5 5 5 5 5 5 3 5 3 5 5 3 3 5 3 5 5 5 5 3 5 5 5 5 5 5 5 5 5 5 5 3 5 5 3 5 3 5 5 5 5 5 5 5 5 5 5 3 5 5 5 5 5 5 5 5 5 5 5 5 5 5 5 5 5 5 5 5 5 5 5 5 5 5 5 5 5 5 5 5 5 5 5 3 5 5 5 5 5 5 3 5 5 5 5 3 5 5 5 5 3 5 5 5 5 5 5 5 5 5 3 5 5 5 5 5 3 3 5 5 5 3 5 3 5 5 5 5 5 5 5 5 5 3 5 3 5 5 5 5 5 3 5 3 5 5 5 5 5 5 5 3 5 5 5 5 5 5 5 5 5 5 5 5 5 5 5 5 5 5 5 5 5 3 3 3 5 5 5 5 3 5 5 5 5 5 5 5 5 5 5 5 5 5 5 5 5 5 5 5 5 5 5 5 5 5 5 5 5 5 5 5 5 5 5 5 3 5 5 5 5 5 5 5 5 5 5 5 5 5 5 5 5 5 5 3 5 5 5 3 5 5 5 5 5 5 5 5 5 3 5 5 5 5 5 5 5 5 5 5 5 5 5 5 5 5 5 3 5 3 5 5 5 5 5 5 5 5 5 5 5 5 5 3 5 5 5 5 5 5 5 3 5 5 5 5 5 5 3 5 5 5 5 5 5 5 5 5 5 5 3 5 5 5 5 5 3 5 5 5 5 5 5 3 5 5 5 5 5 3 5 3 5 5 5 5 5 5 5 5 5 5 5 5 5 5 5 3 5 5 5 5 5 5 5 5 5 5 3 3 5 5 3 5 5 3 5 3 5 5 5 5 5 5 5 5 5 3 3 5 5 5 5 5 3 5 5 5 5 5 5 5 3 5 5 5 5 5 5 5 5 5 5 5 5 5 5 5 5 5 5 5 5 5 5 5 5 5 5 5 5 5 5 5 5 5 5 5 5 5 5 5 5 5 5 5 5 3 5 5 3 5 5 5 5 5 5 5 3 5 5 5 3 5 5 3 5 5 3 3 5 5 3 5 5 5 5 5 5 5 5 5 5 5 5 5 5 5 3 5 5 5 5 5 5 5 5 5 5 5 5 5 3 5 5 5 5 5 5 5 5 5 5 5 5 5 5 5 5 5 5 5 5 5 5 5 5 5 5 3 5 5 5 5 5 5 5 5 5 5 5 5 3 5 5 5 5 5 5 5 5 5 5 5 3 5 5 5 3 5 5 5 5 5 5 3 5 5 5 5 5 5 5 5 5 5 5 5 5 5 5 5 5 5 5 5 5 5 5 5 5 3 5 3 5 5 5 5 3 5 5 3 5 5 5 5 5 5 5 5 5 5 5 5 5 5 5 5 5 5 5 5 5 5 5 5 5 5 5 5 3 5 5 5 5 5 5 5 5 5 5 5 5 5 5 5 5 5 5 3 5 5 5 5 3 5 3 5 5 5 5 5 5 5 5 5 5 5 5 5 5 5 5 5 5 5 5 5 5 5 5 5 5 5 5 5 3 5 5 5 5 5 5 5 3 5 5 5 5 5 5 5 3 5 5 5 3 5 5 5 5 5 5 5 3 5 5 5 3 3 3 5 5 3 5 5 5 3 5 5 5 5 5 5 5 5 5 3 3 5 5 5 5 5 5 5 5 5 5 5 5 3 5 5 5 5 5 5 3 5 5 5 5 5 5 5 5 5 5 5 5 5 5 5 5 5 3 5 5 5 5 3 5 5 5 5 3 5 5 5 5 5 5 5 5 5 5 5 5 5 5 5 5 5 5 5 5 5 5 5 5 5 3 5 5 5 5 5 5 5 5 3 5 5 5 5 5 5 5 5 5 5 5 3 5 5 5 5 5 5 5 5 5 5 5 5 5 5 5 3 5 5 5 5 5 3 5 5 5 5 5 5 5 5 5 5 5 5 5 3 5 5 5 5 3 5 5 3 5 5 5 5 5 5 5 5 5 5 5 5 5 5 5 5 5 5 5 5 5 5 5 5 5 5 5 5 5 5 5 5 3 5 3 5 5 5 5 5 5 5 5 3 5 5 5 5 5 5 5 5 5 5 5 3 5 3 5 5 5 5 3 5 5 5 5 5 5 5 5 5 5 5 5 3 5 5 5 5 5 5 5 5 5 3 5 5 3 5 5 5 5 3 5 3 5 5 5 5 5 5 5 5 5 5 5 5 5 5 5 5 5 5 5 5 5 3 5 5 5 5 5 5 5 3 5 3 5 5 5 5 3 3 5 5 5 5 5 3 3 5 5 5 5 3 5 5 3 3 5 3 3 3 5 5 5 5 5 5 5 5 3 3 5 5 5 5 3 3 5 5 5 5 5 5 5 5 5 3 5 5 5 5 5 5 3 5 5 5 5 5 5 5 5 3 5 5 5 5 5 5 3 5 5 3 3 5 5 3 5 3 5 3 5 5 5 3 5 3 5 5 3 3 3 5 5 5 5 3 5 3 3 5 3 3 5 5 3 5 5 5 3 5 5 5 5 5 3 5 5 5 3 3 5 5 5 3 5 5 5 5 5 3 5 5 5 5 5 5 5 5 5 5 5 5 5 5 5 5 5 3 5 5 5 5 5 5 3 5 5 5 3 5 5 5 5 5 5 3 5 3 5 5 5 5 5 5 5 5 5 5 5 5 5 5 5 5 5 5 5 5 5 5 5 3 5 5 5 3 5 5 5 5 5 5 5 5 5 5 5 5 5 5 5 5 5 5 3 5 5 5 5 5 5 5 5 5 5 5 5 5 5 5 5 5 5 5 5 5 5 3 5 5 5 5 5 5 5 5 5 5 5 5 3 5 3 5 5 5 5 5 3 5 5 5 3 5 5 3 5 3 5 5 3 3 5 5 5 5 5 5 5 5 5 5 5 5 5 5 5 5 5 3 3 5 5 5 5 5 5 5 5 5 5 5 5 5 5 5 5 5 5 5 5 5 5 3 5 3 5 5 5 3 5 5 5 3 5 5 5 5 5 5 5 5 5 3 5 5 5 3 5 5 5 5 5 5 5 5 5 3 5 5 5 5 5 5 5 5 5 5 5 5 5 5 5 5 5 5 5 5 5 5 5 5 5 5 5 5 5 5 5 5 5 5 5 5 5 5 5 5 5 5 5 5 5 3 5 5 5 5 3 3 5 5 3 3 5 5 5 5 3 5 5 5 5 5 5 5 5 5 3 5 5 5 5 3 5 5 5 5 3 5 5 5 3 3 5 5 5 5 5 5 5 5 3 5 5 5 5 5 5 3 5 5 5 5 5 5 3 5 5 5 5 3 5 3 5 3 5 5 5 3 3 5 5 5 5 3 5 3 5 5 5 5 3 3 5 3 5 5 5 5 5 3 5 5 3 3 3 3 5 5 5 3 5 3 3 5 5 5 5 5 5 5 5 5 5 5 5 5 5 5 5 5 5 5 5 3 5 5 5 5 5 3 5 5 3 5 3 5 5 5 5 5 5 5 5 5 3 5 5 3 5 3 5 5 3 3 5 3 5 5 5 3 5 3 5 5 3 5 5 3 5 5 5 5 5 5 5 5 5 5 5 5 5 5 5 5 5 5 5 5 5 5 5 5 5 5 5 3 5 5 5 3 5 5 3 5 5 5 5 5 5 5 5 5 5 5 5 5 5 5 5 5 5 5 5 5 5 3 5 5 3 5 5 3 5 5 5 3 5 5 5 5 5 5 5 5 5 5 5 5 5 5 3 5 5 3 5 5 5 3 5 5 5 5 5 5 5 5 3 5 5 5 5 3 5 5 5 5 5 5 5 5 5 5 5 5 5 5 5 5 3 5 5 5 3 5 5 5 5 5 5 5 5 5 5 5 5 5 5 5 5 5 5 5 5 5 5 5 5 5 5 5 5 5 5 5 5 5 5 5 5 5 5 5 5 5 5 5 5 5 5 5 5 5 5 5 3 5 5 3 5 5 5 5 5 5 5 5 5 5 5 5 5 5 5 5 5 5 5 3 5 3 3 3 5 5 5 5 5 5 5 5 5 5 5 5 5 5 5 5 5 3 3 5 5 5 3 5 5 5 5 3 3 5 3 5 5 5 3 5 5 5 5 3 5 5 5 5 5 3 5 5 3 3 5 5 3 5 3 5 5 3 5 5 5 5 5 5 5 5 5 3 5 5 5 5 3 5 5 5 5 5 5 5 5 5 5 5 3 5 5 5 5 5 5 5 5 5 3 5 5 5 5 5 5 5 5 3 5 5 3 5 5 5 5 5 5 5 5 5 5 5 5 5 5 5 5 5 5 3 5 5 5 5 5 5 5 5 5 5 5 3 5 5 5 5 5 5 5 3 5 5 3 5 5 5 5 3 5 5 5 5 3 5 5 5 5 3 5 3 5 5 5 5 3 5 5 5 3 5 5 5 5 5 5 5 5 5 5 5 5 5 5 5 5 5 5 5 5 5 5 5 5 5 5 5 5 5 3 5 3 5 3 3 5 5 5 3 5 5 5 5 3 5 3 5 5 5 3 5 5 5 5 5 5 5 5 3 5 5 5 5 5 5 5 5 5 5 5 5 5 5 3 5 3 5 5 5 5 5 3 5 5 5 3 5 5 5 5 3 5 5 5 5 5 5 5 5 3 5 5 3 5 5 5 5 3 5 5 5 5 5 5 3 5 5 5 5 5 3 5 3 3 5 5 5 5 5 5 5 5 5 5 5 3 5 5 5 5 5 5 5 3 5 5 5 5 5 5 5 5 5 5 5 5 5 5 5 5 5 5 5 5 5 5 5 5 5 5 5 5 5 3 5 5 5 5 3 5 5 5 5 3 5 5 5 5 5 5 5 5 5 5 5 5 3 5 5 5 5 5 5 5 5 5 5 5 5 5 5 5 5 5 5 5 5 5 5 5 5 5 5 5 5 5 5 5 5 5 5 5 3 5 5 5 3 5 5 5 5 5 5 5 5 5 5 5 5 5 3 5 5 5 5 5 5 5 5 3 3 5 3 5 5 5 5 5 3 5 5 5 5 5 3 5 5 3 5 5 5 3 5 5 3 5 5 5 5 5 3 3 5 5 5 5 5 5 5 5 5 5 5 5 5 5 3 5 5 5 5 5 3 5 3 5 5 3 5 3 3 3 5 5 5 3 5 5 5 5 5 5 5 5 3 3 5 3 5 3 5 5 5 5 5 5 5 5 5 5 5 5 5 5 5 5 5 5 5 5 5 5 5 5 5 5 5 5 5 5 5 5 5 5 5 3 5 5 5 5 5 5 5 5 5 5 5 5 5 5 5 5 5 5 5 5 5 5 5 5 5 5 3 5 5 5 5 5 5 3 5 5 3 5 3 5 5 5 5 3 5 5 5 3 5 5 5 5 5 5 3 5 5 3 5 5 5 3 5 5 3 5 5 5 5 5 3 5 5 3 3 5 5 3 5 3 5 5 5 3 5 5 3 3 5 3 5 5 3 5 5 5 5 5 5 5 5 5 5 5 5 5 5 5 5 5 5 3 5 5 5 5 5 5 5 5 5 5 3 5 5 5 5 5 5 5 3 5 5 5 5 5 5 5 5 5 5 5 5 5 5 5 5 5 5 5 5 3 3 5 5 5 5 5 5 5 5 5 5 5 3 5 5 5 5 5 5 3 5 5 5 5 3 5 5 5 5 5 5 5 5 5 3 5 5 5 5 5 5 5 5 5 5 5 5 5 5 5 5 3 5 5 5 5 5 5 5 5 5 5 5 5 5 3 5 5 5 5 5 5 5 5 5 5 3 5 5 5 3 5 5 5 5 5 5 3 5 5 5 5 5 5 5 5 5 5 5 3 5 5 5 5 5 5 5 5 3 5 5 3 5 5 3 5 3 3 5 3 5 5 5 5 3 3 5 5 5 5 5 3 5 5 5 5 3 5 5 5 3 5 5 3 5 5 5 5 5 5 5 5 5 5 3 5 3 5 3 3 5 5 5 3 5 5 3 3 5 5 5 5 5 3 5 5 5 5 5 5 5 5 5 5 5 5 5 5 5 5 3 5 5 3 5 5 5 3 5 5 5 3 5 3 5 5 5 5 5 5 5 5 3 5 5 5 3 3 5 5 5 5 5 5 5 5 5 5 5 5 5 3 5 3 5 5 5 5 5 5 5 5 5 5 5 5 5 5 5 5 5 5 5 5 5 5 5 5 5 3 5 5 5 5 3 5 3 5 5 3 5 5 5 5 5 5 5 5 5 5 5 5 5 5 5 5 5 5 5 5 5 5 5 5 5 5 5 5 5 5 5 5 3 5 5 5 5 5 5 5 3 5 5 5 5 5 5 5 5 5 5 5 3 3 5 5 5 5 5 3 5 5 3 5 3 5 5 5 5 5 5 5 5 5 5 5 5 3 5 5 5 5 5 3 3 5 5 5 5 3 5 5 5 5 5 5 5 5 5 5 3 5 5 5 5 5 5 5 5 5 5 5 5 5 5 5 5 5 5 5 5 5 5 5 5 5 5 5 5 5 5 5 5 5 5 5 5 5 5 5 5 5 5 5 5 5 5 5 5 5 5 5 5 5 5 5 5 3 5 5 5 3 5 5 5 5 5 5 5 3 5 5 5 5 5 3 5 5 5 5 3 5 5 5 5 5 5 5 5 5 5 5 5 5 5 5 3 3 5 5 5 3 3 5 5 5 5 5 5 3 5 5 3 5 5 5 5 5 5 5 5 5 5 3 3 5 5 3 5 5 5 5 5 5 5 3 5 5 5 5 5 5 5 5 5 5 5 5 5 3 5 5 5 5 5 5 3 5 5 5 5 5 5 5 5 5 3 5 5 5 5 3 5 5 5 5 5 5 5 5 3 5 5 5 5 5 5 5 5 3 5 5 5 5 5 3 3 5 5 3 5 5 5 3 5 5 5 5 5 5 3 5 5 3 5 5 3 5 5 5 5 5 3 5 5 5 5 3 5 5 5 5 5 5 5 5 5 5 5 5 3 5 5 5 5 5 3 5 5 5 5 5 5 3 5 5 5 5 5 5 5 5 5 5 5 5 5 5 5 5 5 5 5 5 3 5 5 5 5 3 5 5 5 5 5 5 3 5 5 5 5 5 5 5 5 5 3 5 5 5 5 5 5 5 5 5 5 5 5 5 5 5 5 5 5 5 5 5 5 5 5 5 5 5 5 5 5 3 5 5 5 5 5 5 5 5 3 5 5 3 5 5 5 5 5 3 5 5 5 5 3 5 5 5 5 5 5 5 5 3 5 5 5 3 5 3 5 5 5 3 3 3 5 5 5 5 3 5 5 5 5 5 5 5 5 5 5 5 3 5 5 5 5 5 5 5 5 5 5 5 5 5 5 5 5 3 5 5 5 5 5 5 5 5 5 5 5 5 5 5 5 5 5 5 5 5 5 5 5 5 5 5 5 5 5 5 5 5 5 5 5 5 5 5 5 5 5 5 5 5 5 5 5 5 5 5 5 5 5 5 5 3 5 3 5 5 3 5 5 5 5 5 5 5 3 5 5 3 5 3 5 5 5 5 5 5 5 5 5 5 5 3 5 5 3 5 5 3 5 3 5 5 5 5 5 5 5 3 5 5 5 5 5 5 5 5 5 5 5 5 5 5 5 5 5 5 5 5 5 5 3 5 5 5 5 5 5 5 5 5 5 5 5 5 3 5 5 5 5 5 5 3 5 5 5 5 5 5 5 5 5 5 5 5 5 5 5 5 5 5 5 5 5 5 5 5 5 5 5 3 5 5 5 5 5 5 5 3 5 5 5 5 5 5 5 5 5 3 5 5 5 5 3 3 3 5 5 5 5 3 5 5 3 5 5 5 5 5 5 5 5 3 5 5 3 5 5 5 3 5 5 5 3 5 5 5 3 5 5 5 5 5 5 5 5 5 5 5 5 5 5 3 5 5 5 3 5 5 3 5 5 5 5 5 5 5 5 5 5 5 5 5 5 5 5 5 3 5 3 5 5 5 5 5 5 5 5 5 3 5 3 3 5 5 5 5 5 5 5 3 5 5 3 5 3 5 5 5 5 5 5 5 5 5 5 5 5 5 5 5 3 5 5 5 5 3 5 5 5 5 5 3 3 5 5 3 5 5 5 5 3 5 5 5 5 5 5 5 5 5 5 3 5 3 5 5 5 5 3 5 5 5 5 5 5 5 5 5 5 3 5 5 5 5 3 5 5 5 5 3 5 5 5 3 3 5 3 5 5 5 5 5 5 5 3 5 3 5 5 3 3 5 3 5 5 5 5 5 5 3 5 5 5 5 5 3 5 5 5 5 5 5 5 3 5 5 5 5 5 5 5 5 5 5 5 5 5 5 5 5 3 5 5 5 5 5 5 5 5 5 5 5 5 5 5 5 5 5 5 5 3 5 5 5 5 5 5 5 5 5 5 3 5 3 5 5 5 5 5 3 5 5 3 5 5 5 5 5 5 5 5 5 3 5 5 3 5 5 5 5 5 5 3 5 5 3 3 5 5 5 5 5 3 5 5 5 5 3 5 5 5 5 5 5 5 5 5 5 5 5 5 5 5 5 5 5 5 5 5 5 5 5 5 5 5 3 5 5 5 5 5 5 5 5 5 5 5 3 5 5 5 5 5 5 5 5 5 5 5 5 5 5 5 5 5 5 5 5 5 5 5 5 5 3 5 5 5 3 5 5 5 5 5 5 5 5 5 5 5 5 5 5 5 5 5 5 5 5 3 5 5 5 5 5 5 5 5 5 5 5 5 5 5 5 5 5 5 5 5 5 5 5 5 5 5 5 3 5 5 3 5 5 5 5 5 5 5 5 5 5 5 5 3 5 5 5 5 3 3 3 5 5 5 5 5 5 5 3 5 5 5 3 5 5 5 5 5 5 5 5 3 5 5 5 5 3 5 5 3 3 5 5 5 5 3 3 5 5 3 5 3 5 5 5 5 5 5 5 5 3 5 5 5 5 5 3 3 5 3 5 3 5 3 3 3 5 5 5 5 3 5 3 5 3 5 5 5 5 5 5 3 5 5 5 5 5 5 5 3 5 3 3 5 3 5 3 5 3 5 5 5 5 5 3 5 5 3 5 5 5 5 5 3 5 5 5 5 3 3 5 5 5 5 5 5 5 5 5 5 5 5 5 5 5 5 5 5 5 3 5 3 5 5 5 3 5 5 5 3 5 5 5 5 5 3 3 5 5 5 3 5 3 5 5 5 3 3 5 5 3 3 5 3 3 3 5 3 5 5 5 3 3 5 5 5 5 5 5 5 5 5 5 5 3 3 5 5 3 5 5 5 5 5 5 5 5 5 5 5 5 5 3 5 5 5 5 5 5 5 5 3 3 5 5 5 3 5 5 3 5 5 5 5 5 3 3 5 3 5 5 5 5 5 5 5 5 5 5 5 5 5 5 5 5 5 5 5 5 5 5 5 5 5 5 5 5 3 5 5 5 5 5 5 5 5 5 5 5 3 3 5 5 3 5 5 5 5 5 5 5 5 5 3 5 5 3 5 5 5 5 5 3 5 5 5 5 5 5 5 5 5 5 5 3 5 5 5 5 5 3 5 5 5 3 5 5 5 5 5 5 5 5 5 3 3 5 5 5 5 5 3 5 5 5 3 3 5 5 5 5 5 5 5 5 5 5 5 5 5 5 5 5 5 5 5 5 5 5 5 5 5 5 5 5 5 5 5 5 5 5 5 5 5 5 5 5 5 5 5 5 5 5 5 5 5 5 5 5 5 3 5 5 5 5 3 5 5 5 5 5 5 5 5 5 5 5 5 5 5 5 5 5 3 5 3 5 5 5 3 5 5 5 5 5 5 5 5 5 5 5 5 5 3 5 5 5 5 5 5 5 5 5 5 5 5 5 5 5 5 5 5 5 5 5 5 3 5 3 5 5 5 3 5 5 3 5 5 3 3 3 5 5 5 5 5 5 5 3 5 5 3 5 5 5 5 5 5 5 5 5 5 5 3 5 5 5 5 5 3 5 5 5 5 5 5 5 5 5 5 5 5 3 5 5 5 5 5 5 3 5 5 5 5 5 5 5 5 5 5 5 5 5 5 5 5 5 5 5 5 5 5 5 5 5 5 3 5 3 5 5 5 5 5 5 5 5 5 5 5 5 5 5 5 5 3 5 5 5 5 3 5 5 5 5 5 3 5 5 5 3 5 5 3 5 5 5 5 5 5 5 5 3 5 5 5 5 5 5 5 5 5 5 5 5 5 5 5 5 5 5 5 5 5 5 5 5 3 5 5 5 5 5 5 5 5 5 3 5 3 5 5 5 5 5 5 5 5 5 3 5 5 5 5 5 5 5 5 5 5 5 5 5 3 5 5 5 3 5 5 3 5 3 5 3 3 5 5 5 3 3 5 3 5 5 5 3 5 5 5 5 5 5 5 3 5 5 5 5 5 3 5 5 5 3 3 3 5 5 5 5 5 5 3 5 5 5 5 5 5 5 5 5 5 5 3 5 3 5 5 5 3 5 5 3 5 5 5 5 5 5 5 5 5 5 5 5 5 5 5 3 5 5 5 5 5 5 5 5 5 5 5 5 5 5 5 3 5 5 5 5 5 3 5 5 5 5 3 5 5 5 5 5 5 5 5 5 3 5 5 5 3 3 5 5 3 5 5 3 5 5 3 5 5 5 5 3 5 5 3 5 5 5 5 5 5 5 5 5 5 5 3 5 5 5 5 5 5 5 5 5 5 3 5 5 5 5 5 5 5 5 5 5 5 5 5 3 5 5 5 5 5 5 3 3 5 5 5 5 3 5 5 3 5 5 3 5 5 5 5 5 5 3 3 5 5 5 3 5 5 5 5 5 5 5 3 5 5 5 5 3 5 5 5 5 5 5 5 5 5 3 5 5 5 5 3 5 5 5 5 5 5 5 5 3 5 5 5 5 5 5 5 5 5 5 5 5 5 5 5 5 5 5 5 5 5 5 5 5 3 5 5 3 5 3 5 5 5 5 5 5 5 5 5 3 5 3 5 5 5 5 5 5 5 3 5 5 5 3 5 5 3 5 5 5 3 5 3 5 5 5 3 5 5 5 5 5 3 3 5 5 5 5 5 5 5 3 5 5 3 5 5 5 5 5 5 5 5 5 5 5 5 5 5 5 5 5 5 5 5 5 5 5 5 5 5 5 5 5 5 3 3 5 5 5 5 5 3 5 3 5 5 3 5 5 5 5 5 5 5 5 5 5 5 5 5 3 5 5 5 5 3 5 5 5 5 5 5 5 5 5 5 5 5 5 5 5 5 5 5 3 5 3 5 5 3 5 5 5 5 5 5 3 5 5 5 5 5 5 5 5 5 5 5 5 5 5 5 5 5 5 5 3 5 5 5 5 3 5 5 5 5 5 5 3 5 5 5 5 3 5 5 5 5 3 3 5 5 3 5 5 5 5 3 5 3 5 3 5 3 5 5 3 5 5 5 5 3 5 5 5 3 5 5 5 5 5 5 5 3 5 5 5 5 3 5 3 5 3 5 5 5 5 5 3 5 3 5 3 5 5 5 5 5 5 5 5 5 5 5 5 5 5 5 5 5 5 5 5 5 5 5 5 5 5 5 5 3 5 5 5 5 3 5 5 5 5 5 3 5 5 5 5 5 5 3 5 5 5 5 5 5 5 5 5 5 5 5 5 5 3 5 5 5 5 5 5 3 5 5 5 5 5 5 5 3 5 5 3 5 5 3 5 5 5 5 5 5 5 5 5 5 3 5 5 5 5 5 5 5 5 5 5 5 5 5 5 5 5 5 5 5 5 5 5 5 5 5 3 5 5 3 5 5 5 3 5 5 5 5 5 5 5 5 5 5 5 5 5 5 5 5 5 5 5 5 5 3 5 5 5 3 5 5 3 5 5 5 5 5 5 5 5 5 5 5 5 5 5 5 5 5 3 5 5 3 5 5 5 5 3 5 5 5 5 5 5 5 5 5 5 5 5 5 5 3 5 5 5 5 3 5 5 5 5 5 3 5 3 5 5 5 5 5 3 5 5 5 5 3 5 5 5 5 3 5 5 5 5 5 5 5 5 3 5 5 5 5 3 5 5 5 5 3 5 5 5 5 5 5 5 5 5 5 5 5 3 5 5 5 3 5 5 5 5 3 5 5 5 5 3 5 5 5 5 5 5 5 5 5 5 5 5 3 5 5 5 5 5 5 5 5 5 5 5 5 3 5 5 5 5 5 5 5 5 5 5 5 5 5 5 5 5 5 5 5 5 5 5 5 5 5 5 5 5 5 5 5 5 5 5 5 5 5 5 5 3 5 5 5 5 5 5 5 5 3 5 3 5 5 5 5 5 5 5 5 5 5 5 5 5 5 5 5 5 5 5 5 5 5 5 5 5 5 5 5 5 5 5 5 5 5 5 5 5 5 5 5 5 5 5 5 5 5 5 5 5 5 5 5 5 5 5 5 5 5 5 5 5 5 5 5 5 5 5 5 5 5 5 5 5 5 5 5 5 5 5 5 5 5 5 5 3 5 5 5 5 5 5 5 5 5 5 5 5 5 5 5 5 5 5 5 5 5 5 5 5 5 3 5 5 5 5 5 5 5 3 5 5 5 5 3 3 5 5 3 3 5 5 5 3 5 5 3 3 5 5 5 5 5 5 5 3 5 5 3 5 5 5 5 5 3 5 5 5 5 5 5 5 5 5 5 5 5 5 5 5 5 5 5 5 5 5 5 5 5 5 5 5 5 5 5 5 5 5 5 5 5 5 5 5 5 5 5 5 5 5 5 5 5 5 5 5 5 5 5 5 5 5 5 5 5 5 5 5 5 5 5 5 5 5 5 3 5 3 5 5 5 5 5 3 3 5 5 5 5 5 5 5 5 5 5 5 5 5 5 5 5 5 5 3 5 5 3 5 5 3 5 3 5 5 3 3 3 5 5 5 5 5 3 5 5 5 5 3 5 5 5 5 3 5 5 5 5 5 3 5 3 5 5 5 5 5 3 5 5 5 3 5 5 5 5 5 5 5 5 5 5 5 5 5 5 5 5 5 5 5 5 5 3 5 5 5 5 5 5 5 5 5 5 5 5 5 5 5 5 3 5 5 3 5 5 5 5 5 5 5 3 5 5 5 5 5 5 5 5 5 5 5 5 5 5 5 5 5 3 5 5 5 5 5 3 5 5 3 5 5 5 5 5 3 5 5 5 5 5 5 5 5 5 5 3 5 5 3 5 5 5 5 5 3 3 3 3 5 5 5 5 3 5 5 5 5 5 5 3 5 5 5 5 5 5 5 5 5 5 5 5 5 3 5 5 5 5 3 3 5 5 5 5 5 5 5 5 5 5 5 5 5 3 5 5 5 5 3 3 5 5 5 3 3 5 3 5 5 5 5 3 3 5 5 5 5 5 5 5 5 5 3 5 5 5 5 5 5 5 5 5 5 5 5 5 5 5 5 5 5 5 3 5 5 5 5 5 5 5 5 5 5 5 5 5 5 5 5 5 5 5 5 5 5 5 5 5 5 5 3 5 5 5 5 5 5 5 5 5 5 3 5 3 5 5 3 5 5 5 5 5 5 5 5 5 5 5 3 5 5 3 5 3 5 5 5 5 5 5 5 5 5 5 5 3 5 5 5 5 5 5 3 5 5 5 5 3 5 5 5 5 5 5 5 5 5 5 5 3 5 5 5 5 5 5 5 5 5 5 5 5 5 5 5 5 5 3 5 5 5 5 5 5 5 3 5 5 5 5 5 5 5 5 5 3 5 5 5 5 3 3 5 5 5 5 5 5 5 5 5 5 5 5 5 5 5 5 5 5 5 5 5 5 5 5 5 5 5 5 5 5 5 5 5 5 5 5 5 5 5 5 5 5 5 5 5 5 5 5 5 5 5 5 5 5 5 5 5 5 5 5 5 5 5 5 5 5 5 5 5 5 5 5 5 5 5 5 5 5 5 5 5 5 5 5 5 3 5 3 5 5 5 5 5 5 5 5 5 5 5 3 5 5 5 3 5 5 5 5 5 5 5 5 5 5 3 5 5 5 5 5 5 5 5 5 5 5 5 5 5 5 5 5 3 5 5 3 5 5 5 5 5 3 5 3 5 3 5 5 5 5 5 5 5 5 5 5 5 5 5 5 5 5 5 5 5 5 5 5 5 5 5 5 5 5 5 5 5 5 5 5 5 5 5 5 5 5 5 5 5 3 5 5 3 5 5 5 3 5 5 5 5 5 5 5 5 5 5 5 5 5 5 5 5 5 5 5 5 5 5 5 5 5 5 5 5 5 5 5 5 5 5 5 5 5 5 5 5 5 5 5 3 5 5 5 5 3 5 5 5 5 5 5 5 5 3 5 5 5 3 5 5 5 5 5 5 5 3 5 5 5 5 5 3 5 5 5 5 5 5 5 5 5 5 5 5 5 5 5 5 3 3 5 5 5 3 5 3 5 5 5 5 5 5 5 5 5 5 5 5 5 5 3 5 5 3 3 5 5 5 5 5 5 5 5 5 5 3 5 5 3 5 5 5 5 3 5 5 3 5 5 5 5 5 5 3 5 5 5 5 5 5 3 5 5 3 5 3 5 5 5 5 5 5 5 5 5 5 5 5 5 5 5 5 5 5 3 5 5 5 5 5 5 5 5 5 5 5 3 5 5 5 5 5 5 5 5 5 5 5 3 5 5 5 5 5 3 5 5 5 5 5 5 5 5 5 5 5 5 3 5 5 5 5 5 3 5 3 5 5 5 5 5 5 5 5 5 5 5 5 5 5 5 5 5 5 5 5 5 5 3 5 5 5 5 3 5 5 5 5 5 5 5 5 5 5 5 5 5 5 5 5 5 5 5 5 5 5 5 5 5 5 5 5 5 5 5 5 5 5 5 5 5 5 5 5 5 5 5 5 5 5 5 3 5 5 5 5 5 5 5 5 5 5 5 5 5 5 5 5 3 5 5 5 5 5 5 5 5 5 5 5 5 5 5 5 3 5 5 3 5 3 5 5 5 5 5 5 3 3 5 3 5 5 5 5 5 5 5 5 5 3 5 3 5 5 5 5 5 5 5 5 5 3 3 5 3 5 5 5 5 5 5 5 3 5 3 5 5 5 5 5 5 5 5 5 5 5 5 5 5 5 5 3 5 5 3 5 5 5 5 5 3 5 5 5 5 5 5 5 5 5 5 5 5 5 5 5 5 5 5 5 5 5 3 5 5 5 5 5 5 5 5 5 5 5 5 5 5 5 5 5 5 5 3 5 5 5 5 3 5 5 5 3 5 5 5 5 5 5 5 5 5 5 5 5 3 5 5 5 5 5 5 5 5 5 5 5 5 5 5 5 5 5 5 5 5 5 3 5 5 5 5 3 5 5 5 3 5 5 5 5 5 5 5 5 5 5 5 3 5 5 5 5 3 5 5 5 5 5 5 5 3 5 5 5 5 5 5 5 5 5 5 5 5 5 5 5 3 5 5 5 5 5 5 5 3 5 5 3 5 5 3 5 5 5 3 5 5 5 5 5 3 5 5 5 3 5 5 5 5 5 5 5 5 5 5 5 5 5 3 5 5 5 5 5 5 3 5 5 5 5 3 5 5 5 5 3 3 5 3 5 3 5 5 5 5 5 5 3 5 5 5 5 5 3 5 5 5 5 5 5 3 5 5 3 5 5 5 3 3 5 5 5 5 5 5 5 3 5 5 5 5 5 3 5 5 3 5 5 5 5 3 5 3 5 5 5 5 5 3 5 5 5 3 3 5 5 5 5 5 3 5 5 5 5 3 5 3 5 5 5 3 3 5 3 3 5 5 3 5 5 3 5 3 5 5 3 5 5 5 3 5 3 3 5 3 5 5 5 5 3 5 3 5 5 3 5 3 5 5 5 5 5 5 5 5 5 5 5 3 5 5 5 3 5 5 5 5 5 3 5 5 5 5 5 3 5 5 5 5 5 5 5 5 5 3 5 5 5 3 5 5 5 5 5 5 5 5 5 5 5 5 3 5 5 5 5 5 5 5 5 5 5 3 3 5 3 5 5 5 5 3 5 3 3 5 5 5 3 5 5 3 5 3 5 5 3 5 5 3 5 5 5 5 5 3 5 5 5 3 5 3 5 5 5 5 3 5 5 5 5 5 5 3 5 5 5 5 5 5 5 5 5 3 5 5 5 5 5 5 5 5 5 5 3 5 5 5 5 3 5 5 3 5 5 5 3 5 5 5 5 5 5 3 5 5 5 5 5 5 5 5 5 5 5 5 3 5 5 5 5 3 5 5 3 3 5 3 5 5 5 5 3 5 5 5 5 5 5 5 5 5 5 5 5 5 5 5 5 5 5 5 5 5 5 5 5 5 5 5 5 3 5 5 5 5 5 5 5 5 5 3 5 5 5 3 5 5 5 5 5 5 5 5 5 5 5 5 5 5 5 5 5 3 5 5 3 3 5 5 3 5 3 5 3 5 5 5 5 5 5 5 5 5 5 5 5 5 5 5 5 5 5 5 5 5 5 5 5 5 5 5 5 5 5 5 5 5 5 3 5 5 5 5 5 5 5 5 5 5 5 5 5 5 5 5 5 3 5 5 5 5 5 5 5 3 5 5 5 5 5 5 5 5 5 5 5 3 5 5 5 5 5 5 5 5 5 5 5 5 5 5 5 5 5 5 5 5 5 5 5 5 5 5 5 5 5 5 5 5 5 5 5 5 5 5 5 5 5 5 5 5 5 5 5 5 5 5 5 5 5 5 5 5 5 5 5 5 5 5 5 5 5 5 5 5 5 5 5 5 5 5 5 5 5 5 5 3 5 5 5 3 5 3 5 5 5 5 5 5 5 5 5 5 5 3 5 5 5 5 3 5 5 5 3 5 5 5 5 5 5 5 5 5 5 5 5 5 5 5 5 5 5 5 5 5 5 5 5 5 5 5 5 5 5 5 5 5 5 5 5 5 5 5 3 5 5 5 5 5 5 5 5 5 5 5 5 5 5 5 3 3 5 5 5 5 5 5 5 5 5 5 5 5 3 3 5 5 5 5 5 5 5 5 5 5 5 5 5 3 3 5 5 5 5 5 3 5 3 3 5 3 5 3 5 3 5 3 5 5 3 5 3 5 5 5 5 5 5 5 3 3 3 5 5 5 3 5 5 5 3 5 3 3 5 5 3 5 5 5 5 5 5 5 5 5 5 5 5 5 3 5 5 5 5 3 5 3 5 3 5 5 5 3 5 5 5 5 5 5 3 5 5 5 5 3 5 5 5 3 5 5 5 5 5 5 5 5 5 5 5 5 5 5 5 3 5 5 3 5 5 5 5 5 5 5 5 5 5 3 5 5 5 3 5 3 5 5 5 5 3 5 3 5 3 3 3 5 5 5 5 3 5 5 5 3 3 3 5 3 5 5 5 5 5 5 5 5 5 5 5 5 3 5 5 5 5 5 5 3 5 5 5 5 5 5 3 5 5 5 5 5 3 5 3 5 5 5 5 5 3 3 5 5 5 3 5 5 5 3 3 5 3 5 5 3 5 5 5 5 5 5 5 5 3 5 5 5 5 5 5 3 5 5 5 5 5 5 5 5 5 5 5 5 5 5 3 3 5 5 5 5 5 5 5 5 5 5 5 5 5 5 5 5 5 5 5 5 3 5 5 5 5 3 5 3 5 5 5 3 3 5 5 3 5 5 5 5 5 5 5 5 5 5 5 5 5 5 3 5 5 5 3 5 5 5 5 5 5 5 5 5 5 5 5 5 5 5 5 5 5 5 5 5 5 5 5 5 5 5 5 5 5 5 5 5 5 5 5 5 5 5 5 5 5 5 5 5 5 5 5 3 5 5 5 5 5 5 5 5 3 5 5 5 5 5 5 5 5 3 5 5 5 3 5 5 5 3 5 3 3 5 5 5 3 5 5 5 3 5 5 5 3 5 5 3 5 3 5 3 5 5 3 5 3 5 3 5 5 5 3 5 5 3 5 5 5 5 5 5 5 5 5 5 5 5 5 5 5 5 5 5 3 5 5 5 3 5 5 5 5 5 3 5 5 3 5 5 5 5 5 5 5 5 3 5 5 3 5 3 5 5 3 5 5 5 5 5 5 5 5 5 5 5 5 5 5 5 5 5 5 5 5 5 3 5 5 5 5 5 5 5 5 5 5 5 5 5 5 5 5 5 5 5 5 5 5 5 5 5 5 5 5 3 5 5 5 5 5 5 5 3 5 5 5 5 5 5 5 5 5 5 5 3 5 5 5 3 5 5 5 5 3 5 5 5 3 5 5 5 5 3 5 5 3 5 5 5 5 5 3 5 5 5 5 5 5 5 5 5 5 5 5 3 5 5 5 5 5 3 5 5 5 5 5 5 5 5 5 5 5 5 5 5 5 5 3 5 5 5 5 5 5 5 5 5 5 5 5 5 5 5 5 5 5 5 3 5 3 3 5 5 5 5 5 5 5 5 5 5 5 3 5 3 5 5 5 5 5 5 5 5 5 5 5 5 5 5 5 5 5 3 5 5 5 5 3 5 5 5 5 5 5 5 5 5 5 3 5 5 5 5 5 5 5 3 5 5 3 5 5 5 5 3 5 3 5 5 5 5 5 5 5 5 5 5 5 5 5 5 3 5 5 5 3 5 5 3 5 5 5 5 5 5 5 3 5 5 5 5 5 5 5 5 5 5 5 5 5 5 5 5 5 5 5 5 5 5 5 5 5 5 5 5 5 5 5 5 5 5 5 5 5 5 3 3 5 5 5 5 5 5 5 5 3 5 5 5 5 5 5 5 5 5 5 5 5 5 5 5 5 5 5 5 5 5 5 5 5 5 5 5 5 5 5 5 3 5 5 3 5 5 5 3 5 3 5 3 5 5 5 5 5 5 3 5 3 5 3 5 3 5 3 5 3 5 5 5 3 5 5 3 3 5 5 3 3 3 5 3 5 5 5 3 5 3 3 5 5 3 5 5 5 5 5 5 5 3 5 3 5 3 5 5 5 5 5 5 5 5 5 5 3 5 5 5 5 5 3 3 5 5 5 5 5 5 5 5 5 5 5 5 5 5 5 5 5 5 5 5 5 5 5 5 5 5 5 5 5 5 5 5 5 5 5 5 5 3 5 5 5 3 5 5 5 5 5 5 5 5 5 5 5 5 5 5 5 3 5 5 5 3 5 5 5 5 5 5 5 5 5 5 5 5 5 3 3 5 5 5 3 5 3 5 5 5 5 5 5 5 5 5 5 5 5 5 5 5 3 5 5 5 3 5 5 5 5 3 5 3 5 5 5 5 5 5 5 3 5 5 3 3 5 5 5 5 5 5 5 5 5 5 5 5 3 5 5 5 5 3 5 5 5 5 5 5 5 5 5 5 5 5 5 5 5 5 5 5 5 5 5 5 5 3 5 5 5 5 5 5 5 5 5 5 5 5 5 5 5 5 5 5 5 5 5 5 5 5 5 3 5 3 5 5 5 3 5 5 5 3 3 5 5 3 5 5 3 5 5 5 5 5 5 5 5 5 5 5 5 5 5 5 5 5 3 5 5 5 5 5 5 5 3 5 5 5 5 5 5 5 5 5 5 5 5 3 5 5 5 5 5 5 5 5 5 5 5 5 5 5 5 5 5 5 5 5 5 5 5 3 3 5 5 5 5 5 5 5 3 5 5 5 5 5 5 5 5 5 5 5 5 5 5 5 5 5 5 5 5 5 5 5 5 5 5 5 5 5 5 5 5 5 5 5 5 5 5 5 5 5 5 5 5 5 5 5 5 5 5 5 5 5 5 5 5 5 5 5 5 5 5 5 5 5 5 5 5 5 5 5 5 5 5 5 5 5 5 5 5 5 5 3 5 5 3 5 5 5 5 5 5 5 5 5 5 5 5 5 5 5 5 5 5 5 5 5 5 5 5 5 5 5 5 5 5 5 5 5 3 5 5 5 5 5 5 5 5 5 5 5 5 5 5 3 3 5 5 5 5 5 5 5 5 5 3 5 5 5 3 5 5 5 5 5 5 5 5 5 5 5 5 5 5 5 5 5 5 5 5 5 5 5 5 5 5 5 5 3 5 5 5 5 5 5 5 5 5 5 5 5 5 5 5 5 3 5 5 5 5 5 5 5 3 5 5 5 3 5 5 5 5 5 5 5 5 5 5 5 5 5 5 5 3 5 5 5 5 5 5 3 5 5 5 3 5 5 5 5 5 5 5 5 3 5 5 5 3 5 3 5 5 5 5 5 5 5 5 5 5 5 5 5 5 5 5 5 5 5 5 5 5 5 5 5 5 5 5 5 5 5 5 5 5 5 5 5 5 5 5 5 5 5 5 5 5 5 5 5 5 5 5 5 5 5 5 5 5 5 5 5 3 5 5 5 5 5 3 5 5 5 5 5 5 5 5 5 5 5 5 5 5 5 5 5 5 3 5 5 5 5 5 5 5 3 5 5 3 5 5 5 5 5 5 5 5 5 5 5 3 5 3 3 5 5 3 5 5 3 5 5 5 3 3 3 5 5 5 5 3 5 3 3 5 5 5 3 5 3 5 5 5 3 5 5 5 5 5 5 3 5 5 5 5 3 5 3 3 3 5 5 5 3 3 5 5 5 3 5 5 5 3 5 3 3 5 5 3 3 5 3 5 5 5 3 5 5 5 3 3 3 5 3 3 5 5 5 3 5 5 5 3 5 3 5 5 5 3 5 5 3 3 5 3 5 5 3 5 3 5 5 5 5 3 5 5 5 3 5 5 5 5 5 5 5 5 5 5 5 5 5 5 5 5 5 5 5 5 5 5 5 5 3 5 5 3 5 3 3 5 3 3 5 5 5 5 3 5 5 5 5 5 5 5 5 3 5 5 5 5 5 5 3 5 3 5 5 5 5 5 5 5 3 5 5 3 5 5 5 3 5 3 5 5 5 5 3 5 3 
</DataArray>
</Cells>
<PointData Scalars="" Vectors="displacement," Tensors="">
<DataArray type="Float64" Name="displacement" NumberOfComponents="3" format="ascii">
0.014999654817637173 0.014999852730674801 0 0.014866160020218276 0.014999157097227621 0 0.014999430037671785 0.014689988185107189 0 0.014864971790048741 0.014999992371673735 0 0.01433920382869024 0.015062916694345507 0 0.014866160020218276 0.014999157097227621 0 0.014999430037671785 0.014689988185107189 0 0.014521548931567468 0.014677632158173498 0 0.014865096187611049 0.015000042322725622 0 0.014201212523665813 0.015420558435595744 0 0.013978395858763794 0.014999800489065088 0 0.014507027833249902 0.014943952287047018 0 0.014521548931567468 0.014677632158173498 0 0.013606254905999236 0.01501602810503354 0 0.01499999895843746 0.014688904476739874 0 0.015002053926327056 0.014466537742629446 0 0.014999430037671785 0.014689988185107189 0 0.014507027833249902 0.014943952287047018 0 0.014521548931567468 0.014677632158173498 0 0.01500003149158579 0.01468893514034793 0 0.015522659549945863 0.014001029174472211 0 0.014999877860021146 0.013872887684167225 0 0.015522659549945863 0.014001029174472211 0 0.01524014131839118 0.013543229864368043 0 0.014999877860021146 0.013872887684167225 0 0.015522659549945863 0.014001029174472211 0 0.01524014131839118 0.013543229864368043 0 0.015465144491908781 0.013275963366198388 0 0.015522659549945863 0.014001029174472211 0 0.015465144491908781 0.013275963366198388 0 0.015892419665987621 0.013217481067086806 0 0.015002053926327056 0.014466537742629446 0 0.014689868964273829 0.014278165050970579 0 0.015465144491908781 0.013275963366198388 0 0.015892419665987621 0.013217481067086806 0 0.015658183896707339 0.012922343593014116 0 0.01524014131839118 0.013543229864368043 0 0.014999877860021146 0.013872887684167225 0 0.014999922556210341 0.013057036162852274 0 0.01524014131839118 0.013543229864368043 0 0.015465144491908781 0.013275963366198388 0 0.014999922556210341 0.013057036162852274 0 0.014689868964273829 0.014278165050970579 0 0.014322142190346597 0.013813468877504268 0 0.012974112470378281 0.015324322023364827 0 0.013499343657728227 0.015377198215300281 0 0.012765014697806788 0.015164797255224646 0 0.015892419665987621 0.013217481067086806 0 0.015658183896707339 0.012922343593014116 0 0.015814187224437056 0.012708626175293966 0 0.014507027833249902 0.014943952287047018 0 0.013499343657728227 0.015377198215300281 0 0.013606254905999236 0.01501602810503354 0 0.013455969383156035 0.015623279795576058 0 0.013108705097619508 0.015485831430158621 0 0.013250600180996929 0.015412497382245011 0 0.012974112470378281 0.015324322023364827 0 0.013455969383156035 0.015623279795576058 0 0.013108705097619508 0.015485831430158621 0 0.013051350282650141 0.015351067882747612 0 0.013539188304440185 0.015301383120851319 0 0.012974112470378281 0.015324322023364827 0 0.013499343657728227 0.015377198215300281 0 0.013606254905999236 0.01501602810503354 0 0.013108705097619508 0.015485831430158621 0 0.013250600180996929 0.015412497382245011 0 0.012963797686188978 0.015449097462978881 0 0.01433920382869024 0.015062916694345507 0 0.013539188304440185 0.015301383120851319 0 0.014201212523665813 0.015420558435595744 0 0.013455969383156035 0.015623279795576058 0 0.013611595333911425 0.015322038113909387 0 0.013455969383156035 0.015623279795576058 0 0.013250600180996929 0.015412497382245011 0 0.013611595333911425 0.015322038113909387 0 0.014201212523665813 0.015420558435595744 0 0.013611595333911425 0.015322038113909387 0 0.013978395858763794 0.014999800489065088 0 0.013611595333911425 0.015322038113909387 0 0.013978395858763794 0.014999800489065088 0 0.01309226162795182 0.01499997383877949 0 0.013250600180996929 0.015412497382245011 0 0.013611595333911425 0.015322038113909387 0 0.01309226162795182 0.01499997383877949 0 0.01309226162795182 0.01499997383877949 0 0.012747186893474816 0.015256732067899037 0 0.012963797686188978 0.015449097462978881 0 0.01309226162795182 0.01499997383877949 0 0.012747186893474816 0.015256732067899037 0 0.012206262307686056 0.014999882916051317 0 0.012747186893474816 0.015256732067899037 0 0.012206262307686056 0.014999882916051317 0 0.011997090424350456 0.015278957160333659 0 0.012747186893474816 0.015256732067899037 0 0.011997090424350456 0.015278957160333659 0 0.01276043646284337 0.015604341514722385 0 0.012747186893474816 0.015256732067899037 0 0.012963797686188978 0.015449097462978881 0 0.01276043646284337 0.015604341514722385 0 0.013250600180996929 0.015412497382245011 0 0.01309226162795182 0.01499997383877949 0 0.012963797686188978 0.015449097462978881 0 0.011319641480507523 0.014999804602977789 0 0.011997090424350456 0.015278957160333659 0 0.011563604874307892 0.015796680327115932 0 0.012206262307686056 0.014999882916051317 0 0.011319641480507523 0.014999804602977789 0 0.011997090424350456 0.015278957160333659 0 0.011997090424350456 0.015278957160333659 0 0.011563604874307892 0.015796680327115932 0 0.01276043646284337 0.015604341514722385 0 0.01356500931508965 0.015350258929689558 0 0.013340461260837476 0.015171561148712587 0 0.013579574243640757 0.01523091615727558 0 0.01356500931508965 0.015350258929689558 0 0.01276043646284337 0.015604341514722385 0 0.013340461260837476 0.015171561148712587 0 0.012518637402466963 0.015539674080558487 0 0.012715895221695191 0.015602765241170234 0 0.01276043646284337 0.015604341514722385 0 0.013340461260837476 0.015171561148712587 0 0.013016554397828719 0.015206238327441553 0 0.013340461260837476 0.015171561148712587 0 0.013016554397828719 0.015206238327441553 0 0.013346155713204261 0.014696899343160593 0 0.013579574243640757 0.01523091615727558 0 0.013758352559613477 0.014680025703528186 0 0.013933352657430436 0.014840729997433343 0 0.013340461260837476 0.015171561148712587 0 0.013579574243640757 0.01523091615727558 0 0.013758352559613477 0.014680025703528186 0 0.012974112470378281 0.015324322023364827 0 0.013108705097619508 0.015485831430158621 0 0.012932753519743486 0.015426527468276987 0 0.013108705097619508 0.015485831430158621 0 0.012963797686188978 0.015449097462978881 0 0.012932753519743486 0.015426527468276987 0 0.01276043646284337 0.015604341514722385 0 0.012932753519743486 0.015426527468276987 0 0.013016554397828719 0.015206238327441553 0 0.012963797686188978 0.015449097462978881 0 0.01276043646284337 0.015604341514722385 0 0.012932753519743486 0.015426527468276987 0 0.013016554397828719 0.015206238327441553 0 0.012906417350744166 0.015227407529491508 0 0.012973408481699589 0.014921541019065452 0 0.012974112470378281 0.015324322023364827 0 0.012906417350744166 0.015227407529491508 0 0.012765014697806788 0.015164797255224646 0 0.012932753519743486 0.015426527468276987 0 0.013016554397828719 0.015206238327441553 0 0.012906417350744166 0.015227407529491508 0 0.012974112470378281 0.015324322023364827 0 0.012932753519743486 0.015426527468276987 0 0.012906417350744166 0.015227407529491508 0 0.012906417350744166 0.015227407529491508 0 0.012973408481699589 0.014921541019065452 0 0.012765014697806788 0.015164797255224646 0 0.012973408481699589 0.014921541019065452 0 0.012960265975755411 0.014142548116190146 0 0.012765014697806788 0.015164797255224646 0 0.013016554397828719 0.015206238327441553 0 0.012973408481699589 0.014921541019065452 0 0.013346155713204261 0.014696899343160593 0 0.012973408481699589 0.014921541019065452 0 0.012960265975755411 0.014142548116190146 0 0.013346155713204261 0.014696899343160593 0 0.015258956567395855 0.01225765866544937 0 0.015653553933833966 0.012340828789456021 0 0.015872086800249964 0.01247564648831651 0 0.014139161113216231 0.013232060659165686 0 0.014322142190346597 0.013813468877504268 0 0.013758352559613477 0.014680025703528186 0 0.013346155713204261 0.014696899343160593 0 0.013972891307868458 0.013948879503080203 0 0.013340461260837476 0.015171561148712587 0 0.013758352559613477 0.014680025703528186 0 0.013346155713204261 0.014696899343160593 0 0.012960265975755411 0.014142548116190146 0 0.013346155713204261 0.014696899343160593 0 0.013972891307868458 0.013948879503080203 0 0.013758352559613477 0.014680025703528186 0 0.013972891307868458 0.013948879503080203 0 0.014211170880358311 0.014110160092689812 0 0.013972891307868458 0.013948879503080203 0 0.014211170880358311 0.014110160092689812 0 0.014494809468758665 0.013211309834949793 0 0.013972891307868458 0.013948879503080203 0 0.014314800483244657 0.01294238482563489 0 0.014494809468758665 0.013211309834949793 0 0.012960265975755411 0.014142548116190146 0 0.013972891307868458 0.013948879503080203 0 0.014314800483244657 0.01294238482563489 0 0.014314800483244657 0.01294238482563489 0 0.014982234892842844 0.012664987064938182 0 0.014730010949827335 0.012844223095349865 0 0.014314800483244657 0.01294238482563489 0 0.01484425634674735 0.012816041378173621 0 0.014982234892842844 0.012664987064938182 0 0.014314800483244657 0.01294238482563489 0 0.014494809468758665 0.013211309834949793 0 0.014730010949827335 0.012844223095349865 0 0.015258956567395855 0.01225765866544937 0 0.015653553933833966 0.012340828789456021 0 0.015172458336270791 0.012699666955564529 0 0.015595793378082914 0.012530014486241343 0 0.015653553933833966 0.012340828789456021 0 0.015172458336270791 0.012699666955564529 0 0.014139161113216231 0.013232060659165686 0 0.014291223707474238 0.012958429968812132 0 0.015258956567395855 0.01225765866544937 0 0.014314800483244657 0.01294238482563489 0 0.01484425634674735 0.012816041378173621 0 0.015258956567395855 0.01225765866544937 0 0.01484425634674735 0.012816041378173621 0 0.015172458336270791 0.012699666955564529 0 0.01484425634674735 0.012816041378173621 0 0.015101432290068932 0.012543424119259055 0 0.014982234892842844 0.012664987064938182 0 0.01484425634674735 0.012816041378173621 0 0.015172458336270791 0.012699666955564529 0 0.015101432290068932 0.012543424119259055 0 0.015172458336270791 0.012699666955564529 0 0.014988741553054711 0.01251712308684208 0 0.015101432290068932 0.012543424119259055 0 0.015200725932894925 0.012690899319212723 0 0.015338428882222598 0.012715423073208016 0 0.015595793378082914 0.012530014486241343 0 0.015172458336270791 0.012699666955564529 0 0.01568487024661968 0.012884125238715429 0 0.015338428882222598 0.012715423073208016 0 0.015735022999650364 0.011974209990803718 0 0.015595793378082914 0.012530014486241343 0 0.01568487024661968 0.012884125238715429 0 0.015900912267390412 0.012298557678239095 0 0.01568487024661968 0.012884125238715429 0 0.015900912267390412 0.012298557678239095 0 0.016210535968077994 0.01306833014990952 0 0.015595793378082914 0.012530014486241343 0 0.015653553933833966 0.012340828789456021 0 0.015900912267390412 0.012298557678239095 0 0.015900912267390412 0.012298557678239095 0 0.015725711058376769 0.012262701800321274 0 0.01583591052305711 0.012419655144253571 0 0.015900912267390412 0.012298557678239095 0 0.015725711058376769 0.012262701800321274 0 0.015737607884272205 0.011931208832059123 0 0.015900912267390412 0.012298557678239095 0 0.015737607884272205 0.011931208832059123 0 0.015939429937728605 0.011478263914113215 0 0.016027811209637557 0.012409227509747467 0 0.015735022999650364 0.011974209990803718 0 0.015737607884272205 0.011931208832059123 0 0.015627983007088245 0.011593252806876057 0 0.015939429937728605 0.011478263914113215 0 0.015627983007088245 0.011593252806876057 0 0.015375789088461074 0.011461055795618357 0 0.015466316705253816 0.011892248326074948 0 0.015737607884272205 0.011931208832059123 0 0.015627983007088245 0.011593252806876057 0 0.015466316705253816 0.011892248326074948 0 0.015375789088461074 0.011461055795618357 0 0.014999893147319358 0.011425636862076274 0 0.015466316705253816 0.011892248326074948 0 0.015375789088461074 0.011461055795618357 0 0.014999893147319358 0.011425636862076274 0 0.015236668745553074 0.011221228064057849 0 0.015466316705253816 0.011892248326074948 0 0.015439872591401817 0.0123440547733199 0 0.01499995511000108 0.012241358648907541 0 0.014999893147319358 0.011425636862076274 0 0.015466316705253816 0.011892248326074948 0 0.01499995511000108 0.012241358648907541 0 0.015725711058376769 0.012262701800321274 0 0.015466316705253816 0.011892248326074948 0 0.015439872591401817 0.0123440547733199 0 0.015725711058376769 0.012262701800321274 0 0.015737607884272205 0.011931208832059123 0 0.015466316705253816 0.011892248326074948 0 0.015439872591401817 0.0123440547733199 0 0.015388707752034018 0.012770438886460112 0 0.015684581248886071 0.012580979723832982 0 0.015725711058376769 0.012262701800321274 0 0.015439872591401817 0.0123440547733199 0 0.015684581248886071 0.012580979723832982 0 0.015439872591401817 0.0123440547733199 0 0.01499995511000108 0.012241358648907541 0 0.015388707752034018 0.012770438886460112 0 0.015465144491908781 0.013275963366198388 0 0.014999922556210341 0.013057036162852274 0 0.015388707752034018 0.012770438886460112 0 0.01499995511000108 0.012241358648907541 0 0.014999922556210341 0.013057036162852274 0 0.015388707752034018 0.012770438886460112 0 0.015465144491908781 0.013275963366198388 0 0.015388707752034018 0.012770438886460112 0 0.015658183896707339 0.012922343593014116 0 0.015388707752034018 0.012770438886460112 0 0.015658183896707339 0.012922343593014116 0 0.015684581248886071 0.012580979723832982 0 0.015684581248886071 0.012580979723832982 0 0.015814187224437056 0.012708626175293966 0 0.01583591052305711 0.012419655144253571 0 0.015658183896707339 0.012922343593014116 0 0.015684581248886071 0.012580979723832982 0 0.015814187224437056 0.012708626175293966 0 0.015892419665987621 0.013217481067086806 0 0.015814187224437056 0.012708626175293966 0 0.015872086800249964 0.01247564648831651 0 0.015814187224437056 0.012708626175293966 0 0.015872086800249964 0.01247564648831651 0 0.01583591052305711 0.012419655144253571 0 0.015653553933833966 0.012340828789456021 0 0.015872086800249964 0.01247564648831651 0 0.01583591052305711 0.012419655144253571 0 0.015653553933833966 0.012340828789456021 0 0.015900912267390412 0.012298557678239095 0 0.01583591052305711 0.012419655144253571 0 0.015725711058376769 0.012262701800321274 0 0.015684581248886071 0.012580979723832982 0 0.01583591052305711 0.012419655144253571 0 0.0095199436635332209 0.016440062990996665 0 0.0095896253175021262 0.016300291002352505 0 0.0083402251817649761 0.0161791578545783 0 0.0095896253175021262 0.016300291002352505 0 0.0093559541465966425 0.016345384728237114 0 0.0095067779243518304 0.01632077825703962 0 0.007999656095437414 0.016512943047248669 0 0.0083547235901358964 0.016242386468961093 0 0.008033850697439884 0.016219503150897333 0 0.0077834916774264015 0.016401951798275669 0 0.007999656095437414 0.016512943047248669 0 0.008033850697439884 0.016219503150897333 0 0.0077834916774264015 0.016401951798275669 0 0.008033850697439884 0.016219503150897333 0 0.0077680195026276974 0.016092039804918423 0 0.0080103630639721691 0.016332497191796247 0 0.0084456909000036086 0.016475520011565339 0 0.0095199436635332209 0.016440062990996665 0 0.0095896253175021262 0.016300291002352505 0 0.0095067779243518304 0.01632077825703962 0 0.0081055406762660358 0.016490185573233018 0 0.0088215276230434042 0.016529967443351203 0 0.0086454910230829071 0.016823622802750574 0 0.0084456909000036086 0.016475520011565339 0 0.0095961887662214303 0.016302343973340461 0 0.007999656095437414 0.016512943047248669 0 0.0083547235901358964 0.016242386468961093 0 0.0088215276230434042 0.016529967443351203 0 0.0084456909000036086 0.016475520011565339 0 0.0086117010106849697 0.016529857583054339 0 0.0083547235901358964 0.016242386468961093 0 0.0087240764002927771 0.016025181480018726 0 0.0088215276230434042 0.016529967443351203 0 0.0087240764002927771 0.016025181480018726 0 0.0081922251808810732 0.015944078159739257 0 0.0084954063918072607 0.015411193174854882 0 0.0083547235901358964 0.016242386468961093 0 0.0087240764002927771 0.016025181480018726 0 0.0081922251808810732 0.015944078159739257 0 0.0081922251808810732 0.015944078159739257 0 0.0077680195026276974 0.016092039804918423 0 0.0075549633157582646 0.015700292155309804 0 0.0081922251808810732 0.015944078159739257 0 0.0084954063918072607 0.015411193174854882 0 0.0075549633157582646 0.015700292155309804 0 0.0081922251808810732 0.015944078159739257 0 0.008033850697439884 0.016219503150897333 0 0.0077680195026276974 0.016092039804918423 0 0.0083547235901358964 0.016242386468961093 0 0.0081922251808810732 0.015944078159739257 0 0.008033850697439884 0.016219503150897333 0 0.0081675801164643267 0.015667457850505842 0 0.0073886459815059261 0.015387621105275534 0 0.0073751595609397053 0.01591048302652703 0 0.0083371390905102646 0.015535562857418835 0 0.0074590832903522275 0.015809803548746122 0 0.0077735632729126584 0.0150000388424394 0 0.0081675801164643267 0.015667457850505842 0 0.0073886459815059261 0.015387621105275534 0 0.0077735632729126584 0.0150000388424394 0 0.0081675801164643267 0.015667457850505842 0 0.0086605880673314359 0.014999665937433482 0 0.0083371390905102646 0.015535562857418835 0 0.0090760900929842438 0.015298012141040773 0 0.0084954063918072607 0.015411193174854882 0 0.0091281528453260458 0.015279171777346794 0 0.0091913495459638051 0.015607229365641413 0 0.0081675801164643267 0.015667457850505842 0 0.0091281528453260458 0.015279171777346794 0 0.0086605880673314359 0.014999665937433482 0 0.0091281528453260458 0.015279171777346794 0 0.0086605880673314359 0.014999665937433482 0 0.009546784691306761 0.014999899106790202 0 0.0091281528453260458 0.015279171777346794 0 0.0095446085839667183 0.015209933555724982 0 0.009546784691306761 0.014999899106790202 0 0.0095446085839667183 0.015209933555724982 0 0.010031464617598559 0.015731349773084151 0 0.0091913495459638051 0.015607229365641413 0 0.0091281528453260458 0.015279171777346794 0 0.0095446085839667183 0.015209933555724982 0 0.0091913495459638051 0.015607229365641413 0 0.010031464617598559 0.015731349773084151 0 0.0091913495459638051 0.015607229365641413 0 0.0092004391499965824 0.01639386214367617 0 0.010048401358180352 0.015750384610848003 0 0.0095298313173999508 0.016232508816366079 0 0.0087240764002927771 0.016025181480018726 0 0.0091913495459638051 0.015607229365641413 0 0.0092004391499965824 0.01639386214367617 0 0.0087240764002927771 0.016025181480018726 0 0.0084954063918072607 0.015411193174854882 0 0.0091913495459638051 0.015607229365641413 0 0.0095298313173999508 0.016232508816366079 0 0.0095961887662214303 0.016302343973340461 0 0.0092004391499965824 0.01639386214367617 0 0.0088215276230434042 0.016529967443351203 0 0.0086454910230829071 0.016823622802750574 0 0.0087240764002927771 0.016025181480018726 0 0.0092004391499965824 0.01639386214367617 0 0.0088215276230434042 0.016529967443351203 0 0.010031464617598559 0.015731349773084151 0 0.010008023445794375 0.015998838904191199 0 0.010449986607458158 0.016173794802306168 0 0.010449986607458158 0.016173794802306168 0 0.011205281723619199 0.015785559053206766 0 0.010942626683031854 0.016521667988930559 0 0.010031464617598559 0.015731349773084151 0 0.010449986607458158 0.016173794802306168 0 0.011205281723619199 0.015785559053206766 0 0.011205281723619199 0.015785559053206766 0 0.010394809647983854 0.015304701307009859 0 0.011165838087390153 0.014705287192156684 0 0.010031464617598559 0.015731349773084151 0 0.011205281723619199 0.015785559053206766 0 0.010394809647983854 0.015304701307009859 0 0.0095446085839667183 0.015209933555724982 0 0.010394809647983854 0.015304701307009859 0 0.011165838087390153 0.014705287192156684 0 0.0096675659006995839 0.015175120325225428 0 0.010600356840039489 0.015140119098379116 0 0.0095446085839667183 0.015209933555724982 0 0.010031464617598559 0.015731349773084151 0 0.010394809647983854 0.015304701307009859 0 0.0095446085839667183 0.015209933555724982 0 0.009546784691306761 0.014999899106790202 0 0.0099758456742167403 0.015527803654328898 0 0.009546784691306761 0.014999899106790202 0 0.0099758456742167403 0.015527803654328898 0 0.010432834965697349 0.01499996454818568 0 0.011205281723619199 0.015785559053206766 0 0.011165838087390153 0.014705287192156684 0 0.012888818569301474 0.014745738911004318 0 0.010600356840039489 0.015140119098379116 0 0.01179022713320345 0.015254344079724006 0 0.0099758456742167403 0.015527803654328898 0 0.010737742306698586 0.015706115998976113 0 0.010432834965697349 0.01499996454818568 0 0.011319641480507523 0.014999804602977789 0 0.010737742306698586 0.015706115998976113 0 0.010432834965697349 0.01499996454818568 0 0.012518637402466963 0.015539674080558487 0 0.01179022713320345 0.015254344079724006 0 0.011319641480507523 0.014999804602977789 0 0.011563604874307892 0.015796680327115932 0 0.010737742306698586 0.015706115998976113 0 0.01356500931508965 0.015350258929689558 0 0.013579574243640757 0.01523091615727558 0 0.013334098945999408 0.015480880388115749 0 0.01356500931508965 0.015350258929689558 0 0.012888818569301474 0.014745738911004318 0 0.013334098945999408 0.015480880388115749 0 0.011205281723619199 0.015785559053206766 0 0.012888818569301474 0.014745738911004318 0 0.013334098945999408 0.015480880388115749 0 0.013334098945999408 0.015480880388115749 0 0.013933352657430436 0.014840729997433343 0 0.014740690773305927 0.014564455056463133 0 0.013363215347729674 0.015433016640024187 0 0.013217950244458593 0.01548614477013849 0 0.011205281723619199 0.015785559053206766 0 0.013334098945999408 0.015480880388115749 0 0.011671447314000919 0.01658659444492799 0 0.013579574243640757 0.01523091615727558 0 0.013334098945999408 0.015480880388115749 0 0.013933352657430436 0.014840729997433343 0 0.013933352657430436 0.014840729997433343 0 0.014740690773305927 0.014564455056463133 0 0.014211170880358311 0.014110160092689812 0 0.013758352559613477 0.014680025703528186 0 0.013933352657430436 0.014840729997433343 0 0.014211170880358311 0.014110160092689812 0 0.014740690773305927 0.014564455056463133 0 0.014709521030573025 0.013702121337113068 0 0.015176506571758628 0.013733463315593313 0 0.014740690773305927 0.014564455056463133 0 0.014211170880358311 0.014110160092689812 0 0.014709521030573025 0.013702121337113068 0 0.014494809468758665 0.013211309834949793 0 0.014723748119903159 0.013351798106220916 0 0.014709521030573025 0.013702121337113068 0 0.014211170880358311 0.014110160092689812 0 0.014494809468758665 0.013211309834949793 0 0.014709521030573025 0.013702121337113068 0 0.014494809468758665 0.013211309834949793 0 0.01451615866360206 0.013031390048360019 0 0.014587072566615745 0.013084434395060239 0 0.014496411482348695 0.013217166689264889 0 0.014566105637384048 0.013196190037461456 0 0.014494809468758665 0.013211309834949793 0 0.014587072566615745 0.013084434395060239 0 0.014730010949827335 0.012844223095349865 0 0.014566105637384048 0.013196190037461456 0 0.01469562091117642 0.013100191405465925 0 0.01451615866360206 0.013031390048360019 0 0.014314411357969474 0.013201804516693214 0 0.014587072566615745 0.013084434395060239 0 0.01451615866360206 0.013031390048360019 0 0.014087862607588297 0.012954190377416486 0 0.014314411357969474 0.013201804516693214 0 0.014723748119903159 0.013351798106220916 0 0.014709521030573025 0.013702121337113068 0 0.014968504756516622 0.01350181846587167 0 0.014709521030573025 0.013702121337113068 0 0.015176506571758628 0.013733463315593313 0 0.014968504756516622 0.01350181846587167 0 0.015176506571758628 0.013733463315593313 0 0.015188050178848592 0.013508801595004501 0 0.014968504756516622 0.01350181846587167 0 0.014723748119903159 0.013351798106220916 0 0.014968504756516622 0.01350181846587167 0 0.015087080797245548 0.013305176128968031 0 0.015188050178848592 0.013508801595004501 0 0.014968504756516622 0.01350181846587167 0 0.015087080797245548 0.013305176128968031 0 0.01469562091117642 0.013100191405465925 0 0.013627951823303211 0.013307695304152966 0 0.014087862607588297 0.012954190377416486 0 0.013610219877457964 0.013194004233645504 0 0.013244760782662608 0.01306612029739106 0 0.015087080797245548 0.013305176128968031 0 0.015272316365319453 0.013312860191009369 0 0.015337837622409044 0.013239716515163764 0 0.012921557717745164 0.014261202411352565 0 0.013592141801549697 0.013971892404066702 0 0.012921557717745164 0.014261202411352565 0 0.013627951823303211 0.013307695304152966 0 0.015302722809157251 0.013298739261285376 0 0.015272316365319453 0.013312860191009369 0 0.015337837622409044 0.013239716515163764 0 0.015188050178848592 0.013508801595004501 0 0.015302864069118823 0.013288576230600171 0 0.015272316365319453 0.013312860191009369 0 0.015188050178848592 0.013508801595004501 0 0.015087080797245548 0.013305176128968031 0 0.015272316365319453 0.013312860191009369 0 0.015176506571758628 0.013733463315593313 0 0.015188050178848592 0.013508801595004501 0 0.015302864069118823 0.013288576230600171 0 0.012983394620292191 0.01518853179463279 0 0.012921557717745164 0.014261202411352565 0 0.01076219852247097 0.016486983206598319 0 0.010651085433060077 0.016207480721547145 0 0.010739500937443039 0.016427391502060507 0 0.01076219852247097 0.016486983206598319 0 0.010589432309531417 0.016062652398041864 0 0.010651085433060077 0.016207480721547145 0 0.010651085433060077 0.016207480721547145 0 0.010739500937443039 0.016427391502060507 0 0.010602464888165658 0.016131723497950608 0 0.010739500937443039 0.016427391502060507 0 0.010942626683031854 0.016521667988930559 0 0.010241146090853897 0.016512146627658045 0 0.011671447314000919 0.01658659444492799 0 0.01076219852247097 0.016486983206598319 0 0.010942626683031854 0.016521667988930559 0 0.013217950244458593 0.01548614477013849 0 0.012983394620292191 0.01518853179463279 0 0.01076219852247097 0.016486983206598319 0 0.010739500937443039 0.016427391502060507 0 0.010942626683031854 0.016521667988930559 0 0.011205281723619199 0.015785559053206766 0 0.011671447314000919 0.01658659444492799 0 0.010942626683031854 0.016521667988930559 0 0.010449986607458158 0.016173794802306168 0 0.010942626683031854 0.016521667988930559 0 0.010241146090853897 0.016512146627658045 0 0.010008023445794375 0.015998838904191199 0 0.010449986607458158 0.016173794802306168 0 0.010241146090853897 0.016512146627658045 0 0.010008023445794375 0.015998838904191199 0 0.010241146090853897 0.016512146627658045 0 0.0097124244194923132 0.016254615970252045 0 0.010547857601858742 0.015912656134279717 0 0.010442473207268925 0.015908656814539689 0 0.01043454725906774 0.015838430523579368 0 0.010471448200267495 0.016191666080764021 0 0.0095961887662214303 0.016302343973340461 0 0.010547857601858742 0.015912656134279717 0 0.010508777688899339 0.016000320247457088 0 0.010442473207268925 0.015908656814539689 0 0.010547857601858742 0.015912656134279717 0 0.010602464888165658 0.016131723497950608 0 0.010508777688899339 0.016000320247457088 0 0.010739500937443039 0.016427391502060507 0 0.010547857601858742 0.015912656134279717 0 0.010602464888165658 0.016131723497950608 0 0.01065830579959123 0.016394079677896266 0 0.010471448200267495 0.016191666080764021 0 0.010602464888165658 0.016131723497950608 0 0.010546670901026074 0.016046344839423736 0 0.010508777688899339 0.016000320247457088 0 0.010651085433060077 0.016207480721547145 0 0.010546670901026074 0.016046344839423736 0 0.010570362119721382 0.016050236901044696 0 0.010651085433060077 0.016207480721547145 0 0.010602464888165658 0.016131723497950608 0 0.010546670901026074 0.016046344839423736 0 0.010589432309531417 0.016062652398041864 0 0.010651085433060077 0.016207480721547145 0 0.010570362119721382 0.016050236901044696 0 0.010589432309531417 0.016062652398041864 0 0.010570362119721382 0.016050236901044696 0 0.010531694507511914 0.015982888975897509 0 0.010589432309531417 0.016062652398041864 0 0.010531694507511914 0.015982888975897509 0 0.010497048142074214 0.015931194450356866 0 0.010546670901026074 0.016046344839423736 0 0.010570362119721382 0.016050236901044696 0 0.010499034097673852 0.015958422286303783 0 0.010570362119721382 0.016050236901044696 0 0.010531694507511914 0.015982888975897509 0 0.010499034097673852 0.015958422286303783 0 0.010499034097673852 0.015958422286303783 0 0.010430850751226519 0.015853445148778525 0 0.010459776305228369 0.01588644510659935 0 0.010531694507511914 0.015982888975897509 0 0.010499034097673852 0.015958422286303783 0 0.010459776305228369 0.01588644510659935 0 0.010499034097673852 0.015958422286303783 0 0.010471969646788088 0.015946034121380962 0 0.010430850751226519 0.015853445148778525 0 0.010471969646788088 0.015946034121380962 0 0.010508777688899339 0.016000320247457088 0 0.010442473207268925 0.015908656814539689 0 0.010546670901026074 0.016046344839423736 0 0.010499034097673852 0.015958422286303783 0 0.010471969646788088 0.015946034121380962 0 0.010546670901026074 0.016046344839423736 0 0.010471969646788088 0.015946034121380962 0 0.010508777688899339 0.016000320247457088 0 0.010425364912781324 0.015859824922979597 0 0.010415918319298844 0.015838360832473867 0 0.010442473207268925 0.015908656814539689 0 0.010471969646788088 0.015946034121380962 0 0.010425364912781324 0.015859824922979597 0 0.010442473207268925 0.015908656814539689 0 0.010471969646788088 0.015946034121380962 0 0.010425364912781324 0.015859824922979597 0 0.010430850751226519 0.015853445148778525 0 0.010425364912781324 0.015859824922979597 0 0.010430850751226519 0.015853445148778525 0 0.010408272989263818 0.015749063814902004 0 0.010408272989263818 0.015749063814902004 0 0.010416485071825989 0.01577632410190009 0 0.01043269615925525 0.015656630965760292 0 0.010425364912781324 0.015859824922979597 0 0.010408272989263818 0.015749063814902004 0 0.010416485071825989 0.01577632410190009 0 0.010425364912781324 0.015859824922979597 0 0.010415918319298844 0.015838360832473867 0 0.010416485071825989 0.01577632410190009 0 0.010415918319298844 0.015838360832473867 0 0.010416485071825989 0.01577632410190009 0 0.010425806386841058 0.015779970051487145 0 0.010043716894553283 0.015915002335218361 0 0.010168615611620082 0.015796830648309557 0 0.010415918319298844 0.015838360832473867 0 0.010409770980416174 0.015860676745078562 0 0.010425806386841058 0.015779970051487145 0 0.010415918319298844 0.015838360832473867 0 0.010409770980416174 0.015860676745078562 0 0.010442473207268925 0.015908656814539689 0 0.010043716894553283 0.015915002335218361 0 0.0095961887662214303 0.016302343973340461 0 0.010409770980416174 0.015860676745078562 0 0.010442473207268925 0.015908656814539689 0 0.01043454725906774 0.015838430523579368 0 0.0095404827149808968 0.016063122023512823 0 0.0093559541465966425 0.016345384728237114 0 0.0095067779243518304 0.01632077825703962 0 0.0095199436635332209 0.016440062990996665 0 0.0095067779243518304 0.01632077825703962 0 0.0095953031707355675 0.016237446117130697 0 0.0095199436635332209 0.016440062990996665 0 0.0095953031707355675 0.016237446117130697 0 0.0098148876202283422 0.016150308412240771 0 0.0095404827149808968 0.016063122023512823 0 0.0095953031707355675 0.016237446117130697 0 0.0098148876202283422 0.016150308412240771 0 0.0095404827149808968 0.016063122023512823 0 0.0095067779243518304 0.01632077825703962 0 0.0095953031707355675 0.016237446117130697 0 0.010744696767969741 0.015348664899061512 0 0.010544974652000983 0.015291687222099932 0 0.010555818709673545 0.015416522803571539 0 0.010744696767969741 0.015348664899061512 0 0.010673119768208981 0.015448959670684157 0 0.010555818709673545 0.015416522803571539 0 0.010744696767969741 0.015348664899061512 0 0.010796085727731232 0.015496808742362266 0 0.010932762965525865 0.015409214705648964 0 0.010744696767969741 0.015348664899061512 0 0.010673119768208981 0.015448959670684157 0 0.010796085727731232 0.015496808742362266 0 0.010932762965525865 0.015409214705648964 0 0.011110295089846777 0.01523279976187651 0 0.011070648163202879 0.015550866671282229 0 0.011110295089846777 0.01523279976187651 0 0.011482058468678925 0.015209863270754851 0 0.011070648163202879 0.015550866671282229 0 0.010796085727731232 0.015496808742362266 0 0.010932762965525865 0.015409214705648964 0 0.011070648163202879 0.015550866671282229 0 0.010744696767969741 0.015348664899061512 0 0.010932762965525865 0.015409214705648964 0 0.011110295089846777 0.01523279976187651 0 0.010744696767969741 0.015348664899061512 0 0.011110295089846777 0.01523279976187651 0 0.010825394457653733 0.015071343787909648 0 0.011110295089846777 0.01523279976187651 0 0.010825394457653733 0.015071343787909648 0 0.011432937563129889 0.014879131478971212 0 0.010744696767969741 0.015348664899061512 0 0.010825394457653733 0.015071343787909648 0 0.010544974652000983 0.015291687222099932 0 0.010825394457653733 0.015071343787909648 0 0.01047154289484027 0.015218591893874218 0 0.010544974652000983 0.015291687222099932 0 0.010769892414932402 0.014959884588739255 0 0.010502818198799618 0.01517416019572658 0 0.010416262781844788 0.015582940066425067 0 0.010353042060404313 0.0156780113104131 0 0.01047154289484027 0.015218591893874218 0 0.010825394457653733 0.015071343787909648 0 0.010994834106873524 0.014298548435999408 0 0.01047154289484027 0.015218591893874218 0 0.010408272989263818 0.015749063814902004 0 0.010416262781844788 0.015582940066425067 0 0.01043269615925525 0.015656630965760292 0 0.010408272989263818 0.015749063814902004 0 0.010416262781844788 0.015582940066425067 0 0.010353042060404313 0.0156780113104131 0 0.010430850751226519 0.015853445148778525 0 0.010353042060404313 0.0156780113104131 0 0.010459776305228369 0.01588644510659935 0 0.010430850751226519 0.015853445148778525 0 0.010408272989263818 0.015749063814902004 0 0.010353042060404313 0.0156780113104131 0 0.010825394457653733 0.015071343787909648 0 0.010994834106873524 0.014298548435999408 0 0.011432937563129889 0.014879131478971212 0 0.010994834106873524 0.014298548435999408 0 0.011432937563129889 0.014879131478971212 0 0.011643243070769792 0.014087144780899593 0 0.011643243070769792 0.014087144780899593 0 0.01210959690952013 0.013856510008382818 0 0.012243799531250906 0.014185138284690405 0 0.011432937563129889 0.014879131478971212 0 0.011643243070769792 0.014087144780899593 0 0.012243799531250906 0.014185138284690405 0 0.010769892414932402 0.014959884588739255 0 0.01113534945191502 0.014728030121729085 0 0.010353042060404313 0.0156780113104131 0 0.010497048142074214 0.015931194450356866 0 0.010459776305228369 0.01588644510659935 0 0.010994834106873524 0.014298548435999408 0 0.011643243070769792 0.014087144780899593 0 0.01211248451655729 0.013400892577425478 0 0.011643243070769792 0.014087144780899593 0 0.01210959690952013 0.013856510008382818 0 0.01211248451655729 0.013400892577425478 0 0.01210959690952013 0.013856510008382818 0 0.01211248451655729 0.013400892577425478 0 0.012441539206054165 0.013729166881331229 0 0.010531694507511914 0.015982888975897509 0 0.010497048142074214 0.015931194450356866 0 0.010459776305228369 0.01588644510659935 0 0.013405285027538781 0.012815745838643257 0 0.01211248451655729 0.013400892577425478 0 0.012488682549576038 0.013335495410493397 0 0.013405285027538781 0.012815745838643257 0 0.012488682549576038 0.013335495410493397 0 0.013238060904258471 0.013100514530082413 0 0.012921557717745164 0.014261202411352565 0 0.01113534945191502 0.014728030121729085 0 0.013128461034593154 0.013531223642210257 0 0.013627951823303211 0.013307695304152966 0 0.012546853825746761 0.013366853935586008 0 0.013627951823303211 0.013307695304152966 0 0.012488682549576038 0.013335495410493397 0 0.012908742560789943 0.013556646485353104 0 0.013189538988548355 0.013087799597579044 0 0.01211248451655729 0.013400892577425478 0 0.012488682549576038 0.013335495410493397 0 0.012441539206054165 0.013729166881331229 0 0.012488682549576038 0.013335495410493397 0 0.012441539206054165 0.013729166881331229 0 0.012908742560789943 0.013556646485353104 0 0.01210959690952013 0.013856510008382818 0 0.012441539206054165 0.013729166881331229 0 0.012243799531250906 0.014185138284690405 0 0.012441539206054165 0.013729166881331229 0 0.012908742560789943 0.013556646485353104 0 0.012854049371867514 0.01393173023882229 0 0.012908742560789943 0.013556646485353104 0 0.012854049371867514 0.01393173023882229 0 0.013183712987720407 0.013711369523999706 0 0.012854049371867514 0.01393173023882229 0 0.012243799531250906 0.014185138284690405 0 0.013058475885696133 0.014457503609764834 0 0.011432937563129889 0.014879131478971212 0 0.012243799531250906 0.014185138284690405 0 0.013058475885696133 0.014457503609764834 0 0.012854049371867514 0.01393173023882229 0 0.013058475885696133 0.014457503609764834 0 0.013263724152894282 0.013950311633255625 0 0.011532282982730702 0.014882751995807084 0 0.012096215731695573 0.014678154248394044 0 0.012441539206054165 0.013729166881331229 0 0.012854049371867514 0.01393173023882229 0 0.012243799531250906 0.014185138284690405 0 0.011550546241183237 0.015024001351116829 0 0.011495651309852906 0.014954880034013445 0 0.011607199326672245 0.015008148335806709 0 0.011432937563129889 0.014879131478971212 0 0.011550546241183237 0.015024001351116829 0 0.011607199326672245 0.015008148335806709 0 0.011495651309852906 0.014954880034013445 0 0.011607199326672245 0.015008148335806709 0 0.011595941483957454 0.014632397968223148 0 0.011110295089846777 0.01523279976187651 0 0.011432937563129889 0.014879131478971212 0 0.011432919431342579 0.015074812543273275 0 0.011432937563129889 0.014879131478971212 0 0.011607199326672245 0.015008148335806709 0 0.011432919431342579 0.015074812543273275 0 0.011607199326672245 0.015008148335806709 0 0.011432919431342579 0.015074812543273275 0 0.011482058468678925 0.015209863270754851 0 0.011793179349439027 0.014674011658506724 0 0.011498118577781316 0.015749929999913568 0 0.011607199326672245 0.015008148335806709 0 0.011482058468678925 0.015209863270754851 0 0.011454349936476996 0.015341166176429489 0 0.011110295089846777 0.01523279976187651 0 0.011432919431342579 0.015074812543273275 0 0.011482058468678925 0.015209863270754851 0 0.011482058468678925 0.015209863270754851 0 0.011454349936476996 0.015341166176429489 0 0.011441792348225425 0.015323671724467162 0 0.011485632766421405 0.015223042292712425 0 0.011220977087677579 0.01548583423809656 0 0.011607199326672245 0.015008148335806709 0 0.011595941483957454 0.014632397968223148 0 0.012136500219151197 0.014448220003388133 0 0.015993611045010143 0.0120902822576489 0 0.015910362276211107 0.011914025089589634 0 0.016047856723964526 0.011880686282399047 0 0.013661190596538031 0.013388928742341467 0 0.013625551958025239 0.013507970070228904 0 0.011495651309852906 0.014954880034013445 0 0.011595941483957454 0.014632397968223148 0 0.011336752305449775 0.014812639752141784 0 0.011595941483957454 0.014632397968223148 0 0.011336752305449775 0.014812639752141784 0 0.01132874648919484 0.014261689059882548 0 0.015993611045010143 0.0120902822576489 0 0.015898662514277326 0.012063276798345148 0 0.015910362276211107 0.011914025089589634 0 0.01583859893742344 0.011990505333655801 0 0.015898662514277326 0.012063276798345148 0 0.015910362276211107 0.011914025089589634 0 0.01583859893742344 0.011990505333655801 0 0.015868319613016806 0.012086714058155318 0 0.015898662514277326 0.012063276798345148 0 0.01583859893742344 0.011990505333655801 0 0.015868319613016806 0.012086714058155318 0 0.015800830901582432 0.012074979199018315 0 0.015868319613016806 0.012086714058155318 0 0.015898662514277326 0.012063276798345148 0 0.015923945418414711 0.012132197919761912 0 0.015993611045010143 0.0120902822576489 0 0.015898662514277326 0.012063276798345148 0 0.015923945418414711 0.012132197919761912 0 0.015868319613016806 0.012086714058155318 0 0.015884856620916508 0.012134230636879953 0 0.015800830901582432 0.012074979199018315 0 0.015884856620916508 0.012134230636879953 0 0.015884749961562233 0.012160908552186815 0 0.015800830901582432 0.012074979199018315 0 0.015868319613016806 0.012086714058155318 0 0.015923945418414711 0.012132197919761912 0 0.015884856620916508 0.012134230636879953 0 0.015884749961562233 0.012160908552186815 0 0.01591636844221524 0.012176432754356876 0 0.015922145168438435 0.012201080446887381 0 0.015884856620916508 0.012134230636879953 0 0.015884749961562233 0.012160908552186815 0 0.01591636844221524 0.012176432754356876 0 0.015923945418414711 0.012132197919761912 0 0.01591636844221524 0.012176432754356876 0 0.015942501125409007 0.012210052889431167 0 0.015923945418414711 0.012132197919761912 0 0.015884856620916508 0.012134230636879953 0 0.01591636844221524 0.012176432754356876 0 0.013661190596538031 0.013388928742341467 0 0.013927607082332542 0.013466861576113208 0 0.015993611045010143 0.0120902822576489 0 0.015923945418414711 0.012132197919761912 0 0.015942501125409007 0.012210052889431167 0 0.011495651309852906 0.014954880034013445 0 0.011336752305449775 0.014812639752141784 0 0.011402715863556647 0.015056700819992616 0 0.011550546241183237 0.015024001351116829 0 0.011495651309852906 0.014954880034013445 0 0.011402715863556647 0.015056700819992616 0 0.012096215731695573 0.014678154248394044 0 0.013927607082332542 0.013466861576113208 0 0.013058475885696133 0.014457503609764834 0 0.013715588190128322 0.014131540272617486 0 0.013661144451908438 0.013870190498032422 0 0.013661144451908438 0.013870190498032422 0 0.013492673307107178 0.013656696353783426 0 0.013755936113992399 0.013599412864830438 0 0.013661144451908438 0.013870190498032422 0 0.013755936113992399 0.013599412864830438 0 0.013944805301193767 0.013699793517615421 0 0.013058475885696133 0.014457503609764834 0 0.013661144451908438 0.013870190498032422 0 0.013263724152894282 0.013950311633255625 0 0.013661144451908438 0.013870190498032422 0 0.013263724152894282 0.013950311633255625 0 0.013492673307107178 0.013656696353783426 0 0.012854049371867514 0.01393173023882229 0 0.013263724152894282 0.013950311633255625 0 0.013183712987720407 0.013711369523999706 0 0.013263724152894282 0.013950311633255625 0 0.013183712987720407 0.013711369523999706 0 0.013492673307107178 0.013656696353783426 0 0.012908742560789943 0.013556646485353104 0 0.013183712987720407 0.013711369523999706 0 0.013354508642057783 0.013435121052098478 0 0.013183712987720407 0.013711369523999706 0 0.013354508642057783 0.013435121052098478 0 0.013492673307107178 0.013656696353783426 0 0.013492673307107178 0.013656696353783426 0 0.013755936113992399 0.013599412864830438 0 0.013675383544765151 0.01339758827164694 0 0.013354508642057783 0.013435121052098478 0 0.013492673307107178 0.013656696353783426 0 0.013675383544765151 0.01339758827164694 0 0.013354508642057783 0.013435121052098478 0 0.013675383544765151 0.01339758827164694 0 0.013610219877457964 0.013194004233645504 0 0.013675383544765151 0.01339758827164694 0 0.013610219877457964 0.013194004233645504 0 0.013826022078261986 0.01322274860630507 0 0.013354508642057783 0.013435121052098478 0 0.013610219877457964 0.013194004233645504 0 0.013244760782662608 0.01306612029739106 0 0.012908742560789943 0.013556646485353104 0 0.013354508642057783 0.013435121052098478 0 0.013244760782662608 0.01306612029739106 0 0.014087862607588297 0.012954190377416486 0 0.013995113449170692 0.013368995289360855 0 0.014314411357969474 0.013201804516693214 0 0.014087862607588297 0.012954190377416486 0 0.013826022078261986 0.01322274860630507 0 0.013995113449170692 0.013368995289360855 0 0.014087862607588297 0.012954190377416486 0 0.013610219877457964 0.013194004233645504 0 0.013826022078261986 0.01322274860630507 0 0.013675383544765151 0.01339758827164694 0 0.013826022078261986 0.01322274860630507 0 0.013995113449170692 0.013368995289360855 0 0.013755936113992399 0.013599412864830438 0 0.013995113449170692 0.013368995289360855 0 0.014104898438238892 0.013537026784413167 0 0.013755936113992399 0.013599412864830438 0 0.013675383544765151 0.01339758827164694 0 0.013995113449170692 0.013368995289360855 0 0.013995113449170692 0.013368995289360855 0 0.014104898438238892 0.013537026784413167 0 0.014314411357969474 0.013201804516693214 0 0.014104898438238892 0.013537026784413167 0 0.013944805301193767 0.013699793517615421 0 0.014243782201668716 0.013770255381557508 0 0.014104898438238892 0.013537026784413167 0 0.014243782201668716 0.013770255381557508 0 0.014421809057828515 0.013360256018478124 0 0.013715588190128322 0.014131540272617486 0 0.013661144451908438 0.013870190498032422 0 0.014243782201668716 0.013770255381557508 0 0.013661144451908438 0.013870190498032422 0 0.013944805301193767 0.013699793517615421 0 0.014243782201668716 0.013770255381557508 0 0.013755936113992399 0.013599412864830438 0 0.014104898438238892 0.013537026784413167 0 0.013944805301193767 0.013699793517615421 0 0.013927607082332542 0.013466861576113208 0 0.01514826882643238 0.012998307709186649 0 0.01591636844221524 0.012176432754356876 0 0.015942501125409007 0.012210052889431167 0 0.015922145168438435 0.012201080446887381 0 0.015884749961562233 0.012160908552186815 0 0.015922145168438435 0.012201080446887381 0 0.015883330688608994 0.012198463854200692 0 0.01514826882643238 0.012998307709186649 0 0.015149250456500646 0.012731907330464816 0 0.015922145168438435 0.012201080446887381 0 0.015883330688608994 0.012198463854200692 0 0.015719843846408486 0.012288052415428137 0 0.014243782201668716 0.013770255381557508 0 0.014421809057828515 0.013360256018478124 0 0.014692949964441652 0.013182045110392721 0 0.014104898438238892 0.013537026784413167 0 0.014421809057828515 0.013360256018478124 0 0.014314411357969474 0.013201804516693214 0 0.014421809057828515 0.013360256018478124 0 0.014314411357969474 0.013201804516693214 0 0.014587072566615745 0.013084434395060239 0 0.014421809057828515 0.013360256018478124 0 0.014587072566615745 0.013084434395060239 0 0.014692949964441652 0.013182045110392721 0 0.014587072566615745 0.013084434395060239 0 0.014692949964441652 0.013182045110392721 0 0.014730010949827335 0.012844223095349865 0 0.015883330688608994 0.012198463854200692 0 0.015719843846408486 0.012288052415428137 0 0.015770987688800548 0.012086029302234227 0 0.015755714806447163 0.01193642574704957 0 0.015770987688800548 0.012086029302234227 0 0.015556109061878919 0.011992979544369772 0 0.015719843846408486 0.012288052415428137 0 0.015770987688800548 0.012086029302234227 0 0.015556109061878919 0.011992979544369772 0 0.015755714806447163 0.01193642574704957 0 0.015770987688800548 0.012086029302234227 0 0.015870361116583152 0.011999876820184838 0 0.015887272194636436 0.012195388042137073 0 0.015900020763167887 0.011913696220641779 0 0.015884749961562233 0.012160908552186815 0 0.015883330688608994 0.012198463854200692 0 0.015800830901582432 0.012074979199018315 0 0.015883330688608994 0.012198463854200692 0 0.015870361116583152 0.011999876820184838 0 0.015999794162827492 0.011901670504139495 0 0.015883330688608994 0.012198463854200692 0 0.015770987688800548 0.012086029302234227 0 0.015870361116583152 0.011999876820184838 0 0.015900020763167887 0.011913696220641779 0 0.015870196757818443 0.01196155256892633 0 0.015999794162827492 0.011901670504139495 0 0.015930351392399768 0.011835214919879641 0 0.016048863731513333 0.01145346387076061 0 0.01583859893742344 0.011990505333655801 0 0.015800830901582432 0.012074979199018315 0 0.015749738750983826 0.011862540368959566 0 0.015930351392399768 0.011835214919879641 0 0.016048863731513333 0.01145346387076061 0 0.01580742024554891 0.011598663583337008 0 0.015755714806447163 0.01193642574704957 0 0.015870361116583152 0.011999876820184838 0 0.015930351392399768 0.011835214919879641 0 0.015870361116583152 0.011999876820184838 0 0.015999794162827492 0.011901670504139495 0 0.015930351392399768 0.011835214919879641 0 0.015755714806447163 0.01193642574704957 0 0.015930351392399768 0.011835214919879641 0 0.015682734717148535 0.011821322379856489 0 0.015755714806447163 0.01193642574704957 0 0.015682734717148535 0.011821322379856489 0 0.015556109061878919 0.011992979544369772 0 0.015950767610728469 0.01183672795300127 0 0.015519442642419862 0.011770097562295237 0 0.015930351392399768 0.011835214919879641 0 0.015613040198995945 0.011744196657662905 0 0.01580742024554891 0.011598663583337008 0 0.015613040198995945 0.011744196657662905 0 0.01565099405217792 0.011360562632712391 0 0.015297762077400121 0.01168153720505905 0 0.015613040198995945 0.011744196657662905 0 0.01565099405217792 0.011360562632712391 0 0.01580742024554891 0.011598663583337008 0 0.01565099405217792 0.011360562632712391 0 0.016048863731513333 0.01145346387076061 0 0.01580742024554891 0.011598663583337008 0 0.017174632966115076 0.010246846086424894 0 0.016324981232525123 0.0097748834307167208 0 0.018234257233450245 0.0093282941709063264 0 0.01859803434589305 0.0089619553610192065 0 0.018322203093187273 0.0089936683500519508 0 0.015870196757818443 0.01196155256892633 0 0.016324981232525123 0.0097748834307167208 0 0.01565099405217792 0.011360562632712391 0 0.016048863731513333 0.01145346387076061 0 0.016063065979596246 0.01098846846934769 0 0.01859803434589305 0.0089619553610192065 0 0.018322203093187273 0.0089936683500519508 0 0.01859791489599923 0.0088585734577482211 0 0.018234257233450245 0.0093282941709063264 0 0.018322203093187273 0.0089936683500519508 0 0.018032319808473314 0.0090474825170643054 0 0.018322203093187273 0.0089936683500519508 0 0.018125570750624004 0.008740760003060918 0 0.018032319808473314 0.0090474825170643054 0 0.018322203093187273 0.0089936683500519508 0 0.018125570750624004 0.008740760003060918 0 0.01859791489599923 0.0088585734577482211 0 0.017155447409545044 0.0072807329615500425 0 0.016519778581457235 0.0075664539352605122 0 0.015945282645708551 0.0058640942585604884 0 0.015897029468725916 0.0059255849420628602 0 0.015989297768441307 0.006053972430144868 0 0.015897029468725916 0.0059255849420628602 0 0.015989297768441307 0.006053972430144868 0 0.015959058883992405 0.0060644243248019671 0 0.015945282645708551 0.0058640942585604884 0 0.015897029468725916 0.0059255849420628602 0 0.015827610308204544 0.005788907313091062 0 0.015738733912394692 0.0058153818299232314 0 0.015793208185574444 0.0057987305199069849 0 0.015817197044230499 0.0059183767556688733 0 0.015897029468725916 0.0059255849420628602 0 0.015793208185574444 0.0057987305199069849 0 0.015817197044230499 0.0059183767556688733 0 0.015793208185574444 0.0057987305199069849 0 0.015747457973916832 0.0057030857150393828 0 0.015827610308204544 0.005788907313091062 0 0.015897029468725916 0.0059255849420628602 0 0.015793208185574444 0.0057987305199069849 0 0.015827610308204544 0.005788907313091062 0 0.015738733912394692 0.0058153818299232314 0 0.015793208185574444 0.0057987305199069849 0 0.015643354284612061 0.0056771443073510199 0 0.015793208185574444 0.0057987305199069849 0 0.015747457973916832 0.0057030857150393828 0 0.015643354284612061 0.0056771443073510199 0 0.015945282645708551 0.0058640942585604884 0 0.015827610308204544 0.005788907313091062 0 0.015757525167357449 0.0056698915529256122 0 0.015747457973916832 0.0057030857150393828 0 0.015736694966958065 0.0055964838928046472 0 0.015668807397201258 0.0056341593571210538 0 0.016136774519640715 0.0056767703634762858 0 0.016519778581457235 0.0075664539352605122 0 0.015747457973916832 0.0057030857150393828 0 0.015827610308204544 0.005788907313091062 0 0.015757525167357449 0.0056698915529256122 0 0.016324981232525123 0.0097748834307167208 0 0.015561810693955869 0.0078443774133042932 0 0.016345315482968852 0.008323444402599002 0 0.016345451620372146 0.0082759501820891812 0 0.016386064989501854 0.0082832219854969882 0 0.016324981232525123 0.0097748834307167208 0 0.016519778581457235 0.0075664539352605122 0 0.016519778581457235 0.0075664539352605122 0 0.015561810693955869 0.0078443774133042932 0 0.015736694966958065 0.0055964838928046472 0 0.015690180804498709 0.0055916240066509644 0 0.015668807397201258 0.0056341593571210538 0 0.015561810693955869 0.0078443774133042932 0 0.01549591523954195 0.0091270896297262639 0 0.014024495566161917 0.0064422025105143341 0 0.014609667788053348 0.0059179975958925379 0 0.014684963698549318 0.0065637194345246255 0 0.015535763689797269 0.0055747476401952255 0 0.015668807397201258 0.0056341593571210538 0 0.015643354284612061 0.0056771443073510199 0 0.015561810693955869 0.0078443774133042932 0 0.015122656860417907 0.0056438027747468134 0 0.015690180804498709 0.0055916240066509644 0 0.015535763689797269 0.0055747476401952255 0 0.015668807397201258 0.0056341593571210538 0 0.015747457973916832 0.0057030857150393828 0 0.015668807397201258 0.0056341593571210538 0 0.015643354284612061 0.0056771443073510199 0 0.015535763689797269 0.0055747476401952255 0 0.015643354284612061 0.0056771443073510199 0 0.015530480594519632 0.0056242061083611747 0 0.015643354284612061 0.0056771443073510199 0 0.015539205847849206 0.0057069143425055417 0 0.015667126910305269 0.005816343691364116 0 0.015643354284612061 0.0056771443073510199 0 0.015530480594519632 0.0056242061083611747 0 0.015539205847849206 0.0057069143425055417 0 0.015738733912394692 0.0058153818299232314 0 0.015643354284612061 0.0056771443073510199 0 0.015667126910305269 0.005816343691364116 0 0.015160330293301433 0.0054131475940592212 0 0.015269639583828215 0.0055632988823877752 0 0.015402479466051222 0.0055756760170725186 0 0.015122233033348512 0.005470131354428422 0 0.015160330293301433 0.0054131475940592212 0 0.014994529508592579 0.0053690807979088189 0 0.015160330293301433 0.0054131475940592212 0 0.015104705971107543 0.0055468382869575438 0 0.015269639583828215 0.0055632988823877752 0 0.015160330293301433 0.0054131475940592212 0 0.015104705971107543 0.0055468382869575438 0 0.014994529508592579 0.0053690807979088189 0 0.015530480594519632 0.0056242061083611747 0 0.015539205847849206 0.0057069143425055417 0 0.015402479466051222 0.0055756760170725186 0 0.015539205847849206 0.0057069143425055417 0 0.015402479466051222 0.0055756760170725186 0 0.015343992691680224 0.0056938873654816986 0 0.015269639583828215 0.0055632988823877752 0 0.015402479466051222 0.0055756760170725186 0 0.015343992691680224 0.0056938873654816986 0 0.015535763689797269 0.0055747476401952255 0 0.015530480594519632 0.0056242061083611747 0 0.015402479466051222 0.0055756760170725186 0 0.015535763689797269 0.0055747476401952255 0 0.015160330293301433 0.0054131475940592212 0 0.015402479466051222 0.0055756760170725186 0 0.015122656860417907 0.0056438027747468134 0 0.015127832080446595 0.0055239905904855106 0 0.014609667788053348 0.0059179975958925379 0 0.015122233033348512 0.005470131354428422 0 0.015061115343118055 0.0060938892481481903 0 0.015122233033348512 0.005470131354428422 0 0.015061115343118055 0.0060938892481481903 0 0.015554518145812248 0.0058058998363003031 0 0.014609667788053348 0.0059179975958925379 0 0.015122233033348512 0.005470131354428422 0 0.015160330293301433 0.0054131475940592212 0 0.014609667788053348 0.0059179975958925379 0 0.015061115343118055 0.0060938892481481903 0 0.014684963698549318 0.0065637194345246255 0 0.015061115343118055 0.0060938892481481903 0 0.014684963698549318 0.0065637194345246255 0 0.015345202224986001 0.0067062838057863399 0 0.015971155666649185 0.011748361292122632 0 0.015944806737074744 0.011607743896079725 0 0.016092604140245107 0.011640516725685597 0 0.015971155666649185 0.011748361292122632 0 0.016047856723964526 0.011880686282399047 0 0.016092604140245107 0.011640516725685597 0 0.01549591523954195 0.0091270896297262639 0 0.013830650618218726 0.010318528082292892 0 0.013625551958025239 0.013507970070228904 0 0.013830650618218726 0.010318528082292892 0 0.015789370514064913 0.011564631587089095 0 0.015944806737074744 0.011607743896079725 0 0.015852400507923092 0.011708466244213143 0 0.015749738750983826 0.011862540368959566 0 0.015733996133115227 0.011613932493638245 0 0.015852400507923092 0.011708466244213143 0 0.015971155666649185 0.011748361292122632 0 0.015944806737074744 0.011607743896079725 0 0.015852400507923092 0.011708466244213143 0 0.015733996133115227 0.011613932493638245 0 0.015789370514064913 0.011564631587089095 0 0.015852400507923092 0.011708466244213143 0 0.015749738750983826 0.011862540368959566 0 0.015852400507923092 0.011708466244213143 0 0.015910362276211107 0.011914025089589634 0 0.015971155666649185 0.011748361292122632 0 0.015852400507923092 0.011708466244213143 0 0.015910362276211107 0.011914025089589634 0 0.01583859893742344 0.011990505333655801 0 0.015749738750983826 0.011862540368959566 0 0.015910362276211107 0.011914025089589634 0 0.015971155666649185 0.011748361292122632 0 0.015910362276211107 0.011914025089589634 0 0.016047856723964526 0.011880686282399047 0 0.011595941483957454 0.014632397968223148 0 0.011773922651525789 0.014109770764625783 0 0.012136500219151197 0.014448220003388133 0 0.01132874648919484 0.014261689059882548 0 0.011773922651525789 0.014109770764625783 0 0.011463372700835243 0.013584065601942136 0 0.011595941483957454 0.014632397968223148 0 0.01132874648919484 0.014261689059882548 0 0.011773922651525789 0.014109770764625783 0 0.012136500219151197 0.014448220003388133 0 0.012133688585210483 0.014020357461081944 0 0.01258057399489761 0.013770476570709506 0 0.011773922651525789 0.014109770764625783 0 0.012136500219151197 0.014448220003388133 0 0.012133688585210483 0.014020357461081944 0 0.013301665537421783 0.0085679496624155877 0 0.013350049811854506 0.0083885004841358045 0 0.013575498459435851 0.0086339083036548817 0 0.011773922651525789 0.014109770764625783 0 0.012133688585210483 0.014020357461081944 0 0.012004362299819896 0.013686188145071223 0 0.012560536298782812 0.011174194085841437 0 0.012315251768735984 0.0099918625569842996 0 0.012133688585210483 0.014020357461081944 0 0.012004362299819896 0.013686188145071223 0 0.01258057399489761 0.013770476570709506 0 0.013301665537421783 0.0085679496624155877 0 0.013171781491664444 0.0084345773595811309 0 0.013350049811854506 0.0083885004841358045 0 0.013301665537421783 0.0085679496624155877 0 0.012998850223042393 0.0085148791501573617 0 0.013171781491664444 0.0084345773595811309 0 0.012560536298782812 0.011174194085841437 0 0.013830650618218726 0.010318528082292892 0 0.011773922651525789 0.014109770764625783 0 0.012004362299819896 0.013686188145071223 0 0.011463372700835243 0.013584065601942136 0 0.014365773088783198 0.0058346627595933526 0 0.01361927212712182 0.0060124085901510551 0 0.013830650618218726 0.010318528082292892 0 0.014365773088783198 0.0058346627595933526 0 0.015061115343118055 0.0060938892481481903 0 0.015345202224986001 0.0067062838057863399 0 0.015554518145812248 0.0058058998363003031 0 0.012998850223042393 0.0085148791501573617 0 0.013171781491664444 0.0084345773595811309 0 0.013083519594421947 0.0081520511113488611 0 0.013171781491664444 0.0084345773595811309 0 0.013083519594421947 0.0081520511113488611 0 0.013350049811854506 0.0083885004841358045 0 0.01483598996954532 0.0050206368380501911 0 0.014725706685095163 0.0052568851024592453 0 0.014994529508592579 0.0053690807979088189 0 0.014365773088783198 0.0058346627595933526 0 0.014629914549828638 0.0051650333849316398 0 0.015122233033348512 0.005470131354428422 0 0.01483598996954532 0.0050206368380501911 0 0.014994529508592579 0.0053690807979088189 0 0.015063058710329313 0.005644241233376859 0 0.014365773088783198 0.0058346627595933526 0 0.014789128941955007 0.0048631461980777023 0 0.014725706685095163 0.0052568851024592453 0 0.014225339790638333 0.0049088666681388806 0 0.014725706685095163 0.0052568851024592453 0 0.014196755947678469 0.0053372765759138715 0 0.014516759315066881 0.0056711831626501778 0 0.014725706685095163 0.0052568851024592453 0 0.014994529508592579 0.0053690807979088189 0 0.01490662002856916 0.0055524920791349052 0 0.015104705971107543 0.0055468382869575438 0 0.014994529508592579 0.0053690807979088189 0 0.01490662002856916 0.0055524920791349052 0 0.014725706685095163 0.0052568851024592453 0 0.014196755947678469 0.0053372765759138715 0 0.014225339790638333 0.0049088666681388806 0 0.013740855030642485 0.0050948845017135067 0 0.014196755947678469 0.0053372765759138715 0 0.014225339790638333 0.0049088666681388806 0 0.013740855030642485 0.0050948845017135067 0 0.014225339790638333 0.0049088666681388806 0 0.014010388463912615 0.0043518444337204438 0 0.013740855030642485 0.0050948845017135067 0 0.014010388463912615 0.0043518444337204438 0 0.01343834758206725 0.0044341405191803927 0 0.014789128941955007 0.0048631461980777023 0 0.014225339790638333 0.0049088666681388806 0 0.014010388463912615 0.0043518444337204438 0 0.01343834758206725 0.0044341405191803927 0 0.013180141642656922 0.0050431625571845176 0 0.012909860930329777 0.0045796761278782388 0 0.0121506752251968 0.0051344453552403854 0 0.012315251768735984 0.0099918625569842996 0 0.01343834758206725 0.0044341405191803927 0 0.012909860930329777 0.0045796761278782388 0 0.013394917755053885 0.0038876166970168518 0 0.013740855030642485 0.0050948845017135067 0 0.01343834758206725 0.0044341405191803927 0 0.013180141642656922 0.0050431625571845176 0 0.013740855030642485 0.0050948845017135067 0 0.013180141642656922 0.0050431625571845176 0 0.013093922453147073 0.0055184385511601649 0 0.0121506752251968 0.0051344453552403854 0 0.011883950640814578 0.0059985756419225879 0 0.011031149179087457 0.0071629060975955785 0 0.011540556043394139 0.0069704693566415045 0 0.011463330728186951 0.0064834679999611995 0 0.013180141642656922 0.0050431625571845176 0 0.012909860930329777 0.0045796761278782388 0 0.012433179608085751 0.0052186312870836941 0 0.013180141642656922 0.0050431625571845176 0 0.013093922453147073 0.0055184385511601649 0 0.012433179608085751 0.0052186312870836941 0 0.011031149179087457 0.0071629060975955785 0 0.011517204016825313 0.0073122993455157726 0 0.011540556043394139 0.0069704693566415045 0 0.011031149179087457 0.0071629060975955785 0 0.011348901972808819 0.0075777531553571946 0 0.011014068063092415 0.0077248166214351714 0 0.011031149179087457 0.0071629060975955785 0 0.011348901972808819 0.0075777531553571946 0 0.011517204016825313 0.0073122993455157726 0 0.011027743559365913 0.011572509490833499 0 0.011286401781320222 0.011617747173755947 0 0.011126941446348588 0.011502820604267262 0 0.011031149179087457 0.0071629060975955785 0 0.011014068063092415 0.0077248166214351714 0 0.010580851249738744 0.0078999103142488782 0 0.011294261448428674 0.0080253552082755475 0 0.011014068063092415 0.0077248166214351714 0 0.010701373883627721 0.0079204687206487091 0 0.010891173653477297 0.010729396664969491 0 0.011540560980588501 0.010855874366321905 0 0.011348901972808819 0.0075777531553571946 0 0.011294261448428674 0.0080253552082755475 0 0.011014068063092415 0.0077248166214351714 0 0.011540560980588501 0.010855874366321905 0 0.010924991605181981 0.014499845254977703 0 0.014010388463912615 0.0043518444337204438 0 0.01343834758206725 0.0044341405191803927 0 0.013394917755053885 0.0038876166970168518 0 0.01361927212712182 0.0060124085901510551 0 0.012315251768735984 0.0099918625569842996 0 0.011014068063092415 0.0077248166214351714 0 0.010580851249738744 0.0078999103142488782 0 0.010701373883627721 0.0079204687206487091 0 0.01144824421370025 0.015192691431668391 0 0.011470110026479687 0.01519465114324966 0 0.011460793012869551 0.015262578333856991 0 0.012315251768735984 0.0099918625569842996 0 0.011540560980588501 0.010855874366321905 0 0.011498118577781316 0.015749929999913568 0 0.012315251768735984 0.0099918625569842996 0 0.011454349936476996 0.015341166176429489 0 0.01144824421370025 0.015192691431668391 0 0.011460793012869551 0.015262578333856991 0 0.011470110026479687 0.01519465114324966 0 0.011460793012869551 0.015262578333856991 0 0.011532928263941975 0.015245974238687482 0 0.011460793012869551 0.015262578333856991 0 0.011441792348225425 0.015323671724467162 0 0.011532928263941975 0.015245974238687482 0 0.011454349936476996 0.015341166176429489 0 0.011460793012869551 0.015262578333856991 0 0.011441792348225425 0.015323671724467162 0 0.011220977087677579 0.01548583423809656 0 0.010924991605181981 0.014499845254977703 0 0.010796085727731232 0.015496808742362266 0 0.011070648163202879 0.015550866671282229 0 0.010760824618503688 0.015692788422218305 0 0.010796085727731232 0.015496808742362266 0 0.010611620331226567 0.015533332686157921 0 0.010760824618503688 0.015692788422218305 0 0.010673119768208981 0.015448959670684157 0 0.010796085727731232 0.015496808742362266 0 0.010611620331226567 0.015533332686157921 0 0.010619363097573897 0.015557443651952309 0 0.010611620331226567 0.015533332686157921 0 0.010638522149857057 0.015542922228179542 0 0.010890223389988182 0.015357080371173433 0 0.010924991605181981 0.014499845254977703 0 0.010891173653477297 0.010729396664969491 0 0.010924991605181981 0.014499845254977703 0 0.015029115296207502 0.01153437412300589 0 0.015149498152787363 0.010795764715760494 0 0.014650531405534102 0.011328858257595492 0 0.015029115296207502 0.01153437412300589 0 0.015149498152787363 0.010795764715760494 0 0.015179871770802652 0.01159290393673139 0 0.015029115296207502 0.01153437412300589 0 0.015051139197990372 0.011958956670807163 0 0.015179871770802652 0.01159290393673139 0 0.015149498152787363 0.010795764715760494 0 0.015179871770802652 0.01159290393673139 0 0.01524224522754457 0.010797483476941143 0 0.015149498152787363 0.010795764715760494 0 0.014992207559956046 0.0099209565882526964 0 0.015315176695564019 0.0098685258215549902 0 0.015149498152787363 0.010795764715760494 0 0.014992207559956046 0.0099209565882526964 0 0.014650531405534102 0.011328858257595492 0 0.014995843012460703 0.010043923905572951 0 0.015048791989930508 0.01075201121692969 0 0.014992207559956046 0.0099209565882526964 0 0.015133027614746514 0.0099435040303813907 0 0.01545281599791197 0.010172625233121719 0 0.015133027614746514 0.0099435040303813907 0 0.014999974529865904 0.0099421269427351876 0 0.014999326325038418 0.0092771131217902932 0 0.014992207559956046 0.0099209565882526964 0 0.015133027614746514 0.0099435040303813907 0 0.014999326325038418 0.0092771131217902932 0 0.014999974529865904 0.0099421269427351876 0 0.015202924031760486 0.010267683335617497 0 0.014999806278532505 0.010609248099668482 0 0.015133027614746514 0.0099435040303813907 0 0.014999974529865904 0.0099421269427351876 0 0.015202924031760486 0.010267683335617497 0 0.015133027614746514 0.0099435040303813907 0 0.015202924031760486 0.010267683335617497 0 0.01545281599791197 0.010172625233121719 0 0.015202924031760486 0.010267683335617497 0 0.01545281599791197 0.010172625233121719 0 0.01530427538519393 0.010578813747104345 0 0.01545281599791197 0.010172625233121719 0 0.01530427538519393 0.010578813747104345 0 0.015681321013994942 0.010697882076649285 0 0.015202924031760486 0.010267683335617497 0 0.014999806278532505 0.010609248099668482 0 0.01530427538519393 0.010578813747104345 0 0.014999963871529897 0.010609696944739996 0 0.015096409220612374 0.010804014218149071 0 0.015519226745456681 0.010825359278139298 0 0.015000005632982535 0.010609527546890835 0 0.015469109500434132 0.010685724416018305 0 0.015096409220612374 0.010804014218149071 0 0.015519226745456681 0.010825359278139298 0 0.015608511713109733 0.011014775355968008 0 0.014999893147319358 0.011425636862076274 0 0.014999963871529897 0.010609696944739996 0 0.015096409220612374 0.010804014218149071 0 0.014999893147319358 0.011425636862076274 0 0.015096409220612374 0.010804014218149071 0 0.015236668745553074 0.011221228064057849 0 0.015116538338980646 0.010847531466214788 0 0.015568887759496115 0.011051498250805541 0 0.015096409220612374 0.010804014218149071 0 0.015236668745553074 0.011221228064057849 0 0.015523042343755735 0.011176080868445338 0 0.015469109500434132 0.010685724416018305 0 0.015343191014047649 0.011477416829993871 0 0.015519226745456681 0.010825359278139298 0 0.015608511713109733 0.011014775355968008 0 0.016011265179491495 0.010991269856629517 0 0.015375789088461074 0.011461055795618357 0 0.015236668745553074 0.011221228064057849 0 0.015523042343755735 0.011176080868445338 0 0.015627983007088245 0.011593252806876057 0 0.015375789088461074 0.011461055795618357 0 0.015523042343755735 0.011176080868445338 0 0.015568887759496115 0.011051498250805541 0 0.015735022999650364 0.011974209990803718 0 0.015608511713109733 0.011014775355968008 0 0.016091007633920199 0.011206029897843403 0 0.016011265179491495 0.010991269856629517 0 0.015627983007088245 0.011593252806876057 0 0.015523042343755735 0.011176080868445338 0 0.015939429937728605 0.011478263914113215 0 0.015735022999650364 0.011974209990803718 0 0.015343191014047649 0.011477416829993871 0 0.014760057785628578 0.012365236428767986 0 0.014712938579305586 0.012232384021692622 0 0.014874856757566465 0.01228480937974453 0 0.014664684795220512 0.012174016568325138 0 0.014895036288476706 0.01191160065961936 0 0.014874856757566465 0.01228480937974453 0 0.015343191014047649 0.011477416829993871 0 0.014858975784974806 0.01196844915202698 0 0.015048791989930508 0.01075201121692969 0 0.015343191014047649 0.011477416829993871 0 0.014650531405534102 0.011328858257595492 0 0.014664684795220512 0.012174016568325138 0 0.014895036288476706 0.01191160065961936 0 0.015029115296207502 0.01153437412300589 0 0.014650531405534102 0.011328858257595492 0 0.014895036288476706 0.01191160065961936 0 0.015029115296207502 0.01153437412300589 0 0.014895036288476706 0.01191160065961936 0 0.015051139197990372 0.011958956670807163 0 0.014895036288476706 0.01191160065961936 0 0.015051139197990372 0.011958956670807163 0 0.014967821201528666 0.012123182310896128 0 0.014967821201528666 0.012123182310896128 0 0.014874856757566465 0.01228480937974453 0 0.015038507610930769 0.01231846658196729 0 0.015051139197990372 0.011958956670807163 0 0.014967821201528666 0.012123182310896128 0 0.015038507610930769 0.01231846658196729 0 0.014988741553054711 0.01251712308684208 0 0.014760057785628578 0.012365236428767986 0 0.014874856757566465 0.01228480937974453 0 0.014895036288476706 0.01191160065961936 0 0.014967821201528666 0.012123182310896128 0 0.014874856757566465 0.01228480937974453 0 0.014988741553054711 0.01251712308684208 0 0.014874856757566465 0.01228480937974453 0 0.015038507610930769 0.01231846658196729 0 0.014988741553054711 0.01251712308684208 0 0.015038507610930769 0.01231846658196729 0 0.015101432290068932 0.012543424119259055 0 0.015038507610930769 0.01231846658196729 0 0.015101432290068932 0.012543424119259055 0 0.015122532990544956 0.01224204906541739 0 0.015101432290068932 0.012543424119259055 0 0.014982234892842844 0.012664987064938182 0 0.015122532990544956 0.01224204906541739 0 0.014982234892842844 0.012664987064938182 0 0.015171256508975718 0.012196672723269237 0 0.015122532990544956 0.01224204906541739 0 0.015171256508975718 0.012196672723269237 0 0.015151904462784525 0.012497087688223173 0 0.015295985894535763 0.01185689228401318 0 0.015171256508975718 0.012196672723269237 0 0.015122532990544956 0.01224204906541739 0 0.015179871770802652 0.01159290393673139 0 0.015051139197990372 0.011958956670807163 0 0.015122532990544956 0.01224204906541739 0 0.015179871770802652 0.01159290393673139 0 0.015051139197990372 0.011958956670807163 0 0.015038507610930769 0.01231846658196729 0 0.015122532990544956 0.01224204906541739 0 0.014982234892842844 0.012664987064938182 0 0.014730010949827335 0.012844223095349865 0 0.015151904462784525 0.012497087688223173 0 0.014982234892842844 0.012664987064938182 0 0.015171256508975718 0.012196672723269237 0 0.015151904462784525 0.012497087688223173 0 0.015149250456500646 0.012731907330464816 0 0.015131562737609804 0.012537756869161041 0 0.014692949964441652 0.013182045110392721 0 0.014730010949827335 0.012844223095349865 0 0.015151904462784525 0.012497087688223173 0 0.015719843846408486 0.012288052415428137 0 0.015151904462784525 0.012497087688223173 0 0.015556109061878919 0.011992979544369772 0 0.015151904462784525 0.012497087688223173 0 0.015556109061878919 0.011992979544369772 0 0.015295985894535763 0.01185689228401318 0 0.015556109061878919 0.011992979544369772 0 0.015492112366025082 0.011790185681609921 0 0.015295985894535763 0.01185689228401318 0 0.016261088233978135 0.011153269985800891 0 0.015093135172581275 0.012034077231877625 0 0.016261088233978135 0.011153269985800891 0 0.016406252742817373 0.010392489353325851 0 0.015977859895333481 0.011350627053271493 0 0.015295985894535763 0.01185689228401318 0 0.015344033870077529 0.011226322178121183 0 0.015682734717148535 0.011821322379856489 0 0.015556109061878919 0.011992979544369772 0 0.015492112366025082 0.011790185681609921 0 0.015519442642419862 0.011770097562295237 0 0.016261088233978135 0.011153269985800891 0 0.015171256508975718 0.012196672723269237 0 0.015179871770802652 0.01159290393673139 0 0.015295985894535763 0.01185689228401318 0 0.015179871770802652 0.01159290393673139 0 0.015295985894535763 0.01185689228401318 0 0.015344033870077529 0.011226322178121183 0 0.015179871770802652 0.01159290393673139 0 0.015344033870077529 0.011226322178121183 0 0.01524224522754457 0.010797483476941143 0 0.017212088301319081 0.0097112944408812452 0 0.017208668517194034 0.0091207521379064252 0 0.016510842901196341 0.0097431369701539029 0 0.016406252742817373 0.010392489353325851 0 0.01579379066924716 0.010246228192387468 0 0.017212088301319081 0.0097112944408812452 0 0.017208668517194034 0.0091207521379064252 0 0.017501407904275457 0.0094542133338896307 0 0.017208668517194034 0.0091207521379064252 0 0.016531245521397838 0.0087910256530254541 0 0.016510842901196341 0.0097431369701539029 0 0.018234257233450245 0.0093282941709063264 0 0.017815050991067026 0.0097446839571477192 0 0.01775012141563061 0.0092238426475105464 0 0.017174632966115076 0.010246846086424894 0 0.016261088233978135 0.011153269985800891 0 0.017815050991067026 0.0097446839571477192 0 0.017501407904275457 0.0094542133338896307 0 0.01775012141563061 0.0092238426475105464 0 0.017815050991067026 0.0097446839571477192 0 0.017212088301319081 0.0097112944408812452 0 0.017501407904275457 0.0094542133338896307 0 0.017208668517194034 0.0091207521379064252 0 0.017501407904275457 0.0094542133338896307 0 0.01775012141563061 0.0092238426475105464 0 0.017208668517194034 0.0091207521379064252 0 0.01775012141563061 0.0092238426475105464 0 0.017611418184977867 0.008568549831230057 0 0.018234257233450245 0.0093282941709063264 0 0.01775012141563061 0.0092238426475105464 0 0.018032319808473314 0.0090474825170643054 0 0.01775012141563061 0.0092238426475105464 0 0.018032319808473314 0.0090474825170643054 0 0.017611418184977867 0.008568549831230057 0 0.017155447409545044 0.0072807329615500425 0 0.016778436130891743 0.0073506252744041933 0 0.018125570750624004 0.008740760003060918 0 0.018032319808473314 0.0090474825170643054 0 0.017611418184977867 0.008568549831230057 0 0.016042843878645626 0.0061426529938167227 0 0.015989297768441307 0.006053972430144868 0 0.016041388842424391 0.006232857374569324 0 0.015945282645708551 0.0058640942585604884 0 0.016042843878645626 0.0061426529938167227 0 0.015989297768441307 0.006053972430144868 0 0.016038713344457858 0.006433797724781011 0 0.016001128298919261 0.0065308761044866907 0 0.016041388842424391 0.006232857374569324 0 0.017010852782493424 0.0083385629764540468 0 0.016320305279024797 0.0080217754108032596 0 0.016531245521397838 0.0087910256530254541 0 0.017208668517194034 0.0091207521379064252 0 0.017010852782493424 0.0083385629764540468 0 0.016531245521397838 0.0087910256530254541 0 0.017208668517194034 0.0091207521379064252 0 0.017611418184977867 0.008568549831230057 0 0.017010852782493424 0.0083385629764540468 0 0.016778436130891743 0.0073506252744041933 0 0.01650916720078122 0.0073851570209258494 0 0.016042843878645626 0.0061426529938167227 0 0.016038713344457858 0.006433797724781011 0 0.016041388842424391 0.006232857374569324 0 0.016038713344457858 0.006433797724781011 0 0.015923007568406051 0.0068306057656953405 0 0.016001128298919261 0.0065308761044866907 0 0.01650916720078122 0.0073851570209258494 0 0.016065846519602085 0.0074187076313647314 0 0.015923007568406051 0.0068306057656953405 0 0.015538549939669582 0.007438819473454354 0 0.015813297349998139 0.0067762162999290363 0 0.016065846519602085 0.0074187076313647314 0 0.015521425506110402 0.0074120972190450272 0 0.016320305279024797 0.0080217754108032596 0 0.015676630786469522 0.00814282805991892 0 0.015538549939669582 0.007438819473454354 0 0.016320305279024797 0.0080217754108032596 0 0.015676630786469522 0.00814282805991892 0 0.016010465063360721 0.0085607131539858772 0 0.015676630786469522 0.00814282805991892 0 0.016010465063360721 0.0085607131539858772 0 0.015573949151574977 0.0086920153158499703 0 0.016010465063360721 0.0085607131539858772 0 0.015573949151574977 0.0086920153158499703 0 0.015881906692323373 0.0091202586636855605 0 0.016320305279024797 0.0080217754108032596 0 0.016010465063360721 0.0085607131539858772 0 0.016531245521397838 0.0087910256530254541 0 0.016010465063360721 0.0085607131539858772 0 0.016531245521397838 0.0087910256530254541 0 0.015881906692323373 0.0091202586636855605 0 0.016531245521397838 0.0087910256530254541 0 0.015881906692323373 0.0091202586636855605 0 0.016510842901196341 0.0097431369701539029 0 0.015573949151574977 0.0086920153158499703 0 0.015881906692323373 0.0091202586636855605 0 0.015259552853009801 0.009172644077783924 0 0.015881906692323373 0.0091202586636855605 0 0.015315176695564019 0.0098685258215549902 0 0.015259552853009801 0.009172644077783924 0 0.015881906692323373 0.0091202586636855605 0 0.015315176695564019 0.0098685258215549902 0 0.016510842901196341 0.0097431369701539029 0 0.015149498152787363 0.010795764715760494 0 0.015315176695564019 0.0098685258215549902 0 0.01524224522754457 0.010797483476941143 0 0.015290425184339757 0.0099202343518472076 0 0.01579379066924716 0.010246228192387468 0 0.014999980021526929 0.0092751054529151417 0 0.015025480644987472 0.0087933021037266638 0 0.014999326325038418 0.0092771131217902932 0 0.014963080610679774 0.0094796952433190331 0 0.014756073056003707 0.0091287090489377727 0 0.014992207559956046 0.0099209565882526964 0 0.014999326325038418 0.0092771131217902932 0 0.014963080610679774 0.0094796952433190331 0 0.015315176695564019 0.0098685258215549902 0 0.014963080610679774 0.0094796952433190331 0 0.015259552853009801 0.009172644077783924 0 0.014992207559956046 0.0099209565882526964 0 0.015315176695564019 0.0098685258215549902 0 0.014963080610679774 0.0094796952433190331 0 0.015259552853009801 0.009172644077783924 0 0.014756073056003707 0.0091287090489377727 0 0.015291039788146502 0.0085781761126835169 0 0.014963080610679774 0.0094796952433190331 0 0.015259552853009801 0.009172644077783924 0 0.014756073056003707 0.0091287090489377727 0 0.015000022257764201 0.0092752370986403584 0 0.015276637404658707 0.0085245901084368639 0 0.014999939693513655 0.0084335575001744326 0 0.014999939693513655 0.0084335575001744326 0 0.015140199711988003 0.008014917549300284 0 0.014999739374789323 0.0075920183376496546 0 0.015276637404658707 0.0085245901084368639 0 0.015140199711988003 0.008014917549300284 0 0.015264097587652587 0.0077927627240775097 0 0.015025480644987472 0.0087933021037266638 0 0.015259464864968179 0.0078841193841563198 0 0.015276637404658707 0.0085245901084368639 0 0.014999939693513655 0.0084335575001744326 0 0.015140199711988003 0.008014917549300284 0 0.014756073056003707 0.0091287090489377727 0 0.015291039788146502 0.0085781761126835169 0 0.015264097587652587 0.0077927627240775097 0 0.015676630786469522 0.00814282805991892 0 0.015573949151574977 0.0086920153158499703 0 0.015291039788146502 0.0085781761126835169 0 0.015573949151574977 0.0086920153158499703 0 0.015259552853009801 0.009172644077783924 0 0.015291039788146502 0.0085781761126835169 0 0.015676630786469522 0.00814282805991892 0 0.015291039788146502 0.0085781761126835169 0 0.015264097587652587 0.0077927627240775097 0 0.015676630786469522 0.00814282805991892 0 0.015264097587652587 0.0077927627240775097 0 0.015538549939669582 0.007438819473454354 0 0.015264097587652587 0.0077927627240775097 0 0.015538549939669582 0.007438819473454354 0 0.015253223607184858 0.0072712079915348985 0 0.015140199711988003 0.008014917549300284 0 0.015164388638529515 0.0076796904911781167 0 0.014999739374789323 0.0075920183376496546 0 0.015140199711988003 0.008014917549300284 0 0.015264097587652587 0.0077927627240775097 0 0.015164388638529515 0.0076796904911781167 0 0.015164388638529515 0.0076796904911781167 0 0.014999739374789323 0.0075920183376496546 0 0.015253223607184858 0.0072712079915348985 0 0.015264097587652587 0.0077927627240775097 0 0.015164388638529515 0.0076796904911781167 0 0.015253223607184858 0.0072712079915348985 0 0.014999739374789323 0.0075920183376496546 0 0.015253223607184858 0.0072712079915348985 0 0.014999923830216779 0.0067505039418503682 0 0.015538549939669582 0.007438819473454354 0 0.015253223607184858 0.0072712079915348985 0 0.015535129369528304 0.0070146822322762767 0 0.015253223607184858 0.0072712079915348985 0 0.015535129369528304 0.0070146822322762767 0 0.015545629975860072 0.0066343051073878452 0 0.015545629975860072 0.0066343051073878452 0 0.014999923830216779 0.0067505039418503682 0 0.015341012574458437 0.0062760563414563783 0 0.015253223607184858 0.0072712079915348985 0 0.015545629975860072 0.0066343051073878452 0 0.014999923830216779 0.0067505039418503682 0 0.015813297349998139 0.0067762162999290363 0 0.015949617396171213 0.0064130776609928886 0 0.016001128298919261 0.0065308761044866907 0 0.015923007568406051 0.0068306057656953405 0 0.015813297349998139 0.0067762162999290363 0 0.016001128298919261 0.0065308761044866907 0 0.015538549939669582 0.007438819473454354 0 0.015535129369528304 0.0070146822322762767 0 0.015813297349998139 0.0067762162999290363 0 0.015535129369528304 0.0070146822322762767 0 0.015545629975860072 0.0066343051073878452 0 0.015813297349998139 0.0067762162999290363 0 0.015545629975860072 0.0066343051073878452 0 0.015813297349998139 0.0067762162999290363 0 0.015833085513547302 0.006219790913968945 0 0.015813297349998139 0.0067762162999290363 0 0.015949617396171213 0.0064130776609928886 0 0.015833085513547302 0.006219790913968945 0 0.015949617396171213 0.0064130776609928886 0 0.015833085513547302 0.006219790913968945 0 0.015965468699967698 0.0061881813179455502 0 0.015545629975860072 0.0066343051073878452 0 0.015833085513547302 0.006219790913968945 0 0.015576326422766944 0.0062563684906143885 0 0.015833085513547302 0.006219790913968945 0 0.015576326422766944 0.0062563684906143885 0 0.015560035753386561 0.0059077730467475172 0 0.015833085513547302 0.006219790913968945 0 0.015560035753386561 0.0059077730467475172 0 0.015862861880201078 0.0059046259073517963 0 0.015833085513547302 0.006219790913968945 0 0.015862861880201078 0.0059046259073517963 0 0.015965468699967698 0.0061881813179455502 0 0.014999923830216779 0.0067505039418503682 0 0.015341012574458437 0.0062760563414563783 0 0.014999850541220111 0.0059089686922293915 0 0.015576326422766944 0.0062563684906143885 0 0.015341012574458437 0.0062760563414563783 0 0.015560035753386561 0.0059077730467475172 0 0.015545629975860072 0.0066343051073878452 0 0.015576326422766944 0.0062563684906143885 0 0.015341012574458437 0.0062760563414563783 0 0.015341012574458437 0.0062760563414563783 0 0.015560035753386561 0.0059077730467475172 0 0.014999850541220111 0.0059089686922293915 0 0.015560035753386561 0.0059077730467475172 0 0.014999850541220111 0.0059089686922293915 0 0.015000081258698462 0.0050684458614410769 0 0.014999991771731695 0.0050675700313515225 0 0.015541031339155636 0.0050328374687662004 0 0.014999968727658399 0.0050671276532817206 0 0.015619849670075929 0.0046550870406520187 0 0.015402997976270226 0.0043102575865470935 0 0.015560035753386561 0.0059077730467475172 0 0.015000081258698462 0.0050684458614410769 0 0.015542493974441437 0.0054022696848229452 0 0.015560035753386561 0.0059077730467475172 0 0.015542493974441437 0.0054022696848229452 0 0.015862861880201078 0.0059046259073517963 0 0.015862861880201078 0.0059046259073517963 0 0.015841996772281382 0.0056450609032810467 0 0.015934395848889608 0.0058546724328738088 0 0.015541031339155636 0.0050328374687662004 0 0.015952544219861968 0.0049997968928764749 0 0.015542493974441437 0.0054022696848229452 0 0.015862861880201078 0.0059046259073517963 0 0.015841996772281382 0.0056450609032810467 0 0.015619849670075929 0.0046550870406520187 0 0.016104167826824261 0.0043500581734003396 0 0.015853751330050951 0.0038921765376624924 0 0.016104167826824261 0.0043500581734003396 0 0.015853751330050951 0.0038921765376624924 0 0.01630647203908665 0.0038328536963688838 0 0.015853751330050951 0.0038921765376624924 0 0.01630647203908665 0.0038328536963688838 0 0.016176656242686705 0.0034525767414411482 0 0.015853751330050951 0.0038921765376624924 0 0.015416691434999989 0.0038041111734163739 0 0.015402997976270226 0.0043102575865470935 0 0.015853751330050951 0.0038921765376624924 0 0.015416691434999989 0.0038041111734163739 0 0.015596705115034679 0.0033091416536891369 0 0.015416691434999989 0.0038041111734163739 0 0.014999907268263625 0.0042093187975203597 0 0.014999927551036208 0.0033513141967558202 0 0.015416691434999989 0.0038041111734163739 0 0.014999907268263625 0.0042093187975203597 0 0.015402997976270226 0.0043102575865470935 0 0.014999968727658399 0.0050671276532817206 0 0.014999907268263625 0.0042093187975203597 0 0.015402997976270226 0.0043102575865470935 0 0.015619849670075929 0.0046550870406520187 0 0.015853751330050951 0.0038921765376624924 0 0.015402997976270226 0.0043102575865470935 0 0.016830123270504843 0.0039836184286130517 0 0.016596431099910883 0.0036353677542855741 0 0.016491336350243649 0.0041187605426629614 0 0.016363762264632872 0.0049134350729140531 0 0.016202476187213825 0.0049728086619535861 0 0.016830123270504843 0.0039836184286130517 0 0.016902456549814548 0.0036553680609202788 0 0.017140125430517072 0.0039177743202078192 0 0.016363762264632872 0.0049134350729140531 0 0.016531182171769552 0.004753780328315093 0 0.016830123270504843 0.0039836184286130517 0 0.016902456549814548 0.0036553680609202788 0 0.016596431099910883 0.0036353677542855741 0 0.016596431099910883 0.0036353677542855741 0 0.01630647203908665 0.0038328536963688838 0 0.016423601663193073 0.0033324335422054395 0 0.016104167826824261 0.0043500581734003396 0 0.01630647203908665 0.0038328536963688838 0 0.016491336350243649 0.0041187605426629614 0 0.016596431099910883 0.0036353677542855741 0 0.01630647203908665 0.0038328536963688838 0 0.016491336350243649 0.0041187605426629614 0 0.015941461263875394 0.0058282421485869873 0 0.015934395848889608 0.0058546724328738088 0 0.015937131517035394 0.0059141075546323731 0 0.015952544219861968 0.0049997968928764749 0 0.016202476187213825 0.0049728086619535861 0 0.015841996772281382 0.0056450609032810467 0 0.015941461263875394 0.0058282421485869873 0 0.015934395848889608 0.0058546724328738088 0 0.015862861880201078 0.0059046259073517963 0 0.015934395848889608 0.0058546724328738088 0 0.015972053854950322 0.006009339665982159 0 0.015934395848889608 0.0058546724328738088 0 0.015937131517035394 0.0059141075546323731 0 0.015972053854950322 0.006009339665982159 0 0.015937131517035394 0.0059141075546323731 0 0.015967994594701808 0.0060407172156473161 0 0.015972053854950322 0.006009339665982159 0 0.015895363523849491 0.0058565798501295455 0 0.015941461263875394 0.0058282421485869873 0 0.015937131517035394 0.0059141075546323731 0 0.015895363523849491 0.0058565798501295455 0 0.015879441022273129 0.0058596850700924387 0 0.015880266921742776 0.0056165630320189515 0 0.015895363523849491 0.0058565798501295455 0 0.015937131517035394 0.0059141075546323731 0 0.015879441022273129 0.0058596850700924387 0 0.015937131517035394 0.0059141075546323731 0 0.01592703576955885 0.0060076041522999658 0 0.015879441022273129 0.0058596850700924387 0 0.015937131517035394 0.0059141075546323731 0 0.01592703576955885 0.0060076041522999658 0 0.015967994594701808 0.0060407172156473161 0 0.01592703576955885 0.0060076041522999658 0 0.015967994594701808 0.0060407172156473161 0 0.015955783242858335 0.0060977323501030713 0 0.015967994594701808 0.0060407172156473161 0 0.015989227968596281 0.006120690606531913 0 0.015955783242858335 0.0060977323501030713 0 0.015967994594701808 0.0060407172156473161 0 0.016015213534243199 0.0061686802442057391 0 0.015972053854950322 0.006009339665982159 0 0.015967994594701808 0.0060407172156473161 0 0.016015213534243199 0.0061686802442057391 0 0.015989227968596281 0.006120690606531913 0 0.016015213534243199 0.0061686802442057391 0 0.015989227968596281 0.006120690606531913 0 0.016004749395940078 0.0061442282601760134 0 0.015989227968596281 0.006120690606531913 0 0.016004749395940078 0.0061442282601760134 0 0.015956197798122171 0.0061118795438527326 0 0.015989227968596281 0.006120690606531913 0 0.015956197798122171 0.0061118795438527326 0 0.015955783242858335 0.0060977323501030713 0 0.015862861880201078 0.0059046259073517963 0 0.015972053854950322 0.006009339665982159 0 0.015965468699967698 0.0061881813179455502 0 0.016015213534243199 0.0061686802442057391 0 0.015965468699967698 0.0061881813179455502 0 0.016009802921899626 0.0063188266713536216 0 0.016015213534243199 0.0061686802442057391 0 0.015972053854950322 0.006009339665982159 0 0.015965468699967698 0.0061881813179455502 0 0.016009802921899626 0.0063188266713536216 0 0.016001128298919261 0.0065308761044866907 0 0.016041388842424391 0.006232857374569324 0 0.015949617396171213 0.0064130776609928886 0 0.016009802921899626 0.0063188266713536216 0 0.016001128298919261 0.0065308761044866907 0 0.015949617396171213 0.0064130776609928886 0 0.015965468699967698 0.0061881813179455502 0 0.016009802921899626 0.0063188266713536216 0 0.016015213534243199 0.0061686802442057391 0 0.016009802921899626 0.0063188266713536216 0 0.016041388842424391 0.006232857374569324 0 0.016004749395940078 0.0061442282601760134 0 0.015959058883992405 0.0060644243248019671 0 0.015956197798122171 0.0061118795438527326 0 0.016015213534243199 0.0061686802442057391 0 0.016004749395940078 0.0061442282601760134 0 0.016041388842424391 0.006232857374569324 0 0.016004749395940078 0.0061442282601760134 0 0.016041388842424391 0.006232857374569324 0 0.015959058883992405 0.0060644243248019671 0 0.015989297768441307 0.006053972430144868 0 0.016041388842424391 0.006232857374569324 0 0.015959058883992405 0.0060644243248019671 0 0.015897029468725916 0.0059255849420628602 0 0.015959058883992405 0.0060644243248019671 0 0.015817197044230499 0.0059183767556688733 0 0.015959058883992405 0.0060644243248019671 0 0.015956197798122171 0.0061118795438527326 0 0.015849578628853899 0.0060524940854974948 0 0.015959058883992405 0.0060644243248019671 0 0.015849578628853899 0.0060524940854974948 0 0.015817197044230499 0.0059183767556688733 0 0.015849578628853899 0.0060524940854974948 0 0.015817197044230499 0.0059183767556688733 0 0.015715119987290162 0.0059319049108728893 0 0.015817197044230499 0.0059183767556688733 0 0.015667126910305269 0.005816343691364116 0 0.015715119987290162 0.0059319049108728893 0 0.015738733912394692 0.0058153818299232314 0 0.015817197044230499 0.0059183767556688733 0 0.015667126910305269 0.005816343691364116 0 0.015539205847849206 0.0057069143425055417 0 0.015667126910305269 0.005816343691364116 0 0.015559410450795483 0.0058464148484959552 0 0.015559410450795483 0.0058464148484959552 0 0.015715119987290162 0.0059319049108728893 0 0.01561812266656382 0.0060129580254417864 0 0.015667126910305269 0.005816343691364116 0 0.015559410450795483 0.0058464148484959552 0 0.015715119987290162 0.0059319049108728893 0 0.015343992691680224 0.0056938873654816986 0 0.015309296098827902 0.0058853238648069678 0 0.015082794684481057 0.005680026869688856 0 0.015104705971107543 0.0055468382869575438 0 0.015343992691680224 0.0056938873654816986 0 0.015082794684481057 0.005680026869688856 0 0.015104705971107543 0.0055468382869575438 0 0.015269639583828215 0.0055632988823877752 0 0.015343992691680224 0.0056938873654816986 0 0.015539205847849206 0.0057069143425055417 0 0.015559410450795483 0.0058464148484959552 0 0.015343992691680224 0.0056938873654816986 0 0.015559410450795483 0.0058464148484959552 0 0.015343992691680224 0.0056938873654816986 0 0.015309296098827902 0.0058853238648069678 0 0.015559410450795483 0.0058464148484959552 0 0.015309296098827902 0.0058853238648069678 0 0.01561812266656382 0.0060129580254417864 0 0.015309296098827902 0.0058853238648069678 0 0.01561812266656382 0.0060129580254417864 0 0.015327386572034215 0.0061951957362221524 0 0.01561812266656382 0.0060129580254417864 0 0.015749420514346534 0.0061316562290101538 0 0.015327386572034215 0.0061951957362221524 0 0.015849578628853899 0.0060524940854974948 0 0.015715119987290162 0.0059319049108728893 0 0.01561812266656382 0.0060129580254417864 0 0.015849578628853899 0.0060524940854974948 0 0.01561812266656382 0.0060129580254417864 0 0.015749420514346534 0.0061316562290101538 0 0.015749420514346534 0.0061316562290101538 0 0.015701719039197447 0.0061915679546643426 0 0.015327386572034215 0.0061951957362221524 0 0.015228341856242153 0.0067361929701120829 0 0.014939440628279267 0.0062395725621884257 0 0.015701719039197447 0.0061915679546643426 0 0.015884565645701405 0.0061402860276321665 0 0.016036461210765251 0.0061241279849372004 0 0.015749420514346534 0.0061316562290101538 0 0.015701719039197447 0.0061915679546643426 0 0.015884565645701405 0.0061402860276321665 0 0.015884565645701405 0.0061402860276321665 0 0.015947094025409118 0.0061006764858081682 0 0.015905829224084057 0.0061208871982880502 0 0.015884565645701405 0.0061402860276321665 0 0.015947094025409118 0.0061006764858081682 0 0.016036461210765251 0.0061241279849372004 0 0.01592703576955885 0.0060076041522999658 0 0.015947094025409118 0.0061006764858081682 0 0.015955783242858335 0.0060977323501030713 0 0.015947094025409118 0.0061006764858081682 0 0.015955783242858335 0.0060977323501030713 0 0.015905829224084057 0.0061208871982880502 0 0.015956197798122171 0.0061118795438527326 0 0.015955783242858335 0.0060977323501030713 0 0.015905829224084057 0.0061208871982880502 0 0.015956197798122171 0.0061118795438527326 0 0.015849578628853899 0.0060524940854974948 0 0.015905829224084057 0.0061208871982880502 0 0.015749420514346534 0.0061316562290101538 0 0.015884565645701405 0.0061402860276321665 0 0.015905829224084057 0.0061208871982880502 0 0.015849578628853899 0.0060524940854974948 0 0.015749420514346534 0.0061316562290101538 0 0.015905829224084057 0.0061208871982880502 0 0.012682036751025689 0.0058886937734631351 0 0.013093922453147073 0.0055184385511601649 0 0.013266474851574839 0.0060820764818053114 0 0.012682036751025689 0.0058886937734631351 0 0.01289794513273854 0.0063066187516587829 0 0.012394465053834746 0.0062154131700497385 0 0.012682036751025689 0.0058886937734631351 0 0.013266474851574839 0.0060820764818053114 0 0.01289794513273854 0.0063066187516587829 0 0.012682036751025689 0.0058886937734631351 0 0.013093922453147073 0.0055184385511601649 0 0.012433179608085751 0.0052186312870836941 0 0.013093922453147073 0.0055184385511601649 0 0.013266474851574839 0.0060820764818053114 0 0.013807129505731947 0.0057288984541908339 0 0.013740855030642485 0.0050948845017135067 0 0.013093922453147073 0.0055184385511601649 0 0.013807129505731947 0.0057288984541908339 0 0.013266474851574839 0.0060820764818053114 0 0.013936993975119496 0.0062975495400797409 0 0.013807129505731947 0.0057288984541908339 0 0.013936993975119496 0.0062975495400797409 0 0.014237150599548484 0.0060370591792559677 0 0.013807129505731947 0.0057288984541908339 0 0.013740855030642485 0.0050948845017135067 0 0.014196755947678469 0.0053372765759138715 0 0.013807129505731947 0.0057288984541908339 0 0.014196755947678469 0.0053372765759138715 0 0.013807129505731947 0.0057288984541908339 0 0.014516759315066881 0.0056711831626501778 0 0.014237150599548484 0.0060370591792559677 0 0.013807129505731947 0.0057288984541908339 0 0.014516759315066881 0.0056711831626501778 0 0.015309296098827902 0.0058853238648069678 0 0.014516759315066881 0.0056711831626501778 0 0.015082794684481057 0.005680026869688856 0 0.014725706685095163 0.0052568851024592453 0 0.014516759315066881 0.0056711831626501778 0 0.01490662002856916 0.0055524920791349052 0 0.014516759315066881 0.0056711831626501778 0 0.01490662002856916 0.0055524920791349052 0 0.015082794684481057 0.005680026869688856 0 0.015104705971107543 0.0055468382869575438 0 0.01490662002856916 0.0055524920791349052 0 0.015082794684481057 0.005680026869688856 0 0.014237150599548484 0.0060370591792559677 0 0.014516759315066881 0.0056711831626501778 0 0.01458137152788512 0.0063852820426693983 0 0.013936993975119496 0.0062975495400797409 0 0.014237150599548484 0.0060370591792559677 0 0.01458137152788512 0.0063852820426693983 0 0.015309296098827902 0.0058853238648069678 0 0.014516759315066881 0.0056711831626501778 0 0.015327386572034215 0.0061951957362221524 0 0.014542154366292118 0.0056688976853830376 0 0.014939440628279267 0.0062395725621884257 0 0.013936993975119496 0.0062975495400797409 0 0.01458137152788512 0.0063852820426693983 0 0.014042576654737831 0.0067314155176140655 0 0.01458137152788512 0.0063852820426693983 0 0.01435572436705981 0.0070527132307023508 0 0.014042576654737831 0.0067314155176140655 0 0.01435572436705981 0.0070527132307023508 0 0.013852318786495352 0.0072447279963097962 0 0.014381870282915026 0.0075500272456103549 0 0.014864026848531393 0.0071514957900300387 0 0.01458137152788512 0.0063852820426693983 0 0.01435572436705981 0.0070527132307023508 0 0.014864026848531393 0.0071514957900300387 0 0.01435572436705981 0.0070527132307023508 0 0.014381870282915026 0.0075500272456103549 0 0.01435572436705981 0.0070527132307023508 0 0.013852318786495352 0.0072447279963097962 0 0.014042576654737831 0.0067314155176140655 0 0.013852318786495352 0.0072447279963097962 0 0.014042576654737831 0.0067314155176140655 0 0.01341288053388888 0.0066578627466962626 0 0.013936993975119496 0.0062975495400797409 0 0.014042576654737831 0.0067314155176140655 0 0.01341288053388888 0.0066578627466962626 0 0.013266474851574839 0.0060820764818053114 0 0.013936993975119496 0.0062975495400797409 0 0.01341288053388888 0.0066578627466962626 0 0.013266474851574839 0.0060820764818053114 0 0.01341288053388888 0.0066578627466962626 0 0.01289794513273854 0.0063066187516587829 0 0.013852318786495352 0.0072447279963097962 0 0.01341288053388888 0.0066578627466962626 0 0.013154138826628067 0.0072094785737149272 0 0.01341288053388888 0.0066578627466962626 0 0.013154138826628067 0.0072094785737149272 0 0.012721838236248601 0.0067211003606823388 0 0.013154138826628067 0.0072094785737149272 0 0.012428660492238355 0.0072906926175288524 0 0.012721838236248601 0.0067211003606823388 0 0.01341288053388888 0.0066578627466962626 0 0.012721838236248601 0.0067211003606823388 0 0.01289794513273854 0.0063066187516587829 0 0.012721838236248601 0.0067211003606823388 0 0.01289794513273854 0.0063066187516587829 0 0.012394465053834746 0.0062154131700497385 0 0.012867867067151661 0.0082568582168641904 0 0.012870356659757441 0.0078387023282644203 0 0.013125137618144734 0.0081035219552061943 0 0.012867867067151661 0.0082568582168641904 0 0.013125137618144734 0.0081035219552061943 0 0.013370235808147644 0.0083622301604082579 0 0.01275639666637071 0.0084861942951839665 0 0.012871905279328877 0.0078873253402018291 0 0.012678078864660545 0.0086416303444646781 0 0.012870356659757441 0.0078387023282644203 0 0.011988177273349819 0.0079548691235791572 0 0.013154138826628067 0.0072094785737149272 0 0.012428660492238355 0.0072906926175288524 0 0.012870356659757441 0.0078387023282644203 0 0.012428660492238355 0.0072906926175288524 0 0.012870356659757441 0.0078387023282644203 0 0.011988177273349819 0.0079548691235791572 0 0.013154138826628067 0.0072094785737149272 0 0.012870356659757441 0.0078387023282644203 0 0.013479710725927083 0.0075425565465701222 0 0.013852318786495352 0.0072447279963097962 0 0.013154138826628067 0.0072094785737149272 0 0.013479710725927083 0.0075425565465701222 0 0.012870356659757441 0.0078387023282644203 0 0.013479710725927083 0.0075425565465701222 0 0.013406417359520185 0.0079395535363807144 0 0.013479710725927083 0.0075425565465701222 0 0.013406417359520185 0.0079395535363807144 0 0.013870880827708036 0.0077666999139022058 0 0.012870356659757441 0.0078387023282644203 0 0.013406417359520185 0.0079395535363807144 0 0.013125137618144734 0.0081035219552061943 0 0.013406417359520185 0.0079395535363807144 0 0.013125137618144734 0.0081035219552061943 0 0.013370235808147644 0.0083622301604082579 0 0.013406417359520185 0.0079395535363807144 0 0.013747704869183652 0.0081515022703941876 0 0.013370235808147644 0.0083622301604082579 0 0.013747704869183652 0.0081515022703941876 0 0.014012552517559512 0.0080549721325922276 0 0.014033226161754148 0.0082769695702609048 0 0.013747704869183652 0.0081515022703941876 0 0.014012552517559512 0.0080549721325922276 0 0.013870880827708036 0.0077666999139022058 0 0.014012552517559512 0.0080549721325922276 0 0.013870880827708036 0.0077666999139022058 0 0.014195736994792449 0.0079000504617384414 0 0.013406417359520185 0.0079395535363807144 0 0.013747704869183652 0.0081515022703941876 0 0.013870880827708036 0.0077666999139022058 0 0.013852318786495352 0.0072447279963097962 0 0.013479710725927083 0.0075425565465701222 0 0.013870880827708036 0.0077666999139022058 0 0.013852318786495352 0.0072447279963097962 0 0.013870880827708036 0.0077666999139022058 0 0.014381870282915026 0.0075500272456103549 0 0.013870880827708036 0.0077666999139022058 0 0.014381870282915026 0.0075500272456103549 0 0.014195736994792449 0.0079000504617384414 0 0.014381870282915026 0.0075500272456103549 0 0.014454645376539317 0.0079416505805747512 0 0.01471622139889088 0.0077298356831571402 0 0.014381870282915026 0.0075500272456103549 0 0.014454645376539317 0.0079416505805747512 0 0.014195736994792449 0.0079000504617384414 0 0.014454645376539317 0.0079416505805747512 0 0.014195736994792449 0.0079000504617384414 0 0.014259373705518354 0.0081787209893708739 0 0.014012552517559512 0.0080549721325922276 0 0.014195736994792449 0.0079000504617384414 0 0.014259373705518354 0.0081787209893708739 0 0.014012552517559512 0.0080549721325922276 0 0.014259373705518354 0.0081787209893708739 0 0.014033226161754148 0.0082769695702609048 0 0.014454645376539317 0.0079416505805747512 0 0.014259373705518354 0.0081787209893708739 0 0.014476354703843111 0.0082328329614247513 0 0.014454645376539317 0.0079416505805747512 0 0.014476354703843111 0.0082328329614247513 0 0.014693158466556739 0.0080606201434509795 0 0.014324142580699402 0.0085144759871231789 0 0.014492497173083521 0.0085096705477462984 0 0.013905338874508056 0.0088625168508725104 0 0.014476354703843111 0.0082328329614247513 0 0.014388794843088316 0.0083723443543289155 0 0.014492497173083521 0.0085096705477462984 0 0.014476354703843111 0.0082328329614247513 0 0.014492497173083521 0.0085096705477462984 0 0.014693158466556739 0.0080606201434509795 0 0.014388794843088316 0.0083723443543289155 0 0.014259276900342642 0.0083979627160711678 0 0.014324142580699402 0.0085144759871231789 0 0.014259373705518354 0.0081787209893708739 0 0.014476354703843111 0.0082328329614247513 0 0.014388794843088316 0.0083723443543289155 0 0.014259373705518354 0.0081787209893708739 0 0.014388794843088316 0.0083723443543289155 0 0.014259276900342642 0.0083979627160711678 0 0.014259373705518354 0.0081787209893708739 0 0.014259276900342642 0.0083979627160711678 0 0.014033226161754148 0.0082769695702609048 0 0.014259276900342642 0.0083979627160711678 0 0.014085369776991168 0.0084289844267485346 0 0.014033226161754148 0.0082769695702609048 0 0.014259276900342642 0.0083979627160711678 0 0.014109497085415675 0.0085606875264722885 0 0.014324142580699402 0.0085144759871231789 0 0.014259276900342642 0.0083979627160711678 0 0.014109497085415675 0.0085606875264722885 0 0.014085369776991168 0.0084289844267485346 0 0.014388794843088316 0.0083723443543289155 0 0.014324142580699402 0.0085144759871231789 0 0.014492497173083521 0.0085096705477462984 0 0.017727344109583015 0.0043267585987927992 0 0.017809435977247715 0.0040215138663849915 0 0.017596798690017595 0.0039667711483576612 0 0.016050908080421387 0.0065524210991956501 0 0.015961955567906728 0.0065891794030757591 0 0.017727344109583015 0.0043267585987927992 0 0.017693419591056778 0.0045103083554274784 0 0.017914465232168119 0.0039905599640568919 0 0.017727344109583015 0.0043267585987927992 0 0.017809435977247715 0.0040215138663849915 0 0.017914465232168119 0.0039905599640568919 0 0.017646796117595408 0.003763304290119323 0 0.017599681598704869 0.0039180353168051319 0 0.014109497085415675 0.0085606875264722885 0 0.014324142580699402 0.0085144759871231789 0 0.013905338874508056 0.0088625168508725104 0 0.014109497085415675 0.0085606875264722885 0 0.013905338874508056 0.0088625168508725104 0 0.013947076771367757 0.0085810796263976925 0 0.013873235046017781 0.0089232210161478004 0 0.013905338874508056 0.0088625168508725104 0 0.013786330809735204 0.0088372525847735996 0 0.013905338874508056 0.0088625168508725104 0 0.013671411886816958 0.0086231078938730308 0 0.013337513676107254 0.008828912160408979 0 0.014492497173083521 0.0085096705477462984 0 0.013873235046017781 0.0089232210161478004 0 0.013905338874508056 0.0088625168508725104 0 0.013905338874508056 0.0088625168508725104 0 0.013671411886816958 0.0086231078938730308 0 0.013947076771367757 0.0085810796263976925 0 0.013671411886816958 0.0086231078938730308 0 0.013947076771367757 0.0085810796263976925 0 0.013822574620318617 0.0084274635981757898 0 0.013947076771367757 0.0085810796263976925 0 0.014085369776991168 0.0084289844267485346 0 0.013822574620318617 0.0084274635981757898 0 0.014109497085415675 0.0085606875264722885 0 0.013947076771367757 0.0085810796263976925 0 0.014085369776991168 0.0084289844267485346 0 0.013747704869183652 0.0081515022703941876 0 0.014033226161754148 0.0082769695702609048 0 0.013822574620318617 0.0084274635981757898 0 0.014085369776991168 0.0084289844267485346 0 0.014033226161754148 0.0082769695702609048 0 0.013822574620318617 0.0084274635981757898 0 0.013747704869183652 0.0081515022703941876 0 0.013822574620318617 0.0084274635981757898 0 0.013370235808147644 0.0083622301604082579 0 0.013671411886816958 0.0086231078938730308 0 0.013370235808147644 0.0083622301604082579 0 0.013337513676107254 0.008828912160408979 0 0.013370235808147644 0.0083622301604082579 0 0.013337513676107254 0.008828912160408979 0 0.013088322380335107 0.0085410750678779641 0 0.013671411886816958 0.0086231078938730308 0 0.013822574620318617 0.0084274635981757898 0 0.013370235808147644 0.0083622301604082579 0 0.013873235046017781 0.0089232210161478004 0 0.013786330809735204 0.0088372525847735996 0 0.013801289591564153 0.0088792583494107305 0 0.013780398419536237 0.0088485754673586874 0 0.013793537956479777 0.0088758103209000561 0 0.013786330809735204 0.0088372525847735996 0 0.013769254790386359 0.008867967799184107 0 0.013801289591564153 0.0088792583494107305 0 0.013337513676107254 0.008828912160408979 0 0.012776293621500597 0.0087181022947281066 0 0.013088322380335107 0.0085410750678779641 0 0.013786330809735204 0.0088372525847735996 0 0.01373637146662166 0.0088251336152544348 0 0.013756668701004436 0.0088472559462657516 0 0.01373637146662166 0.0088251336152544348 0 0.013756668701004436 0.0088472559462657516 0 0.013739841156663306 0.0088581779496211595 0 0.012071999363355276 0.0086326629474531309 0 0.011617287229478072 0.0087795204378018094 0 0.013793537956479777 0.0088758103209000561 0 0.012071999363355276 0.0086326629474531309 0 0.013786330809735204 0.0088372525847735996 0 0.013756668701004436 0.0088472559462657516 0 0.013769254790386359 0.008867967799184107 0 0.012867867067151661 0.0082568582168641904 0 0.012776293621500597 0.0087181022947281066 0 0.013088322380335107 0.0085410750678779641 0 0.01275639666637071 0.0084861942951839665 0 0.012071999363355276 0.0086326629474531309 0 0.012867867067151661 0.0082568582168641904 0 0.013370235808147644 0.0083622301604082579 0 0.013088322380335107 0.0085410750678779641 0 0.016034595411259431 0.0057131387718141 0 0.015953068385829706 0.0059822305900560863 0 0.01619734668027038 0.0058604652171476059 0 0.016034595411259431 0.0057131387718141 0 0.015879441022273129 0.0058596850700924387 0 0.015953068385829706 0.0059822305900560863 0 0.016034595411259431 0.0057131387718141 0 0.015879441022273129 0.0058596850700924387 0 0.015880266921742776 0.0056165630320189515 0 0.01592703576955885 0.0060076041522999658 0 0.015879441022273129 0.0058596850700924387 0 0.015953068385829706 0.0059822305900560863 0 0.01592703576955885 0.0060076041522999658 0 0.015947094025409118 0.0061006764858081682 0 0.015953068385829706 0.0059822305900560863 0 0.015947094025409118 0.0061006764858081682 0 0.015953068385829706 0.0059822305900560863 0 0.016036461210765251 0.0061241279849372004 0 0.015953068385829706 0.0059822305900560863 0 0.016036461210765251 0.0061241279849372004 0 0.01619734668027038 0.0058604652171476059 0 0.015701719039197447 0.0061915679546643426 0 0.016036461210765251 0.0061241279849372004 0 0.01590330466652231 0.0062622019307183681 0 0.016239883263168126 0.0059860497257296242 0 0.015953334619819185 0.0066975143400625717 0 0.015228341856242153 0.0067361929701120829 0 0.015953334619819185 0.0066975143400625717 0 0.014864026848531393 0.0071514957900300387 0 0.014381870282915026 0.0075500272456103549 0 0.01471622139889088 0.0077298356831571402 0 0.014864026848531393 0.0071514957900300387 0 0.01471622139889088 0.0077298356831571402 0 0.015188988551507066 0.007921617500695078 0 0.014492497173083521 0.0085096705477462984 0 0.014693158466556739 0.0080606201434509795 0 0.015188988551507066 0.007921617500695078 0 0.01471622139889088 0.0077298356831571402 0 0.014693158466556739 0.0080606201434509795 0 0.015188988551507066 0.007921617500695078 0 0.016050908080421387 0.0065524210991956501 0 0.015953334619819185 0.0066975143400625717 0 0.014454645376539317 0.0079416505805747512 0 0.01471622139889088 0.0077298356831571402 0 0.014693158466556739 0.0080606201434509795 0 0.016034595411259431 0.0057131387718141 0 0.01619734668027038 0.0058604652171476059 0 0.016502127042966011 0.0056323191401129683 0 0.01619734668027038 0.0058604652171476059 0 0.016566275905700811 0.0058261043527446307 0 0.016502127042966011 0.0056323191401129683 0 0.016036461210765251 0.0061241279849372004 0 0.01619734668027038 0.0058604652171476059 0 0.016566275905700811 0.0058261043527446307 0 0.015953334619819185 0.0066975143400625717 0 0.015985566604943435 0.0062046275701911529 0 0.016636682012429103 0.0059603417256757028 0 0.016502127042966011 0.0056323191401129683 0 0.017061787073318371 0.0050413328492807472 0 0.016034595411259431 0.0057131387718141 0 0.016502127042966011 0.0056323191401129683 0 0.016471728751280199 0.0049830616938171621 0 0.016502127042966011 0.0056323191401129683 0 0.016471728751280199 0.0049830616938171621 0 0.017061787073318371 0.0050413328492807472 0 0.01772596594098147 0.0043273010132673781 0 0.017001209479560062 0.0044765531736557914 0 0.017727344109583015 0.0043267585987927992 0 0.016471728751280199 0.0049830616938171621 0 0.017061787073318371 0.0050413328492807472 0 0.017693419591056778 0.0045103083554274784 0 0.016636682012429103 0.0059603417256757028 0 0.017061787073318371 0.0050413328492807472 0 0.017727344109583015 0.0043267585987927992 0 0.017422993861581592 0.0039477046787932367 0 0.017596798690017595 0.0039667711483576612 0 0.017727344109583015 0.0043267585987927992 0 0.017693419591056778 0.0045103083554274784 0 0.017061787073318371 0.0050413328492807472 0 0.017736280435685717 0.0033725390621658666 0 0.017596798690017595 0.0039667711483576612 0 0.017703975424455145 0.0035829948248119283 0 0.017596798690017595 0.0039667711483576612 0 0.017485689200893894 0.0036943227630860257 0 0.017703975424455145 0.0035829948248119283 0 0.017422993861581592 0.0039477046787932367 0 0.017596798690017595 0.0039667711483576612 0 0.017485689200893894 0.0036943227630860257 0 0.017422993861581592 0.0039477046787932367 0 0.017485689200893894 0.0036943227630860257 0 0.017315916926776722 0.0036017169700249766 0 0.017422993861581592 0.0039477046787932367 0 0.017169306371550036 0.0037112969844682788 0 0.017315916926776722 0.0036017169700249766 0 0.017001209479560062 0.0044765531736557914 0 0.016531182171769552 0.004753780328315093 0 0.016034595411259431 0.0057131387718141 0 0.016471728751280199 0.0049830616938171621 0 0.015880266921742776 0.0056165630320189515 0 0.017422993861581592 0.0039477046787932367 0 0.017140125430517072 0.0039177743202078192 0 0.017169306371550036 0.0037112969844682788 0 0.016902456549814548 0.0036553680609202788 0 0.017140125430517072 0.0039177743202078192 0 0.017169306371550036 0.0037112969844682788 0 0.016902456549814548 0.0036553680609202788 0 0.017169306371550036 0.0037112969844682788 0 0.017041297798480057 0.0034212209789638661 0 0.017169306371550036 0.0037112969844682788 0 0.017041297798480057 0.0034212209789638661 0 0.017315916926776722 0.0036017169700249766 0 0.017041297798480057 0.0034212209789638661 0 0.017252210094728999 0.0032485401558344693 0 0.016980336064720915 0.00311600252820303 0 0.017252210094728999 0.0032485401558344693 0 0.017116708601537797 0.0029319157931583994 0 0.016980336064720915 0.00311600252820303 0 0.017252210094728999 0.0032485401558344693 0 0.01748051815312952 0.003220661518059457 0 0.01738714697535728 0.0028882105047763379 0 0.017252210094728999 0.0032485401558344693 0 0.017425256501650443 0.0034446173170700027 0 0.01748051815312952 0.003220661518059457 0 0.017041297798480057 0.0034212209789638661 0 0.017252210094728999 0.0032485401558344693 0 0.017315916926776722 0.0036017169700249766 0 0.017252210094728999 0.0032485401558344693 0 0.017315916926776722 0.0036017169700249766 0 0.017425256501650443 0.0034446173170700027 0 0.017485689200893894 0.0036943227630860257 0 0.017315916926776722 0.0036017169700249766 0 0.017425256501650443 0.0034446173170700027 0 0.017485689200893894 0.0036943227630860257 0 0.017425256501650443 0.0034446173170700027 0 0.017594103395405639 0.0034502498952499296 0 0.017485689200893894 0.0036943227630860257 0 0.017703975424455145 0.0035829948248119283 0 0.017594103395405639 0.0034502498952499296 0 0.017703975424455145 0.0035829948248119283 0 0.017594103395405639 0.0034502498952499296 0 0.017723271124307799 0.0034550318854983707 0 0.017594103395405639 0.0034502498952499296 0 0.017688395776436869 0.0032220255628473732 0 0.01748051815312952 0.003220661518059457 0 0.017594103395405639 0.0034502498952499296 0 0.017723271124307799 0.0034550318854983707 0 0.017688395776436869 0.0032220255628473732 0 0.017688395776436869 0.0032220255628473732 0 0.01748051815312952 0.003220661518059457 0 0.017597770290866111 0.0029205747923941954 0 0.017425256501650443 0.0034446173170700027 0 0.017594103395405639 0.0034502498952499296 0 0.01748051815312952 0.003220661518059457 0 0.01748051815312952 0.003220661518059457 0 0.017597770290866111 0.0029205747923941954 0 0.01738714697535728 0.0028882105047763379 0 0.017688395776436869 0.0032220255628473732 0 0.017597770290866111 0.0029205747923941954 0 0.017844074172872561 0.0029887779880536517 0 0.017597770290866111 0.0029205747923941954 0 0.017754223644246662 0.0027521441357485467 0 0.017844074172872561 0.0029887779880536517 0 0.017597770290866111 0.0029205747923941954 0 0.017497885054753835 0.0025646299927680294 0 0.01738714697535728 0.0028882105047763379 0 0.017597770290866111 0.0029205747923941954 0 0.017754223644246662 0.0027521441357485467 0 0.017497885054753835 0.0025646299927680294 0 0.018624726733820773 0.0026277280110885764 0 0.017667092114725357 0.0024712028460587947 0 0.017497885054753835 0.0025646299927680294 0 0.017221543696940289 0.0026584838316393777 0 0.017175268369702203 0.0022439182363518089 0 0.017497885054753835 0.0025646299927680294 0 0.017221543696940289 0.0026584838316393777 0 0.01738714697535728 0.0028882105047763379 0 0.017221543696940289 0.0026584838316393777 0 0.017175268369702203 0.0022439182363518089 0 0.016868578912962652 0.002671491470338122 0 0.017221543696940289 0.0026584838316393777 0 0.017116708601537797 0.0029319157931583994 0 0.016868578912962652 0.002671491470338122 0 0.017116708601537797 0.0029319157931583994 0 0.016980336064720915 0.00311600252820303 0 0.016868578912962652 0.002671491470338122 0 0.017252210094728999 0.0032485401558344693 0 0.017116708601537797 0.0029319157931583994 0 0.01738714697535728 0.0028882105047763379 0 0.017221543696940289 0.0026584838316393777 0 0.017116708601537797 0.0029319157931583994 0 0.01738714697535728 0.0028882105047763379 0 0.01375622540125372 0.0088643890543012565 0 0.013779532741102192 0.0088666891971577125 0 0.01374463715107959 0.0088602787495620644 0 0.015176464972178045 0.0056228437555587993 0 0.012829814100899638 0.0071764089985055972 0 0.014032989535815745 0.0050889199159731193 0 0.014600788389599622 0.0045227423313070232 0 0.013460060798471141 0.0052415208109399605 0 0.014032989535815745 0.0050889199159731193 0 0.01406800964372132 0.0056802847951720825 0 0.013460060798471141 0.0052415208109399605 0 0.014032989535815745 0.0050889199159731193 0 0.014774382557202863 0.0043211129945955268 0 0.014791689681930431 0.0052877715216419147 0 0.014032989535815745 0.0050889199159731193 0 0.014791689681930431 0.0052877715216419147 0 0.01406800964372132 0.0056802847951720825 0 0.014376193256360326 0.005062856332171916 0 0.015176464972178045 0.0056228437555587993 0 0.013756668701004436 0.0088472559462657516 0 0.013769254790386359 0.008867967799184107 0 0.013739841156663306 0.0088581779496211595 0 0.01375622540125372 0.0088643890543012565 0 0.013769254790386359 0.008867967799184107 0 0.013739841156663306 0.0088581779496211595 0 0.01375622540125372 0.0088643890543012565 0 0.013769254790386359 0.008867967799184107 0 0.013779532741102192 0.0088666891971577125 0 0.015611602760778531 0.0046561570313334742 0 0.014774382557202863 0.0043211129945955268 0 0.016361599016122396 0.0036125524406820531 0 0.015961955567906728 0.0065891794030757591 0 0.015176464972178045 0.0056228437555587993 0 0.015176464972178045 0.0056228437555587993 0 0.017346872042325795 0.0036895759559726249 0 0.017914465232168119 0.0039905599640568919 0 0.017605902991155879 0.0041547571429154887 0 0.017864846015367836 0.0040662344642368132 0 0.013873235046017781 0.0089232210161478004 0 0.013801289591564153 0.0088792583494107305 0 0.013779532741102192 0.0088666891971577125 0 0.013769254790386359 0.008867967799184107 0 0.013801289591564153 0.0088792583494107305 0 0.013779532741102192 0.0088666891971577125 0 0.015611602760778531 0.0046561570313334742 0 0.014774382557202863 0.0043211129945955268 0 0.014791689681930431 0.0052877715216419147 0 0.015611602760778531 0.0046561570313334742 0 0.014791689681930431 0.0052877715216419147 0 0.015679715693342082 0.0053466849272447714 0 0.015611602760778531 0.0046561570313334742 0 0.015679715693342082 0.0053466849272447714 0 0.016434986632990516 0.0047252303064216775 0 0.015679715693342082 0.0053466849272447714 0 0.016434986632990516 0.0047252303064216775 0 0.01649494672168739 0.0056569041920663662 0 0.016434986632990516 0.0047252303064216775 0 0.017437926129979475 0.0051418078483017335 0 0.01649494672168739 0.0056569041920663662 0 0.016434986632990516 0.0047252303064216775 0 0.017110806387169882 0.0040286189410850479 0 0.017437926129979475 0.0051418078483017335 0 0.015611602760778531 0.0046561570313334742 0 0.016434986632990516 0.0047252303064216775 0 0.016361599016122396 0.0036125524406820531 0 0.017646796117595408 0.003763304290119323 0 0.017346872042325795 0.0036895759559726249 0 0.017809435977247715 0.0040215138663849915 0 0.017914465232168119 0.0039905599640568919 0 0.017864846015367836 0.0040662344642368132 0 0.017736280435685717 0.0033725390621658666 0 0.016361599016122396 0.0036125524406820531 0 0.017110806387169882 0.0040286189410850479 0 0.016434986632990516 0.0047252303064216775 0 0.016361599016122396 0.0036125524406820531 0 0.017110806387169882 0.0040286189410850479 0 0.017736280435685717 0.0033725390621658666 0 0.017110806387169882 0.0040286189410850479 0 0.01773413489506679 0.0036394178426114579 0 0.017736280435685717 0.0033725390621658666 0 0.017703975424455145 0.0035829948248119283 0 0.01773413489506679 0.0036394178426114579 0 0.017703975424455145 0.0035829948248119283 0 0.017723271124307799 0.0034550318854983707 0 0.01773413489506679 0.0036394178426114579 0 0.017110806387169882 0.0040286189410850479 0 0.01773413489506679 0.0036394178426114579 0 0.017437926129979475 0.0051418078483017335 0 0.017723271124307799 0.0034550318854983707 0 0.01773413489506679 0.0036394178426114579 0 0.017984118782146757 0.0032160453866273415 0 0.017723271124307799 0.0034550318854983707 0 0.017688395776436869 0.0032220255628473732 0 0.017984118782146757 0.0032160453866273415 0 0.017756538010357901 0.0036423602295297965 0 0.017675175178751706 0.0042463007557482476 0 0.017688395776436869 0.0032220255628473732 0 0.017984118782146757 0.0032160453866273415 0 0.017844074172872561 0.0029887779880536517 0 0.017984118782146757 0.0032160453866273415 0 0.017844074172872561 0.0029887779880536517 0 0.018068883153835261 0.00287137116442819 0 0.017675175178751706 0.0042463007557482476 0 0.017863141856146236 0.0045156429933077228 0 0.017754223644246662 0.0027521441357485467 0 0.017844074172872561 0.0029887779880536517 0 0.018068883153835261 0.00287137116442819 0 0.018624726733820773 0.0026277280110885764 0 0.017863141856146236 0.0045156429933077228 0 0.019055651587114603 0.0027204782360658718 0 0.0202619815155267 0.0030883103303434552 0 0.019790083186576102 0.0022375060893675257 0 0.0202619815155267 0.0030883103303434552 0 0.020550753219026281 0.0017449836427320636 0 0.019790083186576102 0.0022375060893675257 0 0.017863141856146236 0.0045156429933077228 0 0.017987063092389503 0.004700140281232397 0 0.015701522562140934 0.0062553991962173332 0 0.014774899780165543 0.0060632421719086019 0 0.014708832617151236 0.0065011201828379887 0 0.015701522562140934 0.0062553991962173332 0 0.014828495195907926 0.0070321550056297007 0 0.015439454171428004 0.0076822142632235685 0 0.015701522562140934 0.0062553991962173332 0 0.014828495195907926 0.0070321550056297007 0 0.014708832617151236 0.0065011201828379887 0 0.017863141856146236 0.0045156429933077228 0 0.015173316608628614 0.0061982257579472734 0 0.017118079770953178 0.0068411707721433655 0 0.016336919084274076 0.0062327151504341849 0 0.015814845152543906 0.0065311870697631396 0 0.017437926129979475 0.0051418078483017335 0 0.017118079770953178 0.0068411707721433655 0 0.01649494672168739 0.0056569041920663662 0 0.016336919084274076 0.0062327151504341849 0 0.01590787690438842 0.0058952678697916034 0 0.015814845152543906 0.0065311870697631396 0 0.017118079770953178 0.0068411707721433655 0 0.016336919084274076 0.0062327151504341849 0 0.01649494672168739 0.0056569041920663662 0 0.015679715693342082 0.0053466849272447714 0 0.01649494672168739 0.0056569041920663662 0 0.01590787690438842 0.0058952678697916034 0 0.016336919084274076 0.0062327151504341849 0 0.01649494672168739 0.0056569041920663662 0 0.01590787690438842 0.0058952678697916034 0 0.014791689681930431 0.0052877715216419147 0 0.015679715693342082 0.0053466849272447714 0 0.015263920831307629 0.0058192624128524072 0 0.015679715693342082 0.0053466849272447714 0 0.01590787690438842 0.0058952678697916034 0 0.015263920831307629 0.0058192624128524072 0 0.014791689681930431 0.0052877715216419147 0 0.015263920831307629 0.0058192624128524072 0 0.014390249390901812 0.0060480683441688039 0 0.015263920831307629 0.0058192624128524072 0 0.015814845152543906 0.0065311870697631396 0 0.014390249390901812 0.0060480683441688039 0 0.014610434112537967 0.0061092903657496648 0 0.014774899780165543 0.0060632421719086019 0 0.014390249390901812 0.0060480683441688039 0 0.015173316608628614 0.0061982257579472734 0 0.014565280004307022 0.0060947051889558203 0 0.01590787690438842 0.0058952678697916034 0 0.015263920831307629 0.0058192624128524072 0 0.015814845152543906 0.0065311870697631396 0 0.014610434112537967 0.0061092903657496648 0 0.014708832617151236 0.0065011201828379887 0 0.013984528153350159 0.0068005126760792654 0 0.014610434112537967 0.0061092903657496648 0 0.014774899780165543 0.0060632421719086019 0 0.014708832617151236 0.0065011201828379887 0 0.014828495195907926 0.0070321550056297007 0 0.014708832617151236 0.0065011201828379887 0 0.013984528153350159 0.0068005126760792654 0 0.013984528153350159 0.0068005126760792654 0 0.013060170615532102 0.0063623918396392039 0 0.013285121803656609 0.0076446892983840081 0 0.014734177208807441 0.0060573684594801237 0 0.0129445066977204 0.0067485234525766578 0 0.0129445066977204 0.0067485234525766578 0 0.013102655564269048 0.0077431159474335128 0 0.014610434112537967 0.0061092903657496648 0 0.013984528153350159 0.0068005126760792654 0 0.013060170615532102 0.0063623918396392039 0 0.014610434112537967 0.0061092903657496648 0 0.013900343315619589 0.0065039315682435235 0 0.014390249390901812 0.0060480683441688039 0 0.013900343315619589 0.0065039315682435235 0 0.01406800964372132 0.0056802847951720825 0 0.013460060798471141 0.0052415208109399605 0 0.013900343315619589 0.0065039315682435235 0 0.014390249390901812 0.0060480683441688039 0 0.01406800964372132 0.0056802847951720825 0 0.0129445066977204 0.0067485234525766578 0 0.012829814100899638 0.0071764089985055972 0 0.014791689681930431 0.0052877715216419147 0 0.014390249390901812 0.0060480683441688039 0 0.01406800964372132 0.0056802847951720825 0 0.013372603947155953 0.0089830414309768833 0 0.013285121803656609 0.0076446892983840081 0 0.01431351899973902 0.007995977786132067 0 0.013372603947155953 0.0089830414309768833 0 0.012928772403062982 0.0078799091734236444 0 0.012337712378802016 0.0090042411614978547 0 0.013360781437101638 0.0089260891825155841 0 0.013102655564269048 0.0077431159474335128 0 0.012643077507419716 0.0066510640092399386 0 0.012928772403062982 0.0078799091734236444 0 0.012120464759551546 0.0075471837573558801 0 0.014828495195907926 0.0070321550056297007 0 0.013984528153350159 0.0068005126760792654 0 0.01431351899973902 0.007995977786132067 0 0.013984528153350159 0.0068005126760792654 0 0.013285121803656609 0.0076446892983840081 0 0.01431351899973902 0.007995977786132067 0 0.013372603947155953 0.0089830414309768833 0 0.01431351899973902 0.007995977786132067 0 0.015104315396865763 0.0092453431894712612 0 0.020550753219026281 0.0017449836427320636 0 0.019710559536798431 0.00089097624664600389 0 0.020805553557826109 0.00034194983545319185 0 0.01431351899973902 0.007995977786132067 0 0.015439454171428004 0.0076822142632235685 0 0.015104315396865763 0.0092453431894712612 0 0.017987063092389503 0.004700140281232397 0 0.018120728403410006 0.0050172844174048385 0 0.014828495195907926 0.0070321550056297007 0 0.01431351899973902 0.007995977786132067 0 0.015439454171428004 0.0076822142632235685 0 0.019790083186576102 0.0022375060893675257 0 0.019710559536798431 0.00089097624664600389 0 0.018923679465349418 0.0017368317593665613 0 0.020550753219026281 0.0017449836427320636 0 0.019790083186576102 0.0022375060893675257 0 0.019710559536798431 0.00089097624664600389 0 0.019710559536798431 0.00089097624664600389 0 0.01998018131739478 -0.00034778611109225399 0 0.0190491288089711 -0.00023622274222890799 0 0.019710559536798431 0.00089097624664600389 0 0.01998018131739478 -0.00034778611109225399 0 0.020805553557826109 0.00034194983545319185 0 0.018593528141895986 0.00033273313965879016 0 0.017472754217201479 -0.0020531676243162895 0 0.01998018131739478 -0.00034778611109225399 0 0.020852763296491203 -0.0010594942127880465 0 0.019264521146251091 -0.0010959470339501776 0 0.016048001631969872 -0.002408179045032312 0 0.015738134271980411 -0.0024718670653230209 0 0.015869015846394503 -0.0025006387594140515 0 0.01998018131739478 -0.00034778611109225399 0 0.0190491288089711 -0.00023622274222890799 0 0.019264521146251091 -0.0010959470339501776 0 0.020981576468127608 -0.00092223101632657651 0 0.020757082006371327 -0.00092243807618769681 0 0.020805553557826109 0.00034194983545319185 0 0.0208038637400976 -0.00096761680385225963 0 0.018593528141895986 0.00033273313965879016 0 0.016048001631969872 -0.002408179045032312 0 0.015869015846394503 -0.0025006387594140515 0 0.015969703954743179 -0.0024855803695506429 0 0.016116705704235287 0.0013596319676631881 0 0.017066206696106777 0.0013232038649738155 0 0.015947814675843747 0.0022215610825882795 0 0.015999903650714162 0.0036827379848804807 0 0.01618921122911424 0.0015332732470012024 0 0.016048001631969872 -0.002408179045032312 0 0.016108855616250972 -0.0024623145731854051 0 0.016057277300205362 -0.0024801808583021492 0 0.018593528141895986 0.00033273313965879016 0 0.01618921122911424 0.0015332732470012024 0 0.015999903650714162 0.0036827379848804807 0 0.018593528141895986 0.00033273313965879016 0 0.016048001631969872 -0.002408179045032312 0 0.016057277300205362 -0.0024801808583021492 0 0.015969703954743179 -0.0024855803695506429 0 0.015999903650714162 0.0036827379848804807 0 0.018120728403410006 0.0050172844174048385 0 0.01998018131739478 -0.00034778611109225399 0 0.020757082006371327 -0.00092243807618769681 0 0.020805553557826109 0.00034194983545319185 0 0.013372603947155953 0.0089830414309768833 0 0.015104315396865763 0.0092453431894712612 0 0.014082319046985996 0.0099771226965995503 0 0.014752682211439822 0.01082097798343163 0 0.015104315396865763 0.0092453431894712612 0 0.014082319046985996 0.0099771226965995503 0 0.014752682211439822 0.01082097798343163 0 0.014082319046985996 0.0099771226965995503 0 0.013630939114177523 0.010887537653246272 0 0.015999903650714162 0.0036827379848804807 0 0.013757973524869767 0.0070971868786247486 0 0.015332615839958826 0.0034110910691090681 0 0.014154362005746397 0.0034692451548006503 0 0.015275369029228112 0.0037006303589729016 0 0.013757973524869767 0.0070971868786247486 0 0.012429200722558969 0.0055792793262653293 0 0.014082319046985996 0.0099771226965995503 0 0.013630939114177523 0.010887537653246272 0 0.013128882287661752 0.010030521356668227 0 0.013630939114177523 0.010887537653246272 0 0.013128882287661752 0.010030521356668227 0 0.012487454418628568 0.010582886609844674 0 0.013630939114177523 0.010887537653246272 0 0.012487454418628568 0.010582886609844674 0 0.012508966287127278 0.010924208634241244 0 0.013128882287661752 0.010030521356668227 0 0.012398418017183844 0.01011414555371111 0 0.012487454418628568 0.010582886609844674 0 0.013372603947155953 0.0089830414309768833 0 0.014082319046985996 0.0099771226965995503 0 0.013128882287661752 0.010030521356668227 0 0.012559859118225627 0.0096096240904100846 0 0.013128882287661752 0.010030521356668227 0 0.012398418017183844 0.01011414555371111 0 0.013372603947155953 0.0089830414309768833 0 0.012559859118225627 0.0096096240904100846 0 0.013128882287661752 0.010030521356668227 0 0.013372603947155953 0.0089830414309768833 0 0.012559859118225627 0.0096096240904100846 0 0.012337712378802016 0.0090042411614978547 0 0.01742081098450551 0.00075519570757950341 0 0.016470315733072078 0.00086566690040008822 0 0.017570769592586355 0.0012441903959372377 0 0.016940920181262198 0.0016691104265497783 0 0.017175268369702203 0.0022439182363518089 0 0.016940920181262198 0.0016691104265497783 0 0.017175268369702203 0.0022439182363518089 0 0.016792517113565674 0.0022081614832243314 0 0.017570769592586355 0.0012441903959372377 0 0.017175268369702203 0.0022439182363518089 0 0.017954677274123886 0.0016759068641102465 0 0.017667092114725357 0.0024712028460587947 0 0.017208018840475542 0.0022688458456206254 0 0.01794689031629141 0.0023817101086722374 0 0.017175268369702203 0.0022439182363518089 0 0.017954677274123886 0.0016759068641102465 0 0.01794689031629141 0.0023817101086722374 0 0.017954677274123886 0.0016759068641102465 0 0.018923679465349418 0.0017368317593665613 0 0.019055651587114603 0.0027204782360658718 0 0.019790083186576102 0.0022375060893675257 0 0.018923679465349418 0.0017368317593665613 0 0.019055651587114603 0.0027204782360658718 0 0.01794689031629141 0.0023817101086722374 0 0.018923679465349418 0.0017368317593665613 0 0.019710559536798431 0.00089097624664600389 0 0.018923679465349418 0.0017368317593665613 0 0.018563844229213967 0.00059487548638465339 0 0.017954677274123886 0.0016759068641102465 0 0.018923679465349418 0.0017368317593665613 0 0.018563844229213967 0.00059487548638465339 0 0.01742081098450551 0.00075519570757950341 0 0.018536427358116572 0.00061359753063957613 0 0.017570769592586355 0.0012441903959372377 0 0.017954677274123886 0.0016759068641102465 0 0.018563844229213967 0.00059487548638465339 0 0.017145145766516622 0.00029032769901329148 0 0.018563844229213967 0.00059487548638465339 0 0.017584710670447191 -0.0013363491697134316 0 0.018563844229213967 0.00059487548638465339 0 0.0190491288089711 -0.00023622274222890799 0 0.017584710670447191 -0.0013363491697134316 0 0.019710559536798431 0.00089097624664600389 0 0.018563844229213967 0.00059487548638465339 0 0.0190491288089711 -0.00023622274222890799 0 0.0190491288089711 -0.00023622274222890799 0 0.019264521146251091 -0.0010959470339501776 0 0.017584710670447191 -0.0013363491697134316 0 0.015738134271980411 -0.0024718670653230209 0 0.015870731678377169 -0.0022494543113255883 0 0.015749104716811194 -0.002476736723982801 0 0.017472754217201479 -0.0020531676243162895 0 0.016686370406413374 -0.0017394323644191313 0 0.016686370406413374 -0.0017394323644191313 0 0.015925212675713632 -0.0016750867973500979 0 0.017145145766516622 0.00029032769901329148 0 0.017584710670447191 -0.0013363491697134316 0 0.015933666636539414 -0.0016425682119137401 0 0.017145145766516622 0.00029032769901329148 0 0.015873736898762199 6.953795659635437e-05 0 0.015933666636539414 -0.0016425682119137401 0 0.015933666636539414 -0.0016425682119137401 0 0.015368655180773736 -0.0012959806018724492 0 0.015271786751964944 -0.0007320896303648055 0 0.015933666636539414 -0.0016425682119137401 0 0.015403928423591251 -0.0016940631511225665 0 0.015368655180773736 -0.0012959806018724492 0 0.015403928423591251 -0.0016940631511225665 0 0.015368655180773736 -0.0012959806018724492 0 0.01501606287650922 -0.001152317627408569 0 0.014621868098424088 -0.0013766092680869868 0 0.01471240678239916 -0.0013955235400554015 0 0.015352186328258723 -0.0020956604358932734 0 0.015625355413190663 -0.00083941618343398279 0 0.015283092286274414 -0.0022672357799986133 0 0.015403928423591251 -0.0016940631511225665 0 0.01471240678239916 -0.0013955235400554015 0 0.015352186328258723 -0.0020956604358932734 0 0.015403928423591251 -0.0016940631511225665 0 0.01501606287650922 -0.001152317627408569 0 0.01471240678239916 -0.0013955235400554015 0 0.01501606287650922 -0.001152317627408569 0 0.01471240678239916 -0.0013955235400554015 0 0.014733788068039691 -0.001090927168642457 0 0.014615014584181348 -0.0013634016249893133 0 0.01471240678239916 -0.0013955235400554015 0 0.014733788068039691 -0.001090927168642457 0 0.015625355413190663 -0.00083941618343398279 0 0.015543402384068466 -0.00083681438723110142 0 0.014615014584181348 -0.0013634016249893133 0 0.014587324201236573 -0.00083011856221031554 0 0.014733788068039691 -0.001090927168642457 0 0.01501606287650922 -0.001152317627408569 0 0.014733788068039691 -0.001090927168642457 0 0.014820949946620202 -0.00074128775463460793 0 0.014587324201236573 -0.00083011856221031554 0 0.014733788068039691 -0.001090927168642457 0 0.014820949946620202 -0.00074128775463460793 0 0.01501606287650922 -0.001152317627408569 0 0.014820949946620202 -0.00074128775463460793 0 0.015271786751964944 -0.0007320896303648055 0 0.014820949946620202 -0.00074128775463460793 0 0.015271786751964944 -0.0007320896303648055 0 0.014864121748404607 -1.7781704648859707e-05 0 0.014587324201236573 -0.00083011856221031554 0 0.014820949946620202 -0.00074128775463460793 0 0.014511604225808159 -0.00038686905870307211 0 0.014820949946620202 -0.00074128775463460793 0 0.014511604225808159 -0.00038686905870307211 0 0.014864121748404607 -1.7781704648859707e-05 0 0.015873736898762199 6.953795659635437e-05 0 0.015933666636539414 -0.0016425682119137401 0 0.015271786751964944 -0.0007320896303648055 0 0.015368655180773736 -0.0012959806018724492 0 0.01501606287650922 -0.001152317627408569 0 0.015271786751964944 -0.0007320896303648055 0 0.016470315733072078 0.00086566690040008822 0 0.015596828253775522 0.00095721709744894486 0 0.016940920181262198 0.0016691104265497783 0 0.016594987813393702 0.0019225301761157997 0 0.016792517113565674 0.0022081614832243314 0 0.015873736898762199 6.953795659635437e-05 0 0.015271786751964944 -0.0007320896303648055 0 0.014864121748404607 -1.7781704648859707e-05 0 0.016606921271974842 0.0021747888914190033 0 0.016792517113565674 0.0022081614832243314 0 0.016599774013421002 0.002445163534062982 0 0.016594987813393702 0.0019225301761157997 0 0.016606921271974842 0.0021747888914190033 0 0.016433785435058242 0.0022286386925703056 0 0.016594987813393702 0.0019225301761157997 0 0.016606921271974842 0.0021747888914190033 0 0.016792517113565674 0.0022081614832243314 0 0.016606921271974842 0.0021747888914190033 0 0.016433785435058242 0.0022286386925703056 0 0.016599774013421002 0.002445163534062982 0 0.016314532545321867 0.0021557275454713869 0 0.015771034822217679 0.0010679948613510164 0 0.016468382217823763 0.0019861816733935432 0 0.016175408465564391 0.0019979615644044758 0 0.01623198552749431 0.0023864079865905663 0 0.016314532545321867 0.0021557275454713869 0 0.01625522687143794 0.002328538584210883 0 0.0162528938123306 0.002242103927529218 0 0.016433785435058242 0.0022286386925703056 0 0.016318700799878218 0.0020307529845174036 0 0.0162528938123306 0.002242103927529218 0 0.016433785435058242 0.0022286386925703056 0 0.01638658831670859 0.002513382307571024 0 0.014511604225808159 -0.00038686905870307211 0 0.014864121748404607 -1.7781704648859707e-05 0 0.013846662282453176 5.950722043296581e-05 0 0.016374088132252915 0.0011198026283692265 0 0.016267466958214984 0.00096819769973509589 0 0.016474901127779985 0.00092142627303995939 0 0.015596828253775522 0.00095721709744894486 0 0.015771034822217679 0.0010679948613510164 0 0.016594987813393702 0.0019225301761157997 0 0.016433785435058242 0.0022286386925703056 0 0.016318700799878218 0.0020307529845174036 0 0.014511604225808159 -0.00038686905870307211 0 0.013846662282453176 5.950722043296581e-05 0 0.0141975758332106 -0.00062185276289761541 0 0.015771034822217679 0.0010679948613510164 0 0.01530895359051127 0.00020187745677726051 0 0.016374088132252915 0.0011198026283692265 0 0.016106825992349926 0.0011651093614298553 0 0.016160619912094693 0.0010483375244825456 0 0.016468382217823763 0.0019861816733935432 0 0.016639139789484333 0.0016630326112287337 0 0.016137257478525471 0.0017065258399632855 0 0.015771034822217679 0.0010679948613510164 0 0.016272061553170743 0.0014542970422135064 0 0.016374088132252915 0.0011198026283692265 0 0.016267466958214984 0.00096819769973509589 0 0.016160619912094693 0.0010483375244825456 0 0.015895229243801674 -0.00064286605336719735 0 0.015845155496618153 0.00011957200521399339 0 0.016267466958214984 0.00096819769973509589 0 0.016347278033930455 0.00081193278786167837 0 0.016474901127779985 0.00092142627303995939 0 0.016267466958214984 0.00096819769973509589 0 0.016160644325752042 0.00097770142227127164 0 0.016123323053309428 0.00090560705612243364 0 0.016267466958214984 0.00096819769973509589 0 0.016347278033930455 0.00081193278786167837 0 0.016123323053309428 0.00090560705612243364 0 0.015336859063847562 -0.0020211227293165396 0 0.015275221075888135 -0.0020414877890237737 0 0.015245491107876062 -0.0019670412093682863 0 0.016267466958214984 0.00096819769973509589 0 0.016160644325752042 0.00097770142227127164 0 0.016160619912094693 0.0010483375244825456 0 0.016574022371618865 0.00071192416643656089 0 0.016347278033930455 0.00081193278786167837 0 0.016474901127779985 0.00092142627303995939 0 0.014587324201236573 -0.00083011856221031554 0 0.014511604225808159 -0.00038686905870307211 0 0.0141975758332106 -0.00062185276289761541 0 0.014615014584181348 -0.0013634016249893133 0 0.014587324201236573 -0.00083011856221031554 0 0.0141975758332106 -0.00062185276289761541 0 0.015625355413190663 -0.00083941618343398279 0 0.01530895359051127 0.00020187745677726051 0 0.015394175547943919 -0.0020837709356848885 0 0.015336859063847562 -0.0020211227293165396 0 0.01535763892040924 -0.0020732927459841646 0 0.015625355413190663 -0.00083941618343398279 0 0.015895229243801674 -0.00064286605336719735 0 0.01535763892040924 -0.0020732927459841646 0 0.015311232243388059 -0.0020931051512071077 0 0.015357366388244923 -0.0021085702998428668 0 0.01535763892040924 -0.0020732927459841646 0 0.015374632989885133 -0.0020922206090854848 0 0.015357366388244923 -0.0021085702998428668 0 0.015374632989885133 -0.0020922206090854848 0 0.015357366388244923 -0.0021085702998428668 0 0.015382627142220291 -0.0021096250127304174 0 0.015394175547943919 -0.0020837709356848885 0 0.01535763892040924 -0.0020732927459841646 0 0.015374632989885133 -0.0020922206090854848 0 0.015394175547943919 -0.0020837709356848885 0 0.015374632989885133 -0.0020922206090854848 0 0.015382627142220291 -0.0021096250127304174 0 0.015336859063847562 -0.0020211227293165396 0 0.015275221075888135 -0.0020414877890237737 0 0.015311232243388059 -0.0020931051512071077 0 0.015336859063847562 -0.0020211227293165396 0 0.01535763892040924 -0.0020732927459841646 0 0.015311232243388059 -0.0020931051512071077 0 0.015275221075888135 -0.0020414877890237737 0 0.015311232243388059 -0.0020931051512071077 0 0.015244003203183677 -0.0020893592652364763 0 0.015275221075888135 -0.0020414877890237737 0 0.015244003203183677 -0.0020893592652364763 0 0.015206962219765505 -0.0020446041869265413 0 0.015275221075888135 -0.0020414877890237737 0 0.015206962219765505 -0.0020446041869265413 0 0.015245491107876062 -0.0019670412093682863 0 0.015769839115505384 -0.0009509144300141575 0 0.01569965516663234 -0.0011110401133547602 0 0.015244003203183677 -0.0020893592652364763 0 0.015206962219765505 -0.0020446041869265413 0 0.015172633336885972 -0.0021126688814420485 0 0.016451666786393745 0.00028752569680977189 0 0.016108571915115517 0.00025932310445904813 0 0.016248869906150959 -0.00010519940825597164 0 0.016108571915115517 0.00025932310445904813 0 0.015687355554640438 7.4620712446545553e-05 0 0.016248869906150959 -0.00010519940825597164 0 0.016108571915115517 0.00025932310445904813 0 0.015903127776021573 0.00052463701275991368 0 0.015687355554640438 7.4620712446545553e-05 0 0.016108571915115517 0.00025932310445904813 0 0.016249946248251726 0.00051577565409537357 0 0.015903127776021573 0.00052463701275991368 0 0.016451666786393745 0.00028752569680977189 0 0.016108571915115517 0.00025932310445904813 0 0.016249946248251726 0.00051577565409537357 0 0.016249946248251726 0.00051577565409537357 0 0.016096731412421884 0.00088488366517491509 0 0.016650103638057131 0.00067560619330318426 0 0.016249946248251726 0.00051577565409537357 0 0.015903127776021573 0.00052463701275991368 0 0.016096731412421884 0.00088488366517491509 0 0.015903127776021573 0.00052463701275991368 0 0.016096731412421884 0.00088488366517491509 0 0.015741652134659459 0.00079459206758630146 0 0.016050025507185362 0.00097667718768733856 0 0.015845155496618153 0.00011957200521399339 0 0.015881701422390791 0.0010078852442612501 0 0.01602937187836698 0.0010171962440051695 0 0.01613202951605509 0.00091299252704456972 0 0.01602937187836698 0.0010171962440051695 0 0.016111474396671325 0.00099321641068513575 0 0.01613202951605509 0.00091299252704456972 0 0.016111474396671325 0.00099321641068513575 0 0.016160644325752042 0.00097770142227127164 0 0.016160619912094693 0.0010483375244825456 0 0.016111474396671325 0.00099321641068513575 0 0.016160644325752042 0.00097770142227127164 0 0.01613202951605509 0.00091299252704456972 0 0.016120352015480632 0.00072318466651664643 0 0.015845155496618153 0.00011957200521399339 0 0.015769839115505384 -0.0009509144300141575 0 0.015845155496618153 0.00011957200521399339 0 0.016451666786393745 0.00028752569680977189 0 0.016249946248251726 0.00051577565409537357 0 0.016650103638057131 0.00067560619330318426 0 0.015129768516421083 0.00024098516493890323 0 0.015687355554640438 7.4620712446545553e-05 0 0.015455754001087781 0.00065577856818260067 0 0.015156973018430452 0.00022377011757645506 0 0.01575886444000869 0.00010380273679929987 0 0.015129768516421083 0.00024098516493890323 0 0.014999958524951154 0.00077705358260372079 0 0.014999993191622939 -8.1056735006167344e-05 0 0.015129768516421083 0.00024098516493890323 0 0.015716458036495112 4.0686552554963979e-05 0 0.015343276251603429 -6.4822590949229747e-05 0 0.015129768516421083 0.00024098516493890323 0 0.014999993191622939 -8.1056735006167344e-05 0 0.015343276251603429 -6.4822590949229747e-05 0 0.015903127776021573 0.00052463701275991368 0 0.015687355554640438 7.4620712446545553e-05 0 0.015455754001087781 0.00065577856818260067 0 0.016096731412421884 0.00088488366517491509 0 0.015741652134659459 0.00079459206758630146 0 0.015507366521204664 0.0011229390403251587 0 0.015903127776021573 0.00052463701275991368 0 0.015741652134659459 0.00079459206758630146 0 0.015455754001087781 0.00065577856818260067 0 0.015741652134659459 0.00079459206758630146 0 0.015455754001087781 0.00065577856818260067 0 0.015507366521204664 0.0011229390403251587 0 0.015455754001087781 0.00065577856818260067 0 0.014999958524951154 0.00077705358260372079 0 0.015227005446903252 0.0011154262911467138 0 0.015129768516421083 0.00024098516493890323 0 0.015455754001087781 0.00065577856818260067 0 0.014999958524951154 0.00077705358260372079 0 0.015227005446903252 0.0011154262911467138 0 0.01528393513081378 0.0014404513790013385 0 0.014999934676618686 0.0016353592887379425 0 0.014999958524951154 0.00077705358260372079 0 0.015227005446903252 0.0011154262911467138 0 0.014999934676618686 0.0016353592887379425 0 0.015455754001087781 0.00065577856818260067 0 0.015227005446903252 0.0011154262911467138 0 0.015507366521204664 0.0011229390403251587 0 0.015227005446903252 0.0011154262911467138 0 0.01528393513081378 0.0014404513790013385 0 0.015507366521204664 0.0011229390403251587 0 0.015881701422390791 0.0010078852442612501 0 0.015507366521204664 0.0011229390403251587 0 0.015813400751143007 0.001255059992247628 0 0.016050025507185362 0.00097667718768733856 0 0.015521932215885719 0.0011090647794882889 0 0.01528393513081378 0.0014404513790013385 0 0.015507366521204664 0.0011229390403251587 0 0.015813400751143007 0.001255059992247628 0 0.015309980966064691 0.0014539231551222432 0 0.015707406151587239 0.0014570277794539409 0 0.01528393513081378 0.0014404513790013385 0 0.015525735284099758 0.0017684034125144666 0 0.015390916356853196 0.0020258786991164965 0 0.01528393513081378 0.0014404513790013385 0 0.015525735284099758 0.0017684034125144666 0 0.015721613425041719 0.00166996974912636 0 0.015671133465933434 0.0019665649352217985 0 0.015525735284099758 0.0017684034125144666 0 0.015721613425041719 0.00166996974912636 0 0.015671133465933434 0.0019665649352217985 0 0.015525735284099758 0.0017684034125144666 0 0.015390916356853196 0.0020258786991164965 0 0.01528393513081378 0.0014404513790013385 0 0.014999934676618686 0.0016353592887379425 0 0.015390916356853196 0.0020258786991164965 0 0.01602937187836698 0.0010171962440051695 0 0.016106825992349926 0.0011651093614298553 0 0.016160619912094693 0.0010483375244825456 0 0.01602937187836698 0.0010171962440051695 0 0.016111474396671325 0.00099321641068513575 0 0.016160619912094693 0.0010483375244825456 0 0.015881701422390791 0.0010078852442612501 0 0.01602937187836698 0.0010171962440051695 0 0.015813400751143007 0.001255059992247628 0 0.01602937187836698 0.0010171962440051695 0 0.016106825992349926 0.0011651093614298553 0 0.015813400751143007 0.001255059992247628 0 0.016272061553170743 0.0014542970422135064 0 0.015707406151587239 0.0014570277794539409 0 0.016137257478525471 0.0017065258399632855 0 0.015721613425041719 0.00166996974912636 0 0.015947046647194232 0.0020484501090006131 0 0.015671133465933434 0.0019665649352217985 0 0.015721613425041719 0.00166996974912636 0 0.015947046647194232 0.0020484501090006131 0 0.016137257478525471 0.0017065258399632855 0 0.015947046647194232 0.0020484501090006131 0 0.016175408465564391 0.0019979615644044758 0 0.015947046647194232 0.0020484501090006131 0 0.016175408465564391 0.0019979615644044758 0 0.01623198552749431 0.0023864079865905663 0 0.016468382217823763 0.0019861816733935432 0 0.016137257478525471 0.0017065258399632855 0 0.016175408465564391 0.0019979615644044758 0 0.016000027909186424 0.0025130294168293063 0 0.01623198552749431 0.0023864079865905663 0 0.016235252331401565 0.0026997730450372911 0 0.015947046647194232 0.0020484501090006131 0 0.016000027909186424 0.0025130294168293063 0 0.01623198552749431 0.0023864079865905663 0 0.015947046647194232 0.0020484501090006131 0 0.016000027909186424 0.0025130294168293063 0 0.015694016453891603 0.0023941841174557462 0 0.015671133465933434 0.0019665649352217985 0 0.015947046647194232 0.0020484501090006131 0 0.015694016453891603 0.0023941841174557462 0 0.016000027909186424 0.0025130294168293063 0 0.015694016453891603 0.0023941841174557462 0 0.015793587102504253 0.0028332393938562414 0 0.016000027909186424 0.0025130294168293063 0 0.015793587102504253 0.0028332393938562414 0 0.016054646004815629 0.002847688970864412 0 0.016000027909186424 0.0025130294168293063 0 0.016054646004815629 0.002847688970864412 0 0.016235252331401565 0.0026997730450372911 0 0.016054646004815629 0.002847688970864412 0 0.016218138775505844 0.0030713773849669087 0 0.016235252331401565 0.0026997730450372911 0 0.014999934676618686 0.0016353592887379425 0 0.015390916356853196 0.0020258786991164965 0 0.01499991104708784 0.0024933362980559385 0 0.015671133465933434 0.0019665649352217985 0 0.015694016453891603 0.0023941841174557462 0 0.015390916356853196 0.0020258786991164965 0 0.015694016453891603 0.0023941841174557462 0 0.015390916356853196 0.0020258786991164965 0 0.01541644561903778 0.0027882537996142985 0 0.015694016453891603 0.0023941841174557462 0 0.015793587102504253 0.0028332393938562414 0 0.01541644561903778 0.0027882537996142985 0 0.015390916356853196 0.0020258786991164965 0 0.01541644561903778 0.0027882537996142985 0 0.01499991104708784 0.0024933362980559385 0 0.01541644561903778 0.0027882537996142985 0 0.015596705115034679 0.0033091416536891369 0 0.014999927551036208 0.0033513141967558202 0 0.01541644561903778 0.0027882537996142985 0 0.01499991104708784 0.0024933362980559385 0 0.014999927551036208 0.0033513141967558202 0 0.015793587102504253 0.0028332393938562414 0 0.01541644561903778 0.0027882537996142985 0 0.015596705115034679 0.0033091416536891369 0 0.015416691434999989 0.0038041111734163739 0 0.015596705115034679 0.0033091416536891369 0 0.014999927551036208 0.0033513141967558202 0 0.016054646004815629 0.002847688970864412 0 0.015966775870418937 0.0031984158383590684 0 0.016218138775505844 0.0030713773849669087 0 0.015966775870418937 0.0031984158383590684 0 0.016176656242686705 0.0034525767414411482 0 0.016218138775505844 0.0030713773849669087 0 0.015793587102504253 0.0028332393938562414 0 0.016054646004815629 0.002847688970864412 0 0.015966775870418937 0.0031984158383590684 0 0.015793587102504253 0.0028332393938562414 0 0.015596705115034679 0.0033091416536891369 0 0.015966775870418937 0.0031984158383590684 0 0.015853751330050951 0.0038921765376624924 0 0.015596705115034679 0.0033091416536891369 0 0.015966775870418937 0.0031984158383590684 0 0.015853751330050951 0.0038921765376624924 0 0.015966775870418937 0.0031984158383590684 0 0.016176656242686705 0.0034525767414411482 0 0.016176656242686705 0.0034525767414411482 0 0.016218138775505844 0.0030713773849669087 0 0.016423601663193073 0.0033324335422054395 0 0.01630647203908665 0.0038328536963688838 0 0.016176656242686705 0.0034525767414411482 0 0.016423601663193073 0.0033324335422054395 0 0.016218138775505844 0.0030713773849669087 0 0.016423601663193073 0.0033324335422054395 0 0.016400460429527291 0.00290713860884162 0 0.016423601663193073 0.0033324335422054395 0 0.016723064079956308 0.00319327987838843 0 0.016400460429527291 0.00290713860884162 0 0.016723064079956308 0.00319327987838843 0 0.016591924999436871 0.0027682653048697694 0 0.016400460429527291 0.00290713860884162 0 0.016596431099910883 0.0036353677542855741 0 0.016423601663193073 0.0033324335422054395 0 0.016723064079956308 0.00319327987838843 0 0.016902456549814548 0.0036553680609202788 0 0.016596431099910883 0.0036353677542855741 0 0.016723064079956308 0.00319327987838843 0 0.016902456549814548 0.0036553680609202788 0 0.017041297798480057 0.0034212209789638661 0 0.016723064079956308 0.00319327987838843 0 0.017041297798480057 0.0034212209789638661 0 0.016980336064720915 0.00311600252820303 0 0.016723064079956308 0.00319327987838843 0 0.016723064079956308 0.00319327987838843 0 0.016591924999436871 0.0027682653048697694 0 0.016868578912962652 0.002671491470338122 0 0.016980336064720915 0.00311600252820303 0 0.016723064079956308 0.00319327987838843 0 0.016868578912962652 0.002671491470338122 0 0.016792517113565674 0.0022081614832243314 0 0.016868578912962652 0.002671491470338122 0 0.016599774013421002 0.002445163534062982 0 0.017175268369702203 0.0022439182363518089 0 0.016792517113565674 0.0022081614832243314 0 0.016868578912962652 0.002671491470338122 0 0.016591924999436871 0.0027682653048697694 0 0.016868578912962652 0.002671491470338122 0 0.016599774013421002 0.002445163534062982 0 0.016591924999436871 0.0027682653048697694 0 0.016599774013421002 0.002445163534062982 0 0.01638658831670859 0.002513382307571024 0 0.016433785435058242 0.0022286386925703056 0 0.016599774013421002 0.002445163534062982 0 0.01638658831670859 0.002513382307571024 0 0.0162528938123306 0.002242103927529218 0 0.01638658831670859 0.002513382307571024 0 0.01623198552749431 0.0023864079865905663 0 0.01638658831670859 0.002513382307571024 0 0.01623198552749431 0.0023864079865905663 0 0.016235252331401565 0.0026997730450372911 0 0.01638658831670859 0.002513382307571024 0 0.016235252331401565 0.0026997730450372911 0 0.016400460429527291 0.00290713860884162 0 0.016218138775505844 0.0030713773849669087 0 0.016235252331401565 0.0026997730450372911 0 0.016400460429527291 0.00290713860884162 0 0.016591924999436871 0.0027682653048697694 0 0.01638658831670859 0.002513382307571024 0 0.016400460429527291 0.00290713860884162 0 0.0055470337017903618 0.01056899541774022 0 0.0050278161870389018 0.010447151400908109 0 0.0055925285955038401 0.010146244802416621 0 0.0055470337017903618 0.01056899541774022 0 0.0057806257832211435 0.010597861388012664 0 0.0058741196407438275 0.010264230367350741 0 0.0055470337017903618 0.01056899541774022 0 0.0058741196407438275 0.010264230367350741 0 0.0055925285955038401 0.010146244802416621 0 0.0049030520877200237 0.010615458966846144 0 0.0055925285955038401 0.010146244802416621 0 0.0049848896513287923 0.0099968510880639946 0 0.0049702653916969966 0.010516114073827142 0 0.0055306557218723421 0.010178699322822338 0 0.0050278161870389018 0.010447151400908109 0 0.0056136842191081456 0.011002652988387535 0 0.0047359958165794618 0.011097301530793835 0 0.0037029969587991079 0.0083548316518313147 0 0.0029147283446300191 0.0084977156588359366 0 0.0055470337017903618 0.01056899541774022 0 0.0050278161870389018 0.010447151400908109 0 0.0056136842191081456 0.011002652988387535 0 0.0057806257832211435 0.010597861388012664 0 0.0056136842191081456 0.011002652988387535 0 0.0060904441686059465 0.010575134672286369 0 0.0055470337017903618 0.01056899541774022 0 0.0057806257832211435 0.010597861388012664 0 0.0056136842191081456 0.011002652988387535 0 0.0037029969587991079 0.0083548316518313147 0 0.0054876532037824808 0.0088266139512683302 0 0.002111109368591707 0.0058102227599538293 0 0.0031330441682548126 0.005722365993656409 0 0.0027175002319860734 0.0061613223579030313 0 0.0056136842191081456 0.011002652988387535 0 0.0063498194792747749 0.010890722609803992 0 0.0060904441686059465 0.010575134672286369 0 0.0054876532037824808 0.0088266139512683302 0 0.0064524242509223237 0.010949776506710652 0 0.0054876532037824808 0.0088266139512683302 0 0.0079338896304927253 0.0097164948163160087 0 0.006785793743476036 0.0081867166486624555 0 0.0073865953310476027 0.008889930637748145 0 0.0076733333497304053 0.0081008199197401595 0 0.0067316132431667879 0.011305690916188453 0 0.0069669663405550917 0.010651757246529961 0 0.0076886996276074185 0.011207742158257393 0 0.0067316132431667879 0.011305690916188453 0 0.0069669663405550917 0.010651757246529961 0 0.0063144606249325138 0.010807527629100797 0 0.0069669663405550917 0.010651757246529961 0 0.0065738013235442433 0.01040664537044725 0 0.0069085159165346828 0.0099665524757387106 0 0.0069669663405550917 0.010651757246529961 0 0.0069085159165346828 0.0099665524757387106 0 0.0075229062505249586 0.010264388232376161 0 0.0069669663405550917 0.010651757246529961 0 0.0063144606249325138 0.010807527629100797 0 0.0065738013235442433 0.01040664537044725 0 0.0057806257832211435 0.010597861388012664 0 0.0058741196407438275 0.010264230367350741 0 0.0060904441686059465 0.010575134672286369 0 0.0058741196407438275 0.010264230367350741 0 0.0063144606249325138 0.010807527629100797 0 0.0065738013235442433 0.01040664537044725 0 0.0058741196407438275 0.010264230367350741 0 0.0065738013235442433 0.01040664537044725 0 0.0063222859180663664 0.010045035961755371 0 0.0058500356376683781 0.010240385609783244 0 0.0064524242509223237 0.010949776506710652 0 0.0058741196407438275 0.010264230367350741 0 0.0063222859180663664 0.010045035961755371 0 0.0059496194261767707 0.0098744746178049281 0 0.0063222859180663664 0.010045035961755371 0 0.0064725742476017551 0.0096508022491194525 0 0.0069085159165346828 0.0099665524757387106 0 0.0063222859180663664 0.010045035961755371 0 0.0064725742476017551 0.0096508022491194525 0 0.0059496194261767707 0.0098744746178049281 0 0.0064725742476017551 0.0096508022491194525 0 0.0059496194261767707 0.0098744746178049281 0 0.0060164887079680396 0.0094289981017834906 0 0.0069085159165346828 0.0099665524757387106 0 0.006782410528672708 0.0092423586364875961 0 0.0076447780657737992 0.0096180739375969215 0 0.0064725742476017551 0.0096508022491194525 0 0.0069085159165346828 0.0099665524757387106 0 0.006782410528672708 0.0092423586364875961 0 0.0065738013235442433 0.01040664537044725 0 0.0063222859180663664 0.010045035961755371 0 0.0069085159165346828 0.0099665524757387106 0 0.006782410528672708 0.0092423586364875961 0 0.0060164887079680396 0.0094289981017834906 0 0.0061638091351292031 0.0090175476232740061 0 0.0064725742476017551 0.0096508022491194525 0 0.006782410528672708 0.0092423586364875961 0 0.0060164887079680396 0.0094289981017834906 0 0.0060164887079680396 0.0094289981017834906 0 0.0061638091351292031 0.0090175476232740061 0 0.0057445494927974407 0.0089006354221807613 0 0.0060164887079680396 0.0094289981017834906 0 0.005383718244820433 0.0094952097517583198 0 0.0055502604812729551 0.009806269239246419 0 0.0060164887079680396 0.0094289981017834906 0 0.005383718244820433 0.0094952097517583198 0 0.0057445494927974407 0.0089006354221807613 0 0.0059496194261767707 0.0098744746178049281 0 0.0060164887079680396 0.0094289981017834906 0 0.0055502604812729551 0.009806269239246419 0 0.0055502604812729551 0.009806269239246419 0 0.0055925285955038401 0.010146244802416621 0 0.0049848896513287923 0.0099968510880639946 0 0.0059496194261767707 0.0098744746178049281 0 0.0055502604812729551 0.009806269239246419 0 0.0055925285955038401 0.010146244802416621 0 0.0058741196407438275 0.010264230367350741 0 0.0059496194261767707 0.0098744746178049281 0 0.0055925285955038401 0.010146244802416621 0 0.005383718244820433 0.0094952097517583198 0 0.0055502604812729551 0.009806269239246419 0 0.0049848896513287923 0.0099968510880639946 0 0.005383718244820433 0.0094952097517583198 0 0.0049848896513287923 0.0099968510880639946 0 0.0048414487577386617 0.0091027811122383392 0 0.005383718244820433 0.0094952097517583198 0 0.0048414487577386617 0.0091027811122383392 0 0.0057445494927974407 0.0089006354221807613 0 0.0049848896513287923 0.0099968510880639946 0 0.0048414487577386617 0.0091027811122383392 0 0.0042503742078112122 0.009422372647248857 0 0.0048414487577386617 0.0091027811122383392 0 0.0042503742078112122 0.009422372647248857 0 0.0039879429805067257 0.008656495682975239 0 0.0042503742078112122 0.009422372647248857 0 0.0033594765067945231 0.0093349545595246761 0 0.0039879429805067257 0.008656495682975239 0 0.0042503742078112122 0.009422372647248857 0 0.0040729899178360502 0.01002162575509831 0 0.0033594765067945231 0.0093349545595246761 0 0.0040729899178360502 0.01002162575509831 0 0.0033594765067945231 0.0093349545595246761 0 0.0033485492326725142 0.010180175400013338 0 0.0049848896513287923 0.0099968510880639946 0 0.0042503742078112122 0.009422372647248857 0 0.0040729899178360502 0.01002162575509831 0 0.0049030520877200237 0.010615458966846144 0 0.0049848896513287923 0.0099968510880639946 0 0.0040729899178360502 0.01002162575509831 0 0.0033594765067945231 0.0093349545595246761 0 0.0027115351386732206 0.0097486943259801357 0 0.002287376105456367 0.0088424769275705396 0 0.0027115351386732206 0.0097486943259801357 0 0.002287376105456367 0.0088424769275705396 0 0.0019603144313995661 0.0098735875570751756 0 0.0033594765067945231 0.0093349545595246761 0 0.0033485492326725142 0.010180175400013338 0 0.0027115351386732206 0.0097486943259801357 0 0.0027115351386732206 0.0097486943259801357 0 0.0027021519820616432 0.010700786428925064 0 0.0019603144313995661 0.0098735875570751756 0 -0.00028404297443766318 0.0076484737142011455 0 4.0894689343533656e-05 0.0079837660579076351 0 2.8417230924985906e-05 0.0075868662670254975 0 0.0013518332520715038 0.0094619311236668526 0 0.00096149340567860432 0.0088621328456486761 0 0.0033485492326725142 0.010180175400013338 0 0.0027115351386732206 0.0097486943259801357 0 0.0027021519820616432 0.010700786428925064 0 0.0033485492326725142 0.010180175400013338 0 0.0027021519820616432 0.010700786428925064 0 0.0033918856421784995 0.010760783415752203 0 -0.00028404297443766318 0.0076484737142011455 0 -0.00055855119038720341 0.0073042731386380741 0 -0.00021241632575384677 0.0072431208507697234 0 0.0027021519820616432 0.010700786428925064 0 0.0034096358596284486 0.011180228243333364 0 0.0034183491208830559 0.011508573311599823 0 0.0013518332520715038 0.0094619311236668526 0 0.0010002328194013384 0.0079622813226051109 0 0.0027021519820616432 0.010700786428925064 0 0.0033918856421784995 0.010760783415752203 0 0.0034096358596284486 0.011180228243333364 0 -0.00028404297443766318 0.0076484737142011455 0 -0.00021241632575384677 0.0072431208507697234 0 2.8417230924985906e-05 0.0075868662670254975 0 0.0049030520877200237 0.010615458966846144 0 0.0039075870530617647 0.010611091192391951 0 0.0042020611577519842 0.011068658395094244 0 0.0049030520877200237 0.010615458966846144 0 0.0040729899178360502 0.01002162575509831 0 0.0039075870530617647 0.010611091192391951 0 0.0040729899178360502 0.01002162575509831 0 0.0033485492326725142 0.010180175400013338 0 0.0039075870530617647 0.010611091192391951 0 0.0033485492326725142 0.010180175400013338 0 0.0033918856421784995 0.010760783415752203 0 0.0039075870530617647 0.010611091192391951 0 0.0033918856421784995 0.010760783415752203 0 0.0039075870530617647 0.010611091192391951 0 0.0037022661316446406 0.011060703765996343 0 0.0043786312247810384 0.011082083524029432 0 0.0020773289650898447 0.0088292957484242141 0 0.0037022661316446406 0.011060703765996343 0 0.0042020611577519842 0.011068658395094244 0 0.0035031656703652559 0.011502026692577451 0 0.0039075870530617647 0.010611091192391951 0 0.0037022661316446406 0.011060703765996343 0 0.0042020611577519842 0.011068658395094244 0 0.0033918856421784995 0.010760783415752203 0 0.0034096358596284486 0.011180228243333364 0 0.0037022661316446406 0.011060703765996343 0 0.0034096358596284486 0.011180228243333364 0 0.0034183491208830559 0.011508573311599823 0 0.0035031656703652559 0.011502026692577451 0 0.0034096358596284486 0.011180228243333364 0 0.0037022661316446406 0.011060703765996343 0 0.0035031656703652559 0.011502026692577451 0 0.004413566366072646 0.010788524081925826 0 0.0047359958165794618 0.011097301530793835 0 0.0037795074916385364 0.011170048153905992 0 0.0050278161870389018 0.010447151400908109 0 0.004413566366072646 0.010788524081925826 0 0.0047359958165794618 0.011097301530793835 0 0.0049702653916969966 0.010516114073827142 0 0.0043786312247810384 0.011082083524029432 0 0.0010612239797144973 0.0059360410515779524 0 0.00096424663288079842 0.006281547622478555 0 0.0013365734099254213 0.006381112501024769 0 0.0010612239797144973 0.0059360410515779524 0 0.00096424663288079842 0.006281547622478555 0 0.00061582261456436568 0.0063324924833828931 0 0.0010612239797144973 0.0059360410515779524 0 0.00061582261456436568 0.0063324924833828931 0 0.00015867989435653008 0.0060791430875030156 0 0.00096424663288079842 0.006281547622478555 0 0.00086955467390880661 0.0064927639610607895 0 0.0013365734099254213 0.006381112501024769 0 0.00096424663288079842 0.006281547622478555 0 0.00086955467390880661 0.0064927639610607895 0 0.00061582261456436568 0.0063324924833828931 0 0.00030351255726212477 0.0066907171980260102 0 0.00048638697024619404 0.0068743946985377153 0 0.00036697257628348423 0.0068504753035555322 0 0.0029147283446300191 0.0084977156588359366 0 0.0020773289650898447 0.0088292957484242141 0 0.00061582261456436568 0.0063324924833828931 0 9.0527695330030217e-05 0.0060857454583192038 0 0.00015867989435653008 0.0060791430875030156 0 0.0010002328194013384 0.0079622813226051109 0 0.00027937664961268403 0.0062036695740583627 0 0.00061582261456436568 0.0063324924833828931 0 9.0527695330030217e-05 0.0060857454583192038 0 0.00069708238719187407 0.0068651959595875424 0 0.0010002328194013384 0.0079622813226051109 0 0.0020773289650898447 0.0088292957484242141 0 0.00030351255726212477 0.0066907171980260102 0 0.00048638697024619404 0.0068743946985377153 0 0.00069708238719187407 0.0068651959595875424 0 0.00036697257628348423 0.0068504753035555322 0 0.00038700259332030793 0.0069163444355271955 0 0.00025960510833732803 0.0068923092669732743 0 0.00048638697024619404 0.0068743946985377153 0 0.00036697257628348423 0.0068504753035555322 0 0.00038700259332030793 0.0069163444355271955 0 0.00038700259332030793 0.0069163444355271955 0 0.00032200776805048337 0.0069622736857087716 0 0.00044213901993285379 0.0069763917626213022 0 0.00048638697024619404 0.0068743946985377153 0 0.00038700259332030793 0.0069163444355271955 0 0.00044213901993285379 0.0069763917626213022 0 0.00055147235823888182 0.0069336556939469151 0 0.00058728811754267562 0.0070121086317864977 0 0.00044213901993285379 0.0069763917626213022 0 0.00048638697024619404 0.0068743946985377153 0 0.00055147235823888182 0.0069336556939469151 0 0.00069708238719187407 0.0068651959595875424 0 0.00048638697024619404 0.0068743946985377153 0 0.00055147235823888182 0.0069336556939469151 0 0.00044213901993285379 0.0069763917626213022 0 0.00073705363968499063 0.0070932834174267734 0 0.0012778744811210751 0.0063928349071779508 0 0.00055147235823888182 0.0069336556939469151 0 0.00058728811754267562 0.0070121086317864977 0 0.00069708238719187407 0.0068651959595875424 0 0.00058728811754267562 0.0070121086317864977 0 0.00069708238719187407 0.0068651959595875424 0 0.0013365734099254213 0.006381112501024769 0 0.00086955467390880661 0.0064927639610607895 0 0.00061582261456436568 0.0063324924833828931 0 0.00069708238719187407 0.0068651959595875424 0 0.00070850181023923101 0.0070498265544475065 0 0.0011429272592594702 0.0069949837762946681 0 0.0013365734099254213 0.006381112501024769 0 0.00086955467390880661 0.0064927639610607895 0 0.00069708238719187407 0.0068651959595875424 0 0.0013365734099254213 0.006381112501024769 0 0.00016954572153852601 0.0069103723630088223 0 0.00020508729443800548 0.0068570101746895139 0 0.00018542118694699793 0.0068940902176486667 0 0.0010002328194013384 0.0079622813226051109 0 -0.00025118198719316462 0.0070105243274465922 0 0.00030351255726212477 0.0066907171980260102 0 0.00036697257628348423 0.0068504753035555322 0 0.00028211890195254627 0.0068305491726244737 0 0.00022516391583288163 0.0068412221797795924 0 0.00016954572153852601 0.0069103723630088223 0 0.00020508729443800548 0.0068570101746895139 0 0.0010002328194013384 0.0079622813226051109 0 0.00034440826769752516 0.0069223419593847386 0 0.00030351255726212477 0.0066907171980260102 0 0.00020508729443800548 0.0068570101746895139 0 0.00028211890195254627 0.0068305491726244737 0 0.00020508729443800548 0.0068570101746895139 0 0.00028211890195254627 0.0068305491726244737 0 0.00025960510833732803 0.0068923092669732743 0 0.00036697257628348423 0.0068504753035555322 0 0.00028211890195254627 0.0068305491726244737 0 0.00025960510833732803 0.0068923092669732743 0 0.00038700259332030793 0.0069163444355271955 0 0.00025960510833732803 0.0068923092669732743 0 0.00032200776805048337 0.0069622736857087716 0 0.00025960510833732803 0.0068923092669732743 0 0.000205382045815401 0.0069306027374616899 0 0.00032200776805048337 0.0069622736857087716 0 0.00025960510833732803 0.0068923092669732743 0 0.00018542118694699793 0.0068940902176486667 0 0.000205382045815401 0.0069306027374616899 0 0.00020508729443800548 0.0068570101746895139 0 0.00025960510833732803 0.0068923092669732743 0 0.00018542118694699793 0.0068940902176486667 0 0.00016954572153852601 0.0069103723630088223 0 0.00018542118694699793 0.0068940902176486667 0 0.00014889334792222389 0.0069084838842168195 0 0.00018542118694699793 0.0068940902176486667 0 0.000205382045815401 0.0069306027374616899 0 0.00014889334792222389 0.0069084838842168195 0 0.00013234270157672469 0.0068825978410336644 0 0.000205382045815401 0.0069306027374616899 0 0.00014889334792222389 0.0069084838842168195 0 0.00013234270157672469 0.0068825978410336644 0 0.000205382045815401 0.0069306027374616899 0 0.00030319147480339253 0.0070770137917201296 0 0.000205382045815401 0.0069306027374616899 0 0.00032200776805048337 0.0069622736857087716 0 0.00030319147480339253 0.0070770137917201296 0 -0.00063797858003737521 0.0064321865760489086 0 -0.0015352515338925817 0.0063184613290085175 0 -0.0011525135480711054 0.005897374047869058 0 -0.00026601372197296915 0.0066520573515989534 0 -0.00046319920250919097 0.0067047028704894556 0 -0.00097643834308928348 0.0055745480219853002 0 -0.00088275968918438664 0.0055041874948889855 0 -0.00097112935402702139 0.0054687561051610326 0 -0.00046319920250919097 0.0067047028704894556 0 -0.0010155014420729365 0.0056805118878739402 0 -0.00063797858003737521 0.0064321865760489086 0 -0.00063008402406177877 0.0058290032459525128 0 -0.0011525135480711054 0.005897374047869058 0 0.00070182277749113902 0.0074431688942866569 0 0.0010612070458221432 0.0073769337307371093 0 0.00084740826077212591 0.0078075471680224091 0 0.0011429272592594702 0.0069949837762946681 0 0.0010612070458221432 0.0073769337307371093 0 0.00088338998018136277 0.0072306114727042356 0 0.00070850181023923101 0.0070498265544475065 0 0.0011429272592594702 0.0069949837762946681 0 0.00088338998018136277 0.0072306114727042356 0 0.00070850181023923101 0.0070498265544475065 0 0.00070182277749113902 0.0074431688942866569 0 0.00088338998018136277 0.0072306114727042356 0 0.00070182277749113902 0.0074431688942866569 0 0.0010612070458221432 0.0073769337307371093 0 0.00088338998018136277 0.0072306114727042356 0 0.00073705363968499063 0.0070932834174267734 0 -0.00046319920250919097 0.0067047028704894556 0 0.00058728811754267562 0.0070121086317864977 0 0.00044213901993285379 0.0069763917626213022 0 0.00030319147480339253 0.0070770137917201296 0 0.00070850181023923101 0.0070498265544475065 0 0.00070182277749113902 0.0074431688942866569 0 6.088535241691087e-05 0.0077150116834608711 0 0.00032200776805048337 0.0069622736857087716 0 0.00044213901993285379 0.0069763917626213022 0 0.00030319147480339253 0.0070770137917201296 0 0.00070182277749113902 0.0074431688942866569 0 6.088535241691087e-05 0.0077150116834608711 0 0.00084740826077212591 0.0078075471680224091 0 -0.00046319920250919097 0.0067047028704894556 0 6.1824368110482427e-05 0.0068321362419046195 0 -0.00097643834308928348 0.0055745480219853002 0 -0.001051348045559249 0.0054763941892765726 0 -0.00097112935402702139 0.0054687561051610326 0 -0.00097643834308928348 0.0055745480219853002 0 -0.001051348045559249 0.0054763941892765726 0 -0.0011064925961561123 0.0055313041162783523 0 -0.001051348045559249 0.0054763941892765726 0 -0.0011064925961561123 0.0055313041162783523 0 -0.0011322186440321307 0.0054498341407197143 0 -0.0011064925961561123 0.0055313041162783523 0 -0.00120341830752781 0.0054976392714660141 0 -0.0011322186440321307 0.0054498341407197143 0 0.0010612070458221432 0.0073769337307371093 0 0.00084740826077212591 0.0078075471680224091 0 0.0016418242551370504 0.0078990806252336818 0 6.1824368110482427e-05 0.0068321362419046195 0 -0.00060332561008489952 0.0045762325706151102 0 -0.00060332561008489952 0.0045762325706151102 0 -0.0020737827703042428 0.0024114176052475525 0 -0.00041542346203365049 0.0046353806893699194 0 0.00029974077133385432 0.0041889581444611267 0 0.00014638614105000436 0.004692246481645128 0 -0.00060332561008489952 0.0045762325706151102 0 -0.0023594227382703805 0.002109811869277679 0 -0.0031425605330338106 -0.00018823693851315154 0 -0.0035286728386048449 -0.0002569419974283508 0 -0.0033223670928240667 -0.00057194210653702322 0 0.0019666014808186437 0.0072603113621765338 0 0.0023471899441345652 0.0070734277802377262 0 0.0025961087617464712 0.0073124753366043613 0 0.0016418242551370504 0.0078990806252336818 0 0.0019666014808186437 0.0072603113621765338 0 0.0025961087617464712 0.0073124753366043613 0 -0.00060332561008489952 0.0045762325706151102 0 0.0017564559279766216 0.0065992325890150295 0 0.0010612070458221432 0.0073769337307371093 0 0.0016418242551370504 0.0078990806252336818 0 0.0014894847387592 0.0071403781263982757 0 0.0016418242551370504 0.0078990806252336818 0 0.0019666014808186437 0.0072603113621765338 0 0.0014894847387592 0.0071403781263982757 0 0.0011429272592594702 0.0069949837762946681 0 0.0010612070458221432 0.0073769337307371093 0 0.0014894847387592 0.0071403781263982757 0 0.0011429272592594702 0.0069949837762946681 0 0.0015392883430533333 0.0067565866933663593 0 0.0013365734099254213 0.006381112501024769 0 0.0011429272592594702 0.0069949837762946681 0 0.0014894847387592 0.0071403781263982757 0 0.0015392883430533333 0.0067565866933663593 0 0.0015392883430533333 0.0067565866933663593 0 0.0018418983854934831 0.0064424227154009249 0 0.0013365734099254213 0.006381112501024769 0 0.0014894847387592 0.0071403781263982757 0 0.0015392883430533333 0.0067565866933663593 0 0.0019486189673271412 0.0068335465978997924 0 0.0019666014808186437 0.0072603113621765338 0 0.0014894847387592 0.0071403781263982757 0 0.0019486189673271412 0.0068335465978997924 0 0.0019666014808186437 0.0072603113621765338 0 0.0019486189673271412 0.0068335465978997924 0 0.0023471899441345652 0.0070734277802377262 0 0.0019486189673271412 0.0068335465978997924 0 0.0023471899441345652 0.0070734277802377262 0 0.002398013774115164 0.006748319199052776 0 0.0019486189673271412 0.0068335465978997924 0 0.0022784032768640482 0.0064117145484948969 0 0.002398013774115164 0.006748319199052776 0 0.0019486189673271412 0.0068335465978997924 0 0.0018418983854934831 0.0064424227154009249 0 0.0022784032768640482 0.0064117145484948969 0 0.0015392883430533333 0.0067565866933663593 0 0.0019486189673271412 0.0068335465978997924 0 0.0018418983854934831 0.0064424227154009249 0 0.002111109368591707 0.0058102227599538293 0 0.0018418983854934831 0.0064424227154009249 0 0.0022784032768640482 0.0064117145484948969 0 0.002111109368591707 0.0058102227599538293 0 0.0022784032768640482 0.0064117145484948969 0 0.0027175002319860734 0.0061613223579030313 0 0.002111109368591707 0.0058102227599538293 0 0.0018418983854934831 0.0064424227154009249 0 0.0013365734099254213 0.006381112501024769 0 0.002111109368591707 0.0058102227599538293 0 0.0010612239797144973 0.0059360410515779524 0 0.0013365734099254213 0.006381112501024769 0 0.0054876532037824808 0.0088266139512683302 0 0.0053742399732546802 0.0073303023868497982 0 0.0031330441682548126 0.005722365993656409 0 0.0031313346108359842 0.0063146274481677275 0 0.003675858320315307 0.0064055613213764174 0 0.0031313346108359842 0.0063146274481677275 0 0.0033225295113957568 0.006685898148401653 0 0.003675858320315307 0.0064055613213764174 0 0.0031330441682548126 0.005722365993656409 0 0.0031313346108359842 0.0063146274481677275 0 0.0027175002319860734 0.0061613223579030313 0 0.0022784032768640482 0.0064117145484948969 0 0.0027175002319860734 0.0061613223579030313 0 0.0027975101253789043 0.0065848184523494852 0 0.0031313346108359842 0.0063146274481677275 0 0.0027175002319860734 0.0061613223579030313 0 0.0027975101253789043 0.0065848184523494852 0 0.0022784032768640482 0.0064117145484948969 0 0.0027975101253789043 0.0065848184523494852 0 0.002398013774115164 0.006748319199052776 0 0.0027975101253789043 0.0065848184523494852 0 0.002398013774115164 0.006748319199052776 0 0.0026860581434351933 0.0069194596615896088 0 0.0023471899441345652 0.0070734277802377262 0 0.0026860581434351933 0.0069194596615896088 0 0.0026453686577783526 0.0071295463961599075 0 0.0023471899441345652 0.0070734277802377262 0 0.002398013774115164 0.006748319199052776 0 0.0026860581434351933 0.0069194596615896088 0 0.0026860581434351933 0.0069194596615896088 0 0.0030312180536382401 0.0069426452659501524 0 0.0028429010125950731 0.0070904452332997449 0 0.0027975101253789043 0.0065848184523494852 0 0.0026860581434351933 0.0069194596615896088 0 0.0030312180536382401 0.0069426452659501524 0 0.0026860581434351933 0.0069194596615896088 0 0.0026453686577783526 0.0071295463961599075 0 0.0028429010125950731 0.0070904452332997449 0 0.0030312180536382401 0.0069426452659501524 0 0.0033225295113957568 0.006685898148401653 0 0.0033721696117624184 0.0069734324935531618 0 0.0030312180536382401 0.0069426452659501524 0 0.0033721696117624184 0.0069734324935531618 0 0.0031768529623423468 0.0071152117017945294 0 0.0027975101253789043 0.0065848184523494852 0 0.0030312180536382401 0.0069426452659501524 0 0.0033225295113957568 0.006685898148401653 0 0.0031313346108359842 0.0063146274481677275 0 0.0027975101253789043 0.0065848184523494852 0 0.0033225295113957568 0.006685898148401653 0 0.0033225295113957568 0.006685898148401653 0 0.0033721696117624184 0.0069734324935531618 0 0.0037655738010900068 0.0069235671736441332 0 0.0021528605127745046 0.0053378927084062775 0 0.003980497772560836 0.0077894215455538993 0 0.0033721696117624184 0.0069734324935531618 0 0.0033052266377229141 0.0072808689494413912 0 0.0031768529623423468 0.0071152117017945294 0 0.0033052266377229141 0.0072808689494413912 0 0.0032727744283605445 0.0078791322389093008 0 0.0037655738010900068 0.0069235671736441332 0 0.0033721696117624184 0.0069734324935531618 0 0.0033052266377229141 0.0072808689494413912 0 0.0037655738010900068 0.0069235671736441332 0 0.0033052266377229141 0.0072808689494413912 0 0.0029997497264490306 0.0072640810604870324 0 0.0032727744283605445 0.0078791322389093008 0 0.0030312180536382401 0.0069426452659501524 0 0.0031768529623423468 0.0071152117017945294 0 0.0029997497264490306 0.0072640810604870324 0 0.0033052266377229141 0.0072808689494413912 0 0.0031768529623423468 0.0071152117017945294 0 0.0029997497264490306 0.0072640810604870324 0 0.0017564559279766216 0.0065992325890150295 0 0.0021528605127745046 0.0053378927084062775 0 0.0029997497264490306 0.0072640810604870324 0 0.0026358322194377374 0.0072998214478951929 0 0.0032727744283605445 0.0078791322389093008 0 0.0024576185393596337 0.0072091325147907283 0 0.0017564559279766216 0.0065992325890150295 0 0.0023471899441345652 0.0070734277802377262 0 0.0026453686577783526 0.0071295463961599075 0 0.0026330234759088908 0.007309140503855705 0 0.0026453686577783526 0.0071295463961599075 0 0.0026330234759088908 0.007309140503855705 0 0.0027086883613940587 0.00725606393876955 0 0.0017564559279766216 0.0065992325890150295 0 0.0018513571296004622 0.006604157241846014 0 0.0030312180536382401 0.0069426452659501524 0 0.0029997497264490306 0.0072640810604870324 0 0.0028429010125950731 0.0070904452332997449 0 0.0029997497264490306 0.0072640810604870324 0 0.0026358322194377374 0.0072998214478951929 0 0.0027086883613940587 0.00725606393876955 0 0.0026453686577783526 0.0071295463961599075 0 0.0027086883613940587 0.00725606393876955 0 0.0028429010125950731 0.0070904452332997449 0 0.0029997497264490306 0.0072640810604870324 0 0.0027086883613940587 0.00725606393876955 0 0.0028429010125950731 0.0070904452332997449 0 0.00029974077133385432 0.0041889581444611267 0 0.00014638614105000436 0.004692246481645128 0 0.00078420753400699377 0.0046250985546700636 0 -0.0023594227382703805 0.002109811869277679 0 0.00078023618837752909 0.0010305101600726696 0 0.00014638614105000436 0.004692246481645128 0 0.00078420753400699377 0.0046250985546700636 0 0.00071875924198117123 0.0047469886095901324 0 0.0035785697293010234 0.0074019505897527458 0 0.0036806619650411828 0.0074991633504365397 0 0.0037838451855196418 0.0072562389436253922 0 0.0021528605127745046 0.0053378927084062775 0 0.00078023618837752909 0.0010305101600726696 0 0.0016995322884007331 0.001937318767752446 0 0.0014085351497411061 0.0025153744398786794 0 0.0024404161606562452 0.002625235666753426 0 0.00078023618837752909 0.0010305101600726696 0 0.0029925763584537678 0.0025502257300262119 0 0.0021528605127745046 0.0053378927084062775 0 0.0029925763584537678 0.0025502257300262119 0 0.0029925763584537678 0.0025502257300262119 0 0.0055262551041650818 0.0041978818274048422 0 0.0036806619650411828 0.0074991633504365397 0 0.0039898305645638208 0.0073139048617718583 0 0.0042722191629159939 0.0075672334583591757 0 0.0036806619650411828 0.0074991633504365397 0 0.0039898305645638208 0.0073139048617718583 0 0.0037838451855196418 0.0072562389436253922 0 0.0035785697293010234 0.0074019505897527458 0 0.0037838451855196418 0.0072562389436253922 0 0.0037655738010900068 0.0069235671736441332 0 0.0037838451855196418 0.0072562389436253922 0 0.0038970288663125454 0.0071267076516020643 0 0.0037655738010900068 0.0069235671736441332 0 0.0039898305645638208 0.0073139048617718583 0 0.0038970288663125454 0.0071267076516020643 0 0.0040917051611880327 0.0069742417569949849 0 0.0039898305645638208 0.0073139048617718583 0 0.0037838451855196418 0.0072562389436253922 0 0.0038970288663125454 0.0071267076516020643 0 0.0038970288663125454 0.0071267076516020643 0 0.0037655738010900068 0.0069235671736441332 0 0.0040917051611880327 0.0069742417569949849 0 0.0084085111417215239 0.0096632691350958099 0 0.0085315543086059882 0.010048782374412594 0 0.0080140370280373831 0.0095716739881803684 0 0.0039898305645638208 0.0073139048617718583 0 0.0041831508991173657 0.0073421820485365811 0 0.0040917051611880327 0.0069742417569949849 0 0.0079500922961804419 0.0085198478979719681 0 0.0058944818478246612 0.0082591145346691871 0 0.0041831508991173657 0.0073421820485365811 0 0.0043764886423358022 0.0073134403976342953 0 0.0040917051611880327 0.0069742417569949849 0 0.0041831508991173657 0.0073421820485365811 0 0.0042722191629159939 0.0075672334583591757 0 0.0043764886423358022 0.0073134403976342953 0 0.0039898305645638208 0.0073139048617718583 0 0.0041831508991173657 0.0073421820485365811 0 0.0042722191629159939 0.0075672334583591757 0 0.0055262551041650818 0.0041978818274048422 0 0.0079500922961804419 0.0085198478979719681 0 0.0095028619844362509 0.0082139693255772108 0 0.0094447746048765772 0.008219853410594306 0 0.0094698905134874122 0.0082572962798670175 0 0.0095028619844362509 0.0082139693255772108 0 0.0094447746048765772 0.008219853410594306 0 0.0093845849268218307 0.0081458902635583585 0 0.0094447746048765772 0.008219853410594306 0 0.0094368849827946629 0.0083896981739133465 0 0.0093988454909869935 0.0082639988411189469 0 0.0094447746048765772 0.008219853410594306 0 0.0094368849827946629 0.0083896981739133465 0 0.0095787957753946957 0.0084636783160037549 0 0.0095343598265404689 0.0085036853170297327 0 0.0079500922961804419 0.0085198478979719681 0 0.0092911683436493319 0.0083184118222252249 0 0.0092159396268146811 0.0082892211843292544 0 0.0093430298486892258 0.0082113964687027547 0 0.0092911683436493319 0.0083184118222252249 0 0.0093661788021049963 0.0083468790086072553 0 0.0093430298486892258 0.0082113964687027547 0 0.0094447746048765772 0.008219853410594306 0 0.0093988454909869935 0.0082639988411189469 0 0.0093845849268218307 0.0081458902635583585 0 0.0093988454909869935 0.0082639988411189469 0 0.0093661788021049963 0.0083468790086072553 0 0.0093430298486892258 0.0082113964687027547 0 0.0093988454909869935 0.0082639988411189469 0 0.0093430298486892258 0.0082113964687027547 0 0.0093845849268218307 0.0081458902635583585 0 0.0094368849827946629 0.0083896981739133465 0 0.0093988454909869935 0.0082639988411189469 0 0.0093661788021049963 0.0083468790086072553 0 0.0093661788021049963 0.0083468790086072553 0 0.009314590013874172 0.0084138942765825848 0 0.0093934809415505156 0.0084722643164679944 0 0.0094368849827946629 0.0083896981739133465 0 0.0093661788021049963 0.0083468790086072553 0 0.0093934809415505156 0.0084722643164679944 0 0.0092911683436493319 0.0083184118222252249 0 0.0093661788021049963 0.0083468790086072553 0 0.009314590013874172 0.0084138942765825848 0 0.0092911683436493319 0.0083184118222252249 0 0.009314590013874172 0.0084138942765825848 0 0.0092215782159622076 0.0083459563473135736 0 0.009314590013874172 0.0084138942765825848 0 0.0093395856649620464 0.0085620436290306905 0 0.0093934809415505156 0.0084722643164679944 0 0.009314590013874172 0.0084138942765825848 0 0.0093395856649620464 0.0085620436290306905 0 0.0092409887809856671 0.0084413705402900264 0 0.0093395856649620464 0.0085620436290306905 0 0.0093934809415505156 0.0084722643164679944 0 0.0094050678761790438 0.008624723298106261 0 0.0093934809415505156 0.0084722643164679944 0 0.0094050678761790438 0.008624723298106261 0 0.0094478883160090781 0.0085390786479578006 0 0.0093395856649620464 0.0085620436290306905 0 0.0094050678761790438 0.008624723298106261 0 0.009388773766378436 0.0087677698095156385 0 0.0095787957753946957 0.0084636783160037549 0 0.0094478883160090781 0.0085390786479578006 0 0.0093837989555036611 0.008632109594518109 0 0.0084085111417215239 0.0096632691350958099 0 0.0085315543086059882 0.010048782374412594 0 0.008735778581310312 0.0096364807826053549 0 0.0085315543086059882 0.010048782374412594 0 0.008735778581310312 0.0096364807826053549 0 0.0088961853357812492 0.0094270147392243649 0 0.0094050678761790438 0.008624723298106261 0 0.0094478883160090781 0.0085390786479578006 0 0.0093837989555036611 0.008632109594518109 0 0.0079500922961804419 0.0085198478979719681 0 0.0092819749705407122 0.0091430219824583867 0 0.0094368849827946629 0.0083896981739133465 0 0.0093934809415505156 0.0084722643164679944 0 0.0094478883160090781 0.0085390786479578006 0 0.0094368849827946629 0.0083896981739133465 0 0.0095787957753946957 0.0084636783160037549 0 0.0094478883160090781 0.0085390786479578006 0 0.008735778581310312 0.0096364807826053549 0 0.0086385091472866073 0.0088294839372138646 0 0.0083542892072071655 0.0093378890933901466 0 0.008735778581310312 0.0096364807826053549 0 0.0088961853357812492 0.0094270147392243649 0 0.0088539729322405086 0.0092713890778625251 0 0.0087597143462598351 0.0096623518167634499 0 0.0087375957431582493 0.0088924113746888626 0 0.0093975420668141376 0.0086405304497325433 0 0.0094408747894294352 0.0085061237827208126 0 0.009388773766378436 0.0087677698095156385 0 0.0093837989555036611 0.008632109594518109 0 0.0093975420668141376 0.0086405304497325433 0 0.0094408747894294352 0.0085061237827208126 0 0.0094050678761790438 0.008624723298106261 0 0.0093975420668141376 0.0086405304497325433 0 0.009388773766378436 0.0087677698095156385 0 0.0094050678761790438 0.008624723298106261 0 0.0093837989555036611 0.008632109594518109 0 0.0093975420668141376 0.0086405304497325433 0 0.0094408747894294352 0.0085061237827208126 0 0.0096003928903101634 0.008253596556610867 0 0.0094897253275695263 0.0084061056599605347 0 0.0093837989555036611 0.008632109594518109 0 0.0094408747894294352 0.0085061237827208126 0 0.0094897253275695263 0.0084061056599605347 0 0.0088961853357812492 0.0094270147392243649 0 0.0088539729322405086 0.0092713890778625251 0 0.0089380704200278556 0.0091838980154937602 0 0.0088961853357812492 0.0094270147392243649 0 0.0089380704200278556 0.0091838980154937602 0 0.0091040235491141683 0.0091474775909037107 0 0.0092819749705407122 0.0091430219824583867 0 0.0092801259769778426 0.0087570640179294949 0 0.0088539729322405086 0.0092713890778625251 0 0.0089380704200278556 0.0091838980154937602 0 0.0088730318093485517 0.0090599179171095053 0 0.0086385091472866073 0.0088294839372138646 0 0.0082380103157660197 0.0084714706239104633 0 0.0085327304736837022 0.0080267021851351435 0 0.0086385091472866073 0.0088294839372138646 0 0.0080344444734290078 0.0089645333900875909 0 0.0082380103157660197 0.0084714706239104633 0 0.0080344444734290078 0.0089645333900875909 0 0.0082380103157660197 0.0084714706239104633 0 0.0076733333497304053 0.0081008199197401595 0 0.0080344444734290078 0.0089645333900875909 0 0.0073865953310476027 0.008889930637748145 0 0.0076733333497304053 0.0081008199197401595 0 0.0053742399732546802 0.0073303023868497982 0 0.0058944818478246612 0.0082591145346691871 0 0.0080344444734290078 0.0089645333900875909 0 0.0073865953310476027 0.008889930637748145 0 0.0080140370280373831 0.0095716739881803684 0 0.0033225295113957568 0.006685898148401653 0 0.003675858320315307 0.0064055613213764174 0 0.0037655738010900068 0.0069235671736441332 0 0.003675858320315307 0.0064055613213764174 0 0.0037655738010900068 0.0069235671736441332 0 0.0040917051611880327 0.0069742417569949849 0 0.0086385091472866073 0.0088294839372138646 0 0.0080344444734290078 0.0089645333900875909 0 0.0083542892072071655 0.0093378890933901466 0 0.0080344444734290078 0.0089645333900875909 0 0.0080140370280373831 0.0095716739881803684 0 0.0083542892072071655 0.0093378890933901466 0 0.0084085111417215239 0.0096632691350958099 0 0.0080140370280373831 0.0095716739881803684 0 0.0083542892072071655 0.0093378890933901466 0 0.0084085111417215239 0.0096632691350958099 0 0.008735778581310312 0.0096364807826053549 0 0.0083542892072071655 0.0093378890933901466 0 0.012559859118225627 0.0096096240904100846 0 0.011905167762436476 0.0094586998262914668 0 0.012337712378802016 0.0090042411614978547 0 0.011905167762436476 0.0094586998262914668 0 0.011421888412527297 0.0095357808776489125 0 0.011621390202947807 0.0090303063313347844 0 0.011905167762436476 0.0094586998262914668 0 0.011621390202947807 0.0090303063313347844 0 0.012337712378802016 0.0090042411614978547 0 0.011905167762436476 0.0094586998262914668 0 0.011762501687585015 0.0098962260406162024 0 0.012123242425065649 0.0098655975745857404 0 0.011905167762436476 0.0094586998262914668 0 0.011762501687585015 0.0098962260406162024 0 0.011421888412527297 0.0095357808776489125 0 0.011762501687585015 0.0098962260406162024 0 0.012123242425065649 0.0098655975745857404 0 0.012027039939440798 0.010115793484486818 0 0.012559859118225627 0.0096096240904100846 0 0.012123242425065649 0.0098655975745857404 0 0.012398418017183844 0.01011414555371111 0 0.012559859118225627 0.0096096240904100846 0 0.011905167762436476 0.0094586998262914668 0 0.012123242425065649 0.0098655975745857404 0 0.012123242425065649 0.0098655975745857404 0 0.012398418017183844 0.01011414555371111 0 0.012027039939440798 0.010115793484486818 0 0.012398418017183844 0.01011414555371111 0 0.012094034946676751 0.010421994594886606 0 0.012027039939440798 0.010115793484486818 0 0.012398418017183844 0.01011414555371111 0 0.012094034946676751 0.010421994594886606 0 0.012487454418628568 0.010582886609844674 0 0.012487454418628568 0.010582886609844674 0 0.012241479428951017 0.010793704586086956 0 0.012508966287127278 0.010924208634241244 0 0.01147318444680843 0.0084986536434010426 0 0.011903733419864995 0.0072917596014688653 0 0.012094034946676751 0.010421994594886606 0 0.012487454418628568 0.010582886609844674 0 0.012235250372189903 0.010797400703978097 0 0.01186094991746337 0.0054052120305472882 0 0.011534634135223151 0.0056948334825768655 0 0.012411371465814438 0.005662595688459178 0 0.011810767477991882 0.0056071742175608785 0 0.012429200722558969 0.0055792793262653293 0 0.011903733419864995 0.0072917596014688653 0 0.011810767477991882 0.0056071742175608785 0 0.011903733419864995 0.0072917596014688653 0 0.012429200722558969 0.0055792793262653293 0 0.011040379841150895 0.0053737898778979136 0 0.01019128768488585 0.0053124168363905839 0 0.010546343333121027 0.0058075773174342963 0 0.011688962995544771 0.0071118944277115152 0 0.011432042565262498 0.007339132326420689 0 0.010697251686314765 0.006651188504614422 0 0.011903733419864995 0.0072917596014688653 0 0.010897571083330258 0.0086812866755368243 0 0.011810767477991882 0.0056071742175608785 0 0.0094549952902020923 0.0067723229146521317 0 0.011432042565262498 0.007339132326420689 0 0.010701686647121291 0.0070965095271432344 0 0.010310247971987613 0.0072544164513614956 0 0.011432042565262498 0.007339132326420689 0 0.010701686647121291 0.0070965095271432344 0 0.010697251686314765 0.006651188504614422 0 0.010701686647121291 0.0070965095271432344 0 0.010697251686314765 0.006651188504614422 0 0.010310247971987613 0.0072544164513614956 0 0.012094034946676751 0.010421994594886606 0 0.012235250372189903 0.010797400703978097 0 0.011620768985687938 0.010506563347594158 0 0.010897571083330258 0.0086812866755368243 0 0.010857090299525099 0.0091703153816166238 0 0.012094034946676751 0.010421994594886606 0 0.011620768985687938 0.010506563347594158 0 0.011762680602724514 0.010286073600245976 0 0.011762501687585015 0.0098962260406162024 0 0.012027039939440798 0.010115793484486818 0 0.011762680602724514 0.010286073600245976 0 0.012094034946676751 0.010421994594886606 0 0.012027039939440798 0.010115793484486818 0 0.011762680602724514 0.010286073600245976 0 0.011626341260274871 0.01049131836391011 0 0.011762680602724514 0.010286073600245976 0 0.011358530812460929 0.010063732550455994 0 0.011762501687585015 0.0098962260406162024 0 0.011762680602724514 0.010286073600245976 0 0.011358530812460929 0.010063732550455994 0 0.0087478030882743169 0.0083096427214070148 0 0.0088238643383717185 0.0083530617184129421 0 0.0090606920806240356 0.0082932439135024513 0 0.0087478030882743169 0.0083096427214070148 0 0.0088238643383717185 0.0083530617184129421 0 0.0088351945626465919 0.0084424283249566294 0 0.011626341260274871 0.01049131836391011 0 0.011358530812460929 0.010063732550455994 0 0.010913432555937326 0.010132108387532068 0 0.010897571083330258 0.0086812866755368243 0 0.010261268474088047 0.0091724152225374136 0 0.0094549952902020923 0.0067723229146521317 0 0.010261268474088047 0.0091724152225374136 0 0.0097940920107772774 0.0084043612337867616 0 0.0099990797109124185 0.0080766725169959634 0 0.010440211724427436 0.0087125823253227722 0 0.010897571083330258 0.0086812866755368243 0 0.0094549952902020923 0.0067723229146521317 0 0.0088238643383717185 0.0083530617184129421 0 0.0088351945626465919 0.0084424283249566294 0 0.0089446467587454333 0.0083775818936263347 0 0.010261268474088047 0.0091724152225374136 0 0.01071265000291872 0.0097931729726789315 0 0.010913432555937326 0.010132108387532068 0 0.01061244215851918 0.0096061529878995709 0 0.011037783454167737 0.0096922801581315367 0 0.011762501687585015 0.0098962260406162024 0 0.011358530812460929 0.010063732550455994 0 0.011421888412527297 0.0095357808776489125 0 0.011358530812460929 0.010063732550455994 0 0.010913432555937326 0.010132108387532068 0 0.011037783454167737 0.0096922801581315367 0 0.011358530812460929 0.010063732550455994 0 0.011037783454167737 0.0096922801581315367 0 0.011421888412527297 0.0095357808776489125 0 0.011421888412527297 0.0095357808776489125 0 0.01094038055631303 0.0091653569470682133 0 0.011621390202947807 0.0090303063313347844 0 0.011037783454167737 0.0096922801581315367 0 0.011421888412527297 0.0095357808776489125 0 0.01094038055631303 0.0091653569470682133 0 0.01061244215851918 0.0096061529878995709 0 0.01094038055631303 0.0091653569470682133 0 0.010350076906313836 0.0091004889026637566 0 0.01061244215851918 0.0096061529878995709 0 0.011037783454167737 0.0096922801581315367 0 0.01094038055631303 0.0091653569470682133 0 0.010261268474088047 0.0091724152225374136 0 0.0094608156165175428 0.0089775229134660042 0 0.010350076906313836 0.0091004889026637566 0 0.0099748906240953641 0.0094300326115040831 0 0.0098119300457899412 0.0087043444864544663 0 0.010864591518523361 0.010021614187725389 0 0.01061244215851918 0.0096061529878995709 0 0.0099748906240953641 0.0094300326115040831 0 0.0088351945626465919 0.0084424283249566294 0 0.0090224473440412185 0.008570750067998463 0 0.008973929965072517 0.0084352577592489049 0 0.01061244215851918 0.0096061529878995709 0 0.010350076906313836 0.0091004889026637566 0 0.0099748906240953641 0.0094300326115040831 0 0.0090224473440412185 0.008570750067998463 0 0.008973929965072517 0.0084352577592489049 0 0.009082630694566541 0.0084202439498795231 0 0.0088351945626465919 0.0084424283249566294 0 0.008973929965072517 0.0084352577592489049 0 0.0089446467587454333 0.0083775818936263347 0 0.0094549952902020923 0.0067723229146521317 0 0.0083424742308875911 0.0082770614407205265 0 0.0088238643383717185 0.0083530617184129421 0 0.0089446467587454333 0.0083775818936263347 0 0.0090606920806240356 0.0082932439135024513 0 0.0089446467587454333 0.0083775818936263347 0 0.0090606920806240356 0.0082932439135024513 0 0.0090343174165330806 0.0083688471715712039 0 0.0090606920806240356 0.0082932439135024513 0 0.0090343174165330806 0.0083688471715712039 0 0.0090990013463277102 0.0083531349947457648 0 0.0090343174165330806 0.0083688471715712039 0 0.009082630694566541 0.0084202439498795231 0 0.0090990013463277102 0.0083531349947457648 0 0.008973929965072517 0.0084352577592489049 0 0.0090343174165330806 0.0083688471715712039 0 0.009082630694566541 0.0084202439498795231 0 0.008973929965072517 0.0084352577592489049 0 0.0089446467587454333 0.0083775818936263347 0 0.0090343174165330806 0.0083688471715712039 0 0.0090606920806240356 0.0082932439135024513 0 0.0092159396268146811 0.0082892211843292544 0 0.0093430298486892258 0.0082113964687027547 0 0.0083424742308875911 0.0082770614407205265 0 0.0094727114697627322 0.0081333675615170038 0 0.009082630694566541 0.0084202439498795231 0 0.0091650469618097183 0.0083802105448588134 0 0.0092022505366823586 0.0085083039344430594 0 0.009082630694566541 0.0084202439498795231 0 0.0091650469618097183 0.0083802105448588134 0 0.0090990013463277102 0.0083531349947457648 0 0.0090606920806240356 0.0082932439135024513 0 0.0090990013463277102 0.0083531349947457648 0 0.0091581754492395112 0.0083140146374731539 0 0.0090606920806240356 0.0082932439135024513 0 0.0091581754492395112 0.0083140146374731539 0 0.0092159396268146811 0.0082892211843292544 0 0.0091650469618097183 0.0083802105448588134 0 0.0090990013463277102 0.0083531349947457648 0 0.0091581754492395112 0.0083140146374731539 0 0.0091650469618097183 0.0083802105448588134 0 0.0091581754492395112 0.0083140146374731539 0 0.0092215782159622076 0.0083459563473135736 0 0.0091581754492395112 0.0083140146374731539 0 0.0092159396268146811 0.0082892211843292544 0 0.0092215782159622076 0.0083459563473135736 0 0.0092911683436493319 0.0083184118222252249 0 0.0092159396268146811 0.0082892211843292544 0 0.0092215782159622076 0.0083459563473135736 0 0.0091650469618097183 0.0083802105448588134 0 0.0092409887809856671 0.0084413705402900264 0 0.0092022505366823586 0.0085083039344430594 0 0.009314590013874172 0.0084138942765825848 0 0.0092215782159622076 0.0083459563473135736 0 0.0092409887809856671 0.0084413705402900264 0 0.0091650469618097183 0.0083802105448588134 0 0.0092215782159622076 0.0083459563473135736 0 0.0092409887809856671 0.0084413705402900264 0 0.0094608156165175428 0.0089775229134660042 0 0.0094285857953597292 0.0088353171420907321 0 0.0099748906240953641 0.0094300326115040831 0 0.009388773766378436 0.0087677698095156385 0 0.0098119300457899412 0.0087043444864544663 0 0.0093395856649620464 0.0085620436290306905 0 0.0092409887809856671 0.0084413705402900264 0 0.0092022505366823586 0.0085083039344430594 0 0.0090224473440412185 0.008570750067998463 0 0.0092022505366823586 0.0085083039344430594 0 0.009388773766378436 0.0087677698095156385 0 0.0090224473440412185 0.008570750067998463 0 0.009082630694566541 0.0084202439498795231 0 0.0092022505366823586 0.0085083039344430594 0 0.0093395856649620464 0.0085620436290306905 0 0.0092022505366823586 0.0085083039344430594 0 0.009388773766378436 0.0087677698095156385 0 0.0094408747894294352 0.0085061237827208126 0 0.009388773766378436 0.0087677698095156385 0 0.0098119300457899412 0.0087043444864544663 0 0.0094408747894294352 0.0085061237827208126 0 0.0098119300457899412 0.0087043444864544663 0 0.0096003928903101634 0.008253596556610867 0 0.0096003928903101634 0.008253596556610867 0 0.010148728277726622 0.0083217749321848247 0 0.010549898440969265 0.0075589341148242818 0 0.0098119300457899412 0.0087043444864544663 0 0.0096003928903101634 0.008253596556610867 0 0.010148728277726622 0.0083217749321848247 0 0.010148728277726622 0.0083217749321848247 0 0.010741393899253769 0.008210808516904311 0 0.010549898440969265 0.0075589341148242818 0 0.010148728277726622 0.0083217749321848247 0 0.010479128862718181 0.0086587627818270063 0 0.010741393899253769 0.008210808516904311 0 0.0098119300457899412 0.0087043444864544663 0 0.010148728277726622 0.0083217749321848247 0 0.010479128862718181 0.0086587627818270063 0 0.01094038055631303 0.0091653569470682133 0 0.010350076906313836 0.0091004889026637566 0 0.010479128862718181 0.0086587627818270063 0 0.010350076906313836 0.0091004889026637566 0 0.0098119300457899412 0.0087043444864544663 0 0.010479128862718181 0.0086587627818270063 0 0.01094038055631303 0.0091653569470682133 0 0.010479128862718181 0.0086587627818270063 0 0.011165973871984784 0.0085362315420498668 0 0.01094038055631303 0.0091653569470682133 0 0.011165973871984784 0.0085362315420498668 0 0.011621390202947807 0.0090303063313347844 0 0.010479128862718181 0.0086587627818270063 0 0.011165973871984784 0.0085362315420498668 0 0.010741393899253769 0.008210808516904311 0 0.010741393899253769 0.008210808516904311 0 0.01139953308700482 0.0079296253910277909 0 0.010549898440969265 0.0075589341148242818 0 0.011165973871984784 0.0085362315420498668 0 0.010741393899253769 0.008210808516904311 0 0.01139953308700482 0.0079296253910277909 0 0.01139953308700482 0.0079296253910277909 0 0.012120464759551546 0.0075471837573558801 0 0.011945648958687421 0.0083394837148219551 0 0.011165973871984784 0.0085362315420498668 0 0.01139953308700482 0.0079296253910277909 0 0.011945648958687421 0.0083394837148219551 0 0.012928772403062982 0.0078799091734236444 0 0.012120464759551546 0.0075471837573558801 0 0.011945648958687421 0.0083394837148219551 0 0.011440995372110876 0.0075754653179302472 0 0.01099884039254473 0.0077586819403599487 0 0.01139953308700482 0.0079296253910277909 0 0.012120464759551546 0.0075471837573558801 0 0.011628694463863075 0.0068904424194522499 0 0.012928772403062982 0.0078799091734236444 0 0.011945648958687421 0.0083394837148219551 0 0.012337712378802016 0.0090042411614978547 0 0.011165973871984784 0.0085362315420498668 0 0.011945648958687421 0.0083394837148219551 0 0.011621390202947807 0.0090303063313347844 0 0.011945648958687421 0.0083394837148219551 0 0.011621390202947807 0.0090303063313347844 0 0.012337712378802016 0.0090042411614978547 0 0.010602710030358075 0.0081289902596883637 0 0.01099884039254473 0.0077586819403599487 0 0.011814382565086415 0.007518187250383908 0 0.01189090585443147 0.0076264751620195113 0 0.011847848501319777 0.0076878079496170235 0 0.012643077507419716 0.0066510640092399386 0 0.012120464759551546 0.0075471837573558801 0 0.011628694463863075 0.0068904424194522499 0 0.011814382565086415 0.007518187250383908 0 0.01189090585443147 0.0076264751620195113 0 0.011913594731675144 0.0074956317518940861 0 0.0129445066977204 0.0067485234525766578 0 0.01099884039254473 0.0077586819403599487 0 0.01139953308700482 0.0079296253910277909 0 0.011524761284789057 0.0072400836776642706 0 0.010549898440969265 0.0075589341148242818 0 0.01099884039254473 0.0077586819403599487 0 0.0098881290156647133 0.0080470847777352941 0 0.0093757941117028031 0.008516503885884626 0 0.009402551487048473 0.0085618285630059739 0 0.0093884135967225793 0.008448907062435276 0 0.0094098884211098188 0.0085878724235392036 0 0.009402551487048473 0.0085618285630059739 0 0.0094264053457894254 0.0086065937042354834 0 0.0094098884211098188 0.0085878724235392036 0 0.0093757941117028031 0.008516503885884626 0 0.009402551487048473 0.0085618285630059739 0 0.009402551487048473 0.0085618285630059739 0 0.0094286721710592717 0.0086313701505187929 0 0.0094264053457894254 0.0086065937042354834 0 0.009402551487048473 0.0085618285630059739 0 0.0094286721710592717 0.0086313701505187929 0 0.0094431362998439912 0.0085453777517748748 0 0.0097072186720614812 0.0081802480232451222 0 0.0098881290156647133 0.0080470847777352941 0 0.0096003928903101634 0.008253596556610867 0 0.0094431362998439912 0.0085453777517748748 0 0.0093884135967225793 0.008448907062435276 0 0.009402551487048473 0.0085618285630059739 0 0.0094431362998439912 0.0085453777517748748 0 0.0093884135967225793 0.008448907062435276 0 0.0096003928903101634 0.008253596556610867 0 0.0094431362998439912 0.0085453777517748748 0 0.009481890252779214 0.0084859828986705195 0 0.0096003928903101634 0.008253596556610867 0 0.009481890252779214 0.0084859828986705195 0 0.0094897253275695263 0.0084061056599605347 0 0.0094431362998439912 0.0085453777517748748 0 0.009481890252779214 0.0084859828986705195 0 0.0093596856323330639 0.0087493846959357177 0 0.0094286721710592717 0.0086313701505187929 0 0.0094431362998439912 0.0085453777517748748 0 0.0093596856323330639 0.0087493846959357177 0 0.0094286721710592717 0.0086313701505187929 0 0.0094206384951690831 0.0086580771443171122 0 0.0093596856323330639 0.0087493846959357177 0 0.0093176155052302739 0.0086782919343543694 0 0.0094206384951690831 0.0086580771443171122 0 0.0093596856323330639 0.0087493846959357177 0 0.0093176155052302739 0.0086782919343543694 0 0.0094480442769666502 0.0086080130946809101 0 0.0093779311712963286 0.0085844334593549246 0 0.0093176155052302739 0.0086782919343543694 0 0.0094480442769666502 0.0086080130946809101 0 0.0094206384951690831 0.0086580771443171122 0 0.0094480442769666502 0.0086080130946809101 0 0.0094619023861019363 0.0086110727371683932 0 0.0094899016588862184 0.0085646913582494624 0 0.0094480442769666502 0.0086080130946809101 0 0.0094619023861019363 0.0086110727371683932 0 0.0094206384951690831 0.0086580771443171122 0 0.0094619023861019363 0.0086110727371683932 0 0.0094206384951690831 0.0086580771443171122 0 0.0094428529625131732 0.0086272108509246083 0 0.0094286721710592717 0.0086313701505187929 0 0.0094206384951690831 0.0086580771443171122 0 0.0094428529625131732 0.0086272108509246083 0 0.0094098884211098188 0.0085878724235392036 0 0.0094264053457894254 0.0086065937042354834 0 0.0094529761478215762 0.0086124105436596494 0 0.0094286721710592717 0.0086313701505187929 0 0.0094264053457894254 0.0086065937042354834 0 0.0094428529625131732 0.0086272108509246083 0 0.0094264053457894254 0.0086065937042354834 0 0.0094529761478215762 0.0086124105436596494 0 0.0094428529625131732 0.0086272108509246083 0 0.0094529761478215762 0.0086124105436596494 0 0.0094428529625131732 0.0086272108509246083 0 0.0094635354286753352 0.0086102894764980651 0 0.0094619023861019363 0.0086110727371683932 0 0.0094800422885370234 0.0085922501434776491 0 0.0094899016588862184 0.0085646913582494624 0 0.0094619023861019363 0.0086110727371683932 0 0.0094428529625131732 0.0086272108509246083 0 0.0094635354286753352 0.0086102894764980651 0 0.0094619023861019363 0.0086110727371683932 0 0.0094800422885370234 0.0085922501434776491 0 0.0094635354286753352 0.0086102894764980651 0 0.0094800422885370234 0.0085922501434776491 0 0.0094738321232655937 0.008605270355319888 0 0.0094894518024069285 0.0085951096337492615 0 0.0094529761478215762 0.0086124105436596494 0 0.0094635354286753352 0.0086102894764980651 0 0.0094738321232655937 0.008605270355319888 0 0.0094800422885370234 0.0085922501434776491 0 0.0094635354286753352 0.0086102894764980651 0 0.0094738321232655937 0.008605270355319888 0 0.01375622540125372 0.0088643890543012565 0 0.013739841156663306 0.0088581779496211595 0 0.013744285875441272 0.0088625324362001569 0 0.0095142252453447214 0.0085925437181755913 0 0.0094820048633589352 0.008609183137289431 0 0.0094803823997729793 0.0086124700169921114 0 0.011617287229478072 0.0087795204378018094 0 0.011437936534660721 0.0084782367093645481 0 0.0094529761478215762 0.0086124105436596494 0 0.0094723158869116017 0.0086089842724429745 0 0.0094738321232655937 0.008605270355319888 0 0.0094723158869116017 0.0086089842724429745 0 0.0094869856102409358 0.0086022570663391151 0 0.0094738321232655937 0.008605270355319888 0 0.0094869856102409358 0.0086022570663391151 0 0.0094738321232655937 0.008605270355319888 0 0.0094894518024069285 0.0085951096337492615 0 0.0094869856102409358 0.0086022570663391151 0 0.0094894518024069285 0.0085951096337492615 0 0.0095142252453447214 0.0085925437181755913 0 0.0094869856102409358 0.0086022570663391151 0 0.0095142252453447214 0.0085925437181755913 0 0.0094820048633589352 0.008609183137289431 0 0.0094723158869116017 0.0086089842724429745 0 0.0094820048633589352 0.008609183137289431 0 0.0094728924438269527 0.0086110421927511754 0 0.0094723158869116017 0.0086089842724429745 0 0.0094869856102409358 0.0086022570663391151 0 0.0094820048633589352 0.008609183137289431 0 0.01189090585443147 0.0076264751620195113 0 0.01186569540579013 0.0077715089387485415 0 0.011870907743413837 0.0076769728249598476 0 0.0094098884211098188 0.0085878724235392036 0 0.0094529761478215762 0.0086124105436596494 0 0.0094728924438269527 0.0086110421927511754 0 0.011437936534660721 0.0084782367093645481 0 0.012829814100899638 0.0071764089985055972 0 0.010602710030358075 0.0081289902596883637 0 0.011437936534660721 0.0084782367093645481 0 0.01375622540125372 0.0088643890543012565 0 0.013744285875441272 0.0088625324362001569 0 0.01374463715107959 0.0088602787495620644 0 0.011309163906583548 0.0084411196532200531 0 0.011437936534660721 0.0084782367093645481 0 0.0094529761478215762 0.0086124105436596494 0 0.0094723158869116017 0.0086089842724429745 0 0.0094728924438269527 0.0086110421927511754 0 0.01189090585443147 0.0076264751620195113 0 0.011870907743413837 0.0076769728249598476 0 0.011847848501319777 0.0076878079496170235 0 0.01186569540579013 0.0077715089387485415 0 0.011870907743413837 0.0076769728249598476 0 0.011847106046533017 0.007690414135083712 0 0.012422334060542767 0.0073913733006279207 0 0.012829814100899638 0.0071764089985055972 0 0.0080569661988934092 0.010618662918622294 0 0.0075229062505249586 0.010264388232376161 0 0.0084941043600167566 0.0099705029969976485 0 0.0080569661988934092 0.010618662918622294 0 0.008620868738946132 0.011102034023676734 0 0.0084941043600167566 0.0099705029969976485 0 0.0084743951419224053 0.0094297340402169309 0 0.0086856297480378264 0.0095458799011556902 0 0.0069669663405550917 0.010651757246529961 0 0.0075229062505249586 0.010264388232376161 0 0.0076886996276074185 0.011207742158257393 0 0.0080569661988934092 0.010618662918622294 0 0.0075229062505249586 0.010264388232376161 0 0.0076886996276074185 0.011207742158257393 0 0.0079338896304927253 0.0097164948163160087 0 0.0084743951419224053 0.0094297340402169309 0 0.0080569661988934092 0.010618662918622294 0 0.0076886996276074185 0.011207742158257393 0 0.008620868738946132 0.011102034023676734 0 0.0082380103157660197 0.0084714706239104633 0 0.0076733333497304053 0.0081008199197401595 0 0.0085327304736837022 0.0080267021851351435 0 0.0089456032403277593 0.0090494681950202237 0 0.0091040235491141683 0.0091474775909037107 0 0.0090157673227719629 0.008919402609320632 0 0.0087375957431582493 0.0088924113746888626 0 0.0084743951419224053 0.0094297340402169309 0 0.0089380704200278556 0.0091838980154937602 0 0.0088730318093485517 0.0090599179171095053 0 0.0089456032403277593 0.0090494681950202237 0 0.0089380704200278556 0.0091838980154937602 0 0.0089456032403277593 0.0090494681950202237 0 0.0091040235491141683 0.0091474775909037107 0 0.0088846720147971459 0.0090537972622008987 0 0.0089456032403277593 0.0090494681950202237 0 0.0090157673227719629 0.008919402609320632 0 0.0084743951419224053 0.0094297340402169309 0 0.0088352664458555292 0.0092891329184751556 0 0.009481890252779214 0.0084859828986705195 0 0.0094897253275695263 0.0084061056599605347 0 0.0093596856323330639 0.0087493846959357177 0 0.0092801259769778426 0.0087570640179294949 0 0.0093572031178094251 0.008749436896575041 0 0.0091040235491141683 0.0091474775909037107 0 0.0093596856323330639 0.0087493846959357177 0 0.0090157673227719629 0.008919402609320632 0 0.0088846720147971459 0.0090537972622008987 0 0.0090157673227719629 0.008919402609320632 0 0.008824515516188014 0.0088454203519811331 0 0.0090737033409013686 0.0087605898486912952 0 0.0088560978984780457 0.008735881725794644 0 0.008824515516188014 0.0088454203519811331 0 0.0090157673227719629 0.008919402609320632 0 0.0090737033409013686 0.0087605898486912952 0 0.008824515516188014 0.0088454203519811331 0 0.0093596856323330639 0.0087493846959357177 0 0.0090157673227719629 0.008919402609320632 0 0.0090737033409013686 0.0087605898486912952 0 0.0093176155052302739 0.0086782919343543694 0 0.0093596856323330639 0.0087493846959357177 0 0.0090737033409013686 0.0087605898486912952 0 0.0093176155052302739 0.0086782919343543694 0 0.0090737033409013686 0.0087605898486912952 0 0.0091288843490399015 0.0086403764417601909 0 0.0093176155052302739 0.0086782919343543694 0 0.0091288843490399015 0.0086403764417601909 0 0.0093779311712963286 0.0085844334593549246 0 0.0090737033409013686 0.0087605898486912952 0 0.0091288843490399015 0.0086403764417601909 0 0.0088560978984780457 0.008735881725794644 0 0.0091288843490399015 0.0086403764417601909 0 0.0088560978984780457 0.008735881725794644 0 0.0088702312983679442 0.008512200597822369 0 0.0088560978984780457 0.008735881725794644 0 0.008824515516188014 0.0088454203519811331 0 0.0084070924501542556 0.0087301001440002295 0 0.0084941043600167566 0.0099705029969976485 0 0.0076447780657737992 0.0096180739375969215 0 0.0084070924501542556 0.0087301001440002295 0 0.0086856297480378264 0.0095458799011556902 0 0.0084239285501746808 0.0086696417298609604 0 0.0069085159165346828 0.0099665524757387106 0 0.0075229062505249586 0.010264388232376161 0 0.0076447780657737992 0.0096180739375969215 0 0.0075229062505249586 0.010264388232376161 0 0.0084941043600167566 0.0099705029969976485 0 0.0076447780657737992 0.0096180739375969215 0 0.0076447780657737992 0.0096180739375969215 0 0.0075150903682153197 0.008929460656427024 0 0.0084070924501542556 0.0087301001440002295 0 0.006782410528672708 0.0092423586364875961 0 0.0076447780657737992 0.0096180739375969215 0 0.0075150903682153197 0.008929460656427024 0 0.0075150903682153197 0.008929460656427024 0 0.0077636285528285744 0.0084734522574069875 0 0.0070506034480533183 0.0086024542208912643 0 0.0077636285528285744 0.0084734522574069875 0 0.0073050821330157278 0.0081124108461945697 0 0.0070506034480533183 0.0086024542208912643 0 0.0075150903682153197 0.008929460656427024 0 0.0077636285528285744 0.0084734522574069875 0 0.0084070924501542556 0.0087301001440002295 0 0.0077636285528285744 0.0084734522574069875 0 0.0073050821330157278 0.0081124108461945697 0 0.0078970312522247937 0.0080315229114306854 0 0.0077636285528285744 0.0084734522574069875 0 0.0078970312522247937 0.0080315229114306854 0 0.0084365835551521336 0.0082353101999832409 0 0.0078970312522247937 0.0080315229114306854 0 0.0084365835551521336 0.0082353101999832409 0 0.0081932451958549382 0.007596061745983769 0 0.0077636285528285744 0.0084734522574069875 0 0.0084365835551521336 0.0082353101999832409 0 0.0084070924501542556 0.0087301001440002295 0 0.0084365835551521336 0.0082353101999832409 0 0.0084070924501542556 0.0087301001440002295 0 0.0088702312983679442 0.008512200597822369 0 0.0088560978984780457 0.008735881725794644 0 0.0084070924501542556 0.0087301001440002295 0 0.0088702312983679442 0.008512200597822369 0 0.0088702312983679442 0.008512200597822369 0 0.0092194144868777816 0.0084797802110964313 0 0.0090583422930667745 0.0080393321657450372 0 0.0091288843490399015 0.0086403764417601909 0 0.0092194144868777816 0.0084797802110964313 0 0.0093779311712963286 0.0085844334593549246 0 0.0091288843490399015 0.0086403764417601909 0 0.0088702312983679442 0.008512200597822369 0 0.0092194144868777816 0.0084797802110964313 0 0.0092194144868777816 0.0084797802110964313 0 0.0090583422930667745 0.0080393321657450372 0 0.009545068681935099 0.0085395401941335825 0 0.0090119479750877737 0.0082859033987821157 0 0.0094979288007491693 0.0085166355211770146 0 0.0084365835551521336 0.0082353101999832409 0 0.0090583422930667745 0.0080393321657450372 0 0.0081932451958549382 0.007596061745983769 0 0.0084365835551521336 0.0082353101999832409 0 0.0088702312983679442 0.008512200597822369 0 0.0090583422930667745 0.0080393321657450372 0 0.0089921384584696652 0.0085535465882376292 0 0.0085640368273645923 0.007684055965182149 0 0.0079633185181648362 0.0080277722037667299 0 0.0090119479750877737 0.0082859033987821157 0 0.0080795099779776332 0.0078133313761476701 0 0.0089921384584696652 0.0085535465882376292 0 0.0092684664452957477 0.0081350427669445325 0 0.0085640368273645923 0.007684055965182149 0 0.0089921384584696652 0.0085535465882376292 0 0.0092684664452957477 0.0081350427669445325 0 0.0095655498087530086 0.0085335156945316425 0 0.0092684664452957477 0.0081350427669445325 0 0.0092811417713964898 0.0076172105325100622 0 0.0097910090219434174 0.0079734386018164571 0 0.0092321006137135349 0.0075805492461742908 0 0.0087136633320796311 0.0070751671432543592 0 0.0092684664452957477 0.0081350427669445325 0 0.0092811417713964898 0.0076172105325100622 0 0.0085640368273645923 0.007684055965182149 0 0.0092811417713964898 0.0076172105325100622 0 0.0085640368273645923 0.007684055965182149 0 0.0085572728687414498 0.0070639901846285165 0 0.0085640368273645923 0.007684055965182149 0 0.0081192312057731131 0.0071792438208978689 0 0.0085572728687414498 0.0070639901846285165 0 0.0085640368273645923 0.007684055965182149 0 0.0078815785387895288 0.0073264857031170348 0 0.0081192312057731131 0.0071792438208978689 0 0.0085640368273645923 0.007684055965182149 0 0.0078815785387895288 0.0073264857031170348 0 0.0079633185181648362 0.0080277722037667299 0 0.0078815785387895288 0.0073264857031170348 0 0.0071674784453281066 0.0063455111790733819 0 0.0071034774839528643 0.0073373327202427346 0 0.0078815785387895288 0.0073264857031170348 0 0.0079633185181648362 0.0080277722037667299 0 0.0071034774839528643 0.0073373327202427346 0 0.0080795099779776332 0.0078133313761476701 0 0.007174745924564194 0.0073784805470728954 0 0.0073050821330157278 0.0081124108461945697 0 0.0078970312522247937 0.0080315229114306854 0 0.0071034774839528643 0.0073373327202427346 0 0.0078970312522247937 0.0080315229114306854 0 0.0081932451958549382 0.007596061745983769 0 0.0071034774839528643 0.0073373327202427346 0 0.012678078864660545 0.0086416303444646781 0 0.012502097169765167 0.009436373565061898 0 0.011892328321585125 0.008686640673282597 0 0.012502097169765167 0.009436373565061898 0 0.011892328321585125 0.008686640673282597 0 0.011099466492709273 0.0091130700495785227 0 0.012071999363355276 0.0086326629474531309 0 0.010049654418260032 0.008859966988216882 0 0.0095332764232489153 0.0085714538606386156 0 0.0095010292808952942 0.0085839133513680027 0 0.0094895752504874 0.0085680868065869456 0 0.0095332764232489153 0.0085714538606386156 0 0.0095142252453447214 0.0085925437181755913 0 0.0095010292808952942 0.0085839133513680027 0 0.0094800422885370234 0.0085922501434776491 0 0.0094894518024069285 0.0085951096337492615 0 0.0095010292808952942 0.0085839133513680027 0 0.0094894518024069285 0.0085951096337492615 0 0.0095142252453447214 0.0085925437181755913 0 0.0095010292808952942 0.0085839133513680027 0 0.0094800422885370234 0.0085922501434776491 0 0.0094895752504874 0.0085680868065869456 0 0.0094899016588862184 0.0085646913582494624 0 0.0094800422885370234 0.0085922501434776491 0 0.0095010292808952942 0.0085839133513680027 0 0.0094895752504874 0.0085680868065869456 0 0.011892328321585125 0.008686640673282597 0 0.011099466492709273 0.0091130700495785227 0 0.011175617213876788 0.0082828144200982265 0 0.0094895752504874 0.0085680868065869456 0 0.0095655498087530086 0.0085335156945316425 0 0.009545068681935099 0.0085395401941335825 0 0.010049654418260032 0.008859966988216882 0 0.0097065898361451911 0.0085648644326818766 0 0.0094895752504874 0.0085680868065869456 0 0.0094899016588862184 0.0085646913582494624 0 0.009545068681935099 0.0085395401941335825 0 0.011099466492709273 0.0091130700495785227 0 0.0095655498087530086 0.0085335156945316425 0 0.01040692141789285 0.008311009460739819 0 0.0094480442769666502 0.0086080130946809101 0 0.0094899016588862184 0.0085646913582494624 0 0.0094739601642649801 0.0085688324938566728 0 0.0094899016588862184 0.0085646913582494624 0 0.0094739601642649801 0.0085688324938566728 0 0.009545068681935099 0.0085395401941335825 0 0.0094739601642649801 0.0085688324938566728 0 0.0093779311712963286 0.0085844334593549246 0 0.009545068681935099 0.0085395401941335825 0 0.0092194144868777816 0.0084797802110964313 0 0.0093779311712963286 0.0085844334593549246 0 0.009545068681935099 0.0085395401941335825 0 0.0094480442769666502 0.0086080130946809101 0 0.0094739601642649801 0.0085688324938566728 0 0.0093779311712963286 0.0085844334593549246 0 0.0089921384584696652 0.0085535465882376292 0 0.0095655498087530086 0.0085335156945316425 0 0.009545068681935099 0.0085395401941335825 0 0.0095655498087530086 0.0085335156945316425 0 0.0097910090219434174 0.0079734386018164571 0 0.01040692141789285 0.008311009460739819 0 0.0092684664452957477 0.0081350427669445325 0 0.0095655498087530086 0.0085335156945316425 0 0.0097910090219434174 0.0079734386018164571 0 0.0097910090219434174 0.0079734386018164571 0 0.010012051008522111 0.0073045646588463997 0 0.010517282163589338 0.0077616148379038331 0 0.0092811417713964898 0.0076172105325100622 0 0.0097910090219434174 0.0079734386018164571 0 0.010012051008522111 0.0073045646588463997 0 0.010012051008522111 0.0073045646588463997 0 0.010517282163589338 0.0077616148379038331 0 0.010826077330380676 0.0071432607821743689 0 0.010517282163589338 0.0077616148379038331 0 0.011231366841296043 0.0076914377896448761 0 0.010826077330380676 0.0071432607821743689 0 0.010517282163589338 0.0077616148379038331 0 0.01040692141789285 0.008311009460739819 0 0.011175617213876788 0.0082828144200982265 0 0.0097910090219434174 0.0079734386018164571 0 0.010517282163589338 0.0077616148379038331 0 0.01040692141789285 0.008311009460739819 0 0.011099466492709273 0.0091130700495785227 0 0.01040692141789285 0.008311009460739819 0 0.011175617213876788 0.0082828144200982265 0 0.011175617213876788 0.0082828144200982265 0 0.011231366841296043 0.0076914377896448761 0 0.011988177273349819 0.0079548691235791572 0 0.010517282163589338 0.0077616148379038331 0 0.011175617213876788 0.0082828144200982265 0 0.011231366841296043 0.0076914377896448761 0 0.011231366841296043 0.0076914377896448761 0 0.011988177273349819 0.0079548691235791572 0 0.011652197404843273 0.0071831506691795027 0 0.011231366841296043 0.0076914377896448761 0 0.011652197404843273 0.0071831506691795027 0 0.010826077330380676 0.0071432607821743689 0 0.012428660492238355 0.0072906926175288524 0 0.011988177273349819 0.0079548691235791572 0 0.011652197404843273 0.0071831506691795027 0 0.012678078864660545 0.0086416303444646781 0 0.011892328321585125 0.008686640673282597 0 0.011988177273349819 0.0079548691235791572 0 0.011892328321585125 0.008686640673282597 0 0.011175617213876788 0.0082828144200982265 0 0.011988177273349819 0.0079548691235791572 0 0.012721838236248601 0.0067211003606823388 0 0.012394465053834746 0.0062154131700497385 0 0.012035458909837636 0.0066117638364503141 0 0.012394465053834746 0.0062154131700497385 0 0.012035458909837636 0.0066117638364503141 0 0.011919651178273229 0.0059594942060135223 0 0.012428660492238355 0.0072906926175288524 0 0.012721838236248601 0.0067211003606823388 0 0.012035458909837636 0.0066117638364503141 0 0.012428660492238355 0.0072906926175288524 0 0.012035458909837636 0.0066117638364503141 0 0.011652197404843273 0.0071831506691795027 0 0.011652197404843273 0.0071831506691795027 0 0.011324105587155695 0.0065712155564156237 0 0.010826077330380676 0.0071432607821743689 0 0.012035458909837636 0.0066117638364503141 0 0.011652197404843273 0.0071831506691795027 0 0.011324105587155695 0.0065712155564156237 0 0.012035458909837636 0.0066117638364503141 0 0.011324105587155695 0.0065712155564156237 0 0.011919651178273229 0.0059594942060135223 0 0.011324105587155695 0.0065712155564156237 0 0.011099344152997291 0.0060150541249051163 0 0.011919651178273229 0.0059594942060135223 0 0.01030795867890439 0.0065962222849768022 0 0.0099005609120733293 0.0061552354657449107 0 0.010335200234946022 0.0058325601030471989 0 0.010305227715064773 0.0066229379129456537 0 0.010442125472600806 0.0055589415312531148 0 0.011324105587155695 0.0065712155564156237 0 0.01030795867890439 0.0065962222849768022 0 0.011099344152997291 0.0060150541249051163 0 0.01030795867890439 0.0065962222849768022 0 0.010506345599508596 0.0057160071803146395 0 0.011099344152997291 0.0060150541249051163 0 0.010012051008522111 0.0073045646588463997 0 0.01030795867890439 0.0065962222849768022 0 0.010826077330380676 0.0071432607821743689 0 0.011324105587155695 0.0065712155564156237 0 0.01030795867890439 0.0065962222849768022 0 0.010826077330380676 0.0071432607821743689 0 0.0092811417713964898 0.0076172105325100622 0 0.010012051008522111 0.0073045646588463997 0 0.0095514437195624458 0.0067794260859643249 0 0.010012051008522111 0.0073045646588463997 0 0.01030795867890439 0.0065962222849768022 0 0.0095514437195624458 0.0067794260859643249 0 0.01030795867890439 0.0065962222849768022 0 0.0095514437195624458 0.0067794260859643249 0 0.0099005609120733293 0.0061552354657449107 0 0.0095514437195624458 0.0067794260859643249 0 0.0099005609120733293 0.0061552354657449107 0 0.0093293479719399018 0.0060925226029148009 0 0.0099005609120733293 0.0061552354657449107 0 0.0098733839606157513 0.0054849381600063293 0 0.0093293479719399018 0.0060925226029148009 0 0.0099005609120733293 0.0061552354657449107 0 0.0098733839606157513 0.0054849381600063293 0 0.010335200234946022 0.0058325601030471989 0 0.0098733839606157513 0.0054849381600063293 0 0.0092490825483439367 0.0050467159295116276 0 0.0099809302706851226 0.0047031282097048724 0 0.0098733839606157513 0.0054849381600063293 0 0.010418965002740352 0.0051046049684669659 0 0.0099809302706851226 0.0047031282097048724 0 0.01064685776117176 0.0047659775915034671 0 0.010506345599508596 0.0057160071803146395 0 0.011244629552204016 0.0053095225737333877 0 0.0098733839606157513 0.0054849381600063293 0 0.010418965002740352 0.0051046049684669659 0 0.010335200234946022 0.0058325601030471989 0 0.010517898326310397 0.0060988635458221951 0 0.010442125472600806 0.0055589415312531148 0 0.012696863998920319 0.0062345850089309471 0 0.012211012913032332 0.0058644969157371444 0 0.012382425515946538 0.0063688420113601025 0 0.010517898326310397 0.0060988635458221951 0 0.011796405029070582 0.0056804252415100891 0 0.010506345599508596 0.0057160071803146395 0 0.011099344152997291 0.0060150541249051163 0 0.011244629552204016 0.0053095225737333877 0 0.011099344152997291 0.0060150541249051163 0 0.011244629552204016 0.0053095225737333877 0 0.011919651178273229 0.0059594942060135223 0 0.012211012913032332 0.0058644969157371444 0 0.011973899240224307 0.0058529350006586321 0 0.011919651178273229 0.0059594942060135223 0 0.011796405029070582 0.0056804252415100891 0 0.011909973791302006 0.0058857140390637169 0 0.012211012913032332 0.0058644969157371444 0 0.012382425515946538 0.0063688420113601025 0 0.01206583365031004 0.0063360649084302787 0 0.012211012913032332 0.0058644969157371444 0 0.01206583365031004 0.0063360649084302787 0 0.011973899240224307 0.0058529350006586321 0 0.01206583365031004 0.0063360649084302787 0 0.011973899240224307 0.0058529350006586321 0 0.011463330728186951 0.0064834679999611995 0 0.012265149524656037 0.0058624301776348713 0 0.011973899240224307 0.0058529350006586321 0 0.012433179608085751 0.0052186312870836941 0 0.012682036751025689 0.0058886937734631351 0 0.012265149524656037 0.0058624301776348713 0 0.012433179608085751 0.0052186312870836941 0 0.011994877287381103 0.0058036042793687126 0 0.011883950640814578 0.0059985756419225879 0 0.012682036751025689 0.0058886937734631351 0 0.012394465053834746 0.0062154131700497385 0 0.012265149524656037 0.0058624301776348713 0 0.012265149524656037 0.0058624301776348713 0 0.011973899240224307 0.0058529350006586321 0 0.011919651178273229 0.0059594942060135223 0 0.012394465053834746 0.0062154131700497385 0 0.012265149524656037 0.0058624301776348713 0 0.011919651178273229 0.0059594942060135223 0 0.0079803533288014209 0.0068808087671749524 0 0.0076686390188839418 0.0069309853849294466 0 0.0075970333230106109 0.0067988723197071515 0 0.0079803533288014209 0.0068808087671749524 0 0.0076686390188839418 0.0069309853849294466 0 0.0078035580373518511 0.007089280693178851 0 0.0076686390188839418 0.0069309853849294466 0 0.0073629266593764776 0.0069905780046567393 0 0.0074291684808161706 0.0071455811967188849 0 0.0076686390188839418 0.0069309853849294466 0 0.0078035580373518511 0.007089280693178851 0 0.0074291684808161706 0.0071455811967188849 0 0.0078815785387895288 0.0073264857031170348 0 0.0078035580373518511 0.007089280693178851 0 0.0074291684808161706 0.0071455811967188849 0 0.0078467331974518446 0.0072807091357720236 0 0.0072744181074972806 0.0067452767086344954 0 0.0078815785387895288 0.0073264857031170348 0 0.0081192312057731131 0.0071792438208978689 0 0.0078035580373518511 0.007089280693178851 0 0.0079803533288014209 0.0068808087671749524 0 0.0081192312057731131 0.0071792438208978689 0 0.0078035580373518511 0.007089280693178851 0 0.0081263283056407457 0.0065829637829441867 0 0.0087136633320796311 0.0070751671432543592 0 0.0079803533288014209 0.0068808087671749524 0 0.0081192312057731131 0.0071792438208978689 0 0.0085572728687414498 0.0070639901846285165 0 0.0092811417713964898 0.0076172105325100622 0 0.0095514437195624458 0.0067794260859643249 0 0.0088227396008304388 0.0069969529930686046 0 0.0095514437195624458 0.0067794260859643249 0 0.0088227396008304388 0.0069969529930686046 0 0.0093293479719399018 0.0060925226029148009 0 0.0083002920711204038 0.0063815010835572544 0 0.0093293479719399018 0.0060925226029148009 0 0.0087954171819895639 0.0058167421146489689 0 0.0083002920711204038 0.0063815010835572544 0 0.0088227396008304388 0.0069969529930686046 0 0.0093293479719399018 0.0060925226029148009 0 0.0083002920711204038 0.0063815010835572544 0 0.0087954171819895639 0.0058167421146489689 0 0.0082740046263397402 0.0058694069990357185 0 0.0087954171819895639 0.0058167421146489689 0 0.0085035431307112011 0.0054073628345956103 0 0.0082740046263397402 0.0058694069990357185 0 0.0093293479719399018 0.0060925226029148009 0 0.0087954171819895639 0.0058167421146489689 0 0.0092490825483439367 0.0050467159295116276 0 0.0098733839606157513 0.0054849381600063293 0 0.0093293479719399018 0.0060925226029148009 0 0.0092490825483439367 0.0050467159295116276 0 0.0084696797092983171 0.007285954553535411 0 0.0080937893162690462 0.0074738342976219422 0 0.0081998401526578897 0.0072153707165697762 0 0.0080937893162690462 0.0074738342976219422 0 0.0078247763542748493 0.0073051627450893162 0 0.0081998401526578897 0.0072153707165697762 0 0.0087954171819895639 0.0058167421146489689 0 0.0092490825483439367 0.0050467159295116276 0 0.0085035431307112011 0.0054073628345956103 0 0.008929063780166481 0.0060886674866406972 0 0.0082826607774106019 0.006455998786868272 0 0.0080937893162690462 0.0074738342976219422 0 0.0078247763542748493 0.0073051627450893162 0 0.007699374018406379 0.0076656653146745246 0 0.0083002920711204038 0.0063815010835572544 0 0.0082740046263397402 0.0058694069990357185 0 0.0077696876375434164 0.0057730855112799427 0 0.0081263283056407457 0.0065829637829441867 0 0.0077212473927134456 0.0066700499460766371 0 0.0085035431307112011 0.0054073628345956103 0 0.0082740046263397402 0.0058694069990357185 0 0.0077696876375434164 0.0057730855112799427 0 0.0082826607774106019 0.006455998786868272 0 0.0077212473927134456 0.0066700499460766371 0 0.007472856473882781 0.006887461884396805 0 0.0074917672060021822 0.0068780579995738464 0 0.0072739115679742892 0.0068918936517300021 0 0.0076686390188839418 0.0069309853849294466 0 0.007472856473882781 0.006887461884396805 0 0.0073629266593764776 0.0069905780046567393 0 0.007472856473882781 0.006887461884396805 0 0.0072739115679742892 0.0068918936517300021 0 0.007216707336893495 0.0069621837355707608 0 0.0076686390188839418 0.0069309853849294466 0 0.007472856473882781 0.006887461884396805 0 0.0075970333230106109 0.0067988723197071515 0 0.0075257062259936388 0.0067970934179234343 0 0.0077212473927134456 0.0066700499460766371 0 0.0078247763542748493 0.0073051627450893162 0 0.0074108167285773701 0.0073465191634091544 0 0.0076442152177958076 0.0070260827899908153 0 0.0078247763542748493 0.0073051627450893162 0 0.007699374018406379 0.0076656653146745246 0 0.0074108167285773701 0.0073465191634091544 0 0.0077212473927134456 0.0066700499460766371 0 0.0073757292554965902 0.0072034498430340755 0 0.0072739115679742892 0.0068918936517300021 0 0.0070919654683276375 0.0069558584264288138 0 0.007216707336893495 0.0069621837355707608 0 0.0072739115679742892 0.0068918936517300021 0 0.0070919654683276375 0.0069558584264288138 0 0.0071043097176907389 0.0069529637976924116 0 0.0070919654683276375 0.0069558584264288138 0 0.0070074113608587082 0.0070166465121283914 0 0.007216707336893495 0.0069621837355707608 0 0.0070919654683276375 0.0069558584264288138 0 0.0069593368780592087 0.0069883291295434425 0 0.0069554708085347453 0.0069595199025044635 0 0.0069593368780592087 0.0069883291295434425 0 0.0068668607272721269 0.0069885443833579697 0 0.0069554708085347453 0.0069595199025044635 0 0.0070919654683276375 0.0069558584264288138 0 0.0069593368780592087 0.0069883291295434425 0 0.0070074113608587082 0.0070166465121283914 0 0.0069593368780592087 0.0069883291295434425 0 0.0070074113608587082 0.0070166465121283914 0 0.0068829674457600975 0.007024217279623734 0 0.0070074113608587082 0.0070166465121283914 0 0.0067988236223690459 0.0070495954380345735 0 0.0070982990114576133 0.0070619555722734352 0 0.0070074113608587082 0.0070166465121283914 0 0.007216707336893495 0.0069621837355707608 0 0.0070982990114576133 0.0070619555722734352 0 0.007216707336893495 0.0069621837355707608 0 0.0073629266593764776 0.0069905780046567393 0 0.0070982990114576133 0.0070619555722734352 0 0.007472856473882781 0.006887461884396805 0 0.007216707336893495 0.0069621837355707608 0 0.0073629266593764776 0.0069905780046567393 0 0.0050265406248284697 0.00610945658538831 0 0.0052342215825260385 0.0061356696147261266 0 0.0034300121306726429 0.0057098972660308885 0 0.0037709871407774287 0.0057131819707157694 0 0.0034072952303150716 0.005399031859034978 0 0.0050265406248284697 0.00610945658538831 0 0.0033423483847678458 0.0053916286641435968 0 0.0034300121306726429 0.0057098972660308885 0 0.0038022713682772887 0.0058066659605426436 0 0.0037709871407774287 0.0057131819707157694 0 0.0070074113608587082 0.0070166465121283914 0 0.0067988236223690459 0.0070495954380345735 0 0.0068829674457600975 0.007024217279623734 0 0.0051664049463876959 0.0057816547802729155 0 0.0056388748889772732 0.006059990616764396 0 0.0051664049463876959 0.0057816547802729155 0 0.0050265406248284697 0.00610945658538831 0 0.0050657732137327337 0.005971442232245717 0 0.0049850452088549442 0.0060096441321806811 0 0.0051158666202334906 0.0061288890066878475 0 0.0057462830068344614 0.0060696570225889689 0 0.0056388748889772732 0.006059990616764396 0 0.006816521157238316 0.0070398867501364143 0 0.0067858882799396751 0.0070553362177685616 0 0.006781553421632492 0.0070298521083463532 0 0.006816521157238316 0.0070398867501364143 0 0.006781553421632492 0.0070298521083463532 0 0.0068144622213348978 0.007014030284541152 0 0.006781553421632492 0.0070298521083463532 0 0.0067474881820710235 0.0070351269866717843 0 0.0067615993917725945 0.0070062187187376343 0 0.0067858882799396751 0.0070553362177685616 0 0.006781553421632492 0.0070298521083463532 0 0.0067474881820710235 0.0070351269866717843 0 0.0056388748889772732 0.006059990616764396 0 0.0050265406248284697 0.00610945658538831 0 0.0067474881820710235 0.0070351269866717843 0 0.0067615993917725945 0.0070062187187376343 0 0.006679045617435219 0.0069610170618971418 0 0.0067819352512001911 0.006986352367037282 0 0.0067615993917725945 0.0070062187187376343 0 0.006679045617435219 0.0069610170618971418 0 0.0067819352512001911 0.006986352367037282 0 0.0067615993917725945 0.0070062187187376343 0 0.0068144622213348978 0.007014030284541152 0 0.006781553421632492 0.0070298521083463532 0 0.0067615993917725945 0.0070062187187376343 0 0.0068144622213348978 0.007014030284541152 0 0.0067819352512001911 0.006986352367037282 0 0.0068668607272721269 0.0069885443833579697 0 0.0068144622213348978 0.007014030284541152 0 0.0068668607272721269 0.0069885443833579697 0 0.0068038499316301201 0.006955330832530574 0 0.0069554708085347453 0.0069595199025044635 0 0.0067819352512001911 0.006986352367037282 0 0.0068668607272721269 0.0069885443833579697 0 0.0068038499316301201 0.006955330832530574 0 0.0069593368780592087 0.0069883291295434425 0 0.0068668607272721269 0.0069885443833579697 0 0.0068829674457600975 0.007024217279623734 0 0.0068668607272721269 0.0069885443833579697 0 0.0068144622213348978 0.007014030284541152 0 0.0068829674457600975 0.007024217279623734 0 0.006816521157238316 0.0070398867501364143 0 0.0068144622213348978 0.007014030284541152 0 0.0068829674457600975 0.007024217279623734 0 0.006816521157238316 0.0070398867501364143 0 0.0067988236223690459 0.0070495954380345735 0 0.0068829674457600975 0.007024217279623734 0 0.0056388748889772732 0.006059990616764396 0 0.0068055842268131611 0.0062842609526236213 0 0.0055247340110845949 0.0047697171543257975 0 0.0055755377216588414 0.0051976121698581569 0 0.0063555089850557325 0.0055206699823872416 0 0.0054447416076587735 0.0048042459915117082 0 0.0055755377216588414 0.0051976121698581569 0 0.0051894596927664193 0.0054715546677326053 0 0.0051664049463876959 0.0057816547802729155 0 0.0053144396369484729 0.0050666651766921554 0 0.0054476505097633948 0.0048064217867104129 0 0.0055247340110845949 0.0047697171543257975 0 0.0055755377216588414 0.0051976121698581569 0 0.0051664049463876959 0.0057816547802729155 0 0.0037247691103853868 0.0056079948988923788 0 0.0034300121306726429 0.0057098972660308885 0 0.0038022713682772887 0.0058066659605426436 0 0.0031807160148962683 0.0060769671282001137 0 0.0054447416076587735 0.0048042459915117082 0 0.0051894596927664193 0.0054715546677326053 0 0.004460066374352408 0.0052374589529918126 0 0.0051894596927664193 0.0054715546677326053 0 0.0056909714183534391 0.0060299458012412557 0 0.0047801396638762327 0.0060858321974475446 0 0.0051894596927664193 0.0054715546677326053 0 0.0047801396638762327 0.0060858321974475446 0 0.004460066374352408 0.0052374589529918126 0 0.0055755377216588414 0.0051976121698581569 0 0.0051894596927664193 0.0054715546677326053 0 0.0056909714183534391 0.0060299458012412557 0 0.0055755377216588414 0.0051976121698581569 0 0.0056909714183534391 0.0060299458012412557 0 0.0063555089850557325 0.0055206699823872416 0 0.0056909714183534391 0.0060299458012412557 0 0.0063343674700172044 0.0067512282399370361 0 0.0053849866127465397 0.00677236450162796 0 0.0056909714183534391 0.0060299458012412557 0 0.0047801396638762327 0.0060858321974475446 0 0.0053849866127465397 0.00677236450162796 0 0.0047801396638762327 0.0060858321974475446 0 0.0053849866127465397 0.00677236450162796 0 0.0047554296057704584 0.0070892555274279017 0 0.0073629266593764776 0.0069905780046567393 0 0.0070982990114576133 0.0070619555722734352 0 0.0074291684808161706 0.0071455811967188849 0 0.0068055842268131611 0.0062842609526236213 0 0.0072744181074972806 0.0067452767086344954 0 0.0063555089850557325 0.0055206699823872416 0 0.006305877644086676 0.0061496729213824774 0 0.0071674784453281066 0.0063455111790733819 0 0.0056909714183534391 0.0060299458012412557 0 0.0063555089850557325 0.0055206699823872416 0 0.006305877644086676 0.0061496729213824774 0 0.0056909714183534391 0.0060299458012412557 0 0.006305877644086676 0.0061496729213824774 0 0.0063343674700172044 0.0067512282399370361 0 0.006305877644086676 0.0061496729213824774 0 0.0071674784453281066 0.0063455111790733819 0 0.0063343674700172044 0.0067512282399370361 0 0.0071674784453281066 0.0063455111790733819 0 0.0071034774839528643 0.0073373327202427346 0 0.0063343674700172044 0.0067512282399370361 0 0.0073050821330157278 0.0081124108461945697 0 0.0071034774839528643 0.0073373327202427346 0 0.0066321702470732375 0.0080414984308108915 0 0.0071034774839528643 0.0073373327202427346 0 0.0061066439219939084 0.0075156916267454695 0 0.0066321702470732375 0.0080414984308108915 0 0.0071034774839528643 0.0073373327202427346 0 0.0061066439219939084 0.0075156916267454695 0 0.0063343674700172044 0.0067512282399370361 0 0.0061066439219939084 0.0075156916267454695 0 0.0063343674700172044 0.0067512282399370361 0 0.0053849866127465397 0.00677236450162796 0 0.0053849866127465397 0.00677236450162796 0 0.0047554296057704584 0.0070892555274279017 0 0.0052322229032619686 0.0077306170690303695 0 0.0047554296057704584 0.0070892555274279017 0 0.0052322229032619686 0.0077306170690303695 0 0.0043713782263478662 0.0079565251529520736 0 0.0061066439219939084 0.0075156916267454695 0 0.0052322229032619686 0.0077306170690303695 0 0.0060325877234083478 0.0082219868535324675 0 0.0061066439219939084 0.0075156916267454695 0 0.0053849866127465397 0.00677236450162796 0 0.0052322229032619686 0.0077306170690303695 0 0.0052322229032619686 0.0077306170690303695 0 0.0053950480884483402 0.0084104449201579147 0 0.0060325877234083478 0.0082219868535324675 0 0.0052322229032619686 0.0077306170690303695 0 0.0053950480884483402 0.0084104449201579147 0 0.0047501040493885191 0.0084592262887820437 0 0.0052322229032619686 0.0077306170690303695 0 0.0047501040493885191 0.0084592262887820437 0 0.0043713782263478662 0.0079565251529520736 0 0.0048414487577386617 0.0091027811122383392 0 0.0053950480884483402 0.0084104449201579147 0 0.0057445494927974407 0.0089006354221807613 0 0.0048414487577386617 0.0091027811122383392 0 0.0053950480884483402 0.0084104449201579147 0 0.0047501040493885191 0.0084592262887820437 0 0.0053950480884483402 0.0084104449201579147 0 0.0057445494927974407 0.0089006354221807613 0 0.0060325877234083478 0.0082219868535324675 0 0.0061638091351292031 0.0090175476232740061 0 0.0057445494927974407 0.0089006354221807613 0 0.0064205798111458727 0.0086545090300577179 0 0.0057445494927974407 0.0089006354221807613 0 0.0064205798111458727 0.0086545090300577179 0 0.0060325877234083478 0.0082219868535324675 0 0.006782410528672708 0.0092423586364875961 0 0.0061638091351292031 0.0090175476232740061 0 0.0064205798111458727 0.0086545090300577179 0 0.006782410528672708 0.0092423586364875961 0 0.0075150903682153197 0.008929460656427024 0 0.0070506034480533183 0.0086024542208912643 0 0.006782410528672708 0.0092423586364875961 0 0.0064205798111458727 0.0086545090300577179 0 0.0070506034480533183 0.0086024542208912643 0 0.0064205798111458727 0.0086545090300577179 0 0.0070506034480533183 0.0086024542208912643 0 0.0066321702470732375 0.0080414984308108915 0 0.0073050821330157278 0.0081124108461945697 0 0.0070506034480533183 0.0086024542208912643 0 0.0066321702470732375 0.0080414984308108915 0 0.0064205798111458727 0.0086545090300577179 0 0.0066321702470732375 0.0080414984308108915 0 0.0060325877234083478 0.0082219868535324675 0 0.0061066439219939084 0.0075156916267454695 0 0.0066321702470732375 0.0080414984308108915 0 0.0060325877234083478 0.0082219868535324675 0 0.0032707556913901975 0.0077390296886310278 0 0.0030121478442773132 0.0084355072043531005 0 0.0021375463867195068 0.0075823991967700578 0 0.0032707556913901975 0.0077390296886310278 0 0.0030121478442773132 0.0084355072043531005 0 0.0039879429805067257 0.008656495682975239 0 0.002287376105456367 0.0088424769275705396 0 0.0030121478442773132 0.0084355072043531005 0 0.0021375463867195068 0.0075823991967700578 0 0.0033594765067945231 0.0093349545595246761 0 0.002287376105456367 0.0088424769275705396 0 0.0030121478442773132 0.0084355072043531005 0 0.0033594765067945231 0.0093349545595246761 0 0.0030121478442773132 0.0084355072043531005 0 0.0039879429805067257 0.008656495682975239 0 0.0048414487577386617 0.0091027811122383392 0 0.0047501040493885191 0.0084592262887820437 0 0.0039879429805067257 0.008656495682975239 0 0.0047501040493885191 0.0084592262887820437 0 0.0039879429805067257 0.008656495682975239 0 0.0043713782263478662 0.0079565251529520736 0 0.0032849516804674571 0.0078207431408373069 0 0.0043037687813750206 0.0079463892811616893 0 0.0032707556913901975 0.0077390296886310278 0 0.0039879429805067257 0.008656495682975239 0 0.0043713782263478662 0.0079565251529520736 0 0.0032804895862930204 0.0078986167593049841 0 0.0043713782263478662 0.0079565251529520736 0 0.0040063658713615554 0.0068714675376870442 0 0.0047554296057704584 0.0070892555274279017 0 0.0043713782263478662 0.0079565251529520736 0 0.0040063658713615554 0.0068714675376870442 0 0.0047801396638762327 0.0060858321974475446 0 0.0047554296057704584 0.0070892555274279017 0 0.0040063658713615554 0.0068714675376870442 0 0.0032804895862930204 0.0078986167593049841 0 0.0040063658713615554 0.0068714675376870442 0 0.0031270222891850567 0.006720519557317871 0 0.0032804895862930204 0.0078986167593049841 0 0.0031270222891850567 0.006720519557317871 0 0.002202112906358768 0.0069418406504731158 0 0.0032849516804674571 0.0078207431408373069 0 0.0021348712773518533 0.0076764831394515124 0 0.0032804895862930204 0.0078986167593049841 0 0.0021513584750006863 0.0077777514973324854 0 0.002202112906358768 0.0069418406504731158 0 0.0031270222891850567 0.006720519557317871 0 0.002202112906358768 0.0069418406504731158 0 0.0024336501734790912 0.0061133131580888116 0 0.0031270222891850567 0.006720519557317871 0 0.0024336501734790912 0.0061133131580888116 0 0.0034639904783651102 0.0056629956002369492 0 0.001940658156783265 0.0065357633896720195 0 0.0025574508343791619 0.0063253242971761407 0 0.0021101052770169395 0.0060485245652761718 0 0.0021810793681273626 0.0063279293550741996 0 0.0030299163008660778 0.005995737511134417 0 0.001940658156783265 0.0065357633896720195 0 0.0021101052770169395 0.0060485245652761718 0 0.0017715884147343553 0.0062168141015096221 0 0.0047801396638762327 0.0060858321974475446 0 0.0040063658713615554 0.0068714675376870442 0 0.0034639904783651102 0.0056629956002369492 0 0.0047801396638762327 0.0060858321974475446 0 0.0034639904783651102 0.0056629956002369492 0 0.004460066374352408 0.0052374589529918126 0 0.0040063658713615554 0.0068714675376870442 0 0.0031270222891850567 0.006720519557317871 0 0.0034639904783651102 0.0056629956002369492 0 0.0030299163008660778 0.005995737511134417 0 0.0037247691103853868 0.0056079948988923788 0 0.0025574508343791619 0.0063253242971761407 0 0.0031807160148962683 0.0060769671282001137 0 0.0025822831567450639 0.0058301266717094846 0 0.0025822831567450639 0.0058301266717094846 0 0.0026076027833414166 0.0055323864580524998 0 0.0029991353555962651 0.0055568693166434301 0 0.0031807160148962683 0.0060769671282001137 0 0.0025822831567450639 0.0058301266717094846 0 0.0029991353555962651 0.0055568693166434301 0 0.0034300121306726429 0.0057098972660308885 0 0.0031807160148962683 0.0060769671282001137 0 0.0029991353555962651 0.0055568693166434301 0 0.0034300121306726429 0.0057098972660308885 0 0.0029991353555962651 0.0055568693166434301 0 0.0034072952303150716 0.005399031859034978 0 0.0021101052770169395 0.0060485245652761718 0 0.0017715884147343553 0.0062168141015096221 0 0.0016453180594263718 0.0058534913687266705 0 0.0025574508343791619 0.0063253242971761407 0 0.0025822831567450639 0.0058301266717094846 0 0.0021101052770169395 0.0060485245652761718 0 0.0025822831567450639 0.0058301266717094846 0 0.0026076027833414166 0.0055323864580524998 0 0.0021632481071952982 0.0055371332166968519 0 0.0025822831567450639 0.0058301266717094846 0 0.0021101052770169395 0.0060485245652761718 0 0.0021632481071952982 0.0055371332166968519 0 0.0021798155158783664 0.0072164438270522794 0 0.0014334443885310635 0.0076603319426521606 0 0.0021101052770169395 0.0060485245652761718 0 0.0021632481071952982 0.0055371332166968519 0 0.0016453180594263718 0.0058534913687266705 0 0.0021721911990547787 0.0088811756723196338 0 0.0018393296167114844 0.0082586712952791869 0 0.0024451882472799769 0.0082555172956023382 0 0.0021721911990547787 0.0088811756723196338 0 0.0018393296167114844 0.0082586712952791869 0 0.0011428918962872775 0.0085304806319016092 0 0.0021721911990547787 0.0088811756723196338 0 0.0024451882472799769 0.0082555172956023382 0 0.0030597004839297373 0.0082982244129345198 0 0.0026076027833414166 0.0055323864580524998 0 0.0021632481071952982 0.0055371332166968519 0 0.0026963138619483886 0.0052072853688661883 0 0.0021798155158783664 0.0072164438270522794 0 0.0027980913062257097 0.0066676999435728622 0 0.002560130650615815 0.0077599838964351716 0 0.0037255774856590975 0.0078588439563336242 0 0.0028671854682328327 0.0078583598731975565 0 0.003614057474195514 0.0072923580616338123 0 0.0041483884220598196 0.0079485260744882845 0 0.0024451882472799769 0.0082555172956023382 0 0.0023055678176917291 0.0076782286048979629 0 0.0031279817834081501 0.0076832081119395492 0 0.0018393296167114844 0.0082586712952791869 0 0.0023055678176917291 0.0076782286048979629 0 0.0015601638990200804 0.0076865329983246463 0 0.002560130650615815 0.0077599838964351716 0 0.0016679134671554836 0.0077027584602864683 0 0.0018393296167114844 0.0082586712952791869 0 0.0024451882472799769 0.0082555172956023382 0 0.0023055678176917291 0.0076782286048979629 0 0.002980876425874713 0.0065989017529324932 0 0.0014004451216385195 0.0072369417948532156 0 0.0028671854682328327 0.0078583598731975565 0 0.0015601638990200804 0.0076865329983246463 0 0.0013121677256445409 0.007167467644954178 0 0.0028671854682328327 0.0078583598731975565 0 0.0029727155461272887 0.0064822517046874053 0 0.0013121677256445409 0.007167467644954178 0 0.0028671854682328327 0.0078583598731975565 0 0.003614057474195514 0.0072923580616338123 0 0.0029727155461272887 0.0064822517046874053 0 0.003614057474195514 0.0072923580616338123 0 0.0029727155461272887 0.0064822517046874053 0 0.0044625490374880497 0.0068926410659525626 0 0.0029601231498593852 0.0067348801670889325 0 0.0034585494173104228 0.0058127845856168819 0 0.004565616552662524 0.0059174093725981496 0 0.0029601231498593852 0.0067348801670889325 0 0.0019912555697215542 0.0065368470369756822 0 0.002565512534228829 0.0057278523453043783 0 0.0029601231498593852 0.0067348801670889325 0 0.0019912555697215542 0.0065368470369756822 0 0.0014935386542947369 0.0072951252647078663 0 0.0053760606143618116 0.0062159153094043032 0 0.0044625490374880497 0.0068926410659525626 0 0.004565616552662524 0.0059174093725981496 0 0.0053760606143618116 0.0062159153094043032 0 0.0044625490374880497 0.0068926410659525626 0 0.0056305405105382513 0.0071117820562112506 0 0.0054286847725483652 0.0062058798596171735 0 0.0057581757811186749 0.0069798098902854201 0 0.0029727155461272887 0.0064822517046874053 0 0.0044625490374880497 0.0068926410659525626 0 0.004565616552662524 0.0059174093725981496 0 0.002980876425874713 0.0065989017529324932 0 0.0044736153280774821 0.0059483995597491941 0 0.003614057474195514 0.0072923580616338123 0 0.0044625490374880497 0.0068926410659525626 0 0.0041483884220598196 0.0079485260744882845 0 0.0044625490374880497 0.0068926410659525626 0 0.0047744814660386145 0.0075492381495404085 0 0.0041483884220598196 0.0079485260744882845 0 0.0044625490374880497 0.0068926410659525626 0 0.0047744814660386145 0.0075492381495404085 0 0.0056305405105382513 0.0071117820562112506 0 0.0047744814660386145 0.0075492381495404085 0 0.0053617819477102657 0.0079857873474663884 0 0.0056305405105382513 0.0071117820562112506 0 0.0047744814660386145 0.0075492381495404085 0 0.0053617819477102657 0.0079857873474663884 0 0.0041483884220598196 0.0079485260744882845 0 0.0042563591693810859 0.007010823281421566 0 0.0037255774856590975 0.0078588439563336242 0 0.0033357708712095551 0.0048119752323741742 0 0.0030882963454056836 0.0051015393095694434 0 0.0026963138619483886 0.0052072853688661883 0 0.0042563591693810859 0.007010823281421566 0 0.0027980913062257097 0.0066676999435728622 0 0.0033357708712095551 0.0048119752323741742 0 0.0030882963454056836 0.0051015393095694434 0 0.0034718764141469837 0.0049679890810359556 0 0.0030882963454056836 0.0051015393095694434 0 0.0035426482749362823 0.005184262135338691 0 0.0034718764141469837 0.0049679890810359556 0 0.0024451882472799769 0.0082555172956023382 0 0.0031279817834081501 0.0076832081119395492 0 0.0030597004839297373 0.0082982244129345198 0 0.0039617783934281017 0.0076998169695518849 0 0.0031279817834081501 0.0076832081119395492 0 0.0030597004839297373 0.0082982244129345198 0 0.0029991353555962651 0.0055568693166434301 0 0.0030882963454056836 0.0051015393095694434 0 0.0026963138619483886 0.0052072853688661883 0 0.0026076027833414166 0.0055323864580524998 0 0.0029991353555962651 0.0055568693166434301 0 0.0026963138619483886 0.0052072853688661883 0 0.0029991353555962651 0.0055568693166434301 0 0.0030882963454056836 0.0051015393095694434 0 0.0034072952303150716 0.005399031859034978 0 0.0031753199684233877 0.0051893044441695705 0 0.0033423483847678458 0.0053916286641435968 0 0.0030882963454056836 0.0051015393095694434 0 0.0035778209254665803 0.0056108189950418458 0 0.0035426482749362823 0.005184262135338691 0 0.0041423211720417767 0.0061145407212631602 0 0.0035778209254665803 0.0056108189950418458 0 0.003903130721586 0.0054281310964871318 0 0.0067474881820710235 0.0070351269866717843 0 0.0065750401823624462 0.0069236706983695877 0 0.006679045617435219 0.0069610170618971418 0 0.0035778209254665803 0.0056108189950418458 0 0.0035426482749362823 0.005184262135338691 0 0.003903130721586 0.0054281310964871318 0 0.0067819352512001911 0.006986352367037282 0 0.006679045617435219 0.0069610170618971418 0 0.0068038499316301201 0.006955330832530574 0 0.0065750401823624462 0.0069236706983695877 0 0.006679045617435219 0.0069610170618971418 0 0.0066835804062495233 0.0069164535363215856 0 0.006679045617435219 0.0069610170618971418 0 0.0068038499316301201 0.006955330832530574 0 0.0066835804062495233 0.0069164535363215856 0 0.0066835804062495233 0.0069164535363215856 0 0.0067090437324422401 0.0068619642824403679 0 0.0068569590319719027 0.0069015630839687212 0 0.0068038499316301201 0.006955330832530574 0 0.0066835804062495233 0.0069164535363215856 0 0.0068569590319719027 0.0069015630839687212 0 0.0066835804062495233 0.0069164535363215856 0 0.006551695567194986 0.0068635697133988304 0 0.0067090437324422401 0.0068619642824403679 0 0.0065750401823624462 0.0069236706983695877 0 0.0066835804062495233 0.0069164535363215856 0 0.006551695567194986 0.0068635697133988304 0 0.006551695567194986 0.0068635697133988304 0 0.0067090437324422401 0.0068619642824403679 0 0.0066073306813501488 0.0067968354783955621 0 0.006551695567194986 0.0068635697133988304 0 0.0066073306813501488 0.0067968354783955621 0 0.0064366852705462149 0.0068359515278246076 0 0.0067090437324422401 0.0068619642824403679 0 0.0066073306813501488 0.0067968354783955621 0 0.0067923780309122085 0.0067950864476830431 0 0.0067090437324422401 0.0068619642824403679 0 0.0068569590319719027 0.0069015630839687212 0 0.0067923780309122085 0.0067950864476830431 0 0.0066073306813501488 0.0067968354783955621 0 0.0067923780309122085 0.0067950864476830431 0 0.0067109346677992456 0.0066856145151607043 0 0.0066073306813501488 0.0067968354783955621 0 0.0064982513205297443 0.0066737013261087578 0 0.0067109346677992456 0.0066856145151607043 0 0.0066073306813501488 0.0067968354783955621 0 0.0064366852705462149 0.0068359515278246076 0 0.0064982513205297443 0.0066737013261087578 0 0.0035426482749362823 0.005184262135338691 0 0.003903130721586 0.0054281310964871318 0 0.0036704204916975084 0.004806776057167928 0 0.0064366852705462149 0.0068359515278246076 0 0.0061325369782730243 0.0068813203637142911 0 0.0062098179554054269 0.0066468640749142698 0 0.0065750401823624462 0.0069236706983695877 0 0.006551695567194986 0.0068635697133988304 0 0.0064091918789997079 0.0068202929965023324 0 0.0063339068946427993 0.0067010373031953299 0 0.0052349116697721241 0.0065397672244818456 0 0.0052342215825260385 0.0061356696147261266 0 0.0052349116697721241 0.0065397672244818456 0 0.0042563591693810859 0.007010823281421566 0 0.0052349116697721241 0.0065397672244818456 0 0.0033357708712095551 0.0048119752323741742 0 0.0036704204916975084 0.004806776057167928 0 0.0034718764141469837 0.0049679890810359556 0 0.0035426482749362823 0.005184262135338691 0 0.0036704204916975084 0.004806776057167928 0 0.0034718764141469837 0.0049679890810359556 0 0.006551695567194986 0.0068635697133988304 0 0.0064366852705462149 0.0068359515278246076 0 0.0064091918789997079 0.0068202929965023324 0 0.0074108167285773701 0.0073465191634091544 0 0.0071043097176907389 0.0069529637976924116 0 0.0076442152177958076 0.0070260827899908153 0 0.0073757292554965902 0.0072034498430340755 0 0.0071233282563567353 0.0069422114249490926 0 0.0071043097176907389 0.0069529637976924116 0 0.0069554708085347453 0.0069595199025044635 0 0.0068569590319719027 0.0069015630839687212 0 0.0071043097176907389 0.0069529637976924116 0 0.0068569590319719027 0.0069015630839687212 0 0.006965965826958893 0.0068107142310133697 0 0.0070919654683276375 0.0069558584264288138 0 0.0071043097176907389 0.0069529637976924116 0 0.0069554708085347453 0.0069595199025044635 0 0.0068038499316301201 0.006955330832530574 0 0.0069554708085347453 0.0069595199025044635 0 0.0068569590319719027 0.0069015630839687212 0 0.0068569590319719027 0.0069015630839687212 0 0.0067923780309122085 0.0067950864476830431 0 0.006965965826958893 0.0068107142310133697 0 0.0067923780309122085 0.0067950864476830431 0 0.0069165306982306883 0.0066494987150948395 0 0.0067109346677992456 0.0066856145151607043 0 0.0067923780309122085 0.0067950864476830431 0 0.006965965826958893 0.0068107142310133697 0 0.0069165306982306883 0.0066494987150948395 0 0.006965965826958893 0.0068107142310133697 0 0.0071684639155607252 0.0067052143934041844 0 0.0069165306982306883 0.0066494987150948395 0 0.0071043097176907389 0.0069529637976924116 0 0.006965965826958893 0.0068107142310133697 0 0.0071684639155607252 0.0067052143934041844 0 0.0071043097176907389 0.0069529637976924116 0 0.0071684639155607252 0.0067052143934041844 0 0.0074335362350411551 0.0067682817840410527 0 0.0071684639155607252 0.0067052143934041844 0 0.0073152289233889911 0.0065311931084450466 0 0.0074335362350411551 0.0067682817840410527 0 0.0073152289233889911 0.0065311931084450466 0 0.007273078121756176 0.0063485773867529988 0 0.0074624100991311946 0.0063608815339130462 0 0.0071684639155607252 0.0067052143934041844 0 0.0073152289233889911 0.0065311931084450466 0 0.0071208472618654005 0.0065122063730613539 0 0.0071208472618654005 0.0065122063730613539 0 0.0070970059245251509 0.0063523602804423703 0 0.007273078121756176 0.0063485773867529988 0 0.0073152289233889911 0.0065311931084450466 0 0.0071208472618654005 0.0065122063730613539 0 0.007273078121756176 0.0063485773867529988 0 0.0071208472618654005 0.0065122063730613539 0 0.0069432463103628744 0.0064591490522125389 0 0.0070970059245251509 0.0063523602804423703 0 0.0071208472618654005 0.0065122063730613539 0 0.0069432463103628744 0.0064591490522125389 0 0.0069165306982306883 0.0066494987150948395 0 0.0071684639155607252 0.0067052143934041844 0 0.0071208472618654005 0.0065122063730613539 0 0.0069165306982306883 0.0066494987150948395 0 0.0069432463103628744 0.0064591490522125389 0 0.0069165306982306883 0.0066494987150948395 0 0.0067314782114670001 0.0065219633479234188 0 0.0069165306982306883 0.0066494987150948395 0 0.0067109346677992456 0.0066856145151607043 0 0.0067314782114670001 0.0065219633479234188 0 0.0069432463103628744 0.0064591490522125389 0 0.0067314782114670001 0.0065219633479234188 0 0.00672582743163864 0.0063043820859911941 0 0.0069432463103628744 0.0064591490522125389 0 0.0069656725850581374 0.0062156507489357091 0 0.00672582743163864 0.0063043820859911941 0 0.0067716147240774269 0.0060393114651414326 0 0.0069656725850581374 0.0062156507489357091 0 0.00672582743163864 0.0063043820859911941 0 0.0067716147240774269 0.0060393114651414326 0 0.0069656725850581374 0.0062156507489357091 0 0.0070056594272497894 0.0059793491041595162 0 0.0069656725850581374 0.0062156507489357091 0 0.0071851582580326123 0.0061577870846930309 0 0.0070056594272497894 0.0059793491041595162 0 0.0069656725850581374 0.0062156507489357091 0 0.0070970059245251509 0.0063523602804423703 0 0.0071851582580326123 0.0061577870846930309 0 0.0069432463103628744 0.0064591490522125389 0 0.0069656725850581374 0.0062156507489357091 0 0.0070970059245251509 0.0063523602804423703 0 0.0070970059245251509 0.0063523602804423703 0 0.0071851582580326123 0.0061577870846930309 0 0.007273078121756176 0.0063485773867529988 0 0.0071851582580326123 0.0061577870846930309 0 0.0072612056263779041 0.0060353305515509804 0 0.0070056594272497894 0.0059793491041595162 0 0.0071851582580326123 0.0061577870846930309 0 0.0072612056263779041 0.0060353305515509804 0 0.0073774571430684621 0.0061970279684885792 0 0.0072612056263779041 0.0060353305515509804 0 0.0073774571430684621 0.0061970279684885792 0 0.0074412830318769281 0.0060671114698551696 0 0.0073774571430684621 0.0061970279684885792 0 0.007273078121756176 0.0063485773867529988 0 0.0074624100991311946 0.0063608815339130462 0 0.0071851582580326123 0.0061577870846930309 0 0.0073774571430684621 0.0061970279684885792 0 0.007273078121756176 0.0063485773867529988 0 0.0062098179554054269 0.0066468640749142698 0 0.0064470837995548253 0.0064453703683080626 0 0.0060625818343236311 0.0063551452659482031 0 0.0058389740197858277 0.0065681906864476424 0 0.0062098179554054269 0.0066468640749142698 0 0.0060625818343236311 0.0063551452659482031 0 0.0052349116697721241 0.0065397672244818456 0 0.0057581757811186749 0.0069798098902854201 0 0.0053617819477102657 0.0079857873474663884 0 0.0059038552162906282 0.0080038684137840634 0 0.0056305405105382513 0.0071117820562112506 0 0.0061325369782730243 0.0068813203637142911 0 0.0058389740197858277 0.0065681906864476424 0 0.0062098179554054269 0.0066468640749142698 0 0.0064366852705462149 0.0068359515278246076 0 0.0062098179554054269 0.0066468640749142698 0 0.0064982513205297443 0.0066737013261087578 0 0.0062098179554054269 0.0066468640749142698 0 0.0064982513205297443 0.0066737013261087578 0 0.0064470837995548253 0.0064453703683080626 0 0.0064982513205297443 0.0066737013261087578 0 0.0067109346677992456 0.0066856145151607043 0 0.0067314782114670001 0.0065219633479234188 0 0.0067314782114670001 0.0065219633479234188 0 0.0064470837995548253 0.0064453703683080626 0 0.00672582743163864 0.0063043820859911941 0 0.0064982513205297443 0.0066737013261087578 0 0.0067314782114670001 0.0065219633479234188 0 0.0064470837995548253 0.0064453703683080626 0 0.0064470837995548253 0.0064453703683080626 0 0.0064707566441200475 0.0061093348583182543 0 0.0060625818343236311 0.0063551452659482031 0 0.0064470837995548253 0.0064453703683080626 0 0.00672582743163864 0.0063043820859911941 0 0.0064707566441200475 0.0061093348583182543 0 0.0067716147240774269 0.0060393114651414326 0 0.00672582743163864 0.0063043820859911941 0 0.0064707566441200475 0.0061093348583182543 0 0.0053760606143618116 0.0062159153094043032 0 0.0061286754262904388 0.0059803508805311824 0 0.0056416132011526234 0.0057120820569252304 0 0.0053760606143618116 0.0062159153094043032 0 0.0061286754262904388 0.0059803508805311824 0 0.0060625818343236311 0.0063551452659482031 0 0.0064707566441200475 0.0061093348583182543 0 0.0061286754262904388 0.0059803508805311824 0 0.0060625818343236311 0.0063551452659482031 0 0.0053760606143618116 0.0062159153094043032 0 0.0058389740197858277 0.0065681906864476424 0 0.0060625818343236311 0.0063551452659482031 0 0.0056416132011526234 0.0057120820569252304 0 0.0065242959916795807 0.005519790939835195 0 0.005292462385077224 0.0050588137435197038 0 0.0061286754262904388 0.0059803508805311824 0 0.0056416132011526234 0.0057120820569252304 0 0.0065242959916795807 0.005519790939835195 0 0.0064707566441200475 0.0061093348583182543 0 0.0061286754262904388 0.0059803508805311824 0 0.0065242959916795807 0.005519790939835195 0 0.0067716147240774269 0.0060393114651414326 0 0.0064707566441200475 0.0061093348583182543 0 0.0065242959916795807 0.005519790939835195 0 0.0031668949241412262 0.018301722904271508 0 0.0041436641627240105 0.018721586904078592 0 0.0034681540441150738 0.018820899589438903 0 0.0030778847162991449 0.01826381150435687 0 0.0041993717949792893 0.018733661508916599 0 0.0032265507328860955 0.018324424994761508 0 0.0041993717949792893 0.018733661508916599 0 0.0039083725898530711 0.01817922963978438 0 0.0034681540441150738 0.018820899589438903 0 0.0030778847162991449 0.01826381150435687 0 0.0022605942649301883 0.018677515185257693 0 0.0050153232049299501 0.012181295298786015 0 0.0037548748643526845 0.011872904801152028 0 0.0072017593299389584 0.0058506812395738676 0 0.0074412830318769281 0.0060671114698551696 0 0.00760470298572737 0.0060576473621072125 0 0.0046701003912565566 0.0189447315789214 0 0.0052656771176336102 0.018799445033340977 0 0.0051014995415962537 0.018633172877025921 0 0.0046701003912565566 0.0189447315789214 0 0.004633459087858483 0.018511410494098414 0 0.0051014995415962537 0.018633172877025921 0 0.0072612056263779041 0.0060353305515509804 0 0.0072017593299389584 0.0058506812395738676 0 0.0074412830318769281 0.0060671114698551696 0 0.0072612056263779041 0.0060353305515509804 0 0.0072017593299389584 0.0058506812395738676 0 0.0070056594272497894 0.0059793491041595162 0 0.0046701003912565566 0.0189447315789214 0 0.0041993717949792893 0.018733661508916599 0 0.004633459087858483 0.018511410494098414 0 0.0034681540441150738 0.018820899589438903 0 0.0046701003912565566 0.0189447315789214 0 0.0041993717949792893 0.018733661508916599 0 0.0065242959916795807 0.005519790939835195 0 0.0072017593299389584 0.0058506812395738676 0 0.0070056594272497894 0.0059793491041595162 0 0.0067716147240774269 0.0060393114651414326 0 0.0065242959916795807 0.005519790939835195 0 0.0070056594272497894 0.0059793491041595162 0 0.0050153232049299501 0.012181295298786015 0 0.0057606794621483355 0.012287784594580988 0 0.0041993717949792893 0.018733661508916599 0 0.0039083725898530711 0.01817922963978438 0 0.0043203781567422413 0.018378637417351771 0 0.0039083725898530711 0.01817922963978438 0 0.0043203781567422413 0.018378637417351771 0 0.0045455695771413427 0.018094386086482034 0 0.0041993717949792893 0.018733661508916599 0 0.0043203781567422413 0.018378637417351771 0 0.004633459087858483 0.018511410494098414 0 0.0043203781567422413 0.018378637417351771 0 0.004633459087858483 0.018511410494098414 0 0.0045455695771413427 0.018094386086482034 0 0.004633459087858483 0.018511410494098414 0 0.005055760707305742 0.018217108290899214 0 0.0045455695771413427 0.018094386086482034 0 0.004633459087858483 0.018511410494098414 0 0.005055760707305742 0.018217108290899214 0 0.0051014995415962537 0.018633172877025921 0 0.0048635120600643124 0.017802523855719277 0 0.0048767441390767515 0.017363645330578253 0 0.0054001750733228175 0.017775501465790947 0 0.005055760707305742 0.018217108290899214 0 0.0048635120600643124 0.017802523855719277 0 0.0045455695771413427 0.018094386086482034 0 0.0048635120600643124 0.017802523855719277 0 0.0045455695771413427 0.018094386086482034 0 0.0042859091739293718 0.0175868431975079 0 0.0048635120600643124 0.017802523855719277 0 0.0042859091739293718 0.0175868431975079 0 0.0048767441390767515 0.017363645330578253 0 0.0039083725898530711 0.01817922963978438 0 0.0045455695771413427 0.018094386086482034 0 0.0042859091739293718 0.0175868431975079 0 0.0039083725898530711 0.01817922963978438 0 0.0042859091739293718 0.0175868431975079 0 0.0035990247430968897 0.01784919761244624 0 0.0040773492038662824 0.017160503495463556 0 0.0042859091739293718 0.0175868431975079 0 0.0036490026263561234 0.017389827702650334 0 0.0040773492038662824 0.017160503495463556 0 0.0042859091739293718 0.0175868431975079 0 0.0044776257790742433 0.016833020762451332 0 0.0040773492038662824 0.017160503495463556 0 0.0036490026263561234 0.017389827702650334 0 0.0038917719903653948 0.01683206764023092 0 0.0048767441390767515 0.017363645330578253 0 0.0052279149626967367 0.016905797751534828 0 0.0045228251370969105 0.01682967160363023 0 0.0042859091739293718 0.0175868431975079 0 0.0048767441390767515 0.017363645330578253 0 0.0044776257790742433 0.016833020762451332 0 0.0048348430480230596 0.017306189524062005 0 0.0045098005817509395 0.016840412155269716 0 0.0032265507328860955 0.018324424994761508 0 0.0029997897206979337 0.017668887047117724 0 0.0021689121439240427 0.017898861651876843 0 0.0031668949241412262 0.018301722904271508 0 0.0020660398333820764 0.017874556614013295 0 0.0032265507328860955 0.018324424994761508 0 0.0039083725898530711 0.01817922963978438 0 0.0035990247430968897 0.01784919761244624 0 0.0029997897206979337 0.017668887047117724 0 0.0035990247430968897 0.01784919761244624 0 0.0036490026263561234 0.017389827702650334 0 0.0042859091739293718 0.0175868431975079 0 0.0035990247430968897 0.01784919761244624 0 0.0036490026263561234 0.017389827702650334 0 0.0032265507328860955 0.018324424994761508 0 0.0029997897206979337 0.017668887047117724 0 0.0035990247430968897 0.01784919761244624 0 0.0036490026263561234 0.017389827702650334 0 0.0029559972683990488 0.017144101302801338 0 0.0034267626798987309 0.016956789942246104 0 0.0036490026263561234 0.017389827702650334 0 0.0034267626798987309 0.016956789942246104 0 0.0038917719903653948 0.01683206764023092 0 0.0029997897206979337 0.017668887047117724 0 0.0036490026263561234 0.017389827702650334 0 0.0029559972683990488 0.017144101302801338 0 0.0029997897206979337 0.017668887047117724 0 0.0029559972683990488 0.017144101302801338 0 0.0023716934414641537 0.0173408831385976 0 0.0023716934414641537 0.0173408831385976 0 0.0021689121439240427 0.017898861651876843 0 0.0017067783008436967 0.017297610654400091 0 0.0023716934414641537 0.0173408831385976 0 0.0017067783008436967 0.017297610654400091 0 0.0019949529502809524 0.01666017117979169 0 0.0029997897206979337 0.017668887047117724 0 0.0023716934414641537 0.0173408831385976 0 0.0021689121439240427 0.017898861651876843 0 0.0019939770649218835 0.017858138135400079 0 0.0010768498250559402 0.018024089092500226 0 0.0011371916362178365 0.018552108009573659 0 0.0019939770649218835 0.017858138135400079 0 0.0010115171110579111 0.017472799833432417 0 0.0010768498250559402 0.018024089092500226 0 0.0020660398333820764 0.017874556614013295 0 0.0010686798862977478 0.017477551688096116 0 0.0021689121439240427 0.017898861651876843 0 0.0017067783008436967 0.017297610654400091 0 0.0010115171110579111 0.017472799833432417 0 0.0017067783008436967 0.017297610654400091 0 0.0010115171110579111 0.017472799833432417 0 0.00092752124811174182 0.017079250379554479 0 0.0010115171110579111 0.017472799833432417 0 0.00051779054058038239 0.017654559873269391 0 0.00092752124811174182 0.017079250379554479 0 0.00075573388797496371 0.017759708723289729 0 0.00051779054058038239 0.017654559873269391 0 0.00051462141422880571 0.017986287665101214 0 0.0010115171110579111 0.017472799833432417 0 0.00075573388797496371 0.017759708723289729 0 0.00051779054058038239 0.017654559873269391 0 0.0010115171110579111 0.017472799833432417 0 0.00075573388797496371 0.017759708723289729 0 0.0010768498250559402 0.018024089092500226 0 3.0629517393456964e-05 0.01772661689381292 0 0.00051779054058038239 0.017654559873269391 0 0.00092752124811174182 0.017079250379554479 0 0.00010468462445355947 0.017696482371596576 0 0.00075641885711713499 0.01747379355036504 0 0.00051779054058038239 0.017654559873269391 0 9.2231232035541936e-05 0.017937594902125081 0 0.00051462141422880571 0.017986287665101214 0 3.0629517393456964e-05 0.01772661689381292 0 0.00051779054058038239 0.017654559873269391 0 9.2231232035541936e-05 0.017937594902125081 0 9.2231232035541936e-05 0.017937594902125081 0 0.00051462141422880571 0.017986287665101214 0 9.7944236609693003e-05 0.01841667864428783 0 0.00051462141422880571 0.017986287665101214 0 0.0011371916362178365 0.018552108009573659 0 9.7944236609693003e-05 0.01841667864428783 0 0.00051462141422880571 0.017986287665101214 0 0.0010768498250559402 0.018024089092500226 0 0.0011371916362178365 0.018552108009573659 0 0.00075573388797496371 0.017759708723289729 0 0.00051462141422880571 0.017986287665101214 0 0.0010768498250559402 0.018024089092500226 0 0.0023823199189107278 0.011651945931482909 0 0.0010497070014481712 0.01155181249022324 0 0.0036223242888819588 0.0047561595570768701 0 0.001979419225982831 0.0045956824857786224 0 0.002565512534228829 0.0057278523453043783 0 0.001979419225982831 0.0045956824857786224 0 0.002565512534228829 0.0057278523453043783 0 0.0014756066983083573 0.0059551390874010924 0 0.0019912555697215542 0.0065368470369756822 0 0.002565512534228829 0.0057278523453043783 0 0.0014756066983083573 0.0059551390874010924 0 0.0029601231498593852 0.0067348801670889325 0 0.002565512534228829 0.0057278523453043783 0 0.0034585494173104228 0.0058127845856168819 0 0.0036223242888819588 0.0047561595570768701 0 0.002565512534228829 0.0057278523453043783 0 0.0034585494173104228 0.0058127845856168819 0 0.0036223242888819588 0.0047561595570768701 0 0.004565616552662524 0.0059174093725981496 0 0.005292462385077224 0.0050588137435197038 0 0.0036223242888819588 0.0047561595570768701 0 0.0034585494173104228 0.0058127845856168819 0 0.004565616552662524 0.0059174093725981496 0 0.0056416132011526234 0.0057120820569252304 0 0.004565616552662524 0.0059174093725981496 0 0.005292462385077224 0.0050588137435197038 0 0.0053760606143618116 0.0062159153094043032 0 0.0056416132011526234 0.0057120820569252304 0 0.004565616552662524 0.0059174093725981496 0 0.0030778847162991449 0.01826381150435687 0 0.0019939770649218835 0.017858138135400079 0 0.0022605942649301883 0.018677515185257693 0 0.0019939770649218835 0.017858138135400079 0 0.0011371916362178365 0.018552108009573659 0 0.0022605942649301883 0.018677515185257693 0 0.0023823199189107278 0.011651945931482909 0 0.0037548748643526845 0.011872904801152028 0 0.010619363097573897 0.015557443651952309 0 0.010518445369135933 0.015528666449598477 0 0.010547450840351993 0.015506738977848728 0 0.010518445369135933 0.015528666449598477 0 0.010547450840351993 0.015506738977848728 0 0.010477519977739465 0.015483235320511881 0 0.010619363097573897 0.015557443651952309 0 0.010611620331226567 0.015533332686157921 0 0.010547450840351993 0.015506738977848728 0 0.010611620331226567 0.015533332686157921 0 0.010547450840351993 0.015506738977848728 0 0.010555818709673545 0.015416522803571539 0 0.010547450840351993 0.015506738977848728 0 0.010477519977739465 0.015483235320511881 0 0.010496867500331171 0.015446307937203767 0 0.011149060785628419 0.01222576942506462 0 0.010584718534137953 0.010331250840555604 0 0.010518445369135933 0.015528666449598477 0 0.010477519977739465 0.015483235320511881 0 0.010431343711632178 0.015476958082155309 0 0.011423966135686327 0.0088720051821511107 0 0.011939332323295847 0.0084508749153518522 0 0.012500643194012883 0.0090513565234311907 0 0.010477519977739465 0.015483235320511881 0 0.010454091073910821 0.015436662197768838 0 0.010496867500331171 0.015446307937203767 0 0.010437559933138678 0.015462650251256774 0 0.010427593947142818 0.015435905718726882 0 0.010454091073910821 0.015436662197768838 0 0.010477519977739465 0.015483235320511881 0 0.010437559933138678 0.015462650251256774 0 0.010454091073910821 0.015436662197768838 0 0.010477519977739465 0.015483235320511881 0 0.010437559933138678 0.015462650251256774 0 0.010431343711632178 0.015476958082155309 0 0.010289808743195876 0.013332489246953605 0 0.010584718534137953 0.010331250840555604 0 0.011423966135686327 0.0088720051821511107 0 0.011939332323295847 0.0084508749153518522 0 0.011292240417256958 0.0079650981604861108 0 0.011939332323295847 0.0084508749153518522 0 0.012389767379603319 0.0081289282982378169 0 0.012500643194012883 0.0090513565234311907 0 0.011939332323295847 0.0084508749153518522 0 0.012389767379603319 0.0081289282982378169 0 0.012005529796966603 0.0078908753979277865 0 0.012389767379603319 0.0081289282982378169 0 0.012005529796966603 0.0078908753979277865 0 0.012317050504387715 0.0076405792509691003 0 0.011939332323295847 0.0084508749153518522 0 0.012005529796966603 0.0078908753979277865 0 0.011292240417256958 0.0079650981604861108 0 0.010891173653477297 0.010729396664969491 0 0.011149060785628419 0.01222576942506462 0 0.010350165168788625 0.0086866851211030473 0 0.011423966135686327 0.0088720051821511107 0 0.011292240417256958 0.0079650981604861108 0 0.010891173653477297 0.010729396664969491 0 0.01174139046948721 0.0076048135065607354 0 0.011348901972808819 0.0075777531553571946 0 0.011294261448428674 0.0080253552082755475 0 0.011801661919741377 0.0076213574503770712 0 0.011348901972808819 0.0075777531553571946 0 0.011801661919741377 0.0076213574503770712 0 0.011517204016825313 0.0073122993455157726 0 0.011801661919741377 0.0076213574503770712 0 0.011517204016825313 0.0073122993455157726 0 0.011848700528513827 0.0072206534518801145 0 0.011848700528513827 0.0072206534518801145 0 0.011540556043394139 0.0069704693566415045 0 0.012024906365376254 0.0068659375487809026 0 0.011517204016825313 0.0073122993455157726 0 0.011848700528513827 0.0072206534518801145 0 0.011540556043394139 0.0069704693566415045 0 0.01206583365031004 0.0063360649084302787 0 0.011463330728186951 0.0064834679999611995 0 0.012024906365376254 0.0068659375487809026 0 0.011540556043394139 0.0069704693566415045 0 0.011463330728186951 0.0064834679999611995 0 0.012024906365376254 0.0068659375487809026 0 0.012382425515946538 0.0063688420113601025 0 0.01206583365031004 0.0063360649084302787 0 0.012471182115820729 0.0067231661544708606 0 0.01206583365031004 0.0063360649084302787 0 0.012024906365376254 0.0068659375487809026 0 0.012471182115820729 0.0067231661544708606 0 0.012024906365376254 0.0068659375487809026 0 0.012379892943626927 0.0070257232514660461 0 0.012471182115820729 0.0067231661544708606 0 0.012272582690723807 0.0072730779397334301 0 0.012379892943626927 0.0070257232514660461 0 0.01266449183274093 0.0072852344981223852 0 0.012024906365376254 0.0068659375487809026 0 0.012272582690723807 0.0072730779397334301 0 0.012379892943626927 0.0070257232514660461 0 0.011848700528513827 0.0072206534518801145 0 0.012024906365376254 0.0068659375487809026 0 0.012272582690723807 0.0072730779397334301 0 0.012005529796966603 0.0078908753979277865 0 0.011292240417256958 0.0079650981604861108 0 0.012272582690723807 0.0072730779397334301 0 0.011801661919741377 0.0076213574503770712 0 0.011848700528513827 0.0072206534518801145 0 0.012272582690723807 0.0072730779397334301 0 0.01174139046948721 0.0076048135065607354 0 0.012122234835718042 0.0073810990850100037 0 0.012005529796966603 0.0078908753979277865 0 0.012272582690723807 0.0072730779397334301 0 0.012317050504387715 0.0076405792509691003 0 0.012272582690723807 0.0072730779397334301 0 0.012317050504387715 0.0076405792509691003 0 0.01266449183274093 0.0072852344981223852 0 0.012389767379603319 0.0081289282982378169 0 0.012317050504387715 0.0076405792509691003 0 0.01266449183274093 0.0072852344981223852 0 0.0090877021133323969 0.0067426163179113343 0 0.0090537252895157936 0.0069116844501621554 0 0.0089185944212900985 0.0068264895892364615 0 0.0092258253890884837 0.0068727843124903347 0 0.0090877021133323969 0.0067426163179113343 0 0.0090537252895157936 0.0069116844501621554 0 0.0090537252895157936 0.0069116844501621554 0 0.0090872209311493 0.0071000975877287117 0 0.0089420687153982884 0.0070111227610275342 0 0.0092258253890884837 0.0068727843124903347 0 0.0090537252895157936 0.0069116844501621554 0 0.0090872209311493 0.0071000975877287117 0 0.012379892943626927 0.0070257232514660461 0 0.01266449183274093 0.0072852344981223852 0 0.012471182115820729 0.0067231661544708606 0 0.0091629501692673757 0.0073497791331086481 0 0.0092258253890884837 0.0068727843124903347 0 0.0090872209311493 0.0071000975877287117 0 0.012696863998920319 0.0062345850089309471 0 0.01266449183274093 0.0072852344981223852 0 0.012471182115820729 0.0067231661544708606 0 0.010517898326310397 0.0060988635458221951 0 0.011062167556383876 0.0066692582431784331 0 0.010517898326310397 0.0060988635458221951 0 0.0092082543539171932 0.0066036416619066939 0 0.0091629501692673757 0.0073497791331086481 0 0.0090872209311493 0.0071000975877287117 0 0.0089593676015891893 0.0071618391791331056 0 0.012696863998920319 0.0062345850089309471 0 0.012382425515946538 0.0063688420113601025 0 0.012471182115820729 0.0067231661544708606 0 0.008929063780166481 0.0060886674866406972 0 0.0092082543539171932 0.0066036416619066939 0 0.0084696797092983171 0.007285954553535411 0 0.0088236574825287135 0.0071108026008281948 0 0.0086110117226209249 0.0069202558516238905 0 0.0090872209311493 0.0071000975877287117 0 0.0089280901711826163 0.0071882874499158119 0 0.0089420687153982884 0.0070111227610275342 0 0.0089499163835223168 0.0069535556197150641 0 0.0092082543539171932 0.0066036416619066939 0 0.0089280901711826163 0.0071882874499158119 0 0.0089420687153982884 0.0070111227610275342 0 0.008682927482803535 0.0069833587012822045 0 0.0092082543539171932 0.0066036416619066939 0 0.008669077744225942 0.0069477961985067909 0 0.0089185944212900985 0.0068264895892364615 0 0.0086928208659399469 0.0066294287197071677 0 0.008682927482803535 0.0069833587012822045 0 0.0089420687153982884 0.0070111227610275342 0 0.0089185944212900985 0.0068264895892364615 0 0.008682927482803535 0.0069833587012822045 0 0.0090537252895157936 0.0069116844501621554 0 0.0089420687153982884 0.0070111227610275342 0 0.0089185944212900985 0.0068264895892364615 0 0.0086928208659399469 0.0066294287197071677 0 0.0089744278468778197 0.0065769536573169135 0 0.0087973656842873851 0.0062417499367893505 0 0.0089185944212900985 0.0068264895892364615 0 0.0086928208659399469 0.0066294287197071677 0 0.0089744278468778197 0.0065769536573169135 0 0.0090877021133323969 0.0067426163179113343 0 0.0089185944212900985 0.0068264895892364615 0 0.0089744278468778197 0.0065769536573169135 0 0.0092258253890884837 0.0068727843124903347 0 0.0090877021133323969 0.0067426163179113343 0 0.0093098661604873612 0.006364995313777458 0 0.012389767379603319 0.0081289282982378169 0 0.01266449183274093 0.0072852344981223852 0 0.012500643194012883 0.0090513565234311907 0 0.0090877021133323969 0.0067426163179113343 0 0.0089744278468778197 0.0065769536573169135 0 0.0093098661604873612 0.006364995313777458 0 0.011062167556383876 0.0066692582431784331 0 0.010584718534137953 0.010331250840555604 0 0.010584718534137953 0.010331250840555604 0 0.0093494625600380778 0.010948696282787794 0 0.0089744278468778197 0.0065769536573169135 0 0.0093098661604873612 0.006364995313777458 0 0.0087973656842873851 0.0062417499367893505 0 0.010440671649430761 0.015474745212951864 0 0.010283357251265151 0.015490141762619071 0 0.010383982746730455 0.015437720845463791 0 0.010437559933138678 0.015462650251256774 0 0.010383982746730455 0.015437720845463791 0 0.010427593947142818 0.015435905718726882 0 0.010437559933138678 0.015462650251256774 0 0.010440671649430761 0.015474745212951864 0 0.010383982746730455 0.015437720845463791 0 0.0087973656842873851 0.0062417499367893505 0 0.0082657708632693557 0.0061299626911422139 0 0.0083666340892753297 0.0064324238587717053 0 0.0093494625600380778 0.010948696282787794 0 0.0093873499862225252 0.010525150412191646 0 0.0082657708632693557 0.0061299626911422139 0 0.0083666340892753297 0.0064324238587717053 0 0.0079889749068879357 0.0062232288574357551 0 0.0080768258543174008 0.0065488240017788375 0 0.0083666340892753297 0.0064324238587717053 0 0.008416835993770376 0.0067447665232743884 0 0.0080768258543174008 0.0065488240017788375 0 0.0083666340892753297 0.0064324238587717053 0 0.0079889749068879357 0.0062232288574357551 0 0.0086928208659399469 0.0066294287197071677 0 0.0087973656842873851 0.0062417499367893505 0 0.0083666340892753297 0.0064324238587717053 0 0.0086928208659399469 0.0066294287197071677 0 0.0083666340892753297 0.0064324238587717053 0 0.008416835993770376 0.0067447665232743884 0 0.008416835993770376 0.0067447665232743884 0 0.0086110117226209249 0.0069202558516238905 0 0.0083254248528719533 0.0070003104101351897 0 0.0086928208659399469 0.0066294287197071677 0 0.008416835993770376 0.0067447665232743884 0 0.008682927482803535 0.0069833587012822045 0 0.0084445948713932715 0.0067664175375278185 0 0.008669077744225942 0.0069477961985067909 0 0.0084696797092983171 0.007285954553535411 0 0.0081998401526578897 0.0072153707165697762 0 0.0083254248528719533 0.0070003104101351897 0 0.0084696797092983171 0.007285954553535411 0 0.0086110117226209249 0.0069202558516238905 0 0.0083254248528719533 0.0070003104101351897 0 0.0081998401526578897 0.0072153707165697762 0 0.0083254248528719533 0.0070003104101351897 0 0.0080215685797897941 0.0070286172484360565 0 0.0083254248528719533 0.0070003104101351897 0 0.0081702617434637609 0.0068237429817692031 0 0.0080215685797897941 0.0070286172484360565 0 0.0080768258543174008 0.0065488240017788375 0 0.008416835993770376 0.0067447665232743884 0 0.0081702617434637609 0.0068237429817692031 0 0.0081702617434637609 0.0068237429817692031 0 0.0079504000659989631 0.0067839872356364557 0 0.0080215685797897941 0.0070286172484360565 0 0.008416835993770376 0.0067447665232743884 0 0.0083254248528719533 0.0070003104101351897 0 0.0081702617434637609 0.0068237429817692031 0 0.0080768258543174008 0.0065488240017788375 0 0.0081702617434637609 0.0068237429817692031 0 0.0079504000659989631 0.0067839872356364557 0 0.0079504000659989631 0.0067839872356364557 0 0.0076442152177958076 0.0070260827899908153 0 0.0076807501262084205 0.0066998986917820597 0 0.0079504000659989631 0.0067839872356364557 0 0.0076807501262084205 0.0066998986917820597 0 0.0077926043691248234 0.0065442603175236824 0 0.0079504000659989631 0.0067839872356364557 0 0.0080215685797897941 0.0070286172484360565 0 0.0076442152177958076 0.0070260827899908153 0 0.0078247763542748493 0.0073051627450893162 0 0.0080215685797897941 0.0070286172484360565 0 0.0076442152177958076 0.0070260827899908153 0 0.0078247763542748493 0.0073051627450893162 0 0.0081998401526578897 0.0072153707165697762 0 0.0080215685797897941 0.0070286172484360565 0 0.0071043097176907389 0.0069529637976924116 0 0.0076442152177958076 0.0070260827899908153 0 0.0074335362350411551 0.0067682817840410527 0 0.0076442152177958076 0.0070260827899908153 0 0.0076807501262084205 0.0066998986917820597 0 0.0074335362350411551 0.0067682817840410527 0 0.0076807501262084205 0.0066998986917820597 0 0.0074335362350411551 0.0067682817840410527 0 0.0075587135199291977 0.0065399331646968728 0 0.0073152289233889911 0.0065311931084450466 0 0.0074335362350411551 0.0067682817840410527 0 0.0075587135199291977 0.0065399331646968728 0 0.0073152289233889911 0.0065311931084450466 0 0.0075587135199291977 0.0065399331646968728 0 0.0074624100991311946 0.0063608815339130462 0 0.0075587135199291977 0.0065399331646968728 0 0.0074624100991311946 0.0063608815339130462 0 0.0076510544381948632 0.0063543523547415059 0 0.0075587135199291977 0.0065399331646968728 0 0.0077926043691248234 0.0065442603175236824 0 0.0076510544381948632 0.0063543523547415059 0 0.0076807501262084205 0.0066998986917820597 0 0.0075587135199291977 0.0065399331646968728 0 0.0077926043691248234 0.0065442603175236824 0 0.0080768258543174008 0.0065488240017788375 0 0.0079504000659989631 0.0067839872356364557 0 0.0077926043691248234 0.0065442603175236824 0 0.0080768258543174008 0.0065488240017788375 0 0.0077926043691248234 0.0065442603175236824 0 0.0078386544297570498 0.0063389073571479063 0 0.0077926043691248234 0.0065442603175236824 0 0.0078386544297570498 0.0063389073571479063 0 0.0076510544381948632 0.0063543523547415059 0 0.0082657708632693557 0.0061299626911422139 0 0.0079889749068879357 0.0062232288574357551 0 0.0077501250403166373 0.0060360518833535203 0 0.0080768258543174008 0.0065488240017788375 0 0.0078386544297570498 0.0063389073571479063 0 0.0079889749068879357 0.0062232288574357551 0 0.0078386544297570498 0.0063389073571479063 0 0.0078181081862115521 0.0061952986800709728 0 0.0077007761274466143 0.0062067582718638263 0 0.0078386544297570498 0.0063389073571479063 0 0.0077007761274466143 0.0062067582718638263 0 0.0076510544381948632 0.0063543523547415059 0 0.0078386544297570498 0.0063389073571479063 0 0.0079889749068879357 0.0062232288574357551 0 0.0078181081862115521 0.0061952986800709728 0 0.0079889749068879357 0.0062232288574357551 0 0.0077564553168828565 0.0060606776125459753 0 0.0077501250403166373 0.0060360518833535203 0 0.0079889749068879357 0.0062232288574357551 0 0.0078181081862115521 0.0061952986800709728 0 0.0077564553168828565 0.0060606776125459753 0 0.0078181081862115521 0.0061952986800709728 0 0.0077271484347198292 0.0061376933656776952 0 0.0077007761274466143 0.0062067582718638263 0 0.0077271484347198292 0.0061376933656776952 0 0.0077107102886904396 0.0060878446224954365 0 0.0077564553168828565 0.0060606776125459753 0 0.0078181081862115521 0.0061952986800709728 0 0.0077271484347198292 0.0061376933656776952 0 0.0077564553168828565 0.0060606776125459753 0 0.0077271484347198292 0.0061376933656776952 0 0.0076630261592906422 0.0061209058096210727 0 0.0077007761274466143 0.0062067582718638263 0 0.0077271484347198292 0.0061376933656776952 0 0.0076630261592906422 0.0061209058096210727 0 0.0077107102886904396 0.0060878446224954365 0 0.0076630261592906422 0.0061209058096210727 0 0.0076812124446267128 0.0060591065323186543 0 0.0077107102886904396 0.0060878446224954365 0 0.0076630261592906422 0.0061209058096210727 0 0.0077007761274466143 0.0062067582718638263 0 0.0075531527813245168 0.006179780745161647 0 0.0076630261592906422 0.0061209058096210727 0 0.0075531527813245168 0.006179780745161647 0 0.00760470298572737 0.0060576473621072125 0 0.0073774571430684621 0.0061970279684885792 0 0.0074412830318769281 0.0060671114698551696 0 0.0075531527813245168 0.006179780745161647 0 0.0074412830318769281 0.0060671114698551696 0 0.0075531527813245168 0.006179780745161647 0 0.00760470298572737 0.0060576473621072125 0 0.0073774571430684621 0.0061970279684885792 0 0.0074624100991311946 0.0063608815339130462 0 0.0075531527813245168 0.006179780745161647 0 0.0074624100991311946 0.0063608815339130462 0 0.0075531527813245168 0.006179780745161647 0 0.0076510544381948632 0.0063543523547415059 0 0.0077007761274466143 0.0062067582718638263 0 0.0075531527813245168 0.006179780745161647 0 0.0076510544381948632 0.0063543523547415059 0 0.0057606794621483355 0.012287784594580988 0 0.0073972974672147683 0.013204380130939466 0 0.0072017593299389584 0.0058506812395738676 0 0.00760470298572737 0.0060576473621072125 0 0.0077517314517995721 0.0060384228268077281 0 0.0046701003912565566 0.0189447315789214 0 0.0052656771176336102 0.018799445033340977 0 0.0057019944197578077 0.019043711198286808 0 0.0073972974672147683 0.013204380130939466 0 0.0081241631599903389 0.01724689937908571 0 0.0052656771176336102 0.018799445033340977 0 0.0057019944197578077 0.019043711198286808 0 0.0055907733588793111 0.018574777789971297 0 0.0052656771176336102 0.018799445033340977 0 0.0055907733588793111 0.018574777789971297 0 0.0051014995415962537 0.018633172877025921 0 0.00760470298572737 0.0060576473621072125 0 0.0076812124446267128 0.0060591065323186543 0 0.0077517314517995721 0.0060384228268077281 0 0.0076630261592906422 0.0061209058096210727 0 0.00760470298572737 0.0060576473621072125 0 0.0076812124446267128 0.0060591065323186543 0 0.0076812124446267128 0.0060591065323186543 0 0.0077244401476653027 0.0060612589158573213 0 0.0077517314517995721 0.0060384228268077281 0 0.0076812124446267128 0.0060591065323186543 0 0.0077107102886904396 0.0060878446224954365 0 0.0077244401476653027 0.0060612589158573213 0 0.0099957802058485926 0.015466797392792019 0 0.0096044260003748123 0.015422024952024273 0 0.0097692361428548813 0.015337429488021049 0 0.0093873499862225252 0.010525150412191646 0 0.0073972974672147683 0.013204380130939466 0 0.0077107102886904396 0.0060878446224954365 0 0.0077244401476653027 0.0060612589158573213 0 0.0077564553168828565 0.0060606776125459753 0 0.0097692361428548813 0.015337429488021049 0 0.0095592572501946443 0.015223666196204121 0 0.0099074094277602723 0.015227093165586758 0 0.0077244401476653027 0.0060612589158573213 0 0.0077564553168828565 0.0060606776125459753 0 0.0077517314517995721 0.0060384228268077281 0 0.0073191134878119934 0.012651451268287532 0 0.0073972974672147683 0.013204380130939466 0 0.0096044260003748123 0.015422024952024273 0 0.0097692361428548813 0.015337429488021049 0 0.0095592572501946443 0.015223666196204121 0 0.010462599751286689 0.015571725640590128 0 0.010473539240368528 0.015567514653838677 0 0.010476659385644358 0.015544370852046142 0 0.0081241631599903389 0.01724689937908571 0 0.010586812149104523 0.015231259575323845 0 0.010462599751286689 0.015571725640590128 0 0.010474752788121164 0.015588371831071925 0 0.010473539240368528 0.015567514653838677 0 0.005055760707305742 0.018217108290899214 0 0.005583167650386309 0.01861136435602433 0 0.0054001750733228175 0.017775501465790947 0 0.0081241631599903389 0.01724689937908571 0 0.007908375178292194 0.016648451147018906 0 0.0081241631599903389 0.01724689937908571 0 0.0045675519238709298 0.018415843738914715 0 0.005055760707305742 0.018217108290899214 0 0.005583167650386309 0.01861136435602433 0 0.0051014995415962537 0.018633172877025921 0 0.005055760707305742 0.018217108290899214 0 0.0048635120600643124 0.017802523855719277 0 0.0054001750733228175 0.017775501465790947 0 0.007908375178292194 0.016648451147018906 0 0.0079966728364439989 0.016252962553907187 0 0.0048767441390767515 0.017363645330578253 0 0.0054001750733228175 0.017775501465790947 0 0.0052279149626967367 0.016905797751534828 0 0.010474752788121164 0.015588371831071925 0 0.010471746001982682 0.015618147070023158 0 0.010466662817504614 0.015636826730740672 0 0.010474752788121164 0.015588371831071925 0 0.010471746001982682 0.015618147070023158 0 0.010475159459876867 0.015587015205237115 0 0.010471746001982682 0.015618147070023158 0 0.010475159459876867 0.015587015205237115 0 0.010476930645507527 0.015613573722862175 0 0.010474752788121164 0.015588371831071925 0 0.010475159459876867 0.015587015205237115 0 0.010473539240368528 0.015567514653838677 0 0.010475159459876867 0.015587015205237115 0 0.010473539240368528 0.015567514653838677 0 0.010476958292826891 0.015559140473959706 0 0.010476958292826891 0.015559140473959706 0 0.010478054697026154 0.015575921989750838 0 0.010477888107998771 0.015532356335536172 0 0.010475159459876867 0.015587015205237115 0 0.010476958292826891 0.015559140473959706 0 0.010478054697026154 0.015575921989750838 0 0.010475159459876867 0.015587015205237115 0 0.010478054697026154 0.015575921989750838 0 0.010476930645507527 0.015613573722862175 0 0.010478054697026154 0.015575921989750838 0 0.010476930645507527 0.015613573722862175 0 0.010476458302263455 0.015608391021085324 0 0.010470929094957126 0.015560219557842597 0 0.010462249312298281 0.015606093060450594 0 0.010476458302263455 0.015608391021085324 0 0.010478054697026154 0.015575921989750838 0 0.010470929094957126 0.015560219557842597 0 0.010476458302263455 0.015608391021085324 0 0.010470929094957126 0.015560219557842597 0 0.010477888107998771 0.015532356335536172 0 0.010461660674652507 0.015494844708839571 0 0.010478054697026154 0.015575921989750838 0 0.010470929094957126 0.015560219557842597 0 0.010477888107998771 0.015532356335536172 0 0.010477888107998771 0.015532356335536172 0 0.010475345655629327 0.015483548108701521 0 0.010461660674652507 0.015494844708839571 0 0.010242296158562293 0.015395496061082153 0 0.010586812149104523 0.015231259575323845 0 0.010477888107998771 0.015532356335536172 0 0.010475345655629327 0.015483548108701521 0 0.010476659385644358 0.015544370852046142 0 0.010476958292826891 0.015559140473959706 0 0.010477888107998771 0.015532356335536172 0 0.010476659385644358 0.015544370852046142 0 0.010473539240368528 0.015567514653838677 0 0.010476958292826891 0.015559140473959706 0 0.010476659385644358 0.015544370852046142 0 0.0099957802058485926 0.015466797392792019 0 0.010206157654974925 0.01527709279046302 0 0.0099074094277602723 0.015227093165586758 0 0.0099957802058485926 0.015466797392792019 0 0.0097692361428548813 0.015337429488021049 0 0.0099074094277602723 0.015227093165586758 0 0.010283357251265151 0.015490141762619071 0 0.0099957802058485926 0.015466797392792019 0 0.010206157654974925 0.01527709279046302 0 0.010206157654974925 0.01527709279046302 0 0.010383982746730455 0.015437720845463791 0 0.010408600495441747 0.015378109780054964 0 0.010283357251265151 0.015490141762619071 0 0.010206157654974925 0.01527709279046302 0 0.010383982746730455 0.015437720845463791 0 0.010383982746730455 0.015437720845463791 0 0.01043193688322441 0.015405123381897212 0 0.010408600495441747 0.015378109780054964 0 0.010383982746730455 0.015437720845463791 0 0.010427593947142818 0.015435905718726882 0 0.01043193688322441 0.015405123381897212 0 0.010408600495441747 0.015378109780054964 0 0.010441200379522775 0.015464561046842415 0 0.010438652139999165 0.015380545447825607 0 0.01043193688322441 0.015405123381897212 0 0.010408600495441747 0.015378109780054964 0 0.010438652139999165 0.015380545447825607 0 0.010475345655629327 0.015483548108701521 0 0.010408600495441747 0.015378109780054964 0 0.010461660674652507 0.015494844708839571 0 0.010242296158562293 0.015395496061082153 0 0.010425874164447969 0.015375446682415597 0 0.010408600495441747 0.015378109780054964 0 0.010461660674652507 0.015494844708839571 0 0.010441200379522775 0.015464561046842415 0 0.010461660674652507 0.015494844708839571 0 0.01045072047614248 0.015538988367068426 0 0.010441200379522775 0.015464561046842415 0 0.010470929094957126 0.015560219557842597 0 0.010461660674652507 0.015494844708839571 0 0.01045072047614248 0.015538988367068426 0 0.010470929094957126 0.015560219557842597 0 0.01045072047614248 0.015538988367068426 0 0.010462249312298281 0.015606093060450594 0 0.01045072047614248 0.015538988367068426 0 0.010433540634088074 0.015591173697146391 0 0.01042253818599146 0.015624704592929204 0 0.01045072047614248 0.015538988367068426 0 0.010454965897854733 0.015450176398455407 0 0.010433540634088074 0.015591173697146391 0 0.01045072047614248 0.015538988367068426 0 0.010441200379522775 0.015464561046842415 0 0.010454965897854733 0.015450176398455407 0 0.010441200379522775 0.015464561046842415 0 0.010454965897854733 0.015450176398455407 0 0.010438652139999165 0.015380545447825607 0 0.010454965897854733 0.015450176398455407 0 0.010479386687259862 0.015466493433815145 0 0.01047406180039813 0.015327391369778518 0 0.010454965897854733 0.015450176398455407 0 0.01047406180039813 0.015327391369778518 0 0.010438652139999165 0.015380545447825607 0 0.010454965897854733 0.015450176398455407 0 0.010433540634088074 0.015591173697146391 0 0.010479386687259862 0.015466493433815145 0 0.010416262781844788 0.015582940066425067 0 0.010479386687259862 0.015466493433815145 0 0.01043269615925525 0.015656630965760292 0 0.010433540634088074 0.015591173697146391 0 0.010479386687259862 0.015466493433815145 0 0.01043269615925525 0.015656630965760292 0 0.010416262781844788 0.015582940066425067 0 0.010479386687259862 0.015466493433815145 0 0.01047154289484027 0.015218591893874218 0 0.010479386687259862 0.015466493433815145 0 0.01047154289484027 0.015218591893874218 0 0.01047406180039813 0.015327391369778518 0 0.010544974652000983 0.015291687222099932 0 0.01047406180039813 0.015327391369778518 0 0.010475412364777259 0.015383494080175577 0 0.01047154289484027 0.015218591893874218 0 0.010544974652000983 0.015291687222099932 0 0.01047406180039813 0.015327391369778518 0 0.01047406180039813 0.015327391369778518 0 0.010438652139999165 0.015380545447825607 0 0.010475412364777259 0.015383494080175577 0 0.01043193688322441 0.015405123381897212 0 0.010438652139999165 0.015380545447825607 0 0.010475412364777259 0.015383494080175577 0 0.01043193688322441 0.015405123381897212 0 0.010475412364777259 0.015383494080175577 0 0.010454091073910821 0.015436662197768838 0 0.010427593947142818 0.015435905718726882 0 0.01043193688322441 0.015405123381897212 0 0.010454091073910821 0.015436662197768838 0 0.010475412364777259 0.015383494080175577 0 0.010454091073910821 0.015436662197768838 0 0.010496867500331171 0.015446307937203767 0 0.010547450840351993 0.015506738977848728 0 0.010496867500331171 0.015446307937203767 0 0.010555818709673545 0.015416522803571539 0 0.010475412364777259 0.015383494080175577 0 0.010496867500331171 0.015446307937203767 0 0.010555818709673545 0.015416522803571539 0 0.010673119768208981 0.015448959670684157 0 0.010611620331226567 0.015533332686157921 0 0.010555818709673545 0.015416522803571539 0 0.010544974652000983 0.015291687222099932 0 0.010475412364777259 0.015383494080175577 0 0.010555818709673545 0.015416522803571539 0 0.0094912547990426959 0.016458692956899251 0 0.0090269755521767622 0.016604933390177719 0 0.0098148876202283422 0.016150308412240771 0 0.010160666030744819 0.0161956860692032 0 0.010058689744690218 0.015988276883442818 0 0.0095199436635332209 0.016440062990996665 0 0.0098148876202283422 0.016150308412240771 0 0.010160666030744819 0.0161956860692032 0 0.010160666030744819 0.0161956860692032 0 0.010269622846756964 0.015865598656971621 0 0.010058689744690218 0.015988276883442818 0 0.010269622846756964 0.015865598656971621 0 0.010058689744690218 0.015988276883442818 0 0.009954275429160683 0.015772563082228252 0 0.0095404827149808968 0.016063122023512823 0 0.0098148876202283422 0.016150308412240771 0 0.009954275429160683 0.015772563082228252 0 0.0098148876202283422 0.016150308412240771 0 0.010058689744690218 0.015988276883442818 0 0.009954275429160683 0.015772563082228252 0 0.010416485071825989 0.01577632410190009 0 0.010425806386841058 0.015779970051487145 0 0.010414940160572908 0.015710030979722095 0 0.010425806386841058 0.015779970051487145 0 0.010414940160572908 0.015710030979722095 0 0.010350894466033506 0.015663971602294872 0 0.010433540634088074 0.015591173697146391 0 0.010414940160572908 0.015710030979722095 0 0.01043269615925525 0.015656630965760292 0 0.010416485071825989 0.01577632410190009 0 0.010414940160572908 0.015710030979722095 0 0.01043269615925525 0.015656630965760292 0 0.010433540634088074 0.015591173697146391 0 0.010350894466033506 0.015663971602294872 0 0.01042253818599146 0.015624704592929204 0 0.010433540634088074 0.015591173697146391 0 0.010414940160572908 0.015710030979722095 0 0.010350894466033506 0.015663971602294872 0 0.010168615611620082 0.015796830648309557 0 0.010327666758729391 0.015678087201275205 0 0.010269622846756964 0.015865598656971621 0 0.010350894466033506 0.015663971602294872 0 0.01039591161997391 0.01573428657539875 0 0.010269622846756964 0.015865598656971621 0 0.009954275429160683 0.015772563082228252 0 0.010350894466033506 0.015663971602294872 0 0.01039591161997391 0.01573428657539875 0 0.01042253818599146 0.015624704592929204 0 0.010453052721737081 0.015676311290877654 0 0.010350894466033506 0.015663971602294872 0 0.01039591161997391 0.01573428657539875 0 0.01042253818599146 0.015624704592929204 0 0.01042253818599146 0.015624704592929204 0 0.010462249312298281 0.015606093060450594 0 0.010453052721737081 0.015676311290877654 0 0.01045072047614248 0.015538988367068426 0 0.01042253818599146 0.015624704592929204 0 0.010462249312298281 0.015606093060450594 0 0.010462249312298281 0.015606093060450594 0 0.010453052721737081 0.015676311290877654 0 0.010474673175685482 0.015652176063684187 0 0.01039591161997391 0.01573428657539875 0 0.010453052721737081 0.015676311290877654 0 0.010458453075701129 0.015756513114636092 0 0.010453052721737081 0.015676311290877654 0 0.010458453075701129 0.015756513114636092 0 0.010474345300237588 0.015708267266212519 0 0.010458453075701129 0.015756513114636092 0 0.010435117720038398 0.015915541979042283 0 0.010477907989263768 0.015746196954035091 0 0.01039591161997391 0.01573428657539875 0 0.010458453075701129 0.015756513114636092 0 0.010435117720038398 0.015915541979042283 0 0.0084470207620495168 0.016648032199066284 0 0.0078821326301596276 0.016633568994425606 0 0.010269622846756964 0.015865598656971621 0 0.01039591161997391 0.01573428657539875 0 0.010435117720038398 0.015915541979042283 0 0.007915234524496842 0.017040778061564742 0 0.0064321380155433127 0.017385127941328567 0 0.0070198826931040688 0.016247985286435666 0 0.010160666030744819 0.0161956860692032 0 0.010269622846756964 0.015865598656971621 0 0.010435117720038398 0.015915541979042283 0 0.0090269755521767622 0.016604933390177719 0 0.0084470207620495168 0.016648032199066284 0 0.0064321380155433127 0.017385127941328567 0 0.005499103131486157 0.01698940309493014 0 0.005916046342254489 0.016377884665871534 0 0.005499103131486157 0.01698940309493014 0 0.0051322203037815475 0.017314638099923705 0 0.0053986228536019613 0.01751001443834771 0 0.0064321380155433127 0.017385127941328567 0 0.005499103131486157 0.01698940309493014 0 0.0053986228536019613 0.01751001443834771 0 0.005499103131486157 0.01698940309493014 0 0.0051322203037815475 0.017314638099923705 0 0.0049438192021321126 0.016787063886205759 0 0.0051322203037815475 0.017314638099923705 0 0.0045744511266425413 0.017092302282553998 0 0.0049438192021321126 0.016787063886205759 0 0.0051322203037815475 0.017314638099923705 0 0.0053986228536019613 0.01751001443834771 0 0.0049677930164824117 0.017474490411594212 0 0.0078821326301596276 0.016633568994425606 0 0.0080210780995231389 0.016597242965336264 0 0.010477907989263768 0.015746196954035091 0 0.010470778656952751 0.01568898970110523 0 0.01045757074160601 0.015669859825360472 0 0.010477907989263768 0.015746196954035091 0 0.010475869386928479 0.015705616011342554 0 0.010470778656952751 0.01568898970110523 0 0.010477907989263768 0.015746196954035091 0 0.010474345300237588 0.015708267266212519 0 0.010475869386928479 0.015705616011342554 0 0.010458453075701129 0.015756513114636092 0 0.010477907989263768 0.015746196954035091 0 0.010474345300237588 0.015708267266212519 0 0.010453052721737081 0.015676311290877654 0 0.010474345300237588 0.015708267266212519 0 0.010474673175685482 0.015652176063684187 0 0.010474345300237588 0.015708267266212519 0 0.010475869386928479 0.015705616011342554 0 0.010477135165897085 0.015678844632301014 0 0.010474345300237588 0.015708267266212519 0 0.010474673175685482 0.015652176063684187 0 0.010477135165897085 0.015678844632301014 0 0.010462249312298281 0.015606093060450594 0 0.010474673175685482 0.015652176063684187 0 0.010476458302263455 0.015608391021085324 0 0.010474673175685482 0.015652176063684187 0 0.010476458302263455 0.015608391021085324 0 0.010477623094764519 0.015643007869448378 0 0.010476930645507527 0.015613573722862175 0 0.010477623094764519 0.015643007869448378 0 0.010472660577629057 0.015641126155685948 0 0.010476930645507527 0.015613573722862175 0 0.010476458302263455 0.015608391021085324 0 0.010477623094764519 0.015643007869448378 0 0.010474673175685482 0.015652176063684187 0 0.010477623094764519 0.015643007869448378 0 0.010477135165897085 0.015678844632301014 0 0.010477623094764519 0.015643007869448378 0 0.010470417624776683 0.015665669593666665 0 0.010472660577629057 0.015641126155685948 0 0.010477623094764519 0.015643007869448378 0 0.010477135165897085 0.015678844632301014 0 0.010470417624776683 0.015665669593666665 0 0.010475869386928479 0.015705616011342554 0 0.010477135165897085 0.015678844632301014 0 0.010470778656952751 0.01568898970110523 0 0.010477135165897085 0.015678844632301014 0 0.010470778656952751 0.01568898970110523 0 0.010470417624776683 0.015665669593666665 0 0.010454720546421215 0.015661444093248326 0 0.010470417624776683 0.015665669593666665 0 0.01045757074160601 0.015669859825360472 0 0.010470778656952751 0.01568898970110523 0 0.010470417624776683 0.015665669593666665 0 0.01045757074160601 0.015669859825360472 0 0.010454720546421215 0.015661444093248326 0 0.010470417624776683 0.015665669593666665 0 0.010458710515955934 0.015654266775590106 0 0.010470417624776683 0.015665669593666665 0 0.010472660577629057 0.015641126155685948 0 0.010458710515955934 0.015654266775590106 0 0.010472660577629057 0.015641126155685948 0 0.010466960157673719 0.015638306527229955 0 0.010458710515955934 0.015654266775590106 0 0.010471746001982682 0.015618147070023158 0 0.010472660577629057 0.015641126155685948 0 0.010466960157673719 0.015638306527229955 0 0.010471746001982682 0.015618147070023158 0 0.010476930645507527 0.015613573722862175 0 0.010472660577629057 0.015641126155685948 0 0.010466662817504614 0.015636826730740672 0 0.010458710515955934 0.015654266775590106 0 0.010429454034363496 0.015656495353697113 0 0.010471746001982682 0.015618147070023158 0 0.010466960157673719 0.015638306527229955 0 0.010466662817504614 0.015636826730740672 0 0.0079966728364439989 0.016252962553907187 0 0.0062306138381533231 0.016124581735767037 0 0.010466960157673719 0.015638306527229955 0 0.010466662817504614 0.015636826730740672 0 0.010458710515955934 0.015654266775590106 0 0.0080210780995231389 0.016597242965336264 0 0.0062306138381533231 0.016124581735767037 0 0.010454720546421215 0.015661444093248326 0 0.01045757074160601 0.015669859825360472 0 0.010429454034363496 0.015656495353697113 0 0.010454720546421215 0.015661444093248326 0 0.010458710515955934 0.015654266775590106 0 0.010429454034363496 0.015656495353697113 0 0.0049340451172252596 0.017426567064639117 0 0.0049031339250874316 0.017446428953956903 0 0.0048986990692974474 0.017433544245742415 0 0.0049677930164824117 0.017474490411594212 0 0.0049340451172252596 0.017426567064639117 0 0.0049031339250874316 0.017446428953956903 0 0.0046432315941488311 0.017516378956947402 0 0.0043165109443985437 0.017265034533888696 0 0.0039280442607934141 0.017398211002772279 0 0.0043670767526043461 0.017552666243358481 0 0.0036724337741922157 0.017769424843794138 0 0.0051322203037815475 0.017314638099923705 0 0.0049677930164824117 0.017474490411594212 0 0.0049340451172252596 0.017426567064639117 0 0.0051095851669811093 0.017321653433529774 0 0.0046432315941488311 0.017516378956947402 0 0.0051322203037815475 0.017314638099923705 0 0.0043670767526043461 0.017552666243358481 0 0.0045744511266425413 0.017092302282553998 0 0.0043670767526043461 0.017552666243358481 0 0.0045744511266425413 0.017092302282553998 0 0.0041038006997376275 0.017061272902666177 0 0.0045744511266425413 0.017092302282553998 0 0.0041038006997376275 0.017061272902666177 0 0.0043723995555949649 0.016606719571504992 0 0.0039280442607934141 0.017398211002772279 0 0.0041038006997376275 0.017061272902666177 0 0.0035136098298224048 0.017043433487139253 0 0.0041038006997376275 0.017061272902666177 0 0.0038458805849663266 0.016588361820818881 0 0.0035136098298224048 0.017043433487139253 0 0.0039280442607934141 0.017398211002772279 0 0.0043670767526043461 0.017552666243358481 0 0.0041038006997376275 0.017061272902666177 0 0.0041038006997376275 0.017061272902666177 0 0.0038458805849663266 0.016588361820818881 0 0.0043723995555949649 0.016606719571504992 0 0.0038458805849663266 0.016588361820818881 0 0.0043723995555949649 0.016606719571504992 0 0.0039761686424633442 0.015978974280037334 0 0.0043723995555949649 0.016606719571504992 0 0.0048078491240431198 0.016221094383409906 0 0.0049438192021321126 0.016787063886205759 0 0.0045744511266425413 0.017092302282553998 0 0.0043723995555949649 0.016606719571504992 0 0.0049438192021321126 0.016787063886205759 0 0.0043723995555949649 0.016606719571504992 0 0.0039761686424633442 0.015978974280037334 0 0.0048078491240431198 0.016221094383409906 0 0.0039761686424633442 0.015978974280037334 0 0.0045852376249025497 0.015536946832946551 0 0.0048078491240431198 0.016221094383409906 0 0.0039761686424633442 0.015978974280037334 0 0.0037757413954376865 0.015395208116266747 0 0.0045852376249025497 0.015536946832946551 0 0.0037757413954376865 0.015395208116266747 0 0.0042279538462710519 0.0149999615324557 0 0.0045852376249025497 0.015536946832946551 0 0.0037757413954376865 0.015395208116266747 0 0.0042279538462710519 0.0149999615324557 0 0.003341421791316915 0.014999949850193676 0 0.0042279538462710519 0.0149999615324557 0 0.0045852376249025497 0.015536946832946551 0 0.0051144275433957298 0.014999965150753403 0 0.0045852376249025497 0.015536946832946551 0 0.0050989373497730738 0.015851410411494227 0 0.0048078491240431198 0.016221094383409906 0 0.0045852376249025497 0.015536946832946551 0 0.0050989373497730738 0.015851410411494227 0 0.0054575044001409423 0.015476491758757408 0 0.0045852376249025497 0.015536946832946551 0 0.0051144275433957298 0.014999965150753403 0 0.0054575044001409423 0.015476491758757408 0 0.0051144275433957298 0.014999965150753403 0 0.0054575044001409423 0.015476491758757408 0 0.0060008474176122227 0.014999982013113037 0 0.0054575044001409423 0.015476491758757408 0 0.0055141961626938825 0.016103561114026783 0 0.005932272471222971 0.015694346891500292 0 0.0050989373497730738 0.015851410411494227 0 0.0054575044001409423 0.015476491758757408 0 0.0055141961626938825 0.016103561114026783 0 0.0055141961626938825 0.016103561114026783 0 0.0048078491240431198 0.016221094383409906 0 0.0052471952214604451 0.016548694644795539 0 0.0050989373497730738 0.015851410411494227 0 0.0055141961626938825 0.016103561114026783 0 0.0048078491240431198 0.016221094383409906 0 0.0048078491240431198 0.016221094383409906 0 0.0049438192021321126 0.016787063886205759 0 0.0052471952214604451 0.016548694644795539 0 0.005499103131486157 0.01698940309493014 0 0.0049438192021321126 0.016787063886205759 0 0.0052471952214604451 0.016548694644795539 0 0.0055141961626938825 0.016103561114026783 0 0.0052471952214604451 0.016548694644795539 0 0.005916046342254489 0.016377884665871534 0 0.005499103131486157 0.01698940309493014 0 0.0052471952214604451 0.016548694644795539 0 0.005916046342254489 0.016377884665871534 0 0.0059972774094943738 0.016363335845052028 0 0.0067325185819232525 0.016349046221570525 0 0.005916046342254489 0.016377884665871534 0 0.0064600298530600956 0.016445158653845993 0 0.0061735632230752102 0.016090360533126558 0 0.0064321380155433127 0.017385127941328567 0 0.005916046342254489 0.016377884665871534 0 0.0070198826931040688 0.016247985286435666 0 0.0061735632230752102 0.016090360533126558 0 0.0064328285567908372 0.01558996828754501 0 0.0066548096075710814 0.016075266407075413 0 0.0064600298530600956 0.016445158653845993 0 0.0061735632230752102 0.016090360533126558 0 0.0066548096075710814 0.016075266407075413 0 0.0055141961626938825 0.016103561114026783 0 0.005916046342254489 0.016377884665871534 0 0.0061735632230752102 0.016090360533126558 0 0.0055141961626938825 0.016103561114026783 0 0.0061735632230752102 0.016090360533126558 0 0.005932272471222971 0.015694346891500292 0 0.0054575044001409423 0.015476491758757408 0 0.005932272471222971 0.015694346891500292 0 0.0060008474176122227 0.014999982013113037 0 0.0060008474176122227 0.014999982013113037 0 0.0064328285567908372 0.01558996828754501 0 0.0068872625378817009 0.014999959424364426 0 0.005932272471222971 0.015694346891500292 0 0.0060008474176122227 0.014999982013113037 0 0.0064328285567908372 0.01558996828754501 0 0.0061735632230752102 0.016090360533126558 0 0.005932272471222971 0.015694346891500292 0 0.0064328285567908372 0.01558996828754501 0 0.0064328285567908372 0.01558996828754501 0 0.0069444129201994475 0.015622130015766377 0 0.0066548096075710814 0.016075266407075413 0 0.0064328285567908372 0.01558996828754501 0 0.0069444129201994475 0.015622130015766377 0 0.0068872625378817009 0.014999959424364426 0 0.0069444129201994475 0.015622130015766377 0 0.0068872625378817009 0.014999959424364426 0 0.0073886459815059261 0.015387621105275534 0 0.0077735632729126584 0.0150000388424394 0 0.0068872625378817009 0.014999959424364426 0 0.0073886459815059261 0.015387621105275534 0 0.0069444129201994475 0.015622130015766377 0 0.0073886459815059261 0.015387621105275534 0 0.0073751595609397053 0.01591048302652703 0 0.0077834916774264015 0.016401951798275669 0 0.0077680195026276974 0.016092039804918423 0 0.0074547518091871096 0.016163711993805629 0 0.0077680195026276974 0.016092039804918423 0 0.0075549633157582646 0.015700292155309804 0 0.0074547518091871096 0.016163711993805629 0 0.0075549633157582646 0.015700292155309804 0 0.0074547518091871096 0.016163711993805629 0 0.0070497175055441496 0.016194948741975045 0 0.0074590832903522275 0.015809803548746122 0 0.0067075369831574513 0.016055119438249079 0 0.0064600298530600956 0.016445158653845993 0 0.0066548096075710814 0.016075266407075413 0 0.0070497175055441496 0.016194948741975045 0 0.0069444129201994475 0.015622130015766377 0 0.0073751595609397053 0.01591048302652703 0 0.0066548096075710814 0.016075266407075413 0 0.0075549633157582646 0.015700292155309804 0 0.0066548096075710814 0.016075266407075413 0 0.0070497175055441496 0.016194948741975045 0 0.007915234524496842 0.017040778061564742 0 0.0070198826931040688 0.016247985286435666 0 0.0083402251817649761 0.0161791578545783 0 0.0067325185819232525 0.016349046221570525 0 0.0078407323750635492 0.01634964294872282 0 0.0064600298530600956 0.016445158653845993 0 0.0070497175055441496 0.016194948741975045 0 0.0071941092565771412 0.016504856087937506 0 0.0084456909000036086 0.016475520011565339 0 0.0078407323750635492 0.01634964294872282 0 0.0077834916774264015 0.016401951798275669 0 0.0074547518091871096 0.016163711993805629 0 0.0071941092565771412 0.016504856087937506 0 0.0095199436635332209 0.016440062990996665 0 0.007915234524496842 0.017040778061564742 0 0.0083402251817649761 0.0161791578545783 0 0.0077834916774264015 0.016401951798275669 0 0.0080081847762819621 0.016532012352118021 0 0.0071941092565771412 0.016504856087937506 0 0.0074547518091871096 0.016163711993805629 0 0.0070497175055441496 0.016194948741975045 0 0.0071941092565771412 0.016504856087937506 0 0.0012660237209249673 0.016941825519265666 0 0.00088416320510406783 0.017222869950511255 0 0.00068180857229579311 0.016931930730633302 0 0.0012660237209249673 0.016941825519265666 0 0.00088416320510406783 0.017222869950511255 0 0.0012553287296889813 0.017347732674011452 0 0.0012660237209249673 0.016941825519265666 0 0.0016528935838883681 0.017181866199141055 0 0.0012553287296889813 0.017347732674011452 0 0.0012660237209249673 0.016941825519265666 0 0.0016528935838883681 0.017181866199141055 0 0.0016954963344922305 0.01686068270009336 0 0.0012660237209249673 0.016941825519265666 0 0.0016954963344922305 0.01686068270009336 0 0.0016015016531910082 0.016516414447755003 0 0.0012660237209249673 0.016941825519265666 0 0.001005074791027877 0.016519412130264113 0 0.0016015016531910082 0.016516414447755003 0 0.0012660237209249673 0.016941825519265666 0 0.00068180857229579311 0.016931930730633302 0 0.001005074791027877 0.016519412130264113 0 0.00043124409011497809 0.016573478571304909 0 0.00068180857229579311 0.016931930730633302 0 0.001005074791027877 0.016519412130264113 0 0.00043124409011497809 0.016573478571304909 0 0.00010181245627168631 0.016981423854015128 0 -5.6445695301269121e-05 0.016565231927837445 0 0.00043124409011497809 0.016573478571304909 0 0.00010181245627168631 0.016981423854015128 0 0.00068180857229579311 0.016931930730633302 0 0.00010181245627168631 0.016981423854015128 0 0.00068180857229579311 0.016931930730633302 0 0.00040881071466470487 0.017352078925959896 0 0.00088416320510406783 0.017222869950511255 0 0.00068180857229579311 0.016931930730633302 0 0.00040881071466470487 0.017352078925959896 0 0.00088416320510406783 0.017222869950511255 0 0.00040881071466470487 0.017352078925959896 0 0.00082141283937593843 0.017537147991036624 0 0.00040881071466470487 0.017352078925959896 0 0.00054294475165437704 0.01761489152564925 0 0.00082141283937593843 0.017537147991036624 0 0.00040881071466470487 0.017352078925959896 0 0.00031154011393251329 0.017584747664696341 0 0.00054294475165437704 0.01761489152564925 0 0.00010624826020781718 0.017504001276163812 0 3.450653952705742e-06 0.017638757887939796 0 -0.00010387368212918898 0.017363587511013447 0 0.00040881071466470487 0.017352078925959896 0 0.00010624826020781718 0.017504001276163812 0 -0.00010387368212918898 0.017363587511013447 0 0.00010181245627168631 0.016981423854015128 0 0.00040881071466470487 0.017352078925959896 0 -0.00010387368212918898 0.017363587511013447 0 0.00040881071466470487 0.017352078925959896 0 0.00010624826020781718 0.017504001276163812 0 0.00031154011393251329 0.017584747664696341 0 3.0629517393456964e-05 0.01772661689381292 0 0.0005458358238238538 0.017865995802923477 0 3.450653952705742e-06 0.017638757887939796 0 0.00031154011393251329 0.017584747664696341 0 0.0005458358238238538 0.017865995802923477 0 3.450653952705742e-06 0.017638757887939796 0 0.00010624826020781718 0.017504001276163812 0 0.00031154011393251329 0.017584747664696341 0 3.450653952705742e-06 0.017638757887939796 0 0.00054294475165437704 0.01761489152564925 0 0.0005458358238238538 0.017865995802923477 0 0.00082141283937593843 0.017537147991036624 0 0.00031154011393251329 0.017584747664696341 0 0.00054294475165437704 0.01761489152564925 0 0.0005458358238238538 0.017865995802923477 0 0.0017067783008436967 0.017297610654400091 0 0.00092752124811174182 0.017079250379554479 0 0.0019949529502809524 0.01666017117979169 0 0.00075641885711713499 0.01747379355036504 0 0.0016228213645976572 0.017231440935610038 0 0.0005458358238238538 0.017865995802923477 0 0.00082141283937593843 0.017537147991036624 0 0.0012497974149637309 0.017803517044090625 0 0.00082141283937593843 0.017537147991036624 0 0.0012553287296889813 0.017347732674011452 0 0.0012497974149637309 0.017803517044090625 0 0.00088416320510406783 0.017222869950511255 0 0.00082141283937593843 0.017537147991036624 0 0.0012553287296889813 0.017347732674011452 0 0.0015965654753580104 0.017466263995290537 0 0.0012553287296889813 0.017347732674011452 0 0.0012497974149637309 0.017803517044090625 0 0.0015965654753580104 0.017466263995290537 0 0.0012497974149637309 0.017803517044090625 0 0.0019177913594517046 0.017641148386899567 0 0.0016528935838883681 0.017181866199141055 0 0.0015965654753580104 0.017466263995290537 0 0.0012553287296889813 0.017347732674011452 0 0.0029559972683990488 0.017144101302801338 0 0.0023716934414641537 0.0173408831385976 0 0.0019949529502809524 0.01666017117979169 0 0.0016228213645976572 0.017231440935610038 0 0.0024576932337889196 0.016955943971713787 0 0.0029559972683990488 0.017144101302801338 0 0.0019949529502809524 0.01666017117979169 0 0.0030993877658504125 0.016724103349487703 0 0.0019949529502809524 0.01666017117979169 0 0.0030993877658504125 0.016724103349487703 0 0.0029767375769311085 0.016333105688550016 0 0.0030993877658504125 0.016724103349487703 0 0.0034161445185200484 0.016478713713081336 0 0.0029767375769311085 0.016333105688550016 0 0.0029559972683990488 0.017144101302801338 0 0.0030993877658504125 0.016724103349487703 0 0.0034267626798987309 0.016956789942246104 0 0.0030993877658504125 0.016724103349487703 0 0.0034267626798987309 0.016956789942246104 0 0.0034161445185200484 0.016478713713081336 0 0.0034161445185200484 0.016478713713081336 0 0.0038917719903653948 0.01683206764023092 0 0.0040850097156822735 0.016278663189770812 0 0.0034267626798987309 0.016956789942246104 0 0.0034161445185200484 0.016478713713081336 0 0.0038917719903653948 0.01683206764023092 0 0.0036070860224140266 0.016420802203990104 0 0.0037584290398936381 0.016544692041417532 0 0.0034161445185200484 0.016478713713081336 0 0.0040535512584421816 0.016296181836208738 0 0.0038854818334710418 0.016053159651893183 0 0.0021135792506622912 0.017334333857490006 0 0.0019177913594517046 0.017641148386899567 0 0.0025012346094300743 0.017445622014737681 0 0.0034161445185200484 0.016478713713081336 0 0.0029767375769311085 0.016333105688550016 0 0.0038854818334710418 0.016053159651893183 0 0.0024576932337889196 0.016955943971713787 0 0.0031727854340215392 0.017005822214343613 0 0.0021135792506622912 0.017334333857490006 0 0.0018596642969756539 0.017347179691906144 0 0.0019177913594517046 0.017641148386899567 0 0.0015965654753580104 0.017466263995290537 0 0.0018596642969756539 0.017347179691906144 0 0.0019177913594517046 0.017641148386899567 0 0.0016528935838883681 0.017181866199141055 0 0.0015965654753580104 0.017466263995290537 0 0.0018596642969756539 0.017347179691906144 0 0.0052279149626967367 0.016905797751534828 0 0.0048578417400296997 0.016542004802609984 0 0.0045228251370969105 0.01682967160363023 0 0.0052279149626967367 0.016905797751534828 0 0.0048578417400296997 0.016542004802609984 0 0.0050537103557744953 0.016036438488508206 0 0.0048578417400296997 0.016542004802609984 0 0.0045228251370969105 0.01682967160363023 0 0.0046133616820588112 0.016428529491698495 0 0.0045228251370969105 0.01682967160363023 0 0.0046133616820588112 0.016428529491698495 0 0.0041534108987966055 0.016298934026906738 0 0.0045098005817509395 0.016840412155269716 0 0.0037584290398936381 0.016544692041417532 0 0.0040773492038662824 0.017160503495463556 0 0.0044776257790742433 0.016833020762451332 0 0.0038917719903653948 0.01683206764023092 0 0.0044776257790742433 0.016833020762451332 0 0.0038917719903653948 0.01683206764023092 0 0.0040850097156822735 0.016278663189770812 0 0.0037802198290322478 0.017061115288961991 0 0.0035402254033548015 0.016720658603002213 0 0.0049687585194505167 0.016253761836360646 0 0.0031727854340215392 0.017005822214343613 0 0.0043165109443985437 0.017265034533888696 0 0.0037584290398936381 0.016544692041417532 0 0.0031727854340215392 0.017005822214343613 0 0.0037584290398936381 0.016544692041417532 0 0.0062306138381533231 0.016124581735767037 0 0.0046133616820588112 0.016428529491698495 0 0.0041534108987966055 0.016298934026906738 0 0.0050537103557744953 0.016036438488508206 0 0.0037802198290322478 0.017061115288961991 0 0.0050637013771980587 0.016687349863608803 0 0.0049687585194505167 0.016253761836360646 0 0.0062306138381533231 0.016124581735767037 0 0.0043165109443985437 0.017265034533888696 0 0.0048578417400296997 0.016542004802609984 0 0.0046133616820588112 0.016428529491698495 0 0.0050537103557744953 0.016036438488508206 0 0.0039280442607934141 0.017398211002772279 0 0.0036724337741922157 0.017769424843794138 0 0.0035136098298224048 0.017043433487139253 0 0.0034675488929707108 0.017411510042245455 0 0.0029242334224536459 0.017140688671488963 0 0.003321617256612001 0.016773814909137624 0 0.0043165109443985437 0.017265034533888696 0 0.0033565162938085326 0.016959881834154138 0 0.0026992892923175492 0.017665764430200067 0 0.0029242334224536459 0.017140688671488963 0 0.0024041975415432454 0.017259199233111176 0 0.0026992892923175492 0.017665764430200067 0 0.0034675488929707108 0.017411510042245455 0 0.0029242334224536459 0.017140688671488963 0 0.0029242334224536459 0.017140688671488963 0 0.003321617256612001 0.016773814909137624 0 0.0026389501737955775 0.016548427783528552 0 0.0019501526647947803 0.017107208470075328 0 0.002251310702777354 0.017111987166212091 0 0.0020779643861495913 0.016819654143357173 0 0.0016528935838883681 0.017181866199141055 0 0.0016954963344922305 0.01686068270009336 0 0.0019501526647947803 0.017107208470075328 0 0.0016528935838883681 0.017181866199141055 0 0.0018596642969756539 0.017347179691906144 0 0.0019501526647947803 0.017107208470075328 0 0.0021135792506622912 0.017334333857490006 0 0.0018596642969756539 0.017347179691906144 0 0.0019501526647947803 0.017107208470075328 0 0.0021135792506622912 0.017334333857490006 0 0.0019501526647947803 0.017107208470075328 0 0.002251310702777354 0.017111987166212091 0 0.0021135792506622912 0.017334333857490006 0 0.0025012346094300743 0.017445622014737681 0 0.002251310702777354 0.017111987166212091 0 0.0031727854340215392 0.017005822214343613 0 0.0023365323171158025 0.01719542711199494 0 0.0023365323171158025 0.01719542711199494 0 0.0020999645478234925 0.016853706860051047 0 0.0024041975415432454 0.017259199233111176 0 0.0020779643861495913 0.016819654143357173 0 0.0026389501737955775 0.016548427783528552 0 0.0029242334224536459 0.017140688671488963 0 0.0024041975415432454 0.017259199233111176 0 0.0026389501737955775 0.016548427783528552 0 0.0016954963344922305 0.01686068270009336 0 0.0020779643861495913 0.016819654143357173 0 0.0016015016531910082 0.016516414447755003 0 0.0016954963344922305 0.01686068270009336 0 0.0019501526647947803 0.017107208470075328 0 0.0020779643861495913 0.016819654143357173 0 0.0020188828698916705 0.016385957772518184 0 0.0018373923403337028 0.016028406341961135 0 0.0016015016531910082 0.016516414447755003 0 0.0020779643861495913 0.016819654143357173 0 0.0020188828698916705 0.016385957772518184 0 0.0016015016531910082 0.016516414447755003 0 0.0020188828698916705 0.016385957772518184 0 0.0026389501737955775 0.016548427783528552 0 0.0023103335772012823 0.016019401857232413 0 0.0020779643861495913 0.016819654143357173 0 0.0020188828698916705 0.016385957772518184 0 0.0026389501737955775 0.016548427783528552 0 0.0026389501737955775 0.016548427783528552 0 0.0023103335772012823 0.016019401857232413 0 0.0028201342333116627 0.015959636937205299 0 0.0023103335772012823 0.016019401857232413 0 0.0028201342333116627 0.015959636937205299 0 0.0025852159598146298 0.015532124938735009 0 0.0020188828698916705 0.016385957772518184 0 0.0023103335772012823 0.016019401857232413 0 0.0018373923403337028 0.016028406341961135 0 0.0023103335772012823 0.016019401857232413 0 0.0018373923403337028 0.016028406341961135 0 0.0018636777255570706 0.015591621566315069 0 0.0033565162938085326 0.016959881834154138 0 0.0032799332066421622 0.01623009966919936 0 0.0038458805849663266 0.016588361820818881 0 0.0035136098298224048 0.017043433487139253 0 0.0033515733761644807 0.016330847401710143 0 0.0026389501737955775 0.016548427783528552 0 0.0028201342333116627 0.015959636937205299 0 0.0031954376921189158 0.016172342133354081 0 0.003321617256612001 0.016773814909137624 0 0.0026389501737955775 0.016548427783528552 0 0.0031954376921189158 0.016172342133354081 0 0.0028201342333116627 0.015959636937205299 0 0.0031954376921189158 0.016172342133354081 0 0.003170323075913326 0.015616547512472751 0 0.0039761686424633442 0.015978974280037334 0 0.0033515733761644807 0.016330847401710143 0 0.003170323075913326 0.015616547512472751 0 0.0038458805849663266 0.016588361820818881 0 0.0039761686424633442 0.015978974280037334 0 0.0033515733761644807 0.016330847401710143 0 0.0032799332066421622 0.01623009966919936 0 0.0031703025079523614 0.015657939989997847 0 0.0039761686424633442 0.015978974280037334 0 0.0037757413954376865 0.015395208116266747 0 0.003170323075913326 0.015616547512472751 0 0.0028201342333116627 0.015959636937205299 0 0.003170323075913326 0.015616547512472751 0 0.0025852159598146298 0.015532124938735009 0 0.003170323075913326 0.015616547512472751 0 0.003341421791316915 0.014999949850193676 0 0.0025852159598146298 0.015532124938735009 0 0.0037757413954376865 0.015395208116266747 0 0.003170323075913326 0.015616547512472751 0 0.003341421791316915 0.014999949850193676 0 0.0023103335772012823 0.016019401857232413 0 0.0018636777255570706 0.015591621566315069 0 0.0025852159598146298 0.015532124938735009 0 0.003341421791316915 0.014999949850193676 0 0.0025852159598146298 0.015532124938735009 0 0.002454972059396598 0.014999953713028619 0 0.0018636777255570706 0.015591621566315069 0 0.002454972059396598 0.014999953713028619 0 0.0015685743815301901 0.014999940581979971 0 0.0018636777255570706 0.015591621566315069 0 0.0025852159598146298 0.015532124938735009 0 0.002454972059396598 0.014999953713028619 0 0.0018636777255570706 0.015591621566315069 0 0.0015685743815301901 0.014999940581979971 0 0.0012437367169541625 0.015487126428866725 0 0.0015685743815301901 0.014999940581979971 0 0.0012437367169541625 0.015487126428866725 0 0.00068217401375673861 0.014999973307220884 0 0.0012437367169541625 0.015487126428866725 0 0.0013462042680091975 0.016048003055136227 0 0.00074728058496323433 0.015759250443897782 0 0.0018636777255570706 0.015591621566315069 0 0.0012437367169541625 0.015487126428866725 0 0.0013462042680091975 0.016048003055136227 0 0.0018373923403337028 0.016028406341961135 0 0.0018636777255570706 0.015591621566315069 0 0.0013462042680091975 0.016048003055136227 0 0.0013462042680091975 0.016048003055136227 0 0.00076472473527258136 0.016180318030487945 0 0.00074728058496323433 0.015759250443897782 0 0.0013462042680091975 0.016048003055136227 0 0.001005074791027877 0.016519412130264113 0 0.00076472473527258136 0.016180318030487945 0 0.0013462042680091975 0.016048003055136227 0 0.001005074791027877 0.016519412130264113 0 0.0016015016531910082 0.016516414447755003 0 0.0018373923403337028 0.016028406341961135 0 0.0013462042680091975 0.016048003055136227 0 0.0016015016531910082 0.016516414447755003 0 0.00041531204771850545 0.016543780976286004 0 0.00022342134639051668 0.016063122978239613 0 0.00043124409011497809 0.016573478571304909 0 0.00013788439575480532 0.015993436814589198 0 -5.6445695301269121e-05 0.016565231927837445 0 0.00043124409011497809 0.016573478571304909 0 0.001005074791027877 0.016519412130264113 0 0.00076472473527258136 0.016180318030487945 0 0.00043124409011497809 0.016573478571304909 0 0.00076472473527258136 0.016180318030487945 0 0.000305008625679436 0.01610638511377795 0 0.00076472473527258136 0.016180318030487945 0 0.000305008625679436 0.01610638511377795 0 0.00074728058496323433 0.015759250443897782 0 0.00022342134639051668 0.016063122978239613 0 -6.0770898577437667e-06 0.015530830875940704 0 0.000305008625679436 0.01610638511377795 0 7.2030523717657972e-05 0.015582196151766196 0 0.00074728058496323433 0.015759250443897782 0 0.0012437367169541625 0.015487126428866725 0 0.00074728058496323433 0.015759250443897782 0 0.00068217401375673861 0.014999973307220884 0 7.2030523717657972e-05 0.015582196151766196 0 0.00074728058496323433 0.015759250443897782 0 0.00068217401375673861 0.014999973307220884 0 7.2030523717657972e-05 0.015582196151766196 0 0.00068217401375673861 0.014999973307220884 0 -0.00020410781754026512 0.014999959639572647 0 -6.0770898577437667e-06 0.015530830875940704 0 -0.00020420762062007368 0.015000097167439995 0 -8.7978963458693784e-05 0.015497323128932677 0 -0.00020447098886980215 0.014999908916782207 0 -0.00051682355202645604 0.015392475940590242 0 -0.00020447098886980215 0.014999908916782207 0 -0.00051682355202645604 0.015392475940590242 0 -0.0010912775721190636 0.014999918100926331 0 -0.00094176867423056054 0.015707952004954295 0 -0.00051682355202645604 0.015392475940590242 0 -0.00035295333050952099 0.015792846824498573 0 -0.00094176867423056054 0.015707952004954295 0 -0.00051682355202645604 0.015392475940590242 0 -0.0010912775721190636 0.014999918100926331 0 -8.7978963458693784e-05 0.015497323128932677 0 -0.00051682355202645604 0.015392475940590242 0 -0.00035295333050952099 0.015792846824498573 0 -0.001534086433274254 0.015352900321010632 0 -0.0010912775721190636 0.014999918100926331 0 -0.0019780372107453151 0.014999885897242021 0 -0.00094176867423056054 0.015707952004954295 0 -0.001534086433274254 0.015352900321010632 0 -0.0010912775721190636 0.014999918100926331 0 -0.00094176867423056054 0.015707952004954295 0 -0.001534086433274254 0.015352900321010632 0 -0.0015474400878421972 0.01579053312406991 0 -0.001534086433274254 0.015352900321010632 0 -0.0015474400878421972 0.01579053312406991 0 -0.0021823969025462583 0.015569388858650298 0 -0.00094176867423056054 0.015707952004954295 0 -0.0015474400878421972 0.01579053312406991 0 -0.0011734989310842841 0.016331204825734438 0 -0.0011734989310842841 0.016331204825734438 0 -0.001917222504563139 0.016644875179650149 0 -0.0019139051644203183 0.016151699142951392 0 -0.0015474400878421972 0.01579053312406991 0 -0.0011734989310842841 0.016331204825734438 0 -0.0019139051644203183 0.016151699142951392 0 0.00013788439575480532 0.015993436814589198 0 -8.7978963458693784e-05 0.015497323128932677 0 -0.00035295333050952099 0.015792846824498573 0 0.00013788439575480532 0.015993436814589198 0 -0.00035295333050952099 0.015792846824498573 0 -0.00043695220941387914 0.016295777805066747 0 -0.00094176867423056054 0.015707952004954295 0 -0.00035295333050952099 0.015792846824498573 0 -0.00043695220941387914 0.016295777805066747 0 -0.00094176867423056054 0.015707952004954295 0 -0.0011734989310842841 0.016331204825734438 0 -0.00043695220941387914 0.016295777805066747 0 0.00013788439575480532 0.015993436814589198 0 -0.00043695220941387914 0.016295777805066747 0 -5.6445695301269121e-05 0.016565231927837445 0 -0.00043695220941387914 0.016295777805066747 0 -5.6445695301269121e-05 0.016565231927837445 0 -0.00046236692419613035 0.016892356701788146 0 0.00010181245627168631 0.016981423854015128 0 -5.6445695301269121e-05 0.016565231927837445 0 -0.00046236692419613035 0.016892356701788146 0 0.00010181245627168631 0.016981423854015128 0 -0.00046236692419613035 0.016892356701788146 0 -0.00010387368212918898 0.017363587511013447 0 -0.00046236692419613035 0.016892356701788146 0 -0.0011812808189044007 0.016966889757434316 0 -0.00077447749025693496 0.017647005423995093 0 -0.0011734989310842841 0.016331204825734438 0 -0.00043695220941387914 0.016295777805066747 0 -0.00046236692419613035 0.016892356701788146 0 -0.0011734989310842841 0.016331204825734438 0 -0.00046236692419613035 0.016892356701788146 0 -0.0011812808189044007 0.016966889757434316 0 -0.0011734989310842841 0.016331204825734438 0 -0.0011812808189044007 0.016966889757434316 0 -0.001917222504563139 0.016644875179650149 0 -0.0011812808189044007 0.016966889757434316 0 -0.0016581050082835373 0.017428595153959617 0 -0.001917222504563139 0.016644875179650149 0 -0.0016964478079891871 0.017211784921921297 0 -0.00078153125270104804 0.017419647344798204 0 -0.0011812808189044007 0.016966889757434316 0 -0.0016581050082835373 0.017428595153959617 0 -0.00077447749025693496 0.017647005423995093 0 -0.0017418365409163365 0.016990973152160825 0 -0.0014476386824035636 0.017606058399082448 0 -0.0021235783067631978 0.017371142975338087 0 -0.0014476386824035636 0.017606058399082448 0 -0.0021235783067631978 0.017371142975338087 0 -0.0019468329952058571 0.017861715681578957 0 -0.0017418365409163365 0.016990973152160825 0 -0.0014476386824035636 0.017606058399082448 0 -0.00078153140908451292 0.017186940793585469 0 -0.0014476386824035636 0.017606058399082448 0 -0.00078153140908451292 0.017186940793585469 0 -0.00090291681631149011 0.017634207878738324 0 -0.00078153140908451292 0.017186940793585469 0 -0.0002699559595871522 0.017649947555246012 0 -0.00051402590012940741 0.017671781440687172 0 -0.00078153140908451292 0.017186940793585469 0 -0.00051402590012940741 0.017671781440687172 0 -0.00090291681631149011 0.017634207878738324 0 -0.00078153140908451292 0.017186940793585469 0 -0.0002699559595871522 0.017649947555246012 0 3.450653952705742e-06 0.017638757887939796 0 -0.00078153125270104804 0.017419647344798204 0 -5.3248488383445931e-05 0.017623613241497051 0 -0.00077447749025693496 0.017647005423995093 0 3.450653952705742e-06 0.017638757887939796 0 -0.00010387368212918898 0.017363587511013447 0 3.0629517393456964e-05 0.01772661689381292 0 -0.0002699559595871522 0.017649947555246012 0 3.450653952705742e-06 0.017638757887939796 0 -0.00046236692419613035 0.016892356701788146 0 -0.00077447749025693496 0.017647005423995093 0 -0.00010387368212918898 0.017363587511013447 0 -0.0031574474813248869 0.017044598801823324 0 -0.0028907571569665473 0.01730760249164531 0 -0.002508982636015377 0.017034285500743963 0 -0.0031574474813248869 0.017044598801823324 0 -0.0032181903141340986 0.01736297389801969 0 -0.003523141150686887 0.017204459273055531 0 -0.0031574474813248869 0.017044598801823324 0 -0.0032181903141340986 0.01736297389801969 0 -0.0028907571569665473 0.01730760249164531 0 -0.0032181903141340986 0.01736297389801969 0 -0.0035066495608021453 0.017402286205457591 0 -0.0033059304540142419 0.017609411596599105 0 -0.0032181903141340986 0.01736297389801969 0 -0.0028907571569665473 0.01730760249164531 0 -0.0028966589226435838 0.017541411399260472 0 -0.0028907571569665473 0.01730760249164531 0 -0.0028966589226435838 0.017541411399260472 0 -0.0025544060396920669 0.017383993242031635 0 -0.0028966589226435838 0.017541411399260472 0 -0.0025544060396920669 0.017383993242031635 0 -0.0024559333157091606 0.01772627905974733 0 -0.0025544060396920669 0.017383993242031635 0 -0.0021235783067631978 0.017371142975338087 0 -0.0024559333157091606 0.01772627905974733 0 -0.0016964478079891871 0.017211784921921297 0 -0.0024522758208400759 0.017040080137448711 0 -0.0017418365409163365 0.016990973152160825 0 -0.0021235783067631978 0.017371142975338087 0 -0.002508982636015377 0.017034285500743963 0 -0.0025544060396920669 0.017383993242031635 0 -0.0021235783067631978 0.017371142975338087 0 -0.002508982636015377 0.017034285500743963 0 -0.0028907571569665473 0.01730760249164531 0 -0.0025544060396920669 0.017383993242031635 0 -0.002508982636015377 0.017034285500743963 0 -0.002508982636015377 0.017034285500743963 0 -0.001917222504563139 0.016644875179650149 0 -0.0027711625548808884 0.016661388383455288 0 -0.0016581050082835373 0.017428595153959617 0 -0.002508982636015377 0.017034285500743963 0 -0.001917222504563139 0.016644875179650149 0 -0.001917222504563139 0.016644875179650149 0 -0.0027711625548808884 0.016661388383455288 0 -0.0025357126526543679 0.016210242842729899 0 -0.0031574474813248869 0.017044598801823324 0 -0.0027711625548808884 0.016661388383455288 0 -0.0033069336159792496 0.016728532581691029 0 -0.0031574474813248869 0.017044598801823324 0 -0.002508982636015377 0.017034285500743963 0 -0.0027711625548808884 0.016661388383455288 0 -0.0031574474813248869 0.017044598801823324 0 -0.0033069336159792496 0.016728532581691029 0 -0.0036269572477448165 0.016899451703021231 0 -0.0027711625548808884 0.016661388383455288 0 -0.0033069336159792496 0.016728532581691029 0 -0.0032694689791507277 0.016272007537616227 0 -0.0033069336159792496 0.016728532581691029 0 -0.0032694689791507277 0.016272007537616227 0 -0.003633655988861095 0.016505878730275494 0 -0.0027711625548808884 0.016661388383455288 0 -0.0032694689791507277 0.016272007537616227 0 -0.0025357126526543679 0.016210242842729899 0 -0.0032694689791507277 0.016272007537616227 0 -0.0025357126526543679 0.016210242842729899 0 -0.0030475758078041589 0.015686120698861997 0 -0.0032694689791507277 0.016272007537616227 0 -0.0036071990388366762 0.0157516947042315 0 -0.0030475758078041589 0.015686120698861997 0 -0.001917222504563139 0.016644875179650149 0 -0.0019139051644203183 0.016151699142951392 0 -0.0025357126526543679 0.016210242842729899 0 -0.0025184615680933129 0.016188160869595368 0 -0.0022567698213196972 0.015621745212213304 0 -0.0025357126526543679 0.016210242842729899 0 -0.0023227125649611293 0.01566610506169978 0 -0.0030475758078041589 0.015686120698861997 0 -0.0015474400878421972 0.01579053312406991 0 -0.0019139051644203183 0.016151699142951392 0 -0.0021823969025462583 0.015569388858650298 0 -0.0019139051644203183 0.016151699142951392 0 -0.0025357126526543679 0.016210242842729899 0 -0.0021823969025462583 0.015569388858650298 0 -0.0023227125649611293 0.01566610506169978 0 -0.0030475758078041589 0.015686120698861997 0 -0.0028348579524366787 0.014999970838345028 0 -0.0023227125649611293 0.01566610506169978 0 -0.0019784301440859122 0.014999958741311478 0 -0.0028348579524366787 0.014999970838345028 0 -0.0022567698213196972 0.015621745212213304 0 -0.0019783264642083175 0.015000079880048936 0 -0.001534086433274254 0.015352900321010632 0 -0.0021823969025462583 0.015569388858650298 0 -0.0019780372107453151 0.014999885897242021 0 -0.0036071990388366762 0.0157516947042315 0 -0.0030475758078041589 0.015686120698861997 0 -0.0036914206792973692 0.01499994628800571 0 -0.0030475758078041589 0.015686120698861997 0 -0.0028348579524366787 0.014999970838345028 0 -0.0036914206792973692 0.01499994628800571 0 -0.0036914206792973692 0.01499994628800571 0 -0.0041219016224301021 0.015578279033132256 0 -0.0043754570905774745 0.015297662550991379 0 -0.0036071990388366762 0.0157516947042315 0 -0.0036914206792973692 0.01499994628800571 0 -0.0041219016224301021 0.015578279033132256 0 -0.0041219016224301021 0.015578279033132256 0 -0.0043754570905774745 0.015297662550991379 0 -0.0046736095862645148 0.015653209753291424 0 -0.0041219016224301021 0.015578279033132256 0 -0.0046736095862645148 0.015653209753291424 0 -0.0039328468343669811 0.016164667289638075 0 -0.0036914206792973692 0.01499994628800571 0 -0.0043754570905774745 0.015297662550991379 0 -0.0045480247902337347 0.014999942186133127 0 -0.0043754570905774745 0.015297662550991379 0 -0.0045480247902337347 0.014999942186133127 0 -0.0048564108688913072 0.015263019846917913 0 -0.0043754570905774745 0.015297662550991379 0 -0.0048564108688913072 0.015263019846917913 0 -0.0046736095862645148 0.015653209753291424 0 -0.0045480247902337347 0.014999942186133127 0 -0.0048564108688913072 0.015263019846917913 0 -0.0054047736055830081 0.014999961295434464 0 -0.0048564108688913072 0.015263019846917913 0 -0.0054047736055830081 0.014999961295434464 0 -0.005633359602699054 0.01549895889537448 0 -0.0048564108688913072 0.015263019846917913 0 -0.005633359602699054 0.01549895889537448 0 -0.0052261772885479714 0.015925988485312736 0 -0.0048724025887356493 0.015297793839847411 0 -0.0051492921454459311 0.015860203323308009 0 -0.0048564108688913072 0.015263019846917913 0 -0.0046736095862645148 0.015653209753291424 0 -0.0050762347236088358 0.015817412249510953 0 -0.0046736095862645148 0.015653209753291424 0 -0.0050762347236088358 0.015817412249510953 0 -0.0047717629998585967 0.016298739384794831 0 -0.0050762347236088358 0.015817412249510953 0 -0.005399163268972257 0.016423772736757981 0 -0.0047717629998585967 0.016298739384794831 0 -0.0052261772885479714 0.015925988485312736 0 -0.0055704384793470261 0.01654944813407961 0 -0.0061082291744431064 0.015895956512490452 0 -0.0051492921454459311 0.015860203323308009 0 -0.0054857339356194782 0.016488289602197906 0 -0.005399163268972257 0.016423772736757981 0 -0.0047717629998585967 0.016298739384794831 0 -0.0050731248814104759 0.016920050395645418 0 -0.0047717629998585967 0.016298739384794831 0 -0.0039328468343669811 0.016164667289638075 0 -0.0043824635085409624 0.01683593116295953 0 -0.0039235241551266384 0.016183503340246253 0 -0.0041319773582886715 0.0167072163934242 0 -0.003633655988861095 0.016505878730275494 0 -0.0039328468343669811 0.016164667289638075 0 -0.0038747151547686041 0.016607259833437842 0 -0.0032694689791507277 0.016272007537616227 0 -0.003633655988861095 0.016505878730275494 0 -0.0039328468343669811 0.016164667289638075 0 -0.0032694689791507277 0.016272007537616227 0 -0.0036071990388366762 0.0157516947042315 0 -0.0039328468343669811 0.016164667289638075 0 -0.0036071990388366762 0.0157516947042315 0 -0.0041219016224301021 0.015578279033132256 0 -0.0039328468343669811 0.016164667289638075 0 -0.0046736095862645148 0.015653209753291424 0 -0.0047717629998585967 0.016298739384794831 0 -0.0039328468343669811 0.016164667289638075 0 -0.0072169125316489556 0.015776898876195371 0 -0.0077918900240373278 0.01553207424932268 0 -0.0075061334196971242 0.016265398890847309 0 -0.0072169125316489556 0.015776898876195371 0 -0.0071180344245965572 0.014999962002421078 0 -0.0077918900240373278 0.01553207424932268 0 -0.0071180344245965572 0.014999962002421078 0 -0.0066446742821665433 0.015525176038526402 0 -0.0062614172707949915 0.014999996233442944 0 -0.0072169125316489556 0.015776898876195371 0 -0.0071180344245965572 0.014999962002421078 0 -0.0066446742821665433 0.015525176038526402 0 -0.0072169125316489556 0.015776898876195371 0 -0.0066446742821665433 0.015525176038526402 0 -0.0067846084977691212 0.016380432430670281 0 -0.0066446742821665433 0.015525176038526402 0 -0.0062614172707949915 0.014999996233442944 0 -0.0061082291744431064 0.015895956512490452 0 -0.0054047736055830081 0.014999961295434464 0 -0.005633359602699054 0.01549895889537448 0 -0.0062614172707949915 0.014999996233442944 0 -0.005633359602699054 0.01549895889537448 0 -0.0062614172707949915 0.014999996233442944 0 -0.0061082291744431064 0.015895956512490452 0 -0.005633359602699054 0.01549895889537448 0 -0.0052261772885479714 0.015925988485312736 0 -0.0061082291744431064 0.015895956512490452 0 -0.0055704384793470261 0.01654944813407961 0 -0.0061082291744431064 0.015895956512490452 0 -0.0062281553989043306 0.016687444405981314 0 -0.0066446742821665433 0.015525176038526402 0 -0.0061082291744431064 0.015895956512490452 0 -0.0067846084977691212 0.016380432430670281 0 -0.0061082291744431064 0.015895956512490452 0 -0.0062281553989043306 0.016687444405981314 0 -0.0067846084977691212 0.016380432430670281 0 -0.0062281553989043306 0.016687444405981314 0 -0.0067846084977691212 0.016380432430670281 0 -0.0068272606692369722 0.016950578355101897 0 -0.0067846084977691212 0.016380432430670281 0 -0.007299955945382278 0.016809027781828325 0 -0.0068272606692369722 0.016950578355101897 0 -0.0067846084977691212 0.016380432430670281 0 -0.007299955945382278 0.016809027781828325 0 -0.0075061334196971242 0.016265398890847309 0 -0.0072169125316489556 0.015776898876195371 0 -0.0067846084977691212 0.016380432430670281 0 -0.0075061334196971242 0.016265398890847309 0 -0.0074029035933295632 0.017298010848163924 0 -0.0069904556098126982 0.017341173019020113 0 -0.0071643198015323064 0.017626623419207288 0 -0.0069904556098126982 0.017341173019020113 0 -0.0068749415481053656 0.01767088466721161 0 -0.0071643198015323064 0.017626623419207288 0 -0.0074029035933295632 0.017298010848163924 0 -0.0071302168888434277 0.017100666744413132 0 -0.0069904556098126982 0.017341173019020113 0 -0.007299955945382278 0.016809027781828325 0 -0.0071302168888434277 0.017100666744413132 0 -0.0068272606692369722 0.016950578355101897 0 -0.0074029035933295632 0.017298010848163924 0 -0.007299955945382278 0.016809027781828325 0 -0.0071302168888434277 0.017100666744413132 0 -0.0071302168888434277 0.017100666744413132 0 -0.0068272606692369722 0.016950578355101897 0 -0.0069904556098126982 0.017341173019020113 0 -0.0069904556098126982 0.017341173019020113 0 -0.0064956357162783696 0.017384676443100759 0 -0.0068749415481053656 0.01767088466721161 0 -0.0068272606692369722 0.016950578355101897 0 -0.0069904556098126982 0.017341173019020113 0 -0.0064956357162783696 0.017384676443100759 0 -0.0064956357162783696 0.017384676443100759 0 -0.005905507419741312 0.017148331258577575 0 -0.0062163782516761771 0.017711519862084579 0 -0.0062281553989043306 0.016687444405981314 0 -0.0068272606692369722 0.016950578355101897 0 -0.0064956357162783696 0.017384676443100759 0 -0.0062281553989043306 0.016687444405981314 0 -0.0064956357162783696 0.017384676443100759 0 -0.005905507419741312 0.017148331258577575 0 -0.0054857339356194782 0.016488289602197906 0 -0.0058165511688566054 0.017084597601286122 0 -0.0055704384793470261 0.01654944813407961 0 -0.0062281553989043306 0.016687444405981314 0 -0.005905507419741312 0.017148331258577575 0 -0.0058165511688566054 0.017084597601286122 0 -0.0061472003139306959 0.017674121966898885 0 -0.0057291187813701717 0.017027258740316489 0 -0.0060705249306589586 0.017614246460195365 0 -0.0053611470683847962 0.017436658658657487 0 -0.0056491842048426834 0.017847537814306279 0 -0.0058925372577005855 0.018142347243273061 0 -0.0060705249306589586 0.017614246460195365 0 -0.0056491842048426834 0.017847537814306279 0 -0.0060705249306589586 0.017614246460195365 0 -0.0053611470683847962 0.017436658658657487 0 -0.0056491842048426834 0.017847537814306279 0 -0.0055955659636231728 0.018101155112824015 0 -0.0058925372577005855 0.018142347243273061 0 -0.0055955659636231728 0.018101155112824015 0 -0.0056709372284959895 0.018347524445451589 0 -0.0058925372577005855 0.018142347243273061 0 -0.0056709372284959895 0.018347524445451589 0 -0.0058925372577005855 0.018142347243273061 0 -0.006016374939554205 0.018562389581641206 0 -0.0058925372577005855 0.018142347243273061 0 -0.0064480681449173216 0.018236963207665182 0 -0.0060705249306589586 0.017614246460195365 0 -0.0058925372577005855 0.018142347243273061 0 -0.0064480681449173216 0.018236963207665182 0 -0.006016374939554205 0.018562389581641206 0 -0.0064280644412902689 0.018205742154189124 0 -0.0061472003139306959 0.017674121966898885 0 -0.0064956357162783696 0.017384676443100759 0 -0.0062163782516761771 0.017711519862084579 0 -0.0065937811805791462 0.017877890263299549 0 -0.0064480681449173216 0.018236963207665182 0 -0.0062163782516761771 0.017711519862084579 0 -0.0065937811805791462 0.017877890263299549 0 -0.0064956357162783696 0.017384676443100759 0 -0.0068749415481053656 0.01767088466721161 0 -0.0065937811805791462 0.017877890263299549 0 -0.0068749415481053656 0.01767088466721161 0 -0.0069078314077500218 0.018021836003049629 0 -0.0071026574078253231 0.017865862315437721 0 -0.0068749415481053656 0.01767088466721161 0 -0.0065937811805791462 0.017877890263299549 0 -0.0069078314077500218 0.018021836003049629 0 -0.0064480681449173216 0.018236963207665182 0 -0.0069078314077500218 0.018021836003049629 0 -0.0069498792960762954 0.01834300988426903 0 -0.0064480681449173216 0.018236963207665182 0 -0.0065937811805791462 0.017877890263299549 0 -0.0069078314077500218 0.018021836003049629 0 -0.0069078314077500218 0.018021836003049629 0 -0.0071259771505103502 0.018088957437487074 0 -0.0069498792960762954 0.01834300988426903 0 -0.0072640447654428227 0.018292625691930894 0 -0.0073702285925924763 0.017899841238699428 0 -0.00738802374589925 0.01840168561085298 0 -0.0071259771505103502 0.018088957437487074 0 -0.0069498792960762954 0.01834300988426903 0 -0.0072640447654428227 0.018292625691930894 0 -0.0071259771505103502 0.018088957437487074 0 -0.0072640447654428227 0.018292625691930894 0 -0.0073635209790463719 0.017938628878823099 0 -0.0072709022691943266 0.018340748476132474 0 -0.007615210273356968 0.01762616857354116 0 -0.0071259771505103502 0.018088957437487074 0 -0.0071026574078253231 0.017865862315437721 0 -0.0073635209790463719 0.017938628878823099 0 -0.0073552917891128488 0.017466976338307103 0 -0.007615210273356968 0.01762616857354116 0 -0.0074029035933295632 0.017298010848163924 0 -0.0071643198015323064 0.017626623419207288 0 -0.0073635209790463719 0.017938628878823099 0 -0.0071026574078253231 0.017865862315437721 0 -0.0071643198015323064 0.017626623419207288 0 -0.0073635209790463719 0.017938628878823099 0 -0.0069078314077500218 0.018021836003049629 0 -0.0071259771505103502 0.018088957437487074 0 -0.0071026574078253231 0.017865862315437721 0 -0.0068749415481053656 0.01767088466721161 0 -0.0071026574078253231 0.017865862315437721 0 -0.0071643198015323064 0.017626623419207288 0 -0.0041319773582886715 0.0167072163934242 0 -0.0043018036890218568 0.017166805104499947 0 -0.0036269572477448165 0.016899451703021231 0 -0.0038747151547686041 0.016607259833437842 0 -0.0039288532536176802 0.016972775191931525 0 -0.0036269572477448165 0.016899451703021231 0 -0.0039288532536176802 0.016972775191931525 0 -0.0037200542136851863 0.017097586849731141 0 -0.003633655988861095 0.016505878730275494 0 -0.0036269572477448165 0.016899451703021231 0 -0.0038747151547686041 0.016607259833437842 0 -0.0033069336159792496 0.016728532581691029 0 -0.003633655988861095 0.016505878730275494 0 -0.0036269572477448165 0.016899451703021231 0 -0.0047717629998585967 0.016298739384794831 0 -0.0043824635085409624 0.01683593116295953 0 -0.0050731248814104759 0.016920050395645418 0 -0.0043824635085409624 0.01683593116295953 0 -0.0050731248814104759 0.016920050395645418 0 -0.0047674278033345459 0.017437930707431444 0 -0.005399163268972257 0.016423772736757981 0 -0.0057291187813701717 0.017027258740316489 0 -0.0050731248814104759 0.016920050395645418 0 -0.0057291187813701717 0.017027258740316489 0 -0.0050731248814104759 0.016920050395645418 0 -0.0053611470683847962 0.017436658658657487 0 -0.0053611470683847962 0.017436658658657487 0 -0.0047674278033345459 0.017437930707431444 0 -0.0051334238553587116 0.017624081522240969 0 -0.0050731248814104759 0.016920050395645418 0 -0.0053611470683847962 0.017436658658657487 0 -0.0047674278033345459 0.017437930707431444 0 -0.0047674278033345459 0.017437930707431444 0 -0.0051334238553587116 0.017624081522240969 0 -0.0051668784564606217 0.017908929190576378 0 -0.0039288532536176802 0.016972775191931525 0 -0.0038598702791335501 0.017145010632781153 0 -0.0040099887140278749 0.017280012234414631 0 -0.0043018036890218568 0.017166805104499947 0 -0.0048700738571125076 0.017760843379543572 0 -0.0047674278033345459 0.017437930707431444 0 -0.0051668784564606217 0.017908929190576378 0 -0.0051309350356318357 0.018046127414797285 0 -0.0056491842048426834 0.017847537814306279 0 -0.0053611470683847962 0.017436658658657487 0 -0.0053305262506406596 0.017768920311480696 0 -0.0053611470683847962 0.017436658658657487 0 -0.0051334238553587116 0.017624081522240969 0 -0.0053305262506406596 0.017768920311480696 0 -0.0051668784564606217 0.017908929190576378 0 -0.0053305262506406596 0.017768920311480696 0 -0.0053431522772189174 0.018025769373104732 0 -0.0051334238553587116 0.017624081522240969 0 -0.0051668784564606217 0.017908929190576378 0 -0.0053305262506406596 0.017768920311480696 0 -0.0056491842048426834 0.017847537814306279 0 -0.0053305262506406596 0.017768920311480696 0 -0.0053431522772189174 0.018025769373104732 0 -0.0055955659636231728 0.018101155112824015 0 -0.0053431522772189174 0.018025769373104732 0 -0.0053764557144936236 0.018221736117128802 0 -0.0056491842048426834 0.017847537814306279 0 -0.0055955659636231728 0.018101155112824015 0 -0.0053431522772189174 0.018025769373104732 0 -0.0053431522772189174 0.018025769373104732 0 -0.0051384570138433231 0.018043546587529571 0 -0.0053764557144936236 0.018221736117128802 0 -0.0049246198596280509 0.017845850395846526 0 -0.0048700738571125076 0.017760843379543572 0 -0.0051668784564606217 0.017908929190576378 0 -0.0053431522772189174 0.018025769373104732 0 -0.0051384570138433231 0.018043546587529571 0 -0.0051384570138433231 0.018043546587529571 0 -0.0053764557144936236 0.018221736117128802 0 -0.0053404119191942656 0.018399497125475735 0 -0.0048700738571125076 0.017760843379543572 0 -0.0053536116041746126 0.018454504942987695 0 -0.0051522942655591744 0.018038123062456311 0 -0.0051083578385169165 0.018196834831536793 0 -0.0053404119191942656 0.018399497125475735 0 -0.0055955659636231728 0.018101155112824015 0 -0.0056709372284959895 0.018347524445451589 0 -0.0053764557144936236 0.018221736117128802 0 -0.0038598702791335501 0.017145010632781153 0 -0.0039189088765415577 0.017286584543680254 0 -0.0037966388174652298 0.01730930809521038 0 -0.0038598702791335501 0.017145010632781153 0 -0.0040099887140278749 0.017280012234414631 0 -0.0039189088765415577 0.017286584543680254 0 -0.0048700738571125076 0.017760843379543572 0 -0.0047591608249318547 0.017478892657820891 0 -0.0040099887140278749 0.017280012234414631 0 -0.0039189088765415577 0.017286584543680254 0 -0.0039898237219979701 0.017359180724656486 0 -0.0041874251759675702 0.017164698672180269 0 -0.0047591608249318547 0.017478892657820891 0 -0.0039189088765415577 0.017286584543680254 0 -0.0039575454873508409 0.017343897995379613 0 -0.0038087225884260601 0.017410253532944366 0 -0.0039189088765415577 0.017286584543680254 0 -0.0038087225884260601 0.017410253532944366 0 -0.0037966388174652298 0.01730930809521038 0 -0.0038087225884260601 0.017410253532944366 0 -0.0036794619274938471 0.017385827306051552 0 -0.0037966388174652298 0.01730930809521038 0 -0.0036794619274938471 0.017385827306051552 0 -0.0036841003240883452 0.017265121257150001 0 -0.0035066495608021453 0.017402286205457591 0 -0.0038598702791335501 0.017145010632781153 0 -0.0036841003240883452 0.017265121257150001 0 -0.0037966388174652298 0.01730930809521038 0 -0.0036794619274938471 0.017385827306051552 0 -0.0036841003240883452 0.017265121257150001 0 -0.0037966388174652298 0.01730930809521038 0 -0.0038598702791335501 0.017145010632781153 0 -0.0036841003240883452 0.017265121257150001 0 -0.0037200542136851863 0.017097586849731141 0 -0.0036841003240883452 0.017265121257150001 0 -0.0037200542136851863 0.017097586849731141 0 -0.003523141150686887 0.017204459273055531 0 -0.0039288532536176802 0.016972775191931525 0 -0.0038598702791335501 0.017145010632781153 0 -0.0037200542136851863 0.017097586849731141 0 -0.0036269572477448165 0.016899451703021231 0 -0.0037200542136851863 0.017097586849731141 0 -0.003523141150686887 0.017204459273055531 0 -0.0031574474813248869 0.017044598801823324 0 -0.0036269572477448165 0.016899451703021231 0 -0.003523141150686887 0.017204459273055531 0 -0.0032181903141340986 0.01736297389801969 0 -0.003523141150686887 0.017204459273055531 0 -0.0035066495608021453 0.017402286205457591 0 -0.0036841003240883452 0.017265121257150001 0 -0.003523141150686887 0.017204459273055531 0 -0.0035066495608021453 0.017402286205457591 0 -0.0034220130177893601 0.017599280109499033 0 -0.0035910163825728023 0.017519672342040066 0 -0.0033059304540142419 0.017609411596599105 0 -0.0035066495608021453 0.017402286205457591 0 -0.0035910163825728023 0.017519672342040066 0 -0.0033059304540142419 0.017609411596599105 0 -0.0034220130177893601 0.017599280109499033 0 -0.0035295665389556345 0.01759910827102527 0 -0.0035910163825728023 0.017519672342040066 0 -0.0034220130177893601 0.017599280109499033 0 -0.0035295665389556345 0.01759910827102527 0 -0.0034508019825849703 0.017617144478283161 0 -0.0035295665389556345 0.01759910827102527 0 -0.0034508019825849703 0.017617144478283161 0 -0.0035027518579539185 0.017631443685257559 0 -0.0034508019825849703 0.017617144478283161 0 -0.003463523830277928 0.017632021233854146 0 -0.0035027518579539185 0.017631443685257559 0 -0.0034508019825849703 0.017617144478283161 0 -0.003413343976158098 0.017623834945172549 0 -0.0033964636399635741 0.017605305153065999 0 -0.0034220130177893601 0.017599280109499033 0 -0.0034508019825849703 0.017617144478283161 0 -0.0033964636399635741 0.017605305153065999 0 -0.0048162526966422856 0.015702003716315121 0 -0.0030492198855906955 0.017996178974979172 0 -0.0036451451707938576 0.017596925182466507 0 -0.0037747344107580496 0.017680673741156793 0 -0.0035027518579539185 0.017631443685257559 0 -0.0035295665389556345 0.01759910827102527 0 -0.0036451451707938576 0.017596925182466507 0 -0.0035027518579539185 0.017631443685257559 0 -0.0035295665389556345 0.01759910827102527 0 -0.0036451451707938576 0.017596925182466507 0 -0.0035910163825728023 0.017519672342040066 0 -0.0038087225884260601 0.017410253532944366 0 -0.0035910163825728023 0.017519672342040066 0 -0.0038587276031180921 0.017517378090207612 0 -0.0036451451707938576 0.017596925182466507 0 -0.0035910163825728023 0.017519672342040066 0 -0.0038587276031180921 0.017517378090207612 0 -0.0038087225884260601 0.017410253532944366 0 -0.0036794619274938471 0.017385827306051552 0 -0.0035910163825728023 0.017519672342040066 0 -0.0036794619274938471 0.017385827306051552 0 -0.0035066495608021453 0.017402286205457591 0 -0.0035910163825728023 0.017519672342040066 0 -0.0047591608249318547 0.017478892657820891 0 -0.0047196441717472747 0.017005857606253848 0 -0.0039575454873508409 0.017343897995379613 0 -0.0038087225884260601 0.017410253532944366 0 -0.0038587276031180921 0.017517378090207612 0 -0.0047591608249318547 0.017478892657820891 0 -0.0056012471650518881 0.017678559196309555 0 -0.0051083578385169165 0.018196834831536793 0 -0.0053404119191942656 0.018399497125475735 0 -0.0055181013504389219 0.018606598384447882 0 -0.0053903936321043405 0.01714643574595295 0 -0.0056342314623919901 0.01629070836504928 0 -0.0046541075706419497 0.016376913511836903 0 -0.0053764557144936236 0.018221736117128802 0 -0.0053404119191942656 0.018399497125475735 0 -0.0055181013504389219 0.018606598384447882 0 -0.0056709372284959895 0.018347524445451589 0 -0.0053764557144936236 0.018221736117128802 0 -0.0055545116199761458 0.01864573045592784 0 -0.0055090463316564186 0.018516100806196686 0 -0.0056012471650518881 0.017678559196309555 0 -0.005160189410877993 0.013250944938022093 0 -0.0051877468713061661 0.013285621854589688 0 -0.0046541075706419497 0.016376913511836903 0 -0.0051285919792336734 0.015510289097774481 0 -0.0043809858065338705 0.015579179593207418 0 -0.0056342314623919901 0.01629070836504928 0 -0.0046541075706419497 0.016376913511836903 0 -0.0051285919792336734 0.015510289097774481 0 -0.0050681929603746964 0.010834744582851901 0 -0.00465546543978952 0.010428056612417724 0 -0.0042922174426553569 0.010922985818723434 0 -0.0050681929603746964 0.010834744582851901 0 -0.0057193215521193627 0.01075756972303011 0 -0.0052939868367083013 0.010575109954526924 0 -0.0056342314623919901 0.01629070836504928 0 -0.0051285919792336734 0.015510289097774481 0 -0.005870522969436816 0.015439907983980971 0 -0.0047196441717472747 0.017005857606253848 0 -0.0048162526966422856 0.015702003716315121 0 -0.005160189410877993 0.013250944938022093 0 -0.0048162526966422856 0.015702003716315121 0 -0.0036451451707938576 0.017596925182466507 0 -0.0038587276031180921 0.017517378090207612 0 -0.0037747344107580496 0.017680673741156793 0 -0.0057193215521193627 0.01075756972303011 0 -0.0052939868367083013 0.010575109954526924 0 -0.0057635825600675901 0.010255297090738982 0 -0.003681988303623685 0.017518024020431448 0 -0.0036525063490380639 0.017616469746186698 0 -0.0036087251320955933 0.017587765332480659 0 -0.0052939868367083013 0.010575109954526924 0 -0.005913040711321412 0.010123246915666182 0 -0.0050489214195790213 0.010018159812617621 0 -0.0049870994569932254 0.0098995567524557317 0 -0.0054557171741015254 0.010060583529976503 0 -0.0059166146358665779 0.01008876204832692 0 -0.0050489214195790213 0.010018159812617621 0 -0.0057171598654673517 0.0095864237336654289 0 -0.0057193215521193627 0.01075756972303011 0 -0.0057635825600675901 0.010255297090738982 0 -0.0058430184242903339 0.010265229434008793 0 -0.0048162526966422856 0.015702003716315121 0 -0.0040328490497419395 0.010482811267717785 0 -0.0054486286432816429 0.010375180687333795 0 -0.0049870994569932254 0.0098995567524557317 0 -0.0060553858974898992 0.0099873755127439148 0 -0.0059166146358665779 0.01008876204832692 0 -0.0057171598654673517 0.0095864237336654289 0 -0.0049870994569932254 0.0098995567524557317 0 -0.0040328490497419395 0.010482811267717785 0 -0.0048627437859252677 0.0084643839204954358 0 -0.0040328490497419395 0.010482811267717785 0 -0.0048627437859252677 0.0084643839204954358 0 -0.0049870994569932254 0.0098995567524557317 0 -0.0038943123057131263 0.0099323906156486043 0 -0.0043019622020696773 0.009644201194255549 0 -0.0039877962922399857 0.0096095271030131636 0 -0.00465546543978952 0.010428056612417724 0 -0.0050489214195790213 0.010018159812617621 0 -0.0038660496487835454 0.0096792099861464 0 -0.0050681929603746964 0.010834744582851901 0 -0.0052939868367083013 0.010575109954526924 0 -0.00465546543978952 0.010428056612417724 0 -0.0052939868367083013 0.010575109954526924 0 -0.00465546543978952 0.010428056612417724 0 -0.0050489214195790213 0.010018159812617621 0 -0.0050489214195790213 0.010018159812617621 0 -0.0051360296470925422 0.0091773785409390712 0 -0.0038660496487835454 0.0096792099861464 0 -0.0060553858974898992 0.0099873755127439148 0 -0.0057171598654673517 0.0095864237336654289 0 -0.0064247607645138757 0.0086624398250445492 0 -0.0050489214195790213 0.010018159812617621 0 -0.0051360296470925422 0.0091773785409390712 0 -0.0057171598654673517 0.0095864237336654289 0 -0.0051360296470925422 0.0091773785409390712 0 -0.0057171598654673517 0.0095864237336654289 0 -0.0064247607645138757 0.0086624398250445492 0 -0.0048627437859252677 0.0084643839204954358 0 -0.0054219145672668176 0.0070889222662141697 0 -0.0048627437859252677 0.0084643839204954358 0 -0.0040316594453191973 0.0058940845561678843 0 -0.0049349059408237261 0.0055799066018446999 0 -0.0043916408964867855 0.0059347715063868892 0 -0.0047161731114885915 0.0063946812237922679 0 -0.0034870151988819474 0.0063501698480563822 0 -0.0032324115200556679 0.006201917607678787 0 -0.0031812516375811896 0.0063539109737135403 0 -0.0034870151988819474 0.0063501698480563822 0 -0.0031629529215937147 0.0065829430013860223 0 -0.0031812516375811896 0.0063539109737135403 0 -0.0034870151988819474 0.0063501698480563822 0 -0.0032324115200556679 0.006201917607678787 0 -0.0034236173786528316 0.0060478524301639828 0 -0.0040316594453191973 0.0058940845561678843 0 -0.0033851734635134498 0.006506914941934925 0 -0.0033945905740744423 0.011917166082554205 0 -0.0032515602540689782 0.011988952368319046 0 -0.003488771263806402 0.017656011555864236 0 -0.003413343976158098 0.017623834945172549 0 -0.0033355569120934194 0.017615432048643718 0 -0.0032324115200556679 0.006201917607678787 0 -0.0034236173786528316 0.0060478524301639828 0 -0.0031111110919719363 0.0060792500479393413 0 -0.003488771263806402 0.017656011555864236 0 -0.003463523830277928 0.017632021233854146 0 -0.003413343976158098 0.017623834945172549 0 -0.0034508019825849703 0.017617144478283161 0 -0.003463523830277928 0.017632021233854146 0 -0.003413343976158098 0.017623834945172549 0 -0.003488771263806402 0.017656011555864236 0 -0.0035027518579539185 0.017631443685257559 0 -0.0035673056397270745 0.017617389516597637 0 -0.003488771263806402 0.017656011555864236 0 -0.003463523830277928 0.017632021233854146 0 -0.0035027518579539185 0.017631443685257559 0 -0.0035027518579539185 0.017631443685257559 0 -0.0035673056397270745 0.017617389516597637 0 -0.0036087251320955933 0.017587765332480659 0 -0.0038085507633515625 0.0061625560387245796 0 -0.00382065783851463 0.0061257047681951785 0 -0.0034236173786528316 0.0060478524301639828 0 -0.0036525063490380639 0.017616469746186698 0 -0.003488771263806402 0.017656011555864236 0 -0.0035673056397270745 0.017617389516597637 0 -0.0040328490497419395 0.010482811267717785 0 -0.0033945905740744423 0.011917166082554205 0 -0.0038085507633515625 0.0061625560387245796 0 -0.0034870151988819474 0.0063501698480563822 0 -0.0034236173786528316 0.0060478524301639828 0 -0.003681988303623685 0.017518024020431448 0 -0.0035027518579539185 0.017631443685257559 0 -0.0036087251320955933 0.017587765332480659 0 -0.0036525063490380639 0.017616469746186698 0 -0.0035673056397270745 0.017617389516597637 0 -0.0036087251320955933 0.017587765332480659 0 -0.0076375467140649385 0.013409919186729539 0 -0.0079266426515959398 0.013309879864817357 0 -0.007915889733615929 0.01313473637483741 0 -0.0074759345935361326 0.013177379075048084 0 -0.0076375467140649385 0.013409919186729539 0 -0.007915889733615929 0.01313473637483741 0 -0.0069936178854952862 0.018661648877493466 0 -0.0067374468515002698 0.018973045578529527 0 -0.0074201612117693692 0.018875685957705366 0 -0.007012613603916455 0.016250515416085083 0 -0.0081684504303254617 0.015804604640147074 0 -0.0072033843521971839 0.018515813275118954 0 -0.0074201612117693692 0.018875685957705366 0 -0.00738802374589925 0.01840168561085298 0 -0.0072033843521971839 0.018515813275118954 0 -0.0069936178854952862 0.018661648877493466 0 -0.0074201612117693692 0.018875685957705366 0 -0.0072640447654428227 0.018292625691930894 0 -0.0072033843521971839 0.018515813275118954 0 -0.00738802374589925 0.01840168561085298 0 -0.0069498792960762954 0.01834300988426903 0 -0.0072033843521971839 0.018515813275118954 0 -0.0069936178854952862 0.018661648877493466 0 -0.0069498792960762954 0.01834300988426903 0 -0.0072640447654428227 0.018292625691930894 0 -0.0072033843521971839 0.018515813275118954 0 -0.0069936178854952862 0.018661648877493466 0 -0.0065317033447544687 0.018637862893715402 0 -0.0067374468515002698 0.018973045578529527 0 -0.0069498792960762954 0.01834300988426903 0 -0.0069936178854952862 0.018661648877493466 0 -0.0065317033447544687 0.018637862893715402 0 -0.0064480681449173216 0.018236963207665182 0 -0.0069498792960762954 0.01834300988426903 0 -0.0065317033447544687 0.018637862893715402 0 -0.007012613603916455 0.016250515416085083 0 -0.0063960462788945132 0.01478823177723934 0 -0.0074759345935361326 0.013177379075048084 0 -0.007051394030802619 0.013225111491575165 0 -0.007353972465541897 0.013505169606238742 0 -0.0065317033447544687 0.018637862893715402 0 -0.0067374468515002698 0.018973045578529527 0 -0.0060037407683152392 0.019058442283519057 0 -0.0064480681449173216 0.018236963207665182 0 -0.0065317033447544687 0.018637862893715402 0 -0.006016374939554205 0.018562389581641206 0 -0.0065317033447544687 0.018637862893715402 0 -0.006016374939554205 0.018562389581641206 0 -0.0060037407683152392 0.019058442283519057 0 -0.0056709372284959895 0.018347524445451589 0 -0.0055545116199761458 0.01864573045592784 0 -0.006016374939554205 0.018562389581641206 0 -0.0055545116199761458 0.01864573045592784 0 -0.006016374939554205 0.018562389581641206 0 -0.0060037407683152392 0.019058442283519057 0 -0.0056012471650518881 0.017678559196309555 0 -0.0063960462788945132 0.01478823177723934 0 -0.0067233837901884037 0.011787191844665977 0 -0.0074304634320418337 0.011717725300561418 0 -0.0062193634166282279 0.011039468873763144 0 -0.0062891854437207139 0.016437063456766349 0 -0.0048876560913418896 0.014974558204926443 0 -0.0057554715071336752 0.014887621234951232 0 -0.0056012471650518881 0.017678559196309555 0 -0.0051877468713061661 0.013285621854589688 0 -0.0063960462788945132 0.01478823177723934 0 -0.0051877468713061661 0.013285621854589688 0 -0.0074304634320418337 0.011717725300561418 0 -0.0067781434066617255 0.0098032226367770064 0 -0.0062193634166282279 0.011039468873763144 0 -0.00465546543978952 0.010428056612417724 0 -0.0042922174426553569 0.010922985818723434 0 -0.0038660496487835454 0.0096792099861464 0 -0.0051877468713061661 0.013285621854589688 0 -0.0058956856501486809 0.0082162771246013736 0 -0.0057293586804969395 0.0063756320025655259 0 -0.0064536054185431067 0.0061576822152240871 0 -0.0062871526784746452 0.0068396125987236454 0 -0.0053215726185899311 0.0078221053602984605 0 -0.0058956856501486809 0.0082162771246013736 0 -0.0067362805199742753 0.006708172199236472 0 -0.0068936946606684424 0.0068095213250607273 0 -0.0066702451702801155 0.0068211270322620565 0 -0.0058956856501486809 0.0082162771246013736 0 -0.006499896381237753 0.0088491638930665566 0 -0.0066213503010636564 0.0066700018933360727 0 -0.0067362805199742753 0.006708172199236472 0 -0.0067408290339635831 0.0066262226150930574 0 -0.0067362805199742753 0.006708172199236472 0 -0.0067633417710153002 0.0066240126135410776 0 -0.0068936946606684424 0.0068095213250607273 0 -0.0067781434066617255 0.0098032226367770064 0 -0.0059469239437851098 0.010115571071179321 0 -0.006326461504720866 0.010085613276440197 0 -0.0066324132704621841 0.0087663545068372671 0 -0.0073195521419923337 0.0067505871718411556 0 -0.0066213503010636564 0.0066700018933360727 0 -0.0067362805199742753 0.006708172199236472 0 -0.0066702451702801155 0.0068211270322620565 0 -0.0058956856501486809 0.0082162771246013736 0 -0.0065067503312311557 0.0065035362965488626 0 -0.0067362805199742753 0.006708172199236472 0 -0.0067633417710153002 0.0066240126135410776 0 -0.0067408290339635831 0.0066262226150930574 0 -0.0067233837901884037 0.011787191844665977 0 -0.0062193634166282279 0.011039468873763144 0 -0.005365169614686781 0.010348258691762641 0 -0.0063960462788945132 0.01478823177723934 0 -0.0071224391067260086 0.0099934589643224485 0 -0.0066324132704621841 0.0087663545068372671 0 -0.0073231726084306056 0.008706150556076259 0 -0.0066324132704621841 0.0087663545068372671 0 -0.0071224391067260086 0.0099934589643224485 0 -0.0067781434066617255 0.0098032226367770064 0 -0.006326461504720866 0.010085613276440197 0 -0.0062193634166282279 0.011039468873763144 0 -0.0066423405784296497 0.0088892827303655615 0 -0.0072092539414583762 0.0086147148930016404 0 -0.0074159600778926586 0.0088253495424693018 0 -0.0057767684711183221 0.010127988351439186 0 -0.0059441298181664827 0.010115157591254224 0 -0.0062193634166282279 0.011039468873763144 0 -0.0057984040941060945 0.010136912042804078 0 -0.0062193634166282279 0.011039468873763144 0 -0.005365169614686781 0.010348258691762641 0 -0.0066324132704621841 0.0087663545068372671 0 -0.006499896381237753 0.0088491638930665566 0 -0.0059441298181664827 0.010115157591254224 0 -0.006326461504720866 0.010085613276440197 0 -0.0062193634166282279 0.011039468873763144 0 -0.006499896381237753 0.0088491638930665566 0 -0.0062826020633641446 0.0091256672997053236 0 -0.0066324132704621841 0.0087663545068372671 0 -0.0064823987519821418 0.010918802030432693 0 -0.0074759345935361326 0.013177379075048084 0 -0.007353972465541897 0.013505169606238742 0 -0.0076375467140649385 0.013409919186729539 0 -0.0073231726084306056 0.008706150556076259 0 -0.0084570090412699854 0.0085018116636894382 0 -0.0071224391067260086 0.0099934589643224485 0 -0.0079525398710218794 0.011275334344059574 0 -0.0069288404041863757 0.0096174335636788118 0 -0.0071208635348596261 0.0098125022564233971 0 -0.0084735663278602113 0.0090386456508155313 0 -0.0071208635348596261 0.0098125022564233971 0 -0.0084735663278602113 0.0090386456508155313 0 -0.009061755319309233 0.0096474434552310372 0 -0.0071224391067260086 0.0099934589643224485 0 -0.0073231726084306056 0.008706150556076259 0 -0.0078300366846050864 0.007254611980325257 0 -0.0078346828632390904 0.0072506432307744909 0 -0.0078449693081534318 0.0072402385593832511 0 -0.0078354760952959821 0.0072651666864317309 0 -0.0078334834913563727 0.007262672834089985 0 -0.0078346828632390904 0.0072506432307744909 0 -0.0078354760952959821 0.0072651666864317309 0 -0.0078346828632390904 0.0072506432307744909 0 -0.0078385679827977228 0.0072405966935132453 0 -0.0073231726084306056 0.008706150556076259 0 -0.0073803523891034289 0.0076319080677687652 0 -0.0078346828632390904 0.0072506432307744909 0 -0.0078375318131574945 0.0072383457047305953 0 -0.0078385679827977228 0.0072405966935132453 0 -0.0078346828632390904 0.0072506432307744909 0 -0.0078405601647034816 0.0072416890135262608 0 -0.0078449693081534318 0.0072402385593832511 0 -0.0078405601647034816 0.0072416890135262608 0 -0.0078375318131574945 0.0072383457047305953 0 -0.0078454185002330562 0.0072363253189820093 0 -0.0078405601647034816 0.0072416890135262608 0 -0.0078449693081534318 0.0072402385593832511 0 -0.0078454185002330562 0.0072363253189820093 0 -0.0078346828632390904 0.0072506432307744909 0 -0.0078405601647034816 0.0072416890135262608 0 -0.0078375318131574945 0.0072383457047305953 0 -0.0079525398710218794 0.011275334344059574 0 -0.0091582989260106801 0.010974972270453204 0 -0.0084735663278602113 0.0090386456508155313 0 -0.010018160969128618 0.0084618974151605322 0 -0.010049961163279872 0.0090211699125979181 0 -0.0084735663278602113 0.0090386456508155313 0 -0.009061755319309233 0.0096474434552310372 0 -0.010049961163279872 0.0090211699125979181 0 -0.00783187651298216 0.0072271147017694106 0 -0.0078383461298528086 0.0072273463510276522 0 -0.0078295726345153308 0.0072144707914230371 0 -0.00749738124543671 0.0072515233756684496 0 -0.0073825379491064304 0.0072185152264567197 0 -0.0075798827594612331 0.0065348366762094552 0 -0.0073825379491064304 0.0072185152264567197 0 -0.00783187651298216 0.0072271147017694106 0 -0.0078375318131574945 0.0072383457047305953 0 -0.0078454185002330562 0.0072363253189820093 0 -0.00783187651298216 0.0072271147017694106 0 -0.0078375318131574945 0.0072383457047305953 0 -0.0078383461298528086 0.0072273463510276522 0 -0.0078375318131574945 0.0072383457047305953 0 -0.0078385679827977228 0.0072405966935132453 0 -0.0078383461298528086 0.0072273463510276522 0 -0.0073195521419923337 0.0067505871718411556 0 -0.00749738124543671 0.0072515233756684496 0 -0.0068936946606684424 0.0068095213250607273 0 -0.0070846757700802005 0.0071132872591457208 0 -0.0067121364412469865 0.0070034629475575995 0 -0.0070846757700802005 0.0071132872591457208 0 -0.0067121364412469865 0.0070034629475575995 0 -0.0068112139357801348 0.0074317734494176481 0 -0.0067121364412469865 0.0070034629475575995 0 -0.0064097766918624101 0.0073553916925926085 0 -0.0068112139357801348 0.0074317734494176481 0 -0.0067121364412469865 0.0070034629475575995 0 -0.0065941029731491083 0.0065635866573806791 0 -0.0062871526784746452 0.0068396125987236454 0 -0.0068936946606684424 0.0068095213250607273 0 -0.0067121364412469865 0.0070034629475575995 0 -0.0066702451702801155 0.0068211270322620565 0 -0.0067243684972653154 0.0070193069372700362 0 -0.0065067503312311557 0.0065035362965488626 0 -0.0064536054185431067 0.0061576822152240871 0 -0.0065941029731491083 0.0065635866573806791 0 -0.0062871526784746452 0.0068396125987236454 0 -0.0062871526784746452 0.0068396125987236454 0 -0.0064097766918624101 0.0073553916925926085 0 -0.0059201704741124617 0.0072009067520266727 0 -0.0067121364412469865 0.0070034629475575995 0 -0.0062871526784746452 0.0068396125987236454 0 -0.0064097766918624101 0.0073553916925926085 0 -0.0064097766918624101 0.0073553916925926085 0 -0.0065251538817206051 0.0077676260233110403 0 -0.0061069762664768832 0.0077580731635944616 0 -0.0064097766918624101 0.0073553916925926085 0 -0.0059201704741124617 0.0072009067520266727 0 -0.0061069762664768832 0.0077580731635944616 0 -0.0065251538817206051 0.0077676260233110403 0 -0.0061069762664768832 0.0077580731635944616 0 -0.0063364389422150133 0.0080928836394945497 0 -0.0065251538817206051 0.0077676260233110403 0 -0.0066408516941810465 0.0079906707057907402 0 -0.0063364389422150133 0.0080928836394945497 0 -0.0066408516941810465 0.0079906707057907402 0 -0.0068259239189858859 0.0077714803117675682 0 -0.0068648872050776138 0.0080623255170056852 0 -0.0065251538817206051 0.0077676260233110403 0 -0.0066408516941810465 0.0079906707057907402 0 -0.0068259239189858859 0.0077714803117675682 0 -0.0065251538817206051 0.0077676260233110403 0 -0.0068112139357801348 0.0074317734494176481 0 -0.0068259239189858859 0.0077714803117675682 0 -0.0064097766918624101 0.0073553916925926085 0 -0.0065251538817206051 0.0077676260233110403 0 -0.0068112139357801348 0.0074317734494176481 0 -0.0068112139357801348 0.0074317734494176481 0 -0.0070372640385970332 0.0075475718946089454 0 -0.0068259239189858859 0.0077714803117675682 0 -0.0070846757700802005 0.0071132872591457208 0 -0.0070372640385970332 0.0075475718946089454 0 -0.0072545302883060686 0.0074886134844607604 0 -0.0070846757700802005 0.0071132872591457208 0 -0.0068112139357801348 0.0074317734494176481 0 -0.0070372640385970332 0.0075475718946089454 0 -0.0068259239189858859 0.0077714803117675682 0 -0.0070406734670700371 0.0078196628346921138 0 -0.0068648872050776138 0.0080623255170056852 0 -0.0070372640385970332 0.0075475718946089454 0 -0.0068259239189858859 0.0077714803117675682 0 -0.0070406734670700371 0.0078196628346921138 0 -0.0070372640385970332 0.0075475718946089454 0 -0.0070406734670700371 0.0078196628346921138 0 -0.0071780531714074943 0.0076531899256725086 0 -0.0073825379491064304 0.0072185152264567197 0 -0.0073448769201241385 0.0076770166511125381 0 -0.0069501783055179222 0.0068282192801040822 0 -0.0076130346227169269 0.0071942809632652253 0 -0.0074349050188265604 0.0077618871262244375 0 -0.0071780531714074943 0.0076531899256725086 0 -0.0072292356437523705 0.0075047867150133708 0 -0.0074349050188265604 0.0077618871262244375 0 -0.0070406734670700371 0.0078196628346921138 0 -0.0072284859395179901 0.0078613813376315934 0 -0.0071112977845867566 0.0080487031976277986 0 -0.0070406734670700371 0.0078196628346921138 0 -0.0071780531714074943 0.0076531899256725086 0 -0.0072284859395179901 0.0078613813376315934 0 -0.0071780531714074943 0.0076531899256725086 0 -0.0072284859395179901 0.0078613813376315934 0 -0.0074349050188265604 0.0077618871262244375 0 -0.0073159476172541911 0.0058381052515639005 0 -0.0069501783055179222 0.0068282192801040822 0 -0.0078444278263297522 0.0066428882715523713 0 -0.0072010145972100318 0.0076409579482681874 0 -0.0073825379491064304 0.0072185152264567197 0 -0.0070372640385970332 0.0075475718946089454 0 -0.0071780531714074943 0.0076531899256725086 0 -0.0072545302883060686 0.0074886134844607604 0 -0.0045956880269555946 0.0072372008193870453 0 -0.0049101329603042209 0.006577909977088371 0 -0.0053147996672539563 0.0070125272517506752 0 -0.0045956880269555946 0.0072372008193870453 0 -0.0053147996672539563 0.0070125272517506752 0 -0.005385432800531248 0.007622349089419121 0 -0.0045581036337458422 0.0070060759842872702 0 -0.0054219145672668176 0.0070889222662141697 0 -0.0045956880269555946 0.0072372008193870453 0 -0.0038003845390634831 0.0070385794549884069 0 -0.0039252302215718633 0.0076761335130488342 0 -0.0045956880269555946 0.0072372008193870453 0 -0.0038003845390634831 0.0070385794549884069 0 -0.0044214724741237291 0.0065168398951676691 0 -0.0043916408964867855 0.0059347715063868892 0 -0.0044214724741237291 0.0065168398951676691 0 -0.0036970921284599115 0.0063207676138711966 0 -0.0038003845390634831 0.0070385794549884069 0 -0.0044214724741237291 0.0065168398951676691 0 -0.0036970921284599115 0.0063207676138711966 0 -0.0045956880269555946 0.0072372008193870453 0 -0.0044214724741237291 0.0065168398951676691 0 -0.0047895810196735156 0.0063807429249487183 0 -0.0043916408964867855 0.0059347715063868892 0 -0.0044214724741237291 0.0065168398951676691 0 -0.0047161731114885915 0.0063946812237922679 0 -0.0046174571251992921 0.0068389651300418157 0 -0.0054219145672668176 0.0070889222662141697 0 -0.0057293586804969395 0.0063756320025655259 0 -0.0049101329603042209 0.006577909977088371 0 -0.0053147996672539563 0.0070125272517506752 0 -0.0053215726185899311 0.0078221053602984605 0 -0.0054219145672668176 0.0070889222662141697 0 -0.0057293586804969395 0.0063756320025655259 0 -0.0059201704741124617 0.0072009067520266727 0 -0.0053147996672539563 0.0070125272517506752 0 -0.0057293586804969395 0.0063756320025655259 0 -0.0062871526784746452 0.0068396125987236454 0 -0.0059201704741124617 0.0072009067520266727 0 -0.0059201704741124617 0.0072009067520266727 0 -0.0053147996672539563 0.0070125272517506752 0 -0.005385432800531248 0.007622349089419121 0 -0.0059201704741124617 0.0072009067520266727 0 -0.005385432800531248 0.007622349089419121 0 -0.0061069762664768832 0.0077580731635944616 0 -0.005385432800531248 0.007622349089419121 0 -0.0061069762664768832 0.0077580731635944616 0 -0.0058441072757295341 0.0082351412416951895 0 -0.0061069762664768832 0.0077580731635944616 0 -0.0058441072757295341 0.0082351412416951895 0 -0.0063364389422150133 0.0080928836394945497 0 -0.005385432800531248 0.007622349089419121 0 -0.0058441072757295341 0.0082351412416951895 0 -0.0045866161341380106 0.0082679200250407436 0 -0.0045956880269555946 0.0072372008193870453 0 -0.005385432800531248 0.007622349089419121 0 -0.0045866161341380106 0.0082679200250407436 0 -0.0045956880269555946 0.0072372008193870453 0 -0.0045866161341380106 0.0082679200250407436 0 -0.0039252302215718633 0.0076761335130488342 0 -0.0045866161341380106 0.0082679200250407436 0 -0.0034198235456312574 0.0082589580633511787 0 -0.0036724612677743345 0.0089308257192618427 0 -0.0045866161341380106 0.0082679200250407436 0 -0.0039252302215718633 0.0076761335130488342 0 -0.0034198235456312574 0.0082589580633511787 0 -0.0034198235456312574 0.0082589580633511787 0 -0.0025917065347857474 0.0082859642779549696 0 -0.0030004405141893825 0.0076231486160237638 0 -0.0034198235456312574 0.0082589580633511787 0 -0.0025917065347857474 0.0082859642779549696 0 -0.0026417882443618723 0.0090351573147415577 0 -0.0025917065347857474 0.0082859642779549696 0 -0.0030004405141893825 0.0076231486160237638 0 -0.0020208987196130234 0.0078611882419689309 0 -0.0038003845390634831 0.0070385794549884069 0 -0.0039252302215718633 0.0076761335130488342 0 -0.0030004405141893825 0.0076231486160237638 0 -0.0039252302215718633 0.0076761335130488342 0 -0.0034198235456312574 0.0082589580633511787 0 -0.0030004405141893825 0.0076231486160237638 0 -0.0038003845390634831 0.0070385794549884069 0 -0.0028684595159071164 0.006887030116339319 0 -0.0036970921284599115 0.0063207676138711966 0 -0.0038003845390634831 0.0070385794549884069 0 -0.0030004405141893825 0.0076231486160237638 0 -0.0028684595159071164 0.006887030116339319 0 -0.0030004405141893825 0.0076231486160237638 0 -0.0028684595159071164 0.006887030116339319 0 -0.0023517655188217234 0.0072131210945680767 0 -0.0028684595159071164 0.006887030116339319 0 -0.0022785176562314553 0.0067100025196639114 0 -0.0023517655188217234 0.0072131210945680767 0 -0.0028684595159071164 0.006887030116339319 0 -0.0028125840189505555 0.0065468293569543199 0 -0.0022785176562314553 0.0067100025196639114 0 -0.0028125840189505555 0.0065468293569543199 0 -0.0022785176562314553 0.0067100025196639114 0 -0.0025060210713735722 0.0063358959742286346 0 -0.0028125840189505555 0.0065468293569543199 0 -0.0031629529215937147 0.0065829430013860223 0 -0.0029858683471943718 0.0063899742007956098 0 -0.002923030081781955 0.0068371008677299292 0 -0.0033851734635134498 0.006506914941934925 0 -0.0028684595159071164 0.006887030116339319 0 -0.0028125840189505555 0.0065468293569543199 0 -0.0031629529215937147 0.0065829430013860223 0 -0.0014917253862605758 0.0069089474885234547 0 -0.00077707505449686992 0.0059566006182554272 0 -0.001646191491410261 0.0057702104398726951 0 -0.0022785176562314553 0.0067100025196639114 0 -0.0014917253862605758 0.0069089474885234547 0 -0.0018510814180971286 0.0062144878085171242 0 -0.0014769637678644547 0.0072664233703475644 0 -0.0017733416241418676 0.0050591982728997193 0 -0.0022785176562314553 0.0067100025196639114 0 -0.0023517655188217234 0.0072131210945680767 0 -0.0014917253862605758 0.0069089474885234547 0 -0.0023517655188217234 0.0072131210945680767 0 -0.0014917253862605758 0.0069089474885234547 0 -0.0020208987196130234 0.0078611882419689309 0 -0.0014917253862605758 0.0069089474885234547 0 -0.0020208987196130234 0.0078611882419689309 0 -0.00096066230511854158 0.0076270730852162991 0 -0.0020208987196130234 0.0078611882419689309 0 -0.00098493314745749924 0.0085642138003113738 0 -0.00096066230511854158 0.0076270730852162991 0 -0.0030004405141893825 0.0076231486160237638 0 -0.0023517655188217234 0.0072131210945680767 0 -0.0020208987196130234 0.0078611882419689309 0 -0.0025917065347857474 0.0082859642779549696 0 -0.0020208987196130234 0.0078611882419689309 0 -0.0018753750447318229 0.0086696653982917052 0 -0.0020208987196130234 0.0078611882419689309 0 -0.0018753750447318229 0.0086696653982917052 0 -0.00098493314745749924 0.0085642138003113738 0 -0.00098493314745749924 0.0085642138003113738 0 0.00018823231531300602 0.0077542849240190464 0 0.00028862145645301907 0.0086964814972482624 0 -0.00098493314745749924 0.0085642138003113738 0 0.00018823231531300602 0.0077542849240190464 0 -0.00096066230511854158 0.0076270730852162991 0 0.0018393296167114844 0.0082586712952791869 0 0.0011428918962872775 0.0085304806319016092 0 0.0013613632633475918 0.0081060621671880349 0 0.0011428918962872775 0.0085304806319016092 0 0.00087256077723661511 0.00794268224588905 0 0.0013613632633475918 0.0081060621671880349 0 0.0011428918962872775 0.0085304806319016092 0 0.00028862145645301907 0.0086964814972482624 0 0.00087256077723661511 0.00794268224588905 0 0.00018823231531300602 0.0077542849240190464 0 0.00087256077723661511 0.00794268224588905 0 0.0013121677256445409 0.007167467644954178 0 0.00018823231531300602 0.0077542849240190464 0 0.00028862145645301907 0.0086964814972482624 0 0.00087256077723661511 0.00794268224588905 0 0.0018393296167114844 0.0082586712952791869 0 0.0015601638990200804 0.0076865329983246463 0 0.0013613632633475918 0.0081060621671880349 0 0.00087256077723661511 0.00794268224588905 0 0.0015601638990200804 0.0076865329983246463 0 0.0013121677256445409 0.007167467644954178 0 0.00087256077723661511 0.00794268224588905 0 0.0015601638990200804 0.0076865329983246463 0 0.0013613632633475918 0.0081060621671880349 0 0.0014935386542947369 0.0072951252647078663 0 0.00081986334708426735 0.0066441110077255193 0 0.0014395922731706432 0.0067153654226895379 0 0.00025613552079753531 0.007731332422734969 0 0.0014004451216385195 0.0072369417948532156 0 0.00018823231531300602 0.0077542849240190464 0 0.0014935386542947369 0.0072951252647078663 0 0.00081986334708426735 0.0066441110077255193 0 0.00081986334708426735 0.0066441110077255193 0 0.00013834569721744426 0.0060486333579916696 0 0.00078394187750538717 0.006004875411631601 0 0.00081986334708426735 0.0066441110077255193 0 0.0014756066983083573 0.0059551390874010924 0 0.00078394187750538717 0.006004875411631601 0 0.0019912555697215542 0.0065368470369756822 0 0.0014935386542947369 0.0072951252647078663 0 0.0014395922731706432 0.0067153654226895379 0 0.00081986334708426735 0.0066441110077255193 0 0.0014395922731706432 0.0067153654226895379 0 0.0014756066983083573 0.0059551390874010924 0 0.0019912555697215542 0.0065368470369756822 0 0.0014395922731706432 0.0067153654226895379 0 0.0014756066983083573 0.0059551390874010924 0 -0.0014917253862605758 0.0069089474885234547 0 -0.00096066230511854158 0.0076270730852162991 0 -0.00035898227966783093 0.006847517016994706 0 0.00018823231531300602 0.0077542849240190464 0 -0.00096066230511854158 0.0076270730852162991 0 -0.00035898227966783093 0.006847517016994706 0 0.00018823231531300602 0.0077542849240190464 0 0.00081986334708426735 0.0066441110077255193 0 -0.00035898227966783093 0.006847517016994706 0 0.00081986334708426735 0.0066441110077255193 0 -0.00035898227966783093 0.006847517016994706 0 0.00013834569721744426 0.0060486333579916696 0 -0.00035898227966783093 0.006847517016994706 0 -0.00077707505449686992 0.0059566006182554272 0 0.00013834569721744426 0.0060486333579916696 0 -0.0014917253862605758 0.0069089474885234547 0 -0.00035898227966783093 0.006847517016994706 0 -0.00077707505449686992 0.0059566006182554272 0 -0.00077707505449686992 0.0059566006182554272 0 -0.00030051104905743134 0.0051878939431619937 0 -0.0011473309891097978 0.0051126428172533194 0 -0.00077707505449686992 0.0059566006182554272 0 0.00013834569721744426 0.0060486333579916696 0 -0.00030051104905743134 0.0051878939431619937 0 0.00013834569721744426 0.0060486333579916696 0 -0.00030051104905743134 0.0051878939431619937 0 0.00071765944449606804 0.0053735829702851413 0 -0.00030051104905743134 0.0051878939431619937 0 -0.0011473309891097978 0.0051126428172533194 0 -0.00080634236033832714 0.0043416350522920942 0 0.0014756066983083573 0.0059551390874010924 0 0.00071765944449606804 0.0053735829702851413 0 0.00078394187750538717 0.006004875411631601 0 0.00013834569721744426 0.0060486333579916696 0 0.00071765944449606804 0.0053735829702851413 0 0.00078394187750538717 0.006004875411631601 0 0.001979419225982831 0.0045956824857786224 0 0.00071765944449606804 0.0053735829702851413 0 0.00052366149367926741 0.0044781467737808021 0 -0.00030051104905743134 0.0051878939431619937 0 0.00071765944449606804 0.0053735829702851413 0 0.00052366149367926741 0.0044781467737808021 0 0.001979419225982831 0.0045956824857786224 0 0.0014756066983083573 0.0059551390874010924 0 0.00071765944449606804 0.0053735829702851413 0 9.2231232035541936e-05 0.017937594902125081 0 9.7944236609693003e-05 0.01841667864428783 0 -0.00029886980042023454 0.018041914659659552 0 0.0010497070014481712 0.01155181249022324 0 -7.6756517215676072e-05 0.011044746879164832 0 9.7944236609693003e-05 0.01841667864428783 0 -0.00029886980042023454 0.018041914659659552 0 -0.00072488814839192909 0.018273311869568369 0 -0.00072488814839192909 0.018273311869568369 0 -0.00056121782010648557 0.017918272199622842 0 -0.00084843382591663543 0.018016551049214246 0 -0.00029886980042023454 0.018041914659659552 0 -0.00072488814839192909 0.018273311869568369 0 -0.00056121782010648557 0.017918272199622842 0 -0.00056121782010648557 0.017918272199622842 0 -0.00084843382591663543 0.018016551049214246 0 -0.00090291681631149011 0.017634207878738324 0 -0.00051402590012940741 0.017671781440687172 0 -0.00056121782010648557 0.017918272199622842 0 -0.00090291681631149011 0.017634207878738324 0 -0.00051402590012940741 0.017671781440687172 0 -0.00056121782010648557 0.017918272199622842 0 -0.00023088810080211481 0.017824656899865621 0 -0.00029886980042023454 0.018041914659659552 0 -0.00056121782010648557 0.017918272199622842 0 -0.00023088810080211481 0.017824656899865621 0 -0.0002699559595871522 0.017649947555246012 0 -0.00051402590012940741 0.017671781440687172 0 -0.00023088810080211481 0.017824656899865621 0 3.0629517393456964e-05 0.01772661689381292 0 -0.0002699559595871522 0.017649947555246012 0 -0.00023088810080211481 0.017824656899865621 0 3.0629517393456964e-05 0.01772661689381292 0 9.2231232035541936e-05 0.017937594902125081 0 -0.00023088810080211481 0.017824656899865621 0 9.2231232035541936e-05 0.017937594902125081 0 -0.00029886980042023454 0.018041914659659552 0 -0.00023088810080211481 0.017824656899865621 0 -0.00030051104905743134 0.0051878939431619937 0 0.00052366149367926741 0.0044781467737808021 0 -0.00080634236033832714 0.0043416350522920942 0 -0.0012816368533416468 0.013594691944899 0 -0.0012471879248918036 0.01902351400852224 0 -0.00072488814839192909 0.018273311869568369 0 -0.0013112212228504792 0.018075354805584986 0 -0.00084843382591663543 0.018016551049214246 0 -7.6756517215676072e-05 0.011044746879164832 0 -0.0012816368533416468 0.013594691944899 0 -0.0014476386824035636 0.017606058399082448 0 -0.0016188389105825064 0.018269253024337368 0 -0.00084843382591663543 0.018016551049214246 0 -0.0014476386824035636 0.017606058399082448 0 -0.00084843382591663543 0.018016551049214246 0 -0.00090291681631149011 0.017634207878738324 0 -0.0014476386824035636 0.017606058399082448 0 -0.0016188389105825064 0.018269253024337368 0 -0.0019468329952058571 0.017861715681578957 0 -0.0019468329952058571 0.017861715681578957 0 -0.0023884189363600917 0.01811845875682961 0 -0.0024559333157091606 0.01772627905974733 0 -0.0021235783067631978 0.017371142975338087 0 -0.0019468329952058571 0.017861715681578957 0 -0.0024559333157091606 0.01772627905974733 0 -0.0012816368533416468 0.013594691944899 0 -0.0023653159839616428 0.009452387529123701 0 -0.0016188389105825064 0.018269253024337368 0 -0.0019468329952058571 0.017861715681578957 0 -0.0023884189363600917 0.01811845875682961 0 -0.0011473309891097978 0.0051126428172533194 0 -0.00080634236033832714 0.0043416350522920942 0 -0.0018335746585499242 0.0046946911360637947 0 -0.0019555816887513837 0.013473268496579816 0 -0.002007994387998392 0.013480417779475997 0 -0.0020121484138816621 0.013472886790169419 0 -0.0012816368533416468 0.013594691944899 0 -0.0022316282754575863 0.017034463422360691 0 -0.0032405735563053972 0.017514894296883115 0 -0.0032149143795736179 0.017485994369731729 0 -0.0032817569741422584 0.017527620713655091 0 -0.0032083384631052289 0.017492208768206365 0 -0.0032405735563053972 0.017514894296883115 0 -0.0032557660885486244 0.017538875335169637 0 -0.0022316282754575863 0.017034463422360691 0 -0.0031518651066290704 0.01770279635491015 0 -0.0032405735563053972 0.017514894296883115 0 -0.0032690771996354432 0.017537702400535711 0 -0.0032557660885486244 0.017538875335169637 0 -0.0023653159839616428 0.009452387529123701 0 -0.0022316282754575863 0.017034463422360691 0 -0.0032083384631052289 0.017492208768206365 0 -0.0032405735563053972 0.017514894296883115 0 -0.0032149143795736179 0.017485994369731729 0 -0.0024152757491846632 0.017980217923867923 0 -0.0024559333157091606 0.01772627905974733 0 -0.0028562735584950292 0.017860054831912043 0 -0.0022316282754575863 0.017034463422360691 0 -0.002337125718488996 0.017986457673571054 0 -0.0031518651066290704 0.01770279635491015 0 -0.0032358136555643117 0.017631892779417967 0 -0.0028966589226435838 0.017541411399260472 0 -0.0028562735584950292 0.017860054831912043 0 -0.0033059304540142419 0.017609411596599105 0 -0.0028966589226435838 0.017541411399260472 0 -0.0024559333157091606 0.01772627905974733 0 -0.0028562735584950292 0.017860054831912043 0 -0.0032181903141340986 0.01736297389801969 0 -0.0028966589226435838 0.017541411399260472 0 -0.0033059304540142419 0.017609411596599105 0 -0.0032817569741422584 0.017527620713655091 0 -0.0033059304540142419 0.017609411596599105 0 -0.0033368518097100968 0.017585813422883904 0 -0.0034220130177893601 0.017599280109499033 0 -0.0033059304540142419 0.017609411596599105 0 -0.0033368518097100968 0.017585813422883904 0 -0.0033316832763344039 0.017590377716034045 0 -0.0033368518097100968 0.017585813422883904 0 -0.0032982134316181786 0.017563968658669011 0 -0.0033316832763344039 0.017590377716034045 0 -0.0033368518097100968 0.017585813422883904 0 -0.0033603820163751958 0.017602120608663209 0 -0.0034220130177893601 0.017599280109499033 0 -0.0033368518097100968 0.017585813422883904 0 -0.0033964636399635741 0.017605305153065999 0 -0.0033368518097100968 0.017585813422883904 0 -0.0033603820163751958 0.017602120608663209 0 -0.0033964636399635741 0.017605305153065999 0 -0.003413343976158098 0.017623834945172549 0 -0.0033603820163751958 0.017602120608663209 0 -0.0033964636399635741 0.017605305153065999 0 -0.0032817569741422584 0.017527620713655091 0 -0.0033368518097100968 0.017585813422883904 0 -0.0032982134316181786 0.017563968658669011 0 -0.0032405735563053972 0.017514894296883115 0 -0.0032817569741422584 0.017527620713655091 0 -0.0032690771996354432 0.017537702400535711 0 -0.0032817569741422584 0.017527620713655091 0 -0.0032982134316181786 0.017563968658669011 0 -0.0032690771996354432 0.017537702400535711 0 -0.0032982134316181786 0.017563968658669011 0 -0.0032690771996354432 0.017537702400535711 0 -0.0032557660885486244 0.017538875335169637 0 -0.0032982134316181786 0.017563968658669011 0 -0.0032557660885486244 0.017538875335169637 0 -0.0033355569120934194 0.017615432048643718 0 -0.002451970394279687 0.0057754292719170213 0 -0.0027548779107547522 0.0060697405560839078 0 -0.0029606745656892567 0.0059996128542315567 0 -0.0028829577308369576 0.0060987867043995093 0 -0.0029852795216868001 0.0059737639240071928 0 -0.0029606745656892567 0.0059996128542315567 0 -0.0029414641609718621 0.0088684497779612115 0 -0.0032515602540689782 0.011988952368319046 0 -0.0029414641609718621 0.0088684497779612115 0 -0.0025796548860981651 0.005675602293168395 0 -0.002451970394279687 0.0057754292719170213 0 -0.0027548779107547522 0.0060697405560839078 0 -0.0025665253833321113 0.0061019011963143353 0 -0.0034236173786528316 0.0060478524301639828 0 -0.0029852795216868001 0.0059737639240071928 0 -0.0031111110919719363 0.0060792500479393413 0 -0.003413343976158098 0.017623834945172549 0 -0.0033603820163751958 0.017602120608663209 0 -0.0033355569120934194 0.017615432048643718 0 -0.0033316832763344039 0.017590377716034045 0 -0.0032982134316181786 0.017563968658669011 0 -0.0033355569120934194 0.017615432048643718 0 -0.0033316832763344039 0.017590377716034045 0 -0.0033603820163751958 0.017602120608663209 0 -0.0033355569120934194 0.017615432048643718 0 -0.0027548779107547522 0.0060697405560839078 0 -0.0029606745656892567 0.0059996128542315567 0 -0.0030061005363414424 0.0061863411561305778 0 -0.0029606745656892567 0.0059996128542315567 0 -0.0031111110919719363 0.0060792500479393413 0 -0.0030061005363414424 0.0061863411561305778 0 -0.0029852795216868001 0.0059737639240071928 0 -0.0029606745656892567 0.0059996128542315567 0 -0.0031111110919719363 0.0060792500479393413 0 -0.0032324115200556679 0.006201917607678787 0 -0.0030061005363414424 0.0061863411561305778 0 -0.0031812516375811896 0.0063539109737135403 0 -0.0032324115200556679 0.006201917607678787 0 -0.0031111110919719363 0.0060792500479393413 0 -0.0030061005363414424 0.0061863411561305778 0 -0.0030061005363414424 0.0061863411561305778 0 -0.0029858683471943718 0.0063899742007956098 0 -0.00277228249722549 0.0062680279047128808 0 -0.0030061005363414424 0.0061863411561305778 0 -0.0029858683471943718 0.0063899742007956098 0 -0.0031812516375811896 0.0063539109737135403 0 -0.0031629529215937147 0.0065829430013860223 0 -0.0029858683471943718 0.0063899742007956098 0 -0.0031812516375811896 0.0063539109737135403 0 -0.0025665253833321113 0.0061019011963143353 0 -0.0025060210713735722 0.0063358959742286346 0 -0.0023154372643380168 0.0060376031337988408 0 -0.0025665253833321113 0.0061019011963143353 0 -0.00277228249722549 0.0062680279047128808 0 -0.0025060210713735722 0.0063358959742286346 0 -0.0027548779107547522 0.0060697405560839078 0 -0.0030061005363414424 0.0061863411561305778 0 -0.00277228249722549 0.0062680279047128808 0 -0.0027548779107547522 0.0060697405560839078 0 -0.0025665253833321113 0.0061019011963143353 0 -0.00277228249722549 0.0062680279047128808 0 -0.0028125840189505555 0.0065468293569543199 0 -0.00277228249722549 0.0062680279047128808 0 -0.0025060210713735722 0.0063358959742286346 0 -0.0028125840189505555 0.0065468293569543199 0 -0.0029858683471943718 0.0063899742007956098 0 -0.00277228249722549 0.0062680279047128808 0 -0.0022785176562314553 0.0067100025196639114 0 -0.0025060210713735722 0.0063358959742286346 0 -0.0018510814180971286 0.0062144878085171242 0 -0.0025060210713735722 0.0063358959742286346 0 -0.0018510814180971286 0.0062144878085171242 0 -0.0023154372643380168 0.0060376031337988408 0 -0.00077707505449686992 0.0059566006182554272 0 -0.0011473309891097978 0.0051126428172533194 0 -0.001646191491410261 0.0057702104398726951 0 -0.0023653159839616428 0.009452387529123701 0 -0.0017733416241418676 0.0050591982728997193 0 -0.0011473309891097978 0.0051126428172533194 0 -0.0018335746585499242 0.0046946911360637947 0 -0.001646191491410261 0.0057702104398726951 0 -0.0023653159839616428 0.009452387529123701 0 -0.0029414641609718621 0.0088684497779612115 0 -0.0020395755586054046 0.0056665971277515626 0 -0.0024238606143944432 0.0057891488695137562 0 -0.0022063351713174193 0.005758973233320812 0 -0.0018510814180971286 0.0062144878085171242 0 -0.0022063351713174193 0.005758973233320812 0 -0.0023154372643380168 0.0060376031337988408 0 -0.0020395755586054046 0.0056665971277515626 0 -0.0018510814180971286 0.0062144878085171242 0 -0.0022063351713174193 0.005758973233320812 0 -0.0029414641609718621 0.0088684497779612115 0 -0.002096220761093487 0.0071136637626740048 0 -0.002451970394279687 0.0057754292719170213 0 -0.0022063351713174193 0.005758973233320812 0 -0.0023154372643380168 0.0060376031337988408 0 -0.002451970394279687 0.0057754292719170213 0 -0.0025665253833321113 0.0061019011963143353 0 -0.0023154372643380168 0.0060376031337988408 0 -0.015358110034856686 0.01134351217392213 0 -0.015256836895021617 0.01132362528870022 0 -0.015325135617211789 0.011286409431351266 0 -0.015486709238383783 0.011506275440366654 0 -0.01530644935662231 0.011923215446549246 0 -0.015391452934070588 0.012167079263919274 0 -0.015552349452159891 0.011707168882848049 0 -0.015825542030377317 0.012463574358264619 0 -0.015358110034856686 0.01134351217392213 0 -0.01535488818966382 0.011328835010402563 0 -0.015325135617211789 0.011286409431351266 0 -0.015358110034856686 0.01134351217392213 0 -0.015311420896691129 0.011400392048985266 0 -0.01531515341045731 0.011455850123799675 0 -0.015358110034856686 0.01134351217392213 0 -0.015311420896691129 0.011400392048985266 0 -0.015285230347944686 0.011378657637709047 0 -0.015311420896691129 0.011400392048985266 0 -0.01531515341045731 0.011455850123799675 0 -0.015285525043299837 0.011427039509534461 0 -0.015311420896691129 0.011400392048985266 0 -0.015285230347944686 0.011378657637709047 0 -0.015285525043299837 0.011427039509534461 0 -0.015358110034856686 0.01134351217392213 0 -0.015285230347944686 0.011378657637709047 0 -0.015256836895021617 0.01132362528870022 0 -0.015391452934070588 0.012167079263919274 0 -0.014999989904108234 0.011979772358143969 0 -0.015552349452159891 0.011707168882848049 0 -0.014999989904108234 0.011979772358143969 0 -0.015552349452159891 0.011707168882848049 0 -0.014999999390126714 0.011082218375916782 0 -0.015486709238383783 0.011506275440366654 0 -0.015201190330362681 0.010770227443380319 0 -0.01535488818966382 0.011328835010402563 0 -0.015467006336853164 0.011113542980647189 0 -0.015407109733217399 0.010809846903517878 0 -0.01535488818966382 0.011328835010402563 0 -0.015407109733217399 0.010809846903517878 0 -0.015131979898980399 0.010579041062507006 0 -0.015358110034856686 0.01134351217392213 0 -0.01535488818966382 0.011328835010402563 0 -0.015467006336853164 0.011113542980647189 0 -0.01519239050661045 0.011637951649161369 0 -0.015795918512047587 0.010292021726609236 0 -0.015358110034856686 0.01134351217392213 0 -0.015570291118861077 0.011086038439705988 0 -0.015734318483549812 0.011002499592665211 0 -0.015358110034856686 0.01134351217392213 0 -0.01531515341045731 0.011455850123799675 0 -0.015287192728607275 0.01160672656204925 0 -0.015358110034856686 0.01134351217392213 0 -0.015467006336853164 0.011113542980647189 0 -0.015570291118861077 0.011086038439705988 0 -0.01531515341045731 0.011455850123799675 0 -0.0152727307863556 0.011477597002311744 0 -0.015289094635435626 0.011516468284369922 0 -0.01531515341045731 0.011455850123799675 0 -0.0152727307863556 0.011477597002311744 0 -0.015285525043299837 0.011427039509534461 0 -0.015467006336853164 0.011113542980647189 0 -0.015565729805909976 0.010934063959131421 0 -0.015407109733217399 0.010809846903517878 0 -0.015570291118861077 0.011086038439705988 0 -0.015565729805909976 0.010934063959131421 0 -0.015734318483549812 0.011002499592665211 0 -0.015467006336853164 0.011113542980647189 0 -0.015570291118861077 0.011086038439705988 0 -0.015565729805909976 0.010934063959131421 0 -0.015565729805909976 0.010934063959131421 0 -0.015734318483549812 0.011002499592665211 0 -0.015670691687310744 0.010771638650249795 0 -0.015795918512047587 0.010292021726609236 0 -0.015865402914392129 0.010065650342174689 0 -0.015287192728607275 0.01160672656204925 0 -0.015195377638740799 0.011594111974238824 0 -0.015000400280423085 0.011731105118652585 0 -0.015287192728607275 0.01160672656204925 0 -0.015289094635435626 0.011516468284369922 0 -0.015279469239058149 0.011556623810322955 0 -0.015287192728607275 0.01160672656204925 0 -0.015272923306013559 0.011580858697256178 0 -0.015279469239058149 0.011556623810322955 0 -0.015272923306013559 0.011580858697256178 0 -0.015253119720914515 0.011580969006471353 0 -0.015279469239058149 0.011556623810322955 0 -0.015287192728607275 0.01160672656204925 0 -0.015272923306013559 0.011580858697256178 0 -0.015253119720914515 0.011580969006471353 0 -0.015287192728607275 0.01160672656204925 0 -0.015253119720914515 0.011580969006471353 0 -0.015195377638740799 0.011594111974238824 0 -0.015253119720914515 0.011580969006471353 0 -0.015195377638740799 0.011594111974238824 0 -0.015243273178848042 0.011553340330489255 0 -0.015195377638740799 0.011594111974238824 0 -0.015202140465344285 0.011532846252012599 0 -0.015243273178848042 0.011553340330489255 0 -0.015112145186254875 0.011569715141466036 0 -0.015076994385543118 0.011472254597758448 0 -0.015176981752025162 0.011483454318996302 0 -0.015195377638740799 0.011594111974238824 0 -0.015202140465344285 0.011532846252012599 0 -0.015112145186254875 0.011569715141466036 0 -0.015202140465344285 0.011532846252012599 0 -0.015112145186254875 0.011569715141466036 0 -0.015176981752025162 0.011483454318996302 0 -0.015202140465344285 0.011532846252012599 0 -0.015228607507622576 0.011489802453971772 0 -0.015176981752025162 0.011483454318996302 0 -0.015202140465344285 0.011532846252012599 0 -0.015228607507622576 0.011489802453971772 0 -0.01524937225207313 0.0115109493472563 0 -0.01531515341045731 0.011455850123799675 0 -0.015287192728607275 0.01160672656204925 0 -0.015289094635435626 0.011516468284369922 0 -0.015228607507622576 0.011489802453971772 0 -0.0152727307863556 0.011477597002311744 0 -0.015237645496827283 0.011433263275846872 0 -0.015228607507622576 0.011489802453971772 0 -0.0152727307863556 0.011477597002311744 0 -0.01524937225207313 0.0115109493472563 0 -0.0152727307863556 0.011477597002311744 0 -0.015268989039514019 0.011527648134344438 0 -0.01524937225207313 0.0115109493472563 0 -0.0152727307863556 0.011477597002311744 0 -0.015268989039514019 0.011527648134344438 0 -0.015289094635435626 0.011516468284369922 0 -0.015268989039514019 0.011527648134344438 0 -0.015289094635435626 0.011516468284369922 0 -0.015279469239058149 0.011556623810322955 0 -0.015253119720914515 0.011580969006471353 0 -0.015268989039514019 0.011527648134344438 0 -0.015279469239058149 0.011556623810322955 0 -0.015202140465344285 0.011532846252012599 0 -0.015243273178848042 0.011553340330489255 0 -0.01524937225207313 0.0115109493472563 0 -0.015253119720914515 0.011580969006471353 0 -0.015268989039514019 0.011527648134344438 0 -0.015243273178848042 0.011553340330489255 0 -0.015268989039514019 0.011527648134344438 0 -0.015243273178848042 0.011553340330489255 0 -0.01524937225207313 0.0115109493472563 0 -0.015195377638740799 0.011594111974238824 0 -0.015112145186254875 0.011569715141466036 0 -0.015000400280423085 0.011731105118652585 0 -0.014992644194446373 0.011585237425982706 0 -0.014820732255441503 0.011627801457533855 0 -0.015000400280423085 0.011731105118652585 0 -0.015112145186254875 0.011569715141466036 0 -0.014992644194446373 0.011585237425982706 0 -0.015000400280423085 0.011731105118652585 0 -0.015112145186254875 0.011569715141466036 0 -0.014992644194446373 0.011585237425982706 0 -0.015076994385543118 0.011472254597758448 0 -0.014992644194446373 0.011585237425982706 0 -0.014958786098879111 0.011446139852322023 0 -0.014820732255441503 0.011627801457533855 0 -0.014958786098879111 0.011446139852322023 0 -0.015066434850769958 0.011228022140319392 0 -0.014778890003819512 0.011426082977703946 0 -0.014958786098879111 0.011446139852322023 0 -0.015102182314556969 0.011357980474839935 0 -0.015066434850769958 0.011228022140319392 0 -0.014992644194446373 0.011585237425982706 0 -0.014958786098879111 0.011446139852322023 0 -0.015076994385543118 0.011472254597758448 0 -0.015076994385543118 0.011472254597758448 0 -0.015102182314556969 0.011357980474839935 0 -0.015182335752548187 0.011401771542392821 0 -0.014958786098879111 0.011446139852322023 0 -0.015076994385543118 0.011472254597758448 0 -0.015102182314556969 0.011357980474839935 0 -0.015237645496827283 0.011433263275846872 0 -0.015182335752548187 0.011401771542392821 0 -0.015240732199155116 0.011381931544358707 0 -0.015285230347944686 0.011378657637709047 0 -0.015237645496827283 0.011433263275846872 0 -0.015240732199155116 0.011381931544358707 0 -0.0152727307863556 0.011477597002311744 0 -0.015285525043299837 0.011427039509534461 0 -0.015237645496827283 0.011433263275846872 0 -0.015285230347944686 0.011378657637709047 0 -0.015285525043299837 0.011427039509534461 0 -0.015237645496827283 0.011433263275846872 0 -0.015228607507622576 0.011489802453971772 0 -0.015237645496827283 0.011433263275846872 0 -0.015176981752025162 0.011483454318996302 0 -0.015076994385543118 0.011472254597758448 0 -0.015176981752025162 0.011483454318996302 0 -0.015182335752548187 0.011401771542392821 0 -0.015237645496827283 0.011433263275846872 0 -0.015176981752025162 0.011483454318996302 0 -0.015182335752548187 0.011401771542392821 0 -0.015102182314556969 0.011357980474839935 0 -0.015182335752548187 0.011401771542392821 0 -0.015256836895021617 0.01132362528870022 0 -0.015285230347944686 0.011378657637709047 0 -0.015240732199155116 0.011381931544358707 0 -0.015256836895021617 0.01132362528870022 0 -0.015182335752548187 0.011401771542392821 0 -0.015240732199155116 0.011381931544358707 0 -0.015256836895021617 0.01132362528870022 0 -0.015102182314556969 0.011357980474839935 0 -0.015256836895021617 0.01132362528870022 0 -0.015066434850769958 0.011228022140319392 0 -0.015256836895021617 0.01132362528870022 0 -0.015066434850769958 0.011228022140319392 0 -0.015325135617211789 0.011286409431351266 0 -0.014694485792591994 0.011292104713717182 0 -0.01530644935662231 0.011923215446549246 0 -0.014468367426663672 0.011457545199472598 0 -0.01456615809782837 0.011405673261614952 0 -0.014593218843896456 0.011468188216058836 0 -0.014468367426663672 0.011457545199472598 0 -0.014443795846431799 0.011396521058039972 0 -0.014372567045753933 0.01142783781090973 0 -0.014468367426663672 0.011457545199472598 0 -0.014443795846431799 0.011396521058039972 0 -0.01456615809782837 0.011405673261614952 0 -0.013691862732629175 0.014169885481498059 0 -0.013841053241790593 0.014160238583712407 0 -0.013795979737356781 0.014061046844373676 0 -0.013956532147326076 0.01276312351298506 0 -0.014661652326165679 0.013039993314400351 0 -0.014661652326165679 0.013039993314400351 0 -0.0153033361631662 0.01303796293619449 0 -0.015850054972675616 0.012830902936091289 0 -0.015444681204264985 0.012841483698630194 0 -0.015733975809213013 0.012493245790020558 0 -0.015094633313126762 0.013414185566686426 0 -0.014955711286574223 0.01328540598204982 0 -0.014952337316320658 0.013657636018514942 0 -0.014661652326165679 0.013039993314400351 0 -0.01530644935662231 0.011923215446549246 0 -0.01530644935662231 0.011923215446549246 0 -0.015401615344270217 0.01258234896991808 0 -0.015391452934070588 0.012167079263919274 0 -0.015825542030377317 0.012463574358264619 0 -0.015186531533232201 0.012519467280283133 0 -0.015444681204264985 0.012841483698630194 0 -0.015733975809213013 0.012493245790020558 0 -0.015186531533232201 0.012519467280283133 0 -0.015391452934070588 0.012167079263919274 0 -0.014999989904108234 0.011979772358143969 0 -0.015186531533232201 0.012519467280283133 0 -0.014999989904108234 0.011979772358143969 0 -0.015186531533232201 0.012519467280283133 0 -0.014999991748120623 0.012877244191314004 0 -0.0153033361631662 0.01303796293619449 0 -0.014999869629100904 0.012877404387971067 0 -0.014955711286574223 0.01328540598204982 0 -0.014998913487033493 0.012880083769707061 0 -0.014952337316320658 0.013657636018514942 0 -0.015444681204264985 0.012841483698630194 0 -0.015186531533232201 0.012519467280283133 0 -0.014999991748120623 0.012877244191314004 0 -0.014998913487033493 0.012880083769707061 0 -0.014822092196964405 0.014263950915079298 0 -0.014998842172692822 0.014999090866245681 0 -0.014998913487033493 0.012880083769707061 0 -0.014952337316320658 0.013657636018514942 0 -0.014822092196964405 0.014263950915079298 0 -0.014952337316320658 0.013657636018514942 0 -0.014822092196964405 0.014263950915079298 0 -0.014818029736084107 0.014227270005498291 0 -0.014822092196964405 0.014263950915079298 0 -0.014998842172692822 0.014999090866245681 0 -0.014584948171163426 0.014775336397710994 0 -0.014998842172692822 0.014999090866245681 0 -0.014584948171163426 0.014775336397710994 0 -0.013240892585730768 0.01499902251105655 0 -0.014822092196964405 0.014263950915079298 0 -0.014584948171163426 0.014775336397710994 0 -0.014419337833245272 0.014744060020272742 0 -0.014584948171163426 0.014775336397710994 0 -0.013240892585730768 0.01499902251105655 0 -0.014419337833245272 0.014744060020272742 0 -0.013237662717067214 0.014999823196196929 0 -0.013685469008503559 0.01514494453452543 0 -0.013237404189786381 0.014999989679659964 0 -0.013369805364921803 0.015459120455374894 0 -0.01289281429257829 0.015415720399053192 0 -0.013240892585730768 0.01499902251105655 0 -0.014419337833245272 0.014744060020272742 0 -0.013993984696773688 0.014843597921502985 0 -0.014419337833245272 0.014744060020272742 0 -0.013993984696773688 0.014843597921502985 0 -0.014698719738768551 0.014508072984631661 0 -0.013369805364921803 0.015459120455374894 0 -0.013053043670243266 0.015753754844226416 0 -0.01289281429257829 0.015415720399053192 0 -0.013685469008503559 0.01514494453452543 0 -0.013758965851697622 0.014867831744466075 0 -0.013369805364921803 0.015459120455374894 0 -0.01352270737873169 0.015898349650308213 0 -0.013053043670243266 0.015753754844226416 0 -0.01352270737873169 0.015898349650308213 0 -0.012779364550203211 0.016201252633293129 0 -0.013053043670243266 0.015753754844226416 0 -0.013753560852285815 0.013961877538438703 0 -0.013795979737356781 0.014061046844373676 0 -0.01368114566291392 0.014063704256079964 0 -0.013753560852285815 0.013961877538438703 0 -0.01368114566291392 0.014063704256079964 0 -0.013587227704984196 0.014024489394733865 0 -0.013758965851697622 0.014867831744466075 0 -0.013195147705545609 0.015109062331307946 0 -0.014818029736084107 0.014227270005498291 0 -0.014698719738768551 0.014508072984631661 0 -0.015053365253836109 0.01386650819298688 0 -0.014419337833245272 0.014744060020272742 0 -0.014818029736084107 0.014227270005498291 0 -0.014698719738768551 0.014508072984631661 0 -0.014822092196964405 0.014263950915079298 0 -0.014419337833245272 0.014744060020272742 0 -0.014818029736084107 0.014227270005498291 0 -0.013758965851697622 0.014867831744466075 0 -0.014413847417141969 0.013975770363824415 0 -0.014661652326165679 0.013039993314400351 0 -0.014413847417141969 0.013975770363824415 0 -0.014952337316320658 0.013657636018514942 0 -0.014818029736084107 0.014227270005498291 0 -0.015053365253836109 0.01386650819298688 0 -0.015094633313126762 0.013414185566686426 0 -0.014952337316320658 0.013657636018514942 0 -0.015053365253836109 0.01386650819298688 0 -0.013691862732629175 0.014169885481498059 0 -0.013795979737356781 0.014061046844373676 0 -0.01368114566291392 0.014063704256079964 0 -0.013691862732629175 0.014169885481498059 0 -0.01368114566291392 0.014063704256079964 0 -0.013595025558170895 0.014106614421268763 0 -0.01368114566291392 0.014063704256079964 0 -0.013595025558170895 0.014106614421268763 0 -0.013587227704984196 0.014024489394733865 0 -0.013595025558170895 0.014106614421268763 0 -0.013479189413890645 0.014096670493408479 0 -0.013587227704984196 0.014024489394733865 0 -0.013595025558170895 0.014106614421268763 0 -0.013479189413890645 0.014096670493408479 0 -0.013531482035760939 0.014177221943400663 0 -0.012352311476819484 0.016130405651168328 0 -0.012779364550203211 0.016201252633293129 0 -0.012107771316529512 0.016462346957390704 0 -0.013195147705545609 0.015109062331307946 0 -0.012580977335511574 0.015359461244140754 0 -0.013479189413890645 0.014096670493408479 0 -0.013587227704984196 0.014024489394733865 0 -0.013392730417892412 0.014109080237312013 0 -0.012352311476819484 0.016130405651168328 0 -0.012779364550203211 0.016201252633293129 0 -0.012697113430504916 0.015812154057709485 0 -0.012352311476819484 0.016130405651168328 0 -0.012415804661928348 0.015498673434939223 0 -0.012228745535820543 0.016143190649825036 0 -0.012779364550203211 0.016201252633293129 0 -0.013053043670243266 0.015753754844226416 0 -0.012697113430504916 0.015812154057709485 0 -0.012697113430504916 0.015812154057709485 0 -0.012415804661928348 0.015498673434939223 0 -0.01289281429257829 0.015415720399053192 0 -0.013053043670243266 0.015753754844226416 0 -0.012697113430504916 0.015812154057709485 0 -0.01289281429257829 0.015415720399053192 0 -0.012403167177292009 0.015586604584488357 0 -0.012165666418392101 0.016063106824065095 0 -0.012352311476819484 0.016130405651168328 0 -0.012697113430504916 0.015812154057709485 0 -0.012415804661928348 0.015498673434939223 0 -0.012415804661928348 0.015498673434939223 0 -0.012549297300665537 0.014999989201695964 0 -0.011861066244062569 0.014999972185441498 0 -0.012415804661928348 0.015498673434939223 0 -0.012549297300665537 0.014999989201695964 0 -0.01289281429257829 0.015415720399053192 0 -0.013237404189786381 0.014999989679659964 0 -0.012549297300665537 0.014999989201695964 0 -0.01289281429257829 0.015415720399053192 0 -0.011282621751102988 0.015446639773087857 0 -0.011860976588862437 0.014999995770573102 0 -0.011202747644808119 0.014999992043255497 0 -0.011282621751102988 0.015446639773087857 0 -0.011860976588862437 0.014999995770573102 0 -0.011651207832852279 0.015656452820035461 0 -0.01186098914052475 0.015000048488927168 0 -0.011671218943216481 0.015717630533899168 0 -0.012415804661928348 0.015498673434939223 0 -0.011861066244062569 0.014999972185441498 0 -0.011696981394035598 0.015656633347969434 0 -0.012415804661928348 0.015498673434939223 0 -0.011696981394035598 0.015656633347969434 0 -0.012125885147263007 0.016266665813362273 0 -0.011282621751102988 0.015446639773087857 0 -0.011651207832852279 0.015656452820035461 0 -0.011228578110651444 0.015871154802166072 0 -0.011651207832852279 0.015656452820035461 0 -0.01146064169044491 0.016308556908110176 0 -0.011228578110651444 0.015871154802166072 0 -0.011671218943216481 0.015717630533899168 0 -0.011427800871062169 0.015983923166967121 0 -0.01146064169044491 0.016308556908110176 0 -0.011001455258935106 0.0162919368464482 0 -0.011228578110651444 0.015871154802166072 0 -0.011427800871062169 0.015983923166967121 0 -0.012165666418392101 0.016063106824065095 0 -0.011696981394035598 0.015656633347969434 0 -0.011515246083915893 0.016323985642396774 0 -0.012125885147263007 0.016266665813362273 0 -0.012252881074705133 0.016073834598068361 0 -0.012165666418392101 0.016063106824065095 0 -0.013479189413890645 0.014096670493408479 0 -0.013392730417892412 0.014109080237312013 0 -0.013360731128945974 0.014192109534688177 0 -0.012180946434868407 0.015579803058765808 0 -0.012067000492439906 0.015595479978406773 0 -0.012159308836702508 0.01552023612228794 0 -0.012067000492439906 0.015595479978406773 0 -0.012096600389522309 0.015513724388226081 0 -0.012159308836702508 0.01552023612228794 0 -0.013565422765059171 0.014039415083702709 0 -0.013085340429764752 0.014301081801971949 0 -0.012165666418392101 0.016063106824065095 0 -0.012580977335511574 0.015359461244140754 0 -0.012352311476819484 0.016130405651168328 0 -0.012232063488993859 0.016140441891071906 0 -0.012107771316529512 0.016462346957390704 0 -0.012180946434868407 0.015579803058765808 0 -0.012197290208786946 0.015468392322781932 0 -0.012218501879842216 0.015433420022618667 0 -0.010606453427039284 0.0159698642576592 0 -0.010430183149181874 0.016569066996525123 0 -0.010287390839318306 0.016430405966919647 0 -0.012096600389522309 0.015513724388226081 0 -0.012159308836702508 0.01552023612228794 0 -0.012197290208786946 0.015468392322781932 0 -0.012580977335511574 0.015359461244140754 0 -0.012037914760694485 0.015530040121483714 0 -0.012180946434868407 0.015579803058765808 0 -0.012159308836702508 0.01552023612228794 0 -0.012197290208786946 0.015468392322781932 0 -0.011427800871062169 0.015983923166967121 0 -0.0113298159617942 0.015820691991736132 0 -0.012677133111066396 0.013610541431407967 0 -0.012675112428883362 0.013598814631473071 0 -0.012677369275840131 0.013609902561234221 0 -0.01239634065453496 0.014731460086079735 0 -0.011661170007735908 0.01474282566139893 0 -0.011471285922669541 0.015428814069139585 0 -0.012197290208786946 0.015468392322781932 0 -0.012188071195662706 0.015448849896488653 0 -0.012218501879842216 0.015433420022618667 0 -0.012197290208786946 0.015468392322781932 0 -0.012188071195662706 0.015448849896488653 0 -0.012188265856150411 0.015453035936086476 0 -0.012779313545275501 0.014158985280562015 0 -0.0113298159617942 0.015820691991736132 0 -0.013498849363264344 0.01239585615355308 0 -0.013597294077524354 0.013339319293705239 0 -0.012677133111066396 0.013610541431407967 0 -0.012675112428883362 0.013598814631473071 0 -0.012676630976335194 0.01360821843175442 0 -0.012779313545275501 0.014158985280562015 0 -0.011475381327721256 0.015162842553679976 0 -0.012675112428883362 0.013598814631473071 0 -0.012677593122224154 0.013595768322077196 0 -0.012676630976335194 0.01360821843175442 0 -0.014271511442980844 0.011393070026942993 0 -0.014337245495669879 0.011378473661364614 0 -0.014317467718322955 0.011371196618019058 0 -0.014337245495669879 0.011378473661364614 0 -0.014317467718322955 0.011371196618019058 0 -0.014344660671750246 0.011389548570492991 0 -0.012189397503446593 0.015456362381777793 0 -0.012197290208786946 0.015468392322781932 0 -0.012188265856150411 0.015453035936086476 0 -0.014317467718322955 0.011371196618019058 0 -0.014359602188792623 0.011384062680477385 0 -0.014344660671750246 0.011389548570492991 0 -0.013597294077524354 0.013339319293705239 0 -0.014022466064681698 0.012723503798516939 0 -0.0133923248773502 0.014172817788376767 0 -0.013399967888417815 0.014152980914621624 0 -0.013531482035760939 0.014177221943400663 0 -0.013273698501638157 0.013981718708513138 0 -0.013320979085190577 0.013981747859609935 0 -0.013339080203665183 0.01393591520308771 0 -0.012779313545275501 0.014158985280562015 0 -0.013597294077524354 0.013339319293705239 0 -0.012580977335511574 0.015359461244140754 0 -0.013085340429764752 0.014301081801971949 0 -0.012779313545275501 0.014158985280562015 0 -0.013085340429764752 0.014301081801971949 0 -0.013597294077524354 0.013339319293705239 0 -0.013085340429764752 0.014301081801971949 0 -0.013479189413890645 0.014096670493408479 0 -0.013399967888417815 0.014152980914621624 0 -0.013531482035760939 0.014177221943400663 0 -0.014443795846431799 0.011396521058039972 0 -0.014359602188792623 0.011384062680477385 0 -0.014372567045753933 0.01142783781090973 0 -0.013691862732629175 0.014169885481498059 0 -0.013595025558170895 0.014106614421268763 0 -0.013531482035760939 0.014177221943400663 0 -0.013956532147326076 0.01276312351298506 0 -0.014022466064681698 0.012723503798516939 0 -0.015066434850769958 0.011228022140319392 0 -0.014697698686010638 0.011259322028511674 0 -0.014778890003819512 0.011426082977703946 0 -0.014694485792591994 0.011292104713717182 0 -0.014554688999177638 0.011352084392663664 0 -0.014350873345525927 0.011371426807631684 0 -0.014554688999177638 0.011352084392663664 0 -0.014337245495669879 0.011378473661364614 0 -0.014697698686010638 0.011259322028511674 0 -0.014530009070321367 0.011443834545006248 0 -0.014359602188792623 0.011384062680477385 0 -0.014372567045753933 0.01142783781090973 0 -0.014344660671750246 0.011389548570492991 0 -0.014337245495669879 0.011378473661364614 0 -0.014372567045753933 0.01142783781090973 0 -0.014344660671750246 0.011389548570492991 0 -0.014530009070321367 0.011443834545006248 0 -0.014778890003819512 0.011426082977703946 0 -0.014630677009976055 0.011570496854575599 0 -0.014697698686010638 0.011259322028511674 0 -0.014530009070321367 0.011443834545006248 0 -0.014778890003819512 0.011426082977703946 0 -0.014530009070321367 0.011443834545006248 0 -0.014477871084911309 0.0115689056569041 0 -0.014630677009976055 0.011570496854575599 0 -0.014778890003819512 0.011426082977703946 0 -0.014820732255441503 0.011627801457533855 0 -0.014630677009976055 0.011570496854575599 0 -0.014958786098879111 0.011446139852322023 0 -0.014778890003819512 0.011426082977703946 0 -0.014820732255441503 0.011627801457533855 0 -0.014820732255441503 0.011627801457533855 0 -0.014663530885589009 0.011863422917466672 0 -0.015000400280423085 0.011731105118652585 0 -0.014820732255441503 0.011627801457533855 0 -0.014630677009976055 0.011570496854575599 0 -0.014666198709298472 0.011692778683568593 0 -0.014820732255441503 0.011627801457533855 0 -0.014666198709298472 0.011692778683568593 0 -0.014663530885589009 0.011863422917466672 0 -0.014477871084911309 0.0115689056569041 0 -0.014630677009976055 0.011570496854575599 0 -0.014556329166098154 0.011711975827891744 0 -0.014630677009976055 0.011570496854575599 0 -0.014666198709298472 0.011692778683568593 0 -0.014556329166098154 0.011711975827891744 0 -0.014666198709298472 0.011692778683568593 0 -0.014556329166098154 0.011711975827891744 0 -0.014663530885589009 0.011863422917466672 0 -0.014556329166098154 0.011711975827891744 0 -0.014343201695910303 0.011672994830721321 0 -0.01450098484765938 0.011880703058173502 0 -0.014343201695910303 0.011672994830721321 0 -0.014126273501240736 0.011862027435398209 0 -0.01450098484765938 0.011880703058173502 0 -0.014477871084911309 0.0115689056569041 0 -0.014343201695910303 0.011672994830721321 0 -0.01433890451797548 0.011474546142201556 0 -0.014477871084911309 0.0115689056569041 0 -0.014556329166098154 0.011711975827891744 0 -0.014343201695910303 0.011672994830721321 0 -0.014343201695910303 0.011672994830721321 0 -0.014126273501240736 0.011862027435398209 0 -0.013972491283286996 0.01173767532370572 0 -0.014343201695910303 0.011672994830721321 0 -0.013972491283286996 0.01173767532370572 0 -0.01369932681572061 0.011368824034069355 0 -0.014367037913997315 0.011534191298293374 0 -0.013469032276223173 0.012386522453264203 0 -0.013727044811246817 0.011820556006150664 0 -0.013186355825251628 0.011558644655739529 0 -0.01383451358596041 0.012117296533059586 0 -0.014126273501240736 0.011862027435398209 0 -0.013938508177086813 0.011907874481697975 0 -0.013972491283286996 0.01173767532370572 0 -0.013938508177086813 0.011907874481697975 0 -0.013972491283286996 0.01173767532370572 0 -0.013727044811246817 0.011820556006150664 0 -0.013972491283286996 0.01173767532370572 0 -0.013727044811246817 0.011820556006150664 0 -0.013747678228239631 0.011643182915059579 0 -0.013727044811246817 0.011820556006150664 0 -0.013589188657808317 0.011647102179575328 0 -0.013747678228239631 0.011643182915059579 0 -0.013690957108839125 0.01157064114832005 0 -0.013469032276223173 0.012386522453264203 0 -0.013589188657808317 0.011647102179575328 0 -0.013747678228239631 0.011643182915059579 0 -0.01369932681572061 0.011368824034069355 0 -0.013972491283286996 0.01173767532370572 0 -0.013747678228239631 0.011643182915059579 0 -0.01369932681572061 0.011368824034069355 0 -0.013498849363264344 0.01239585615355308 0 -0.013469032276223173 0.012386522453264203 0 -0.012675112428883362 0.013598814631473071 0 -0.01267729144486124 0.013581948729538324 0 -0.012677593122224154 0.013595768322077196 0 -0.013469032276223173 0.012386522453264203 0 -0.014624228599192025 0.011333687616913096 0 -0.014271511442980844 0.011393070026942993 0 -0.014205289809354083 0.01153505213243285 0 -0.01433890451797548 0.011474546142201556 0 -0.014271511442980844 0.011393070026942993 0 -0.014337245495669879 0.011378473661364614 0 -0.01433890451797548 0.011474546142201556 0 -0.014343201695910303 0.011672994830721321 0 -0.014102445108177701 0.011564749016998844 0 -0.01433890451797548 0.011474546142201556 0 -0.014337245495669879 0.011378473661364614 0 -0.014530009070321367 0.011443834545006248 0 -0.01433890451797548 0.011474546142201556 0 -0.014530009070321367 0.011443834545006248 0 -0.014477871084911309 0.0115689056569041 0 -0.01433890451797548 0.011474546142201556 0 -0.0095606695999250584 0.016845313883091743 0 -0.0095863558593498391 0.016824543674305494 0 -0.0097964997430310518 0.016972300537106549 0 -0.01006306402109446 0.016219660191120918 0 -0.010113639011060662 0.016181227208963273 0 -0.0099158671533139155 0.016099241359023582 0 -0.0095606695999250584 0.016845313883091743 0 -0.0097964997430310518 0.016972300537106549 0 -0.0094736293329871924 0.01693871242881119 0 -0.011060718736809199 0.014033533073712197 0 -0.011296609988431272 0.013857123379314745 0 -0.011718663049317572 0.014469375770365622 0 -0.010149208483034751 0.015830115618169528 0 -0.011883832172814468 0.013808306974898986 0 -0.0095606695999250584 0.016845313883091743 0 -0.0094835200715607665 0.016850914364359759 0 -0.0094736293329871924 0.01693871242881119 0 -0.0095606695999250584 0.016845313883091743 0 -0.0095820857962309151 0.016828499599505973 0 -0.0094835200715607665 0.016850914364359759 0 -0.010013501691274603 0.01595994263072284 0 -0.010149208483034751 0.015830115618169528 0 -0.0095820857962309151 0.016828499599505973 0 -0.0094835200715607665 0.016850914364359759 0 -0.0094305456788919759 0.016809318628662719 0 -0.010149208483034751 0.015830115618169528 0 -0.010519070753304563 0.015778262150737188 0 -0.012677593122224154 0.013595768322077196 0 -0.012681319960537119 0.013592992114610304 0 -0.012676630976335194 0.01360821843175442 0 -0.011211796154068024 0.015102766492683431 0 -0.011325497270521576 0.015151828446658426 0 -0.011373460735936177 0.014983171448805477 0 -0.010519070753304563 0.015778262150737188 0 -0.01180513210053352 0.014159172548913945 0 -0.01180513210053352 0.014159172548913945 0 -0.011475381327721256 0.015162842553679976 0 -0.01267729144486124 0.013581948729538324 0 -0.012677593122224154 0.013595768322077196 0 -0.012681319960537119 0.013592992114610304 0 -0.013469032276223173 0.012386522453264203 0 -0.01180513210053352 0.014159172548913945 0 -0.012510793362963219 0.014320657256144181 0 -0.011842371415892941 0.01401451881023506 0 -0.011718663049317572 0.014469375770365622 0 -0.011060718736809199 0.014033533073712197 0 -0.011718663049317572 0.014469375770365622 0 -0.011721480659272828 0.014610858974522694 0 -0.011296609988431272 0.013857123379314745 0 -0.011817006488736603 0.014093531556588771 0 -0.011718663049317572 0.014469375770365622 0 -0.01180513210053352 0.014159172548913945 0 -0.011756629805615499 0.014331706570532577 0 -0.013000629381989306 0.01143959017632098 0 -0.013192998873286814 0.011990098915547016 0 -0.01383451358596041 0.012117296533059586 0 -0.011883832172814468 0.013808306974898986 0 -0.013944042397595531 0.011517192784343423 0 -0.012510793362963219 0.014320657256144181 0 -0.011718663049317572 0.014469375770365622 0 -0.011721480659272828 0.014610858974522694 0 -0.013589188657808317 0.011647102179575328 0 -0.013689080989648715 0.011374957490261118 0 -0.013186355825251628 0.011558644655739529 0 -0.013469032276223173 0.012386522453264203 0 -0.011883832172814468 0.013808306974898986 0 -0.013727044811246817 0.011820556006150664 0 -0.013589188657808317 0.011647102179575328 0 -0.013186355825251628 0.011558644655739529 0 -0.013000629381989306 0.01143959017632098 0 -0.01263410063255895 0.011894577261470795 0 -0.013192998873286814 0.011990098915547016 0 -0.011883832172814468 0.013808306974898986 0 -0.010379861858603628 0.014643863920462703 0 -0.0097964997430310518 0.016972300537106549 0 -0.0094032763589455524 0.017130162468173508 0 -0.0094736293329871924 0.01693871242881119 0 -0.013000629381989306 0.01143959017632098 0 -0.01263410063255895 0.011894577261470795 0 -0.011678975855234338 0.011934823633163841 0 -0.0094032763589455524 0.017130162468173508 0 -0.0093523512391353609 0.017005188413844529 0 -0.0092024296417892327 0.017031319405169439 0 -0.0093523512391353609 0.017005188413844529 0 -0.0092760298347511361 0.016960648156001127 0 -0.0093284511400462747 0.01690280580611694 0 -0.0093523512391353609 0.017005188413844529 0 -0.0094736293329871924 0.01693871242881119 0 -0.0093284511400462747 0.01690280580611694 0 -0.0094032763589455524 0.017130162468173508 0 -0.0093523512391353609 0.017005188413844529 0 -0.0094736293329871924 0.01693871242881119 0 -0.0092024296417892327 0.017031319405169439 0 -0.0090236494919343595 0.01708083855730487 0 -0.0090386946411460615 0.017251846119682526 0 -0.0094032763589455524 0.017130162468173508 0 -0.0092024296417892327 0.017031319405169439 0 -0.0090386946411460615 0.017251846119682526 0 -0.0093523512391353609 0.017005188413844529 0 -0.0092024296417892327 0.017031319405169439 0 -0.0092760298347511361 0.016960648156001127 0 -0.0092024296417892327 0.017031319405169439 0 -0.0092760298347511361 0.016960648156001127 0 -0.0092223899060175588 0.016903934215523664 0 -0.0092024296417892327 0.017031319405169439 0 -0.0090253948844447283 0.016970107109806672 0 -0.0090236494919343595 0.01708083855730487 0 -0.0092024296417892327 0.017031319405169439 0 -0.0091152143709868506 0.016901607985595181 0 -0.0090253948844447283 0.016970107109806672 0 -0.0092024296417892327 0.017031319405169439 0 -0.0091152143709868506 0.016901607985595181 0 -0.0092223899060175588 0.016903934215523664 0 -0.0092760298347511361 0.016960648156001127 0 -0.0092223899060175588 0.016903934215523664 0 -0.0093284511400462747 0.01690280580611694 0 -0.0092223899060175588 0.016903934215523664 0 -0.0092722945149983568 0.016857120672563012 0 -0.0093284511400462747 0.01690280580611694 0 -0.0092134595362564388 0.016816453722295916 0 -0.0093255586594645553 0.016806514714123102 0 -0.0092825592693010148 0.016752462324669568 0 -0.0091152143709868506 0.016901607985595181 0 -0.0092223899060175588 0.016903934215523664 0 -0.0092134595362564388 0.016816453722295916 0 -0.0092722945149983568 0.016857120672563012 0 -0.0092134595362564388 0.016816453722295916 0 -0.0093255586594645553 0.016806514714123102 0 -0.0092223899060175588 0.016903934215523664 0 -0.0092722945149983568 0.016857120672563012 0 -0.0092134595362564388 0.016816453722295916 0 -0.0091152143709868506 0.016901607985595181 0 -0.0092134595362564388 0.016816453722295916 0 -0.0090925885918035406 0.016803257424988755 0 -0.0094056204328230603 0.016863428855329436 0 -0.0094736293329871924 0.01693871242881119 0 -0.0093284511400462747 0.01690280580611694 0 -0.0094056204328230603 0.016863428855329436 0 -0.0094835200715607665 0.016850914364359759 0 -0.0094736293329871924 0.01693871242881119 0 -0.0092722945149983568 0.016857120672563012 0 -0.0093284511400462747 0.01690280580611694 0 -0.0093255586594645553 0.016806514714123102 0 -0.0093255586594645553 0.016806514714123102 0 -0.0094305456788919759 0.016809318628662719 0 -0.00937812948738081 0.016706749414784318 0 -0.0094056204328230603 0.016863428855329436 0 -0.0093284511400462747 0.01690280580611694 0 -0.0093255586594645553 0.016806514714123102 0 -0.0094056204328230603 0.016863428855329436 0 -0.0093255586594645553 0.016806514714123102 0 -0.0094305456788919759 0.016809318628662719 0 -0.0095820857962309151 0.016828499599505973 0 -0.0094305456788919759 0.016809318628662719 0 -0.00937812948738081 0.016706749414784318 0 -0.010149208483034751 0.015830115618169528 0 -0.0095726587839514918 0.016638274690205134 0 -0.0094056204328230603 0.016863428855329436 0 -0.0094835200715607665 0.016850914364359759 0 -0.0094305456788919759 0.016809318628662719 0 -0.0093255586594645553 0.016806514714123102 0 -0.00937812948738081 0.016706749414784318 0 -0.0092825592693010148 0.016752462324669568 0 -0.00937812948738081 0.016706749414784318 0 -0.0092825592693010148 0.016752462324669568 0 -0.0093015124614299512 0.016689032189831369 0 -0.0095726587839514918 0.016638274690205134 0 -0.0093987452115040903 0.016619174414198634 0 -0.0093566724311708038 0.016713311498802546 0 -0.0093015124614299512 0.016689032189831369 0 -0.0092249054791613636 0.016601164461122565 0 -0.0095501872727536234 0.016910487193017989 0 -0.0092249054791613636 0.016601164461122565 0 -0.0095224821233936517 0.016605892456786203 0 -0.0095726587839514918 0.016638274690205134 0 -0.0092405123592350664 0.016641409499401946 0 -0.0095501872727536234 0.016910487193017989 0 -0.0095224821233936517 0.016605892456786203 0 -0.0097153382778166469 0.016688064693000406 0 -0.0092134595362564388 0.016816453722295916 0 -0.0090925885918035406 0.016803257424988755 0 -0.0091792260686349835 0.016716735680258398 0 -0.0090925885918035406 0.016803257424988755 0 -0.0091792260686349835 0.016716735680258398 0 -0.009011924885357965 0.016728248863540591 0 -0.0092134595362564388 0.016816453722295916 0 -0.0092825592693010148 0.016752462324669568 0 -0.0091792260686349835 0.016716735680258398 0 -0.0092825592693010148 0.016752462324669568 0 -0.0093015124614299512 0.016689032189831369 0 -0.0091792260686349835 0.016716735680258398 0 -0.0093015124614299512 0.016689032189831369 0 -0.0091792260686349835 0.016716735680258398 0 -0.0092249054791613636 0.016601164461122565 0 -0.0091792260686349835 0.016716735680258398 0 -0.0092249054791613636 0.016601164461122565 0 -0.0090869881630419921 0.016633836216201101 0 -0.0091792260686349835 0.016716735680258398 0 -0.0090869881630419921 0.016633836216201101 0 -0.009011924885357965 0.016728248863540591 0 -0.0092249054791613636 0.016601164461122565 0 -0.0091242160195845624 0.016466452788471302 0 -0.0090869881630419921 0.016633836216201101 0 -0.0092249054791613636 0.016601164461122565 0 -0.0091242160195845624 0.016466452788471302 0 -0.0094078680696695737 0.01642517322022246 0 -0.0095224821233936517 0.016605892456786203 0 -0.0096691303522791344 0.016477326229607365 0 -0.0097153382778166469 0.016688064693000406 0 -0.0092249054791613636 0.016601164461122565 0 -0.0095224821233936517 0.016605892456786203 0 -0.0094078680696695737 0.01642517322022246 0 -0.0095224821233936517 0.016605892456786203 0 -0.0094078680696695737 0.01642517322022246 0 -0.0096691303522791344 0.016477326229607365 0 -0.0094078680696695737 0.01642517322022246 0 -0.0096691303522791344 0.016477326229607365 0 -0.0096316014863995804 0.016278770986624055 0 -0.0096691303522791344 0.016477326229607365 0 -0.0098711056724261215 0.016540221438348351 0 -0.0098783662602369617 0.016329509567252681 0 -0.01000825141277051 0.016443208648881564 0 -0.0098711056724261215 0.016540221438348351 0 -0.0098783662602369617 0.016329509567252681 0 -0.01000825141277051 0.016443208648881564 0 -0.0098711056724261215 0.016540221438348351 0 -0.010105703408425544 0.01657469441245988 0 -0.0098711056724261215 0.016540221438348351 0 -0.0099475493106377169 0.016816013991319358 0 -0.010105703408425544 0.01657469441245988 0 -0.0096691303522791344 0.016477326229607365 0 -0.0098711056724261215 0.016540221438348351 0 -0.0097153382778166469 0.016688064693000406 0 -0.0098711056724261215 0.016540221438348351 0 -0.0097153382778166469 0.016688064693000406 0 -0.0099475493106377169 0.016816013991319358 0 -0.0099933034838585143 0.017107806172682045 0 -0.0095501872727536234 0.016910487193017989 0 -0.0099475493106377169 0.016816013991319358 0 -0.0095501872727536234 0.016910487193017989 0 -0.0097153382778166469 0.016688064693000406 0 -0.0099475493106377169 0.016816013991319358 0 -0.010519070753304563 0.015778262150737188 0 -0.0095726587839514918 0.016638274690205134 0 -0.0099475493106377169 0.016816013991319358 0 -0.01013076753938447 0.016794541936352842 0 -0.010105703408425544 0.01657469441245988 0 -0.0099933034838585143 0.017107806172682045 0 -0.0099475493106377169 0.016816013991319358 0 -0.01013076753938447 0.016794541936352842 0 -0.010519070753304563 0.015778262150737188 0 -0.011475381327721256 0.015162842553679976 0 -0.0099933034838585143 0.017107806172682045 0 -0.01013076753938447 0.016794541936352842 0 -0.010350077204036924 0.01684076678636403 0 -0.01013076753938447 0.016794541936352842 0 -0.010350077204036924 0.01684076678636403 0 -0.010256591443604366 0.016635702379117 0 -0.0113298159617942 0.015820691991736132 0 -0.011475381327721256 0.015162842553679976 0 -0.010256591443604366 0.016635702379117 0 -0.010372436505539847 0.016568456265968142 0 -0.010287390839318306 0.016430405966919647 0 -0.010350077204036924 0.01684076678636403 0 -0.010256591443604366 0.016635702379117 0 -0.010372436505539847 0.016568456265968142 0 -0.010428605863039392 0.01656667333505759 0 -0.010350077204036924 0.01684076678636403 0 -0.010372436505539847 0.016568456265968142 0 -0.0113298159617942 0.015820691991736132 0 -0.011120750122347938 0.015869067278067334 0 -0.010256591443604366 0.016635702379117 0 -0.010105703408425544 0.01657469441245988 0 -0.010287390839318306 0.016430405966919647 0 -0.01013076753938447 0.016794541936352842 0 -0.010256591443604366 0.016635702379117 0 -0.010105703408425544 0.01657469441245988 0 -0.010105703408425544 0.01657469441245988 0 -0.010134087727792292 0.016432319882551144 0 -0.010287390839318306 0.016430405966919647 0 -0.01000825141277051 0.016443208648881564 0 -0.010105703408425544 0.01657469441245988 0 -0.010134087727792292 0.016432319882551144 0 -0.010134087727792292 0.016432319882551144 0 -0.010287390839318306 0.016430405966919647 0 -0.010134757475492206 0.016279562080589893 0 -0.01000825141277051 0.016443208648881564 0 -0.010134087727792292 0.016432319882551144 0 -0.010134757475492206 0.016279562080589893 0 -0.010430183149181874 0.016569066996525123 0 -0.010372436505539847 0.016568456265968142 0 -0.010287390839318306 0.016430405966919647 0 -0.010606453427039284 0.0159698642576592 0 -0.010134757475492206 0.016279562080589893 0 -0.0099436256505453444 0.016044134675313803 0 -0.010606453427039284 0.0159698642576592 0 -0.010287390839318306 0.016430405966919647 0 -0.010134757475492206 0.016279562080589893 0 -0.0096691303522791344 0.016477326229607365 0 -0.0098783662602369617 0.016329509567252681 0 -0.0096316014863995804 0.016278770986624055 0 -0.0098783662602369617 0.016329509567252681 0 -0.0099436256505453444 0.016044134675313803 0 -0.0096316014863995804 0.016278770986624055 0 -0.010134757475492206 0.016279562080589893 0 -0.0098783662602369617 0.016329509567252681 0 -0.0099436256505453444 0.016044134675313803 0 -0.01000825141277051 0.016443208648881564 0 -0.010134757475492206 0.016279562080589893 0 -0.0098783662602369617 0.016329509567252681 0 -0.010586618873524693 0.016372157386307078 0 -0.01074538268264876 0.015622094960673655 0 -0.010075440351237697 0.015890715085642472 0 -0.011427800871062169 0.015983923166967121 0 -0.0101782128493623 0.016233845956840107 0 -0.01146064169044491 0.016308556908110176 0 -0.010586618873524693 0.016372157386307078 0 -0.011001455258935106 0.0162919368464482 0 -0.010586618873524693 0.016372157386307078 0 -0.011001455258935106 0.0162919368464482 0 -0.01074538268264876 0.015622094960673655 0 -0.010987131515267687 0.016250752563236416 0 -0.010772415614436339 0.015647922829665643 0 -0.011001455258935106 0.0162919368464482 0 -0.011228578110651444 0.015871154802166072 0 -0.010792648784865725 0.015656322855136705 0 -0.011282621751102988 0.015446639773087857 0 -0.011228578110651444 0.015871154802166072 0 -0.010792648784865725 0.015656322855136705 0 -0.01074538268264876 0.015622094960673655 0 -0.010098348132816478 0.01537966822557155 0 -0.010075440351237697 0.015890715085642472 0 -0.010772415614436339 0.015647922829665643 0 -0.010544551277111316 0.015000112805780905 0 -0.01074538268264876 0.015622094960673655 0 -0.010544404169464569 0.014999963896373385 0 -0.010098348132816478 0.01537966822557155 0 -0.010792648784865725 0.015656322855136705 0 -0.010544541217110683 0.014999993330792926 0 -0.011202747644808119 0.014999992043255497 0 -0.011282621751102988 0.015446639773087857 0 -0.010792648784865725 0.015656322855136705 0 -0.011202747644808119 0.014999992043255497 0 -0.0096878634007497699 0.014999959623208915 0 -0.010098348132816478 0.01537966822557155 0 -0.0094045274306264279 0.015670758430162808 0 -0.010544404169464569 0.014999963896373385 0 -0.0096878634007497699 0.014999959623208915 0 -0.010098348132816478 0.01537966822557155 0 -0.010098348132816478 0.01537966822557155 0 -0.0094045274306264279 0.015670758430162808 0 -0.010075440351237697 0.015890715085642472 0 -0.0094045274306264279 0.015670758430162808 0 -0.010075440351237697 0.015890715085642472 0 -0.0097221147510304154 0.01639828467216594 0 -0.010586618873524693 0.016372157386307078 0 -0.010075440351237697 0.015890715085642472 0 -0.0097221147510304154 0.01639828467216594 0 -0.0101782128493623 0.016233845956840107 0 -0.0095434963913450938 0.016285862681833345 0 -0.0099436256505453444 0.016044134675313803 0 -0.0096316014863995804 0.016278770986624055 0 -0.0093112299247812436 0.01618235013497793 0 -0.0094078680696695737 0.01642517322022246 0 -0.0096316014863995804 0.016278770986624055 0 -0.0093112299247812436 0.01618235013497793 0 -0.0091242160195845624 0.016466452788471302 0 -0.0094078680696695737 0.01642517322022246 0 -0.0093112299247812436 0.01618235013497793 0 -0.0094045274306264279 0.015670758430162808 0 -0.0088844947039152852 0.016365066361053945 0 -0.0086154100609787104 0.015599914865654778 0 -0.0095434963913450938 0.016285862681833345 0 -0.0089158298750061007 0.01636055054765416 0 -0.0091242160195845624 0.016466452788471302 0 -0.0093112299247812436 0.01618235013497793 0 -0.0088844947039152852 0.016365066361053945 0 -0.0088844947039152852 0.016365066361053945 0 -0.0086154100609787104 0.015599914865654778 0 -0.0081580162982843769 0.015996617562900918 0 -0.0088844947039152852 0.016365066361053945 0 -0.0084882536230734829 0.01636092184884641 0 -0.0086433853884196488 0.016579996209630653 0 -0.0094045274306264279 0.015670758430162808 0 -0.0097221147510304154 0.01639828467216594 0 -0.0088844947039152852 0.016365066361053945 0 -0.0086154100609787104 0.015599914865654778 0 -0.0088312889314498526 0.014999992175741087 0 -0.0079747062070997105 0.014999965321411473 0 -0.0094045274306264279 0.015670758430162808 0 -0.0086154100609787104 0.015599914865654778 0 -0.0088312889314498526 0.014999992175741087 0 -0.0096878634007497699 0.014999959623208915 0 -0.0094045274306264279 0.015670758430162808 0 -0.0088312889314498526 0.014999992175741087 0 -0.0071180344245965572 0.014999962002421078 0 -0.0079747062070997105 0.014999965321411473 0 -0.0077918900240373278 0.01553207424932268 0 -0.0086154100609787104 0.015599914865654778 0 -0.0079747062070997105 0.014999965321411473 0 -0.0077918900240373278 0.01553207424932268 0 -0.0086154100609787104 0.015599914865654778 0 -0.0077918900240373278 0.01553207424932268 0 -0.0081580162982843769 0.015996617562900918 0 -0.0077918900240373278 0.01553207424932268 0 -0.0075061334196971242 0.016265398890847309 0 -0.0081580162982843769 0.015996617562900918 0 -0.0075061334196971242 0.016265398890847309 0 -0.0081580162982843769 0.015996617562900918 0 -0.0078564569255718201 0.016719815836821871 0 -0.0084882536230734829 0.01636092184884641 0 -0.0082859328989907874 0.016421970581931386 0 -0.0086433853884196488 0.016579996209630653 0 -0.0088844947039152852 0.016365066361053945 0 -0.0081580162982843769 0.015996617562900918 0 -0.0084882536230734829 0.01636092184884641 0 -0.0081580162982843769 0.015996617562900918 0 -0.0084882536230734829 0.01636092184884641 0 -0.0082859328989907874 0.016421970581931386 0 -0.007299955945382278 0.016809027781828325 0 -0.0075061334196971242 0.016265398890847309 0 -0.0078564569255718201 0.016719815836821871 0 -0.0081669099262593105 0.016015117767086227 0 -0.008067532665878752 0.016554010947563143 0 -0.0074029035933295632 0.017298010848163924 0 -0.007299955945382278 0.016809027781828325 0 -0.0078564569255718201 0.016719815836821871 0 -0.0082859328989907874 0.016421970581931386 0 -0.0083300429388350802 0.016710115426863657 0 -0.0084863266110998641 0.016690865808229732 0 -0.0074029035933295632 0.017298010848163924 0 -0.0078564569255718201 0.016719815836821871 0 -0.007611760891593415 0.017356907724570533 0 -0.008067532665878752 0.016554010947563143 0 -0.0080058328623427502 0.016991425015576059 0 -0.0074029035933295632 0.017298010848163924 0 -0.007611760891593415 0.017356907724570533 0 -0.0074514915736853806 0.017987350210792761 0 -0.0083300429388350802 0.016710115426863657 0 -0.0084333239035756791 0.016774131155430895 0 -0.0084863266110998641 0.016690865808229732 0 -0.0083300429388350802 0.016710115426863657 0 -0.0084333239035756791 0.016774131155430895 0 -0.008386496642861065 0.01685246054846936 0 -0.0084863266110998641 0.016690865808229732 0 -0.0086554297119840716 0.016752171441842833 0 -0.0085413407154030958 0.016820961641633402 0 -0.0086554297119840716 0.016752171441842833 0 -0.0085413407154030958 0.016820961641633402 0 -0.0086547049476861145 0.016858158948767955 0 -0.0084333239035756791 0.016774131155430895 0 -0.0084863266110998641 0.016690865808229732 0 -0.0085413407154030958 0.016820961641633402 0 -0.0084863266110998641 0.016690865808229732 0 -0.0086433853884196488 0.016579996209630653 0 -0.0086554297119840716 0.016752171441842833 0 -0.0082859328989907874 0.016421970581931386 0 -0.0084863266110998641 0.016690865808229732 0 -0.0086433853884196488 0.016579996209630653 0 -0.0088844947039152852 0.016365066361053945 0 -0.0086433853884196488 0.016579996209630653 0 -0.0089339837766481724 0.01657470446137696 0 -0.0086433853884196488 0.016579996209630653 0 -0.0089339837766481724 0.01657470446137696 0 -0.0088249268750888923 0.016703993096945504 0 -0.0091242160195845624 0.016466452788471302 0 -0.0088844947039152852 0.016365066361053945 0 -0.0089339837766481724 0.01657470446137696 0 -0.0091242160195845624 0.016466452788471302 0 -0.0089339837766481724 0.01657470446137696 0 -0.0090869881630419921 0.016633836216201101 0 -0.0089339837766481724 0.01657470446137696 0 -0.0090869881630419921 0.016633836216201101 0 -0.009011924885357965 0.016728248863540591 0 -0.0089339837766481724 0.01657470446137696 0 -0.009011924885357965 0.016728248863540591 0 -0.0088249268750888923 0.016703993096945504 0 -0.009011924885357965 0.016728248863540591 0 -0.0088249268750888923 0.016703993096945504 0 -0.0089339692396435879 0.016818113418320915 0 -0.0090925885918035406 0.016803257424988755 0 -0.009011924885357965 0.016728248863540591 0 -0.0089339692396435879 0.016818113418320915 0 -0.0086433853884196488 0.016579996209630653 0 -0.0088249268750888923 0.016703993096945504 0 -0.0086554297119840716 0.016752171441842833 0 -0.0088249268750888923 0.016703993096945504 0 -0.0086554297119840716 0.016752171441842833 0 -0.0087882196273039153 0.016850528027934745 0 -0.0088249268750888923 0.016703993096945504 0 -0.0087882196273039153 0.016850528027934745 0 -0.0089339692396435879 0.016818113418320915 0 -0.0087882196273039153 0.016850528027934745 0 -0.0086982137955583013 0.016952826625313184 0 -0.0086547049476861145 0.016858158948767955 0 -0.0086554297119840716 0.016752171441842833 0 -0.0087882196273039153 0.016850528027934745 0 -0.0086547049476861145 0.016858158948767955 0 -0.0088151089613459441 0.016945008818641905 0 -0.0086982137955583013 0.016952826625313184 0 -0.0088266330600687108 0.0170396242236499 0 -0.0087882196273039153 0.016850528027934745 0 -0.0088151089613459441 0.016945008818641905 0 -0.0089226380485215862 0.016917456925104778 0 -0.0087882196273039153 0.016850528027934745 0 -0.0088151089613459441 0.016945008818641905 0 -0.0086982137955583013 0.016952826625313184 0 -0.0091152143709868506 0.016901607985595181 0 -0.0090925885918035406 0.016803257424988755 0 -0.0090180600823798265 0.016882368160448143 0 -0.0090925885918035406 0.016803257424988755 0 -0.0090180600823798265 0.016882368160448143 0 -0.0089339692396435879 0.016818113418320915 0 -0.0087882196273039153 0.016850528027934745 0 -0.0089339692396435879 0.016818113418320915 0 -0.0089226380485215862 0.016917456925104778 0 -0.0090180600823798265 0.016882368160448143 0 -0.0089339692396435879 0.016818113418320915 0 -0.0089226380485215862 0.016917456925104778 0 -0.0088151089613459441 0.016945008818641905 0 -0.0089226380485215862 0.016917456925104778 0 -0.0089316772287841139 0.017019303332676979 0 -0.0089226380485215862 0.016917456925104778 0 -0.0090253948844447283 0.016970107109806672 0 -0.0089316772287841139 0.017019303332676979 0 -0.0090180600823798265 0.016882368160448143 0 -0.0089226380485215862 0.016917456925104778 0 -0.0090253948844447283 0.016970107109806672 0 -0.0091152143709868506 0.016901607985595181 0 -0.0090180600823798265 0.016882368160448143 0 -0.0090253948844447283 0.016970107109806672 0 -0.0090253948844447283 0.016970107109806672 0 -0.0089316772287841139 0.017019303332676979 0 -0.0090236494919343595 0.01708083855730487 0 -0.0089316772287841139 0.017019303332676979 0 -0.0088991023543225373 0.017125669010200541 0 -0.0088266330600687108 0.0170396242236499 0 -0.0089316772287841139 0.017019303332676979 0 -0.0088991023543225373 0.017125669010200541 0 -0.0090236494919343595 0.01708083855730487 0 -0.0086982137955583013 0.016952826625313184 0 -0.0087080984137868443 0.01705402613923878 0 -0.0088266330600687108 0.0170396242236499 0 -0.0088151089613459441 0.016945008818641905 0 -0.0089316772287841139 0.017019303332676979 0 -0.0088266330600687108 0.0170396242236499 0 -0.0088991023543225373 0.017125669010200541 0 -0.0088266330600687108 0.0170396242236499 0 -0.0087830631067782692 0.017100193677243507 0 -0.0088991023543225373 0.017125669010200541 0 -0.0087830631067782692 0.017100193677243507 0 -0.0088026168741938311 0.017166650345679792 0 -0.0087080984137868443 0.01705402613923878 0 -0.0088266330600687108 0.0170396242236499 0 -0.0087830631067782692 0.017100193677243507 0 -0.0087830631067782692 0.017100193677243507 0 -0.0087146423393304976 0.017151616317417781 0 -0.0088026168741938311 0.017166650345679792 0 -0.0087080984137868443 0.01705402613923878 0 -0.0087830631067782692 0.017100193677243507 0 -0.0087146423393304976 0.017151616317417781 0 -0.0087080984137868443 0.01705402613923878 0 -0.0086129420509187815 0.017129323827834046 0 -0.0085768933280958651 0.017025790215346375 0 -0.0087080984137868443 0.01705402613923878 0 -0.0086129420509187815 0.017129323827834046 0 -0.0087146423393304976 0.017151616317417781 0 -0.0086982137955583013 0.016952826625313184 0 -0.0087080984137868443 0.01705402613923878 0 -0.0085768933280958651 0.017025790215346375 0 -0.0085768933280958651 0.017025790215346375 0 -0.0084304273662164364 0.017055478430049079 0 -0.0084910406008135778 0.016964461626041944 0 -0.0085768933280958651 0.017025790215346375 0 -0.0085154056155828887 0.017111421073031985 0 -0.0084304273662164364 0.017055478430049079 0 -0.0086129420509187815 0.017129323827834046 0 -0.0085768933280958651 0.017025790215346375 0 -0.0085154056155828887 0.017111421073031985 0 -0.0086129420509187815 0.017129323827834046 0 -0.0085154056155828887 0.017111421073031985 0 -0.0085172196633723166 0.0171961584549708 0 -0.0085154056155828887 0.017111421073031985 0 -0.0084304273662164364 0.017055478430049079 0 -0.008439418942324679 0.017150387755074673 0 -0.0084304273662164364 0.017055478430049079 0 -0.0083115261934300546 0.016965911511880268 0 -0.0083368237029870351 0.017160580838236558 0 -0.007615210273356968 0.01762616857354116 0 -0.0078773392695123279 0.018156304890333132 0 -0.0084304273662164364 0.017055478430049079 0 -0.0083368237029870351 0.017160580838236558 0 -0.008439418942324679 0.017150387755074673 0 -0.0084304273662164364 0.017055478430049079 0 -0.0084126063320584983 0.01694189837469286 0 -0.0084910406008135778 0.016964461626041944 0 -0.0080058328623427502 0.016991425015576059 0 -0.007615210273356968 0.01762616857354116 0 -0.0084126063320584983 0.01694189837469286 0 -0.0084708285969581753 0.016878359897118479 0 -0.0084910406008135778 0.016964461626041944 0 -0.0083300429388350802 0.016710115426863657 0 -0.0083115261934300546 0.016965911511880268 0 -0.008386496642861065 0.01685246054846936 0 -0.0084126063320584983 0.01694189837469286 0 -0.0083115261934300546 0.016965911511880268 0 -0.008386496642861065 0.01685246054846936 0 -0.0084304273662164364 0.017055478430049079 0 -0.0084126063320584983 0.01694189837469286 0 -0.0083115261934300546 0.016965911511880268 0 -0.0084126063320584983 0.01694189837469286 0 -0.008386496642861065 0.01685246054846936 0 -0.0084708285969581753 0.016878359897118479 0 -0.0084333239035756791 0.016774131155430895 0 -0.008386496642861065 0.01685246054846936 0 -0.0084708285969581753 0.016878359897118479 0 -0.0084333239035756791 0.016774131155430895 0 -0.0085413407154030958 0.016820961641633402 0 -0.0084708285969581753 0.016878359897118479 0 -0.0085413407154030958 0.016820961641633402 0 -0.0084708285969581753 0.016878359897118479 0 -0.0085751707768313406 0.016919101315875172 0 -0.0085413407154030958 0.016820961641633402 0 -0.0086547049476861145 0.016858158948767955 0 -0.0085751707768313406 0.016919101315875172 0 -0.0086982137955583013 0.016952826625313184 0 -0.0085768933280958651 0.017025790215346375 0 -0.0085751707768313406 0.016919101315875172 0 -0.0086982137955583013 0.016952826625313184 0 -0.0086547049476861145 0.016858158948767955 0 -0.0085751707768313406 0.016919101315875172 0 -0.0084708285969581753 0.016878359897118479 0 -0.0085751707768313406 0.016919101315875172 0 -0.0084910406008135778 0.016964461626041944 0 -0.0085768933280958651 0.017025790215346375 0 -0.0085751707768313406 0.016919101315875172 0 -0.0084910406008135778 0.016964461626041944 0 -0.0099406039318126471 0.01283524871325213 0 -0.0099260163557307914 0.012582744018329955 0 -0.0089663914648846071 0.012684494181412792 0 -0.0099406039318126471 0.01283524871325213 0 -0.0099260163557307914 0.012582744018329955 0 -0.010890470891549301 0.012487858257549748 0 -0.011848615517664885 0.0078877542079264489 0 -0.012022997398048773 0.0083295857976749942 0 -0.012707831315063121 0.0081786675276996779 0 -0.011848615517664885 0.0078877542079264489 0 -0.011246774679170997 0.0087383284505190353 0 -0.010736489721431985 0.0086974541247613318 0 -0.011848615517664885 0.0078877542079264489 0 -0.012022997398048773 0.0083295857976749942 0 -0.011246774679170997 0.0087383284505190353 0 -0.0099406039318126471 0.01283524871325213 0 -0.0089954507036790164 0.013182513678203278 0 -0.0089663914648846071 0.012684494181412792 0 -0.0091290787013674126 0.015073267287573598 0 -0.0081684504303254617 0.015804604640147074 0 -0.011848615517664885 0.0078877542079264489 0 -0.010047625399929726 0.0084613548121308581 0 -0.010736489721431985 0.0086974541247613318 0 -0.011237323228479581 0.010110603887236374 0 -0.0091582989260106801 0.010974972270453204 0 -0.0091582989260106801 0.010974972270453204 0 -0.0081684504303254617 0.015804604640147074 0 -0.0081684504303254617 0.015804604640147074 0 -0.0078773392695123279 0.018156304890333132 0 -0.0085858236819011131 0.017335950461428488 0 -0.0083498765561850156 0.017351230909129465 0 -0.0084227082253992298 0.017234230383781884 0 -0.0083498765561850156 0.017351230909129465 0 -0.0084227082253992298 0.017234230383781884 0 -0.0083368237029870351 0.017160580838236558 0 -0.0084227082253992298 0.017234230383781884 0 -0.0083368237029870351 0.017160580838236558 0 -0.008439418942324679 0.017150387755074673 0 -0.0084227082253992298 0.017234230383781884 0 -0.008439418942324679 0.017150387755074673 0 -0.0085172196633723166 0.0171961584549708 0 -0.0085154056155828887 0.017111421073031985 0 -0.008439418942324679 0.017150387755074673 0 -0.0085172196633723166 0.0171961584549708 0 -0.0086129420509187815 0.017129323827834046 0 -0.0085172196633723166 0.0171961584549708 0 -0.0086185227801697222 0.017224958000221273 0 -0.0085858236819011131 0.017335950461428488 0 -0.0084227082253992298 0.017234230383781884 0 -0.0085172196633723166 0.0171961584549708 0 -0.0085858236819011131 0.017335950461428488 0 -0.0085172196633723166 0.0171961584549708 0 -0.0086185227801697222 0.017224958000221273 0 -0.0085858236819011131 0.017335950461428488 0 -0.0086185227801697222 0.017224958000221273 0 -0.0087428466678682783 0.017235299984981533 0 -0.0086129420509187815 0.017129323827834046 0 -0.0086185227801697222 0.017224958000221273 0 -0.0087146423393304976 0.017151616317417781 0 -0.0087146423393304976 0.017151616317417781 0 -0.0088026168741938311 0.017166650345679792 0 -0.0087428466678682783 0.017235299984981533 0 -0.0086185227801697222 0.017224958000221273 0 -0.0087146423393304976 0.017151616317417781 0 -0.0087428466678682783 0.017235299984981533 0 -0.0085858236819011131 0.017335950461428488 0 -0.0088522349888028196 0.017315797777102231 0 -0.0087428466678682783 0.017235299984981533 0 -0.0088026168741938311 0.017166650345679792 0 -0.0088730846108547225 0.017227922625218751 0 -0.0087428466678682783 0.017235299984981533 0 -0.0088991023543225373 0.017125669010200541 0 -0.0088026168741938311 0.017166650345679792 0 -0.0088730846108547225 0.017227922625218751 0 -0.0088730846108547225 0.017227922625218751 0 -0.0088522349888028196 0.017315797777102231 0 -0.0087428466678682783 0.017235299984981533 0 -0.0088730846108547225 0.017227922625218751 0 -0.0088522349888028196 0.017315797777102231 0 -0.009094306955920969 0.017213826507483519 0 -0.010910328046521894 0.012272701582567084 0 -0.013269876767637318 0.0095651840755989186 0 -0.010910328046521894 0.012272701582567084 0 -0.0098776322725275031 0.014646395631362772 0 -0.01060964939465168 0.011983679564567154 0 -0.011570670632796601 0.011626926489978732 0 -0.011836721972200669 0.011860994501082092 0 -0.0088991023543225373 0.017125669010200541 0 -0.0090236494919343595 0.01708083855730487 0 -0.0090386946411460615 0.017251846119682526 0 -0.0088991023543225373 0.017125669010200541 0 -0.0088730846108547225 0.017227922625218751 0 -0.0090386946411460615 0.017251846119682526 0 -0.0087810725752103455 0.016817343372637749 0 -0.0098776322725275031 0.014646395631362772 0 -0.01312659235959856 0.0075963842979271685 0 -0.013818637136072101 0.0081700819398164599 0 -0.014037637548289641 0.0076641157672068076 0 -0.01312659235959856 0.0075963842979271685 0 -0.013818637136072101 0.0081700819398164599 0 -0.01325653743564118 0.0082789259779727335 0 -0.013818637136072101 0.0081700819398164599 0 -0.013936158636076801 0.0085554480648018204 0 -0.014177298758112734 0.0081209878059033246 0 -0.011848615517664885 0.0078877542079264489 0 -0.01312659235959856 0.0075963842979271685 0 -0.012707831315063121 0.0081786675276996779 0 -0.011237323228479581 0.010110603887236374 0 -0.010910328046521894 0.012272701582567084 0 -0.0091290787013674126 0.015073267287573598 0 -0.010910328046521894 0.012272701582567084 0 -0.01312659235959856 0.0075963842979271685 0 -0.01325653743564118 0.0082789259779727335 0 -0.012707831315063121 0.0081786675276996779 0 -0.012718147894360484 0.0087867296697170024 0 -0.011780639641877075 0.0074168719028426663 0 -0.012022997398048773 0.0083295857976749942 0 -0.012707831315063121 0.0081786675276996779 0 -0.01305224020472243 0.0087874386077256735 0 -0.01325653743564118 0.0082789259779727335 0 -0.01305224020472243 0.0087874386077256735 0 -0.013489892825467172 0.0086607986410721302 0 -0.01325653743564118 0.0082789259779727335 0 -0.012707831315063121 0.0081786675276996779 0 -0.01305224020472243 0.0087874386077256735 0 -0.011780639641877075 0.0074168719028426663 0 -0.013209780942299208 0.0079268456903248893 0 -0.013177028848090275 0.0087144085217695042 0 -0.013489892825467172 0.0086607986410721302 0 -0.014189754918696788 0.0090536328707783807 0 -0.013936158636076801 0.0085554480648018204 0 -0.013489892825467172 0.0086607986410721302 0 -0.014189754918696788 0.0090536328707783807 0 -0.013818637136072101 0.0081700819398164599 0 -0.013936158636076801 0.0085554480648018204 0 -0.013489892825467172 0.0086607986410721302 0 -0.013818637136072101 0.0081700819398164599 0 -0.01325653743564118 0.0082789259779727335 0 -0.013489892825467172 0.0086607986410721302 0 -0.011780639641877075 0.0074168719028426663 0 -0.01226214889835989 0.0065425677647700719 0 -0.0095358565685261538 0.0048412606007227597 0 -0.010246206341647916 0.005158204790947446 0 -0.01060411536113048 0.0044541655144257663 0 -0.0094490233653494252 0.003800424134531051 0 -0.0095358565685261538 0.0048412606007227597 0 -0.01060411536113048 0.0044541655144257663 0 -0.0094490233653494252 0.003800424134531051 0 -0.0095358565685261538 0.0048412606007227597 0 -0.0087091895849911553 0.0045694054915384787 0 -0.0094490233653494252 0.003800424134531051 0 -0.0087091895849911553 0.0045694054915384787 0 -0.0080785504765706773 0.0039285826543210053 0 -0.012022997398048773 0.0083295857976749942 0 -0.013295907264286651 0.0091294145314916048 0 -0.011008231692556058 0.0093642963033588773 0 -0.011780639641877075 0.0074168719028426663 0 -0.0095033834181111124 0.0071863667073136239 0 -0.012022997398048773 0.0083295857976749942 0 -0.011246774679170997 0.0087383284505190353 0 -0.011008231692556058 0.0093642963033588773 0 -0.009061755319309233 0.0096474434552310372 0 -0.010049961163279872 0.0090211699125979181 0 -0.010990656444206956 0.0094647413225907254 0 -0.0084570090412699854 0.0085018116636894382 0 -0.0095033834181111124 0.0071863667073136239 0 -0.0091582989260106801 0.010974972270453204 0 -0.0093779060711984101 0.0093892155659992416 0 -0.010047625399929726 0.0084613548121308581 0 -0.010049961163279872 0.0090211699125979181 0 -0.010736489721431985 0.0086974541247613318 0 -0.010049961163279872 0.0090211699125979181 0 -0.010736489721431985 0.0086974541247613318 0 -0.010990656444206956 0.0094647413225907254 0 -0.010114538847627676 0.0085567953019593333 0 -0.0095033834181111124 0.0071863667073136239 0 -0.011246774679170997 0.0087383284505190353 0 -0.010736489721431985 0.0086974541247613318 0 -0.010990656444206956 0.0094647413225907254 0 -0.0095033834181111124 0.0071863667073136239 0 -0.0077179024068647645 0.0058316132212390612 0 -0.0087091895849911553 0.0045694054915384787 0 -0.0080785504765706773 0.0039285826543210053 0 -0.0077007777365583913 0.0048669161452944377 0 -0.0078449693081534318 0.0072402385593832511 0 -0.0078665954422394678 0.0072302087162849447 0 -0.0078454185002330562 0.0072363253189820093 0 -0.0075798827594612331 0.0065348366762094552 0 -0.0077179024068647645 0.0058316132212390612 0 -0.0073159476172541911 0.0058381052515639005 0 -0.0077007777365583913 0.0048669161452944377 0 -0.0080916814653157979 0.0058790330554400012 0 -0.0077007777365583913 0.0048669161452944377 0 -0.0087721142537266882 0.0054219055699763615 0 -0.0080916814653157979 0.0058790330554400012 0 -0.0087091895849911553 0.0045694054915384787 0 -0.0077007777365583913 0.0048669161452944377 0 -0.0087721142537266882 0.0054219055699763615 0 -0.0087721142537266882 0.0054219055699763615 0 -0.0080916814653157979 0.0058790330554400012 0 -0.0090354611180256533 0.0066336865982255348 0 -0.0080916814653157979 0.0058790330554400012 0 -0.0078444278263297522 0.0066428882715523713 0 -0.0090354611180256533 0.0066336865982255348 0 -0.0073159476172541911 0.0058381052515639005 0 -0.0080916814653157979 0.0058790330554400012 0 -0.0078444278263297522 0.0066428882715523713 0 -0.0069501783055179222 0.0068282192801040822 0 -0.0078444278263297522 0.0066428882715523713 0 -0.0076130346227169269 0.0071942809632652253 0 -0.0078444278263297522 0.0066428882715523713 0 -0.0082059324073106982 0.0075293273039065108 0 -0.0076130346227169269 0.0071942809632652253 0 -0.0078444278263297522 0.0066428882715523713 0 -0.0082059324073106982 0.0075293273039065108 0 -0.0090354611180256533 0.0066336865982255348 0 -0.0081617424577570818 0.0073238587513263873 0 -0.0089784674115989845 0.0065393600919273218 0 -0.0081252501663234139 0.0071194362929334343 0 -0.0089080883665263143 0.0071796018436638834 0 -0.008461768593282357 0.0075185027414712141 0 -0.0081252501663234139 0.0071194362929334343 0 -0.0089080883665263143 0.0071796018436638834 0 -0.0089108105281750609 0.0064539742186525131 0 -0.0082059324073106982 0.0075293273039065108 0 -0.0074349050188265604 0.0077618871262244375 0 -0.0074349789144940222 0.0081409229345908128 0 -0.0082059324073106982 0.0075293273039065108 0 -0.0076130346227169269 0.0071942809632652253 0 -0.0074349050188265604 0.0077618871262244375 0 -0.010092890980008389 0.0071783337440439665 0 -0.010105827824700745 0.0077914347082266733 0 -0.0099429145296468496 0.0070305927527522655 0 -0.0097415409197715627 0.0074159453799991712 0 -0.010080600177887514 0.0076744692232360197 0 -0.0095956936298691176 0.0071362040681801318 0 -0.0099429145296468496 0.0070305927527522655 0 -0.0097276481148805462 0.0068520006838498513 0 -0.0095956936298691176 0.0071362040681801318 0 -0.0094106518127486088 0.006820523403746827 0 -0.0097276481148805462 0.0068520006838498513 0 -0.0095956936298691176 0.0071362040681801318 0 -0.0099429145296468496 0.0070305927527522655 0 -0.0097415409197715627 0.0074159453799991712 0 -0.0095956936298691176 0.0071362040681801318 0 -0.0097415409197715627 0.0074159453799991712 0 -0.0093867061569899591 0.0074947065881953261 0 -0.0095956936298691176 0.0071362040681801318 0 -0.0089080883665263143 0.0071796018436638834 0 -0.0094106518127486088 0.006820523403746827 0 -0.0095956936298691176 0.0071362040681801318 0 -0.0089080883665263143 0.0071796018436638834 0 -0.0093867061569899591 0.0074947065881953261 0 -0.0089080883665263143 0.0071796018436638834 0 -0.0088926594263976141 0.0076062670223105448 0 -0.0093867061569899591 0.0074947065881953261 0 -0.0089080883665263143 0.0071796018436638834 0 -0.0088926594263976141 0.0076062670223105448 0 -0.008461768593282357 0.0075185027414712141 0 -0.0094106518127486088 0.006820523403746827 0 -0.0089108105281750609 0.0064539742186525131 0 -0.00995420881099017 0.0064122232347429168 0 -0.0089080883665263143 0.0071796018436638834 0 -0.0094106518127486088 0.006820523403746827 0 -0.0089108105281750609 0.0064539742186525131 0 -0.010092890980008389 0.0071783337440439665 0 -0.0099488158824497311 0.0064830615760208968 0 -0.010223861892800798 0.0073303552723530153 0 -0.010294356168148991 0.0064292092686675153 0 -0.010463697475350402 0.0072256031890811472 0 -0.010223861892800798 0.0073303552723530153 0 -0.00995420881099017 0.0064122232347429168 0 -0.010294356168148991 0.0064292092686675153 0 -0.0099429145296468496 0.0070305927527522655 0 -0.0097276481148805462 0.0068520006838498513 0 -0.00995420881099017 0.0064122232347429168 0 -0.0094106518127486088 0.006820523403746827 0 -0.0097276481148805462 0.0068520006838498513 0 -0.00995420881099017 0.0064122232347429168 0 -0.010294356168148991 0.0064292092686675153 0 -0.010166785858197552 0.0060156691368182004 0 -0.010500982443928407 0.0061469918017148101 0 -0.010166785858197552 0.0060156691368182004 0 -0.010429250988797361 0.0057314263445950881 0 -0.010500982443928407 0.0061469918017148101 0 -0.00995420881099017 0.0064122232347429168 0 -0.010294356168148991 0.0064292092686675153 0 -0.010166785858197552 0.0060156691368182004 0 -0.00995420881099017 0.0064122232347429168 0 -0.010166785858197552 0.0060156691368182004 0 -0.0097938999028255175 0.0057424139551829163 0 -0.010166785858197552 0.0060156691368182004 0 -0.0097938999028255175 0.0057424139551829163 0 -0.010429250988797361 0.0057314263445950881 0 -0.0089784674115989845 0.0065393600919273218 0 -0.0097249344291466169 0.0058001655115109468 0 -0.0089108105281750609 0.0064539742186525131 0 -0.00995420881099017 0.0064122232347429168 0 -0.0097938999028255175 0.0057424139551829163 0 -0.0087721142537266882 0.0054219055699763615 0 -0.0090354611180256533 0.0066336865982255348 0 -0.0097938999028255175 0.0057424139551829163 0 -0.0095358565685261538 0.0048412606007227597 0 -0.0087721142537266882 0.0054219055699763615 0 -0.0097938999028255175 0.0057424139551829163 0 -0.0095358565685261538 0.0048412606007227597 0 -0.0087091895849911553 0.0045694054915384787 0 -0.0087721142537266882 0.0054219055699763615 0 -0.0095358565685261538 0.0048412606007227597 0 -0.0097938999028255175 0.0057424139551829163 0 -0.010246206341647916 0.005158204790947446 0 -0.0097938999028255175 0.0057424139551829163 0 -0.010246206341647916 0.005158204790947446 0 -0.010429250988797361 0.0057314263445950881 0 -0.010246206341647916 0.005158204790947446 0 -0.010964781265523844 0.0054016048828238687 0 -0.01060411536113048 0.0044541655144257663 0 -0.010964781265523844 0.0054016048828238687 0 -0.011969922358809114 0.0051810850227985827 0 -0.01060411536113048 0.0044541655144257663 0 -0.013431031667128092 0.0072054182015802446 0 -0.01226214889835989 0.0065425677647700719 0 -0.010246206341647916 0.005158204790947446 0 -0.010964781265523844 0.0054016048828238687 0 -0.010429250988797361 0.0057314263445950881 0 -0.010964781265523844 0.0054016048828238687 0 -0.011969922358809114 0.0051810850227985827 0 -0.01231329923571336 0.0063387565201456107 0 -0.011099045361988137 0.0054609670390509991 0 -0.012156407561675615 0.0062276028521631947 0 -0.010964781265523844 0.0054016048828238687 0 -0.011755645566178322 0.0060979812084778441 0 -0.012303770738566902 0.0061282206627379064 0 -0.011755645566178322 0.0060979812084778441 0 -0.011270128639638357 0.0062613485972615145 0 -0.011583497210820909 0.0063399744478292823 0 -0.011755645566178322 0.0060979812084778441 0 -0.011583497210820909 0.0063399744478292823 0 -0.01183838459975415 0.0064795058474787261 0 -0.011755645566178322 0.0060979812084778441 0 -0.010961647323061709 0.0059495506382364911 0 -0.011270128639638357 0.0062613485972615145 0 -0.011755645566178322 0.0060979812084778441 0 -0.012015076844422068 0.0062011501150810167 0 -0.01183838459975415 0.0064795058474787261 0 -0.011755645566178322 0.0060979812084778441 0 -0.012015076844422068 0.0062011501150810167 0 -0.012303770738566902 0.0061282206627379064 0 -0.012015076844422068 0.0062011501150810167 0 -0.012138209866902045 0.0062308408399060766 0 -0.01183838459975415 0.0064795058474787261 0 -0.012015076844422068 0.0062011501150810167 0 -0.012138209866902045 0.0062308408399060766 0 -0.012303770738566902 0.0061282206627379064 0 -0.010429250988797361 0.0057314263445950881 0 -0.010961647323061709 0.0059495506382364911 0 -0.010500982443928407 0.0061469918017148101 0 -0.010964781265523844 0.0054016048828238687 0 -0.010429250988797361 0.0057314263445950881 0 -0.010961647323061709 0.0059495506382364911 0 -0.010964781265523844 0.0054016048828238687 0 -0.011755645566178322 0.0060979812084778441 0 -0.010961647323061709 0.0059495506382364911 0 -0.010961647323061709 0.0059495506382364911 0 -0.011270128639638357 0.0062613485972615145 0 -0.010853107288004704 0.0062678423917981287 0 -0.011270128639638357 0.0062613485972615145 0 -0.010853107288004704 0.0062678423917981287 0 -0.011061945237323472 0.0064745897029891706 0 -0.010961647323061709 0.0059495506382364911 0 -0.010853107288004704 0.0062678423917981287 0 -0.010500982443928407 0.0061469918017148101 0 -0.010853107288004704 0.0062678423917981287 0 -0.010500982443928407 0.0061469918017148101 0 -0.010683934966728004 0.0065152452335300219 0 -0.010294356168148991 0.0064292092686675153 0 -0.010500982443928407 0.0061469918017148101 0 -0.010683934966728004 0.0065152452335300219 0 -0.010683934966728004 0.0065152452335300219 0 -0.010688191250158043 0.0068467209847611682 0 -0.010929402952803665 0.0067558857077416514 0 -0.010294356168148991 0.0064292092686675153 0 -0.010683934966728004 0.0065152452335300219 0 -0.010688191250158043 0.0068467209847611682 0 -0.010317890036563564 0.006513696068458431 0 -0.01053043198526493 0.0073491673393257361 0 -0.010688191250158043 0.0068467209847611682 0 -0.010990166096125492 0.0071204374988723396 0 -0.010520418138052493 0.0073007377042941489 0 -0.010294356168148991 0.0064292092686675153 0 -0.010688191250158043 0.0068467209847611682 0 -0.010520418138052493 0.0073007377042941489 0 -0.010990166096125492 0.0071204374988723396 0 -0.010929402952803665 0.0067558857077416514 0 -0.011369201762882031 0.0066504973110538823 0 -0.010688191250158043 0.0068467209847611682 0 -0.010990166096125492 0.0071204374988723396 0 -0.010929402952803665 0.0067558857077416514 0 -0.010929402952803665 0.0067558857077416514 0 -0.011061945237323472 0.0064745897029891706 0 -0.011369201762882031 0.0066504973110538823 0 -0.010683934966728004 0.0065152452335300219 0 -0.010929402952803665 0.0067558857077416514 0 -0.011061945237323472 0.0064745897029891706 0 -0.010853107288004704 0.0062678423917981287 0 -0.010683934966728004 0.0065152452335300219 0 -0.011061945237323472 0.0064745897029891706 0 -0.011270128639638357 0.0062613485972615145 0 -0.011061945237323472 0.0064745897029891706 0 -0.011369201762882031 0.0066504973110538823 0 -0.012507334171817798 0.0061861980366257636 0 -0.012467354739361735 0.0061856720284658604 0 -0.012360751818395141 0.0061936046831767679 0 -0.011270128639638357 0.0062613485972615145 0 -0.011583497210820909 0.0063399744478292823 0 -0.011369201762882031 0.0066504973110538823 0 -0.01183838459975415 0.0064795058474787261 0 -0.011602286178788061 0.0072369307060001255 0 -0.012360751818395141 0.0061936046831767679 0 -0.012145336365121041 0.0066378397242943558 0 -0.012318156641489018 0.006282035914532298 0 -0.011583497210820909 0.0063399744478292823 0 -0.011369201762882031 0.0066504973110538823 0 -0.01183838459975415 0.0064795058474787261 0 -0.012138209866902045 0.0062308408399060766 0 -0.01183838459975415 0.0064795058474787261 0 -0.012360751818395141 0.0061936046831767679 0 -0.010990166096125492 0.0071204374988723396 0 -0.011369201762882031 0.0066504973110538823 0 -0.011602286178788061 0.0072369307060001255 0 -0.011369201762882031 0.0066504973110538823 0 -0.01183838459975415 0.0064795058474787261 0 -0.011602286178788061 0.0072369307060001255 0 -0.012507334171817798 0.0061861980366257636 0 -0.012504714627277161 0.0061548509923186213 0 -0.012467354739361735 0.0061856720284658604 0 -0.012507334171817798 0.0061861980366257636 0 -0.012504714627277161 0.0061548509923186213 0 -0.012520916010477619 0.0061479263389329145 0 -0.010223861892800798 0.0073303552723530153 0 -0.010441045998691143 0.0081313409203372135 0 -0.010619908020922384 0.0079459366679224108 0 -0.012145336365121041 0.0066378397242943558 0 -0.010941644832950848 0.0072001770591919329 0 -0.011602286178788061 0.0072369307060001255 0 -0.010956800376818307 0.0074511586779174941 0 -0.01071749230534033 0.0081467115645390449 0 -0.012507334171817798 0.0061861980366257636 0 -0.012520916010477619 0.0061479263389329145 0 -0.012543645467618702 0.00614827013517074 0 -0.01053043198526493 0.0073491673393257361 0 -0.010941644832950848 0.0072001770591919329 0 -0.010223861892800798 0.0073303552723530153 0 -0.010463697475350402 0.0072256031890811472 0 -0.010619908020922384 0.0079459366679224108 0 -0.010520418138052493 0.0073007377042941489 0 -0.010956800376818307 0.0074511586779174941 0 -0.01071749230534033 0.0081467115645390449 0 -0.010990166096125492 0.0071204374988723396 0 -0.010520418138052493 0.0073007377042941489 0 -0.010956800376818307 0.0074511586779174941 0 -0.010990166096125492 0.0071204374988723396 0 -0.011602286178788061 0.0072369307060001255 0 -0.010956800376818307 0.0074511586779174941 0 -0.013852168092392009 0.0064466021493876889 0 -0.013220749132742392 0.0057100064952160705 0 -0.012514859152442111 0.0061694333418376487 0 -0.012496185359788326 0.0061995471359831862 0 -0.012511887364974899 0.0062067942926646857 0 -0.012496185359788326 0.0061995471359831862 0 -0.012534390626860695 0.006201068905537962 0 -0.012511887364974899 0.0062067942926646857 0 -0.012504714627277161 0.0061548509923186213 0 -0.012514859152442111 0.0061694333418376487 0 -0.012467354739361735 0.0061856720284658604 0 -0.012514859152442111 0.0061694333418376487 0 -0.012467354739361735 0.0061856720284658604 0 -0.012496185359788326 0.0061995471359831862 0 -0.013852168092392009 0.0064466021493876889 0 -0.012156407561675615 0.0062276028521631947 0 -0.012360751818395141 0.0061936046831767679 0 -0.012534390626860695 0.006201068905537962 0 -0.012303770738566902 0.0061282206627379064 0 -0.012467354739361735 0.0061856720284658604 0 -0.012496185359788326 0.0061995471359831862 0 -0.012360751818395141 0.0061936046831767679 0 -0.012496185359788326 0.0061995471359831862 0 -0.012360751818395141 0.0061936046831767679 0 -0.012534390626860695 0.006201068905537962 0 -0.015069680541371019 0.0068846771058727477 0 -0.015148973469898151 0.0072428465619371633 0 -0.014836995140090166 0.0070334131541067487 0 -0.013852168092392009 0.0064466021493876889 0 -0.014882664355553726 0.0078431223727161749 0 -0.015671485867889221 0.0089946425981320358 0 -0.015818347603954324 0.008915876898336967 0 -0.015874771802012199 0.0089322984843180873 0 -0.014882664355553726 0.0078431223727161749 0 -0.015440506392069288 0.0080535452721716035 0 -0.011969922358809114 0.0051810850227985827 0 -0.013503882457140209 0.0061324540216858335 0 -0.01231329923571336 0.0063387565201456107 0 -0.013766374719309344 0.0072630638480950683 0 -0.013503882457140209 0.0061324540216858335 0 -0.01231329923571336 0.0063387565201456107 0 -0.012138209866902045 0.0062308408399060766 0 -0.012360751818395141 0.0061936046831767679 0 -0.012303770738566902 0.0061282206627379064 0 -0.014980801065740615 0.0091947772389049873 0 -0.01551954749701673 0.009036521552217491 0 -0.015191658736789827 0.008914436030231062 0 -0.013431031667128092 0.0072054182015802446 0 -0.014882664355553726 0.0078431223727161749 0 -0.014980801065740615 0.0091947772389049873 0 -0.015604506286103985 0.0094021503712668451 0 -0.01551954749701673 0.009036521552217491 0 -0.015671485867889221 0.0089946425981320358 0 -0.01551954749701673 0.009036521552217491 0 -0.015818347603954324 0.008915876898336967 0 -0.01551954749701673 0.009036521552217491 0 -0.015690990213295303 0.0088782990471053726 0 -0.015818347603954324 0.008915876898336967 0 -0.014882664355553726 0.0078431223727161749 0 -0.015636525713694498 0.0094983193341461204 0 -0.015690990213295303 0.0088782990471053726 0 -0.015489517261514162 0.0087217017800386154 0 -0.015891748324864546 0.0087761159362950581 0 -0.01551954749701673 0.009036521552217491 0 -0.015690990213295303 0.0088782990471053726 0 -0.015489517261514162 0.0087217017800386154 0 -0.015489517261514162 0.0087217017800386154 0 -0.015589812414687827 0.0085004193205192886 0 -0.015387416002006229 0.008390442336268903 0 -0.015489517261514162 0.0087217017800386154 0 -0.015589812414687827 0.0085004193205192886 0 -0.015845068423985503 0.0086597550670953968 0 -0.015489517261514162 0.0087217017800386154 0 -0.015145188827741287 0.0084353670569534186 0 -0.015036179845985997 0.0086858362565481097 0 -0.015489517261514162 0.0087217017800386154 0 -0.015145188827741287 0.0084353670569534186 0 -0.015387416002006229 0.008390442336268903 0 -0.015489517261514162 0.0087217017800386154 0 -0.015191658736789827 0.008914436030231062 0 -0.015036179845985997 0.0086858362565481097 0 -0.01551954749701673 0.009036521552217491 0 -0.015489517261514162 0.0087217017800386154 0 -0.015191658736789827 0.008914436030231062 0 -0.014980801065740615 0.0091947772389049873 0 -0.01480955403584615 0.0089122364345583654 0 -0.014189754918696788 0.0090536328707783807 0 -0.014980801065740615 0.0091947772389049873 0 -0.015191658736789827 0.008914436030231062 0 -0.01480955403584615 0.0089122364345583654 0 -0.01480955403584615 0.0089122364345583654 0 -0.015036179845985997 0.0086858362565481097 0 -0.014586731211246127 0.0087072857079406527 0 -0.015191658736789827 0.008914436030231062 0 -0.01480955403584615 0.0089122364345583654 0 -0.015036179845985997 0.0086858362565481097 0 -0.01480955403584615 0.0089122364345583654 0 -0.014189754918696788 0.0090536328707783807 0 -0.014586731211246127 0.0087072857079406527 0 -0.014189754918696788 0.0090536328707783807 0 -0.014272059752631036 0.008684912857447635 0 -0.014586731211246127 0.0087072857079406527 0 -0.013936158636076801 0.0085554480648018204 0 -0.014189754918696788 0.0090536328707783807 0 -0.014272059752631036 0.008684912857447635 0 -0.014272059752631036 0.008684912857447635 0 -0.014368732693614309 0.0084138005372228312 0 -0.014586731211246127 0.0087072857079406527 0 -0.013936158636076801 0.0085554480648018204 0 -0.014272059752631036 0.008684912857447635 0 -0.014368732693614309 0.0084138005372228312 0 -0.013936158636076801 0.0085554480648018204 0 -0.014368732693614309 0.0084138005372228312 0 -0.014177298758112734 0.0081209878059033246 0 -0.015036179845985997 0.0086858362565481097 0 -0.014586731211246127 0.0087072857079406527 0 -0.014767243727669204 0.0084003576241089561 0 -0.014368732693614309 0.0084138005372228312 0 -0.014586731211246127 0.0087072857079406527 0 -0.014767243727669204 0.0084003576241089561 0 -0.015145188827741287 0.0084353670569534186 0 -0.015036179845985997 0.0086858362565481097 0 -0.014767243727669204 0.0084003576241089561 0 -0.015145188827741287 0.0084353670569534186 0 -0.014767243727669204 0.0084003576241089561 0 -0.014893648543554341 0.0080918379534255618 0 -0.014767243727669204 0.0084003576241089561 0 -0.014893648543554341 0.0080918379534255618 0 -0.014482322656439253 0.0080385833473216872 0 -0.014893648543554341 0.0080918379534255618 0 -0.014482322656439253 0.0080385833473216872 0 -0.014728978525303863 0.0077512039029035973 0 -0.014482322656439253 0.0080385833473216872 0 -0.014037637548289641 0.0076641157672068076 0 -0.014728978525303863 0.0077512039029035973 0 -0.014368732693614309 0.0084138005372228312 0 -0.014767243727669204 0.0084003576241089561 0 -0.014482322656439253 0.0080385833473216872 0 -0.014368732693614309 0.0084138005372228312 0 -0.014177298758112734 0.0081209878059033246 0 -0.014482322656439253 0.0080385833473216872 0 -0.013818637136072101 0.0081700819398164599 0 -0.014177298758112734 0.0081209878059033246 0 -0.014037637548289641 0.0076641157672068076 0 -0.014177298758112734 0.0081209878059033246 0 -0.014482322656439253 0.0080385833473216872 0 -0.014037637548289641 0.0076641157672068076 0 -0.0098776322725275031 0.014646395631362772 0 -0.013236623947827998 0.010913580710488946 0 -0.011678975855234338 0.011934823633163841 0 -0.010296860995761789 0.012482464147192446 0 -0.011503612493971102 0.012538547626686828 0 -0.010379861858603628 0.014643863920462703 0 -0.0098776322725275031 0.014646395631362772 0 -0.011570670632796601 0.011626926489978732 0 -0.011836721972200669 0.011860994501082092 0 -0.013073646935776315 0.011727156007730003 0 -0.013269876767637318 0.0095651840755989186 0 -0.013236623947827998 0.010913580710488946 0 -0.013236623947827998 0.010913580710488946 0 -0.014750810284661747 0.009834693847836435 0 -0.014893648543554341 0.0080918379534255618 0 -0.014728978525303863 0.0077512039029035973 0 -0.015298451789848615 0.0078706470052080282 0 -0.011678975855234338 0.011934823633163841 0 -0.011503612493971102 0.012538547626686828 0 -0.012157527384644562 0.012140135815276225 0 -0.01370569544563373 0.011751709323426264 0 -0.013968296186095106 0.011823306984657507 0 -0.014017395976990643 0.011786945790432058 0 -0.013236623947827998 0.010913580710488946 0 -0.013176611479073388 0.012210764018720129 0 -0.01263410063255895 0.011894577261470795 0 -0.011678975855234338 0.011934823633163841 0 -0.012157527384644562 0.012140135815276225 0 -0.011503612493971102 0.012538547626686828 0 -0.012157527384644562 0.012140135815276225 0 -0.01265284954637321 0.012376968696917996 0 -0.01263410063255895 0.011894577261470795 0 -0.012157527384644562 0.012140135815276225 0 -0.01265284954637321 0.012376968696917996 0 -0.015298451789848615 0.0078706470052080282 0 -0.015745331144994764 0.0079529518854054605 0 -0.015360762100802762 0.0079987870021669665 0 -0.013176611479073388 0.012210764018720129 0 -0.014038433888972069 0.011983016453206418 0 -0.013968296186095106 0.011823306984657507 0 -0.014017395976990643 0.011786945790432058 0 -0.014188985500547159 0.011878791982189682 0 -0.014750810284661747 0.009834693847836435 0 -0.015267501228254479 0.0091028805871075959 0 -0.01263410063255895 0.011894577261470795 0 -0.01265284954637321 0.012376968696917996 0 -0.013192998873286814 0.011990098915547016 0 -0.014017395976990643 0.011786945790432058 0 -0.014188985500547159 0.011878791982189682 0 -0.014266921523073399 0.011833778843275557 0 -0.01265284954637321 0.012376968696917996 0 -0.013192998873286814 0.011990098915547016 0 -0.013763225340494855 0.012176157501230368 0 -0.015267501228254479 0.0091028805871075959 0 -0.015440927163995907 0.0080674300501072365 0 -0.015688919233459095 0.0082623063421085885 0 -0.015545884292236144 0.0083513516336239952 0 -0.015348319191996626 0.0081879630971424169 0 -0.015545884292236144 0.0083513516336239952 0 -0.015387416002006229 0.008390442336268903 0 -0.015348319191996626 0.0081879630971424169 0 -0.015688919233459095 0.0082623063421085885 0 -0.015545884292236144 0.0083513516336239952 0 -0.015700659066157755 0.0084198909227417296 0 -0.015700659066157755 0.0084198909227417296 0 -0.015589812414687827 0.0085004193205192886 0 -0.015845068423985503 0.0086597550670953968 0 -0.015545884292236144 0.0083513516336239952 0 -0.015700659066157755 0.0084198909227417296 0 -0.015589812414687827 0.0085004193205192886 0 -0.015545884292236144 0.0083513516336239952 0 -0.015589812414687827 0.0085004193205192886 0 -0.015387416002006229 0.008390442336268903 0 -0.014893648543554341 0.0080918379534255618 0 -0.015200194065261621 0.008278207337184932 0 -0.015348319191996626 0.0081879630971424169 0 -0.015145188827741287 0.0084353670569534186 0 -0.015387416002006229 0.008390442336268903 0 -0.015200194065261621 0.008278207337184932 0 -0.014900179806027428 0.0081218304947698414 0 -0.015440927163995907 0.0080674300501072365 0 -0.015387416002006229 0.008390442336268903 0 -0.015200194065261621 0.008278207337184932 0 -0.015348319191996626 0.0081879630971424169 0 -0.014893648543554341 0.0080918379534255618 0 -0.015298451789848615 0.0078706470052080282 0 -0.015360762100802762 0.0079987870021669665 0 -0.015145188827741287 0.0084353670569534186 0 -0.014893648543554341 0.0080918379534255618 0 -0.015200194065261621 0.008278207337184932 0 -0.016003171230420547 0.0085650408828122186 0 -0.016121063763562482 0.0087305242496566234 0 -0.015845068423985503 0.0086597550670953968 0 -0.016027606343531189 0.0084564311832698337 0 -0.016149317428380869 0.0085257698273435972 0 -0.016003171230420547 0.0085650408828122186 0 -0.016149317428380869 0.0085257698273435972 0 -0.016295095854032472 0.0086070113084276076 0 -0.016121063763562482 0.0087305242496566234 0 -0.016149317428380869 0.0085257698273435972 0 -0.016003171230420547 0.0085650408828122186 0 -0.016121063763562482 0.0087305242496566234 0 -0.016003171230420547 0.0085650408828122186 0 -0.015856207630334636 0.0084725422865723574 0 -0.015845068423985503 0.0086597550670953968 0 -0.015688919233459095 0.0082623063421085885 0 -0.016027606343531189 0.0084564311832698337 0 -0.015856207630334636 0.0084725422865723574 0 -0.015700659066157755 0.0084198909227417296 0 -0.015856207630334636 0.0084725422865723574 0 -0.015845068423985503 0.0086597550670953968 0 -0.015688919233459095 0.0082623063421085885 0 -0.015700659066157755 0.0084198909227417296 0 -0.015856207630334636 0.0084725422865723574 0 -0.016027606343531189 0.0084564311832698337 0 -0.016003171230420547 0.0085650408828122186 0 -0.015856207630334636 0.0084725422865723574 0 -0.015772712009234236 0.0084485229063421541 0 -0.016027606343531189 0.0084564311832698337 0 -0.016062789578201116 0.0083948436871679778 0 -0.014188985500547159 0.011878791982189682 0 -0.014266921523073399 0.011833778843275557 0 -0.014412838192600143 0.011910757875686332 0 -0.015267501228254479 0.0091028805871075959 0 -0.015157723800792205 0.01026370852793322 0 -0.013763225340494855 0.012176157501230368 0 -0.01383451358596041 0.012117296533059586 0 -0.01450098484765938 0.011880703058173502 0 -0.015267501228254479 0.0091028805871075959 0 -0.016148056514641723 0.0083623284291240094 0 -0.013192998873286814 0.011990098915547016 0 -0.013763225340494855 0.012176157501230368 0 -0.01383451358596041 0.012117296533059586 0 -0.013938508177086813 0.011907874481697975 0 -0.013727044811246817 0.011820556006150664 0 -0.01383451358596041 0.012117296533059586 0 -0.014126273501240736 0.011862027435398209 0 -0.013938508177086813 0.011907874481697975 0 -0.01383451358596041 0.012117296533059586 0 -0.014126273501240736 0.011862027435398209 0 -0.01383451358596041 0.012117296533059586 0 -0.01450098484765938 0.011880703058173502 0 -0.014266921523073399 0.011833778843275557 0 -0.014412838192600143 0.011910757875686332 0 -0.01450098484765938 0.011880703058173502 0 -0.014038433888972069 0.011983016453206418 0 -0.014441699188502211 0.011905841268520548 0 -0.016027606343531189 0.0084564311832698337 0 -0.016149317428380869 0.0085257698273435972 0 -0.016062789578201116 0.0083948436871679778 0 -0.016149317428380869 0.0085257698273435972 0 -0.016062789578201116 0.0083948436871679778 0 -0.016395527191612243 0.008420575407654075 0 -0.014556329166098154 0.011711975827891744 0 -0.01450098484765938 0.011880703058173502 0 -0.014663530885589009 0.011863422917466672 0 -0.015157723800792205 0.01026370852793322 0 -0.015530558073397939 0.010131203176389519 0 -0.016149317428380869 0.0085257698273435972 0 -0.016395527191612243 0.008420575407654075 0 -0.016295095854032472 0.0086070113084276076 0 -0.014412838192600143 0.011910757875686332 0 -0.01450098484765938 0.011880703058173502 0 -0.014663530885589009 0.011863422917466672 0 -0.016395527191612243 0.008420575407654075 0 -0.016599045269018377 0.0085552398899668355 0 -0.016652761217660236 0.0084574696445368462 0 -0.016395527191612243 0.008420575407654075 0 -0.016599045269018377 0.0085552398899668355 0 -0.016482402317588636 0.008615329694792841 0 -0.015530558073397939 0.010131203176389519 0 -0.015865402914392129 0.010065650342174689 0 -0.016482402317588636 0.008615329694792841 0 -0.016366244366755246 0.0088296947969451062 0 -0.016659262651928745 0.0087734941556693227 0 -0.016599045269018377 0.0085552398899668355 0 -0.016482402317588636 0.008615329694792841 0 -0.016659262651928745 0.0087734941556693227 0 -0.016395527191612243 0.008420575407654075 0 -0.016482402317588636 0.008615329694792841 0 -0.016295095854032472 0.0086070113084276076 0 -0.016295095854032472 0.0086070113084276076 0 -0.016366244366755246 0.0088296947969451062 0 -0.016121063763562482 0.0087305242496566234 0 -0.016482402317588636 0.008615329694792841 0 -0.016295095854032472 0.0086070113084276076 0 -0.016366244366755246 0.0088296947969451062 0 -0.016366244366755246 0.0088296947969451062 0 -0.016280672168891685 0.0090302161990541176 0 -0.016121063763562482 0.0087305242496566234 0 -0.016366244366755246 0.0088296947969451062 0 -0.01645541701432502 0.009209323097642861 0 -0.016280672168891685 0.0090302161990541176 0 -0.01645541701432502 0.009209323097642861 0 -0.016073169780788092 0.0093736549238064605 0 -0.016316266661323235 0.0098593806935952863 0 -0.016464953989223669 0.009232120659722438 0 -0.016448253483819654 0.0093536819210341786 0 -0.016366244366755246 0.0088296947969451062 0 -0.01645541701432502 0.009209323097642861 0 -0.016659262651928745 0.0087734941556693227 0 -0.01645541701432502 0.009209323097642861 0 -0.016280672168891685 0.0090302161990541176 0 -0.016409615858325205 0.0091284470835430662 0 -0.015938924626991827 0.0089169127129597042 0 -0.016227978826342738 0.0089536877419798318 0 -0.016280672168891685 0.0090302161990541176 0 -0.015985650476940082 0.0090758275177115696 0 -0.016409615858325205 0.0091284470835430662 0 -0.016280672168891685 0.0090302161990541176 0 -0.016121063763562482 0.0087305242496566234 0 -0.015985650476940082 0.0090758275177115696 0 -0.016121063763562482 0.0087305242496566234 0 -0.015845068423985503 0.0086597550670953968 0 -0.015985650476940082 0.0090758275177115696 0 -0.015489517261514162 0.0087217017800386154 0 -0.015845068423985503 0.0086597550670953968 0 -0.015985650476940082 0.0090758275177115696 0 -0.015522806259033991 0.0087398361736702127 0 -0.015938924626991827 0.0089169127129597042 0 -0.015891748324864546 0.0087761159362950581 0 -0.015818347603954324 0.008915876898336967 0 -0.016011006115536332 0.0088324577429864347 0 -0.015690990213295303 0.0088782990471053726 0 -0.015891748324864546 0.0087761159362950581 0 -0.015818347603954324 0.008915876898336967 0 -0.015891748324864546 0.0087761159362950581 0 -0.016011006115536332 0.0088324577429864347 0 -0.016078274620312933 0.0087882028127256196 0 -0.015818347603954324 0.008915876898336967 0 -0.016011006115536332 0.0088324577429864347 0 -0.015974255453298287 0.0088618070552994865 0 -0.016011006115536332 0.0088324577429864347 0 -0.015974255453298287 0.0088618070552994865 0 -0.016062572749882893 0.0087916084401424045 0 -0.015818347603954324 0.008915876898336967 0 -0.015974255453298287 0.0088618070552994865 0 -0.015874771802012199 0.0089322984843180873 0 -0.015440506392069288 0.0080535452721716035 0 -0.015508682499912784 0.0072600760062889033 0 -0.015974255453298287 0.0088618070552994865 0 -0.015874771802012199 0.0089322984843180873 0 -0.016050168108561257 0.0087864285015250652 0 -0.014836995140090166 0.0070334131541067487 0 -0.014525820090964646 0.006825282693098021 0 -0.014608108780930678 0.0065773759049337207 0 -0.015069680541371019 0.0068846771058727477 0 -0.014836995140090166 0.0070334131541067487 0 -0.014608108780930678 0.0065773759049337207 0 -0.016062572749882893 0.0087916084401424045 0 -0.016050168108561257 0.0087864285015250652 0 -0.016133362928484298 0.0085471809882834808 0 -0.015974255453298287 0.0088618070552994865 0 -0.016062572749882893 0.0087916084401424045 0 -0.016050168108561257 0.0087864285015250652 0 -0.015508682499912784 0.0072600760062889033 0 -0.014653757861202975 0.0053029102045282234 0 -0.015537580487680488 0.0060727723766886062 0 -0.015595528694406315 0.0058951763683695634 0 -0.015277097789153659 0.0058953373676630368 0 -0.015508682499912784 0.0072600760062889033 0 -0.015727254786456854 0.0072843817624673552 0 -0.013852168092392009 0.0064466021493876889 0 -0.014653757861202975 0.0053029102045282234 0 -0.01427697039348255 0.005978521819253073 0 -0.013534834629728355 0.0054941021429129721 0 -0.014097011263094312 0.0051805223898591119 0 -0.016133362928484298 0.0085471809882834808 0 -0.016061878523726925 0.0083481191807140091 0 -0.016072716708724077 0.0083189528614817394 0 -0.016133362928484298 0.0085471809882834808 0 -0.016087080122034823 0.008554378262683713 0 -0.016061878523726925 0.0083481191807140091 0 -0.015595528694406315 0.0058951763683695634 0 -0.015277097789153659 0.0058953373676630368 0 -0.01533603238960393 0.0057189154620590817 0 -0.016062572749882893 0.0087916084401424045 0 -0.016133362928484298 0.0085471809882834808 0 -0.016111463108395813 0.0087346143356102374 0 -0.016133362928484298 0.0085471809882834808 0 -0.016111463108395813 0.0087346143356102374 0 -0.016087080122034823 0.008554378262683713 0 -0.016111463108395813 0.0087346143356102374 0 -0.016087080122034823 0.008554378262683713 0 -0.016142684897056708 0.0088443864764344675 0 -0.016111463108395813 0.0087346143356102374 0 -0.016078274620312933 0.0087882028127256196 0 -0.016142684897056708 0.0088443864764344675 0 -0.016011006115536332 0.0088324577429864347 0 -0.016062572749882893 0.0087916084401424045 0 -0.016111463108395813 0.0087346143356102374 0 -0.016011006115536332 0.0088324577429864347 0 -0.016111463108395813 0.0087346143356102374 0 -0.016078274620312933 0.0087882028127256196 0 -0.01645541701432502 0.009209323097642861 0 -0.016409615858325205 0.0091284470835430662 0 -0.016142684897056708 0.0088443864764344675 0 -0.016227978826342738 0.0089536877419798318 0 -0.016140878273310545 0.0088536445231991046 0 -0.015847063321902867 0.0091159046169513348 0 -0.016142684897056708 0.0088443864764344675 0 -0.016073169780788092 0.0093736549238064605 0 -0.015847063321902867 0.0091159046169513348 0 -0.016142684897056708 0.0088443864764344675 0 -0.015702673961624166 0.0087179938461006586 0 -0.016142684897056708 0.0088443864764344675 0 -0.015979466704545548 0.0085096440896141948 0 -0.015702673961624166 0.0087179938461006586 0 -0.016087080122034823 0.008554378262683713 0 -0.015979466704545548 0.0085096440896141948 0 -0.015984898695434714 0.008352022425914582 0 -0.016087080122034823 0.008554378262683713 0 -0.016142684897056708 0.0088443864764344675 0 -0.015979466704545548 0.0085096440896141948 0 -0.015979466704545548 0.0085096440896141948 0 -0.015832008415396403 0.008095145601332298 0 -0.015702673961624166 0.0087179938461006586 0 -0.015979466704545548 0.0085096440896141948 0 -0.015832008415396403 0.008095145601332298 0 -0.015984898695434714 0.008352022425914582 0 -0.015851509271454328 0.0079712974540265165 0 -0.015880579837374634 0.0079420603859851977 0 -0.015832008415396403 0.008095145601332298 0 -0.015907518891737471 0.008186171427476515 0 -0.015824102527670955 0.0081040535494174733 0 -0.015832008415396403 0.008095145601332298 0 -0.015907518891737471 0.008186171427476515 0 -0.015984898695434714 0.008352022425914582 0 -0.015907518891737471 0.008186171427476515 0 -0.016061878523726925 0.0083481191807140091 0 -0.015993422403958058 0.0081712033989475834 0 -0.016087080122034823 0.008554378262683713 0 -0.016061878523726925 0.0083481191807140091 0 -0.015984898695434714 0.008352022425914582 0 -0.015907518891737471 0.008186171427476515 0 -0.016061878523726925 0.0083481191807140091 0 -0.015984898695434714 0.008352022425914582 0 -0.014999942455481264 0.0078962064225215848 0 -0.015433127250064491 0.0076573582088618102 0 -0.015454671330350217 0.0083021277515386346 0 -0.014999942455481264 0.0078962064225215848 0 -0.015433127250064491 0.0076573582088618102 0 -0.014999927597965979 0.007133180521557504 0 -0.015832008415396403 0.008095145601332298 0 -0.015433127250064491 0.0076573582088618102 0 -0.015960063237178506 0.0073455154569117857 0 -0.015832008415396403 0.008095145601332298 0 -0.015433127250064491 0.0076573582088618102 0 -0.015454671330350217 0.0083021277515386346 0 -0.015832008415396403 0.008095145601332298 0 -0.015454671330350217 0.0083021277515386346 0 -0.015702673961624166 0.0087179938461006586 0 -0.014999942455481264 0.0078962064225215848 0 -0.015454671330350217 0.0083021277515386346 0 -0.015000009152687678 0.0086589284957969154 0 -0.015000009152687678 0.0086589284957969154 0 -0.015702673961624166 0.0087179938461006586 0 -0.015467447670585851 0.0092096504557969815 0 -0.015454671330350217 0.0083021277515386346 0 -0.015000009152687678 0.0086589284957969154 0 -0.015702673961624166 0.0087179938461006586 0 -0.015847063321902867 0.0091159046169513348 0 -0.015702673961624166 0.0087179938461006586 0 -0.015467447670585851 0.0092096504557969815 0 -0.015000009152687678 0.0086589284957969154 0 -0.015467447670585851 0.0092096504557969815 0 -0.014999905208132776 0.0094218213794501834 0 -0.01531919359066943 0.0097052467452532487 0 -0.014999905208132776 0.0094218213794501834 0 -0.014999923475934774 0.010183955229890521 0 -0.015467447670585851 0.0092096504557969815 0 -0.01531919359066943 0.0097052467452532487 0 -0.014999905208132776 0.0094218213794501834 0 -0.01531919359066943 0.0097052467452532487 0 -0.014999923475934774 0.010183955229890521 0 -0.015401764098215094 0.010106847434900175 0 -0.015401764098215094 0.010106847434900175 0 -0.015669161574095567 0.0095844554624529912 0 -0.015822553076818111 0.0100140671538774 0 -0.01531919359066943 0.0097052467452532487 0 -0.015401764098215094 0.010106847434900175 0 -0.015669161574095567 0.0095844554624529912 0 -0.015847063321902867 0.0091159046169513348 0 -0.015467447670585851 0.0092096504557969815 0 -0.015669161574095567 0.0095844554624529912 0 -0.015467447670585851 0.0092096504557969815 0 -0.01531919359066943 0.0097052467452532487 0 -0.015669161574095567 0.0095844554624529912 0 -0.015847063321902867 0.0091159046169513348 0 -0.015669161574095567 0.0095844554624529912 0 -0.016073169780788092 0.0093736549238064605 0 -0.01645541701432502 0.009209323097642861 0 -0.016142684897056708 0.0088443864764344675 0 -0.016073169780788092 0.0093736549238064605 0 -0.016073169780788092 0.0093736549238064605 0 -0.016316266661323235 0.0098593806935952863 0 -0.015822553076818111 0.0100140671538774 0 -0.015669161574095567 0.0095844554624529912 0 -0.016073169780788092 0.0093736549238064605 0 -0.015822553076818111 0.0100140671538774 0 -0.015822553076818111 0.0100140671538774 0 -0.016057488925751266 0.010437011426797 0 -0.015556999061097842 0.010461293415889103 0 -0.016316266661323235 0.0098593806935952863 0 -0.015822553076818111 0.0100140671538774 0 -0.016057488925751266 0.010437011426797 0 -0.016599045269018377 0.0085552398899668355 0 -0.016659262651928745 0.0087734941556693227 0 -0.01672078806289394 0.0085557678704974317 0 -0.016448253483819654 0.0093536819210341786 0 -0.016477141373783647 0.0093876229004797359 0 -0.016599045269018377 0.0085552398899668355 0 -0.01672078806289394 0.0085557678704974317 0 -0.016652761217660236 0.0084574696445368462 0 -0.016057488925751266 0.010437011426797 0 -0.015670691687310744 0.010771638650249795 0 -0.015556999061097842 0.010461293415889103 0 -0.016770047621088743 0.008473357596877425 0 -0.01672078806289394 0.0085557678704974317 0 -0.016652761217660236 0.0084574696445368462 0 -0.015734318483549812 0.011002499592665211 0 -0.016057488925751266 0.010437011426797 0 -0.015670691687310744 0.010771638650249795 0 -0.015795918512047587 0.010292021726609236 0 -0.016477141373783647 0.0093876229004797359 0 -0.015556999061097842 0.010461293415889103 0 -0.015407109733217399 0.010809846903517878 0 -0.015131979898980399 0.010579041062507006 0 -0.015565729805909976 0.010934063959131421 0 -0.015670691687310744 0.010771638650249795 0 -0.015407109733217399 0.010809846903517878 0 -0.015670691687310744 0.010771638650249795 0 -0.015556999061097842 0.010461293415889103 0 -0.015407109733217399 0.010809846903517878 0 -0.015552349452159891 0.011707168882848049 0 -0.01527735608390463 0.010945883617196544 0 -0.014999999390126714 0.011082218375916782 0 -0.015000036775012609 0.01018478893334984 0 -0.015201190330362681 0.010770227443380319 0 -0.014999998564300291 0.010184693937044747 0 -0.01527735608390463 0.010945883617196544 0 -0.014999999390126714 0.011082218375916782 0 -0.014999923475934774 0.010183955229890521 0 -0.015401764098215094 0.010106847434900175 0 -0.015131979898980399 0.010579041062507006 0 -0.015401764098215094 0.010106847434900175 0 -0.015556999061097842 0.010461293415889103 0 -0.015131979898980399 0.010579041062507006 0 -0.015401764098215094 0.010106847434900175 0 -0.015822553076818111 0.0100140671538774 0 -0.015556999061097842 0.010461293415889103 0 -0.015404423237638416 0.0043989874590927118 0 -0.015616321503457844 0.0045856312977504473 0 -0.015702179840760781 0.0044190441351144435 0 -0.015616321503457844 0.0045856312977504473 0 -0.015475548598261829 0.0046569422137459843 0 -0.015610917266057027 0.0047333970490601104 0 -0.015404423237638416 0.0043989874590927118 0 -0.015616321503457844 0.0045856312977504473 0 -0.015475548598261829 0.0046569422137459843 0 -0.015404423237638416 0.0043989874590927118 0 -0.015000021485738802 0.0046803053442686241 0 -0.014999933404595 0.0039839897476547587 0 -0.015404423237638416 0.0043989874590927118 0 -0.015475548598261829 0.0046569422137459843 0 -0.015000021485738802 0.0046803053442686241 0 -0.014999933404595 0.0039839897476547587 0 -0.015412649682271903 0.0040372930846847566 0 -0.015358187617936253 0.0036149427704940985 0 -0.015404423237638416 0.0043989874590927118 0 -0.014999933404595 0.0039839897476547587 0 -0.015412649682271903 0.0040372930846847566 0 -0.015412649682271903 0.0040372930846847566 0 -0.015702179840760781 0.0044190441351144435 0 -0.015747937127571429 0.0037284425553284488 0 -0.015717326805103363 0.0043424430175835731 0 -0.015748529483086127 0.0043266262121415934 0 -0.015404423237638416 0.0043989874590927118 0 -0.015412649682271903 0.0040372930846847566 0 -0.015702179840760781 0.0044190441351144435 0 -0.015702179840760781 0.0044190441351144435 0 -0.015558204547426088 0.0046181402131099114 0 -0.015595938596497633 0.0047001230724362277 0 -0.015558204547426088 0.0046181402131099114 0 -0.015471379332239358 0.0047477803808292128 0 -0.015595938596497633 0.0047001230724362277 0 -0.015702179840760781 0.0044190441351144435 0 -0.015595938596497633 0.0047001230724362277 0 -0.015745435658433789 0.0047099134571620569 0 -0.015702179840760781 0.0044190441351144435 0 -0.015558204547426088 0.0046181402131099114 0 -0.015634897192708296 0.0045636164679345656 0 -0.015558204547426088 0.0046181402131099114 0 -0.015445156540013114 0.0046809052265113903 0 -0.015471379332239358 0.0047477803808292128 0 -0.015445156540013114 0.0046809052265113903 0 -0.015266434412194097 0.0047896568375448232 0 -0.015471379332239358 0.0047477803808292128 0 -0.015558204547426088 0.0046181402131099114 0 -0.015445156540013114 0.0046809052265113903 0 -0.015561523268803142 0.0046273287902283827 0 -0.015445156540013114 0.0046809052265113903 0 -0.015561523268803142 0.0046273287902283827 0 -0.01544795898837221 0.0046253115811079361 0 -0.015561523268803142 0.0046273287902283827 0 -0.01544795898837221 0.0046253115811079361 0 -0.015558625683422823 0.0046370051920583662 0 -0.015445156540013114 0.0046809052265113903 0 -0.01544795898837221 0.0046253115811079361 0 -0.015308985649845121 0.0046512944294413014 0 -0.015616321503457844 0.0045856312977504473 0 -0.015702179840760781 0.0044190441351144435 0 -0.015634897192708296 0.0045636164679345656 0 -0.015558204547426088 0.0046181402131099114 0 -0.015561523268803142 0.0046273287902283827 0 -0.015634897192708296 0.0045636164679345656 0 -0.015561523268803142 0.0046273287902283827 0 -0.015642763027050147 0.0046596680509008951 0 -0.015558625683422823 0.0046370051920583662 0 -0.015561523268803142 0.0046273287902283827 0 -0.015634897192708296 0.0045636164679345656 0 -0.015642763027050147 0.0046596680509008951 0 -0.015616321503457844 0.0045856312977504473 0 -0.015634897192708296 0.0045636164679345656 0 -0.015642763027050147 0.0046596680509008951 0 -0.015642763027050147 0.0046596680509008951 0 -0.015730662948859504 0.0047515138148760527 0 -0.015610917266057027 0.0047333970490601104 0 -0.015616321503457844 0.0045856312977504473 0 -0.015642763027050147 0.0046596680509008951 0 -0.015610917266057027 0.0047333970490601104 0 -0.015642763027050147 0.0046596680509008951 0 -0.015624038306022924 0.004663265041349271 0 -0.015558625683422823 0.0046370051920583662 0 -0.015624038306022924 0.004663265041349271 0 -0.015558625683422823 0.0046370051920583662 0 -0.015527251739229283 0.0046116295696679863 0 -0.015624038306022924 0.004663265041349271 0 -0.015527251739229283 0.0046116295696679863 0 -0.0155616358634018 0.0045499282767377117 0 -0.015624038306022924 0.004663265041349271 0 -0.015730662948859504 0.0047515138148760527 0 -0.0155616358634018 0.0045499282767377117 0 -0.015642763027050147 0.0046596680509008951 0 -0.015624038306022924 0.004663265041349271 0 -0.015730662948859504 0.0047515138148760527 0 -0.01544795898837221 0.0046253115811079361 0 -0.015426836204149781 0.0045753628146835536 0 -0.015324495989441779 0.0045570706210528358 0 -0.01544795898837221 0.0046253115811079361 0 -0.015324495989441779 0.0045570706210528358 0 -0.015308985649845121 0.0046512944294413014 0 -0.01544795898837221 0.0046253115811079361 0 -0.015527251739229283 0.0046116295696679863 0 -0.015426836204149781 0.0045753628146835536 0 -0.01544795898837221 0.0046253115811079361 0 -0.015558625683422823 0.0046370051920583662 0 -0.015527251739229283 0.0046116295696679863 0 -0.015527251739229283 0.0046116295696679863 0 -0.015426836204149781 0.0045753628146835536 0 -0.01540976422036874 0.0044933394178170829 0 -0.015527251739229283 0.0046116295696679863 0 -0.01540976422036874 0.0044933394178170829 0 -0.0155616358634018 0.0045499282767377117 0 -0.015426836204149781 0.0045753628146835536 0 -0.01540976422036874 0.0044933394178170829 0 -0.015324495989441779 0.0045570706210528358 0 -0.01540976422036874 0.0044933394178170829 0 -0.015444128936293461 0.0043735573336575228 0 -0.0155616358634018 0.0045499282767377117 0 -0.015444128936293461 0.0043735573336575228 0 -0.015576579910322016 0.0044080489223061641 0 -0.015508589233962776 0.0042402610716320696 0 -0.015444128936293461 0.0043735573336575228 0 -0.0155616358634018 0.0045499282767377117 0 -0.015576579910322016 0.0044080489223061641 0 -0.015444128936293461 0.0043735573336575228 0 -0.015376065439678059 0.0042387030117837224 0 -0.015238182015021062 0.0043373851872649796 0 -0.01540976422036874 0.0044933394178170829 0 -0.015444128936293461 0.0043735573336575228 0 -0.015238182015021062 0.0043373851872649796 0 -0.01573372928566515 0.0048499125447214802 0 -0.015758836474442546 0.004729179714860505 0 -0.015730662948859504 0.0047515138148760527 0 -0.015698567694726478 0.0050324019338056272 0 -0.015808043352943817 0.0056723263491607846 0 -0.015730662948859504 0.0047515138148760527 0 -0.015576579910322016 0.0044080489223061641 0 -0.015704681257631779 0.0041635901140557735 0 -0.015730662948859504 0.0047515138148760527 0 -0.0155616358634018 0.0045499282767377117 0 -0.015576579910322016 0.0044080489223061641 0 -0.015682138704137056 0.0051147017954270612 0 -0.015386281673104629 0.0055690188360906943 0 -0.015698567694726478 0.0050324019338056272 0 -0.015461840797113274 0.0052051353678831463 0 -0.015487919467962909 0.0056453748720861029 0 -0.015461840797113274 0.0052051353678831463 0 -0.015587780445985439 0.0049186494265049873 0 -0.015384833058567049 0.0049239882563798711 0 -0.015698567694726478 0.0050324019338056272 0 -0.015461840797113274 0.0052051353678831463 0 -0.015587780445985439 0.0049186494265049873 0 -0.015730662948859504 0.0047515138148760527 0 -0.015698567694726478 0.0050324019338056272 0 -0.015587780445985439 0.0049186494265049873 0 -0.015730662948859504 0.0047515138148760527 0 -0.015587780445985439 0.0049186494265049873 0 -0.015610917266057027 0.0047333970490601104 0 -0.015587780445985439 0.0049186494265049873 0 -0.015610917266057027 0.0047333970490601104 0 -0.015384833058567049 0.0049239882563798711 0 -0.015475548598261829 0.0046569422137459843 0 -0.015610917266057027 0.0047333970490601104 0 -0.015384833058567049 0.0049239882563798711 0 -0.015000021485738802 0.0046803053442686241 0 -0.015384833058567049 0.0049239882563798711 0 -0.014999905284992348 0.0053766177306105896 0 -0.015475548598261829 0.0046569422137459843 0 -0.015000021485738802 0.0046803053442686241 0 -0.015384833058567049 0.0049239882563798711 0 -0.015461840797113274 0.0052051353678831463 0 -0.015384833058567049 0.0049239882563798711 0 -0.014999905284992348 0.0053766177306105896 0 -0.015461840797113274 0.0052051353678831463 0 -0.014999905284992348 0.0053766177306105896 0 -0.015487919467962909 0.0056453748720861029 0 -0.014999905284992348 0.0053766177306105896 0 -0.014999980521048263 0.0060732304573998825 0 -0.015487919467962909 0.0056453748720861029 0 -0.014999980521048263 0.0060732304573998825 0 -0.015487919467962909 0.0056453748720861029 0 -0.015157233969495292 0.0061628981264682586 0 -0.015386281673104629 0.0055690188360906943 0 -0.015093502816420192 0.0061019829749479728 0 -0.015314719776837637 0.0055108378373849437 0 -0.015341629920125012 0.0058494246862990252 0 -0.014908723084623999 0.0059690332039764966 0 -0.015698567694726478 0.0050324019338056272 0 -0.015314719776837637 0.0055108378373849437 0 -0.015808043352943817 0.0056723263491607846 0 -0.015314719776837637 0.0055108378373849437 0 -0.015341629920125012 0.0058494246862990252 0 -0.015808043352943817 0.0056723263491607846 0 -0.015342479573843822 0.0062436524307375235 0 -0.015772640227219945 0.0065141488557145071 0 -0.015808043352943817 0.0056723263491607846 0 -0.015341629920125012 0.0058494246862990252 0 -0.015342479573843822 0.0062436524307375235 0 -0.015808043352943817 0.0056723263491607846 0 -0.015161926985876874 0.0061915769122811333 0 -0.014999990816003795 0.0063702177585501403 0 -0.015239181235833737 0.0066966385050867437 0 -0.015561810405328341 0.0064618772937659096 0 -0.015161926985876874 0.0061915769122811333 0 -0.015239181235833737 0.0066966385050867437 0 -0.014999999552809336 0.0060733390771069446 0 -0.015170994587721641 0.0061827434990845984 0 -0.014999999609255554 0.0063701822733804774 0 -0.015093502816420192 0.0061019829749479728 0 -0.015000024429950994 0.0063700074503861594 0 -0.015000111687003038 0.0060733696860359567 0 -0.015093502816420192 0.0061019829749479728 0 -0.015341629920125012 0.0058494246862990252 0 -0.015342479573843822 0.0062436524307375235 0 -0.014908723084623999 0.0059690332039764966 0 -0.015508218488845647 0.0063810925549952708 0 -0.015093502816420192 0.0061019829749479728 0 -0.015239181235833737 0.0066966385050867437 0 -0.015508323358751762 0.0070070761695797687 0 -0.014999927597965979 0.007133180521557504 0 -0.014999990816003795 0.0063702177585501403 0 -0.015239181235833737 0.0066966385050867437 0 -0.014999927597965979 0.007133180521557504 0 -0.015561810405328341 0.0064618772937659096 0 -0.015239181235833737 0.0066966385050867437 0 -0.015508323358751762 0.0070070761695797687 0 -0.015561810405328341 0.0064618772937659096 0 -0.015508323358751762 0.0070070761695797687 0 -0.015988203948310419 0.0067411940679712274 0 -0.015508323358751762 0.0070070761695797687 0 -0.015960063237178506 0.0073455154569117857 0 -0.015988203948310419 0.0067411940679712274 0 -0.015508218488845647 0.0063810925549952708 0 -0.015646215174518589 0.0061409232034494313 0 -0.015433127250064491 0.0076573582088618102 0 -0.015508323358751762 0.0070070761695797687 0 -0.015960063237178506 0.0073455154569117857 0 -0.015433127250064491 0.0076573582088618102 0 -0.015508323358751762 0.0070070761695797687 0 -0.014999927597965979 0.007133180521557504 0 -0.015677819695423666 0.004179572078979444 0 -0.015794315003356929 0.0041772193766964182 0 -0.015769546962808457 0.0042642338687172814 0 -0.015907518891737471 0.008186171427476515 0 -0.015993422403958058 0.0081712033989475834 0 -0.015939216077599166 0.0080353504151356135 0 -0.015993422403958058 0.0081712033989475834 0 -0.015939216077599166 0.0080353504151356135 0 -0.016125046513937653 0.0081451712415045452 0 -0.01580977699025287 0.0060865230295019624 0 -0.015770802634037948 0.0066389229686691295 0 -0.016061878523726925 0.0083481191807140091 0 -0.015993422403958058 0.0081712033989475834 0 -0.016125046513937653 0.0081451712415045452 0 -0.015907518891737471 0.008186171427476515 0 -0.015824102527670955 0.0081040535494174733 0 -0.015939216077599166 0.0080353504151356135 0 -0.015880579837374634 0.0079420603859851977 0 -0.015646215174518589 0.0061409232034494313 0 -0.015633048973672407 0.0040868981751450888 0 -0.015696093287186692 0.004110464968960505 0 -0.015677819695423666 0.004179572078979444 0 -0.015633048973672407 0.0040868981751450888 0 -0.015696093287186692 0.004110464968960505 0 -0.015646921063388958 0.004096104630337642 0 -0.015824102527670955 0.0081040535494174733 0 -0.015816592393602984 0.0079372038381659883 0 -0.015939216077599166 0.0080353504151356135 0 -0.015646215174518589 0.0061409232034494313 0 -0.01580977699025287 0.0060865230295019624 0 -0.015696093287186692 0.004110464968960505 0 -0.015677819695423666 0.004179572078979444 0 -0.015794315003356929 0.0041772193766964182 0 -0.015447768143981447 0.0038991576311054044 0 -0.015336076916782234 0.0040038306935362613 0 -0.015245230236712067 0.0037733476253412599 0 -0.015610591779713833 0.004031686315814834 0 -0.015222955650002158 0.0040097164418186233 0 -0.015447768143981447 0.0038991576311054044 0 -0.015498394433159868 0.0040586109904221998 0 -0.015646921063388958 0.004096104630337642 0 -0.015447768143981447 0.0038991576311054044 0 -0.015336076916782234 0.0040038306935362613 0 -0.015498394433159868 0.0040586109904221998 0 -0.015498394433159868 0.0040586109904221998 0 -0.015578955913250946 0.0041347946368182238 0 -0.015429607834524104 0.0041329966537038115 0 -0.015336076916782234 0.0040038306935362613 0 -0.015429607834524104 0.0041329966537038115 0 -0.015254371549560029 0.0041626282021861184 0 -0.015336076916782234 0.0040038306935362613 0 -0.015498394433159868 0.0040586109904221998 0 -0.015429607834524104 0.0041329966537038115 0 -0.015646215174518589 0.0061409232034494313 0 -0.015758836474442546 0.004729179714860505 0 -0.015610591779713833 0.004031686315814834 0 -0.015626202578986208 0.0040696380190721332 0 -0.015633048973672407 0.0040868981751450888 0 -0.015646921063388958 0.004096104630337642 0 -0.015704681257631779 0.0041635901140557735 0 -0.015498394433159868 0.0040586109904221998 0 -0.015646921063388958 0.004096104630337642 0 -0.015578955913250946 0.0041347946368182238 0 -0.015646921063388958 0.004096104630337642 0 -0.015704681257631779 0.0041635901140557735 0 -0.015578955913250946 0.0041347946368182238 0 -0.015704681257631779 0.0041635901140557735 0 -0.015578955913250946 0.0041347946368182238 0 -0.015508589233962776 0.0042402610716320696 0 -0.015576579910322016 0.0044080489223061641 0 -0.015704681257631779 0.0041635901140557735 0 -0.015508589233962776 0.0042402610716320696 0 -0.015429607834524104 0.0041329966537038115 0 -0.015376065439678059 0.0042387030117837224 0 -0.015254371549560029 0.0041626282021861184 0 -0.015578955913250946 0.0041347946368182238 0 -0.015429607834524104 0.0041329966537038115 0 -0.015508589233962776 0.0042402610716320696 0 -0.015429607834524104 0.0041329966537038115 0 -0.015508589233962776 0.0042402610716320696 0 -0.015376065439678059 0.0042387030117837224 0 -0.015444128936293461 0.0043735573336575228 0 -0.015508589233962776 0.0042402610716320696 0 -0.015376065439678059 0.0042387030117837224 0 -0.015254371549560029 0.0041626282021861184 0 -0.015014545738037561 0.004233056752138995 0 -0.015145690980030333 0.0040325622503819131 0 -0.015254371549560029 0.0041626282021861184 0 -0.015014545738037561 0.004233056752138995 0 -0.015238182015021062 0.0043373851872649796 0 -0.015376065439678059 0.0042387030117837224 0 -0.015254371549560029 0.0041626282021861184 0 -0.015238182015021062 0.0043373851872649796 0 -0.014602260639248035 0.0039906243313265113 0 -0.014697561519066166 0.0035880771808165582 0 -0.014391664575170399 0.0036165140405149264 0 -0.014602260639248035 0.0039906243313265113 0 -0.014391664575170399 0.0036165140405149264 0 -0.014315948375883073 0.0039006518584656772 0 -0.014795756856416247 0.0041545330114982513 0 -0.014923558104962037 0.0037149077729315863 0 -0.014697561519066166 0.0035880771808165582 0 -0.014527251949297446 0.003317184589158236 0 -0.014391664575170399 0.0036165140405149264 0 -0.014527251949297446 0.003317184589158236 0 -0.014266478422088001 0.003348330738255495 0 -0.014391664575170399 0.0036165140405149264 0 -0.015336076916782234 0.0040038306935362613 0 -0.015145690980030333 0.0040325622503819131 0 -0.015245230236712067 0.0037733476253412599 0 -0.015336076916782234 0.0040038306935362613 0 -0.015254371549560029 0.0041626282021861184 0 -0.015145690980030333 0.0040325622503819131 0 -0.014697561519066166 0.0035880771808165582 0 -0.014827359160182933 0.0032054715465435562 0 -0.014527251949297446 0.003317184589158236 0 -0.014923558104962037 0.0037149077729315863 0 -0.015222955650002158 0.0040097164418186233 0 -0.014827359160182933 0.0032054715465435562 0 -0.014527251949297446 0.003317184589158236 0 -0.014469790869379349 0.0029906466406364038 0 -0.015222955650002158 0.0040097164418186233 0 -0.014861704540782216 0.0042831263606823251 0 -0.015277097789153659 0.0058953373676630368 0 -0.01533603238960393 0.0057189154620590817 0 -0.015016000507179786 0.0057183632791912038 0 -0.014527251949297446 0.003317184589158236 0 -0.014469790869379349 0.0029906466406364038 0 -0.014244488581886719 0.0031220483401821555 0 -0.015727254786456854 0.0072843817624673552 0 -0.015770802634037948 0.0066389229686691295 0 -0.015076321463062438 0.0055413035721988335 0 -0.01533603238960393 0.0057189154620590817 0 -0.015016000507179786 0.0057183632791912038 0 -0.015727832190261252 0.0083931223702061169 0 -0.015770802634037948 0.0066389229686691295 0 -0.015222955650002158 0.0040097164418186233 0 -0.015770802634037948 0.0066389229686691295 0 -0.014653757861202975 0.0053029102045282234 0 -0.013926951477795916 0.0037493202119554619 0 -0.013723159072790677 0.004937846616816473 0 -0.013910262368523657 0.0043836614804065258 0 -0.014097011263094312 0.0051805223898591119 0 -0.013534834629728355 0.0054941021429129721 0 -0.013723159072790677 0.004937846616816473 0 -0.014097011263094312 0.0051805223898591119 0 -0.014128809405962364 0.0027996126326901459 0 -0.014011269097019897 0.0030835382198665948 0 -0.014244488581886719 0.0031220483401821555 0 -0.014653757861202975 0.0053029102045282234 0 -0.014861704540782216 0.0042831263606823251 0 -0.014128809405962364 0.0027996126326901459 0 -0.014469790869379349 0.0029906466406364038 0 -0.014244488581886719 0.0031220483401821555 0 -0.014244488581886719 0.0031220483401821555 0 -0.014266478422088001 0.003348330738255495 0 -0.014078022224657797 0.0033117951620578704 0 -0.014011269097019897 0.0030835382198665948 0 -0.014244488581886719 0.0031220483401821555 0 -0.014078022224657797 0.0033117951620578704 0 -0.014527251949297446 0.003317184589158236 0 -0.014244488581886719 0.0031220483401821555 0 -0.014266478422088001 0.003348330738255495 0 -0.014266478422088001 0.003348330738255495 0 -0.014078022224657797 0.0033117951620578704 0 -0.014117738504681456 0.0034897731411475601 0 -0.014078022224657797 0.0033117951620578704 0 -0.013967865231072681 0.0034364482403268239 0 -0.014117738504681456 0.0034897731411475601 0 -0.014078022224657797 0.0033117951620578704 0 -0.013860224612429053 0.0033780897859365527 0 -0.013967865231072681 0.0034364482403268239 0 -0.012561777397086289 0.0059064314790080903 0 -0.012515380515279086 0.0056813978919720842 0 -0.012511887364974899 0.0062067942926646857 0 -0.013545425231166676 0.0044947851357088247 0 -0.013220749132742392 0.0057100064952160705 0 -0.013926951477795916 0.0037493202119554619 0 -0.013545425231166676 0.0044947851357088247 0 -0.014011269097019897 0.0030835382198665948 0 -0.014078022224657797 0.0033117951620578704 0 -0.013860224612429053 0.0033780897859365527 0 -0.013545425231166676 0.0044947851357088247 0 -0.013528369077359877 0.0042401279926378588 0 -0.013858890613286323 0.0033718732858293052 0 -0.013861717746545541 0.0034224045011857279 0 -0.013654485174523551 0.0036834863917500158 0 -0.013545425231166676 0.0044947851357088247 0 -0.013257522995499161 0.0043160707614167066 0 -0.013860224612429053 0.0033780897859365527 0 -0.013861717746545541 0.0034224045011857279 0 -0.013967865231072681 0.0034364482403268239 0 -0.013861717746545541 0.0034224045011857279 0 -0.013967865231072681 0.0034364482403268239 0 -0.013926800021160222 0.0035927513767151829 0 -0.013967865231072681 0.0034364482403268239 0 -0.013926800021160222 0.0035927513767151829 0 -0.014117738504681456 0.0034897731411475601 0 -0.013926800021160222 0.0035927513767151829 0 -0.014122607245808888 0.0037012121516748512 0 -0.013932472677789191 0.003771338455279221 0 -0.013926800021160222 0.0035927513767151829 0 -0.014117738504681456 0.0034897731411475601 0 -0.014122607245808888 0.0037012121516748512 0 -0.013861717746545541 0.0034224045011857279 0 -0.013926800021160222 0.0035927513767151829 0 -0.013654485174523551 0.0036834863917500158 0 -0.013926800021160222 0.0035927513767151829 0 -0.013932472677789191 0.003771338455279221 0 -0.013654485174523551 0.0036834863917500158 0 -0.014266478422088001 0.003348330738255495 0 -0.014117738504681456 0.0034897731411475601 0 -0.014391664575170399 0.0036165140405149264 0 -0.014117738504681456 0.0034897731411475601 0 -0.014122607245808888 0.0037012121516748512 0 -0.014391664575170399 0.0036165140405149264 0 -0.014122607245808888 0.0037012121516748512 0 -0.014391664575170399 0.0036165140405149264 0 -0.014315948375883073 0.0039006518584656772 0 -0.014122607245808888 0.0037012121516748512 0 -0.014080110072511552 0.0038974333067110646 0 -0.014315948375883073 0.0039006518584656772 0 -0.014080110072511552 0.0038974333067110646 0 -0.014315948375883073 0.0039006518584656772 0 -0.014072770134204399 0.0041007119992143397 0 -0.013932472677789191 0.003771338455279221 0 -0.013841433271739508 0.0039940181385510962 0 -0.013654485174523551 0.0036834863917500158 0 -0.014122607245808888 0.0037012121516748512 0 -0.014080110072511552 0.0038974333067110646 0 -0.013932472677789191 0.003771338455279221 0 -0.014080110072511552 0.0038974333067110646 0 -0.013841433271739508 0.0039940181385510962 0 -0.014072770134204399 0.0041007119992143397 0 -0.014080110072511552 0.0038974333067110646 0 -0.013932472677789191 0.003771338455279221 0 -0.013841433271739508 0.0039940181385510962 0 -0.013841433271739508 0.0039940181385510962 0 -0.013619942892633588 0.0041063538059695074 0 -0.013654485174523551 0.0036834863917500158 0 -0.013841433271739508 0.0039940181385510962 0 -0.01368669124573753 0.0042614233172923628 0 -0.013619942892633588 0.0041063538059695074 0 -0.013841433271739508 0.0039940181385510962 0 -0.01368669124573753 0.0042614233172923628 0 -0.014072770134204399 0.0041007119992143397 0 -0.01368669124573753 0.0042614233172923628 0 -0.013909973278498664 0.0043540666429184392 0 -0.014072770134204399 0.0041007119992143397 0 -0.013501548177268905 0.004492410916434179 0 -0.013909973278498664 0.0043540666429184392 0 -0.014115361627438212 0.0045935947832046247 0 -0.01368669124573753 0.0042614233172923628 0 -0.013501548177268905 0.004492410916434179 0 -0.013909973278498664 0.0043540666429184392 0 -0.014438369496943815 0.004604666145995636 0 -0.014730566140159681 0.0046678019521174787 0 -0.014355206469340073 0.0049188369995817214 0 -0.014438369496943815 0.004604666145995636 0 -0.014667379645446241 0.0044930711990785058 0 -0.014730566140159681 0.0046678019521174787 0 -0.014438369496943815 0.004604666145995636 0 -0.014115361627438212 0.0045935947832046247 0 -0.014355206469340073 0.0049188369995817214 0 -0.014438369496943815 0.004604666145995636 0 -0.014115361627438212 0.0045935947832046247 0 -0.014356889562228026 0.0044293200535804444 0 -0.014115361627438212 0.0045935947832046247 0 -0.014356889562228026 0.0044293200535804444 0 -0.014180323286011699 0.0043036016387417468 0 -0.013909973278498664 0.0043540666429184392 0 -0.014115361627438212 0.0045935947832046247 0 -0.014180323286011699 0.0043036016387417468 0 -0.014356889562228026 0.0044293200535804444 0 -0.014377556629936126 0.0041827923637391459 0 -0.014667379645446241 0.0044930711990785058 0 -0.014438369496943815 0.004604666145995636 0 -0.014356889562228026 0.0044293200535804444 0 -0.014667379645446241 0.0044930711990785058 0 -0.014356889562228026 0.0044293200535804444 0 -0.014377556629936126 0.0041827923637391459 0 -0.014180323286011699 0.0043036016387417468 0 -0.014377556629936126 0.0041827923637391459 0 -0.014180323286011699 0.0043036016387417468 0 -0.014072770134204399 0.0041007119992143397 0 -0.013909973278498664 0.0043540666429184392 0 -0.014180323286011699 0.0043036016387417468 0 -0.014072770134204399 0.0041007119992143397 0 -0.014315948375883073 0.0039006518584656772 0 -0.014377556629936126 0.0041827923637391459 0 -0.014072770134204399 0.0041007119992143397 0 -0.014602260639248035 0.0039906243313265113 0 -0.014315948375883073 0.0039006518584656772 0 -0.014377556629936126 0.0041827923637391459 0 -0.014795756856416247 0.0041545330114982513 0 -0.014670286707677015 0.0044846956262815374 0 -0.015014545738037561 0.004233056752138995 0 -0.015118230241593762 0.0043803395364136934 0 -0.014963784879716403 0.0044406367873918761 0 -0.014602260639248035 0.0039906243313265113 0 -0.014377556629936126 0.0041827923637391459 0 -0.014667379645446241 0.0044930711990785058 0 -0.015014545738037561 0.004233056752138995 0 -0.014667379645446241 0.0044930711990785058 0 -0.014963784879716403 0.0044406367873918761 0 -0.015014545738037561 0.004233056752138995 0 -0.015238182015021062 0.0043373851872649796 0 -0.015118230241593762 0.0043803395364136934 0 -0.015238182015021062 0.0043373851872649796 0 -0.015118230241593762 0.0043803395364136934 0 -0.015253070785562681 0.0044548831195558199 0 -0.015118230241593762 0.0043803395364136934 0 -0.015156033518585263 0.0045056894593719947 0 -0.014963784879716403 0.0044406367873918761 0 -0.015118230241593762 0.0043803395364136934 0 -0.015253070785562681 0.0044548831195558199 0 -0.015156033518585263 0.0045056894593719947 0 -0.01540976422036874 0.0044933394178170829 0 -0.015238182015021062 0.0043373851872649796 0 -0.015253070785562681 0.0044548831195558199 0 -0.01540976422036874 0.0044933394178170829 0 -0.015253070785562681 0.0044548831195558199 0 -0.015324495989441779 0.0045570706210528358 0 -0.015324495989441779 0.0045570706210528358 0 -0.015156033518585263 0.0045056894593719947 0 -0.015229573293768121 0.0045838372781260286 0 -0.015253070785562681 0.0044548831195558199 0 -0.015324495989441779 0.0045570706210528358 0 -0.015156033518585263 0.0045056894593719947 0 -0.015156033518585263 0.0045056894593719947 0 -0.015229573293768121 0.0045838372781260286 0 -0.0151378370247889 0.0046274798701371848 0 -0.015156033518585263 0.0045056894593719947 0 -0.0151378370247889 0.0046274798701371848 0 -0.015021864547522308 0.004565050962760408 0 -0.015229573293768121 0.0045838372781260286 0 -0.0151378370247889 0.0046274798701371848 0 -0.015308985649845121 0.0046512944294413014 0 -0.015324495989441779 0.0045570706210528358 0 -0.015229573293768121 0.0045838372781260286 0 -0.015308985649845121 0.0046512944294413014 0 -0.014667379645446241 0.0044930711990785058 0 -0.014963784879716403 0.0044406367873918761 0 -0.014858105191627603 0.00458022568108905 0 -0.014963784879716403 0.0044406367873918761 0 -0.015021864547522308 0.004565050962760408 0 -0.014858105191627603 0.00458022568108905 0 -0.015156033518585263 0.0045056894593719947 0 -0.014963784879716403 0.0044406367873918761 0 -0.015021864547522308 0.004565050962760408 0 -0.015021864547522308 0.004565050962760408 0 -0.01497232269768934 0.0046585417622625356 0 -0.014858105191627603 0.00458022568108905 0 -0.0151378370247889 0.0046274798701371848 0 -0.015021864547522308 0.004565050962760408 0 -0.01497232269768934 0.0046585417622625356 0 -0.01497232269768934 0.0046585417622625356 0 -0.014833475085830997 0.0046507356281152747 0 -0.014858105191627603 0.00458022568108905 0 -0.01497232269768934 0.0046585417622625356 0 -0.014833475085830997 0.0046507356281152747 0 -0.014776992138606624 0.0046861621871948271 0 -0.014833475085830997 0.0046507356281152747 0 -0.014858105191627603 0.00458022568108905 0 -0.014730566140159681 0.0046678019521174787 0 -0.014667379645446241 0.0044930711990785058 0 -0.014858105191627603 0.00458022568108905 0 -0.014730566140159681 0.0046678019521174787 0 -0.014833475085830997 0.0046507356281152747 0 -0.014730566140159681 0.0046678019521174787 0 -0.014776992138606624 0.0046861621871948271 0 -0.014776992138606624 0.0046861621871948271 0 -0.014832891336321347 0.0046837759708857713 0 -0.014807775705890579 0.0046980037985966568 0 -0.014806358786419654 0.0046768535047666936 0 -0.015021782324977136 0.0047046089799742613 0 -0.014730566140159681 0.0046678019521174787 0 -0.014776992138606624 0.0046861621871948271 0 -0.014807775705890579 0.0046980037985966568 0 -0.01497232269768934 0.0046585417622625356 0 -0.014776992138606624 0.0046861621871948271 0 -0.015266434412194097 0.0047896568375448232 0 -0.0151378370247889 0.0046274798701371848 0 -0.01497232269768934 0.0046585417622625356 0 -0.015266434412194097 0.0047896568375448232 0 -0.0151378370247889 0.0046274798701371848 0 -0.015308985649845121 0.0046512944294413014 0 -0.015266434412194097 0.0047896568375448232 0 -0.015445156540013114 0.0046809052265113903 0 -0.015308985649845121 0.0046512944294413014 0 -0.015266434412194097 0.0047896568375448232 0 -0.014832891336321347 0.0046837759708857713 0 -0.014827924252412252 0.0046875531549309488 0 -0.014843880370893637 0.0046844917896632374 0 -0.015021782324977136 0.0047046089799742613 0 -0.015169307455434086 0.0048613979769451246 0 -0.014832891336321347 0.0046837759708857713 0 -0.014827924252412252 0.0046875531549309488 0 -0.014807775705890579 0.0046980037985966568 0 -0.014827924252412252 0.0046875531549309488 0 -0.014823526612070375 0.0046888585704598995 0 -0.014807775705890579 0.0046980037985966568 0 -0.014527494660363419 0.004590408336173365 0 -0.013557363659677617 0.004727202645997265 0 -0.014374486064613671 0.0058623670543946167 0 -0.013952462303928135 0.005252737737355258 0 -0.014518598386509879 0.0052799558486041282 0 -0.014527494660363419 0.004590408336173365 0 -0.014640161657676454 0.0050888330224214866 0 -0.013261381340567875 0.0040154546620521986 0 -0.013277772285010455 0.0040068216869510974 0 -0.013242160227821358 0.004193188256268787 0 -0.013277772285010455 0.0040068216869510974 0 -0.013242160227821358 0.004193188256268787 0 -0.01338811925540368 0.0041843100417543353 0 -0.013501548177268905 0.004492410916434179 0 -0.014115361627438212 0.0045935947832046247 0 -0.013952462303928135 0.005252737737355258 0 -0.013501548177268905 0.004492410916434179 0 -0.013242160227821358 0.004193188256268787 0 -0.01338811925540368 0.0041843100417543353 0 -0.013509483370588694 0.0045175386323966218 0 -0.013557363659677617 0.004727202645997265 0 -0.014730566140159681 0.0046678019521174787 0 -0.014518598386509879 0.0052799558486041282 0 -0.014355206469340073 0.0049188369995817214 0 -0.013952462303928135 0.005252737737355258 0 -0.014518598386509879 0.0052799558486041282 0 -0.014355206469340073 0.0049188369995817214 0 -0.014115361627438212 0.0045935947832046247 0 -0.013952462303928135 0.005252737737355258 0 -0.014355206469340073 0.0049188369995817214 0 -0.014736175231574371 0.0046553966874402289 0 -0.014640161657676454 0.0050888330224214866 0 -0.013529491782861123 0.0042951820979694449 0 -0.013473507706773136 0.00427770192358646 0 -0.013498638796808422 0.0040821163922768371 0 -0.013529491782861123 0.0042951820979694449 0 -0.013473507706773136 0.00427770192358646 0 -0.013472585598037583 0.0043692224772645541 0 -0.013501548177268905 0.004492410916434179 0 -0.013473507706773136 0.00427770192358646 0 -0.01338811925540368 0.0041843100417543353 0 -0.013473507706773136 0.00427770192358646 0 -0.01338811925540368 0.0041843100417543353 0 -0.013498638796808422 0.0040821163922768371 0 -0.013277772285010455 0.0040068216869510974 0 -0.01338811925540368 0.0041843100417543353 0 -0.013498638796808422 0.0040821163922768371 0 -0.012355651893268588 0.0028527610685276602 0 -0.011636584940090634 0.0020732119431889242 0 -0.011605400377115896 0.0030024710893094288 0 -0.012902594869477625 0.0033622864363000095 0 -0.012542124697320267 0.0038320622280729132 0 -0.011179700244183327 0.0026066664211851858 0 -0.011636584940090634 0.0020732119431889242 0 -0.011605400377115896 0.0030024710893094288 0 -0.010594738841523298 0.0047190868673323326 0 -0.010558969462339923 0.0044160598901785888 0 -0.010141331171348971 0.0045611239916948099 0 -0.010774680896220567 0.0037875312583957716 0 -0.010588994556912481 0.0033145671304706577 0 -0.011179700244183327 0.0026066664211851858 0 -0.010733871995414047 0.0031249011894191256 0 -0.011025459425424622 0.0030902632291635304 0 -0.011179700244183327 0.0026066664211851858 0 -0.011025459425424622 0.0030902632291635304 0 -0.011605400377115896 0.0030024710893094288 0 -0.010558969462339923 0.0044160598901785888 0 -0.010595715773927159 0.0040214925487769082 0 -0.010141331171348971 0.0045611239916948099 0 -0.010774680896220567 0.0037875312583957716 0 -0.012542124697320267 0.0038320622280729132 0 -0.010594738841523298 0.0047190868673323326 0 -0.010558969462339923 0.0044160598901785888 0 -0.010906166855181124 0.0043612560562084979 0 -0.010558969462339923 0.0044160598901785888 0 -0.010906166855181124 0.0043612560562084979 0 -0.010595715773927159 0.0040214925487769082 0 -0.012542124697320267 0.0038320622280729132 0 -0.010976453144923954 0.0049908424948660463 0 -0.013529491782861123 0.0042951820979694449 0 -0.013634126844805559 0.0042612108992815551 0 -0.013492664363986799 0.0043732269620880239 0 -0.013529491782861123 0.0042951820979694449 0 -0.013498638796808422 0.0040821163922768371 0 -0.013634126844805559 0.0042612108992815551 0 -0.013649135840072333 0.004267498991227788 0 -0.0136915097499703 0.0041736076488961913 0 -0.01371962436854538 0.0041545132522813845 0 -0.013649135840072333 0.004267498991227788 0 -0.0136915097499703 0.0041736076488961913 0 -0.013564873705715168 0.0041993943732916376 0 -0.0136915097499703 0.0041736076488961913 0 -0.013564873705715168 0.0041993943732916376 0 -0.013662089221479103 0.0040953841382508618 0 -0.012542124697320267 0.0038320622280729132 0 -0.013740745859255601 0.0042716165819549554 0 -0.0136915097499703 0.0041736076488961913 0 -0.013726516353140615 0.0041974952533736926 0 -0.01371962436854538 0.0041545132522813845 0 -0.010962402627374841 0.0066848488230606311 0 -0.011489330800777332 0.0060621664782691629 0 -0.010631519375331551 0.0063258261259460475 0 -0.010976453144923954 0.0049908424948660463 0 -0.012812267975760405 0.0052071257150313535 0 -0.010976453144923954 0.0049908424948660463 0 -0.009565676245074442 0.007660736154402846 0 -0.0094018603648805769 0.0054019915261747367 0 -0.0094919834180813151 0.0055211963451331269 0 -0.0095071093705776863 0.0055115013067180618 0 -0.01026988992202007 0.0095778338516690105 0 -0.010146756488691734 0.0093920666235377207 0 -0.0097619453975378787 0.0097947285553340365 0 -0.010163686819460527 0.009997332724144832 0 -0.0091048413737829029 0.0081771896807412824 0 -0.011489330800777332 0.0060621664782691629 0 -0.011444342908708955 0.0058694570846538089 0 -0.010631519375331551 0.0063258261259460475 0 -0.011660619188103684 0.0073618761081566918 0 -0.009565676245074442 0.007660736154402846 0 -0.010146756488691734 0.0093920666235377207 0 -0.0098613257265465024 0.0094098678225859132 0 -0.0095650397652994566 0.010035881153981834 0 -0.010146756488691734 0.0093920666235377207 0 -0.0097619453975378787 0.0097947285553340365 0 -0.0097296654418575507 0.0098111526908487481 0 -0.012508151517138312 0.0061840074919034356 0 -0.012545587311834876 0.0061355154562442457 0 -0.012519074476335315 0.0061608944084610715 0 -0.012812267975760405 0.0052071257150313535 0 -0.013187534236391359 0.0053107377491681982 0 -0.0136915097499703 0.0041736076488961913 0 -0.013726516353140615 0.0041974952533736926 0 -0.013800164512119292 0.0042289368874141699 0 -0.013726516353140615 0.0041974952533736926 0 -0.013800164512119292 0.0042289368874141699 0 -0.013665386067944766 0.0042588480109580652 0 -0.013513716487591153 0.0040028849550556656 0 -0.012812267975760405 0.0052071257150313535 0 -0.012812267975760405 0.0052071257150313535 0 -0.011660619188103684 0.0073618761081566918 0 -0.012508151517138312 0.0061840074919034356 0 -0.012502953382055199 0.0061702645853668582 0 -0.012519074476335315 0.0061608944084610715 0 -0.011660619188103684 0.0073618761081566918 0 -0.012430335651775424 0.0067129375238886291 0 -0.013665386067944766 0.0042588480109580652 0 -0.01371962436854538 0.0041545132522813845 0 -0.013442129456014296 0.0042638282739441502 0 -0.013492664363986799 0.0043732269620880239 0 -0.01346478479937707 0.0043327628529920923 0 -0.013442129456014296 0.0042638282739441502 0 -0.013740745859255601 0.0042716165819549554 0 -0.01342425836112611 0.0042877118324959043 0 -0.013800164512119292 0.0042289368874141699 0 -0.013665386067944766 0.0042588480109580652 0 -0.013766663473896722 0.0044914263605493809 0 -0.013665386067944766 0.0042588480109580652 0 -0.013442129456014296 0.0042638282739441502 0 -0.013599181969472863 0.0043662403676999187 0 -0.013726516353140615 0.0041974952533736926 0 -0.013665386067944766 0.0042588480109580652 0 -0.01371962436854538 0.0041545132522813845 0 -0.013492664363986799 0.0043732269620880239 0 -0.013472585598037583 0.0043692224772645541 0 -0.01346478479937707 0.0043327628529920923 0 -0.013529491782861123 0.0042951820979694449 0 -0.013492664363986799 0.0043732269620880239 0 -0.013472585598037583 0.0043692224772645541 0 -0.01368669124573753 0.0042614233172923628 0 -0.013501548177268905 0.004492410916434179 0 -0.013481500822887328 0.0043597522805092935 0 -0.013501548177268905 0.004492410916434179 0 -0.013472585598037583 0.0043692224772645541 0 -0.013481500822887328 0.0043597522805092935 0 -0.013501548177268905 0.004492410916434179 0 -0.013473507706773136 0.00427770192358646 0 -0.013472585598037583 0.0043692224772645541 0 -0.013472585598037583 0.0043692224772645541 0 -0.013481500822887328 0.0043597522805092935 0 -0.01346478479937707 0.0043327628529920923 0 -0.013481500822887328 0.0043597522805092935 0 -0.013454000188765526 0.004284901846131361 0 -0.013527408249050262 0.0042541174017432367 0 -0.01368669124573753 0.0042614233172923628 0 -0.013481500822887328 0.0043597522805092935 0 -0.013527408249050262 0.0042541174017432367 0 -0.013481500822887328 0.0043597522805092935 0 -0.01346478479937707 0.0043327628529920923 0 -0.013454000188765526 0.004284901846131361 0 -0.01346478479937707 0.0043327628529920923 0 -0.013454000188765526 0.004284901846131361 0 -0.013442129456014296 0.0042638282739441502 0 -0.013454000188765526 0.004284901846131361 0 -0.013442129456014296 0.0042638282739441502 0 -0.013389855880300451 0.0041972935836096974 0 -0.01368669124573753 0.0042614233172923628 0 -0.013527408249050262 0.0042541174017432367 0 -0.013619942892633588 0.0041063538059695074 0 -0.013454000188765526 0.004284901846131361 0 -0.013527408249050262 0.0042541174017432367 0 -0.013389855880300451 0.0041972935836096974 0 -0.013527408249050262 0.0042541174017432367 0 -0.013389855880300451 0.0041972935836096974 0 -0.013619942892633588 0.0041063538059695074 0 -0.013301880999453975 0.0046730247775073853 0 -0.013525819523190395 0.0044669511087775211 0 -0.013386609868352078 0.0052332877660203466 0 -0.01334984213068994 0.0042115348143872116 0 -0.013257522995499161 0.0043160707614167066 0 -0.013389855880300451 0.0041972935836096974 0 -0.013619942892633588 0.0041063538059695074 0 -0.013654485174523551 0.0036834863917500158 0 -0.013389855880300451 0.0041972935836096974 0 -0.013336883798711653 0.004466105141369291 0 -0.012864713483693871 0.0048363096075523032 0 -0.013442129456014296 0.0042638282739441502 0 -0.013336883798711653 0.004466105141369291 0 -0.013525819523190395 0.0044669511087775211 0 -0.013442129456014296 0.0042638282739441502 0 -0.013389855880300451 0.0041972935836096974 0 -0.013336883798711653 0.004466105141369291 0 -0.013336883798711653 0.004466105141369291 0 -0.013301880999453975 0.0046730247775073853 0 -0.013525819523190395 0.0044669511087775211 0 -0.013336883798711653 0.004466105141369291 0 -0.013301880999453975 0.0046730247775073853 0 -0.012864713483693871 0.0048363096075523032 0 -0.013525819523190395 0.0044669511087775211 0 -0.013766663473896722 0.0044914263605493809 0 -0.013386609868352078 0.0052332877660203466 0 -0.013665386067944766 0.0042588480109580652 0 -0.013599181969472863 0.0043662403676999187 0 -0.013766663473896722 0.0044914263605493809 0 -0.013442129456014296 0.0042638282739441502 0 -0.013525819523190395 0.0044669511087775211 0 -0.013599181969472863 0.0043662403676999187 0 -0.013525819523190395 0.0044669511087775211 0 -0.013599181969472863 0.0043662403676999187 0 -0.013766663473896722 0.0044914263605493809 0 -0.013187534236391359 0.0053107377491681982 0 -0.012936745292985913 0.0056568231848845643 0 -0.01253554169106989 0.0061087559886487432 0 -0.012540434244010896 0.0060905070243662965 0 -0.012565940007997278 0.0060931225118293093 0 -0.012545587311834876 0.0061355154562442457 0 -0.01253554169106989 0.0061087559886487432 0 -0.012565940007997278 0.0060931225118293093 0 -0.012540434244010896 0.0060905070243662965 0 -0.012565940007997278 0.0060931225118293093 0 -0.012541027379710714 0.0060689552046355125 0 -0.01253554169106989 0.0061087559886487432 0 -0.012540434244010896 0.0060905070243662965 0 -0.012528159728510948 0.0060947632768949354 0 -0.012515380515279086 0.0056813978919720842 0 -0.012864713483693871 0.0048363096075523032 0 -0.013386609868352078 0.0052332877660203466 0 -0.013301880999453975 0.0046730247775073853 0 -0.012864713483693871 0.0048363096075523032 0 -0.013386609868352078 0.0052332877660203466 0 -0.012561777397086289 0.0059064314790080903 0 -0.012565940007997278 0.0060931225118293093 0 -0.012556375164948038 0.0060236323802625013 0 -0.012626553469790535 0.0058978149365269692 0 -0.012936745292985913 0.0056568231848845643 0 -0.012561777397086289 0.0059064314790080903 0 -0.012515380515279086 0.0056813978919720842 0 -0.013386609868352078 0.0052332877660203466 0 -0.012561777397086289 0.0059064314790080903 0 -0.012556375164948038 0.0060236323802625013 0 -0.012560371915927196 0.0060451727324887638 0 -0.012556375164948038 0.0060236323802625013 0 -0.012548096175507624 0.0060718881097653115 0 -0.012560371915927196 0.0060451727324887638 0 -0.012565940007997278 0.0060931225118293093 0 -0.012556375164948038 0.0060236323802625013 0 -0.012541027379710714 0.0060689552046355125 0 -0.012540434244010896 0.0060905070243662965 0 -0.012541027379710714 0.0060689552046355125 0 -0.012528159728510948 0.0060947632768949354 0 -0.012541027379710714 0.0060689552046355125 0 -0.012533764919301194 0.006092572704110245 0 -0.012528159728510948 0.0060947632768949354 0 -0.012541027379710714 0.0060689552046355125 0 -0.012533764919301194 0.006092572704110245 0 -0.012548096175507624 0.0060718881097653115 0 -0.012556375164948038 0.0060236323802625013 0 -0.012541027379710714 0.0060689552046355125 0 -0.012548096175507624 0.0060718881097653115 0 -0.012548096175507624 0.0060718881097653115 0 -0.012531233032433094 0.0061204691138800147 0 -0.012544400087998545 0.0061184473836332362 0 -0.012533764919301194 0.006092572704110245 0 -0.012548096175507624 0.0060718881097653115 0 -0.012531233032433094 0.0061204691138800147 0 -0.012533764919301194 0.006092572704110245 0 -0.012531233032433094 0.0061204691138800147 0 -0.012522911321190331 0.0061237756742005085 0 -0.012504714627277161 0.0061548509923186213 0 -0.012514859152442111 0.0061694333418376487 0 -0.012531233032433094 0.0061204691138800147 0 -0.012504714627277161 0.0061548509923186213 0 -0.012531233032433094 0.0061204691138800147 0 -0.012522911321190331 0.0061237756742005085 0 -0.012514859152442111 0.0061694333418376487 0 -0.012531233032433094 0.0061204691138800147 0 -0.012544400087998545 0.0061184473836332362 0 -0.012514859152442111 0.0061694333418376487 0 -0.012511887364974899 0.0062067942926646857 0 -0.012544400087998545 0.0061184473836332362 0 -0.012561777397086289 0.0059064314790080903 0 -0.012511887364974899 0.0062067942926646857 0 -0.012560371915927196 0.0060451727324887638 0 -0.012511887364974899 0.0062067942926646857 0 -0.012544400087998545 0.0061184473836332362 0 -0.012560371915927196 0.0060451727324887638 0 -0.012548096175507624 0.0060718881097653115 0 -0.012544400087998545 0.0061184473836332362 0 -0.012560371915927196 0.0060451727324887638 0 -0.012528866935519528 0.0061256144514872171 0 -0.012543645467618702 0.00614827013517074 0 -0.012527360398822246 0.0061059740536985865 0 -0.0098357988208417658 0.0077031355232854339 0 -0.0099609227520649542 0.0075752605755575403 0 -0.010088793775849272 0.0082811895177016658 0 -0.010941644832950848 0.0072001770591919329 0 -0.011318309725235778 0.0071169066900205078 0 -0.010105827824700745 0.0077914347082266733 0 -0.010941644832950848 0.0072001770591919329 0 -0.012520916010477619 0.0061479263389329145 0 -0.012528866935519528 0.0061256144514872171 0 -0.012543645467618702 0.00614827013517074 0 -0.012520916010477619 0.0061479263389329145 0 -0.012528866935519528 0.0061256144514872171 0 -0.012522911321190331 0.0061237756742005085 0 -0.012504714627277161 0.0061548509923186213 0 -0.012520916010477619 0.0061479263389329145 0 -0.012522911321190331 0.0061237756742005085 0 -0.012533764919301194 0.006092572704110245 0 -0.012522911321190331 0.0061237756742005085 0 -0.012526146262561863 0.0061055474100131764 0 -0.012528866935519528 0.0061256144514872171 0 -0.012522911321190331 0.0061237756742005085 0 -0.012526146262561863 0.0061055474100131764 0 -0.012528866935519528 0.0061256144514872171 0 -0.012526213210545433 0.0061095564209981768 0 -0.012526146262561863 0.0061055474100131764 0 -0.012526213210545433 0.0061095564209981768 0 -0.012526146262561863 0.0061055474100131764 0 -0.012524567938266956 0.0061042829465074531 0 -0.012533764919301194 0.006092572704110245 0 -0.012526146262561863 0.0061055474100131764 0 -0.012528159728510948 0.0060947632768949354 0 -0.012524567938266956 0.0061042829465074531 0 -0.012527360398822246 0.0061059740536985865 0 -0.012520144786977881 0.0061065349360539221 0 -0.012526146262561863 0.0061055474100131764 0 -0.012528159728510948 0.0060947632768949354 0 -0.012524567938266956 0.0061042829465074531 0 -0.012528159728510948 0.0060947632768949354 0 -0.012524567938266956 0.0061042829465074531 0 -0.012520144786977881 0.0061065349360539221 0 -0.010105827824700745 0.0077914347082266733 0 -0.0099279245430162425 0.0085779239143708736 0 -0.0097389137156675652 0.0078986700427001854 0 -0.0099204933702639192 0.0086235892762681968 0 -0.0096767406886892927 0.008315659357738538 0 -0.0098357988208417658 0.0077031355232854339 0 -0.010007330799746512 0.0085239367198861587 0 -0.010088793775849272 0.0082811895177016658 0 -0.012528866935519528 0.0061256144514872171 0 -0.012526213210545433 0.0061095564209981768 0 -0.012527360398822246 0.0061059740536985865 0 -0.012526213210545433 0.0061095564209981768 0 -0.012524567938266956 0.0061042829465074531 0 -0.012527360398822246 0.0061059740536985865 0 -0.0099204933702639192 0.0086235892762681968 0 -0.0097298097853708038 0.0088053567758974664 0 -0.0096308184771843539 0.0085062170540999224 0 -0.0099204933702639192 0.0086235892762681968 0 -0.0096308184771843539 0.0085062170540999224 0 -0.0096767406886892927 0.008315659357738538 0 -0.0099279245430162425 0.0085779239143708736 0 -0.01013987204956039 0.0092693058395918546 0 -0.010007330799746512 0.0085239367198861587 0 -0.010178955497675101 0.0089665512727179937 0 -0.01013649788942907 0.0093008946287784066 0 -0.0099204933702639192 0.0086235892762681968 0 -0.0097298097853708038 0.0088053567758974664 0 -0.0099415297514077738 0.0091749104099973274 0 -0.012527360398822246 0.0061059740536985865 0 -0.012505233673314088 0.0061195605522534778 0 -0.012520144786977881 0.0061065349360539221 0 -0.010007330799746512 0.0085239367198861587 0 -0.010088793775849272 0.0082811895177016658 0 -0.010178955497675101 0.0089665512727179937 0 -0.011318309725235778 0.0071169066900205078 0 -0.011335932466510275 0.0076438782120627031 0 -0.0099204933702639192 0.0086235892762681968 0 -0.0099415297514077738 0.0091749104099973274 0 -0.01013649788942907 0.0093008946287784066 0 -0.0097298097853708038 0.0088053567758974664 0 -0.0097389327978471083 0.0090398914148080989 0 -0.0099415297514077738 0.0091749104099973274 0 -0.01253554169106989 0.0061087559886487432 0 -0.012528159728510948 0.0060947632768949354 0 -0.012521167861847999 0.0061104492617270363 0 -0.012528159728510948 0.0060947632768949354 0 -0.012520144786977881 0.0061065349360539221 0 -0.012521167861847999 0.0061104492617270363 0 -0.012505233673314088 0.0061195605522534778 0 -0.012520144786977881 0.0061065349360539221 0 -0.012521167861847999 0.0061104492617270363 0 -0.012505233673314088 0.0061195605522534778 0 -0.012521167861847999 0.0061104492617270363 0 -0.012519777272018022 0.0061325058896982785 0 -0.01253554169106989 0.0061087559886487432 0 -0.012521167861847999 0.0061104492617270363 0 -0.012519777272018022 0.0061325058896982785 0 -0.012503139941386816 0.0061710392148238936 0 -0.012505233673314088 0.0061195605522534778 0 -0.012519777272018022 0.0061325058896982785 0 -0.01026988992202007 0.0095778338516690105 0 -0.010178955497675101 0.0089665512727179937 0 -0.01013649788942907 0.0093008946287784066 0 -0.011660619188103684 0.0073618761081566918 0 -0.011335932466510275 0.0076438782120627031 0 -0.012545587311834876 0.0061355154562442457 0 -0.01253554169106989 0.0061087559886487432 0 -0.012519777272018022 0.0061325058896982785 0 -0.01026988992202007 0.0095778338516690105 0 -0.01013649788942907 0.0093008946287784066 0 -0.010146756488691734 0.0093920666235377207 0 -0.012503139941386816 0.0061710392148238936 0 -0.012519777272018022 0.0061325058896982785 0 -0.012519074476335315 0.0061608944084610715 0 -0.012545587311834876 0.0061355154562442457 0 -0.012519777272018022 0.0061325058896982785 0 -0.012519074476335315 0.0061608944084610715 0 -0.0097389327978471083 0.0090398914148080989 0 -0.0099415297514077738 0.0091749104099973274 0 -0.0096596374605143996 0.0091886357794186899 0 -0.0099415297514077738 0.0091749104099973274 0 -0.0098613257265465024 0.0094098678225859132 0 -0.0096596374605143996 0.0091886357794186899 0 -0.0099415297514077738 0.0091749104099973274 0 -0.010009364600236874 0.0092817520507539972 0 -0.0098613257265465024 0.0094098678225859132 0 -0.0099415297514077738 0.0091749104099973274 0 -0.010009364600236874 0.0092817520507539972 0 -0.01013649788942907 0.0093008946287784066 0 -0.010041706949089206 0.0093400853396206959 0 -0.010146756488691734 0.0093920666235377207 0 -0.0098613257265465024 0.0094098678225859132 0 -0.010009364600236874 0.0092817520507539972 0 -0.010041706949089206 0.0093400853396206959 0 -0.0098613257265465024 0.0094098678225859132 0 -0.010009364600236874 0.0092817520507539972 0 -0.01013649788942907 0.0093008946287784066 0 -0.010041706949089206 0.0093400853396206959 0 -0.01013649788942907 0.0093008946287784066 0 -0.010041706949089206 0.0093400853396206959 0 -0.010146756488691734 0.0093920666235377207 0 -0.0098613257265465024 0.0094098678225859132 0 -0.009524565911259655 0.0094471884462699659 0 -0.0096596374605143996 0.0091886357794186899 0 -0.009524565911259655 0.0094471884462699659 0 -0.009107556584359874 0.0094813862718190599 0 -0.0093453764400492825 0.0091228399579895321 0 -0.009524565911259655 0.0094471884462699659 0 -0.0096596374605143996 0.0091886357794186899 0 -0.0093453764400492825 0.0091228399579895321 0 -0.009107556584359874 0.0094813862718190599 0 -0.0090569907358374266 0.0089814302466623974 0 -0.0093453764400492825 0.0091228399579895321 0 -0.008291982827376072 0.0092342688883577332 0 -0.0079954706725228197 0.0087091145155474333 0 -0.009107556584359874 0.0094813862718190599 0 -0.0090569907358374266 0.0089814302466623974 0 -0.0085079835716961715 0.0090145043038496395 0 -0.0090569907358374266 0.0089814302466623974 0 -0.0090891175980451072 0.0085698132129324485 0 -0.0085079835716961715 0.0090145043038496395 0 -0.0090569907358374266 0.0089814302466623974 0 -0.0093975853894321705 0.0087141903625331946 0 -0.0090891175980451072 0.0085698132129324485 0 -0.0096596374605143996 0.0091886357794186899 0 -0.0095757073249099489 0.0089743369566048226 0 -0.0093453764400492825 0.0091228399579895321 0 -0.0097298097853708038 0.0088053567758974664 0 -0.0097389327978471083 0.0090398914148080989 0 -0.0095757073249099489 0.0089743369566048226 0 -0.0097389327978471083 0.0090398914148080989 0 -0.0096596374605143996 0.0091886357794186899 0 -0.0095757073249099489 0.0089743369566048226 0 -0.0095757073249099489 0.0089743369566048226 0 -0.0093453764400492825 0.0091228399579895321 0 -0.0093975853894321705 0.0087141903625331946 0 -0.0090569907358374266 0.0089814302466623974 0 -0.0093453764400492825 0.0091228399579895321 0 -0.0093975853894321705 0.0087141903625331946 0 -0.0097298097853708038 0.0088053567758974664 0 -0.0095757073249099489 0.0089743369566048226 0 -0.0093975853894321705 0.0087141903625331946 0 -0.0097298097853708038 0.0088053567758974664 0 -0.0093975853894321705 0.0087141903625331946 0 -0.0096308184771843539 0.0085062170540999224 0 -0.0093975853894321705 0.0087141903625331946 0 -0.00941469199522664 0.0082333307630149104 0 -0.0090891175980451072 0.0085698132129324485 0 -0.0093975853894321705 0.0087141903625331946 0 -0.0096308184771843539 0.0085062170540999224 0 -0.00941469199522664 0.0082333307630149104 0 -0.0096308184771843539 0.0085062170540999224 0 -0.0096767406886892927 0.008315659357738538 0 -0.00941469199522664 0.0082333307630149104 0 -0.0094891466744912254 0.008205424000636263 0 -0.0091600972150344701 0.008515427301644082 0 -0.0090891175980451072 0.0085698132129324485 0 -0.0087918808718918454 0.0082054021948741711 0 -0.0091320975462506424 0.0079373740106952299 0 -0.0090891175980451072 0.0085698132129324485 0 -0.0087918808718918454 0.0082054021948741711 0 -0.0083862704405275167 0.0084071779546597523 0 -0.0096055982375329151 0.0081347596356205545 0 -0.0090891175980451072 0.0085698132129324485 0 -0.0091320975462506424 0.0079373740106952299 0 -0.0091320975462506424 0.0079373740106952299 0 -0.0088926594263976141 0.0076062670223105448 0 -0.008566174481198157 0.0078993763492969226 0 -0.0087918808718918454 0.0082054021948741711 0 -0.0091320975462506424 0.0079373740106952299 0 -0.008566174481198157 0.0078993763492969226 0 -0.0091320975462506424 0.0079373740106952299 0 -0.0088926594263976141 0.0076062670223105448 0 -0.0093867061569899591 0.0074947065881953261 0 -0.0091320975462506424 0.0079373740106952299 0 -0.0093867061569899591 0.0074947065881953261 0 -0.0095896745243840304 0.007727639495004302 0 -0.0097415409197715627 0.0074159453799991712 0 -0.0093867061569899591 0.0074947065881953261 0 -0.0095896745243840304 0.007727639495004302 0 -0.0097415409197715627 0.0074159453799991712 0 -0.010080600177887514 0.0076744692232360197 0 -0.0095896745243840304 0.007727639495004302 0 -0.010080600177887514 0.0076744692232360197 0 -0.0096055982375329151 0.0081347596356205545 0 -0.0095896745243840304 0.007727639495004302 0 -0.010105827824700745 0.0077914347082266733 0 -0.0094891466744912254 0.008205424000636263 0 -0.0097389137156675652 0.0078986700427001854 0 -0.0096767406886892927 0.008315659357738538 0 -0.00941469199522664 0.0082333307630149104 0 -0.0096055982375329151 0.0081347596356205545 0 -0.0091320975462506424 0.0079373740106952299 0 -0.0095896745243840304 0.007727639495004302 0 -0.0081252501663234139 0.0071194362929334343 0 -0.0079541115781545674 0.0078341823282160866 0 -0.0073991100201766047 0.0078714633694782765 0 -0.0081617424577570818 0.0073238587513263873 0 -0.0074361856979272669 0.0079942701173104404 0 -0.0079541115781545674 0.0078341823282160866 0 -0.0073991100201766047 0.0078714633694782765 0 -0.0076234806759277445 0.0082830781946022745 0 -0.0079541115781545674 0.0078341823282160866 0 -0.008461768593282357 0.0075185027414712141 0 -0.008566174481198157 0.0078993763492969226 0 -0.0081252501663234139 0.0071194362929334343 0 -0.0079541115781545674 0.0078341823282160866 0 -0.008461768593282357 0.0075185027414712141 0 -0.0088926594263976141 0.0076062670223105448 0 -0.008461768593282357 0.0075185027414712141 0 -0.008566174481198157 0.0078993763492969226 0 -0.0079541115781545674 0.0078341823282160866 0 -0.008566174481198157 0.0078993763492969226 0 -0.0083862704405275167 0.0084071779546597523 0 -0.0083862704405275167 0.0084071779546597523 0 -0.0076234806759277445 0.0082830781946022745 0 -0.0085079835716961715 0.0090145043038496395 0 -0.0076361551770507199 0.0083120431832358638 0 -0.0079954706725228197 0.0087091145155474333 0 -0.0079541115781545674 0.0078341823282160866 0 -0.0083862704405275167 0.0084071779546597523 0 -0.0076234806759277445 0.0082830781946022745 0 -0.0090891175980451072 0.0085698132129324485 0 -0.0083862704405275167 0.0084071779546597523 0 -0.0085079835716961715 0.0090145043038496395 0 -0.0087918808718918454 0.0082054021948741711 0 -0.008566174481198157 0.0078993763492969226 0 -0.0083862704405275167 0.0084071779546597523 0 -0.0076234806759277445 0.0082830781946022745 0 -0.0073894425011045402 0.0085181597536468402 0 -0.007324315520975744 0.0083990707133504549 0 -0.0073991100201766047 0.0078714633694782765 0 -0.0076234806759277445 0.0082830781946022745 0 -0.007324315520975744 0.0083990707133504549 0 -0.0076234806759277445 0.0082830781946022745 0 -0.0073894425011045402 0.0085181597536468402 0 -0.0075263299975011789 0.008517641504520895 0 -0.0073894425011045402 0.0085181597536468402 0 -0.0075263299975011789 0.008517641504520895 0 -0.0074526812651593078 0.0086362151058487005 0 -0.007533571848600127 0.0086330513963588443 0 -0.0075263299975011789 0.008517641504520895 0 -0.0074526812651593078 0.0086362151058487005 0 -0.0073894425011045402 0.0085181597536468402 0 -0.0074526812651593078 0.0086362151058487005 0 -0.0072112994992600413 0.0086553361067035067 0 -0.0074526812651593078 0.0086362151058487005 0 -0.0072852410927588132 0.0087384468986787221 0 -0.0072112994992600413 0.0086553361067035067 0 -0.0072852410927588132 0.0087384468986787221 0 -0.0072219016932232802 0.0088853202581532301 0 -0.0074560326096793578 0.0087280411695444 0 -0.0074148289896597223 0.0087293965316299436 0 -0.007449154675854254 0.0087301159556395294 0 -0.0074560326096793578 0.0087280411695444 0 -0.0074654382296999427 0.0086882885270898776 0 -0.0074471838373591313 0.0085873138457022227 0 -0.0076122807315950891 0.0085864172186518768 0 -0.0074560326096793578 0.0087280411695444 0 -0.0074471838373591313 0.0085873138457022227 0 -0.0074560326096793578 0.0087280411695444 0 -0.0074902293173596778 0.0086870272289522876 0 -0.0074654382296999427 0.0086882885270898776 0 -0.0074526812651593078 0.0086362151058487005 0 -0.0074560326096793578 0.0087280411695444 0 -0.0074902293173596778 0.0086870272289522876 0 -0.0074526812651593078 0.0086362151058487005 0 -0.0072852410927588132 0.0087384468986787221 0 -0.0074560326096793578 0.0087280411695444 0 -0.007533571848600127 0.0086330513963588443 0 -0.0074902293173596778 0.0086870272289522876 0 -0.007526918542703342 0.0086931441489126755 0 -0.007533571848600127 0.0086330513963588443 0 -0.0074526812651593078 0.0086362151058487005 0 -0.0074902293173596778 0.0086870272289522876 0 -0.007533571848600127 0.0086330513963588443 0 -0.0075489418699814835 0.0086895994124194294 0 -0.007526918542703342 0.0086931441489126755 0 -0.008291982827376072 0.0092342688883577332 0 -0.0091048413737829029 0.0081771896807412824 0 -0.009524565911259655 0.0094471884462699659 0 -0.009107556584359874 0.0094813862718190599 0 -0.0095650397652994566 0.010035881153981834 0 -0.0098613257265465024 0.0094098678225859132 0 -0.009524565911259655 0.0094471884462699659 0 -0.0095650397652994566 0.010035881153981834 0 -0.0091048413737829029 0.0081771896807412824 0 -0.0090069237964889894 0.0057737175794471424 0 -0.0079721515868989984 0.0072652023840741441 0 -0.0082013349430445151 0.0071036746783278183 0 -0.0082689888917425129 0.0068661058419507209 0 -0.0095071093705776863 0.0055115013067180618 0 -0.0095333376949304528 0.005353156443690151 0 -0.0096592331621869372 0.0052976048825124789 0 -0.009565676245074442 0.007660736154402846 0 -0.0091048413737829029 0.0081771896807412824 0 -0.0075489418699814835 0.0086895994124194294 0 -0.007526918542703342 0.0086931441489126755 0 -0.0075133284931240092 0.0087037280314485686 0 -0.0091048413737829029 0.0081771896807412824 0 -0.0076626805563232659 0.0082200999729329805 0 -0.0074530747315830681 0.0085889760097454179 0 -0.0076626805563232659 0.0082200999729329805 0 -0.0094018603648805769 0.0054019915261747367 0 -0.0095071093705776863 0.0055115013067180618 0 -0.0095333376949304528 0.005353156443690151 0 -0.0076626805563232659 0.0082200999729329805 0 -0.007465511194671772 0.0085158997642345909 0 -0.0074654382296999427 0.0086882885270898776 0 -0.0074899126557192988 0.0087080017876786566 0 -0.0074471838373591313 0.0085873138457022227 0 -0.0074902293173596778 0.0086870272289522876 0 -0.0074654382296999427 0.0086882885270898776 0 -0.0074899126557192988 0.0087080017876786566 0 -0.0074902293173596778 0.0086870272289522876 0 -0.007526918542703342 0.0086931441489126755 0 -0.0074899126557192988 0.0087080017876786566 0 -0.0096592331621869372 0.0052976048825124789 0 -0.0096678561771720069 0.0051758105446061426 0 -0.0097097325541588356 0.0051407554112346187 0 -0.0090069237964889894 0.0057737175794471424 0 -0.0091532889552140614 0.0060385152282089755 0 -0.0076626805563232659 0.0082200999729329805 0 -0.008082023774785136 0.0074266656641319003 0 -0.0075465291135623121 0.0083442680730517957 0 -0.0075410995930291214 0.0083508260986534348 0 -0.0075443977767462589 0.0083578570287230983 0 -0.0082013349430445151 0.0071036746783278183 0 -0.0082689888917425129 0.0068661058419507209 0 -0.0084627850290367648 0.0067522354731229303 0 -0.0082689888917425129 0.0068661058419507209 0 -0.0085672333146303552 0.006463834321964605 0 -0.0084627850290367648 0.0067522354731229303 0 -0.0096592331621869372 0.0052976048825124789 0 -0.0095656096263415265 0.0052000541780826493 0 -0.0096678561771720069 0.0051758105446061426 0 -0.0095333376949304528 0.005353156443690151 0 -0.0096592331621869372 0.0052976048825124789 0 -0.0095656096263415265 0.0052000541780826493 0 -0.010976453144923954 0.0049908424948660463 0 -0.009706763152936183 0.004887828514915535 0 -0.0094018603648805769 0.0054019915261747367 0 -0.0095333376949304528 0.005353156443690151 0 -0.0095656096263415265 0.0052000541780826493 0 -0.010141331171348971 0.0045611239916948099 0 -0.0097198709199900896 0.0050840827579126131 0 -0.010281647862148195 0.0050714666502594888 0 -0.010594738841523298 0.0047190868673323326 0 -0.010141331171348971 0.0045611239916948099 0 -0.010281647862148195 0.0050714666502594888 0 -0.0096678561771720069 0.0051758105446061426 0 -0.0097097325541588356 0.0051407554112346187 0 -0.0097198709199900896 0.0050840827579126131 0 -0.009706763152936183 0.004887828514915535 0 -0.009768728340844338 0.005057382245723426 0 -0.0095656096263415265 0.0052000541780826493 0 -0.0096678561771720069 0.0051758105446061426 0 -0.0097198709199900896 0.0050840827579126131 0 -0.0085672333146303552 0.006463834321964605 0 -0.0087256475557192896 0.006395617152132823 0 -0.0088725064746568594 0.0060542679528800929 0 -0.0085672333146303552 0.006463834321964605 0 -0.0087256475557192896 0.006395617152132823 0 -0.0084627850290367648 0.0067522354731229303 0 -0.0080776279090644144 0.0076230353259749617 0 -0.008082023774785136 0.0074266656641319003 0 -0.0075545858526168529 0.0083073732917293402 0 -0.0076166210907852557 0.0083634735404309983 0 -0.0075443977767462589 0.0083578570287230983 0 -0.0075545858526168529 0.0083073732917293402 0 -0.0076234247296195091 0.0082754178268243106 0 -0.0076166210907852557 0.0083634735404309983 0 -0.0076363191540306293 0.00835439659459071 0 -0.007465511194671772 0.0085158997642345909 0 -0.0076122807315950891 0.0085864172186518768 0 -0.0076166210907852557 0.0083634735404309983 0 -0.0074471838373591313 0.0085873138457022227 0 -0.0075545858526168529 0.0083073732917293402 0 -0.0075410995930291214 0.0083508260986534348 0 -0.0075443977767462589 0.0083578570287230983 0 -0.0089396742102705647 0.0030656330696933304 0 -0.0093193600414663326 0.0043689954302160092 0 -0.0083421087808776082 0.003906222294642105 0 -0.0089396742102705647 0.0030656330696933304 0 -0.010204204612904109 0.0032587050057414765 0 -0.0093193600414663326 0.0043689954302160092 0 -0.0089396742102705647 0.0030656330696933304 0 -0.00801901386200966 0.0032962480194927385 0 -0.0083421087808776082 0.003906222294642105 0 -0.00801901386200966 0.0032962480194927385 0 -0.0081180135454202371 0.0024927280811080439 0 -0.0069810896540393429 0.0036322533923842863 0 -0.0076561377830945271 0.0028566515980031869 0 -0.0074006011186153855 0.0028864178753546348 0 -0.0069810896540393429 0.0036322533923842863 0 -0.0077220437469570679 0.0037304624485401177 0 -0.00801901386200966 0.0032962480194927385 0 -0.0083421087808776082 0.003906222294642105 0 -0.0089396742102705647 0.0030656330696933304 0 -0.00801901386200966 0.0032962480194927385 0 -0.0081180135454202371 0.0024927280811080439 0 -0.0075545858526168529 0.0083073732917293402 0 -0.0076234247296195091 0.0082754178268243106 0 -0.0076271760373958202 0.0081700000411251781 0 -0.0080776279090644144 0.0076230353259749617 0 -0.0076801594576676154 0.005055383511804159 0 -0.0087256475557192896 0.006395617152132823 0 -0.0088725064746568594 0.0060542679528800929 0 -0.008993851046418453 0.0060331993732433645 0 -0.0085995473103847603 0.0042386643107883062 0 -0.0076801594576676154 0.005055383511804159 0 -0.0097097325541588356 0.0051407554112346187 0 -0.009704823959282894 0.0051054913816092184 0 -0.0096704653425655433 0.0051210981680634062 0 -0.0091532889552140614 0.0060385152282089755 0 -0.0085995473103847603 0.0042386643107883062 0 -0.0085995473103847603 0.0042386643107883062 0 -0.009736288887750022 0.0037232449523039311 0 -0.0089396742102705647 0.0030656330696933304 0 -0.0081180135454202371 0.0024927280811080439 0 -0.00962096131647114 0.0023619515258361994 0 -0.0097097325541588356 0.0051407554112346187 0 -0.0096704653425655433 0.0051210981680634062 0 -0.0097198709199900896 0.0050840827579126131 0 -0.00962096131647114 0.0023619515258361994 0 -0.011067889379661621 0.0022138719473161431 0 -0.010204204612904109 0.0032587050057414765 0 -0.009736288887750022 0.0037232449523039311 0 -0.010588994556912481 0.0033145671304706577 0 -0.0096704653425655433 0.0051210981680634062 0 -0.0097198709199900896 0.0050840827579126131 0 -0.010281647862148195 0.0050714666502594888 0 -0.010730624679778897 0.0031091008447474353 0 -0.010868436484956341 0.0035744091277940997 0 -0.010088583423841566 0.0037397236890612043 0 -0.010588994556912481 0.0033145671304706577 0 -0.01021062986348314 0.0033865810426298849 0 -0.010588994556912481 0.0033145671304706577 0 -0.010903668665227908 0.0032047180163078258 0 -0.010730624679778897 0.0031091008447474353 0 -0.010868436484956341 0.0035744091277940997 0 -0.011025459425424622 0.0030902632291635304 0 -0.010702790920064195 0.0040855451848856687 0 -0.010088583423841566 0.0037397236890612043 0 -0.010273014814889124 0.0044545770672667568 0 -0.010868436484956341 0.0035744091277940997 0 -0.010702790920064195 0.0040855451848856687 0 -0.010088583423841566 0.0037397236890612043 0 -0.0089396742102705647 0.0030656330696933304 0 -0.00962096131647114 0.0023619515258361994 0 -0.010204204612904109 0.0032587050057414765 0 -0.010088583423841566 0.0037397236890612043 0 -0.010273014814889124 0.0044545770672667568 0 -0.0093193600414663326 0.0043689954302160092 0 -0.01021062986348314 0.0033865810426298849 0 -0.0093395736531032385 0.0043778985576983362 0 -0.010273014814889124 0.0044545770672667568 0 -0.009995259382807405 0.0048934313754752093 0 -0.0093193600414663326 0.0043689954302160092 0 -0.010273014814889124 0.0044545770672667568 0 -0.010575757102630173 0.0050037040515427738 0 -0.011014129902051768 0.0046322720075026511 0 -0.010702790920064195 0.0040855451848856687 0 -0.010273014814889124 0.0044545770672667568 0 -0.011014129902051768 0.0046322720075026511 0 -0.010273014814889124 0.0044545770672667568 0 -0.010575757102630173 0.0050037040515427738 0 -0.009995259382807405 0.0048934313754752093 0 -0.010575757102630173 0.0050037040515427738 0 -0.010221174972503974 0.0054080307639189787 0 -0.010756338600506619 0.0054563459303349996 0 -0.010575757102630173 0.0050037040515427738 0 -0.009995259382807405 0.0048934313754752093 0 -0.010221174972503974 0.0054080307639189787 0 -0.010575757102630173 0.0050037040515427738 0 -0.010756338600506619 0.0054563459303349996 0 -0.011120505771956078 0.005160903491716576 0 -0.009995259382807405 0.0048934313754752093 0 -0.0095850060828382745 0.0052771962900556415 0 -0.0093193600414663326 0.0043689954302160092 0 -0.009995259382807405 0.0048934313754752093 0 -0.0095850060828382745 0.0052771962900556415 0 -0.010221174972503974 0.0054080307639189787 0 -0.0095850060828382745 0.0052771962900556415 0 -0.0085294118426749964 0.0048242377494421857 0 -0.0087516232680307383 0.005881343325768563 0 -0.0095850060828382745 0.0052771962900556415 0 -0.0093193600414663326 0.0043689954302160092 0 -0.0085294118426749964 0.0048242377494421857 0 -0.0093193600414663326 0.0043689954302160092 0 -0.0083421087808776082 0.003906222294642105 0 -0.0085294118426749964 0.0048242377494421857 0 -0.0083421087808776082 0.003906222294642105 0 -0.0085294118426749964 0.0048242377494421857 0 -0.0075689925799797171 0.0042419433278646562 0 -0.0077220437469570679 0.0037304624485401177 0 -0.0083421087808776082 0.003906222294642105 0 -0.0075689925799797171 0.0042419433278646562 0 -0.0085294118426749964 0.0048242377494421857 0 -0.007424763765266071 0.0050899148372578534 0 -0.0075689925799797171 0.0042419433278646562 0 -0.0085294118426749964 0.0048242377494421857 0 -0.0087516232680307383 0.005881343325768563 0 -0.007424763765266071 0.0050899148372578534 0 -0.0072482376055464431 0.0048670582284092226 0 -0.0066736321793278777 0.0045485922982094629 0 -0.0060504434476148922 0.0040299220495099292 0 -0.0058661656563731837 0.0040062711339901138 0 -0.0058637386240568438 0.0040988483525915484 0 -0.0095850060828382745 0.0052771962900556415 0 -0.0087516232680307383 0.005881343325768563 0 -0.0099439165399474259 0.0059121871501037785 0 -0.0072482376055464431 0.0048670582284092226 0 -0.0088155744748289501 0.005711679633660603 0 -0.0060504434476148922 0.0040299220495099292 0 -0.0061667407704388199 0.0042510201188349136 0 -0.0060211062796205108 0.0042871592069475646 0 -0.0060504434476148922 0.0040299220495099292 0 -0.0061667407704388199 0.0042510201188349136 0 -0.0063851926118595245 0.0042383010841146387 0 -0.0060504434476148922 0.0040299220495099292 0 -0.0060211062796205108 0.0042871592069475646 0 -0.0058637386240568438 0.0040988483525915484 0 -0.0055229908774393158 0.0039039994665792796 0 -0.005948169216142901 0.00419579957239633 0 -0.0056230106548087041 0.0039824694706548508 0 -0.0057132030467644786 0.0037148718149609431 0 -0.005988192598499891 0.0039763954021195206 0 -0.0056230106548087041 0.0039824694706548508 0 -0.0053347982462688091 0.0037537488123221929 0 -0.0057132030467644786 0.0037148718149609431 0 -0.0061667407704388199 0.0042510201188349136 0 -0.0062160593739331539 0.0044723646432730611 0 -0.0063851926118595245 0.0042383010841146387 0 -0.0055229908774393158 0.0039039994665792796 0 -0.0084514656815392313 0.0041238114632027199 0 -0.0061667407704388199 0.0042510201188349136 0 -0.0060211062796205108 0.0042871592069475646 0 -0.0062160593739331539 0.0044723646432730611 0 -0.0084514656815392313 0.0041238114632027199 0 -0.008813658938167955 0.0011707191491559653 0 -0.01167928585115368 -0.00012854079690647368 0 -0.011679616145827758 -0.00022857484002254856 0 -0.01175155474391751 -0.00027161066242972678 0 -0.01167928585115368 -0.00012854079690647368 0 -0.011679616145827758 -0.00022857484002254856 0 -0.011624265805392196 -0.0002332869011236998 0 -0.011679616145827758 -0.00022857484002254856 0 -0.01165868944679717 -0.00026295059936865347 0 -0.011691967805351375 -0.00029220168153257714 0 -0.011679616145827758 -0.00022857484002254856 0 -0.01175155474391751 -0.00027161066242972678 0 -0.011691967805351375 -0.00029220168153257714 0 -0.0053347982462688091 0.0037537488123221929 0 -0.0057132030467644786 0.0037148718149609431 0 -0.0055178731110689799 0.0033704212730892489 0 -0.0057132030467644786 0.0037148718149609431 0 -0.0055178731110689799 0.0033704212730892489 0 -0.0059994911682466207 0.0033615955304649083 0 -0.010811851834159166 0.0075336184995207656 0 -0.010313667003886679 0.0069690336695962677 0 -0.010813555079293949 0.0069109382704489117 0 -0.010811851834159166 0.0075336184995207656 0 -0.010047466572268493 0.0073296983411809428 0 -0.010313667003886679 0.0069690336695962677 0 -0.011530270591872916 0.0039395373804464945 0 -0.011713282536196152 0.0021336286223271736 0 -0.0095933663833613608 0.0069164545993318696 0 -0.010047466572268493 0.0073296983411809428 0 -0.010313667003886679 0.0069690336695962677 0 -0.011679616145827758 -0.00022857484002254856 0 -0.011624265805392196 -0.0002332869011236998 0 -0.01165868944679717 -0.00026295059936865347 0 -0.011624265805392196 -0.0002332869011236998 0 -0.01165868944679717 -0.00026295059936865347 0 -0.01163733945370523 -0.00026521253114658648 0 -0.0084514656815392313 0.0041238114632027199 0 -0.011713282536196152 0.0021336286223271736 0 -0.0084514656815392313 0.0041238114632027199 0 -0.0088155744748289501 0.005711679633660603 0 -0.0095933663833613608 0.0069164545993318696 0 -0.01016795807569385 0.0065181559498665113 0 -0.009991156258290201 0.0063660445062180731 0 -0.0095933663833613608 0.0069164545993318696 0 -0.01016795807569385 0.0065181559498665113 0 -0.010313667003886679 0.0069690336695962677 0 -0.01016795807569385 0.0065181559498665113 0 -0.010500118105684389 0.0066273362138422011 0 -0.010313667003886679 0.0069690336695962677 0 -0.010500118105684389 0.0066273362138422011 0 -0.010313667003886679 0.0069690336695962677 0 -0.010813555079293949 0.0069109382704489117 0 -0.010500118105684389 0.0066273362138422011 0 -0.010813555079293949 0.0069109382704489117 0 -0.011034009119336365 0.0065749147372742818 0 -0.010500118105684389 0.0066273362138422011 0 -0.010713197313482505 0.0062329291282990423 0 -0.011034009119336365 0.0065749147372742818 0 -0.01016795807569385 0.0065181559498665113 0 -0.010500118105684389 0.0066273362138422011 0 -0.010312035591018303 0.006355878266698636 0 -0.010500118105684389 0.0066273362138422011 0 -0.010312035591018303 0.006355878266698636 0 -0.010713197313482505 0.0062329291282990423 0 -0.010317311877025306 0.0061201415863429889 0 -0.010713197313482505 0.0062329291282990423 0 -0.010520183852788431 0.005837355526565103 0 -0.010312035591018303 0.006355878266698636 0 -0.010317311877025306 0.0061201415863429889 0 -0.010713197313482505 0.0062329291282990423 0 -0.010713197313482505 0.0062329291282990423 0 -0.010520183852788431 0.005837355526565103 0 -0.010966474358344263 0.0058693636244186295 0 -0.0087516232680307383 0.005881343325768563 0 -0.0098569753413411624 0.0065369661446772927 0 -0.0099439165399474259 0.0059121871501037785 0 -0.009998105134015188 0.0063928216252277731 0 -0.010129825060586612 0.0063784888100938001 0 -0.010060859632741616 0.0062528215893262393 0 -0.0088155744748289501 0.005711679633660603 0 -0.0093297110922611979 0.0058678767722821143 0 -0.01016795807569385 0.0065181559498665113 0 -0.009998105134015188 0.0063928216252277731 0 -0.010129825060586612 0.0063784888100938001 0 -0.0098398717868779084 0.0064543959920985213 0 -0.0088155744748289501 0.005711679633660603 0 -0.01016795807569385 0.0065181559498665113 0 -0.010312035591018303 0.006355878266698636 0 -0.010129825060586612 0.0063784888100938001 0 -0.010312035591018303 0.006355878266698636 0 -0.010129825060586612 0.0063784888100938001 0 -0.010060859632741616 0.0062528215893262393 0 -0.010317311877025306 0.0061201415863429889 0 -0.010060859632741616 0.0062528215893262393 0 -0.0099439165399474259 0.0059121871501037785 0 -0.0098569753413411624 0.0065369661446772927 0 -0.010060859632741616 0.0062528215893262393 0 -0.0099439165399474259 0.0059121871501037785 0 -0.010312035591018303 0.006355878266698636 0 -0.010317311877025306 0.0061201415863429889 0 -0.010060859632741616 0.0062528215893262393 0 -0.0095850060828382745 0.0052771962900556415 0 -0.0099439165399474259 0.0059121871501037785 0 -0.010221174972503974 0.0054080307639189787 0 -0.010520183852788431 0.005837355526565103 0 -0.010756338600506619 0.0054563459303349996 0 -0.010966474358344263 0.0058693636244186295 0 -0.010317311877025306 0.0061201415863429889 0 -0.0099439165399474259 0.0059121871501037785 0 -0.010520183852788431 0.005837355526565103 0 -0.0099439165399474259 0.0059121871501037785 0 -0.010520183852788431 0.005837355526565103 0 -0.010221174972503974 0.0054080307639189787 0 -0.010520183852788431 0.005837355526565103 0 -0.010221174972503974 0.0054080307639189787 0 -0.010756338600506619 0.0054563459303349996 0 -0.010756338600506619 0.0054563459303349996 0 -0.011374510569596532 0.0055623917091017277 0 -0.010966474358344263 0.0058693636244186295 0 -0.010756338600506619 0.0054563459303349996 0 -0.011374510569596532 0.0055623917091017277 0 -0.011120505771956078 0.005160903491716576 0 -0.011374510569596532 0.0055623917091017277 0 -0.010966474358344263 0.0058693636244186295 0 -0.011328633953288317 0.006167413790291263 0 -0.011374510569596532 0.0055623917091017277 0 -0.011769452544565974 0.0058316965853697127 0 -0.011328633953288317 0.006167413790291263 0 -0.011374510569596532 0.0055623917091017277 0 -0.011858478666489288 0.0053920472852945793 0 -0.011769452544565974 0.0058316965853697127 0 -0.011858478666489288 0.0053920472852945793 0 -0.011769452544565974 0.0058316965853697127 0 -0.012279080479459187 0.0056211125055395444 0 -0.011769452544565974 0.0058316965853697127 0 -0.012045930689032999 0.0063340763287445647 0 -0.012279080479459187 0.0056211125055395444 0 -0.011769452544565974 0.0058316965853697127 0 -0.012045930689032999 0.0063340763287445647 0 -0.011328633953288317 0.006167413790291263 0 -0.012045930689032999 0.0063340763287445647 0 -0.011328633953288317 0.006167413790291263 0 -0.011482357091858847 0.006876152372673125 0 -0.010713197313482505 0.0062329291282990423 0 -0.010966474358344263 0.0058693636244186295 0 -0.011328633953288317 0.006167413790291263 0 -0.010713197313482505 0.0062329291282990423 0 -0.011328633953288317 0.006167413790291263 0 -0.011034009119336365 0.0065749147372742818 0 -0.010813555079293949 0.0069109382704489117 0 -0.011034009119336365 0.0065749147372742818 0 -0.011482357091858847 0.006876152372673125 0 -0.011328633953288317 0.006167413790291263 0 -0.011034009119336365 0.0065749147372742818 0 -0.011482357091858847 0.006876152372673125 0 -0.012045930689032999 0.0063340763287445647 0 -0.011482357091858847 0.006876152372673125 0 -0.012214692517975096 0.0071205911287177395 0 -0.011482357091858847 0.006876152372673125 0 -0.012214692517975096 0.0071205911287177395 0 -0.011609675191748502 0.0077131600748686366 0 -0.012829205373393023 0.0051070714322305113 0 -0.01195905203424863 0.0031354436873511885 0 -0.010811851834159166 0.0075336184995207656 0 -0.010813555079293949 0.0069109382704489117 0 -0.011482357091858847 0.006876152372673125 0 -0.010811851834159166 0.0075336184995207656 0 -0.011482357091858847 0.006876152372673125 0 -0.011609675191748502 0.0077131600748686366 0 -0.013804674823628427 0.0026743204278427486 0 -0.013456913048101083 0.002605278995200893 0 -0.013623612767857951 0.0027842889139342575 0 -0.013456913048101083 0.002605278995200893 0 -0.013467888468787669 0.0029051910384924108 0 -0.013623612767857951 0.0027842889139342575 0 -0.012829205373393023 0.0051070714322305113 0 -0.012994299373731012 0.0046519254188385102 0 -0.012045930689032999 0.0063340763287445647 0 -0.012214692517975096 0.0071205911287177395 0 -0.012835572924862917 0.0064908752214110329 0 -0.015828096184513266 0.0016600710530745245 0 -0.01590623068033941 0.0012807392617687899 0 -0.013804674823628427 0.0026743204278427486 0 -0.013709163580727291 0.0023722996663495411 0 -0.01387971157296311 0.0024070263526419721 0 -0.013804674823628427 0.0026743204278427486 0 -0.013456913048101083 0.002605278995200893 0 -0.013709163580727291 0.0023722996663495411 0 -0.012994299373731012 0.0046519254188385102 0 -0.015293741153448417 0.00286235766507145 0 -0.013709163580727291 0.0023722996663495411 0 -0.013966229988081433 0.002141739985310775 0 -0.01387971157296311 0.0024070263526419721 0 -0.012835572924862917 0.0064908752214110329 0 -0.012799691975926961 0.0058757533446003188 0 -0.013433072603423418 0.0058300742291606178 0 -0.012045930689032999 0.0063340763287445647 0 -0.012835572924862917 0.0064908752214110329 0 -0.012799691975926961 0.0058757533446003188 0 -0.012045930689032999 0.0063340763287445647 0 -0.012799691975926961 0.0058757533446003188 0 -0.012279080479459187 0.0056211125055395444 0 -0.011858478666489288 0.0053920472852945793 0 -0.012279080479459187 0.0056211125055395444 0 -0.012242409170222316 0.0049935589113912059 0 -0.012799691975926961 0.0058757533446003188 0 -0.012279080479459187 0.0056211125055395444 0 -0.012913905534035671 0.0052173610497085396 0 -0.012799691975926961 0.0058757533446003188 0 -0.012913905534035671 0.0052173610497085396 0 -0.013433072603423418 0.0058300742291606178 0 -0.012787591797164533 0.0044239407195537589 0 -0.013253366795490931 0.0041814367033144902 0 -0.013305125400343487 0.0045586211199888302 0 -0.012913905534035671 0.0052173610497085396 0 -0.012787591797164533 0.0044239407195537589 0 -0.013305125400343487 0.0045586211199888302 0 -0.012787591797164533 0.0044239407195537589 0 -0.012242409170222316 0.0049935589113912059 0 -0.011972236864968837 0.0043377560510353278 0 -0.012913905534035671 0.0052173610497085396 0 -0.012787591797164533 0.0044239407195537589 0 -0.012242409170222316 0.0049935589113912059 0 -0.012279080479459187 0.0056211125055395444 0 -0.012913905534035671 0.0052173610497085396 0 -0.012242409170222316 0.0049935589113912059 0 -0.011858478666489288 0.0053920472852945793 0 -0.012242409170222316 0.0049935589113912059 0 -0.011611545736579552 0.004945390770855043 0 -0.011374510569596532 0.0055623917091017277 0 -0.011858478666489288 0.0053920472852945793 0 -0.011611545736579552 0.004945390770855043 0 -0.011374510569596532 0.0055623917091017277 0 -0.011611545736579552 0.004945390770855043 0 -0.011120505771956078 0.005160903491716576 0 -0.011611545736579552 0.004945390770855043 0 -0.011120505771956078 0.005160903491716576 0 -0.011014129902051768 0.0046322720075026511 0 -0.010575757102630173 0.0050037040515427738 0 -0.011120505771956078 0.005160903491716576 0 -0.011014129902051768 0.0046322720075026511 0 -0.010702790920064195 0.0040855451848856687 0 -0.011014129902051768 0.0046322720075026511 0 -0.011266176714044973 0.0040392333190953098 0 -0.011014129902051768 0.0046322720075026511 0 -0.011471465840233038 0.0044856789526668758 0 -0.011266176714044973 0.0040392333190953098 0 -0.011611545736579552 0.004945390770855043 0 -0.011014129902051768 0.0046322720075026511 0 -0.011471465840233038 0.0044856789526668758 0 -0.012242409170222316 0.0049935589113912059 0 -0.011611545736579552 0.004945390770855043 0 -0.011972236864968837 0.0043377560510353278 0 -0.011471465840233038 0.0044856789526668758 0 -0.011972236864968837 0.0043377560510353278 0 -0.011266176714044973 0.0040392333190953098 0 -0.011611545736579552 0.004945390770855043 0 -0.011471465840233038 0.0044856789526668758 0 -0.011972236864968837 0.0043377560510353278 0 -0.011972236864968837 0.0043377560510353278 0 -0.011266176714044973 0.0040392333190953098 0 -0.011808266305941246 0.0035948477099548817 0 -0.011972236864968837 0.0043377560510353278 0 -0.011808266305941246 0.0035948477099548817 0 -0.012428650464010021 0.0038624957662169745 0 -0.010868436484956341 0.0035744091277940997 0 -0.010702790920064195 0.0040855451848856687 0 -0.011266176714044973 0.0040392333190953098 0 -0.011266176714044973 0.0040392333190953098 0 -0.011311560990581244 0.0034635934743478453 0 -0.011808266305941246 0.0035948477099548817 0 -0.010868436484956341 0.0035744091277940997 0 -0.011266176714044973 0.0040392333190953098 0 -0.011311560990581244 0.0034635934743478453 0 -0.010868436484956341 0.0035744091277940997 0 -0.011311560990581244 0.0034635934743478453 0 -0.011025459425424622 0.0030902632291635304 0 -0.011311560990581244 0.0034635934743478453 0 -0.011025459425424622 0.0030902632291635304 0 -0.011605400377115896 0.0030024710893094288 0 -0.012355651893268588 0.0028527610685276602 0 -0.011808266305941246 0.0035948477099548817 0 -0.011605400377115896 0.0030024710893094288 0 -0.011311560990581244 0.0034635934743478453 0 -0.011808266305941246 0.0035948477099548817 0 -0.011605400377115896 0.0030024710893094288 0 -0.012902594869477625 0.0033622864363000095 0 -0.013171483435690755 0.0038610726876030549 0 -0.012355651893268588 0.0028527610685276602 0 -0.011808266305941246 0.0035948477099548817 0 -0.012428650464010021 0.0038624957662169745 0 -0.012355651893268588 0.0028527610685276602 0 -0.013156209643950914 0.0038469959101434942 0 -0.012428650464010021 0.0038624957662169745 0 -0.013277772285010455 0.0040068216869510974 0 -0.013498638796808422 0.0040821163922768371 0 -0.013156209643950914 0.0038469959101434942 0 -0.012787591797164533 0.0044239407195537589 0 -0.013156209643950914 0.0038469959101434942 0 -0.013253366795490931 0.0041814367033144902 0 -0.013156209643950914 0.0038469959101434942 0 -0.013253366795490931 0.0041814367033144902 0 -0.013307676905860901 0.0039591605594940984 0 -0.012787591797164533 0.0044239407195537589 0 -0.013156209643950914 0.0038469959101434942 0 -0.012428650464010021 0.0038624957662169745 0 -0.012787591797164533 0.0044239407195537589 0 -0.011972236864968837 0.0043377560510353278 0 -0.012428650464010021 0.0038624957662169745 0 -0.014390258669818523 0.0041130441695648142 0 -0.01580109245776937 0.0033490906063848519 0 -0.015509130572370236 0.0039923601713741635 0 -0.015401738014865952 0.0038821710357595822 0 -0.015577893237465501 0.003713821854535422 0 -0.015401738014865952 0.0038821710357595822 0 -0.015226714144164556 0.0037850688716585062 0 -0.015577893237465501 0.003713821854535422 0 -0.015509130572370236 0.0039923601713741635 0 -0.015401738014865952 0.0038821710357595822 0 -0.015293603208357844 0.0040377898753108194 0 -0.01341218084806948 0.0041685538411297286 0 -0.013253366795490931 0.0041814367033144902 0 -0.013307676905860901 0.0039591605594940984 0 -0.013406145413596528 0.0040097383600280739 0 -0.01341218084806948 0.0041685538411297286 0 -0.013586816123035242 0.0043486640031968928 0 -0.01341218084806948 0.0041685538411297286 0 -0.013253366795490931 0.0041814367033144902 0 -0.013391697663499893 0.0042844600882468928 0 -0.013406145413596528 0.0040097383600280739 0 -0.01341218084806948 0.0041685538411297286 0 -0.013307676905860901 0.0039591605594940984 0 -0.013277772285010455 0.0040068216869510974 0 -0.013156209643950914 0.0038469959101434942 0 -0.013307676905860901 0.0039591605594940984 0 -0.013261381340567875 0.0040154546620521986 0 -0.013277772285010455 0.0040068216869510974 0 -0.013307676905860901 0.0039591605594940984 0 -0.015436638453760376 0.0042725531591714973 0 -0.015509130572370236 0.0039923601713741635 0 -0.015293603208357844 0.0040377898753108194 0 -0.013261381340567875 0.0040154546620521986 0 -0.013406145413596528 0.0040097383600280739 0 -0.013307676905860901 0.0039591605594940984 0 -0.014527494660363419 0.004590408336173365 0 -0.014390258669818523 0.0041130441695648142 0 -0.014527494660363419 0.004590408336173365 0 -0.015091164745840224 0.0044390573417557215 0 -0.014827924252412252 0.0046875531549309488 0 -0.014833972147769684 0.0046860640648968737 0 -0.014843880370893637 0.0046844917896632374 0 -0.014827924252412252 0.0046875531549309488 0 -0.014823526612070375 0.0046888585704598995 0 -0.014833972147769684 0.0046860640648968737 0 -0.014832891336321347 0.0046837759708857713 0 -0.014843880370893637 0.0046844917896632374 0 -0.014861242041228767 0.0046770868067260059 0 -0.014843880370893637 0.0046844917896632374 0 -0.014861133872792387 0.0046876669782522666 0 -0.014861242041228767 0.0046770868067260059 0 -0.014843880370893637 0.0046844917896632374 0 -0.01484749634504298 0.0046875685635124377 0 -0.014861133872792387 0.0046876669782522666 0 -0.01568563326087782 0.0035590859614339099 0 -0.015587210410586987 0.0035151193991768094 0 -0.015401738014865952 0.0038821710357595822 0 -0.015293603208357844 0.0040377898753108194 0 -0.015226714144164556 0.0037850688716585062 0 -0.015293603208357844 0.0040377898753108194 0 -0.015151187044146596 0.0037997276044639903 0 -0.015226714144164556 0.0037850688716585062 0 -0.015091164745840224 0.0044390573417557215 0 -0.01568563326087782 0.0035590859614339099 0 -0.014833972147769684 0.0046860640648968737 0 -0.014843880370893637 0.0046844917896632374 0 -0.01484749634504298 0.0046875685635124377 0 -0.01568563326087782 0.0035590859614339099 0 -0.01626493270536656 0.0031442310235765755 0 -0.016772330166931571 0.0023120797485279595 0 -0.016893146116704599 0.0022878684262955542 0 -0.016566171871622994 0.0019344050859157252 0 -0.016893146116704599 0.0022878684262955542 0 -0.016566171871622994 0.0019344050859157252 0 -0.016885222139540825 0.0018451039047848003 0 -0.016893146116704599 0.0022878684262955542 0 -0.016885222139540825 0.0018451039047848003 0 -0.01723126435358131 0.0018689437637126618 0 -0.016772330166931571 0.0023120797485279595 0 -0.016566171871622994 0.0019344050859157252 0 -0.016341461054614627 0.0023996335239735407 0 -0.016566171871622994 0.0019344050859157252 0 -0.016693123638016363 0.0015735406190875378 0 -0.016319066725276592 0.0015753357791432141 0 -0.016566171871622994 0.0019344050859157252 0 -0.016693123638016363 0.0015735406190875378 0 -0.016885222139540825 0.0018451039047848003 0 -0.016693123638016363 0.0015735406190875378 0 -0.016885222139540825 0.0018451039047848003 0 -0.017020142032360696 0.0015099331948265956 0 -0.016885222139540825 0.0018451039047848003 0 -0.01723126435358131 0.0018689437637126618 0 -0.017020142032360696 0.0015099331948265956 0 -0.01723126435358131 0.0018689437637126618 0 -0.017325748871701761 0.0015361669410962984 0 -0.017020142032360696 0.0015099331948265956 0 -0.01723126435358131 0.0018689437637126618 0 -0.017446851874907143 0.0021846171500831762 0 -0.01756638392909099 0.0016942288543687421 0 -0.01723126435358131 0.0018689437637126618 0 -0.01756638392909099 0.0016942288543687421 0 -0.017325748871701761 0.0015361669410962984 0 -0.016893146116704599 0.0022878684262955542 0 -0.01723126435358131 0.0018689437637126618 0 -0.017446851874907143 0.0021846171500831762 0 -0.01626493270536656 0.0031442310235765755 0 -0.01580109245776937 0.0033490906063848519 0 -0.013586816123035242 0.0043486640031968928 0 -0.013305125400343487 0.0045586211199888302 0 -0.013569855439409965 0.0050611959759817747 0 -0.013253366795490931 0.0041814367033144902 0 -0.013391697663499893 0.0042844600882468928 0 -0.013305125400343487 0.0045586211199888302 0 -0.013391697663499893 0.0042844600882468928 0 -0.013586816123035242 0.0043486640031968928 0 -0.013305125400343487 0.0045586211199888302 0 -0.01341218084806948 0.0041685538411297286 0 -0.013391697663499893 0.0042844600882468928 0 -0.013586816123035242 0.0043486640031968928 0 -0.012913905534035671 0.0052173610497085396 0 -0.013305125400343487 0.0045586211199888302 0 -0.013569855439409965 0.0050611959759817747 0 -0.01580109245776937 0.0033490906063848519 0 -0.015540190040337203 0.0034939963753931481 0 -0.015540190040337203 0.0034939963753931481 0 -0.015293741153448417 0.00286235766507145 0 -0.012913905534035671 0.0052173610497085396 0 -0.013569855439409965 0.0050611959759817747 0 -0.013433072603423418 0.0058300742291606178 0 -0.01756638392909099 0.0016942288543687421 0 -0.017547469090515345 0.0013434644639266347 0 -0.017665726998225995 0.0012095972055603643 0 -0.01756638392909099 0.0016942288543687421 0 -0.017547469090515345 0.0013434644639266347 0 -0.017325748871701761 0.0015361669410962984 0 -0.017547469090515345 0.0013434644639266347 0 -0.017689034521106383 0.0011883027704635972 0 -0.017484056005480021 0.0011286898392375113 0 -0.017313504725273911 0.0011363649566580893 0 -0.015293741153448417 0.00286235766507145 0 -0.017325748871701761 0.0015361669410962984 0 -0.017260381085671187 0.0012641553969322907 0 -0.017020142032360696 0.0015099331948265956 0 -0.017547469090515345 0.0013434644639266347 0 -0.017325748871701761 0.0015361669410962984 0 -0.017260381085671187 0.0012641553969322907 0 -0.017547469090515345 0.0013434644639266347 0 -0.017260381085671187 0.0012641553969322907 0 -0.017484056005480021 0.0011286898392375113 0 -0.017260381085671187 0.0012641553969322907 0 -0.017129966267231862 0.001053600395160862 0 -0.016943485849782079 0.001178323961631717 0 -0.017260381085671187 0.0012641553969322907 0 -0.017129966267231862 0.001053600395160862 0 -0.017340636420883283 0.00097469351952290419 0 -0.017260381085671187 0.0012641553969322907 0 -0.017340636420883283 0.00097469351952290419 0 -0.017484056005480021 0.0011286898392375113 0 -0.017340636420883283 0.00097469351952290419 0 -0.017573735905483938 0.00089654899384239266 0 -0.01741348759401657 0.00069117678998371326 0 -0.017340636420883283 0.00097469351952290419 0 -0.01741348759401657 0.00069117678998371326 0 -0.017081869607392657 0.00073993418046179084 0 -0.017129966267231862 0.001053600395160862 0 -0.017340636420883283 0.00097469351952290419 0 -0.017081869607392657 0.00073993418046179084 0 -0.017689034521106383 0.0011883027704635972 0 -0.017573735905483938 0.00089654899384239266 0 -0.01778491928329554 0.00069314676030058264 0 -0.015293741153448417 0.00286235766507145 0 -0.01590623068033941 0.0012807392617687899 0 -0.017340636420883283 0.00097469351952290419 0 -0.017484056005480021 0.0011286898392375113 0 -0.017573735905483938 0.00089654899384239266 0 -0.017689034521106383 0.0011883027704635972 0 -0.017484056005480021 0.0011286898392375113 0 -0.017573735905483938 0.00089654899384239266 0 -0.017573735905483938 0.00089654899384239266 0 -0.01778491928329554 0.00069314676030058264 0 -0.01741348759401657 0.00069117678998371326 0 -0.01778491928329554 0.00069314676030058264 0 -0.01741348759401657 0.00069117678998371326 0 -0.017360443765448982 0.00028496398173038199 0 -0.01741348759401657 0.00069117678998371326 0 -0.017360443765448982 0.00028496398173038199 0 -0.017081869607392657 0.00073993418046179084 0 -0.017360443765448982 0.00028496398173038199 0 -0.016928293503368198 1.9960284805005672e-05 0 -0.017229366742329919 -8.4674422172508997e-05 0 -0.017360443765448982 0.00028496398173038199 0 -0.017551030364631022 -4.6712209508142676e-05 0 -0.017229366742329919 -8.4674422172508997e-05 0 -0.017867023648410172 0.0002190495085090401 0 -0.01778491928329554 0.00069314676030058264 0 -0.017360443765448982 0.00028496398173038199 0 -0.017867023648410172 0.0002190495085090401 0 -0.017360443765448982 0.00028496398173038199 0 -0.017551030364631022 -4.6712209508142676e-05 0 -0.016928293503368198 1.9960284805005672e-05 0 -0.016828022252925262 0.00043341128971648548 0 -0.016564276704079128 -4.7584652464184986e-05 0 -0.016828022252925262 0.00043341128971648548 0 -0.016361263029453569 0.00041103037375239367 0 -0.016564276704079128 -4.7584652464184986e-05 0 -0.017360443765448982 0.00028496398173038199 0 -0.016928293503368198 1.9960284805005672e-05 0 -0.016828022252925262 0.00043341128971648548 0 -0.016828022252925262 0.00043341128971648548 0 -0.017081869607392657 0.00073993418046179084 0 -0.016863301731781268 0.00088258131324234006 0 -0.016828022252925262 0.00043341128971648548 0 -0.016638272735975072 0.00076510703999361606 0 -0.016863301731781268 0.00088258131324234006 0 -0.017360443765448982 0.00028496398173038199 0 -0.016828022252925262 0.00043341128971648548 0 -0.017081869607392657 0.00073993418046179084 0 -0.016828022252925262 0.00043341128971648548 0 -0.016638272735975072 0.00076510703999361606 0 -0.016361263029453569 0.00041103037375239367 0 -0.016638272735975072 0.00076510703999361606 0 -0.01636111214484063 0.00078528831284107778 0 -0.016361263029453569 0.00041103037375239367 0 -0.016638272735975072 0.00076510703999361606 0 -0.01646045298862877 0.0010398226890174509 0 -0.01636111214484063 0.00078528831284107778 0 -0.016638272735975072 0.00076510703999361606 0 -0.016702307123081978 0.0010823974938261839 0 -0.01646045298862877 0.0010398226890174509 0 -0.016638272735975072 0.00076510703999361606 0 -0.016702307123081978 0.0010823974938261839 0 -0.016863301731781268 0.00088258131324234006 0 -0.016702307123081978 0.0010823974938261839 0 -0.01646045298862877 0.0010398226890174509 0 -0.016548981346393727 0.0012930432221915985 0 -0.017129966267231862 0.001053600395160862 0 -0.017081869607392657 0.00073993418046179084 0 -0.016863301731781268 0.00088258131324234006 0 -0.016702307123081978 0.0010823974938261839 0 -0.016863301731781268 0.00088258131324234006 0 -0.016943485849782079 0.001178323961631717 0 -0.017129966267231862 0.001053600395160862 0 -0.016863301731781268 0.00088258131324234006 0 -0.016943485849782079 0.001178323961631717 0 -0.017260381085671187 0.0012641553969322907 0 -0.016943485849782079 0.001178323961631717 0 -0.017020142032360696 0.0015099331948265956 0 -0.016702307123081978 0.0010823974938261839 0 -0.016943485849782079 0.001178323961631717 0 -0.016752459330404944 0.001317456396808794 0 -0.016943485849782079 0.001178323961631717 0 -0.017020142032360696 0.0015099331948265956 0 -0.016752459330404944 0.001317456396808794 0 -0.016693123638016363 0.0015735406190875378 0 -0.017020142032360696 0.0015099331948265956 0 -0.016752459330404944 0.001317456396808794 0 -0.016693123638016363 0.0015735406190875378 0 -0.016548981346393727 0.0012930432221915985 0 -0.016319066725276592 0.0015753357791432141 0 -0.01646045298862877 0.0010398226890174509 0 -0.016548981346393727 0.0012930432221915985 0 -0.016304222554959419 0.0012808892136186567 0 -0.016702307123081978 0.0010823974938261839 0 -0.016548981346393727 0.0012930432221915985 0 -0.016752459330404944 0.001317456396808794 0 -0.016693123638016363 0.0015735406190875378 0 -0.016548981346393727 0.0012930432221915985 0 -0.016752459330404944 0.001317456396808794 0 -0.016319066725276592 0.0015753357791432141 0 -0.016039332210614717 0.0013400536227900946 0 -0.015936291283686538 0.0016987580320347215 0 -0.016319066725276592 0.0015753357791432141 0 -0.016304222554959419 0.0012808892136186567 0 -0.016039332210614717 0.0013400536227900946 0 -0.016304222554959419 0.0012808892136186567 0 -0.016039332210614717 0.0013400536227900946 0 -0.016195361444712432 0.0010259948898387861 0 -0.016548981346393727 0.0012930432221915985 0 -0.016319066725276592 0.0015753357791432141 0 -0.016304222554959419 0.0012808892136186567 0 -0.015781317298549032 0.0013864159279965986 0 -0.015607032156889175 0.0017411748155104795 0 -0.015936291283686538 0.0016987580320347215 0 -0.016039332210614717 0.0013400536227900946 0 -0.015781317298549032 0.0013864159279965986 0 -0.015936291283686538 0.0016987580320347215 0 -0.016039332210614717 0.0013400536227900946 0 -0.015781317298549032 0.0013864159279965986 0 -0.015883543164031989 0.0010645514057772453 0 -0.015781317298549032 0.0013864159279965986 0 -0.015883543164031989 0.0010645514057772453 0 -0.015496727611201589 0.0010932428369773235 0 -0.016039332210614717 0.0013400536227900946 0 -0.015883543164031989 0.0010645514057772453 0 -0.016195361444712432 0.0010259948898387861 0 -0.015883543164031989 0.0010645514057772453 0 -0.01609085866917364 0.00072715572795377457 0 -0.015777863595021806 0.00074822645633732725 0 -0.015883543164031989 0.0010645514057772453 0 -0.016195361444712432 0.0010259948898387861 0 -0.01609085866917364 0.00072715572795377457 0 -0.015883543164031989 0.0010645514057772453 0 -0.015777863595021806 0.00074822645633732725 0 -0.015496727611201589 0.0010932428369773235 0 -0.01646045298862877 0.0010398226890174509 0 -0.016304222554959419 0.0012808892136186567 0 -0.016195361444712432 0.0010259948898387861 0 -0.016195361444712432 0.0010259948898387861 0 -0.01636111214484063 0.00078528831284107778 0 -0.01609085866917364 0.00072715572795377457 0 -0.01646045298862877 0.0010398226890174509 0 -0.016195361444712432 0.0010259948898387861 0 -0.01636111214484063 0.00078528831284107778 0 -0.01636111214484063 0.00078528831284107778 0 -0.016361263029453569 0.00041103037375239367 0 -0.01609085866917364 0.00072715572795377457 0 -0.016361263029453569 0.00041103037375239367 0 -0.01609085866917364 0.00072715572795377457 0 -0.015958917773281588 0.00038049242999027669 0 -0.015777863595021806 0.00074822645633732725 0 -0.015958917773281588 0.00038049242999027669 0 -0.015450444962168948 0.00047663201240830908 0 -0.01609085866917364 0.00072715572795377457 0 -0.015777863595021806 0.00074822645633732725 0 -0.015958917773281588 0.00038049242999027669 0 -0.015772309119645132 4.991708355512536e-05 0 -0.015958917773281588 0.00038049242999027669 0 -0.015450444962168948 0.00047663201240830908 0 -0.015772309119645132 4.991708355512536e-05 0 -0.015958917773281588 0.00038049242999027669 0 -0.016164695729259861 -3.1631015767517794e-05 0 -0.016361263029453569 0.00041103037375239367 0 -0.015958917773281588 0.00038049242999027669 0 -0.016164695729259861 -3.1631015767517794e-05 0 -0.016361263029453569 0.00041103037375239367 0 -0.016164695729259861 -3.1631015767517794e-05 0 -0.016564276704079128 -4.7584652464184986e-05 0 -0.015296545296530503 0.00021434965917485683 0 -0.014999974585434915 0.00065318147907356518 0 -0.014999982168399303 -0.00022495876225155063 0 -0.015541747252317051 0.00052726133067293511 0 -0.015486030472833303 -0.00015242994816969284 0 -0.015772309119645132 4.991708355512536e-05 0 -0.015450444962168948 0.00047663201240830908 0 -0.015417810143493159 -0.00015364075876908898 0 -0.015296545296530503 0.00021434965917485683 0 -0.015636402359899163 0.0005736149650432562 0 -0.015552961749155495 -0.00013990812954513612 0 -0.015777863595021806 0.00074822645633732725 0 -0.015450444962168948 0.00047663201240830908 0 -0.015496727611201589 0.0010932428369773235 0 -0.015541747252317051 0.00052726133067293511 0 -0.015582299152821496 0.0011914732686896233 0 -0.015636402359899163 0.0005736149650432562 0 -0.014999974585434915 0.00065318147907356518 0 -0.015328485637801238 0.0011308432430224378 0 -0.015296545296530503 0.00021434965917485683 0 -0.015636402359899163 0.0005736149650432562 0 -0.014999974585434915 0.00065318147907356518 0 -0.014999974585434915 0.00065318147907356518 0 -0.015328485637801238 0.0011308432430224378 0 -0.015000000167137435 0.0015310995291448767 0 -0.015328485637801238 0.0011308432430224378 0 -0.015669940767317182 0.0012925828930303476 0 -0.01548740008480899 0.0015823082992241968 0 -0.015636402359899163 0.0005736149650432562 0 -0.015328485637801238 0.0011308432430224378 0 -0.015669940767317182 0.0012925828930303476 0 -0.015669940767317182 0.0012925828930303476 0 -0.01548740008480899 0.0015823082992241968 0 -0.015607032156889175 0.0017411748155104795 0 -0.015781317298549032 0.0013864159279965986 0 -0.015496727611201589 0.0010932428369773235 0 -0.015607032156889175 0.0017411748155104795 0 -0.015582299152821496 0.0011914732686896233 0 -0.015609416354792235 0.0016957831351995353 0 -0.015328485637801238 0.0011308432430224378 0 -0.01548740008480899 0.0015823082992241968 0 -0.015000000167137435 0.0015310995291448767 0 -0.01548740008480899 0.0015823082992241968 0 -0.015000000167137435 0.0015310995291448767 0 -0.01527271037360115 0.0019742485254527703 0 -0.01527271037360115 0.0019742485254527703 0 -0.014999972418036836 0.0024092200626144415 0 -0.015634549165354308 0.0023932471129747006 0 -0.015000000167137435 0.0015310995291448767 0 -0.01527271037360115 0.0019742485254527703 0 -0.014999972418036836 0.0024092200626144415 0 -0.014999972418036836 0.0024092200626144415 0 -0.015345967423813785 0.0028088565700541729 0 -0.015634549165354308 0.0023932471129747006 0 -0.015564783488472626 0.002062333842097207 0 -0.015565203054412577 0.0034036086953367814 0 -0.015345967423813785 0.0028088565700541729 0 -0.015634549165354308 0.0023932471129747006 0 -0.015750204209859137 0.0031439396284562763 0 -0.015494935783832268 0.0019834671018001296 0 -0.015715818698746421 0.0021809070681168426 0 -0.015559126925218211 0.0025601938567028164 0 -0.015494935783832268 0.0019834671018001296 0 -0.015695121453728839 0.001913936406174824 0 -0.015715818698746421 0.0021809070681168426 0 -0.015494935783832268 0.0019834671018001296 0 -0.015695121453728839 0.001913936406174824 0 -0.015607032156889175 0.0017411748155104795 0 -0.015493876757188588 0.0016733191262220267 0 -0.015564783488472626 0.002062333842097207 0 -0.01548740008480899 0.0015823082992241968 0 -0.01527271037360115 0.0019742485254527703 0 -0.015634549165354308 0.0023932471129747006 0 -0.01548740008480899 0.0015823082992241968 0 -0.015494935783832268 0.0019834671018001296 0 -0.015607032156889175 0.0017411748155104795 0 -0.015695121453728839 0.001913936406174824 0 -0.015607032156889175 0.0017411748155104795 0 -0.015936291283686538 0.0016987580320347215 0 -0.015936291283686538 0.0016987580320347215 0 -0.016162604920848325 0.0019764048951899744 0 -0.015891507478136904 0.0019799133451999787 0 -0.015695121453728839 0.001913936406174824 0 -0.015936291283686538 0.0016987580320347215 0 -0.015891507478136904 0.0019799133451999787 0 -0.016566171871622994 0.0019344050859157252 0 -0.016319066725276592 0.0015753357791432141 0 -0.016162604920848325 0.0019764048951899744 0 -0.016319066725276592 0.0015753357791432141 0 -0.015936291283686538 0.0016987580320347215 0 -0.016162604920848325 0.0019764048951899744 0 -0.016162604920848325 0.0019764048951899744 0 -0.015935213439031422 0.0022603488667335869 0 -0.016341461054614627 0.0023996335239735407 0 -0.016566171871622994 0.0019344050859157252 0 -0.016162604920848325 0.0019764048951899744 0 -0.016341461054614627 0.0023996335239735407 0 -0.015695121453728839 0.001913936406174824 0 -0.015891507478136904 0.0019799133451999787 0 -0.015715818698746421 0.0021809070681168426 0 -0.016162604920848325 0.0019764048951899744 0 -0.015891507478136904 0.0019799133451999787 0 -0.015935213439031422 0.0022603488667335869 0 -0.015891507478136904 0.0019799133451999787 0 -0.015935213439031422 0.0022603488667335869 0 -0.015715818698746421 0.0021809070681168426 0 -0.015935213439031422 0.0022603488667335869 0 -0.015715818698746421 0.0021809070681168426 0 -0.015708309336647932 0.0024166361010986687 0 -0.015935213439031422 0.0022603488667335869 0 -0.015801295979201928 0.0025083583885179006 0 -0.016341461054614627 0.0023996335239735407 0 -0.015935213439031422 0.0022603488667335869 0 -0.015708309336647932 0.0024166361010986687 0 -0.015801295979201928 0.0025083583885179006 0 -0.015331342131070656 0.0031835652206990291 0 -0.015523444861030989 0.003824343613162323 0 -0.015523444861030989 0.003824343613162323 0 -0.015587210410586987 0.0035151193991768094 0 -0.014888602069839149 0.0046792295067357879 0 -0.014861133872792387 0.0046876669782522666 0 -0.014861242041228767 0.0046770868067260059 0 -0.015643536084499123 0.0048834868642666559 0 -0.015595938596497633 0.0047001230724362277 0 -0.015745435658433789 0.0047099134571620569 0 -0.015643536084499123 0.0048834868642666559 0 -0.015471379332239358 0.0047477803808292128 0 -0.015595938596497633 0.0047001230724362277 0 -0.015523444861030989 0.003824343613162323 0 -0.015169307455434086 0.0048613979769451246 0 -0.015748529483086127 0.0043266262121415934 0 -0.015565203054412577 0.0034036086953367814 0 -0.015747937127571429 0.0037284425553284488 0 -0.015358187617936253 0.0036149427704940985 0 -0.015674916820950551 0.0032463374450592344 0 -0.015412649682271903 0.0040372930846847566 0 -0.015747937127571429 0.0037284425553284488 0 -0.015358187617936253 0.0036149427704940985 0 -0.014999933404595 0.0039839897476547587 0 -0.014999918083591234 0.0032874773160942623 0 -0.015358187617936253 0.0036149427704940985 0 -0.014999918083591234 0.0032874773160942623 0 -0.015358187617936253 0.0036149427704940985 0 -0.015674916820950551 0.0032463374450592344 0 -0.014999972418036836 0.0024092200626144415 0 -0.015345967423813785 0.0028088565700541729 0 -0.015000013269932704 0.0032873010644010846 0 -0.015345967423813785 0.0028088565700541729 0 -0.015000013269932704 0.0032873010644010846 0 -0.015750204209859137 0.0031439396284562763 0 -0.015000375228421516 0.0032871541645417561 0 -0.015565203054412577 0.0034036086953367814 0 -0.015643536084499123 0.0048834868642666559 0 -0.015745435658433789 0.0047099134571620569 0 -0.015757121710114196 0.004859587091578319 0 -0.015715818698746421 0.0021809070681168426 0 -0.015708309336647932 0.0024166361010986687 0 -0.015559126925218211 0.0025601938567028164 0 -0.015523444861030989 0.003824343613162323 0 -0.015565203054412577 0.0034036086953367814 0 -0.015708309336647932 0.0024166361010986687 0 -0.015807849728073739 0.0025165828531878262 0 -0.015559126925218211 0.0025601938567028164 0 -0.00052375689584159926 0.0071410972519985599 0 -0.00021441467860151654 0.0069107894503441661 0 -0.00069525139038697343 0.0068038919256821311 0 -0.00052375689584159926 0.0071410972519985599 0 -0.00015916458305413481 0.0073095262634490302 0 -0.00021441467860151654 0.0069107894503441661 0 -0.00052375689584159926 0.0071410972519985599 0 -0.00069525139038697343 0.0068038919256821311 0 -0.00087769497728825373 0.0070381134160808533 0 -0.00052375689584159926 0.0071410972519985599 0 -0.00077561975305329297 0.0072989978667875478 0 -0.00046289114374986785 0.007465253837903329 0 -0.00052375689584159926 0.0071410972519985599 0 -0.00015916458305413481 0.0073095262634490302 0 -0.00046289114374986785 0.007465253837903329 0 0.00013734103985245152 0.0071880950794135784 0 -0.00021441467860151654 0.0069107894503441661 0 0.00030779479458816633 0.0068376972156202103 0 -0.00015916458305413481 0.0073095262634490302 0 0.00013734103985245152 0.0071880950794135784 0 8.1764532525878156e-05 0.0075240805625141184 0 -0.00015916458305413481 0.0073095262634490302 0 0.00013734103985245152 0.0071880950794135784 0 -0.00021441467860151654 0.0069107894503441661 0 -0.00021441467860151654 0.0069107894503441661 0 0.00030779479458816633 0.0068376972156202103 0 -0.00014436668622994886 0.0064720271335873105 0 -0.00040256703609105543 0.0064733345078264648 0 -0.00059155050724518199 0.0077053918715592213 0 -0.001863196203511218 0.0098792797775013406 0 -0.00059155050724518199 0.0077053918715592213 0 -0.00021441467860151654 0.0069107894503441661 0 -0.00069525139038697343 0.0068038919256821311 0 -0.00014436668622994886 0.0064720271335873105 0 -0.00069525139038697343 0.0068038919256821311 0 -0.00077927160568475886 0.0065974228104498239 0 -0.00027146557005663702 0.0065372180182406885 0 -0.001863196203511218 0.0098792797775013406 0 -0.0019198353086303593 0.0088958674988841285 0 -0.0025547069193763297 0.011160679836380914 0 -0.0032981497947416555 0.011195600757555477 0 -0.0027127662619170264 0.010989625512795646 0 -0.00077927160568475886 0.0065974228104498239 0 -0.0015183264751997137 0.006757621516882817 0 -0.0012429611898913959 0.0068624722881659274 0 -0.00096987350535382248 0.0068599380295908787 0 -0.0012429611898913959 0.0068624722881659274 0 -0.0011376468370043237 0.0069729219789730961 0 -0.00077927160568475886 0.0065974228104498239 0 -0.00096987350535382248 0.0068599380295908787 0 -0.0012429611898913959 0.0068624722881659274 0 -0.00069525139038697343 0.0068038919256821311 0 -0.00096987350535382248 0.0068599380295908787 0 -0.00087769497728825373 0.0070381134160808533 0 -0.00069525139038697343 0.0068038919256821311 0 -0.00077927160568475886 0.0065974228104498239 0 -0.00096987350535382248 0.0068599380295908787 0 -0.0034067544575434833 0.011024847011513676 0 -0.0032981497947416555 0.011195600757555477 0 -0.0027127662619170264 0.010989625512795646 0 -0.0033526031887953097 0.011228928741622353 0 -0.0028445549058948943 0.010986530330478212 0 -0.0015183264751997137 0.006757621516882817 0 -0.0012429611898913959 0.0068624722881659274 0 -0.0015721649826320565 0.0069347229049741572 0 -0.0012429611898913959 0.0068624722881659274 0 -0.0015721649826320565 0.0069347229049741572 0 -0.0014244721137609221 0.0069976763000649698 0 -0.0015183264751997137 0.006757621516882817 0 -0.0015721649826320565 0.0069347229049741572 0 -0.0017175617362547974 0.0069816311073406766 0 -0.0014244721137609221 0.0069976763000649698 0 -0.0017092916267643862 0.0071362843123443653 0 -0.0011398918457907273 0.007190565855348904 0 -0.0015721649826320565 0.0069347229049741572 0 -0.0014244721137609221 0.0069976763000649698 0 -0.0017092916267643862 0.0071362843123443653 0 -0.0014244721137609221 0.0069976763000649698 0 -0.0011376468370043237 0.0069729219789730961 0 -0.0011398918457907273 0.007190565855348904 0 -0.0012429611898913959 0.0068624722881659274 0 -0.0014244721137609221 0.0069976763000649698 0 -0.0011376468370043237 0.0069729219789730961 0 -0.00096987350535382248 0.0068599380295908787 0 -0.00087769497728825373 0.0070381134160808533 0 -0.0011376468370043237 0.0069729219789730961 0 -0.00087769497728825373 0.0070381134160808533 0 -0.0011376468370043237 0.0069729219789730961 0 -0.0011398918457907273 0.007190565855348904 0 -0.00052375689584159926 0.0071410972519985599 0 -0.00087769497728825373 0.0070381134160808533 0 -0.00077561975305329297 0.0072989978667875478 0 -0.00087769497728825373 0.0070381134160808533 0 -0.0011398918457907273 0.007190565855348904 0 -0.00077561975305329297 0.0072989978667875478 0 -0.00077561975305329297 0.0072989978667875478 0 -0.00096570880118269334 0.0077822668804979084 0 -0.00046289114374986785 0.007465253837903329 0 -0.0011398918457907273 0.007190565855348904 0 -0.00077561975305329297 0.0072989978667875478 0 -0.00096570880118269334 0.0077822668804979084 0 -0.0017252203415214296 0.0071453018899929688 0 -0.0017288836275851586 0.0072235544942584025 0 -0.0017092916267643862 0.0071362843123443653 0 -0.0011398918457907273 0.007190565855348904 0 -0.00096570880118269334 0.0077822668804979084 0 -0.0017092916267643862 0.0071362843123443653 0 -0.002480704548158256 0.0067162755851200894 0 -0.0019214651777158514 0.0068405455413854408 0 -0.002480704548158256 0.0067162755851200894 0 -0.0019214651777158514 0.0068405455413854408 0 -0.0017571257754362796 0.0064220630775937669 0 -0.002480704548158256 0.0067162755851200894 0 -0.0017571257754362796 0.0064220630775937669 0 -0.0026070424008740553 0.0058969391707354218 0 -0.002480704548158256 0.0067162755851200894 0 -0.0032588459465374077 0.0060087579659368773 0 -0.0026070424008740553 0.0058969391707354218 0 -0.000294206088553004 0.0077763738055764446 0 -5.7786349568828994e-05 0.0079894840953725361 0 -0.0002219845524027625 0.0081670891166737095 0 -0.0017288836275851586 0.0072235544942584025 0 -0.0017222725130089497 0.0070812051159401569 0 -0.00096570880118269334 0.0077822668804979084 0 -0.000294206088553004 0.0077763738055764446 0 -0.0002219845524027625 0.0081670891166737095 0 -0.00015916458305413481 0.0073095262634490302 0 -0.000294206088553004 0.0077763738055764446 0 -0.00046289114374986785 0.007465253837903329 0 -0.00096570880118269334 0.0077822668804979084 0 -0.000294206088553004 0.0077763738055764446 0 -0.00046289114374986785 0.007465253837903329 0 -0.00015916458305413481 0.0073095262634490302 0 -0.000294206088553004 0.0077763738055764446 0 8.1764532525878156e-05 0.0075240805625141184 0 -0.000294206088553004 0.0077763738055764446 0 8.1764532525878156e-05 0.0075240805625141184 0 0.00017130909866894757 0.0079260191361060009 0 -5.7786349568828994e-05 0.0079894840953725361 0 0.00017130909866894757 0.0079260191361060009 0 0.00015736188542066865 0.0080782042466392857 0 -0.000294206088553004 0.0077763738055764446 0 -5.7786349568828994e-05 0.0079894840953725361 0 0.00017130909866894757 0.0079260191361060009 0 0.00017130909866894757 0.0079260191361060009 0 0.00034536652720272391 0.0080418510025441273 0 0.00046114767748233338 0.0080178791463215524 0 0.00017130909866894757 0.0079260191361060009 0 0.00034536652720272391 0.0080418510025441273 0 0.00015736188542066865 0.0080782042466392857 0 0.00045810722492288638 0.0080488171765008137 0 0.00075862835175291652 0.0085482825077536073 0 0.00034536652720272391 0.0080418510025441273 0 0.00046114767748233338 0.0080178791463215524 0 0.00030081047576587097 0.0080929864639740622 0 0.00046114767748233338 0.0080178791463215524 0 0.0012871799568623021 0.0081167794246825454 0 0.00069674455148689685 0.0077081781890947472 0 0.00046114767748233338 0.0080178791463215524 0 0.00031960191593219622 0.0077095190473540258 0 0.00069674455148689685 0.0077081781890947472 0 8.1764532525878156e-05 0.0075240805625141184 0 0.00017130909866894757 0.0079260191361060009 0 0.00052400851045545282 0.0073450093975662295 0 0.00018646001624119424 0.0079020782742612854 0 0.00042034380991286149 0.007530386300913205 0 0.00017130909866894757 0.0079260191361060009 0 0.00046114767748233338 0.0080178791463215524 0 0.00031960191593219622 0.0077095190473540258 0 0.002287376105456367 0.0088424769275705396 0 0.0012871799568623021 0.0081167794246825454 0 0.0012044773461195254 0.0090103561985005846 0 0.00046114767748233338 0.0080178791463215524 0 0.0012871799568623021 0.0081167794246825454 0 0.0012044773461195254 0.0090103561985005846 0 0.0012871799568623021 0.0081167794246825454 0 0.0010836384835399067 0.0075293987185319705 0 0.00069674455148689685 0.0077081781890947472 0 0.0021375463867195068 0.0075823991967700578 0 0.0012871799568623021 0.0081167794246825454 0 0.0010836384835399067 0.0075293987185319705 0 0.002287376105456367 0.0088424769275705396 0 0.0021375463867195068 0.0075823991967700578 0 0.0012871799568623021 0.0081167794246825454 0 0.0021513584750006863 0.0077777514973324854 0 0.002202112906358768 0.0069418406504731158 0 0.0015935874946821096 0.0071751710246610242 0 0.0021513584750006863 0.0077777514973324854 0 0.0010836384835399067 0.0075293987185319705 0 0.0015935874946821096 0.0071751710246610242 0 0.0021348712773518533 0.0076764831394515124 0 0.0011517521522775417 0.007542879171783267 0 0.0010836384835399067 0.0075293987185319705 0 0.0012228145666245002 0.0069462381507715849 0 0.00077894928766153416 0.007018008522118189 0 0.0012228145666245002 0.0069462381507715849 0 0.00077894928766153416 0.007018008522118189 0 0.0012792682135498233 0.0064566782353547257 0 0.0012228145666245002 0.0069462381507715849 0 0.0015935874946821096 0.0071751710246610242 0 0.0014217382573839309 0.0066566260131538111 0 0.0010836384835399067 0.0075293987185319705 0 0.0012228145666245002 0.0069462381507715849 0 0.0015935874946821096 0.0071751710246610242 0 0.002202112906358768 0.0069418406504731158 0 0.0015935874946821096 0.0071751710246610242 0 0.0014217382573839309 0.0066566260131538111 0 0.00013734103985245152 0.0071880950794135784 0 8.1764532525878156e-05 0.0075240805625141184 0 0.00052400851045545282 0.0073450093975662295 0 0.00052400851045545282 0.0073450093975662295 0 0.00086857744974658442 0.0067800468931798127 0 0.00030779479458816633 0.0068376972156202103 0 0.00013734103985245152 0.0071880950794135784 0 0.00052400851045545282 0.0073450093975662295 0 0.00030779479458816633 0.0068376972156202103 0 0.00042034380991286149 0.007530386300913205 0 0.00083668985661847998 0.0068836404671871691 0 0.0010836384835399067 0.0075293987185319705 0 0.00069674455148689685 0.0077081781890947472 0 0.00077894928766153416 0.007018008522118189 0 0.00031960191593219622 0.0077095190473540258 0 0.00069674455148689685 0.0077081781890947472 0 0.00077894928766153416 0.007018008522118189 0 0.00086857744974658442 0.0067800468931798127 0 0.00030779479458816633 0.0068376972156202103 0 0.00054301448783776864 0.0063530519351362698 0 0.00030779479458816633 0.0068376972156202103 0 0.00054301448783776864 0.0063530519351362698 0 -0.00014436668622994886 0.0064720271335873105 0 0.00040584120637137463 0.0069613374212656237 0 0.00030499901013643062 0.0066077960485316067 0 -0.00052115075759948495 0.0071601692926348635 0 0.00054516981619117213 0.0065549499077311012 0 -0.00059155050724518199 0.0077053918715592213 0 -0.00025536807874266366 0.0087464709097811386 0 -0.00059155050724518199 0.0077053918715592213 0 0.00086857744974658442 0.0067800468931798127 0 0.00054301448783776864 0.0063530519351362698 0 0.0012136285026326478 0.0062270817053769563 0 0.00040584120637137463 0.0069613374212656237 0 0.0009417330071933511 0.0066631905533445536 0 0.00078456475715333999 0.0065639417261635826 0 0.00054516981619117213 0.0065549499077311012 0 0.0012024688899755812 0.00646651072260109 0 0.00040584120637137463 0.0069613374212656237 0 0.0009417330071933511 0.0066631905533445536 0 0.0012472097316762916 0.0067535648483723525 0 0.00040584120637137463 0.0069613374212656237 0 0.00078456475715333999 0.0065639417261635826 0 0.00030499901013643062 0.0066077960485316067 0 -0.00068361400535101079 0.010075959904124908 0 -0.0005777195651743397 0.01045582109050334 0 0.00029399543830664247 0.0099988895759324774 0 -0.00025536807874266366 0.0087464709097811386 0 0.00072525340061995326 0.0080348163656594855 0 0.00078456475715333999 0.0065639417261635826 0 0.00030499901013643062 0.0066077960485316067 0 0.0010905013848890154 0.0061466139116500415 0 0.00078456475715333999 0.0065639417261635826 0 0.0010890654611520772 0.0064545169873553949 0 0.0010905013848890154 0.0061466139116500415 0 0.0009417330071933511 0.0066631905533445536 0 0.00078456475715333999 0.0065639417261635826 0 0.0010890654611520772 0.0064545169873553949 0 -0.00068361400535101079 0.010075959904124908 0 -0.00052339923078595797 0.0097027640984205608 0 -0.0010908028541228181 0.010097379245527919 0 -0.00068361400535101079 0.010075959904124908 0 -0.0005777195651743397 0.01045582109050334 0 -0.0010908028541228181 0.010097379245527919 0 0.001940658156783265 0.0065357633896720195 0 0.0013741144749225298 0.0064843900670476518 0 0.0014217382573839309 0.0066566260131538111 0 0.0021810793681273626 0.0063279293550741996 0 0.0014723178018335693 0.0066373579865879511 0 0.002202112906358768 0.0069418406504731158 0 0.0024336501734790912 0.0061133131580888116 0 0.0014217382573839309 0.0066566260131538111 0 0.0012228145666245002 0.0069462381507715849 0 0.0014217382573839309 0.0066566260131538111 0 0.0012792682135498233 0.0064566782353547257 0 0.00083668985661847998 0.0068836404671871691 0 0.0012024688899755812 0.00646651072260109 0 0.0013741144749225298 0.0064843900670476518 0 0.0014217382573839309 0.0066566260131538111 0 0.0012792682135498233 0.0064566782353547257 0 0.0013741144749225298 0.0064843900670476518 0 0.0013247154134529246 0.0064926590265273866 0 0.0014255283323733237 0.0063673915574631928 0 0.0012566834585533353 0.0064617644833049395 0 0.0012024688899755812 0.00646651072260109 0 0.0009417330071933511 0.0066631905533445536 0 0.0012472097316762916 0.0067535648483723525 0 0.0011776904518407778 0.0065787986143813941 0 0.0011776904518407778 0.0065787986143813941 0 0.0010890654611520772 0.0064545169873553949 0 0.0014255283323733237 0.0063673915574631928 0 0.0009417330071933511 0.0066631905533445536 0 0.0011776904518407778 0.0065787986143813941 0 0.0010890654611520772 0.0064545169873553949 0 0.0010890654611520772 0.0064545169873553949 0 0.0010905013848890154 0.0061466139116500415 0 0.0014255283323733237 0.0063673915574631928 0 0.0012472097316762916 0.0067535648483723525 0 0.0011776904518407778 0.0065787986143813941 0 0.0014255283323733237 0.0063673915574631928 0 0.0012024688899755812 0.00646651072260109 0 0.0013580056034720421 0.0064236657194938589 0 0.001940658156783265 0.0065357633896720195 0 0.0014255283323733237 0.0063673915574631928 0 0.0017715884147343553 0.0062168141015096221 0 0.001940658156783265 0.0065357633896720195 0 0.0013741144749225298 0.0064843900670476518 0 0.0014255283323733237 0.0063673915574631928 0 0.0014255283323733237 0.0063673915574631928 0 0.0017715884147343553 0.0062168141015096221 0 0.0016453180594263718 0.0058534913687266705 0 0.0010905013848890154 0.0061466139116500415 0 0.0014255283323733237 0.0063673915574631928 0 0.0016453180594263718 0.0058534913687266705 0 0.00072525340061995326 0.0080348163656594855 0 0.0014334443885310635 0.0076603319426521606 0 0.00029399543830664247 0.0099988895759324774 0 0.0012440450260723186 0.009461342175009841 0 0.0001531729212882215 0.0093944164239238466 0 0.0011428918962872775 0.0085304806319016092 0 0.00028862145645301907 0.0086964814972482624 0 0.0012440450260723186 0.009461342175009841 0 0.00028862145645301907 0.0086964814972482624 0 0.0012440450260723186 0.009461342175009841 0 0.0001531729212882215 0.0093944164239238466 0 0.0021721911990547787 0.0088811756723196338 0 0.0011428918962872775 0.0085304806319016092 0 0.0012440450260723186 0.009461342175009841 0 -0.00052339923078595797 0.0097027640984205608 0 -0.00049693737451450017 0.0091551763250766211 0 -0.0013086349507564587 0.0094989809757971694 0 -0.00068361400535101079 0.010075959904124908 0 0.00029399543830664247 0.0099988895759324774 0 -0.00052339923078595797 0.0097027640984205608 0 0.00029399543830664247 0.0099988895759324774 0 -0.00052339923078595797 0.0097027640984205608 0 0.0001531729212882215 0.0093944164239238466 0 -0.00052339923078595797 0.0097027640984205608 0 0.0001531729212882215 0.0093944164239238466 0 -0.00049693737451450017 0.0091551763250766211 0 -0.00098493314745749924 0.0085642138003113738 0 0.00028862145645301907 0.0086964814972482624 0 -0.00049693737451450017 0.0091551763250766211 0 0.00028862145645301907 0.0086964814972482624 0 0.0001531729212882215 0.0093944164239238466 0 -0.00049693737451450017 0.0091551763250766211 0 -0.00098493314745749924 0.0085642138003113738 0 -0.00049693737451450017 0.0091551763250766211 0 -0.0013086349507564587 0.0094989809757971694 0 -0.0018753750447318229 0.0086696653982917052 0 -0.00098493314745749924 0.0085642138003113738 0 -0.0015617281841522424 0.0094284700857081606 0 -0.0010163286774796578 0.0086290590057301227 0 -0.0013974977011517072 0.0093844520637458781 0 -0.0018753750447318229 0.0086696653982917052 0 -0.0015617281841522424 0.0094284700857081606 0 -0.0026417882443618723 0.0090351573147415577 0 -0.0025917065347857474 0.0082859642779549696 0 -0.0018753750447318229 0.0086696653982917052 0 -0.0026417882443618723 0.0090351573147415577 0 -0.0024669284886332989 0.0097516921344759748 0 -0.0015617281841522424 0.0094284700857081606 0 -0.0026417882443618723 0.0090351573147415577 0 -0.0024669284886332989 0.0097516921344759748 0 -0.0015617281841522424 0.0094284700857081606 0 -0.0020738007758050992 0.010314240122508462 0 -0.00052339923078595797 0.0097027640984205608 0 -0.0013086349507564587 0.0094989809757971694 0 -0.0010908028541228181 0.010097379245527919 0 -0.0013974977011517072 0.0093844520637458781 0 -0.0019595269018669336 0.010554273099890181 0 -0.0013086349507564587 0.0094989809757971694 0 -0.0010908028541228181 0.010097379245527919 0 -0.0016315756900803077 0.010289056044666392 0 -0.0010908028541228181 0.010097379245527919 0 -0.0016315756900803077 0.010289056044666392 0 -0.0013207267746669852 0.010876912134698295 0 -0.0024669284886332989 0.0097516921344759748 0 -0.0020738007758050992 0.010314240122508462 0 -0.0026775343853088079 0.010404312504926535 0 -0.0019750520162095603 0.010987415459828035 0 -0.0016315756900803077 0.010289056044666392 0 -0.0013207267746669852 0.010876912134698295 0 -0.0020738007758050992 0.010314240122508462 0 -0.0027127662619170264 0.010989625512795646 0 -0.0026775343853088079 0.010404312504926535 0 -0.0025547069193763297 0.011160679836380914 0 -0.0020738007758050992 0.010314240122508462 0 -0.0027127662619170264 0.010989625512795646 0 -0.001863196203511218 0.0098792797775013406 0 -0.0019595269018669336 0.010554273099890181 0 -0.0005777195651743397 0.01045582109050334 0 -0.0010908028541228181 0.010097379245527919 0 -0.0013207267746669852 0.010876912134698295 0 -0.0036569987101547287 0.011227013181375424 0 -0.0032804835439017989 0.010820631605001633 0 -0.0027127662619170264 0.010989625512795646 0 -0.0032804835439017989 0.010820631605001633 0 -0.0029963542952521106 0.010667237770857152 0 -0.003322954246320454 0.010450977115685855 0 -0.0037541045168575904 0.010733198166033278 0 -0.0032804835439017989 0.010820631605001633 0 -0.003322954246320454 0.010450977115685855 0 -0.0036569987101547287 0.011227013181375424 0 -0.0037541045168575904 0.010733198166033278 0 -0.0032804835439017989 0.010820631605001633 0 -0.0032804835439017989 0.010820631605001633 0 -0.0027127662619170264 0.010989625512795646 0 -0.0029963542952521106 0.010667237770857152 0 -0.0029963542952521106 0.010667237770857152 0 -0.0026775343853088079 0.010404312504926535 0 -0.003322954246320454 0.010450977115685855 0 -0.0027127662619170264 0.010989625512795646 0 -0.0029963542952521106 0.010667237770857152 0 -0.0026775343853088079 0.010404312504926535 0 -0.0026775343853088079 0.010404312504926535 0 -0.003322954246320454 0.010450977115685855 0 -0.0032945756886092487 0.0097141266938881813 0 -0.0024669284886332989 0.0097516921344759748 0 -0.0026775343853088079 0.010404312504926535 0 -0.0032945756886092487 0.0097141266938881813 0 -0.0037541045168575904 0.010733198166033278 0 -0.003322954246320454 0.010450977115685855 0 -0.0039894112009117673 0.010116921176163474 0 -0.003322954246320454 0.010450977115685855 0 -0.0032945756886092487 0.0097141266938881813 0 -0.0039894112009117673 0.010116921176163474 0 -0.0024669284886332989 0.0097516921344759748 0 -0.0032945756886092487 0.0097141266938881813 0 -0.0026417882443618723 0.0090351573147415577 0 -0.0032945756886092487 0.0097141266938881813 0 -0.0026417882443618723 0.0090351573147415577 0 -0.0036724612677743345 0.0089308257192618427 0 -0.0034198235456312574 0.0082589580633511787 0 -0.0026417882443618723 0.0090351573147415577 0 -0.0036724612677743345 0.0089308257192618427 0 -0.0045866161341380106 0.0082679200250407436 0 -0.0036724612677743345 0.0089308257192618427 0 -0.0043974697408779633 0.0092554322905138847 0 -0.0032945756886092487 0.0097141266938881813 0 -0.0043974697408779633 0.0092554322905138847 0 -0.0039894112009117673 0.010116921176163474 0 -0.0032945756886092487 0.0097141266938881813 0 -0.0036724612677743345 0.0089308257192618427 0 -0.0043974697408779633 0.0092554322905138847 0 -0.0043974697408779633 0.0092554322905138847 0 -0.0054057519995102015 0.009424258868036179 0 -0.004997622823541879 0.010434276876300799 0 -0.0045866161341380106 0.0082679200250407436 0 -0.0043974697408779633 0.0092554322905138847 0 -0.0054057519995102015 0.009424258868036179 0 -0.005850987925165428 0.0082783195504287643 0 -0.0057034812926905635 0.0088653705066926453 0 -0.0058441072757295341 0.0082351412416951895 0 -0.0045866161341380106 0.0082679200250407436 0 -0.0054057519995102015 0.009424258868036179 0 -0.0058441072757295341 0.0082351412416951895 0 -0.0062510800791071392 0.0083734282422154235 0 -0.0059987724293530699 0.0083750337209788431 0 -0.0058441072757295341 0.0082351412416951895 0 -0.0062510800791071392 0.0083734282422154235 0 -0.0063364389422150133 0.0080928836394945497 0 -0.0062510800791071392 0.0083734282422154235 0 -0.0059987724293530699 0.0083750337209788431 0 -0.0061421088765881799 0.0085541733779215378 0 -0.0057034812926905635 0.0088653705066926453 0 -0.0054474163830102312 0.0095852726160052248 0 -0.0059987724293530699 0.0083750337209788431 0 -0.0061421088765881799 0.0085541733779215378 0 -0.0059564867727072233 0.008601523697963161 0 -0.0062510800791071392 0.0083734282422154235 0 -0.0061421088765881799 0.0085541733779215378 0 -0.0063720053078981272 0.0085822892905671189 0 -0.0061421088765881799 0.0085541733779215378 0 -0.0062978445214642662 0.0087461206264388032 0 -0.0063720053078981272 0.0085822892905671189 0 -0.0061421088765881799 0.0085541733779215378 0 -0.0062978445214642662 0.0087461206264388032 0 -0.0060265318949005277 0.008772647229132513 0 -0.0061421088765881799 0.0085541733779215378 0 -0.0060265318949005277 0.008772647229132513 0 -0.0059564867727072233 0.008601523697963161 0 -0.0044550834188092012 0.010944855395518371 0 -0.0042295767560141164 0.010679939915031628 0 -0.004997622823541879 0.010434276876300799 0 -0.0054474163830102312 0.0095852726160052248 0 -0.0053857271169154902 0.0098445736028926478 0 -0.0060265318949005277 0.008772647229132513 0 -0.0059564867727072233 0.008601523697963161 0 -0.0058508876696864451 0.0088743686274702967 0 -0.0044550834188092012 0.010944855395518371 0 -0.004997622823541879 0.010434276876300799 0 -0.0046183793326268008 0.011410694469278129 0 -0.0044550834188092012 0.010944855395518371 0 -0.0040553846682356157 0.011031384750150305 0 -0.0046183793326268008 0.011410694469278129 0 -0.0044550834188092012 0.010944855395518371 0 -0.0040553846682356157 0.011031384750150305 0 -0.0042295767560141164 0.010679939915031628 0 -0.0037541045168575904 0.010733198166033278 0 -0.0040553846682356157 0.011031384750150305 0 -0.0042295767560141164 0.010679939915031628 0 -0.0036569987101547287 0.011227013181375424 0 -0.0037541045168575904 0.010733198166033278 0 -0.0040553846682356157 0.011031384750150305 0 -0.0037541045168575904 0.010733198166033278 0 -0.0042295767560141164 0.010679939915031628 0 -0.0039894112009117673 0.010116921176163474 0 -0.0042295767560141164 0.010679939915031628 0 -0.0039894112009117673 0.010116921176163474 0 -0.004997622823541879 0.010434276876300799 0 -0.0043974697408779633 0.0092554322905138847 0 -0.0039894112009117673 0.010116921176163474 0 -0.004997622823541879 0.010434276876300799 0 -0.0074361856979272669 0.0079942701173104404 0 -0.0070975031622830531 0.008318225012983434 0 -0.0073991100201766047 0.0078714633694782765 0 -0.0070697856686653656 0.0083421437726526777 0 -0.007324315520975744 0.0083990707133504549 0 -0.0074349789144940222 0.0081409229345908128 0 -0.0070697856686653656 0.0083421437726526777 0 -0.0071112977845867566 0.0080487031976277986 0 -0.0072284859395179901 0.0078613813376315934 0 -0.0074349789144940222 0.0081409229345908128 0 -0.0071112977845867566 0.0080487031976277986 0 -0.0072284859395179901 0.0078613813376315934 0 -0.0074349050188265604 0.0077618871262244375 0 -0.0074349789144940222 0.0081409229345908128 0 -0.0070697856686653656 0.0083421437726526777 0 -0.0071112977845867566 0.0080487031976277986 0 -0.0068648872050776138 0.0080623255170056852 0 -0.0070406734670700371 0.0078196628346921138 0 -0.0071112977845867566 0.0080487031976277986 0 -0.0068648872050776138 0.0080623255170056852 0 -0.0070697856686653656 0.0083421437726526777 0 -0.0068648872050776138 0.0080623255170056852 0 -0.0066279997430717498 0.0082310156968315642 0 -0.0070697856686653656 0.0083421437726526777 0 -0.0066279997430717498 0.0082310156968315642 0 -0.0066093349105999918 0.0084702651085875134 0 -0.0066408516941810465 0.0079906707057907402 0 -0.0068648872050776138 0.0080623255170056852 0 -0.0066279997430717498 0.0082310156968315642 0 -0.0066408516941810465 0.0079906707057907402 0 -0.0066279997430717498 0.0082310156968315642 0 -0.0063364389422150133 0.0080928836394945497 0 -0.0062510800791071392 0.0083734282422154235 0 -0.0066279997430717498 0.0082310156968315642 0 -0.0063364389422150133 0.0080928836394945497 0 -0.0062510800791071392 0.0083734282422154235 0 -0.0066279997430717498 0.0082310156968315642 0 -0.0066093349105999918 0.0084702651085875134 0 -0.0063720053078981272 0.0085822892905671189 0 -0.0066325365573309371 0.0087133606652214177 0 -0.0066093349105999918 0.0084702651085875134 0 -0.0062510800791071392 0.0083734282422154235 0 -0.0063720053078981272 0.0085822892905671189 0 -0.0066093349105999918 0.0084702651085875134 0 -0.0062978445214642662 0.0087461206264388032 0 -0.0063720053078981272 0.0085822892905671189 0 -0.0066325365573309371 0.0087133606652214177 0 -0.0066325365573309371 0.0087133606652214177 0 -0.0068751200403404178 0.0085662880273457628 0 -0.0069902143657598614 0.0087086696086198304 0 -0.0066325365573309371 0.0087133606652214177 0 -0.0066093349105999918 0.0084702651085875134 0 -0.0068751200403404178 0.0085662880273457628 0 -0.0070697856686653656 0.0083421437726526777 0 -0.0068751200403404178 0.0085662880273457628 0 -0.0071381070136615115 0.0085403031451405809 0 -0.0070697856686653656 0.0083421437726526777 0 -0.0066093349105999918 0.0084702651085875134 0 -0.0068751200403404178 0.0085662880273457628 0 -0.0068751200403404178 0.0085662880273457628 0 -0.0071381070136615115 0.0085403031451405809 0 -0.0069902143657598614 0.0087086696086198304 0 -0.0072112994992600413 0.0086553361067035067 0 -0.0071381070136615115 0.0085403031451405809 0 -0.0069902143657598614 0.0087086696086198304 0 -0.0073894425011045402 0.0085181597536468402 0 -0.0072112994992600413 0.0086553361067035067 0 -0.0071381070136615115 0.0085403031451405809 0 -0.0070697856686653656 0.0083421437726526777 0 -0.007324315520975744 0.0083990707133504549 0 -0.0071381070136615115 0.0085403031451405809 0 -0.0073894425011045402 0.0085181597536468402 0 -0.007324315520975744 0.0083990707133504549 0 -0.0071381070136615115 0.0085403031451405809 0 -0.0072852410927588132 0.0087384468986787221 0 -0.0072219016932232802 0.0088853202581532301 0 -0.0070887036756326427 0.0087924018179376395 0 -0.0072219016932232802 0.0088853202581532301 0 -0.0070887036756326427 0.0087924018179376395 0 -0.0070107150997636147 0.0089037390746090003 0 -0.0072852410927588132 0.0087384468986787221 0 -0.0072112994992600413 0.0086553361067035067 0 -0.0070887036756326427 0.0087924018179376395 0 -0.0072112994992600413 0.0086553361067035067 0 -0.0070887036756326427 0.0087924018179376395 0 -0.0069902143657598614 0.0087086696086198304 0 -0.0070887036756326427 0.0087924018179376395 0 -0.0069902143657598614 0.0087086696086198304 0 -0.006903789304345616 0.0088335897012129828 0 -0.0070887036756326427 0.0087924018179376395 0 -0.006903789304345616 0.0088335897012129828 0 -0.0070107150997636147 0.0089037390746090003 0 -0.0068879600805668304 0.008829130435625273 0 -0.0066085483428929975 0.0088067290278181914 0 -0.006903789304345616 0.0088335897012129828 0 -0.0067947574499688107 0.0086639777138538109 0 -0.0068716572635896611 0.0087678578603850501 0 -0.0066325365573309371 0.0087133606652214177 0 -0.0069902143657598614 0.0087086696086198304 0 -0.006903789304345616 0.0088335897012129828 0 -0.0066325365573309371 0.0087133606652214177 0 -0.006903789304345616 0.0088335897012129828 0 -0.0065221938915450599 0.0089327057837319205 0 -0.0062978445214642662 0.0087461206264388032 0 -0.0066325365573309371 0.0087133606652214177 0 -0.0065221938915450599 0.0089327057837319205 0 -0.0068185932330119053 0.0086612058671140923 0 -0.0067947574499688107 0.0086639777138538109 0 -0.0068716572635896611 0.0087678578603850501 0 -0.0068716572635896611 0.0087678578603850501 0 -0.00685269688609928 0.0088186791861832384 0 -0.0067880494684776308 0.0087729974802098105 0 -0.0068185932330119053 0.0086612058671140923 0 -0.0068716572635896611 0.0087678578603850501 0 -0.0067880494684776308 0.0087729974802098105 0 -0.00685269688609928 0.0088186791861832384 0 -0.0067880494684776308 0.0087729974802098105 0 -0.0068334214946683238 0.0088755449198633478 0 -0.0065036192869362642 0.0080508775268507068 0 -0.0067461581636855984 0.0074580708192897322 0 -0.00685269688609928 0.0088186791861832384 0 -0.0069153587652965838 0.0088585136941001837 0 -0.0068334214946683238 0.0088755449198633478 0 -0.0068716572635896611 0.0087678578603850501 0 -0.00685269688609928 0.0088186791861832384 0 -0.0069153587652965838 0.0088585136941001837 0 -0.0074494962384567742 0.0086710862968631761 0 -0.0067461581636855984 0.0074580708192897322 0 -0.0078664555015819718 0.008288988303066569 0 -0.00780579731673411 0.0082369858248494965 0 -0.0078716101943178476 0.0081956236942492527 0 -0.0068716572635896611 0.0087678578603850501 0 -0.0069153587652965838 0.0088585136941001837 0 -0.0069234984584178932 0.0088362255093431055 0 -0.006903789304345616 0.0088335897012129828 0 -0.0068716572635896611 0.0087678578603850501 0 -0.0069234984584178932 0.0088362255093431055 0 -0.006903789304345616 0.0088335897012129828 0 -0.0069234984584178932 0.0088362255093431055 0 -0.0070107150997636147 0.0089037390746090003 0 -0.0069153587652965838 0.0088585136941001837 0 -0.0069234984584178932 0.0088362255093431055 0 -0.0070107150997636147 0.0089037390746090003 0 -0.0074494962384567742 0.0086710862968631761 0 -0.0073866908152611863 0.0086485486329764757 0 -0.0078664555015819718 0.008288988303066569 0 -0.0077655093323953954 0.0084098750429627105 0 -0.00780579731673411 0.0082369858248494965 0 -0.0077655093323953954 0.0084098750429627105 0 -0.0077098260494568036 0.00826077092694694 0 -0.00780579731673411 0.0082369858248494965 0 -0.0076166210907852557 0.0083634735404309983 0 -0.0077655093323953954 0.0084098750429627105 0 -0.0077098260494568036 0.00826077092694694 0 -0.0076234247296195091 0.0082754178268243106 0 -0.0076166210907852557 0.0083634735404309983 0 -0.0077098260494568036 0.00826077092694694 0 -0.0074148289896597223 0.0087293965316299436 0 -0.0073866908152611863 0.0086485486329764757 0 -0.0076122807315950891 0.0085864172186518768 0 -0.0076166210907852557 0.0083634735404309983 0 -0.0077655093323953954 0.0084098750429627105 0 -0.0079437588938901585 0.0084449630338250103 0 -0.0077735879952708989 0.0081365686991881365 0 -0.0085145639615600757 0.0079101416757138762 0 -0.0074901018095613458 0.0085278401574129421 0 -0.0081163942388095024 0.0089502971104021192 0 -0.0070572199195927283 0.0086907790441818865 0 -0.0079437588938901585 0.0084449630338250103 0 -0.0081163942388095024 0.0089502971104021192 0 -0.0085145639615600757 0.0079101416757138762 0 -0.0079437588938901585 0.0084449630338250103 0 -0.0074901018095613458 0.0085278401574129421 0 -0.0081163942388095024 0.0089502971104021192 0 -0.0074901018095613458 0.0085278401574129421 0 -0.0077735879952708989 0.0081365686991881365 0 -0.0072855200242932464 0.0082727343507198493 0 -0.0079437588938901585 0.0084449630338250103 0 -0.0074901018095613458 0.0085278401574129421 0 -0.0077735879952708989 0.0081365686991881365 0 -0.0017175617362547974 0.0069816311073406766 0 -0.0019124163995522384 0.006964133125358902 0 -0.0016709432048255424 0.0070711981591852578 0 -0.0051175196091355624 0.008522482264100472 0 -0.0051158926208422131 0.0073591023744463335 0 -0.0017092916267643862 0.0071362843123443653 0 -0.0017175617362547974 0.0069816311073406766 0 -0.0016709432048255424 0.0070711981591852578 0 -0.0015721649826320565 0.0069347229049741572 0 -0.0017092916267643862 0.0071362843123443653 0 -0.0017175617362547974 0.0069816311073406766 0 -0.0015183264751997137 0.006757621516882817 0 -0.0017175617362547974 0.0069816311073406766 0 -0.0019124163995522384 0.006964133125358902 0 -0.0033526031887953097 0.011228928741622353 0 -0.0053857271169154902 0.0098445736028926478 0 -0.0034067544575434833 0.011024847011513676 0 -0.0032981497947416555 0.011195600757555477 0 -0.0041043692858907252 0.011301363773864035 0 -0.0019198353086303593 0.0088958674988841285 0 -0.0051175196091355624 0.008522482264100472 0 -0.0034067544575434833 0.011024847011513676 0 -0.0041741986376249663 0.011120518992136142 0 -0.0041043692858907252 0.011301363773864035 0 -0.0036569987101547287 0.011227013181375424 0 -0.0040553846682356157 0.011031384750150305 0 -0.0046183793326268008 0.011410694469278129 0 -0.0072462383604209868 0.0088049255571833272 0 -0.007263283616562824 0.0087496083251847392 0 -0.0070572199195927283 0.0086907790441818865 0 -0.0051175196091355624 0.008522482264100472 0 -0.0081078389982868135 0.0088782549870202541 0 -0.0053857271169154902 0.0098445736028926478 0 -0.0051175196091355624 0.008522482264100472 0 -0.0053857271169154902 0.0098445736028926478 0 -0.0067915163831063149 0.0087383193149791275 0 -0.0062978445214642662 0.0087461206264388032 0 -0.0060265318949005277 0.008772647229132513 0 -0.0061617800320565583 0.0089233613134315545 0 -0.0060265318949005277 0.008772647229132513 0 -0.0058508876696864451 0.0088743686274702967 0 -0.0061617800320565583 0.0089233613134315545 0 -0.0072462383604209868 0.0088049255571833272 0 -0.0069611772354407457 0.0087362579043912467 0 -0.0070572199195927283 0.0086907790441818865 0 -0.0062978445214642662 0.0087461206264388032 0 -0.0065221938915450599 0.0089327057837319205 0 -0.0061617800320565583 0.0089233613134315545 0 -0.0066085483428929975 0.0088067290278181914 0 -0.0067915163831063149 0.0087383193149791275 0 -0.0067947574499688107 0.0086639777138538109 0 -0.0069611772354407457 0.0087362579043912467 0 -0.0068170144332631985 0.0085070945446047708 0 -0.0068185932330119053 0.0086612058671140923 0 -0.0067947574499688107 0.0086639777138538109 0 -0.0068170144332631985 0.0085070945446047708 0 -0.0074901018095613458 0.0085278401574129421 0 -0.0070572199195927283 0.0086907790441818865 0 -0.0072855200242932464 0.0082727343507198493 0 -0.0068170144332631985 0.0085070945446047708 0 -0.0070572199195927283 0.0086907790441818865 0 -0.0072855200242932464 0.0082727343507198493 0 -0.0069611772354407457 0.0087362579043912467 0 -0.0068170144332631985 0.0085070945446047708 0 -0.0070572199195927283 0.0086907790441818865 0 -0.0068170144332631985 0.0085070945446047708 0 -0.0072855200242932464 0.0082727343507198493 0 -0.0070777004631528383 0.0078234684340028771 0 -0.0072855200242932464 0.0082727343507198493 0 -0.0070777004631528383 0.0078234684340028771 0 -0.0075419558820381911 0.0076951191370404548 0 -0.0070777004631528383 0.0078234684340028771 0 -0.0062589539288100109 0.0073122097111143801 0 -0.007248894117166409 0.0072115904316886071 0 -0.0070777004631528383 0.0078234684340028771 0 -0.007248894117166409 0.0072115904316886071 0 -0.0075419558820381911 0.0076951191370404548 0 -0.007248894117166409 0.0072115904316886071 0 -0.0078329791729637305 0.0070881623666550105 0 -0.0075419558820381911 0.0076951191370404548 0 -0.0068170144332631985 0.0085070945446047708 0 -0.0070777004631528383 0.0078234684340028771 0 -0.0062589539288100109 0.0073122097111143801 0 -0.0067991290469193392 0.0084909642283627455 0 -0.0065036192869362642 0.0080508775268507068 0 -0.0068185932330119053 0.0086612058671140923 0 -0.0068170144332631985 0.0085070945446047708 0 -0.0067880494684776308 0.0087729974802098105 0 -0.0062589539288100109 0.0073122097111143801 0 -0.0066137032594986035 0.0062548437631237 0 -0.005841252763191784 0.0062466086879964505 0 -0.0062589539288100109 0.0073122097111143801 0 -0.0070314013364185593 0.0066774442724335022 0 -0.0066137032594986035 0.0062548437631237 0 -0.0062589539288100109 0.0073122097111143801 0 -0.007248894117166409 0.0072115904316886071 0 -0.0070314013364185593 0.0066774442724335022 0 -0.007248894117166409 0.0072115904316886071 0 -0.0075665032232414891 0.0065492503384583711 0 -0.0078329791729637305 0.0070881623666550105 0 -0.007248894117166409 0.0072115904316886071 0 -0.0070314013364185593 0.0066774442724335022 0 -0.0075665032232414891 0.0065492503384583711 0 -0.0070314013364185593 0.0066774442724335022 0 -0.0075665032232414891 0.0065492503384583711 0 -0.0071889471100995122 0.0062406696131742318 0 -0.0078329791729637305 0.0070881623666550105 0 -0.0083422619101885132 0.0071609563491565817 0 -0.0083490098015981101 0.0062756208429213083 0 -0.0075665032232414891 0.0065492503384583711 0 -0.0078329791729637305 0.0070881623666550105 0 -0.0083490098015981101 0.0062756208429213083 0 -0.0077735879952708989 0.0081365686991881365 0 -0.0080173221094357629 0.0076261306865811488 0 -0.0085145639615600757 0.0079101416757138762 0 -0.0078329791729637305 0.0070881623666550105 0 -0.0080173221094357629 0.0076261306865811488 0 -0.0075419558820381911 0.0076951191370404548 0 -0.0078329791729637305 0.0070881623666550105 0 -0.0080173221094357629 0.0076261306865811488 0 -0.0083422619101885132 0.0071609563491565817 0 -0.0077735879952708989 0.0081365686991881365 0 -0.0080173221094357629 0.0076261306865811488 0 -0.0075419558820381911 0.0076951191370404548 0 -0.0077735879952708989 0.0081365686991881365 0 -0.0072855200242932464 0.0082727343507198493 0 -0.0075419558820381911 0.0076951191370404548 0 -0.0085145639615600757 0.0079101416757138762 0 -0.0088604868012366177 0.0068560408717308115 0 -0.0083422619101885132 0.0071609563491565817 0 -0.0019214651777158514 0.0068405455413854408 0 -0.0016709432048255424 0.0070711981591852578 0 -0.0017571257754362796 0.0064220630775937669 0 -0.0051158926208422131 0.0073591023744463335 0 -0.0052947562820275648 0.0066759005784632003 0 -0.0017092916267643862 0.0071362843123443653 0 -0.0019214651777158514 0.0068405455413854408 0 -0.0016709432048255424 0.0070711981591852578 0 -0.0080173221094357629 0.0076261306865811488 0 -0.0085145639615600757 0.0079101416757138762 0 -0.0083422619101885132 0.0071609563491565817 0 -0.0088604868012366177 0.0068560408717308115 0 -0.0083422619101885132 0.0071609563491565817 0 -0.0083490098015981101 0.0062756208429213083 0 -0.0083490098015981101 0.0062756208429213083 0 -0.0087518342270156684 0.0054503278287830921 0 -0.0091515947535688019 0.0058598896278816218 0 -0.0088604868012366177 0.0068560408717308115 0 -0.0083490098015981101 0.0062756208429213083 0 -0.0091515947535688019 0.0058598896278816218 0 -0.0083490098015981101 0.0062756208429213083 0 -0.0087518342270156684 0.0054503278287830921 0 -0.0081197182589021078 0.0055471459961505872 0 -0.0087518342270156684 0.0054503278287830921 0 -0.0083710807660210274 0.0051254148333629065 0 -0.0081197182589021078 0.0055471459961505872 0 -0.0087518342270156684 0.0054503278287830921 0 -0.0083710807660210274 0.0051254148333629065 0 -0.0087728165436009638 0.0049379559795966277 0 -0.0081197182589021078 0.0055471459961505872 0 -0.0075784768373871204 0.0055027195974440913 0 -0.0078168052889383572 0.0050255411149013772 0 -0.0083710807660210274 0.0051254148333629065 0 -0.0081197182589021078 0.0055471459961505872 0 -0.0078168052889383572 0.0050255411149013772 0 -0.0081197182589021078 0.0055471459961505872 0 -0.0075784768373871204 0.0055027195974440913 0 -0.0076770346666405363 0.0059787529828807676 0 -0.0075665032232414891 0.0065492503384583711 0 -0.0083490098015981101 0.0062756208429213083 0 -0.0076770346666405363 0.0059787529828807676 0 -0.0083490098015981101 0.0062756208429213083 0 -0.0081197182589021078 0.0055471459961505872 0 -0.0076770346666405363 0.0059787529828807676 0 -0.0075665032232414891 0.0065492503384583711 0 -0.0076770346666405363 0.0059787529828807676 0 -0.0071889471100995122 0.0062406696131742318 0 -0.0070314013364185593 0.0066774442724335022 0 -0.0071889471100995122 0.0062406696131742318 0 -0.0066137032594986035 0.0062548437631237 0 -0.0071889471100995122 0.0062406696131742318 0 -0.0070463221012139719 0.0057545717976565016 0 -0.0066137032594986035 0.0062548437631237 0 -0.0076770346666405363 0.0059787529828807676 0 -0.0071889471100995122 0.0062406696131742318 0 -0.0070463221012139719 0.0057545717976565016 0 -0.0075784768373871204 0.0055027195974440913 0 -0.0076770346666405363 0.0059787529828807676 0 -0.0070463221012139719 0.0057545717976565016 0 -0.0066137032594986035 0.0062548437631237 0 -0.0062764354577080237 0.0059732610665049072 0 -0.005841252763191784 0.0062466086879964505 0 -0.0070463221012139719 0.0057545717976565016 0 -0.0066137032594986035 0.0062548437631237 0 -0.006529815150672553 0.0057209191354520754 0 -0.0066137032594986035 0.0062548437631237 0 -0.0062764354577080237 0.0059732610665049072 0 -0.006529815150672553 0.0057209191354520754 0 -0.0062764354577080237 0.0059732610665049072 0 -0.006529815150672553 0.0057209191354520754 0 -0.0061805347248368343 0.0057144131967083941 0 -0.006529815150672553 0.0057209191354520754 0 -0.0063534414671979353 0.0054193167603960018 0 -0.0067433431455488167 0.0053369582160345611 0 -0.006529815150672553 0.0057209191354520754 0 -0.0063534414671979353 0.0054193167603960018 0 -0.0061805347248368343 0.0057144131967083941 0 -0.0070463221012139719 0.0057545717976565016 0 -0.006529815150672553 0.0057209191354520754 0 -0.0067433431455488167 0.0053369582160345611 0 -0.0067433431455488167 0.0053369582160345611 0 -0.0065128196036946945 0.0050849582636465253 0 -0.006801277499955646 0.0048567627372922278 0 -0.0063534414671979353 0.0054193167603960018 0 -0.0067433431455488167 0.0053369582160345611 0 -0.0065128196036946945 0.0050849582636465253 0 -0.0065128196036946945 0.0050849582636465253 0 -0.0062958786531947426 0.0051691195640548287 0 -0.0062192896511299341 0.0049428101075028527 0 -0.0063534414671979353 0.0054193167603960018 0 -0.0065128196036946945 0.0050849582636465253 0 -0.0062958786531947426 0.0051691195640548287 0 -0.0075784768373871204 0.0055027195974440913 0 -0.0070463221012139719 0.0057545717976565016 0 -0.0072318126562874556 0.005221259044692503 0 -0.0070463221012139719 0.0057545717976565016 0 -0.0067433431455488167 0.0053369582160345611 0 -0.0072318126562874556 0.005221259044692503 0 -0.0067433431455488167 0.0053369582160345611 0 -0.0072318126562874556 0.005221259044692503 0 -0.006801277499955646 0.0048567627372922278 0 -0.0075784768373871204 0.0055027195974440913 0 -0.0072318126562874556 0.005221259044692503 0 -0.0078168052889383572 0.0050255411149013772 0 -0.0072318126562874556 0.005221259044692503 0 -0.0072570587067629123 0.0047367006519287271 0 -0.0078168052889383572 0.0050255411149013772 0 -0.0072570587067629123 0.0047367006519287271 0 -0.0069588777841359259 0.0045806613349335772 0 -0.006801277499955646 0.0048567627372922278 0 -0.0072318126562874556 0.005221259044692503 0 -0.0072570587067629123 0.0047367006519287271 0 -0.006801277499955646 0.0048567627372922278 0 -0.0069588777841359259 0.0045806613349335772 0 -0.0067159113143577644 0.0043813875611710103 0 -0.0071693502141836566 0.00437306798312457 0 -0.0072570587067629123 0.0047367006519287271 0 -0.0069588777841359259 0.0045806613349335772 0 -0.0071693502141836566 0.00437306798312457 0 -0.0072570587067629123 0.0047367006519287271 0 -0.0071693502141836566 0.00437306798312457 0 -0.0076623568788667653 0.0044909366464472448 0 -0.0065128196036946945 0.0050849582636465253 0 -0.0064633240883214364 0.0046723401310337408 0 -0.0062192896511299341 0.0049428101075028527 0 -0.0065128196036946945 0.0050849582636465253 0 -0.0064633240883214364 0.0046723401310337408 0 -0.006801277499955646 0.0048567627372922278 0 -0.0064633240883214364 0.0046723401310337408 0 -0.006801277499955646 0.0048567627372922278 0 -0.0067159113143577644 0.0043813875611710103 0 -0.0069588777841359259 0.0045806613349335772 0 -0.006801277499955646 0.0048567627372922278 0 -0.0067159113143577644 0.0043813875611710103 0 -0.0064633240883214364 0.0046723401310337408 0 -0.0067159113143577644 0.0043813875611710103 0 -0.0062452847387625609 0.0043690268165369308 0 -0.0067159113143577644 0.0043813875611710103 0 -0.006385693944239778 0.0040921074373730494 0 -0.0070156065272487895 0.0040719788779245295 0 -0.006385693944239778 0.0040921074373730494 0 -0.0070156065272487895 0.0040719788779245295 0 -0.0066705714336487542 0.0037844581527667572 0 -0.0067159113143577644 0.0043813875611710103 0 -0.006385693944239778 0.0040921074373730494 0 -0.0062452847387625609 0.0043690268165369308 0 -0.0075043257153328555 0.0041395167593693714 0 -0.0070156065272487895 0.0040719788779245295 0 -0.007669450868164303 0.0037133398344240428 0 -0.0070156065272487895 0.0040719788779245295 0 -0.007669450868164303 0.0037133398344240428 0 -0.0066705714336487542 0.0037844581527667572 0 -0.0075043257153328555 0.0041395167593693714 0 -0.0071693502141836566 0.00437306798312457 0 -0.0070156065272487895 0.0040719788779245295 0 -0.0075043257153328555 0.0041395167593693714 0 -0.0071693502141836566 0.00437306798312457 0 -0.0076623568788667653 0.0044909366464472448 0 -0.0067159113143577644 0.0043813875611710103 0 -0.0071693502141836566 0.00437306798312457 0 -0.0070156065272487895 0.0040719788779245295 0 -0.0075043257153328555 0.0041395167593693714 0 -0.0079897175707290026 0.0040558278724432623 0 -0.007669450868164303 0.0037133398344240428 0 -0.0079897175707290026 0.0040558278724432623 0 -0.0085044587493030982 0.0036927974367810513 0 -0.007669450868164303 0.0037133398344240428 0 -0.0075043257153328555 0.0041395167593693714 0 -0.0079897175707290026 0.0040558278724432623 0 -0.0076623568788667653 0.0044909366464472448 0 -0.0080940311673346269 0.0043606711794449858 0 -0.0055211495135090577 0.0039063765414390442 0 -0.0079897175707290026 0.0040558278724432623 0 -0.0085113549517809792 0.0043769338397559553 0 -0.0085044587493030982 0.0036927974367810513 0 -0.0082167092547271656 0.004167648205012889 0 -0.0080940311673346269 0.0043606711794449858 0 -0.0079897175707290026 0.0040558278724432623 0 -0.0082237983518911682 0.0047191519174934055 0 -0.0087575433326190014 0.0044881753420373252 0 -0.0082237983518911682 0.0047191519174934055 0 -0.0087575433326190014 0.0044881753420373252 0 -0.0087728165436009638 0.0049379559795966277 0 -0.0080940311673346269 0.0043606711794449858 0 -0.0085153957944096824 0.0048427026038498876 0 -0.0083710807660210274 0.0051254148333629065 0 -0.0082237983518911682 0.0047191519174934055 0 -0.0087728165436009638 0.0049379559795966277 0 -0.0083710807660210274 0.0051254148333629065 0 -0.0082237983518911682 0.0047191519174934055 0 -0.0078168052889383572 0.0050255411149013772 0 -0.0079897175707290026 0.0040558278724432623 0 -0.0082237983518911682 0.0047191519174934055 0 -0.0076623568788667653 0.0044909366464472448 0 -0.0082237983518911682 0.0047191519174934055 0 -0.0078168052889383572 0.0050255411149013772 0 -0.0076623568788667653 0.0044909366464472448 0 -0.0072570587067629123 0.0047367006519287271 0 -0.0078168052889383572 0.0050255411149013772 0 -0.0076623568788667653 0.0044909366464472448 0 -0.0074006011186153855 0.0028864178753546348 0 -0.0069810896540393429 0.0036322533923842863 0 -0.0069456446337144125 0.0033776219142397706 0 -0.0077220437469570679 0.0037304624485401177 0 -0.00801901386200966 0.0032962480194927385 0 -0.0069810896540393429 0.0036322533923842863 0 -0.0085995473103847603 0.0042386643107883062 0 -0.0069604799892638933 0.0031424532049560165 0 -0.0075214549718618318 0.0027611659671563922 0 -0.0069456446337144125 0.0033776219142397706 0 -0.0061491405644411301 0.0029430035477588158 0 -0.0069810896540393429 0.0036322533923842863 0 -0.0069456446337144125 0.0033776219142397706 0 -0.0063524683784663789 0.0035287352738745371 0 -0.0076801594576676154 0.005055383511804159 0 -0.007372462825028063 0.002989313078701609 0 -0.0076271760373958202 0.0081700000411251781 0 -0.0077098260494568036 0.00826077092694694 0 -0.0077902203211604642 0.0081425039140444969 0 -0.0076801594576676154 0.005055383511804159 0 -0.0069267643769902977 0.0056040040255719986 0 -0.0076234247296195091 0.0082754178268243106 0 -0.0076271760373958202 0.0081700000411251781 0 -0.0077098260494568036 0.00826077092694694 0 -0.0077098260494568036 0.00826077092694694 0 -0.00780579731673411 0.0082369858248494965 0 -0.0077902203211604642 0.0081425039140444969 0 -0.00780579731673411 0.0082369858248494965 0 -0.0077902203211604642 0.0081425039140444969 0 -0.0078716101943178476 0.0081956236942492527 0 -0.0061491405644411301 0.0029430035477588158 0 -0.0063524683784663789 0.0035287352738745371 0 -0.0058290145659290202 0.0035252797590185053 0 -0.0061491405644411301 0.0029430035477588158 0 -0.0058290145659290202 0.0035252797590185053 0 -0.0055842415088074911 0.0033642247955438351 0 -0.0069810896540393429 0.0036322533923842863 0 -0.0063524683784663789 0.0035287352738745371 0 -0.0059791863457814452 0.0039998574325491301 0 -0.0069456446337144125 0.0033776219142397706 0 -0.0061491405644411301 0.0029430035477588158 0 -0.0063524683784663789 0.0035287352738745371 0 -0.0063524683784663789 0.0035287352738745371 0 -0.0058290145659290202 0.0035252797590185053 0 -0.0059791863457814452 0.0039998574325491301 0 -0.0061491405644411301 0.0029430035477588158 0 -0.0055842415088074911 0.0033642247955438351 0 -0.005024194662669206 0.0031763557217044818 0 -0.0058290145659290202 0.0035252797590185053 0 -0.005363213637572758 0.0037606087483241847 0 -0.0059791863457814452 0.0039998574325491301 0 -0.0058290145659290202 0.0035252797590185053 0 -0.005363213637572758 0.0037606087483241847 0 -0.0055842415088074911 0.0033642247955438351 0 -0.005421065792282645 0.0040800120795603098 0 -0.006585940278879425 0.0055645983416827104 0 -0.005363213637572758 0.0037606087483241847 0 -0.0055842415088074911 0.0033642247955438351 0 -0.005024194662669206 0.0031763557217044818 0 -0.0078664555015819718 0.008288988303066569 0 -0.0078716101943178476 0.0081956236942492527 0 -0.0079629578889330328 0.0081935231607263345 0 -0.0069267643769902977 0.0056040040255719986 0 -0.006585940278879425 0.0055645983416827104 0 -0.0077902203211604642 0.0081425039140444969 0 -0.0078716101943178476 0.0081956236942492527 0 -0.0079261605989729145 0.0081155882523961838 0 -0.006004853504358117 0.0061380469196373926 0 -0.0059200094619365077 0.00556197834938741 0 -0.0057788150738409764 0.0055790756477206152 0 -0.0067461581636855984 0.0074580708192897322 0 -0.006585940278879425 0.0055645983416827104 0 -0.0078716101943178476 0.0081956236942492527 0 -0.0079629578889330328 0.0081935231607263345 0 -0.0079261605989729145 0.0081155882523961838 0 -0.0065163627591393377 0.0066056136179191696 0 -0.0067461581636855984 0.0074580708192897322 0 -0.006004853504358117 0.0061380469196373926 0 -0.0061805347248368343 0.0057144131967083941 0 -0.0059200094619365077 0.00556197834938741 0 -0.0062764354577080237 0.0059732610665049072 0 -0.006004853504358117 0.0061380469196373926 0 -0.0061805347248368343 0.0057144131967083941 0 -0.0063534414671979353 0.0054193167603960018 0 -0.0061805347248368343 0.0057144131967083941 0 -0.0060993840075493503 0.0054793900636240928 0 -0.0063534414671979353 0.0054193167603960018 0 -0.0060993840075493503 0.0054793900636240928 0 -0.0061040174936226625 0.0052586720028869839 0 -0.0060993840075493503 0.0054793900636240928 0 -0.0059702009238111952 0.0053948272810564694 0 -0.0061040174936226625 0.0052586720028869839 0 -0.0060993840075493503 0.0054793900636240928 0 -0.0059200094619365077 0.00556197834938741 0 -0.0059702009238111952 0.0053948272810564694 0 -0.0061805347248368343 0.0057144131967083941 0 -0.0060993840075493503 0.0054793900636240928 0 -0.0059200094619365077 0.00556197834938741 0 -0.0063342973937515609 0.0055851177944639813 0 -0.006585940278879425 0.0055645983416827104 0 -0.0059200094619365077 0.00556197834938741 0 -0.0058853125808282676 0.0054431996780978948 0 -0.0057857571763336706 0.0055615642227871331 0 -0.0059200094619365077 0.00556197834938741 0 -0.0058853125808282676 0.0054431996780978948 0 -0.0059702009238111952 0.0053948272810564694 0 -0.0059702009238111952 0.0053948272810564694 0 -0.0058672221612326853 0.005257778363241896 0 -0.0061040174936226625 0.0052586720028869839 0 -0.0058853125808282676 0.0054431996780978948 0 -0.0057857571763336706 0.0055615642227871331 0 -0.0058672221612326853 0.005257778363241896 0 -0.0058853125808282676 0.0054431996780978948 0 -0.0059702009238111952 0.0053948272810564694 0 -0.0058672221612326853 0.005257778363241896 0 -0.0056506544037546709 0.0048559729391784625 0 -0.0057857571763336706 0.0055615642227871331 0 -0.0058672221612326853 0.005257778363241896 0 -0.0058672221612326853 0.005257778363241896 0 -0.0060725281046022477 0.0050642579226687174 0 -0.0059359284631452383 0.0048967024450593489 0 -0.0056506544037546709 0.0048559729391784625 0 -0.0058672221612326853 0.005257778363241896 0 -0.0059359284631452383 0.0048967024450593489 0 -0.0060725281046022477 0.0050642579226687174 0 -0.0062192896511299341 0.0049428101075028527 0 -0.0059359284631452383 0.0048967024450593489 0 -0.0060725281046022477 0.0050642579226687174 0 -0.0062958786531947426 0.0051691195640548287 0 -0.0062192896511299341 0.0049428101075028527 0 -0.0063534414671979353 0.0054193167603960018 0 -0.0062958786531947426 0.0051691195640548287 0 -0.0061040174936226625 0.0052586720028869839 0 -0.0060725281046022477 0.0050642579226687174 0 -0.0062958786531947426 0.0051691195640548287 0 -0.0061040174936226625 0.0052586720028869839 0 -0.0058672221612326853 0.005257778363241896 0 -0.0060725281046022477 0.0050642579226687174 0 -0.0061040174936226625 0.0052586720028869839 0 -0.0056506544037546709 0.0048559729391784625 0 -0.0060207463005318143 0.0045870847403729686 0 -0.0058856809967921721 0.0042290048171593911 0 -0.006230332544795783 0.0046747000319437241 0 -0.0062192896511299341 0.0049428101075028527 0 -0.0059359284631452383 0.0048967024450593489 0 -0.006230332544795783 0.0046747000319437241 0 -0.0059359284631452383 0.0048967024450593489 0 -0.0060207463005318143 0.0045870847403729686 0 -0.0064633240883214364 0.0046723401310337408 0 -0.006230332544795783 0.0046747000319437241 0 -0.0062192896511299341 0.0049428101075028527 0 -0.0056506544037546709 0.0048559729391784625 0 -0.0059359284631452383 0.0048967024450593489 0 -0.0060207463005318143 0.0045870847403729686 0 -0.0060207463005318143 0.0045870847403729686 0 -0.0062452847387625609 0.0043690268165369308 0 -0.0058856809967921721 0.0042290048171593911 0 -0.006230332544795783 0.0046747000319437241 0 -0.0060207463005318143 0.0045870847403729686 0 -0.0062452847387625609 0.0043690268165369308 0 -0.0064633240883214364 0.0046723401310337408 0 -0.006230332544795783 0.0046747000319437241 0 -0.0062452847387625609 0.0043690268165369308 0 -0.006385693944239778 0.0040921074373730494 0 -0.0058294494344436959 0.0039224206742399228 0 -0.0066705714336487542 0.0037844581527667572 0 -0.0058932769905585287 0.0039051334747895942 0 -0.0062177514019138378 0.0038395882630075182 0 -0.006385693944239778 0.0040921074373730494 0 -0.0062452847387625609 0.0043690268165369308 0 -0.0060604513776747445 0.0041104710240025995 0 -0.006385693944239778 0.0040921074373730494 0 -0.0058294494344436959 0.0039224206742399228 0 -0.0060604513776747445 0.0041104710240025995 0 -0.0058294494344436959 0.0039224206742399228 0 -0.0058823617465561494 0.0040777265353376842 0 -0.0060604513776747445 0.0041104710240025995 0 -0.0062452847387625609 0.0043690268165369308 0 -0.0060604513776747445 0.0041104710240025995 0 -0.0058856809967921721 0.0042290048171593911 0 -0.0058823617465561494 0.0040777265353376842 0 -0.0060604513776747445 0.0041104710240025995 0 -0.0058856809967921721 0.0042290048171593911 0 -0.0058856809967921721 0.0042290048171593911 0 -0.0057826738338164095 0.0040481404733811559 0 -0.005664027956230896 0.0042055128703628866 0 -0.0058823617465561494 0.0040777265353376842 0 -0.0058856809967921721 0.0042290048171593911 0 -0.0057826738338164095 0.0040481404733811559 0 -0.0058294494344436959 0.0039224206742399228 0 -0.0057826738338164095 0.0040481404733811559 0 -0.0057730073909973006 0.0039040452301771344 0 -0.0058294494344436959 0.0039224206742399228 0 -0.0058823617465561494 0.0040777265353376842 0 -0.0057826738338164095 0.0040481404733811559 0 -0.0057826738338164095 0.0040481404733811559 0 -0.0057583251830317945 0.0040250473787980714 0 -0.0057730073909973006 0.0039040452301771344 0 -0.0057826738338164095 0.0040481404733811559 0 -0.0057583251830317945 0.0040250473787980714 0 -0.005664027956230896 0.0042055128703628866 0 -0.0056506544037546709 0.0048559729391784625 0 -0.0058856809967921721 0.0042290048171593911 0 -0.005664027956230896 0.0042055128703628866 0 -0.005363213637572758 0.0037606087483241847 0 -0.005664027956230896 0.0042055128703628866 0 -0.0059791863457814452 0.0039998574325491301 0 -0.005421065792282645 0.0040800120795603098 0 -0.0056487530898932945 0.0043262982765991977 0 -0.005664027956230896 0.0042055128703628866 0 -0.0059791863457814452 0.0039998574325491301 0 -0.0058395420360753559 0.0040698916121463414 0 -0.0058395420360753559 0.0040698916121463414 0 -0.0058211520499885441 0.0040200820223641638 0 -0.0058661656563731837 0.0040062711339901138 0 -0.0059791863457814452 0.0039998574325491301 0 -0.0058395420360753559 0.0040698916121463414 0 -0.0058661656563731837 0.0040062711339901138 0 -0.0057583251830317945 0.0040250473787980714 0 -0.005664027956230896 0.0042055128703628866 0 -0.0058395420360753559 0.0040698916121463414 0 -0.0057583251830317945 0.0040250473787980714 0 -0.0058395420360753559 0.0040698916121463414 0 -0.0058211520499885441 0.0040200820223641638 0 -0.0059791863457814452 0.0039998574325491301 0 -0.007424763765266071 0.0050899148372578534 0 -0.0075689925799797171 0.0042419433278646562 0 -0.0059923710101595189 0.0040141968021127333 0 -0.0066736321793278777 0.0045485922982094629 0 -0.0069810896540393429 0.0036322533923842863 0 -0.0059791863457814452 0.0039998574325491301 0 -0.0075689925799797171 0.0042419433278646562 0 -0.0077220437469570679 0.0037304624485401177 0 -0.0069810896540393429 0.0036322533923842863 0 -0.0075689925799797171 0.0042419433278646562 0 -0.0056230106548087041 0.0039824694706548508 0 -0.0058637386240568438 0.0040988483525915484 0 -0.005988192598499891 0.0039763954021195206 0 -0.0058911884698540215 0.0040256621222518824 0 -0.0058637386240568438 0.0040988483525915484 0 -0.005988192598499891 0.0039763954021195206 0 -0.0058911884698540215 0.0040256621222518824 0 -0.0058637386240568438 0.0040988483525915484 0 -0.0058459667985535004 0.0040340850643825399 0 -0.0058211520499885441 0.0040200820223641638 0 -0.0058661656563731837 0.0040062711339901138 0 -0.0058459667985535004 0.0040340850643825399 0 -0.0058661656563731837 0.0040062711339901138 0 -0.0058637386240568438 0.0040988483525915484 0 -0.0058459667985535004 0.0040340850643825399 0 -0.0058459667985535004 0.0040340850643825399 0 -0.0057948665402210737 0.0039754451354979655 0 -0.0058318639619349445 0.0039906382747546673 0 -0.0058211520499885441 0.0040200820223641638 0 -0.0058459667985535004 0.0040340850643825399 0 -0.0057948665402210737 0.0039754451354979655 0 -0.0057583251830317945 0.0040250473787980714 0 -0.0058211520499885441 0.0040200820223641638 0 -0.0057948665402210737 0.0039754451354979655 0 -0.0057948665402210737 0.0039754451354979655 0 -0.0058318639619349445 0.0039906382747546673 0 -0.0057452663287857961 0.0039366599883650915 0 -0.0058911884698540215 0.0040256621222518824 0 -0.0058459667985535004 0.0040340850643825399 0 -0.0058318639619349445 0.0039906382747546673 0 -0.0058911884698540215 0.0040256621222518824 0 -0.0058656739168542115 0.0040094835463433398 0 -0.005988192598499891 0.0039763954021195206 0 -0.0058911884698540215 0.0040256621222518824 0 -0.0058318639619349445 0.0039906382747546673 0 -0.0058656739168542115 0.0040094835463433398 0 -0.0058318639619349445 0.0039906382747546673 0 -0.0058656739168542115 0.0040094835463433398 0 -0.0057479438525350349 0.0040052898572174086 0 -0.0057479438525350349 0.0040052898572174086 0 -0.0055985150885570116 0.0039226229892745891 0 -0.0054933634235908258 0.0040227265523660434 0 -0.0057479438525350349 0.0040052898572174086 0 -0.0057452663287857961 0.0039366599883650915 0 -0.0055985150885570116 0.0039226229892745891 0 -0.0058318639619349445 0.0039906382747546673 0 -0.0057479438525350349 0.0040052898572174086 0 -0.0057452663287857961 0.0039366599883650915 0 -0.0057948665402210737 0.0039754451354979655 0 -0.0057452663287857961 0.0039366599883650915 0 -0.0057730073909973006 0.0039040452301771344 0 -0.0057583251830317945 0.0040250473787980714 0 -0.0057948665402210737 0.0039754451354979655 0 -0.0057730073909973006 0.0039040452301771344 0 -0.0057452663287857961 0.0039366599883650915 0 -0.0056521873748413658 0.0038930266019467472 0 -0.0055985150885570116 0.0039226229892745891 0 -0.0057452663287857961 0.0039366599883650915 0 -0.0057730073909973006 0.0039040452301771344 0 -0.0056521873748413658 0.0038930266019467472 0 -0.0058294494344436959 0.0039224206742399228 0 -0.0057730073909973006 0.0039040452301771344 0 -0.0059304081983274828 0.0038596971184746615 0 -0.0056521873748413658 0.0038930266019467472 0 -0.0055171473957962569 0.0038401226905626978 0 -0.0055985150885570116 0.0039226229892745891 0 -0.0058294494344436959 0.0039224206742399228 0 -0.0059344644344682326 0.0038724923970659465 0 -0.0059304081983274828 0.0038596971184746615 0 -0.0057730073909973006 0.0039040452301771344 0 -0.0056521873748413658 0.0038930266019467472 0 -0.0055171473957962569 0.0038401226905626978 0 -0.0057730073909973006 0.0039040452301771344 0 -0.0055171473957962569 0.0038401226905626978 0 -0.0052760411683748119 0.0036985315032577134 0 -0.0057564628533194892 0.0038813030135688357 0 -0.0055624865057556537 0.0037924246857870391 0 -0.0055171473957962569 0.0038401226905626978 0 -0.0053648159705730189 0.0038965216402323064 0 -0.0052760411683748119 0.0036985315032577134 0 -0.0055171473957962569 0.0038401226905626978 0 -0.0053648159705730189 0.0038965216402323064 0 -0.0055985150885570116 0.0039226229892745891 0 -0.0053648159705730189 0.0038965216402323064 0 -0.0055985150885570116 0.0039226229892745891 0 -0.0054933634235908258 0.0040227265523660434 0 -0.0053648159705730189 0.0038965216402323064 0 -0.0054933634235908258 0.0040227265523660434 0 -0.0052142405269131973 0.0040403312075612046 0 -0.0054933634235908258 0.0040227265523660434 0 -0.0054066829032337962 0.0042189337668322958 0 -0.0056851900107354114 0.004105170549908034 0 -0.0054933634235908258 0.0040227265523660434 0 -0.0054066829032337962 0.0042189337668322958 0 -0.0052142405269131973 0.0040403312075612046 0 -0.0054066829032337962 0.0042189337668322958 0 -0.0056851900107354114 0.004105170549908034 0 -0.0054663079596897314 0.0045911911647642349 0 -0.0056872026781768659 0.0043346228879347897 0 -0.0054253896874096163 0.0038976541302451007 0 -0.0054066829032337962 0.0042189337668322958 0 -0.0051465631872578063 0.0043625649958340153 0 -0.0054663079596897314 0.0045911911647642349 0 -0.0056851900107354114 0.004105170549908034 0 -0.0058321318749700642 0.0040852488668122171 0 -0.005830661830745861 0.0042321741485450122 0 -0.0056851900107354114 0.004105170549908034 0 -0.005830661830745861 0.0042321741485450122 0 -0.0057206396576181756 0.004262263113447985 0 -0.0056851900107354114 0.004105170549908034 0 -0.0057206396576181756 0.004262263113447985 0 -0.0056245092856871872 0.0042858951184713339 0 -0.0057479438525350349 0.0040052898572174086 0 -0.0054933634235908258 0.0040227265523660434 0 -0.0056851900107354114 0.004105170549908034 0 -0.0057479438525350349 0.0040052898572174086 0 -0.0056851900107354114 0.004105170549908034 0 -0.0058321318749700642 0.0040852488668122171 0 -0.0058321318749700642 0.0040852488668122171 0 -0.005830661830745861 0.0042321741485450122 0 -0.005988192598499891 0.0039763954021195206 0 -0.0058656739168542115 0.0040094835463433398 0 -0.0057479438525350349 0.0040052898572174086 0 -0.0058321318749700642 0.0040852488668122171 0 -0.0058656739168542115 0.0040094835463433398 0 -0.0058321318749700642 0.0040852488668122171 0 -0.005988192598499891 0.0039763954021195206 0 -0.0061593498934632892 0.0038853474600346704 0 -0.0060171527369964522 0.0039513134610226104 0 -0.0057132030467644786 0.0037148718149609431 0 -0.0059994911682466207 0.0033615955304649083 0 -0.005988192598499891 0.0039763954021195206 0 -0.0065052122089827163 0.0034456196966887757 0 -0.0059994911682466207 0.0033615955304649083 0 -0.005988192598499891 0.0039763954021195206 0 -0.0047857467109646036 0.0038184430081410663 0 -0.0047845268369799045 0.0038952072401718485 0 -0.0047566321729671877 0.0038882167952756885 0 -0.005865423782286442 0.0039116915851776027 0 -0.0057068225756683431 0.0039612151026925495 0 -0.0057865874984224745 0.0038819459521437605 0 -0.0054859724027846862 0.0039426308791263662 0 -0.0044671892386546411 0.0032331870674529362 0 -0.0044671892386546411 0.0032331870674529362 0 -0.0055211495135090577 0.0039063765414390442 0 -0.0055211495135090577 0.0039063765414390442 0 -0.0071056586694874541 0.0037511537920689227 0 -0.005712485885970538 0.0038333310869479316 0 -0.0057865874984224745 0.0038819459521437605 0 -0.005857178702608011 0.0038379622207503779 0 -0.0057068225756683431 0.0039612151026925495 0 -0.005712485885970538 0.0038333310869479316 0 -0.0057865874984224745 0.0038819459521437605 0 -0.005865423782286442 0.0039116915851776027 0 -0.0057865874984224745 0.0038819459521437605 0 -0.005857178702608011 0.0038379622207503779 0 -0.005857178702608011 0.0038379622207503779 0 -0.0059002746993017368 0.0038717317640319473 0 -0.0059344644344682326 0.0038724923970659465 0 -0.0054859724027846862 0.0039426308791263662 0 -0.0055624865057556537 0.0037924246857870391 0 -0.005865423782286442 0.0039116915851776027 0 -0.0059002746993017368 0.0038717317640319473 0 -0.0059304081983274828 0.0038596971184746615 0 -0.005865423782286442 0.0039116915851776027 0 -0.005857178702608011 0.0038379622207503779 0 -0.0059002746993017368 0.0038717317640319473 0 -0.0071056586694874541 0.0037511537920689227 0 -0.0062177514019138378 0.0038395882630075182 0 -0.0059002746993017368 0.0038717317640319473 0 -0.0059344644344682326 0.0038724923970659465 0 -0.0059304081983274828 0.0038596971184746615 0 -0.0053648159705730189 0.0038965216402323064 0 -0.0052760411683748119 0.0036985315032577134 0 -0.0050704148444646827 0.0038860419263966961 0 -0.0053648159705730189 0.0038965216402323064 0 -0.0050704148444646827 0.0038860419263966961 0 -0.0052142405269131973 0.0040403312075612046 0 -0.0047857467109646036 0.0038184430081410663 0 -0.0052760411683748119 0.0036985315032577134 0 -0.0050704148444646827 0.0038860419263966961 0 -0.0047857467109646036 0.0038184430081410663 0 -0.0050704148444646827 0.0038860419263966961 0 -0.0047510383390388846 0.0039783362645082372 0 -0.0050704148444646827 0.0038860419263966961 0 -0.0047510383390388846 0.0039783362645082372 0 -0.0052142405269131973 0.0040403312075612046 0 -0.0047510383390388846 0.0039783362645082372 0 -0.0052142405269131973 0.0040403312075612046 0 -0.0051465631872578063 0.0043625649958340153 0 -0.0054066829032337962 0.0042189337668322958 0 -0.0052142405269131973 0.0040403312075612046 0 -0.0051465631872578063 0.0043625649958340153 0 -0.0046990013155262496 0.0040400104465040431 0 -0.0054253896874096163 0.0038976541302451007 0 -0.0043958679308101663 0.0037676990932434895 0 -0.0045757479536564375 0.0036761778089912946 0 -0.0043875225138894644 0.0035907662890184424 0 -0.0047510383390388846 0.0039783362645082372 0 -0.0043958679308101663 0.0037676990932434895 0 -0.0045757479536564375 0.0036761778089912946 0 -0.0047719265254674396 0.0040079129829279914 0 -0.0046990013155262496 0.0040400104465040431 0 -0.0047510383390388846 0.0039783362645082372 0 -0.0045757479536564375 0.0036761778089912946 0 -0.0047188490583497424 0.0037252399001134135 0 -0.0047510383390388846 0.0039783362645082372 0 -0.0047188490583497424 0.0037252399001134135 0 -0.0047566321729671877 0.0038882167952756885 0 -0.0047857467109646036 0.0038184430081410663 0 -0.0047510383390388846 0.0039783362645082372 0 -0.0047566321729671877 0.0038882167952756885 0 -0.0044671892386546411 0.0032331870674529362 0 -0.0045344883325760758 0.0028262262238927327 0 -0.0047845268369799045 0.0038952072401718485 0 -0.0047566321729671877 0.0038882167952756885 0 -0.0048443684735816174 0.0037591808495445723 0 -0.0047188490583497424 0.0037252399001134135 0 -0.0047566321729671877 0.0038882167952756885 0 -0.0048443684735816174 0.0037591808495445723 0 -0.0042265559568639413 0.0020851775590390318 0 -0.0038931248348207563 0.0022024688740627197 0 -0.0039617867933464269 0.0017962904698241747 0 -0.0036566792011526153 0.002311341410117101 0 -0.0033570619046077287 0.0025717737991105215 0 -0.003338920050930669 0.0025086445355123228 0 -0.0033243933843281766 0.002573594200827587 0 -0.00336005115762366 0.0025275144083598197 0 -0.003338920050930669 0.0025086445355123228 0 -0.0032215680637367595 0.0027430539355729569 0 -0.0033243933843281766 0.002573594200827587 0 -0.003338920050930669 0.0025086445355123228 0 -0.0032215680637367595 0.0027430539355729569 0 -0.0031509796755040424 0.0027629945782191231 0 -0.0031237940023361834 0.0027711443651979467 0 -0.0033570619046077287 0.0025717737991105215 0 -0.0032215680637367595 0.0027430539355729569 0 -0.0031814021059243906 0.0028694418222065753 0 -0.00303366167799927 0.0029009765547332728 0 -0.0042039043481267527 0.0017326030943915027 0 -0.0042265559568639413 0.0020851775590390318 0 -0.0039617867933464269 0.0017962904698241747 0 -0.0033327540911559901 0.0025656895825157001 0 -0.0033618530312919245 0.0026289760017296055 0 -0.0033602141278850982 0.0025989836813946794 0 -0.0033263754269958977 0.0025466153802515485 0 -0.0033327540911559901 0.0025656895825157001 0 -0.0033602141278850982 0.0025989836813946794 0 -0.0033263754269958977 0.0025466153802515485 0 -0.0033602141278850982 0.0025989836813946794 0 -0.0033043866179535788 0.0024979773971150559 0 -0.0033263754269958977 0.0025466153802515485 0 -0.00331172377775659 0.002524082308403995 0 -0.0033043866179535788 0.0024979773971150559 0 -0.0033263754269958977 0.0025466153802515485 0 -0.00331172377775659 0.002524082308403995 0 -0.0033327540911559901 0.0025656895825157001 0 -0.00331172377775659 0.002524082308403995 0 -0.003318478817816801 0.0025244079263790236 0 -0.0033327540911559901 0.0025656895825157001 0 -0.003318478817816801 0.0025244079263790236 0 -0.0033327540911559901 0.0025656895825157001 0 -0.0033366031531752499 0.0025777216484261754 0 -0.0033327540911559901 0.0025656895825157001 0 -0.0033366031531752499 0.0025777216484261754 0 -0.0033618530312919245 0.0026289760017296055 0 -0.0033366031531752499 0.0025777216484261754 0 -0.0033243933843281766 0.002573594200827587 0 -0.0033618530312919245 0.0026289760017296055 0 -0.003318478817816801 0.0025244079263790236 0 -0.0033366031531752499 0.0025777216484261754 0 -0.0033243933843281766 0.002573594200827587 0 -0.003318478817816801 0.0025244079263790236 0 -0.0033243933843281766 0.002573594200827587 0 -0.00336005115762366 0.0025275144083598197 0 -0.0032215680637367595 0.0027430539355729569 0 -0.0033243933843281766 0.002573594200827587 0 -0.0033618530312919245 0.0026289760017296055 0 -0.0031326412880182206 0.0028563698181050599 0 -0.0035910639755664833 0.0026837219921047942 0 -0.0032215680637367595 0.0027430539355729569 0 -0.0031814021059243906 0.0028694418222065753 0 -0.0033618530312919245 0.0026289760017296055 0 -0.0031814021059243906 0.0028694418222065753 0 -0.003497045938814993 0.0026927444127846545 0 -0.003231241010082962 0.0030338665158751092 0 -0.003497045938814993 0.0026927444127846545 0 -0.0040177803362212482 0.0026524011208522691 0 -0.0040109565148386357 0.0024359391233628679 0 -0.0035910639755664833 0.0026837219921047942 0 -0.0025437007020088801 0.001720758622709054 0 -0.003497045938814993 0.0026927444127846545 0 -0.0038533218222364224 0.0029342612253880525 0 -0.0040177803362212482 0.0026524011208522691 0 -0.003497045938814993 0.0026927444127846545 0 -0.0038533218222364224 0.0029342612253880525 0 -0.003523641135444774 0.0030147222430372024 0 -0.0038485384532565311 0.0027507454178901515 0 -0.0034517494529096907 0.0027067233131773684 0 -0.0038533218222364224 0.0029342612253880525 0 -0.0037513920385718823 0.0032346704752558727 0 -0.0041107490541032413 0.0033953770300567724 0 -0.0038533218222364224 0.0029342612253880525 0 -0.0037513920385718823 0.0032346704752558727 0 -0.003523641135444774 0.0030147222430372024 0 -0.0037513920385718823 0.0032346704752558727 0 -0.003523641135444774 0.0030147222430372024 0 -0.0035674878212280403 0.0034263422814728869 0 -0.003497045938814993 0.0026927444127846545 0 -0.003523641135444774 0.0030147222430372024 0 -0.003231241010082962 0.0030338665158751092 0 -0.003523641135444774 0.0030147222430372024 0 -0.0032856788387807569 0.0033884161564905974 0 -0.0035674878212280403 0.0034263422814728869 0 -0.003523641135444774 0.0030147222430372024 0 -0.003231241010082962 0.0030338665158751092 0 -0.0032856788387807569 0.0033884161564905974 0 -0.003231241010082962 0.0030338665158751092 0 -0.0032856788387807569 0.0033884161564905974 0 -0.0028222897348577775 0.0037530636195435454 0 -0.0032856788387807569 0.0033884161564905974 0 -0.0030783879196869582 0.003740235701703766 0 -0.0034136511572951294 0.0037068272137572075 0 -0.0032856788387807569 0.0033884161564905974 0 -0.0030783879196869582 0.003740235701703766 0 -0.0028222897348577775 0.0037530636195435454 0 -0.0030783879196869582 0.003740235701703766 0 -0.0034136511572951294 0.0037068272137572075 0 -0.0032629683188251262 0.0040175599289362512 0 -0.0034136511572951294 0.0037068272137572075 0 -0.0032629683188251262 0.0040175599289362512 0 -0.0035532038896437263 0.004027168602078756 0 -0.0032856788387807569 0.0033884161564905974 0 -0.0034136511572951294 0.0037068272137572075 0 -0.0035674878212280403 0.0034263422814728869 0 -0.0037335528174401887 0.0036735432896358995 0 -0.0040564452282219913 0.0043378567896711611 0 -0.0041107490541032413 0.0033953770300567724 0 -0.0037513920385718823 0.0032346704752558727 0 -0.0037335528174401887 0.0036735432896358995 0 -0.0035674878212280403 0.0034263422814728869 0 -0.0034136511572951294 0.0037068272137572075 0 -0.0037335528174401887 0.0036735432896358995 0 -0.0035674878212280403 0.0034263422814728869 0 -0.0034136511572951294 0.0037068272137572075 0 -0.0037335528174401887 0.0036735432896358995 0 -0.0035532038896437263 0.004027168602078756 0 -0.0037513920385718823 0.0032346704752558727 0 -0.0037335528174401887 0.0036735432896358995 0 -0.0041107490541032413 0.0033953770300567724 0 -0.0033570619046077287 0.0025717737991105215 0 -0.0030579818347650505 0.0032945505388171144 0 -0.003119901893239593 0.0030915042324194098 0 -0.0031520197086328805 0.0030778474531030736 0 -0.0031344356154273086 0.0031317472922657214 0 -0.0044671892386546411 0.0032331870674529362 0 -0.0033570619046077287 0.0025717737991105215 0 -0.00303366167799927 0.0029009765547332728 0 -0.0031284118614525892 0.0030348445353114688 0 -0.0031344356154273086 0.0031317472922657214 0 -0.00303366167799927 0.0029009765547332728 0 -0.0031238798557037852 0.0029614099614420218 0 -0.0031284118614525892 0.0030348445353114688 0 -0.0031814021059243906 0.0028694418222065753 0 -0.00303366167799927 0.0029009765547332728 0 -0.0031238798557037852 0.0029614099614420218 0 -0.003231241010082962 0.0030338665158751092 0 -0.0031698135576994002 0.0030208553033891747 0 -0.0031725866133821222 0.003126441070695693 0 -0.0031698135576994002 0.0030208553033891747 0 -0.0031284118614525892 0.0030348445353114688 0 -0.0031725866133821222 0.003126441070695693 0 -0.0031814021059243906 0.0028694418222065753 0 -0.0031238798557037852 0.0029614099614420218 0 -0.0031698135576994002 0.0030208553033891747 0 -0.0031814021059243906 0.0028694418222065753 0 -0.003231241010082962 0.0030338665158751092 0 -0.0031698135576994002 0.0030208553033891747 0 -0.0031238798557037852 0.0029614099614420218 0 -0.0031698135576994002 0.0030208553033891747 0 -0.0031284118614525892 0.0030348445353114688 0 -0.0031284118614525892 0.0030348445353114688 0 -0.0031725866133821222 0.003126441070695693 0 -0.0031344356154273086 0.0031317472922657214 0 -0.0032002050631913543 0.0029245599137941525 0 -0.0033372707445507022 0.003969228547035005 0 -0.0030783879196869582 0.003740235701703766 0 -0.0028348323449920625 0.003761295659329123 0 -0.0029698024954023208 0.0041558683462212444 0 -0.0030697914581332862 0.0039036971509246276 0 -0.0033372707445507022 0.003969228547035005 0 -0.0055211495135090577 0.0039063765414390442 0 -0.0033372707445507022 0.003969228547035005 0 -0.003119901893239593 0.0030915042324194098 0 -0.0031066097477298171 0.0031449115827067099 0 -0.0031344356154273086 0.0031317472922657214 0 -0.0053603741087382183 0.0047423052699410492 0 -0.0045744266889290357 0.0047934365217452788 0 -0.0050670763085842677 0.0044422573390930746 0 -0.0031066097477298171 0.0031449115827067099 0 -0.0031725866133821222 0.003126441070695693 0 -0.0031344356154273086 0.0031317472922657214 0 -0.0050670763085842677 0.0044422573390930746 0 -0.0049197270821875845 0.0039252574678139592 0 -0.0047487559913104915 0.0043575402450978474 0 -0.0053559530944416395 0.0041830604850205816 0 -0.0053603741087382183 0.0047423052699410492 0 -0.0050670763085842677 0.0044422573390930746 0 -0.0087567427278591632 0.0045055955847095146 0 -0.0087728165436009638 0.0049379559795966277 0 -0.0094414421426137329 0.0049308329370020849 0 -0.0053559530944416395 0.0041830604850205816 0 -0.0050670763085842677 0.0044422573390930746 0 -0.0049197270821875845 0.0039252574678139592 0 -0.0080940311673346269 0.0043606711794449858 0 -0.0045619001495524293 0.0048695612756422335 0 -0.0024202548607515618 0.0049080497988115207 0 -0.0029547059410927681 0.0046966141897520318 0 -0.0026180161985359003 0.0043538307813693845 0 -0.0024202548607515618 0.0049080497988115207 0 -0.0029547059410927681 0.0046966141897520318 0 -0.0029426775460189699 0.0052445831480308078 0 -0.0045619001495524293 0.0048695612756422335 0 -0.0036743907956325642 0.0043604046248171963 0 -0.0028348323449920625 0.003761295659329123 0 -0.0026180161985359003 0.0043538307813693845 0 -0.0029698024954023208 0.0041558683462212444 0 -0.0033372707445507022 0.003969228547035005 0 -0.0036743907956325642 0.0043604046248171963 0 -0.0045744266889290357 0.0047934365217452788 0 -0.0050670763085842677 0.0044422573390930746 0 -0.0047487559913104915 0.0043575402450978474 0 -0.0029547059410927681 0.0046966141897520318 0 -0.0026180161985359003 0.0043538307813693845 0 -0.0029698024954023208 0.0041558683462212444 0 -0.0029547059410927681 0.0046966141897520318 0 -0.0029698024954023208 0.0041558683462212444 0 -0.0033608391248079652 0.0044695072447569466 0 -0.0029698024954023208 0.0041558683462212444 0 -0.0032629683188251262 0.0040175599289362512 0 -0.0033608391248079652 0.0044695072447569466 0 -0.0030783879196869582 0.003740235701703766 0 -0.0029698024954023208 0.0041558683462212444 0 -0.0032629683188251262 0.0040175599289362512 0 -0.0032629683188251262 0.0040175599289362512 0 -0.0033608391248079652 0.0044695072447569466 0 -0.0035532038896437263 0.004027168602078756 0 -0.0033608391248079652 0.0044695072447569466 0 -0.0038132613167140457 0.0047341353925437384 0 -0.0040564452282219913 0.0043378567896711611 0 -0.0033608391248079652 0.0044695072447569466 0 -0.0035532038896437263 0.004027168602078756 0 -0.0040564452282219913 0.0043378567896711611 0 -0.0037335528174401887 0.0036735432896358995 0 -0.0035532038896437263 0.004027168602078756 0 -0.0040564452282219913 0.0043378567896711611 0 -0.0033608391248079652 0.0044695072447569466 0 -0.0038132613167140457 0.0047341353925437384 0 -0.0034173032207256136 0.0050156240466817823 0 -0.0038132613167140457 0.0047341353925437384 0 -0.0034173032207256136 0.0050156240466817823 0 -0.0039808088704159274 0.0052416680315165226 0 -0.0029547059410927681 0.0046966141897520318 0 -0.0034173032207256136 0.0050156240466817823 0 -0.0029426775460189699 0.0052445831480308078 0 -0.0029547059410927681 0.0046966141897520318 0 -0.0033608391248079652 0.0044695072447569466 0 -0.0034173032207256136 0.0050156240466817823 0 -0.0034482730731082993 0.0056188211511828323 0 -0.0030377643525845172 0.0056905295561070855 0 -0.002858920923773484 0.0052959089086539613 0 -0.0034173032207256136 0.0050156240466817823 0 -0.0034482730731082993 0.0056188211511828323 0 -0.0029426775460189699 0.0052445831480308078 0 -0.0035190235214862548 0.0056539764376583668 0 -0.0025779154750846713 0.0051308546604270245 0 -0.0034173032207256136 0.0050156240466817823 0 -0.0034482730731082993 0.0056188211511828323 0 -0.0039808088704159274 0.0052416680315165226 0 -0.0034482730731082993 0.0056188211511828323 0 -0.0032588459465374077 0.0060087579659368773 0 -0.0039808088704159274 0.0052416680315165226 0 0.00015736188542066865 0.0080782042466392857 0 -0.0002219845524027625 0.0081670891166737095 0 0.00024871491454077143 0.0081100042263647833 0 -5.7786349568828994e-05 0.0079894840953725361 0 0.00015736188542066865 0.0080782042466392857 0 -0.0002219845524027625 0.0081670891166737095 0 -0.0017222725130089497 0.0070812051159401569 0 -0.0020135565071595471 0.0066503284431276444 0 -0.0030377643525845172 0.0056905295561070855 0 -0.0032588459465374077 0.0060087579659368773 0 -0.0026070424008740553 0.0058969391707354218 0 -0.0034482730731082993 0.0056188211511828323 0 -0.0030377643525845172 0.0056905295561070855 0 -0.0032588459465374077 0.0060087579659368773 0 -0.0026070424008740553 0.0058969391707354218 0 -0.0020296907527124833 0.0056771078202855771 0 -0.002858920923773484 0.0052959089086539613 0 -0.0030377643525845172 0.0056905295561070855 0 -0.0026070424008740553 0.0058969391707354218 0 -0.002858920923773484 0.0052959089086539613 0 -0.0017571257754362796 0.0064220630775937669 0 -0.0026070424008740553 0.0058969391707354218 0 -0.0020296907527124833 0.0056771078202855771 0 -0.0052947562820275648 0.0066759005784632003 0 -0.0057157409047455983 0.0057305020025986203 0 -0.0045619001495524293 0.0048695612756422335 0 -0.0057157409047455983 0.0057305020025986203 0 -0.0087518342270156684 0.0054503278287830921 0 -0.0094414421426137329 0.0049308329370020849 0 -0.0091515947535688019 0.0058598896278816218 0 -0.0087518342270156684 0.0054503278287830921 0 -0.0087728165436009638 0.0049379559795966277 0 -0.0094414421426137329 0.0049308329370020849 0 -0.0045619001495524293 0.0048695612756422335 0 -0.0025779154750846713 0.0051308546604270245 0 -0.0023112576862454009 0.0049548748103284933 0 -0.0020296907527124833 0.0056771078202855771 0 -0.002858920923773484 0.0052959089086539613 0 0.00030993939080879756 0.0080003727733409039 0 4.0894689343533656e-05 0.0079837660579076351 0 0.00021867101448414227 0.0078245340845374319 0 0.00030993939080879756 0.0080003727733409039 0 0.00038761122133305881 0.0079236203889648648 0 0.00021867101448414227 0.0078245340845374319 0 0.002287376105456367 0.0088424769275705396 0 0.0019603144313995661 0.0098735875570751756 0 0.0012044773461195254 0.0090103561985005846 0 0.00096149340567860432 0.0088621328456486761 0 0.00075862835175291652 0.0085482825077536073 0 0.00030993939080879756 0.0080003727733409039 0 4.0894689343533656e-05 0.0079837660579076351 0 0.00030081047576587097 0.0080929864639740622 0 0.00034536652720272391 0.0080418510025441273 0 0.00030081047576587097 0.0080929864639740622 0 0.00033413545875900816 0.008054473031953318 0 0.00030993939080879756 0.0080003727733409039 0 0.00030081047576587097 0.0080929864639740622 0 0.00033413545875900816 0.008054473031953318 0 0.00015736188542066865 0.0080782042466392857 0 0.00033413545875900816 0.008054473031953318 0 0.00024871491454077143 0.0081100042263647833 0 0.00034536652720272391 0.0080418510025441273 0 0.00015736188542066865 0.0080782042466392857 0 0.00033413545875900816 0.008054473031953318 0 0.00033413545875900816 0.008054473031953318 0 0.00024871491454077143 0.0081100042263647833 0 0.00034099670165669069 0.0080080320512298155 0 0.00030993939080879756 0.0080003727733409039 0 0.00033413545875900816 0.008054473031953318 0 0.00034099670165669069 0.0080080320512298155 0 0.00030993939080879756 0.0080003727733409039 0 0.00034099670165669069 0.0080080320512298155 0 0.00038761122133305881 0.0079236203889648648 0 0.00038761122133305881 0.0079236203889648648 0 0.00051142247641287886 0.0076631885858759645 0 0.00028177621303598856 0.0075427765224980389 0 0.00034099670165669069 0.0080080320512298155 0 0.00038761122133305881 0.0079236203889648648 0 0.00038517351212135882 0.0079126333137142114 0 -0.00028299651040129923 0.0079371485267148555 0 -0.001335539815795632 0.0062243748519661864 0 0.00024871491454077143 0.0081100042263647833 0 0.00034099670165669069 0.0080080320512298155 0 0.00038517351212135882 0.0079126333137142114 0 -0.0020135565071595471 0.0066503284431276444 0 -0.001335539815795632 0.0062243748519661864 0 -0.0039808088704159274 0.0052416680315165226 0 -0.0045101429136261582 0.0046036751159304161 0 -0.0041644219192391316 0.0045965345325299457 0 -0.0038132613167140457 0.0047341353925437384 0 -0.0039808088704159274 0.0052416680315165226 0 -0.0041644219192391316 0.0045965345325299457 0 -0.0038132613167140457 0.0047341353925437384 0 -0.0041644219192391316 0.0045965345325299457 0 -0.0040564452282219913 0.0043378567896711611 0 -0.0041644219192391316 0.0045965345325299457 0 -0.0040564452282219913 0.0043378567896711611 0 -0.0043831442918006325 0.0042084133321314571 0 -0.001335539815795632 0.0062243748519661864 0 -0.0018652277262497753 0.0056417396852649774 0 0.00059969948266619605 0.0073129519926689156 0 0.00028177621303598856 0.0075427765224980389 0 0.00037491080318533665 0.0072592947812182571 0 -0.0045101429136261582 0.0046036751159304161 0 -0.0041644219192391316 0.0045965345325299457 0 -0.0043831442918006325 0.0042084133321314571 0 0.00051142247641287886 0.0076631885858759645 0 0.00059969948266619605 0.0073129519926689156 0 0.00028177621303598856 0.0075427765224980389 0 0.00028177621303598856 0.0075427765224980389 0 0.00018670173716038918 0.0071141677838535622 0 0.00037491080318533665 0.0072592947812182571 0 0.00028177621303598856 0.0075427765224980389 0 2.8417230924985906e-05 0.0075868662670254975 0 0.00018670173716038918 0.0071141677838535622 0 0.00038761122133305881 0.0079236203889648648 0 0.00028177621303598856 0.0075427765224980389 0 0.00021867101448414227 0.0078245340845374319 0 0.00028177621303598856 0.0075427765224980389 0 0.00021867101448414227 0.0078245340845374319 0 2.8417230924985906e-05 0.0075868662670254975 0 4.0894689343533656e-05 0.0079837660579076351 0 0.00021867101448414227 0.0078245340845374319 0 2.8417230924985906e-05 0.0075868662670254975 0 -0.00021241632575384677 0.0072431208507697234 0 2.8417230924985906e-05 0.0075868662670254975 0 0.00018670173716038918 0.0071141677838535622 0 0.00016954572153852601 0.0069103723630088223 0 0.00018670173716038918 0.0071141677838535622 0 0.00014889334792222389 0.0069084838842168195 0 -0.00025118198719316462 0.0070105243274465922 0 0.00028571993999843644 0.0071082494965234357 0 0.00018670173716038918 0.0071141677838535622 0 0.00037491080318533665 0.0072592947812182571 0 0.00041614715330098737 0.0070337799619580076 0 0.00018670173716038918 0.0071141677838535622 0 0.00022270157011906026 0.006855794548586344 0 0.00041614715330098737 0.0070337799619580076 0 0.00022270157011906026 0.006855794548586344 0 0.00041614715330098737 0.0070337799619580076 0 0.0004333392464734741 0.0068001698033371954 0 0.00018670173716038918 0.0071141677838535622 0 0.00022270157011906026 0.006855794548586344 0 0.00014889334792222389 0.0069084838842168195 0 -0.0040471807887566755 0.004259479069642795 0 -0.0041237774598162739 0.0037218187893204441 0 -0.0040564452282219913 0.0043378567896711611 0 -0.0043831442918006325 0.0042084133321314571 0 -0.0040236642793137767 0.0038887764195372977 0 -0.0043831442918006325 0.0042084133321314571 0 -0.0042232471901253229 0.0037263985114203524 0 -0.0040236642793137767 0.0038887764195372977 0 0.00059969948266619605 0.0073129519926689156 0 0.00041614715330098737 0.0070337799619580076 0 0.00070141660689629261 0.0068673836078661397 0 0.00059969948266619605 0.0073129519926689156 0 0.00037491080318533665 0.0072592947812182571 0 0.00041614715330098737 0.0070337799619580076 0 -0.0018652277262497753 0.0056417396852649774 0 -0.0018693446056664207 0.0057946829891380664 0 0.00041614715330098737 0.0070337799619580076 0 0.0004333392464734741 0.0068001698033371954 0 0.00070141660689629261 0.0068673836078661397 0 -0.0038533218222364224 0.0029342612253880525 0 -0.0041107490541032413 0.0033953770300567724 0 -0.0040590799202078554 0.0025821541489556583 0 -0.0042232471901253229 0.0037263985114203524 0 -0.0040236642793137767 0.0038887764195372977 0 -0.0039739976650857668 0.0034457706438831399 0 -0.0041237774598162739 0.0037218187893204441 0 -0.0034517494529096907 0.0027067233131773684 0 -0.0018693446056664207 0.0057946829891380664 0 -0.0010413973727437917 0.0025698969193322929 0 -0.0042232471901253229 0.0037263985114203524 0 -0.0039739976650857668 0.0034457706438831399 0 -0.0040883288774954925 0.0032389014035258141 0 -0.0034517494529096907 0.0027067233131773684 0 -0.0025437007020088801 0.001720758622709054 0 0.00070141660689629261 0.0068673836078661397 0 0.00057903560603704237 0.0065659652818404 0 0.00089835732426506393 0.0062711380296641746 0 0.0004333392464734741 0.0068001698033371954 0 0.00070141660689629261 0.0068673836078661397 0 0.00057903560603704237 0.0065659652818404 0 0.0004333392464734741 0.0068001698033371954 0 0.00057903560603704237 0.0065659652818404 0 0.00029345304870594162 0.0066005403963099599 0 0.00057903560603704237 0.0065659652818404 0 0.00052319238981188808 0.0063328672919099214 0 0.00029345304870594162 0.0066005403963099599 0 0.00049555333163958605 0.00059552941693913244 0 -0.0004039706810976921 0.00012868993758785257 0 0.00014409185916415052 0.00023867670382584846 0 0.00057903560603704237 0.0065659652818404 0 0.00052319238981188808 0.0063328672919099214 0 0.00089835732426506393 0.0062711380296641746 0 0.00052319238981188808 0.0063328672919099214 0 0.00089835732426506393 0.0062711380296641746 0 0.00029862352896439716 0.0058703135849864771 0 -0.0010413973727437917 0.0025698969193322929 0 0.00031774578707359854 0.0031655444595058953 0 -0.00079026599047369792 -0.00059333549400809947 0 -0.00053476171004815929 -0.00034223161457977474 0 -0.00067048977677909908 -0.00088224969948603852 0 -0.0010413973727437917 0.0025698969193322929 0 -0.00087185539626629088 0.0014055697325141326 0 -0.0025675765046868282 0.0019682855299737638 0 -0.002051292625864102 0.0027160054211855904 0 -0.0025694505396675316 0.0024786996467626335 0 -0.00081363345643064092 -0.00046732040238840517 0 -0.00079026599047369792 -0.00059333549400809947 0 -0.00053476171004815929 -0.00034223161457977474 0 -0.0034517494529096907 0.0027067233131773684 0 -0.0010413973727437917 0.0025698969193322929 0 -0.0010413973727437917 0.0025698969193322929 0 -0.0025437007020088801 0.001720758622709054 0 0.00013234270157672469 0.0068825978410336644 0 0.00022270157011906026 0.006855794548586344 0 0.00014889334792222389 0.0069084838842168195 0 -0.00026601372197296915 0.0066520573515989534 0 0.00029737537343048543 0.0066192506500257287 0 0.00013234270157672469 0.0068825978410336644 0 0.00022270157011906026 0.006855794548586344 0 0.00029345304870594162 0.0066005403963099599 0 0.00022270157011906026 0.006855794548586344 0 0.0004333392464734741 0.0068001698033371954 0 0.00029345304870594162 0.0066005403963099599 0 0.00052319238981188808 0.0063328672919099214 0 0.00029345304870594162 0.0066005403963099599 0 0.00029862352896439716 0.0058703135849864771 0 0.00029345304870594162 0.0066005403963099599 0 -0.00024548817972608995 0.0060169912054734249 0 0.00029862352896439716 0.0058703135849864771 0 -0.00063797858003737521 0.0064321865760489086 0 0.00029345304870594162 0.0066005403963099599 0 -0.00024548817972608995 0.0060169912054734249 0 -0.00063797858003737521 0.0064321865760489086 0 -0.00024548817972608995 0.0060169912054734249 0 -0.00063008402406177877 0.0058290032459525128 0 -0.00090090547238738498 0.002654822365457556 0 0.00031774578707359854 0.0031655444595058953 0 -0.00024548817972608995 0.0060169912054734249 0 -0.00052360240771134469 0.0054258727945745164 0 -0.00063008402406177877 0.0058290032459525128 0 -0.00024548817972608995 0.0060169912054734249 0 -0.00052360240771134469 0.0054258727945745164 0 0.00029862352896439716 0.0058703135849864771 0 -0.0012451952131776729 -0.00033463890217244195 0 -0.0004039706810976921 0.00012868993758785257 0 -0.00090013275911499211 -0.00051381315992150909 0 -0.0004039706810976921 0.00012868993758785257 0 -0.00058861305070810187 -0.0005930445347911901 0 -0.00090013275911499211 -0.00051381315992150909 0 -0.0004039706810976921 0.00012868993758785257 0 -0.00058861305070810187 -0.0005930445347911901 0 -1.6044063569578682e-05 -0.00033384016464064461 0 -0.00054959634493329684 -0.0012870280722651532 0 -0.00089635361885281157 -0.0014107174332212756 0 -0.00058861305070810187 -0.0005930445347911901 0 -0.0010077287468748929 -0.00091110054412729474 0 -0.0005474309913239498 -0.0011494107663493024 0 -0.00058861305070810187 -0.0005930445347911901 0 -1.6044063569578682e-05 -0.00033384016464064461 0 -0.0005474309913239498 -0.0011494107663493024 0 -0.0012719128066941874 -0.00070608451279090734 0 -0.00090013275911499211 -0.00051381315992150909 0 -0.0010077287468748929 -0.00091110054412729474 0 -0.00058861305070810187 -0.0005930445347911901 0 -0.00090013275911499211 -0.00051381315992150909 0 -0.0010077287468748929 -0.00091110054412729474 0 -0.0012719128066941874 -0.00070608451279090734 0 -0.0010077287468748929 -0.00091110054412729474 0 -0.0014282020846735769 -0.00099197187058445296 0 -0.0012451952131776729 -0.00033463890217244195 0 -0.0012719128066941874 -0.00070608451279090734 0 -0.00090013275911499211 -0.00051381315992150909 0 -0.00053476171004815929 -0.00034223161457977474 0 -0.00067048977677909908 -0.00088224969948603852 0 -0.00055957131131423256 -0.0013332072062000027 0 -0.0025437007020088801 0.001720758622709054 0 -0.0018372453550617946 0.00034695350724570442 0 -0.00081891526808087643 -0.00047380292888026096 0 -0.00079026599047369792 -0.00059333549400809947 0 -0.0011631494342880797 -0.0013106844754507607 0 -0.00079026599047369792 -0.00059333549400809947 0 -0.00085688956834007162 -0.0010990315467526207 0 -0.0011631494342880797 -0.0013106844754507607 0 -0.0033602141278850982 0.0025989836813946794 0 -0.0032895635991531066 0.0023397354309247034 0 -0.0033043866179535788 0.0024979773971150559 0 -0.00066138869971983519 -0.0011209418056508196 0 -0.00067048977677909908 -0.00088224969948603852 0 -0.00055957131131423256 -0.0013332072062000027 0 -0.00068342088027540163 -0.0012530339562651859 0 -0.00066138869971983519 -0.0011209418056508196 0 -0.00055957131131423256 -0.0013332072062000027 0 -0.00068342088027540163 -0.0012530339562651859 0 -0.00066138869971983519 -0.0011209418056508196 0 -0.00074313337543975349 -0.0011574079029879102 0 -0.00066138869971983519 -0.0011209418056508196 0 -0.00073137947604283882 -0.0010342683370625312 0 -0.00074313337543975349 -0.0011574079029879102 0 -0.00067048977677909908 -0.00088224969948603852 0 -0.00073137947604283882 -0.0010342683370625312 0 -0.00075510630871627668 -0.00086127881222205669 0 -0.00066138869971983519 -0.0011209418056508196 0 -0.00067048977677909908 -0.00088224969948603852 0 -0.00073137947604283882 -0.0010342683370625312 0 -0.00073137947604283882 -0.0010342683370625312 0 -0.00075510630871627668 -0.00086127881222205669 0 -0.00085688956834007162 -0.0010990315467526207 0 -0.00079026599047369792 -0.00059333549400809947 0 -0.00075510630871627668 -0.00086127881222205669 0 -0.00085688956834007162 -0.0010990315467526207 0 -0.00079026599047369792 -0.00059333549400809947 0 -0.00067048977677909908 -0.00088224969948603852 0 -0.00075510630871627668 -0.00086127881222205669 0 -0.00073137947604283882 -0.0010342683370625312 0 -0.00085688956834007162 -0.0010990315467526207 0 -0.00074313337543975349 -0.0011574079029879102 0 -0.00068342088027540163 -0.0012530339562651859 0 -0.00074313337543975349 -0.0011574079029879102 0 -0.00077387274281296662 -0.0013028433176173059 0 -0.00085688956834007162 -0.0010990315467526207 0 -0.00074313337543975349 -0.0011574079029879102 0 -0.00077387274281296662 -0.0013028433176173059 0 -0.00085688956834007162 -0.0010990315467526207 0 -0.00095957725516307988 -0.0013290489789456632 0 -0.00077387274281296662 -0.0013028433176173059 0 -0.0010413973727437917 0.0025698969193322929 0 -0.00054959634493329684 -0.0012870280722651532 0 0.00049555333163958605 0.00059552941693913244 0 0.00014409185916415052 0.00023867670382584846 0 -1.6044063569578682e-05 -0.00033384016464064461 0 -0.00085688956834007162 -0.0010990315467526207 0 -0.0011631494342880797 -0.0013106844754507607 0 -0.00095957725516307988 -0.0013290489789456632 0 -0.0004039706810976921 0.00012868993758785257 0 0.00014409185916415052 0.00023867670382584846 0 -1.6044063569578682e-05 -0.00033384016464064461 0 -0.0011631494342880797 -0.0013106844754507607 0 -0.0010438986394849708 -0.0016546405151103109 0 -0.0012884482391658499 -0.0018873971035184311 0 -0.0010438986394849708 -0.0016546405151103109 0 -0.00095957725516307988 -0.0013290489789456632 0 -0.00085735082908889064 -0.001480012993653787 0 -0.0011631494342880797 -0.0013106844754507607 0 -0.0010438986394849708 -0.0016546405151103109 0 -0.00095957725516307988 -0.0013290489789456632 0 -0.00071391858400469944 -0.001671103470011684 0 -0.00055957131131423256 -0.0013332072062000027 0 -0.0007016571376732805 -0.0020078500338838118 0 -0.00095957725516307988 -0.0013290489789456632 0 -0.00077387274281296662 -0.0013028433176173059 0 -0.00085735082908889064 -0.001480012993653787 0 -0.00077387274281296662 -0.0013028433176173059 0 -0.00085735082908889064 -0.001480012993653787 0 -0.00072314070501889173 -0.0014591948079875306 0 -0.0010438986394849708 -0.0016546405151103109 0 -0.00085735082908889064 -0.001480012993653787 0 -0.00088054423054208166 -0.0017524577379856535 0 -0.00085735082908889064 -0.001480012993653787 0 -0.00078084848695468578 -0.0015895021239149263 0 -0.00088054423054208166 -0.0017524577379856535 0 -0.00078084848695468578 -0.0015895021239149263 0 -0.00071391858400469944 -0.001671103470011684 0 -0.00088054423054208166 -0.0017524577379856535 0 -0.00085735082908889064 -0.001480012993653787 0 -0.00078084848695468578 -0.0015895021239149263 0 -0.00072314070501889173 -0.0014591948079875306 0 -0.00078084848695468578 -0.0015895021239149263 0 -0.00071391858400469944 -0.001671103470011684 0 -0.00072314070501889173 -0.0014591948079875306 0 -0.00071391858400469944 -0.001671103470011684 0 -0.00072314070501889173 -0.0014591948079875306 0 -0.00055957131131423256 -0.0013332072062000027 0 -0.00068342088027540163 -0.0012530339562651859 0 -0.00068611196707283435 -0.0013380229827742679 0 -0.00055957131131423256 -0.0013332072062000027 0 -0.00077387274281296662 -0.0013028433176173059 0 -0.00072314070501889173 -0.0014591948079875306 0 -0.00068611196707283435 -0.0013380229827742679 0 -0.00072314070501889173 -0.0014591948079875306 0 -0.00068611196707283435 -0.0013380229827742679 0 -0.00055957131131423256 -0.0013332072062000027 0 -0.00068342088027540163 -0.0012530339562651859 0 -0.00077387274281296662 -0.0013028433176173059 0 -0.00068611196707283435 -0.0013380229827742679 0 -0.0018372453550617946 0.00034695350724570442 0 -0.0019477591556969632 -0.0005663345703780647 0 -0.0007016571376732805 -0.0020078500338838118 0 -0.00078893950005095475 -0.0018577330906264142 0 -0.00086723410375108404 -0.0019871367487595774 0 -0.00071391858400469944 -0.001671103470011684 0 -0.0007016571376732805 -0.0020078500338838118 0 -0.00078893950005095475 -0.0018577330906264142 0 -0.00071391858400469944 -0.001671103470011684 0 -0.00078893950005095475 -0.0018577330906264142 0 -0.00088054423054208166 -0.0017524577379856535 0 -0.00078893950005095475 -0.0018577330906264142 0 -0.00088054423054208166 -0.0017524577379856535 0 -0.00086723410375108404 -0.0019871367487595774 0 -0.0010438986394849708 -0.0016546405151103109 0 -0.0010680239247599084 -0.0019630866945430214 0 -0.0012884482391658499 -0.0018873971035184311 0 -0.00088054423054208166 -0.0017524577379856535 0 -0.00086723410375108404 -0.0019871367487595774 0 -0.0010680239247599084 -0.0019630866945430214 0 -0.0010438986394849708 -0.0016546405151103109 0 -0.00088054423054208166 -0.0017524577379856535 0 -0.0010680239247599084 -0.0019630866945430214 0 -0.0010680239247599084 -0.0019630866945430214 0 -0.001036732818417157 -0.0021821434194112641 0 -0.0011770144020989077 -0.0021513472445142331 0 -0.00086723410375108404 -0.0019871367487595774 0 -0.0010680239247599084 -0.0019630866945430214 0 -0.001036732818417157 -0.0021821434194112641 0 -0.0007016571376732805 -0.0020078500338838118 0 -0.00077882113152209472 -0.0021660803550563852 0 -0.00075620484005416491 -0.0023293128034040131 0 -0.0019477591556969632 -0.0005663345703780647 0 -0.0015348491348130759 -0.0016627374140541608 0 -0.00086723410375108404 -0.0019871367487595774 0 -0.001036732818417157 -0.0021821434194112641 0 -0.00095312069912075663 -0.0022477274850451162 0 -0.00089813531578187525 -0.0019732220082908846 0 -0.0008564992439583579 -0.0023048168357703352 0 -0.0007016571376732805 -0.0020078500338838118 0 -0.00086723410375108404 -0.0019871367487595774 0 -0.00077882113152209472 -0.0021660803550563852 0 -0.0010077287468748929 -0.00091110054412729474 0 -0.0005474309913239498 -0.0011494107663493024 0 -0.0012737733629302505 -0.0014690752128529248 0 -0.0010077287468748929 -0.00091110054412729474 0 -0.0012737733629302505 -0.0014690752128529248 0 -0.0014282020846735769 -0.00099197187058445296 0 -0.0010680239247599084 -0.0019630866945430214 0 -0.0012884482391658499 -0.0018873971035184311 0 -0.0011770144020989077 -0.0021513472445142331 0 -0.0012884482391658499 -0.0018873971035184311 0 -0.0011770144020989077 -0.0021513472445142331 0 -0.0013279850293072592 -0.0022045127531390854 0 -0.00089635361885281157 -0.0014107174332212756 0 -0.0012029668415055052 -0.0020483403695465709 0 -0.0010481340188206391 -0.0018560490907824777 0 -0.0012737733629302505 -0.0014690752128529248 0 -0.0016009353788146705 -0.0019881623368521438 0 -0.0005474309913239498 -0.0011494107663493024 0 -0.0010481340188206391 -0.0018560490907824777 0 -0.0012737733629302505 -0.0014690752128529248 0 -0.0012029668415055052 -0.0020483403695465709 0 -0.0015042502267300407 -0.0024744154707057055 0 -0.0013279850293072592 -0.0022045127531390854 0 -0.0012231484493293967 -0.0024800634996794981 0 -0.001533021427540721 -0.0025054873275478342 0 -0.0012231484493293967 -0.0024800634996794981 0 -0.0012407094711148117 -0.0028163023990158825 0 -0.001533021427540721 -0.0025054873275478342 0 -0.0012231484493293967 -0.0024800634996794981 0 -0.0010902798738712536 -0.0023661415830086123 0 -0.00097496083010121235 -0.0026435301166968989 0 -0.0012231484493293967 -0.0024800634996794981 0 -0.0012407094711148117 -0.0028163023990158825 0 -0.00097496083010121235 -0.0026435301166968989 0 -0.0011770144020989077 -0.0021513472445142331 0 -0.0013279850293072592 -0.0022045127531390854 0 -0.0010902798738712536 -0.0023661415830086123 0 -0.0013279850293072592 -0.0022045127531390854 0 -0.0012231484493293967 -0.0024800634996794981 0 -0.0010902798738712536 -0.0023661415830086123 0 -0.001036732818417157 -0.0021821434194112641 0 -0.0011770144020989077 -0.0021513472445142331 0 -0.0010902798738712536 -0.0023661415830086123 0 -0.001036732818417157 -0.0021821434194112641 0 -0.0010902798738712536 -0.0023661415830086123 0 -0.0010096536587074346 -0.0023184248500820984 0 -0.001036732818417157 -0.0021821434194112641 0 -0.00095312069912075663 -0.0022477274850451162 0 -0.0010096536587074346 -0.0023184248500820984 0 -0.0008564992439583579 -0.0023048168357703352 0 -0.0015348491348130759 -0.0016627374140541608 0 -0.00095312069912075663 -0.0022477274850451162 0 -0.0010096536587074346 -0.0023184248500820984 0 -0.0011804578752128447 -0.0022838048923154949 0 -0.0010096536587074346 -0.0023184248500820984 0 -0.0011804578752128447 -0.0022838048923154949 0 -0.0011542341220408196 -0.0022405990917425582 0 -0.0015348491348130759 -0.0016627374140541608 0 -0.0014608599903546567 -0.0020522257326427793 0 -0.0010096536587074346 -0.0023184248500820984 0 -0.0011542341220408196 -0.0022405990917425582 0 -0.0011151697246657472 -0.0021276806334022654 0 -0.0012673438733177803 -0.002244883449139467 0 -0.0012666004651066874 -0.002132053048153728 0 -0.001556829023835196 -0.0020388508663845145 0 -0.0012673438733177803 -0.002244883449139467 0 -0.0011542341220408196 -0.0022405990917425582 0 -0.0012666004651066874 -0.002132053048153728 0 -0.0011804578752128447 -0.0022838048923154949 0 -0.0012673438733177803 -0.002244883449139467 0 -0.0011542341220408196 -0.0022405990917425582 0 -0.0011542341220408196 -0.0022405990917425582 0 -0.0012666004651066874 -0.002132053048153728 0 -0.0011151697246657472 -0.0021276806334022654 0 -0.0010902798738712536 -0.0023661415830086123 0 -0.00092269914279934475 -0.0025737801886241453 0 -0.00097496083010121235 -0.0026435301166968989 0 -0.0010166691839159851 -0.0023729426645117519 0 -0.0010279952779089655 -0.0022663303249488144 0 -0.0010902798738712536 -0.0023661415830086123 0 -0.0010096536587074346 -0.0023184248500820984 0 -0.00092269914279934475 -0.0025737801886241453 0 -0.00092269914279934475 -0.0025737801886241453 0 -0.00092644870456442196 -0.0026545546686102817 0 -0.00097496083010121235 -0.0026435301166968989 0 -0.0010279952779089655 -0.0022663303249488144 0 -0.00066097784706904824 -0.0027242169748605536 0 -0.00066097784706904824 -0.0027242169748605536 0 -0.00089428803992794065 -0.0027200423920694188 0 -0.0011151697246657472 -0.0021276806334022654 0 -0.0012826182226651633 -0.0019788528242817424 0 -0.0011276717203552741 -0.0018240597253897297 0 -0.0012666004651066874 -0.002132053048153728 0 -0.0012826182226651633 -0.0019788528242817424 0 -0.001556829023835196 -0.0020388508663845145 0 -0.0012826182226651633 -0.0019788528242817424 0 -0.0014843198266684353 -0.0018067692284085663 0 -0.0011276717203552741 -0.0018240597253897297 0 -0.0012826182226651633 -0.0019788528242817424 0 -0.0014843198266684353 -0.0018067692284085663 0 -0.001556829023835196 -0.0020388508663845145 0 -0.0012666004651066874 -0.002132053048153728 0 -0.0011151697246657472 -0.0021276806334022654 0 -0.0012826182226651633 -0.0019788528242817424 0 -0.00066097784706904824 -0.0027242169748605536 0 -0.00069536980998176475 -0.0027242567320966866 0 -0.0014843198266684353 -0.0018067692284085663 0 -0.0011276717203552741 -0.0018240597253897297 0 -0.001628686518832373 -0.001587428983263842 0 -0.00017589785096417272 -0.0033676408966856917 0 -1.6280759688944798e-05 -0.0038080652850062823 0 0.00020458181336861317 -0.0037966784365517305 0 -0.00025429912765503795 -0.0031677396212235948 0 -0.00054376179178564402 -0.0036135949592701285 0 -0.00079831633322432496 -0.0034210761954932205 0 -0.00017589785096417272 -0.0033676408966856917 0 -0.00023544893648914348 -0.0037669030927419403 0 -1.6280759688944798e-05 -0.0038080652850062823 0 -0.00066097784706904824 -0.0027242169748605536 0 -0.00025869892460492211 -0.003894793368070699 0 -0.00025429912765503795 -0.0031677396212235948 0 -0.00054376179178564402 -0.0036135949592701285 0 -0.00030373749624849336 -0.0038139442609062711 0 -0.00025429912765503795 -0.0031677396212235948 0 -0.00079831633322432496 -0.0034210761954932205 0 -0.0009265703269401627 -0.0030582365790246036 0 -0.00054376179178564402 -0.0036135949592701285 0 -0.00079831633322432496 -0.0034210761954932205 0 -0.00081704806362506617 -0.0037647521654630288 0 -0.00079831633322432496 -0.0034210761954932205 0 -0.0011739688339568869 -0.0033271901522444131 0 -0.0009265703269401627 -0.0030582365790246036 0 -0.00079831633322432496 -0.0034210761954932205 0 -0.0009798041836732187 -0.0035845525902405704 0 -0.0011739688339568869 -0.0033271901522444131 0 -0.00079831633322432496 -0.0034210761954932205 0 -0.0009798041836732187 -0.0035845525902405704 0 -0.00081704806362506617 -0.0037647521654630288 0 -0.0011739688339568869 -0.0033271901522444131 0 -0.0015833431685146175 -0.0035553913518971947 0 -0.0015890403134989301 -0.0030680814841792916 0 -0.0009798041836732187 -0.0035845525902405704 0 -0.0011739688339568869 -0.0033271901522444131 0 -0.0011562351344123519 -0.0037973754332372932 0 -0.0011739688339568869 -0.0033271901522444131 0 -0.0011562351344123519 -0.0037973754332372932 0 -0.0015833431685146175 -0.0035553913518971947 0 -0.0011739688339568869 -0.0033271901522444131 0 -0.0012407094711148117 -0.0028163023990158825 0 -0.0009265703269401627 -0.0030582365790246036 0 -0.0011739688339568869 -0.0033271901522444131 0 -0.0012407094711148117 -0.0028163023990158825 0 -0.0015890403134989301 -0.0030680814841792916 0 -0.0012407094711148117 -0.0028163023990158825 0 -0.00097496083010121235 -0.0026435301166968989 0 -0.0009265703269401627 -0.0030582365790246036 0 -0.00025429912765503795 -0.0031677396212235948 0 -0.00097496083010121235 -0.0026435301166968989 0 -0.0009265703269401627 -0.0030582365790246036 0 -0.0015614909454392679 -0.0011425403842345459 0 -0.00129469280222671 -0.0010892552402656482 0 -0.001438058889078756 -0.0014450855437218124 0 -0.0015614909454392679 -0.0011425403842345459 0 -0.001438058889078756 -0.0014450855437218124 0 -0.0017611707662871013 -0.0013452551531783761 0 -0.0015614909454392679 -0.0011425403842345459 0 -0.0019022373381403453 -0.00094976100495670261 0 -0.0015897687963238401 -0.00083916649068178646 0 -0.0015614909454392679 -0.0011425403842345459 0 -0.00129469280222671 -0.0010892552402656482 0 -0.0015897687963238401 -0.00083916649068178646 0 -0.00129469280222671 -0.0010892552402656482 0 -0.0010917244011133262 -0.00084242437182112904 0 -0.00095084819552048512 -0.0010970944535414323 0 -0.00129469280222671 -0.0010892552402656482 0 -0.001139013368582859 -0.0013241677887812068 0 -0.001438058889078756 -0.0014450855437218124 0 -0.00129469280222671 -0.0010892552402656482 0 -0.001139013368582859 -0.0013241677887812068 0 -0.00095084819552048512 -0.0010970944535414323 0 -0.001139013368582859 -0.0013241677887812068 0 -0.0011835839761479333 -0.0015922804365190056 0 -0.001438058889078756 -0.0014450855437218124 0 -0.0011835839761479333 -0.0015922804365190056 0 -0.001438058889078756 -0.0014450855437218124 0 -0.0014013024677010202 -0.0016649081670882418 0 -0.001438058889078756 -0.0014450855437218124 0 -0.0017611707662871013 -0.0013452551531783761 0 -0.0016538591878862811 -0.0016555184916505622 0 -0.001438058889078756 -0.0014450855437218124 0 -0.0016538591878862811 -0.0016555184916505622 0 -0.0014013024677010202 -0.0016649081670882418 0 -0.0018516271628872874 -0.001640721645740955 0 -0.0017611707662871013 -0.0013452551531783761 0 -0.0016538591878862811 -0.0016555184916505622 0 -0.0014843198266684353 -0.0018067692284085663 0 -0.0018516271628872874 -0.001640721645740955 0 -0.001556829023835196 -0.0020388508663845145 0 -0.0014843198266684353 -0.0018067692284085663 0 -0.0018516271628872874 -0.001640721645740955 0 -0.001628686518832373 -0.001587428983263842 0 -0.0018628315697278562 -0.0016507594998065431 0 -0.0020152649650682771 -0.0014666163489931547 0 -0.0018516271628872874 -0.001640721645740955 0 -0.0023590540467555237 -0.0011103571218161132 0 -0.0017611707662871013 -0.0013452551531783761 0 -0.0023590540467555237 -0.0011103571218161132 0 -0.0017611707662871013 -0.0013452551531783761 0 -0.0019022373381403453 -0.00094976100495670261 0 -0.0015614909454392679 -0.0011425403842345459 0 -0.0017611707662871013 -0.0013452551531783761 0 -0.0019022373381403453 -0.00094976100495670261 0 -0.0019022373381403453 -0.00094976100495670261 0 -0.001831837885891436 -0.00066312501267034804 0 -0.0015897687963238401 -0.00083916649068178646 0 -0.0019022373381403453 -0.00094976100495670261 0 -0.0021290293317512703 -0.00061487197005089911 0 -0.0021957635042215993 -0.00084107693972687158 0 -0.0021290293317512703 -0.00061487197005089911 0 -0.001831837885891436 -0.00066312501267034804 0 -0.0020676420549080878 -0.00033211148401234285 0 -0.0019022373381403453 -0.00094976100495670261 0 -0.0021290293317512703 -0.00061487197005089911 0 -0.001831837885891436 -0.00066312501267034804 0 -0.0012187978024389096 -0.0023136094335353846 0 -0.0012673438733177803 -0.002244883449139467 0 -0.001556829023835196 -0.0020388508663845145 0 -0.0027979339175827136 -0.00047518092633453383 0 -0.0023590540467555237 -0.0011103571218161132 0 -0.002418590317071151 -0.00063965239631904062 0 -0.0023590540467555237 -0.0011103571218161132 0 -0.0021957635042215993 -0.00084107693972687158 0 -0.002418590317071151 -0.00063965239631904062 0 -0.0023590540467555237 -0.0011103571218161132 0 -0.0019022373381403453 -0.00094976100495670261 0 -0.0021957635042215993 -0.00084107693972687158 0 -0.0015348491348130759 -0.0016627374140541608 0 -0.0020152649650682771 -0.0014666163489931547 0 -0.0021290293317512703 -0.00061487197005089911 0 -0.0021957635042215993 -0.00084107693972687158 0 -0.002418590317071151 -0.00063965239631904062 0 -0.0027979339175827136 -0.00047518092633453383 0 -0.0025926067288149224 -0.00039529171867842909 0 -0.0027092583579602651 -0.00010082568816725457 0 -0.0027979339175827136 -0.00047518092633453383 0 -0.002418590317071151 -0.00063965239631904062 0 -0.0025926067288149224 -0.00039529171867842909 0 -0.002418590317071151 -0.00063965239631904062 0 -0.0025926067288149224 -0.00039529171867842909 0 -0.0024246548017859554 -0.00031668044697492366 0 -0.0021290293317512703 -0.00061487197005089911 0 -0.002418590317071151 -0.00063965239631904062 0 -0.0024246548017859554 -0.00031668044697492366 0 -0.0024246548017859554 -0.00031668044697492366 0 -0.0023304413137023167 -4.6632563027948635e-05 0 -0.0026430539683383776 9.8845758273826006e-05 0 -0.0024246548017859554 -0.00031668044697492366 0 -0.0023304413137023167 -4.6632563027948635e-05 0 -0.0020676420549080878 -0.00033211148401234285 0 -0.0024246548017859554 -0.00031668044697492366 0 -0.0027092583579602651 -0.00010082568816725457 0 -0.0026430539683383776 9.8845758273826006e-05 0 -0.0025926067288149224 -0.00039529171867842909 0 -0.0024246548017859554 -0.00031668044697492366 0 -0.0027092583579602651 -0.00010082568816725457 0 -0.001831837885891436 -0.00066312501267034804 0 -0.0020676420549080878 -0.00033211148401234285 0 -0.0016798908926611907 -0.0003853118270610723 0 -0.0021290293317512703 -0.00061487197005089911 0 -0.0024246548017859554 -0.00031668044697492366 0 -0.0020676420549080878 -0.00033211148401234285 0 -0.0023304413137023167 -4.6632563027948635e-05 0 -0.0020676420549080878 -0.00033211148401234285 0 -0.0020492370364788648 0.00010235456553818695 0 -0.0016798908926611907 -0.0003853118270610723 0 -0.0016232360100754521 5.966499532717918e-05 0 -0.0020492370364788648 0.00010235456553818695 0 -0.0020676420549080878 -0.00033211148401234285 0 -0.0016798908926611907 -0.0003853118270610723 0 -0.0020492370364788648 0.00010235456553818695 0 -0.0013432728454190262 -0.00022497185711830561 0 -0.0016798908926611907 -0.0003853118270610723 0 -0.0016232360100754521 5.966499532717918e-05 0 -0.0013432728454190262 -0.00022497185711830561 0 -0.0016798908926611907 -0.0003853118270610723 0 -0.0013425227367364577 -0.00066711539630815375 0 -0.00129469280222671 -0.0010892552402656482 0 -0.0013425227367364577 -0.00066711539630815375 0 -0.0015897687963238401 -0.00083916649068178646 0 -0.0016798908926611907 -0.0003853118270610723 0 -0.0013425227367364577 -0.00066711539630815375 0 -0.0015897687963238401 -0.00083916649068178646 0 -0.001831837885891436 -0.00066312501267034804 0 -0.0016798908926611907 -0.0003853118270610723 0 -0.0015897687963238401 -0.00083916649068178646 0 -0.00129469280222671 -0.0010892552402656482 0 -0.0013425227367364577 -0.00066711539630815375 0 -0.0010917244011133262 -0.00084242437182112904 0 -0.0013425227367364577 -0.00066711539630815375 0 -0.0010917244011133262 -0.00084242437182112904 0 -0.0011101990490904412 -0.00054101856950502765 0 -0.0013432728454190262 -0.00022497185711830561 0 -0.0012460566242171616 0.00033864815369609084 0 -0.00079764767279645826 -0.00029776760009493658 0 -0.0013432728454190262 -0.00022497185711830561 0 -0.0011101990490904412 -0.00054101856950502765 0 -0.00079764767279645826 -0.00029776760009493658 0 -0.0013432728454190262 -0.00022497185711830561 0 -0.0013425227367364577 -0.00066711539630815375 0 -0.0011101990490904412 -0.00054101856950502765 0 -0.0039478045796705157 0.0032669193544626767 0 -0.0044351711800007859 0.0031795696507667124 0 -0.004457134317204031 0.0033594983887217603 0 -0.0026788909215599414 0.0017744948869907178 0 -0.0021737544618474938 0.0017981928394960186 0 -0.0013432728454190262 -0.00022497185711830561 0 -0.0012460566242171616 0.00033864815369609084 0 -0.0016232360100754521 5.966499532717918e-05 0 -0.0012460566242171616 0.00033864815369609084 0 -0.0016232360100754521 5.966499532717918e-05 0 -0.0018094151625756372 0.00046994380676489524 0 -0.0012460566242171616 0.00033864815369609084 0 -0.0018094151625756372 0.00046994380676489524 0 -0.0019279109708683316 0.001278103926316009 0 -0.0026788909215599414 0.0017744948869907178 0 -0.0026561696458313241 0.0020458048011271568 0 -0.0039478045796705157 0.0032669193544626767 0 -0.0033354207771561324 0.002796462409547115 0 -0.0037462750544185741 0.0027600782820077999 0 -0.0039478045796705157 0.0032669193544626767 0 -0.0040735449254113891 0.0029879792050157704 0 -0.0037462750544185741 0.0027600782820077999 0 -0.0039478045796705157 0.0032669193544626767 0 -0.0040735449254113891 0.0029879792050157704 0 -0.0044351711800007859 0.0031795696507667124 0 -0.0031195238512363496 0.00063138751572403722 0 -0.0027979339175827136 -0.00047518092633453383 0 -0.0027092583579602651 -0.00010082568816725457 0 -0.0031195238512363496 0.00063138751572403722 0 -0.0027092583579602651 -0.00010082568816725457 0 -0.0026430539683383776 9.8845758273826006e-05 0 -0.0031195238512363496 0.00063138751572403722 0 -0.0026430539683383776 9.8845758273826006e-05 0 -0.0026384247992589363 0.00047805840339866268 0 -0.0026430539683383776 9.8845758273826006e-05 0 -0.0024370785501661831 0.00024029534983790581 0 -0.0026384247992589363 0.00047805840339866268 0 -0.0023304413137023167 -4.6632563027948635e-05 0 -0.0026430539683383776 9.8845758273826006e-05 0 -0.0024370785501661831 0.00024029534983790581 0 -0.0024370785501661831 0.00024029534983790581 0 -0.0026384247992589363 0.00047805840339866268 0 -0.0022879942627739179 0.00057244332212004782 0 -0.0022879942627739179 0.00057244332212004782 0 -0.0020492370364788648 0.00010235456553818695 0 -0.0018094151625756372 0.00046994380676489524 0 -0.0024370785501661831 0.00024029534983790581 0 -0.0022879942627739179 0.00057244332212004782 0 -0.0020492370364788648 0.00010235456553818695 0 -0.0023304413137023167 -4.6632563027948635e-05 0 -0.0024370785501661831 0.00024029534983790581 0 -0.0020492370364788648 0.00010235456553818695 0 -0.0016232360100754521 5.966499532717918e-05 0 -0.0020492370364788648 0.00010235456553818695 0 -0.0018094151625756372 0.00046994380676489524 0 -0.0022879942627739179 0.00057244332212004782 0 -0.0019279109708683316 0.001278103926316009 0 -0.0026910651977397788 0.00090341412664955874 0 -0.0022879942627739179 0.00057244332212004782 0 -0.0018094151625756372 0.00046994380676489524 0 -0.0019279109708683316 0.001278103926316009 0 -0.0019279109708683316 0.001278103926316009 0 -0.0026910651977397788 0.00090341412664955874 0 -0.0028593619561645238 0.0015244616323349372 0 -0.0031195238512363496 0.00063138751572403722 0 -0.0026910651977397788 0.00090341412664955874 0 -0.0028593619561645238 0.0015244616323349372 0 -0.0026384247992589363 0.00047805840339866268 0 -0.0022879942627739179 0.00057244332212004782 0 -0.0026910651977397788 0.00090341412664955874 0 -0.0031195238512363496 0.00063138751572403722 0 -0.0026384247992589363 0.00047805840339866268 0 -0.0026910651977397788 0.00090341412664955874 0 -0.0032895635991531066 0.0023397354309247034 0 -0.0028593619561645238 0.0015244616323349372 0 -0.0032214952593132154 0.0024113827627714767 0 -0.0026561696458313241 0.0020458048011271568 0 -0.0031994533409304133 0.0024092906146630216 0 -0.0019279109708683316 0.001278103926316009 0 -0.0028593619561645238 0.0015244616323349372 0 -0.0032214952593132154 0.0024113827627714767 0 -0.0033354207771561324 0.002796462409547115 0 -0.0033162813987305142 0.0025553448968012532 0 -0.0032214952593132154 0.0024113827627714767 0 -0.0032895635991531066 0.0023397354309247034 0 -0.0031195238512363496 0.00063138751572403722 0 -0.0028593619561645238 0.0015244616323349372 0 -0.0033354207771561324 0.002796462409547115 0 -0.0033162813987305142 0.0025553448968012532 0 -0.0034484315051831901 0.0025972407341058449 0 -0.0033162813987305142 0.0025553448968012532 0 -0.00336005115762366 0.0025275144083598197 0 -0.0034484315051831901 0.0025972407341058449 0 -0.003318478817816801 0.0025244079263790236 0 -0.00336005115762366 0.0025275144083598197 0 -0.0033195266186719949 0.0025170781066748758 0 -0.0033162813987305142 0.0025553448968012532 0 -0.00336005115762366 0.0025275144083598197 0 -0.0033195266186719949 0.0025170781066748758 0 -0.0032895635991531066 0.0023397354309247034 0 -0.0033043866179535788 0.0024979773971150559 0 -0.0032685528392688346 0.0024516357912114264 0 -0.0033162813987305142 0.0025553448968012532 0 -0.0032616805662453101 0.0024615987918441794 0 -0.0032214952593132154 0.0024113827627714767 0 -0.0033162813987305142 0.0025553448968012532 0 -0.0032862860992238555 0.002488393168751683 0 -0.0032616805662453101 0.0024615987918441794 0 -0.0033162813987305142 0.0025553448968012532 0 -0.0033195266186719949 0.0025170781066748758 0 -0.0032862860992238555 0.002488393168751683 0 -0.003318478817816801 0.0025244079263790236 0 -0.0033195266186719949 0.0025170781066748758 0 -0.0032862860992238555 0.002488393168751683 0 -0.003318478817816801 0.0025244079263790236 0 -0.0032862860992238555 0.002488393168751683 0 -0.003289107596818676 0.002488039883038618 0 -0.00331172377775659 0.002524082308403995 0 -0.003318478817816801 0.0025244079263790236 0 -0.003289107596818676 0.002488039883038618 0 -0.0032862860992238555 0.002488393168751683 0 -0.003289107596818676 0.002488039883038618 0 -0.0032685528392688346 0.0024516357912114264 0 -0.00331172377775659 0.002524082308403995 0 -0.003289107596818676 0.002488039883038618 0 -0.0033043866179535788 0.0024979773971150559 0 -0.003289107596818676 0.002488039883038618 0 -0.0033043866179535788 0.0024979773971150559 0 -0.0032685528392688346 0.0024516357912114264 0 -0.0032685528392688346 0.0024516357912114264 0 -0.0032412123214742143 0.0024313497127457177 0 -0.0032616805662453101 0.0024615987918441794 0 -0.0032895635991531066 0.0023397354309247034 0 -0.0032685528392688346 0.0024516357912114264 0 -0.0032412123214742143 0.0024313497127457177 0 -0.0032862860992238555 0.002488393168751683 0 -0.0032685528392688346 0.0024516357912114264 0 -0.0032616805662453101 0.0024615987918441794 0 -0.0032895635991531066 0.0023397354309247034 0 -0.0032412123214742143 0.0024313497127457177 0 -0.0032214952593132154 0.0024113827627714767 0 -0.0032412123214742143 0.0024313497127457177 0 -0.0032616805662453101 0.0024615987918441794 0 -0.0032214952593132154 0.0024113827627714767 0 -0.0038931248348207563 0.0022024688740627197 0 -0.0037462750544185741 0.0027600782820077999 0 -0.0043008051875437093 0.0025206912914327224 0 -0.0040735449254113891 0.0029879792050157704 0 -0.0037462750544185741 0.0027600782820077999 0 -0.0043008051875437093 0.0025206912914327224 0 -0.0033354207771561324 0.002796462409547115 0 -0.0037462750544185741 0.0027600782820077999 0 -0.0034484315051831901 0.0025972407341058449 0 -0.003338920050930669 0.0025086445355123228 0 -0.0037462750544185741 0.0027600782820077999 0 -0.0034484315051831901 0.0025972407341058449 0 -0.003338920050930669 0.0025086445355123228 0 -0.00336005115762366 0.0025275144083598197 0 -0.0034484315051831901 0.0025972407341058449 0 -0.0036566792011526153 0.002311341410117101 0 -0.0037086571836308512 0.0027935439506188023 0 -0.0042265559568639413 0.0020851775590390318 0 -0.0038931248348207563 0.0022024688740627197 0 -0.0043008051875437093 0.0025206912914327224 0 -0.0047188490583497424 0.0037252399001134135 0 -0.0048443684735816174 0.0037591808495445723 0 -0.0047482171822680278 0.0034278173411326622 0 -0.0045344883325760758 0.0028262262238927327 0 -0.0045159313753224649 0.0030182476290817615 0 -0.0047482171822680278 0.0034278173411326622 0 -0.004565266118718863 0.0033057427907617703 0 -0.0044351711800007859 0.0031795696507667124 0 -0.004565266118718863 0.0033057427907617703 0 -0.0046117691635280825 0.0035115801989342639 0 -0.0045404359107743385 0.0033819306649412457 0 -0.0047482171822680278 0.0034278173411326622 0 -0.004565266118718863 0.0033057427907617703 0 -0.0046117691635280825 0.0035115801989342639 0 -0.0047188490583497424 0.0037252399001134135 0 -0.0047482171822680278 0.0034278173411326622 0 -0.0046117691635280825 0.0035115801989342639 0 -0.0045757479536564375 0.0036761778089912946 0 -0.0047188490583497424 0.0037252399001134135 0 -0.0046117691635280825 0.0035115801989342639 0 -0.0045757479536564375 0.0036761778089912946 0 -0.0043875225138894644 0.0035907662890184424 0 -0.0044703065967949384 0.0034478021227998309 0 -0.0045757479536564375 0.0036761778089912946 0 -0.0046117691635280825 0.0035115801989342639 0 -0.0044703065967949384 0.0034478021227998309 0 -0.0043875225138894644 0.0035907662890184424 0 -0.0042099731637834361 0.0035990009596953906 0 -0.0042902810770250061 0.0034336622580678944 0 -0.0043875225138894644 0.0035907662890184424 0 -0.0044703065967949384 0.0034478021227998309 0 -0.0042902810770250061 0.0034336622580678944 0 -0.0043958679308101663 0.0037676990932434895 0 -0.0043875225138894644 0.0035907662890184424 0 -0.0042099731637834361 0.0035990009596953906 0 -0.0044703065967949384 0.0034478021227998309 0 -0.0045093042206350966 0.0032918385753851836 0 -0.0043659841470479396 0.0032872007111691913 0 -0.0044703065967949384 0.0034478021227998309 0 -0.0043659841470479396 0.0032872007111691913 0 -0.0042902810770250061 0.0034336622580678944 0 -0.0055598861496884136 0.0024368873172076078 0 -0.0053020488539623671 0.0031554487360081441 0 -0.0045404359107743385 0.0033819306649412457 0 -0.0044703065967949384 0.0034478021227998309 0 -0.0045093042206350966 0.0032918385753851836 0 -0.004565266118718863 0.0033057427907617703 0 -0.0045404359107743385 0.0033819306649412457 0 -0.0045093042206350966 0.0032918385753851836 0 -0.0046117691635280825 0.0035115801989342639 0 -0.0045404359107743385 0.0033819306649412457 0 -0.0044703065967949384 0.0034478021227998309 0 -0.0045093042206350966 0.0032918385753851836 0 -0.0045145191241209139 0.0032840050080145751 0 -0.0045311868446589812 0.0032681637965503402 0 -0.004188911860948709 0.0031888409914860405 0 -0.0055598861496884136 0.0024368873172076078 0 -0.0079991501819342749 -0.0012871949058851358 0 -0.0087973069623415168 -0.0022030866210878482 0 -0.0055598861496884136 0.0024368873172076078 0 -0.0060427429779249245 0.0019710414599227654 0 -0.0068227866731985463 0.0011194265421700226 0 -0.0067007225381983167 0.00037531025824963111 0 -0.0073156378318210546 2.1864175969029969e-05 0 -0.0067007225381983167 0.00037531025824963111 0 -0.0073156378318210546 2.1864175969029969e-05 0 -0.0072123705423877051 -0.00038952467772224619 0 -0.0045311868446589812 0.0032681637965503402 0 -0.0045323132281639361 0.0032568916437018471 0 -0.0045181961447141837 0.003296617049585789 0 -0.0045093042206350966 0.0032918385753851836 0 -0.0045311868446589812 0.0032681637965503402 0 -0.0045323132281639361 0.0032568916437018471 0 -0.0045323132281639361 0.0032568916437018471 0 -0.004457134317204031 0.0033594983887217603 0 -0.0045181961447141837 0.003296617049585789 0 -0.0045323132281639361 0.0032568916437018471 0 -0.0044351711800007859 0.0031795696507667124 0 -0.004457134317204031 0.0033594983887217603 0 -0.0040735449254113891 0.0029879792050157704 0 -0.0043008051875437093 0.0025206912914327224 0 -0.0044351711800007859 0.0031795696507667124 0 -0.0045159313753224649 0.0030182476290817615 0 -0.0044536527826139682 0.003179203910990509 0 -0.004565266118718863 0.0033057427907617703 0 -0.0045093042206350966 0.0032918385753851836 0 -0.0045323132281639361 0.0032568916437018471 0 -0.004565266118718863 0.0033057427907617703 0 -0.0045323132281639361 0.0032568916437018471 0 -0.0044351711800007859 0.0031795696507667124 0 -0.0060911366367887385 0.0026509152940407247 0 -0.0062316839902055599 0.0028853508762429862 0 -0.0061565711147766721 0.0023984216150981655 0 -0.0092423319494555657 0.00016024738367829112 0 -0.008641645128450141 0.0014707233511888471 0 -0.0060911366367887385 0.0026509152940407247 0 -0.0060875390781966734 0.0023966755082168072 0 -0.005769625119061446 0.0028920950650879454 0 -0.0060911366367887385 0.0026509152940407247 0 -0.0062316839902055599 0.0028853508762429862 0 -0.005769625119061446 0.0028920950650879454 0 -0.0060911366367887385 0.0026509152940407247 0 -0.0061565711147766721 0.0023984216150981655 0 -0.0060875390781966734 0.0023966755082168072 0 -0.0059994911682466207 0.0033615955304649083 0 -0.0062316839902055599 0.0028853508762429862 0 -0.005769625119061446 0.0028920950650879454 0 -0.0059994911682466207 0.0033615955304649083 0 -0.0062316839902055599 0.0028853508762429862 0 -0.0063940015655094291 0.00314477700956871 0 -0.0062316839902055599 0.0028853508762429862 0 -0.0063940015655094291 0.00314477700956871 0 -0.0067001010557026204 0.0030131384062874211 0 -0.0065052122089827163 0.0034456196966887757 0 -0.0059994911682466207 0.0033615955304649083 0 -0.0063940015655094291 0.00314477700956871 0 -0.0065052122089827163 0.0034456196966887757 0 -0.0063940015655094291 0.00314477700956871 0 -0.0067001010557026204 0.0030131384062874211 0 -0.0062731144890987144 0.003597582528862729 0 -0.0076349615069780472 0.00032455646700763188 0 -0.0064963935861296748 0.0023662627828538959 0 -0.0067001010557026204 0.0030131384062874211 0 -0.0060012074753845925 0.0021637969962180138 0 -0.0064963935861296748 0.0023662627828538959 0 -0.0067134365774742929 0.0021661042920273241 0 -0.0060012074753845925 0.0021637969962180138 0 -0.0062316839902055599 0.0028853508762429862 0 -0.0067001010557026204 0.0030131384062874211 0 -0.0061565711147766721 0.0023984216150981655 0 -0.0064963935861296748 0.0023662627828538959 0 -0.006991292227291339 0.0027376288652762727 0 -0.0067134365774742929 0.0021661042920273241 0 -0.0062575284535887682 0.0032620400349262458 0 -0.0072862195395471136 0.0010592874123072349 0 -0.006991292227291339 0.0027376288652762727 0 -0.0074026174653416058 0.0021435522075859831 0 -0.0067134365774742929 0.0021661042920273241 0 -0.0064963935861296748 0.0023662627828538959 0 -0.0069826229187673989 0.002809118238700239 0 -0.0067001010557026204 0.0030131384062874211 0 -0.0066338136219550158 0.0024449064571289286 0 -0.0062575284535887682 0.0032620400349262458 0 -0.0061593498934632892 0.0038853474600346704 0 -0.0062575284535887682 0.0032620400349262458 0 -0.0065052122089827163 0.0034456196966887757 0 -0.0069826229187673989 0.002809118238700239 0 -0.0067001010557026204 0.0030131384062874211 0 -0.005830661830745861 0.0042321741485450122 0 -0.0057218627289760708 0.0043573032980901679 0 -0.0057206396576181756 0.004262263113447985 0 -0.0057218627289760708 0.0043573032980901679 0 -0.0057206396576181756 0.004262263113447985 0 -0.0056245092856871872 0.0042858951184713339 0 -0.0057649399282601 0.0029129773750820715 0 -0.0061365872376025685 0.0032061724381970969 0 -0.006308012918042818 0.0028331607079876702 0 -0.0062575284535887682 0.0032620400349262458 0 -0.0054253896874096163 0.0038976541302451007 0 -0.0054253896874096163 0.0038976541302451007 0 -0.0053020488539623671 0.0031554487360081441 0 -0.006474611244224741 0.0024629013127720322 0 -0.006308012918042818 0.0028331607079876702 0 -0.0060747923783038534 0.0024687492577514835 0 -0.0057649399282601 0.0029129773750820715 0 -0.006308012918042818 0.0028331607079876702 0 -0.0060747923783038534 0.0024687492577514835 0 -0.0055598861496884136 0.0024368873172076078 0 -0.0072862195395471136 0.0010592874123072349 0 -0.0092162256820224886 -0.0026135232822238311 0 -0.0084080900907081702 -0.0014677485930533493 0 -0.0081008296087344365 -0.0026982734146676242 0 -0.0079991501819342749 -0.0012871949058851358 0 -0.0072862195395471136 0.0010592874123072349 0 -0.0068227866731985463 0.0011194265421700226 0 -0.0067007225381983167 0.00037531025824963111 0 -0.0061862962837059294 0.0011281170267529008 0 -0.0092162256820224886 -0.0026135232822238311 0 -0.0081008296087344365 -0.0026982734146676242 0 -0.0087023910704805453 -0.0037769239413637779 0 -0.0081008296087344365 -0.0026982734146676242 0 -0.0073574407975685232 -0.0026669647785632954 0 -0.0074411858380080209 -0.0038593948965029868 0 -0.0081008296087344365 -0.0026982734146676242 0 -0.0073574407975685232 -0.0026669647785632954 0 -0.0076006911758209105 -0.002015806539396594 0 -0.0073574407975685232 -0.0026669647785632954 0 -0.0067279411874622058 -0.0028027125279945172 0 -0.0074411858380080209 -0.0038593948965029868 0 -0.0084080900907081702 -0.0014677485930533493 0 -0.0081008296087344365 -0.0026982734146676242 0 -0.0076006911758209105 -0.002015806539396594 0 -0.0084080900907081702 -0.0014677485930533493 0 -0.0076006911758209105 -0.002015806539396594 0 -0.0071798227341065808 -0.001471451383982234 0 -0.0073574407975685232 -0.0026669647785632954 0 -0.0076006911758209105 -0.002015806539396594 0 -0.0069217852425822127 -0.0019733386832022368 0 -0.0072862195395471136 0.0010592874123072349 0 -0.0067689558803641402 0.00031374260481192124 0 -0.0076006911758209105 -0.002015806539396594 0 -0.0071798227341065808 -0.001471451383982234 0 -0.0069217852425822127 -0.0019733386832022368 0 -0.010239118877477697 -0.002784625011166175 0 -0.0097154348321472246 -0.0032182020973587312 0 -0.0095058917462029074 -0.0028160571984801779 0 -0.010239118877477697 -0.002784625011166175 0 -0.0099209728829229415 -0.0023061973599998904 0 -0.0095058917462029074 -0.0028160571984801779 0 -0.0069217852425822127 -0.0019733386832022368 0 -0.0060766851799583989 -0.0014670470933575582 0 -0.0060018280666545454 -0.0015535274933003004 0 -0.0071798227341065808 -0.001471451383982234 0 -0.0069217852425822127 -0.0019733386832022368 0 -0.0060766851799583989 -0.0014670470933575582 0 -0.0067689558803641402 0.00031374260481192124 0 -0.0076349615069780472 0.00032455646700763188 0 -0.0076865658067017091 -0.0030606513164253817 0 -0.008984116655929136 -0.00044371942646859186 0 -0.0069217852425822127 -0.0019733386832022368 0 -0.006782857662034218 -0.0026880004763830925 0 -0.0060018280666545454 -0.0015535274933003004 0 -0.0070667860433980094 -0.0021149323728997188 0 -0.0076865658067017091 -0.0030606513164253817 0 -0.0073574407975685232 -0.0026669647785632954 0 -0.0069217852425822127 -0.0019733386832022368 0 -0.0067279411874622058 -0.0028027125279945172 0 -0.008984116655929136 -0.00044371942646859186 0 -0.010948811410264853 -0.0016517410510749628 0 -0.011942151829768714 -0.00059685667977257167 0 -0.011937266956166937 -0.00058989601398217568 0 -0.011866382342472118 -0.00057854623438429191 0 -0.0076349615069780472 0.00032455646700763188 0 -0.008984116655929136 -0.00044371942646859186 0 -0.008984116655929136 -0.00044371942646859186 0 -0.0092423319494555657 0.00016024738367829112 0 -0.0076349615069780472 0.00032455646700763188 0 -0.0092423319494555657 0.00016024738367829112 0 -0.0089483997911680296 0.0008158430339205747 0 -0.0088150574018016781 0.00066420807409640686 0 -0.0087066922768840038 0.00082079742073433784 0 -0.0097154348321472246 -0.0032182020973587312 0 -0.010126684391629868 -0.0033790376828232299 0 -0.0095477210337296288 -0.0036360846100046492 0 -0.010126684391629868 -0.0033790376828232299 0 -0.010006427222805217 -0.0039707467387564716 0 -0.0095477210337296288 -0.0036360846100046492 0 -0.010239118877477697 -0.002784625011166175 0 -0.0097154348321472246 -0.0032182020973587312 0 -0.010126684391629868 -0.0033790376828232299 0 -0.0076865658067017091 -0.0030606513164253817 0 -0.0075386583301221468 -0.0039842499397902643 0 -0.0071801564707289905 -0.0033321517897152288 0 -0.0068950796151407874 -0.0046940401298548396 0 -0.0077825485251308583 -0.0042112680111835062 0 -0.0076865658067017091 -0.0030606513164253817 0 -0.0085939427163741807 -0.0039208292065590102 0 -0.0068950796151407874 -0.0046940401298548396 0 -0.0077825485251308583 -0.0042112680111835062 0 -0.0074722018108021567 -0.0055311798280278665 0 -0.0075386583301221468 -0.0039842499397902643 0 -0.0083067805158340922 -0.0050327441933725025 0 -0.0077825485251308583 -0.0042112680111835062 0 -0.0083849670493255125 -0.0050938038953409386 0 -0.0074722018108021567 -0.0055311798280278665 0 -0.0081008296087344365 -0.0026982734146676242 0 -0.0074411858380080209 -0.0038593948965029868 0 -0.0087023910704805453 -0.0037769239413637779 0 -0.0074411858380080209 -0.0038593948965029868 0 -0.0087023910704805453 -0.0037769239413637779 0 -0.0081794643512179532 -0.0049224733481699227 0 -0.0081794643512179532 -0.0049224733481699227 0 -0.0089770881677834636 -0.0059619041280782091 0 -0.0092566838592528806 -0.004780980584725961 0 -0.0087023910704805453 -0.0037769239413637779 0 -0.0081794643512179532 -0.0049224733481699227 0 -0.0092566838592528806 -0.004780980584725961 0 -0.0083849670493255125 -0.0050938038953409386 0 -0.0089770881677834636 -0.0059619041280782091 0 -0.0082138532335151015 -0.0060411205331799347 0 -0.0083067805158340922 -0.0050327441933725025 0 -0.0089051169970404739 -0.0058708043444206911 0 -0.0089600303256824349 -0.0067767018866417492 0 -0.0076375372243827084 -0.0067867391365163642 0 -0.0087850879076240562 -0.007599121636774917 0 -0.0089770881677834636 -0.0059619041280782091 0 -0.0089600303256824349 -0.0067767018866417492 0 -0.0082138532335151015 -0.0060411205331799347 0 -0.0089600303256824349 -0.0067767018866417492 0 -0.0076375372243827084 -0.0067867391365163642 0 -0.0082138532335151015 -0.0060411205331799347 0 -0.0076375372243827084 -0.0067867391365163642 0 -0.0082138532335151015 -0.0060411205331799347 0 -0.0074722018108021567 -0.0055311798280278665 0 -0.0083849670493255125 -0.0050938038953409386 0 -0.0082138532335151015 -0.0060411205331799347 0 -0.0074722018108021567 -0.0055311798280278665 0 -0.0068950796151407874 -0.0046940401298548396 0 -0.0074722018108021567 -0.0055311798280278665 0 -0.0066107738650859425 -0.0060614891466782006 0 -0.0076375372243827084 -0.0067867391365163642 0 -0.0074722018108021567 -0.0055311798280278665 0 -0.0066107738650859425 -0.0060614891466782006 0 -0.0085939427163741807 -0.0039208292065590102 0 -0.0087274812539647091 -0.0055179209214329316 0 -0.00797148107558736 -0.0070638030587853269 0 -0.0071079216331789525 -0.0064642118755600499 0 -0.0068445295043941005 -0.0076981975000743859 0 -0.0075177711868912363 -0.0069296178304140707 0 -0.0087274812539647091 -0.0055179209214329316 0 -0.0087274812539647091 -0.0055179209214329316 0 -0.008842713783688852 -0.0062218964753872124 0 -0.010966134130099371 -0.0052393505296071084 0 -0.011001841770727931 -0.0051327765390765685 0 -0.011078782501913662 -0.0051934498630946532 0 -0.0087274812539647091 -0.0055179209214329316 0 -0.010469861143312172 -0.0044956461186233801 0 -0.00058952039385852593 -0.00085091595664915198 0 -0.00079764767279645826 -0.00029776760009493658 0 -0.00033272496750759889 -0.00079799324796043245 0 -0.0076883828280483995 -0.0026919224653373158 0 -0.0046419362003888697 -0.0028036796141530027 0 -0.00058952039385852593 -0.00085091595664915198 0 -0.00033272496750759889 -0.00079799324796043245 0 -0.00045340132629172609 -0.0011215678402980581 0 -0.0051302635048957523 -0.00090574903911299558 0 -0.0046419362003888697 -0.0028036796141530027 0 -0.0051260256462649367 -0.0021960664421017931 0 -0.0050662748311684803 -0.0022435120307190319 0 -0.0052907426336595512 -0.0025899544909990333 0 -0.0010917244011133262 -0.00084242437182112904 0 -0.0011101990490904412 -0.00054101856950502765 0 -0.00079454850715913073 -0.00072795851714101806 0 -0.00058952039385852593 -0.00085091595664915198 0 -0.00079454850715913073 -0.00072795851714101806 0 -0.00079764767279645826 -0.00029776760009493658 0 -0.0010917244011133262 -0.00084242437182112904 0 -0.00079454850715913073 -0.00072795851714101806 0 -0.00095084819552048512 -0.0010970944535414323 0 -0.0011101990490904412 -0.00054101856950502765 0 -0.00079454850715913073 -0.00072795851714101806 0 -0.00079764767279645826 -0.00029776760009493658 0 -0.0021737544618474938 0.0017981928394960186 0 -0.0051302635048957523 -0.00090574903911299558 0 -0.004457134317204031 0.0033594983887217603 0 -0.0045181961447141837 0.003296617049585789 0 -0.0045258993305155454 0.0032753466339827671 0 -0.0073156378318210546 2.1864175969029969e-05 0 -0.0072123705423877051 -0.00038952467772224619 0 -0.0077972800343210054 -0.0011041099334839822 0 -0.0060427429779249245 0.0019710414599227654 0 -0.0051302635048957523 -0.00090574903911299558 0 -0.0045311868446589812 0.0032681637965503402 0 -0.0045181961447141837 0.003296617049585789 0 -0.0045258993305155454 0.0032753466339827671 0 -0.0092162256820224886 -0.0026135232822238311 0 -0.0087023910704805453 -0.0037769239413637779 0 -0.010007391521650397 -0.0037853030871711538 0 -0.0087023910704805453 -0.0037769239413637779 0 -0.010007391521650397 -0.0037853030871711538 0 -0.0092566838592528806 -0.004780980584725961 0 -0.010007391521650397 -0.0037853030871711538 0 -0.0092566838592528806 -0.004780980584725961 0 -0.0099972786825808565 -0.0046576985183595723 0 -0.0092566838592528806 -0.004780980584725961 0 -0.0099972786825808565 -0.0046576985183595723 0 -0.0097267840291261377 -0.0055338460630402339 0 -0.0087973069623415168 -0.0022030866210878482 0 -0.0076883828280483995 -0.0026919224653373158 0 -0.010007391521650397 -0.0037853030871711538 0 -0.0099972786825808565 -0.0046576985183595723 0 -0.010764036571752799 -0.0049393339958539329 0 -0.0072123705423877051 -0.00038952467772224619 0 -0.0077972800343210054 -0.0011041099334839822 0 -0.007721728219163445 -0.0011646182078425887 0 -0.0099972786825808565 -0.0046576985183595723 0 -0.010325328602188488 -0.0052917859503154628 0 -0.010764036571752799 -0.0049393339958539329 0 -0.0099972786825808565 -0.0046576985183595723 0 -0.010325328602188488 -0.0052917859503154628 0 -0.0097267840291261377 -0.0055338460630402339 0 -0.0093605847803846249 -0.0037764312886610554 0 -0.0076883828280483995 -0.0026919224653373158 0 -0.0051302635048957523 -0.00090574903911299558 0 -0.0076883828280483995 -0.0026919224653373158 0 -0.010640239660935649 -0.0050597453836777138 0 -0.01060375182548153 -0.0056255800578116936 0 -0.010956292614196528 -0.0056341001654328102 0 -0.010325328602188488 -0.0052917859503154628 0 -0.010640239660935649 -0.0050597453836777138 0 -0.01060375182548153 -0.0056255800578116936 0 -0.010325328602188488 -0.0052917859503154628 0 -0.01060375182548153 -0.0056255800578116936 0 -0.010260938964588245 -0.0057030295398827653 0 -0.010325328602188488 -0.0052917859503154628 0 -0.010260938964588245 -0.0057030295398827653 0 -0.0097267840291261377 -0.0055338460630402339 0 -0.010260938964588245 -0.0057030295398827653 0 -0.01010895133724002 -0.0061376557570438197 0 -0.010493336929236039 -0.0059207022716636941 0 -0.010260938964588245 -0.0057030295398827653 0 -0.01010895133724002 -0.0061376557570438197 0 -0.0097267840291261377 -0.0055338460630402339 0 -0.010493336929236039 -0.0059207022716636941 0 -0.010623967758918064 -0.0063023809357748151 0 -0.010876719165164403 -0.0058594367230264599 0 -0.01010895133724002 -0.0061376557570438197 0 -0.010493336929236039 -0.0059207022716636941 0 -0.010623967758918064 -0.0063023809357748151 0 -0.01060375182548153 -0.0056255800578116936 0 -0.010493336929236039 -0.0059207022716636941 0 -0.010876719165164403 -0.0058594367230264599 0 -0.01060375182548153 -0.0056255800578116936 0 -0.010260938964588245 -0.0057030295398827653 0 -0.010493336929236039 -0.0059207022716636941 0 -0.0089770881677834636 -0.0059619041280782091 0 -0.0092566838592528806 -0.004780980584725961 0 -0.0097267840291261377 -0.0055338460630402339 0 -0.0089770881677834636 -0.0059619041280782091 0 -0.01010895133724002 -0.0061376557570438197 0 -0.0097267840291261377 -0.0055338460630402339 0 -0.0089770881677834636 -0.0059619041280782091 0 -0.0089600303256824349 -0.0067767018866417492 0 -0.0098089470055058112 -0.006912281345878124 0 -0.0089770881677834636 -0.0059619041280782091 0 -0.01010895133724002 -0.0061376557570438197 0 -0.0098089470055058112 -0.006912281345878124 0 -0.010623967758918064 -0.0063023809357748151 0 -0.010494373413474681 -0.0067692366275493984 0 -0.010889896093515958 -0.0066180233000100348 0 -0.01010895133724002 -0.0061376557570438197 0 -0.010623967758918064 -0.0063023809357748151 0 -0.010494373413474681 -0.0067692366275493984 0 -0.01010895133724002 -0.0061376557570438197 0 -0.0098089470055058112 -0.006912281345878124 0 -0.010494373413474681 -0.0067692366275493984 0 -0.0098089470055058112 -0.006912281345878124 0 -0.010494373413474681 -0.0067692366275493984 0 -0.01046897921798654 -0.0072939793690624758 0 -0.010494373413474681 -0.0067692366275493984 0 -0.010889896093515958 -0.0066180233000100348 0 -0.010909977967707275 -0.0071192114303446352 0 -0.00483599746819961 -0.004449025316444726 0 -0.0046419362003888697 -0.0028036796141530027 0 -0.010997034474467426 -0.0062846055762932661 0 -0.011050600534190535 -0.0062086635344835708 0 -0.010876719165164403 -0.0058594367230264599 0 -0.0078310314971178231 -0.0057301912350670317 0 -0.011662308427281736 -0.0065968225518660464 0 -0.010889896093515958 -0.0066180233000100348 0 -0.011520657192619473 -0.0069953009983276448 0 -0.010876719165164403 -0.0058594367230264599 0 -0.00077685795404391867 -0.0015066974614312842 0 -0.0007997776401382047 -0.0015497607109149116 0 -0.00099974650920025068 -0.0016600732970824435 0 -0.010889896093515958 -0.0066180233000100348 0 -0.011520657192619473 -0.0069953009983276448 0 -0.010909977967707275 -0.0071192114303446352 0 -0.0078310314971178231 -0.0057301912350670317 0 -0.00483599746819961 -0.004449025316444726 0 -0.010623967758918064 -0.0063023809357748151 0 -0.010889896093515958 -0.0066180233000100348 0 -0.010876719165164403 -0.0058594367230264599 0 -0.00058952039385852593 -0.00085091595664915198 0 -0.00045340132629172609 -0.0011215678402980581 0 -0.00090797851869285422 -0.001549372424299182 0 -0.011050600534190535 -0.0062086635344835708 0 -0.010876719165164403 -0.0058594367230264599 0 -0.010956292614196528 -0.0056341001654328102 0 -0.00011527388720581369 -0.00058956228078617314 0 -0.0046419362003888697 -0.0028036796141530027 0 -0.0007997776401382047 -0.0015497607109149116 0 -0.00045340132629172609 -0.0011215678402980581 0 -0.00090797851869285422 -0.001549372424299182 0 -0.01060375182548153 -0.0056255800578116936 0 -0.010876719165164403 -0.0058594367230264599 0 -0.010956292614196528 -0.0056341001654328102 0 -0.001139013368582859 -0.0013241677887812068 0 -0.00095084819552048512 -0.0010970944535414323 0 -0.000828504686497719 -0.0013768186180724003 0 -0.00058952039385852593 -0.00085091595664915198 0 -0.00079454850715913073 -0.00072795851714101806 0 -0.00090797851869285422 -0.001549372424299182 0 -0.00079454850715913073 -0.00072795851714101806 0 -0.00095084819552048512 -0.0010970944535414323 0 -0.00076918793209018092 -0.0014007835358809792 0 -0.00057002586515104297 -0.00060782423253247914 0 -0.001758663374587448 -0.0018667152376644007 0 -0.0010253182587131222 -0.0012260305439952531 0 -0.001758663374587448 -0.0018667152376644007 0 -0.0011835839761479333 -0.0015922804365190056 0 -0.000828504686497719 -0.0013768186180724003 0 -0.001030988208629948 -0.0017606982561204612 0 -0.0026577665201988989 -0.0031036477616533716 0 -0.0028951908995099094 -0.0027096806791409521 0 -0.0028736159431394146 -0.0035577190129012152 0 -0.001139013368582859 -0.0013241677887812068 0 -0.0011835839761479333 -0.0015922804365190056 0 -0.000828504686497719 -0.0013768186180724003 0 -0.001758663374587448 -0.0018667152376644007 0 -0.0030116232413705882 -0.0031655963277075457 0 -0.00077685795404391867 -0.0015066974614312842 0 -0.0007997776401382047 -0.0015497607109149116 0 -0.00090797851869285422 -0.001549372424299182 0 -0.00483599746819961 -0.004449025316444726 0 -0.001758663374587448 -0.0018667152376644007 0 -0.000828504686497719 -0.0013768186180724003 0 -0.00084679117268228975 -0.0017079861900018629 0 -0.001030988208629948 -0.0017606982561204612 0 -0.0049607377618268366 -0.0047611532398273678 0 -0.0043220832224985899 -0.0042467358175038213 0 -0.0043340363634913779 -0.0036481524557794606 0 -0.0049607377618268366 -0.0047611532398273678 0 -0.0047441213112375041 -0.0051126421122919897 0 -0.0043220832224985899 -0.0042467358175038213 0 -0.0078310314971178231 -0.0057301912350670317 0 -0.003661506405613859 -0.0039833215840990562 0 -0.00483599746819961 -0.004449025316444726 0 -0.0030116232413705882 -0.0031655963277075457 0 -0.00084957570289282357 -0.0018334903618585569 0 -0.00089450282921451675 -0.0019100345260100291 0 -0.001030988208629948 -0.0017606982561204612 0 -0.00084679117268228975 -0.0017079861900018629 0 -0.00084957570289282357 -0.0018334903618585569 0 -0.001030988208629948 -0.0017606982561204612 0 -0.0030116232413705882 -0.0031655963277075457 0 -0.003661506405613859 -0.0039833215840990562 0 -0.003661506405613859 -0.0039833215840990562 0 -0.0024886623158723821 -0.0036199364514317746 0 -0.0036533835124811032 -0.0039960492536913706 0 -0.0039994474247654821 -0.0046303132639106091 0 -0.0036349302793446275 -0.0045979277883210577 0 -0.0024886623158723821 -0.0036199364514317746 0 -0.0038680765507607311 -0.0049112633346792946 0 -0.003661506405613859 -0.0039833215840990562 0 -0.0038680765507607311 -0.0049112633346792946 0 -0.0024886623158723821 -0.0036199364514317746 0 -0.0025807248362125982 -0.005516988600169118 0 -0.0042642828941868429 -0.0084053168581271383 0 -0.0040454070510774686 -0.0082933599525376132 0 -0.0042991678060661379 -0.0080019029768790273 0 -0.0038680765507607311 -0.0049112633346792946 0 -0.0039805310032442909 -0.0074278706856981333 0 -0.0030176177001156636 -0.0052912355171987448 0 -0.0029428518678254814 -0.0052845273799136949 0 -0.0029344611135524068 -0.0055456660801652255 0 -0.0030176177001156636 -0.0052912355171987448 0 -0.0029344611135524068 -0.0055456660801652255 0 -0.0032405446972881861 -0.005716116072946564 0 -0.0043546772872680587 -0.0083832008898029522 0 -0.0043539759829088129 -0.0082635165906042776 0 -0.0044628305126229841 -0.0083323013570288668 0 -0.0039805310032442909 -0.0074278706856981333 0 -0.0045212653022653785 -0.0079958074034301233 0 -0.0039805310032442909 -0.0074278706856981333 0 -0.0025807248362125982 -0.005516988600169118 0 -0.004538847147328883 -0.0082022871614112255 0 -0.0044762202696803236 -0.0082584743601484528 0 -0.0045834760673328619 -0.0082828949900556476 0 -0.0046306009080425486 -0.0081797624891395415 0 -0.004538847147328883 -0.0082022871614112255 0 -0.0045834760673328619 -0.0082828949900556476 0 -0.0046306009080425486 -0.0081797624891395415 0 -0.004538847147328883 -0.0082022871614112255 0 -0.0045520634975953688 -0.0081296600916628235 0 -0.004538847147328883 -0.0082022871614112255 0 -0.0044762202696803236 -0.0082584743601484528 0 -0.0044424278487469292 -0.0081587666783913028 0 -0.0043552855187603563 -0.0082958362473578139 0 -0.0044762202696803236 -0.0082584743601484528 0 -0.0044424278487469292 -0.0081587666783913028 0 -0.0043546772872680587 -0.0083832008898029522 0 -0.0044628305126229841 -0.0083323013570288668 0 -0.0045917532209650315 -0.0084163419723326891 0 -0.0044762202696803236 -0.0082584743601484528 0 -0.0044628305126229841 -0.0083323013570288668 0 -0.0045834760673328619 -0.0082828949900556476 0 -0.0043552855187603563 -0.0082958362473578139 0 -0.0044762202696803236 -0.0082584743601484528 0 -0.0044628305126229841 -0.0083323013570288668 0 -0.0044628305126229841 -0.0083323013570288668 0 -0.0045834760673328619 -0.0082828949900556476 0 -0.0045917532209650315 -0.0084163419723326891 0 -0.0064670861959764073 -0.0064498547202597803 0 -0.0059517536428775799 -0.0055339591575989319 0 -0.0071480920960597808 -0.0053510397968849722 0 -0.0059517536428775799 -0.0055339591575989319 0 -0.005958092156101792 -0.0052358817822322993 0 -0.0071480920960597808 -0.0053510397968849722 0 -0.0038680765507607311 -0.0049112633346792946 0 -0.0082883998428771553 -0.0072601849462130439 0 -0.0078310314971178231 -0.0057301912350670317 0 -0.0082883998428771553 -0.0072601849462130439 0 -0.011014427170396779 -0.0077910668803706324 0 -0.010909977967707275 -0.0071192114303446352 0 -0.01046897921798654 -0.0072939793690624758 0 -0.011520657192619473 -0.0069953009983276448 0 -0.011014427170396779 -0.0077910668803706324 0 -0.010909977967707275 -0.0071192114303446352 0 -0.0082883998428771553 -0.0072601849462130439 0 -0.011095191559326287 -0.0078073012494369633 0 -0.010494373413474681 -0.0067692366275493984 0 -0.010909977967707275 -0.0071192114303446352 0 -0.01046897921798654 -0.0072939793690624758 0 -0.011014427170396779 -0.0077910668803706324 0 -0.01046897921798654 -0.0072939793690624758 0 -0.010105423539040538 -0.0077269228441412064 0 -0.0098089470055058112 -0.006912281345878124 0 -0.01046897921798654 -0.0072939793690624758 0 -0.010105423539040538 -0.0077269228441412064 0 -0.0089600303256824349 -0.0067767018866417492 0 -0.0098089470055058112 -0.006912281345878124 0 -0.0094539145805199766 -0.0075306091932983649 0 -0.0098089470055058112 -0.006912281345878124 0 -0.010105423539040538 -0.0077269228441412064 0 -0.0094539145805199766 -0.0075306091932983649 0 -0.010105423539040538 -0.0077269228441412064 0 -0.0094539145805199766 -0.0075306091932983649 0 -0.0094070399769261206 -0.0082025426757501557 0 -0.0094539145805199766 -0.0075306091932983649 0 -0.0094070399769261206 -0.0082025426757501557 0 -0.0087850879076240562 -0.007599121636774917 0 -0.010105423539040538 -0.0077269228441412064 0 -0.0094070399769261206 -0.0082025426757501557 0 -0.009903784700086956 -0.0084140732554334255 0 -0.009903784700086956 -0.0084140732554334255 0 -0.0095384492479278511 -0.008666635678886498 0 -0.0099101143075360637 -0.0089114477643295175 0 -0.0094070399769261206 -0.0082025426757501557 0 -0.009903784700086956 -0.0084140732554334255 0 -0.0095384492479278511 -0.008666635678886498 0 -0.0094070399769261206 -0.0082025426757501557 0 -0.0095384492479278511 -0.008666635678886498 0 -0.0092375582018844674 -0.0086959224588659557 0 -0.0045834760673328619 -0.0082828949900556476 0 -0.0045917532209650315 -0.0084163419723326891 0 -0.0048037069158997289 -0.0081043177595614638 0 -0.010950837499251864 -0.0077962396960327453 0 -0.010285032545554519 -0.0083279941842205642 0 -0.010302912734637187 -0.0089986333621559795 0 -0.0082883998428771553 -0.0072601849462130439 0 -0.0065417901731853016 -0.0094472235142466828 0 -0.010950837499251864 -0.0077962396960327453 0 -0.010105423539040538 -0.0077269228441412064 0 -0.010285032545554519 -0.0083279941842205642 0 -0.010105423539040538 -0.0077269228441412064 0 -0.009903784700086956 -0.0084140732554334255 0 -0.010285032545554519 -0.0083279941842205642 0 -0.010285032545554519 -0.0083279941842205642 0 -0.010096178758171826 -0.0086548273059415121 0 -0.010302912734637187 -0.0089986333621559795 0 -0.009903784700086956 -0.0084140732554334255 0 -0.010096178758171826 -0.0086548273059415121 0 -0.0099101143075360637 -0.0089114477643295175 0 -0.009903784700086956 -0.0084140732554334255 0 -0.010285032545554519 -0.0083279941842205642 0 -0.010096178758171826 -0.0086548273059415121 0 -0.0046306009080425486 -0.0081797624891395415 0 -0.0045834760673328619 -0.0082828949900556476 0 -0.0048037069158997289 -0.0081043177595614638 0 -0.0047781203006436613 -0.0080405150522213451 0 -0.0045938318284795701 -0.0080615549321170002 0 -0.0045573592300457285 -0.0080130371283477254 0 -0.0046601187355971921 -0.0081075592464035333 0 -0.0047781203006436613 -0.0080405150522213451 0 -0.0045938318284795701 -0.0080615549321170002 0 -0.0047580989833686024 -0.0087328497075277612 0 -0.0065417901731853016 -0.0094472235142466828 0 -0.0046754670564508405 -0.011205048837604741 0 -0.0042664831469451225 -0.010645797076609667 0 -0.0046306009080425486 -0.0081797624891395415 0 -0.0046601187355971921 -0.0081075592464035333 0 -0.00472744390592688 -0.0081204715075433986 0 -0.010096178758171826 -0.0086548273059415121 0 -0.0099101143075360637 -0.0089114477643295175 0 -0.010302912734637187 -0.0089986333621559795 0 -0.0046601187355971921 -0.0081075592464035333 0 -0.00472744390592688 -0.0081204715075433986 0 -0.0047781203006436613 -0.0080405150522213451 0 -0.0065417901731853016 -0.0094472235142466828 0 -0.0046754670564508405 -0.011205048837604741 0 -0.0099101143075360637 -0.0089114477643295175 0 -0.0093008342967816973 -0.009014278836093053 0 -0.0089358179723896015 -0.0094171224517670994 0 -0.0099101143075360637 -0.0089114477643295175 0 -0.009168877091768203 -0.0097100880210898837 0 -0.0079508645373684746 -0.01039552349413151 0 -0.010298277861646528 -0.0085271852235800187 0 -0.0074748252314897189 -0.010975613526679891 0 -0.0095384492479278511 -0.008666635678886498 0 -0.0092375582018844674 -0.0086959224588659557 0 -0.0093008342967816973 -0.009014278836093053 0 -0.0099101143075360637 -0.0089114477643295175 0 -0.010302912734637187 -0.0089986333621559795 0 -0.009168877091768203 -0.0097100880210898837 0 -0.0095384492479278511 -0.008666635678886498 0 -0.0099101143075360637 -0.0089114477643295175 0 -0.0093008342967816973 -0.009014278836093053 0 -0.0053507601208627621 -0.013245092529943107 0 -0.0051782698276721852 -0.013565516642059967 0 -0.0049930395469939583 -0.013528733655681644 0 -0.0051782698276721852 -0.013565516642059967 0 -0.0049930395469939583 -0.013528733655681644 0 -0.0050329354180398932 -0.013573771373828074 0 -0.0065417901731853016 -0.0094472235142466828 0 -0.0069445994679272014 -0.011609004273942828 0 -0.0046754670564508405 -0.011205048837604741 0 -0.0049185404196682358 -0.011770180232887005 0 -0.0049930395469939583 -0.013528733655681644 0 -0.0050329354180398932 -0.013573771373828074 0 -0.0050306306122894513 -0.013557734300333515 0 -0.0069445994679272014 -0.011609004273942828 0 -0.0074748252314897189 -0.010975613526679891 0 -0.0049930395469939583 -0.013528733655681644 0 -0.0050787311512885801 -0.013568519533208727 0 -0.0050306306122894513 -0.013557734300333515 0 -0.0049930395469939583 -0.013528733655681644 0 -0.0050787311512885801 -0.013568519533208727 0 -0.0052185105389277705 -0.013651927659736659 0 -0.0050787311512885801 -0.013568519533208727 0 -0.0050306306122894513 -0.013557734300333515 0 -0.0050217739265384252 -0.013529249885522555 0 -0.0050787311512885801 -0.013568519533208727 0 -0.0050217739265384252 -0.013529249885522555 0 -0.0050101383712321708 -0.013461416667388142 0 -0.0050787311512885801 -0.013568519533208727 0 -0.0050101383712321708 -0.013461416667388142 0 -0.0050895267048822902 -0.013477000218400818 0 -0.0050329354180398932 -0.013573771373828074 0 -0.0049592136832090038 -0.013486492446859046 0 -0.0048325235393098364 -0.013507081033510311 0 -0.0050217739265384252 -0.013529249885522555 0 -0.0049592136832090038 -0.013486492446859046 0 -0.0050101383712321708 -0.013461416667388142 0 -0.0050329354180398932 -0.013573771373828074 0 -0.0050217739265384252 -0.013529249885522555 0 -0.0049592136832090038 -0.013486492446859046 0 -0.0050329354180398932 -0.013573771373828074 0 -0.0050306306122894513 -0.013557734300333515 0 -0.0050217739265384252 -0.013529249885522555 0 -0.0049441576311882035 -0.013411869166208162 0 -0.0049872332226524891 -0.013368151377085668 0 -0.0048694138316451932 -0.013257652116812835 0 -0.0049592136832090038 -0.013486492446859046 0 -0.0049441576311882035 -0.013411869166208162 0 -0.0050101383712321708 -0.013461416667388142 0 -0.0049592136832090038 -0.013486492446859046 0 -0.0049441576311882035 -0.013411869166208162 0 -0.0048687288089173594 -0.013421359540306122 0 -0.0049441576311882035 -0.013411869166208162 0 -0.0049872332226524891 -0.013368151377085668 0 -0.0050101383712321708 -0.013461416667388142 0 -0.0049872332226524891 -0.013368151377085668 0 -0.0050101383712321708 -0.013461416667388142 0 -0.0050895267048822902 -0.013477000218400818 0 -0.0049872332226524891 -0.013368151377085668 0 -0.0050895267048822902 -0.013477000218400818 0 -0.0050680156865685437 -0.013346378159809231 0 -0.0050895267048822902 -0.013477000218400818 0 -0.005221727630484751 -0.013462841773384943 0 -0.0050680156865685437 -0.013346378159809231 0 -0.0049383768167867029 -0.013573465444393478 0 -0.0048325235393098364 -0.013507081033510311 0 -0.0045658034047102031 -0.013553459094049347 0 -0.0046953433967954336 -0.013469620995928461 0 -0.0048325235393098364 -0.013507081033510311 0 -0.0045658034047102031 -0.013553459094049347 0 -0.0046953433967954336 -0.013469620995928461 0 -0.0048325235393098364 -0.013507081033510311 0 -0.0047730260337504899 -0.0134185123703198 0 -0.0049383768167867029 -0.013573465444393478 0 -0.0050329354180398932 -0.013573771373828074 0 -0.0048325235393098364 -0.013507081033510311 0 -0.0049592136832090038 -0.013486492446859046 0 -0.0048325235393098364 -0.013507081033510311 0 -0.0048687288089173594 -0.013421359540306122 0 -0.0048325235393098364 -0.013507081033510311 0 -0.0048687288089173594 -0.013421359540306122 0 -0.0047730260337504899 -0.0134185123703198 0 -0.0049441576311882035 -0.013411869166208162 0 -0.0048687288089173594 -0.013421359540306122 0 -0.0048694138316451932 -0.013257652116812835 0 -0.0048687288089173594 -0.013421359540306122 0 -0.0047850974308470233 -0.013340030332336305 0 -0.0048694138316451932 -0.013257652116812835 0 -0.0048687288089173594 -0.013421359540306122 0 -0.0047850974308470233 -0.013340030332336305 0 -0.0047730260337504899 -0.0134185123703198 0 -0.0046953433967954336 -0.013469620995928461 0 -0.0047730260337504899 -0.0134185123703198 0 -0.0046831154701507368 -0.013358196932459933 0 -0.0047850974308470233 -0.013340030332336305 0 -0.0047730260337504899 -0.0134185123703198 0 -0.0046831154701507368 -0.013358196932459933 0 -0.0046831154701507368 -0.013358196932459933 0 -0.004623630446917602 -0.013423231918590088 0 -0.004556655262592464 -0.013318856634864436 0 -0.0042664831469451225 -0.010645797076609667 0 -0.0033902011950872617 -0.012052449926610243 0 -0.004556655262592464 -0.013318856634864436 0 -0.0045658034047102031 -0.013553459094049347 0 -0.004334458730583423 -0.01319041787245028 0 -0.0046953433967954336 -0.013469620995928461 0 -0.0046831154701507368 -0.013358196932459933 0 -0.004623630446917602 -0.013423231918590088 0 -0.0046953433967954336 -0.013469620995928461 0 -0.004623630446917602 -0.013423231918590088 0 -0.0045658034047102031 -0.013553459094049347 0 -0.004623630446917602 -0.013423231918590088 0 -0.004556655262592464 -0.013318856634864436 0 -0.0045658034047102031 -0.013553459094049347 0 -0.0018415176460251483 -0.011013543824202717 0 -0.0028713632535525787 -0.011603845979464324 0 -0.0018631152882685989 -0.010004756535035847 0 -0.0018415176460251483 -0.011013543824202717 0 -0.0013094678827392672 -0.010725449061445284 0 -0.0012874909793540907 -0.011150106534864559 0 -0.0018415176460251483 -0.011013543824202717 0 -0.0013094678827392672 -0.010725449061445284 0 -0.0018631152882685989 -0.010004756535035847 0 -0.0012874909793540907 -0.011150106534864559 0 -0.001800787590208768 -0.011592937151265751 0 -0.00074338742135670417 -0.011558415140534448 0 -0.0018415176460251483 -0.011013543824202717 0 -0.0012874909793540907 -0.011150106534864559 0 -0.001800787590208768 -0.011592937151265751 0 -0.0018415176460251483 -0.011013543824202717 0 -0.001800787590208768 -0.011592937151265751 0 -0.0028713632535525787 -0.011603845979464324 0 -0.0042991678060661379 -0.0080019029768790273 0 -0.0040733691607397846 -0.0080258301954056442 0 -0.0041724578757018124 -0.0078700232977066444 0 -0.0029532735647325452 -0.0096998485250556193 0 -0.0042664831469451225 -0.010645797076609667 0 -0.0039805310032442909 -0.0074278706856981333 0 -0.0043090743778130608 -0.0083483541078596193 0 -0.0042991678060661379 -0.0080019029768790273 0 -0.0041724578757018124 -0.0078700232977066444 0 -0.0045235168152772173 -0.0079062957844501149 0 -0.0043552855187603563 -0.0082958362473578139 0 -0.0042991678060661379 -0.0080019029768790273 0 -0.0044424278487469292 -0.0081587666783913028 0 -0.0029532735647325452 -0.0096998485250556193 0 -0.0019191536367083421 -0.0080674610907926648 0 -0.0040733691607397846 -0.0080258301954056442 0 -0.0041724578757018124 -0.0078700232977066444 0 -0.0037827790255275115 -0.0078605066494370698 0 -0.0040454070510774686 -0.0082933599525376132 0 -0.0042991678060661379 -0.0080019029768790273 0 -0.0040733691607397846 -0.0080258301954056442 0 -0.0042991678060661379 -0.0080019029768790273 0 -0.0044424278487469292 -0.0081587666783913028 0 -0.0044768538311287607 -0.0080512042187569407 0 -0.0044424278487469292 -0.0081587666783913028 0 -0.0044768538311287607 -0.0080512042187569407 0 -0.0045520634975953688 -0.0081296600916628235 0 -0.004538847147328883 -0.0082022871614112255 0 -0.0044424278487469292 -0.0081587666783913028 0 -0.0045520634975953688 -0.0081296600916628235 0 -0.0046601187355971921 -0.0081075592464035333 0 -0.0045520634975953688 -0.0081296600916628235 0 -0.0045938318284795701 -0.0080615549321170002 0 -0.0046306009080425486 -0.0081797624891395415 0 -0.0046601187355971921 -0.0081075592464035333 0 -0.0045520634975953688 -0.0081296600916628235 0 -0.0044768538311287607 -0.0080512042187569407 0 -0.0045520634975953688 -0.0081296600916628235 0 -0.0045938318284795701 -0.0080615549321170002 0 -0.0044768538311287607 -0.0080512042187569407 0 -0.0045938318284795701 -0.0080615549321170002 0 -0.0045235168152772173 -0.0079062957844501149 0 -0.0038609944705594876 -0.0086409950652718403 0 -0.0042664831469451225 -0.010645797076609667 0 -0.0042991678060661379 -0.0080019029768790273 0 -0.0044768538311287607 -0.0080512042187569407 0 -0.0045235168152772173 -0.0079062957844501149 0 -0.0068445295043941005 -0.0076981975000743859 0 -0.0076071824357327872 -0.0090602082499813864 0 -0.0066004654615532893 -0.0089590452420079819 0 -0.008842713783688852 -0.0062218964753872124 0 -0.0098296701860793624 -0.0082951965906910251 0 -0.00797148107558736 -0.0070638030587853269 0 -0.0068445295043941005 -0.0076981975000743859 0 -0.0079763146829437536 -0.0080682216038697342 0 -0.0068445295043941005 -0.0076981975000743859 0 -0.0079763146829437536 -0.0080682216038697342 0 -0.0076071824357327872 -0.0090602082499813864 0 -0.0079763146829437536 -0.0080682216038697342 0 -0.0082945017122931022 -0.008654865208389307 0 -0.0076071824357327872 -0.0090602082499813864 0 -0.0079763146829437536 -0.0080682216038697342 0 -0.0082945017122931022 -0.008654865208389307 0 -0.0088819931777875949 -0.0085192677634433837 0 -0.00797148107558736 -0.0070638030587853269 0 -0.0079763146829437536 -0.0080682216038697342 0 -0.0087850879076240562 -0.007599121636774917 0 -0.0075177711868912363 -0.0069296178304140707 0 -0.0088279336899530526 -0.0075858426294852571 0 -0.0089600303256824349 -0.0067767018866417492 0 -0.0094539145805199766 -0.0075306091932983649 0 -0.0087850879076240562 -0.007599121636774917 0 -0.0094070399769261206 -0.0082025426757501557 0 -0.0087850879076240562 -0.007599121636774917 0 -0.0088819931777875949 -0.0085192677634433837 0 -0.0079763146829437536 -0.0080682216038697342 0 -0.0087850879076240562 -0.007599121636774917 0 -0.0088819931777875949 -0.0085192677634433837 0 -0.0094070399769261206 -0.0082025426757501557 0 -0.0092375582018844674 -0.0086959224588659557 0 -0.0088819931777875949 -0.0085192677634433837 0 -0.0092375582018844674 -0.0086959224588659557 0 -0.0088819931777875949 -0.0085192677634433837 0 -0.009046039268890067 -0.0090340422532680237 0 -0.0092375582018844674 -0.0086959224588659557 0 -0.0093008342967816973 -0.009014278836093053 0 -0.009046039268890067 -0.0090340422532680237 0 -0.0088819931777875949 -0.0085192677634433837 0 -0.009046039268890067 -0.0090340422532680237 0 -0.0088159533899274545 -0.0092694542109208276 0 -0.0082945017122931022 -0.008654865208389307 0 -0.0088819931777875949 -0.0085192677634433837 0 -0.0088159533899274545 -0.0092694542109208276 0 -0.009046039268890067 -0.0090340422532680237 0 -0.0088159533899274545 -0.0092694542109208276 0 -0.0089358179723896015 -0.0094171224517670994 0 -0.0093008342967816973 -0.009014278836093053 0 -0.009046039268890067 -0.0090340422532680237 0 -0.0089358179723896015 -0.0094171224517670994 0 -0.0050787311512885801 -0.013568519533208727 0 -0.0050895267048822902 -0.013477000218400818 0 -0.0052185105389277705 -0.013651927659736659 0 -0.0074748252314897189 -0.010975613526679891 0 -0.0090066347988447936 -0.0095668608688649071 0 -0.0052185105389277705 -0.013651927659736659 0 -0.0054765620136979238 -0.013507882948207851 0 -0.0060746536737805107 -0.013561571231755963 0 -0.0052185105389277705 -0.013651927659736659 0 -0.005221727630484751 -0.013462841773384943 0 -0.0054765620136979238 -0.013507882948207851 0 -0.0050895267048822902 -0.013477000218400818 0 -0.0052185105389277705 -0.013651927659736659 0 -0.005221727630484751 -0.013462841773384943 0 -0.0088159533899274545 -0.0092694542109208276 0 -0.0089358179723896015 -0.0094171224517670994 0 -0.0090011221435834544 -0.0093345845284258915 0 -0.0074188565875631827 -0.010748078383340819 0 -0.0085236564805937481 -0.010171038369348212 0 -0.0086418927038302198 -0.0098836620778098763 0 -0.0074748252314897189 -0.010975613526679891 0 -0.0071079782613743649 -0.011940802744052331 0 -0.0089358179723896015 -0.0094171224517670994 0 -0.0090011221435834544 -0.0093345845284258915 0 -0.0091230413740610063 -0.0091962501319227674 0 -0.0090011221435834544 -0.0093345845284258915 0 -0.0091230413740610063 -0.0091962501319227674 0 -0.0092174545533591622 -0.0094184097420992787 0 -0.0088159533899274545 -0.0092694542109208276 0 -0.0090011221435834544 -0.0093345845284258915 0 -0.0092174545533591622 -0.0094184097420992787 0 -0.0089546289527832681 -0.0092905417160311643 0 -0.0082230237706787442 -0.0094572702449838963 0 -0.0088159533899274545 -0.0092694542109208276 0 -0.0092174545533591622 -0.0094184097420992787 0 -0.0094345487126935006 -0.0097104501345481233 0 -0.0082945017122931022 -0.008654865208389307 0 -0.0088159533899274545 -0.0092694542109208276 0 -0.0076071824357327872 -0.0090602082499813864 0 -0.0094345487126935006 -0.0097104501345481233 0 -0.0095893806706868045 -0.0094103951221301187 0 -0.010063111572863902 -0.0097790512835650625 0 -0.0091230413740610063 -0.0091962501319227674 0 -0.0095893806706868045 -0.0094103951221301187 0 -0.0097286413367075886 -0.0090444197305363169 0 -0.0091230413740610063 -0.0091962501319227674 0 -0.0092174545533591622 -0.0094184097420992787 0 -0.0095893806706868045 -0.0094103951221301187 0 -0.0092174545533591622 -0.0094184097420992787 0 -0.0094345487126935006 -0.0097104501345481233 0 -0.0095893806706868045 -0.0094103951221301187 0 -0.0095893806706868045 -0.0094103951221301187 0 -0.0099134787544677711 -0.0093114224869476937 0 -0.0097286413367075886 -0.0090444197305363169 0 -0.0099134787544677711 -0.0093114224869476937 0 -0.010063111572863902 -0.0097790512835650625 0 -0.010214917097943532 -0.0092775934320551527 0 -0.0095893806706868045 -0.0094103951221301187 0 -0.0099134787544677711 -0.0093114224869476937 0 -0.010063111572863902 -0.0097790512835650625 0 -0.0082230237706787442 -0.0094572702449838963 0 -0.0098296701860793624 -0.0082951965906910251 0 -0.0087519697622749238 -0.010894406822814543 0 -0.0098857817037519939 -0.010194835121504623 0 -0.0097867048538079482 -0.0090900656919193044 0 -0.010375282366895434 -0.0090834837613509214 0 -0.010688443401552032 -0.0087861915868551656 0 -0.0076062984882076358 -0.012797235795112827 0 -0.0070771444010966226 -0.011984259774172733 0 -0.0079597962424207899 -0.011560453184753376 0 -0.0076062984882076358 -0.012797235795112827 0 -0.0079597962424207899 -0.011560453184753376 0 -0.0091734374536319926 -0.011557669320005338 0 -0.0097867048538079482 -0.0090900656919193044 0 -0.0095739683440149333 -0.0096032835263795326 0 -0.010375282366895434 -0.0090834837613509214 0 -0.01006458537855391 -0.0091743644026893237 0 -0.0097286413367075886 -0.0090444197305363169 0 -0.010375282366895434 -0.0090834837613509214 0 -0.0096050340362076169 -0.0093599999785485225 0 -0.010300789992200908 -0.0090865221627235721 0 -0.01006458537855391 -0.0091743644026893237 0 -0.010214917097943532 -0.0092775934320551527 0 -0.010375282366895434 -0.0090834837613509214 0 -0.0099134787544677711 -0.0093114224869476937 0 -0.01006458537855391 -0.0091743644026893237 0 -0.010214917097943532 -0.0092775934320551527 0 -0.0099134787544677711 -0.0093114224869476937 0 -0.01006458537855391 -0.0091743644026893237 0 -0.0097286413367075886 -0.0090444197305363169 0 -0.0090066347988447936 -0.0095668608688649071 0 -0.0096050340362076169 -0.0093599999785485225 0 -0.0087519697622749238 -0.010894406822814543 0 -0.0071079782613743649 -0.011940802744052331 0 -0.0085236564805937481 -0.010171038369348212 0 -0.0095739683440149333 -0.0096032835263795326 0 -0.0086418927038302198 -0.0098836620778098763 0 -0.0097867048538079482 -0.0090900656919193044 0 -0.0095739683440149333 -0.0096032835263795326 0 -0.0086418927038302198 -0.0098836620778098763 0 -0.0076062984882076358 -0.012797235795112827 0 -0.0066457960098052432 -0.012986036322223327 0 -0.0060746536737805107 -0.013561571231755963 0 -0.0070317025894246809 -0.012584308104673037 0 -0.0062604749212051627 -0.012339975504520257 0 -0.0063025343271680837 -0.012791056186200437 0 -0.0066457960098052432 -0.012986036322223327 0 -0.0070317025894246809 -0.012584308104673037 0 -0.0063025343271680837 -0.012791056186200437 0 -0.0076062984882076358 -0.012797235795112827 0 -0.0066457960098052432 -0.012986036322223327 0 -0.0070317025894246809 -0.012584308104673037 0 -0.0076062984882076358 -0.012797235795112827 0 -0.0070317025894246809 -0.012584308104673037 0 -0.0070771444010966226 -0.011984259774172733 0 -0.0070317025894246809 -0.012584308104673037 0 -0.0070771444010966226 -0.011984259774172733 0 -0.0062604749212051627 -0.012339975504520257 0 -0.0062604749212051627 -0.012339975504520257 0 -0.005847967567953906 -0.012690776587490411 0 -0.0055384338988443971 -0.012424532025655495 0 -0.005847967567953906 -0.012690776587490411 0 -0.0055563704345743805 -0.012908131865570426 0 -0.0055384338988443971 -0.012424532025655495 0 -0.005847967567953906 -0.012690776587490411 0 -0.0058809286864702501 -0.013025205814010338 0 -0.0055563704345743805 -0.012908131865570426 0 -0.005847967567953906 -0.012690776587490411 0 -0.0063025343271680837 -0.012791056186200437 0 -0.0058809286864702501 -0.013025205814010338 0 -0.0062604749212051627 -0.012339975504520257 0 -0.005847967567953906 -0.012690776587490411 0 -0.0063025343271680837 -0.012791056186200437 0 -0.0066457960098052432 -0.012986036322223327 0 -0.0061624759577973273 -0.013138104825927059 0 -0.0060746536737805107 -0.013561571231755963 0 -0.0066457960098052432 -0.012986036322223327 0 -0.0063025343271680837 -0.012791056186200437 0 -0.0061624759577973273 -0.013138104825927059 0 -0.0063025343271680837 -0.012791056186200437 0 -0.0061624759577973273 -0.013138104825927059 0 -0.0058809286864702501 -0.013025205814010338 0 -0.0061624759577973273 -0.013138104825927059 0 -0.0058860097650029856 -0.013308538510669994 0 -0.0058809286864702501 -0.013025205814010338 0 -0.0061624759577973273 -0.013138104825927059 0 -0.0060746536737805107 -0.013561571231755963 0 -0.0058860097650029856 -0.013308538510669994 0 -0.0054765620136979238 -0.013507882948207851 0 -0.0060746536737805107 -0.013561571231755963 0 -0.0057720300487979605 -0.013450685043993969 0 -0.0054765620136979238 -0.013507882948207851 0 -0.0057720300487979605 -0.013450685043993969 0 -0.0056674928401632321 -0.013381633744658677 0 -0.0057720300487979605 -0.013450685043993969 0 -0.0056674928401632321 -0.013381633744658677 0 -0.0058860097650029856 -0.013308538510669994 0 -0.0060746536737805107 -0.013561571231755963 0 -0.0057720300487979605 -0.013450685043993969 0 -0.0058860097650029856 -0.013308538510669994 0 -0.0056674928401632321 -0.013381633744658677 0 -0.0055882761403039591 -0.013185622277185697 0 -0.0058860097650029856 -0.013308538510669994 0 -0.0055882761403039591 -0.013185622277185697 0 -0.0058860097650029856 -0.013308538510669994 0 -0.0058809286864702501 -0.013025205814010338 0 -0.0055882761403039591 -0.013185622277185697 0 -0.0058809286864702501 -0.013025205814010338 0 -0.0055563704345743805 -0.012908131865570426 0 -0.0055882761403039591 -0.013185622277185697 0 -0.0053760516982309789 -0.013076245157130401 0 -0.0053546777456499458 -0.013214233960497979 0 -0.0055882761403039591 -0.013185622277185697 0 -0.0053760516982309789 -0.013076245157130401 0 -0.0055563704345743805 -0.012908131865570426 0 -0.0053760516982309789 -0.013076245157130401 0 -0.0053546777456499458 -0.013214233960497979 0 -0.0051871014083592227 -0.013107981758938514 0 -0.0055882761403039591 -0.013185622277185697 0 -0.0053546777456499458 -0.013214233960497979 0 -0.0054768815931834792 -0.013337894079994621 0 -0.0056674928401632321 -0.013381633744658677 0 -0.0055882761403039591 -0.013185622277185697 0 -0.0054768815931834792 -0.013337894079994621 0 -0.005221727630484751 -0.013462841773384943 0 -0.0054765620136979238 -0.013507882948207851 0 -0.0053179576778929908 -0.013350105989534332 0 -0.0053546777456499458 -0.013214233960497979 0 -0.0054768815931834792 -0.013337894079994621 0 -0.0053179576778929908 -0.013350105989534332 0 -0.0054765620136979238 -0.013507882948207851 0 -0.0054768815931834792 -0.013337894079994621 0 -0.0053179576778929908 -0.013350105989534332 0 -0.0054765620136979238 -0.013507882948207851 0 -0.0056674928401632321 -0.013381633744658677 0 -0.0054768815931834792 -0.013337894079994621 0 -0.005221727630484751 -0.013462841773384943 0 -0.0051703440861084349 -0.013330457844892949 0 -0.0050680156865685437 -0.013346378159809231 0 -0.005221727630484751 -0.013462841773384943 0 -0.0053179576778929908 -0.013350105989534332 0 -0.0051703440861084349 -0.013330457844892949 0 -0.0053179576778929908 -0.013350105989534332 0 -0.0051703440861084349 -0.013330457844892949 0 -0.005171041578199153 -0.013217812053572826 0 -0.0051703440861084349 -0.013330457844892949 0 -0.005171041578199153 -0.013217812053572826 0 -0.0050168479564642833 -0.01318871443688136 0 -0.005171041578199153 -0.013217812053572826 0 -0.0050551765438760533 -0.013119210913092837 0 -0.0050168479564642833 -0.01318871443688136 0 -0.0053546777456499458 -0.013214233960497979 0 -0.0053179576778929908 -0.013350105989534332 0 -0.005171041578199153 -0.013217812053572826 0 -0.0053546777456499458 -0.013214233960497979 0 -0.005171041578199153 -0.013217812053572826 0 -0.0051871014083592227 -0.013107981758938514 0 -0.005171041578199153 -0.013217812053572826 0 -0.0051871014083592227 -0.013107981758938514 0 -0.0050551765438760533 -0.013119210913092837 0 -0.0051871014083592227 -0.013107981758938514 0 -0.0050551765438760533 -0.013119210913092837 0 -0.0050020839478768257 -0.013024486365701684 0 -0.0050020839478768257 -0.013024486365701684 0 -0.0051441292291511485 -0.012878920211080461 0 -0.0048677101192149824 -0.013017561697673725 0 -0.0050020839478768257 -0.013024486365701684 0 -0.0051441292291511485 -0.012878920211080461 0 -0.0052468655909574183 -0.012957152544556937 0 -0.0051871014083592227 -0.013107981758938514 0 -0.0050020839478768257 -0.013024486365701684 0 -0.0052468655909574183 -0.012957152544556937 0 -0.0052468655909574183 -0.012957152544556937 0 -0.0055563704345743805 -0.012908131865570426 0 -0.0055384338988443971 -0.012424532025655495 0 -0.0053760516982309789 -0.013076245157130401 0 -0.0051871014083592227 -0.013107981758938514 0 -0.0052468655909574183 -0.012957152544556937 0 -0.0053760516982309789 -0.013076245157130401 0 -0.0052468655909574183 -0.012957152544556937 0 -0.0055563704345743805 -0.012908131865570426 0 -0.0051441292291511485 -0.012878920211080461 0 -0.0052468655909574183 -0.012957152544556937 0 -0.0055384338988443971 -0.012424532025655495 0 -0.0051441292291511485 -0.012878920211080461 0 -0.0055384338988443971 -0.012424532025655495 0 -0.0048677101192149824 -0.013017561697673725 0 -0.0049115803137012399 -0.013222358319283039 0 -0.0048677101192149824 -0.013017561697673725 0 -0.0047306836799676675 -0.013776440833225434 0 -0.0049115803137012399 -0.013222358319283039 0 -0.0049025814103714743 -0.013749426458217499 0 -0.0047306836799676675 -0.013776440833225434 0 -0.0048888851705492196 -0.012923921166153032 0 -0.0051638780644919996 -0.012333775024211641 0 -0.0055384338988443971 -0.012424532025655495 0 -0.0048677101192149824 -0.013017561697673725 0 -0.0055009717097010665 -0.010940414505260981 0 -0.0049025814103714743 -0.013749426458217499 0 -0.0047306836799676675 -0.013776440833225434 0 -0.0049086527058582836 -0.014019135791539333 0 -0.0047306836799676675 -0.013776440833225434 0 -0.0048274454920598682 -0.014030639497894241 0 -0.0049086527058582836 -0.014019135791539333 0 -0.0055009717097010665 -0.010940414505260981 0 -0.00640121238040426 -0.011359515318987256 0 -0.006671957797633815 -0.0091988179398284405 0 -0.0051638780644919996 -0.012333775024211641 0 -0.005744971910206541 -0.01166882466519867 0 -0.0055384338988443971 -0.012424532025655495 0 -0.0055009717097010665 -0.010940414505260981 0 -0.00640121238040426 -0.011359515318987256 0 -0.0062604749212051627 -0.012339975504520257 0 -0.0055384338988443971 -0.012424532025655495 0 -0.00640121238040426 -0.011359515318987256 0 -0.0070771444010966226 -0.011984259774172733 0 -0.0074311700766691163 -0.010782529898747282 0 -0.0079597962424207899 -0.011560453184753376 0 -0.0070771444010966226 -0.011984259774172733 0 -0.00640121238040426 -0.011359515318987256 0 -0.0074311700766691163 -0.010782529898747282 0 -0.0070771444010966226 -0.011984259774172733 0 -0.0062604749212051627 -0.012339975504520257 0 -0.00640121238040426 -0.011359515318987256 0 -0.00640121238040426 -0.011359515318987256 0 -0.0074311700766691163 -0.010782529898747282 0 -0.006671957797633815 -0.0091988179398284405 0 -0.0074311700766691163 -0.010782529898747282 0 -0.0078712493085597024 -0.0095485053877513697 0 -0.006671957797633815 -0.0091988179398284405 0 -0.0085148362346379788 -0.010516456642785312 0 -0.0091607171782866446 -0.0092130650462390572 0 -0.0078712493085597024 -0.0095485053877513697 0 -0.0074311700766691163 -0.010782529898747282 0 -0.0085148362346379788 -0.010516456642785312 0 -0.0078712493085597024 -0.0095485053877513697 0 -0.0085148362346379788 -0.010516456642785312 0 -0.0079597962424207899 -0.011560453184753376 0 -0.0091734374536319926 -0.011557669320005338 0 -0.0074311700766691163 -0.010782529898747282 0 -0.0085148362346379788 -0.010516456642785312 0 -0.0079597962424207899 -0.011560453184753376 0 -0.0050425772794432484 -0.013699253004155891 0 -0.0050338671869838893 -0.013720550124183844 0 -0.0050512349862648579 -0.013787568267663306 0 -0.0050425772794432484 -0.013699253004155891 0 -0.0050362609604897466 -0.013641724453917606 0 -0.0050338671869838893 -0.013720550124183844 0 -0.0050425772794432484 -0.013699253004155891 0 -0.0050443757695060364 -0.013667315499897772 0 -0.0050362609604897466 -0.013641724453917606 0 -0.0050737359276168967 -0.01369985367001297 0 -0.0050512349862648579 -0.013787568267663306 0 -0.0050997786738579574 -0.013801580075529781 0 -0.0050737359276168967 -0.01369985367001297 0 -0.0050425772794432484 -0.013699253004155891 0 -0.0050443757695060364 -0.013667315499897772 0 -0.0050737359276168967 -0.01369985367001297 0 -0.0050425772794432484 -0.013699253004155891 0 -0.0050512349862648579 -0.013787568267663306 0 -0.0033902011950872617 -0.012052449926610243 0 -0.00066681659044294799 -0.010562935285881023 0 -0.0013094678827392672 -0.010725449061445284 0 -0.0018631152882685989 -0.010004756535035847 0 -0.00075796314109764481 -0.010491873003713421 0 -0.0030873093071639018 -0.011535186235141773 0 -0.0033902011950872617 -0.012052449926610243 0 -0.0011461468704463931 -0.0093638855793739973 0 -0.0016300662540472449 -0.010129238696855966 0 -0.0010503757941975507 -0.0099704342359906127 0 -0.004556655262592464 -0.013318856634864436 0 -0.004334458730583423 -0.01319041787245028 0 -0.0047024889694010138 -0.013228516197734744 0 -0.004334458730583423 -0.01319041787245028 0 -0.0047024889694010138 -0.013228516197734744 0 -0.0048169053012004316 -0.013034752428895931 0 -0.0033902011950872617 -0.012052449926610243 0 -0.0051536656477804725 -0.013514923552312713 0 -0.0046831154701507368 -0.013358196932459933 0 -0.004556655262592464 -0.013318856634864436 0 -0.0047024889694010138 -0.013228516197734744 0 -0.0047850974308470233 -0.013340030332336305 0 -0.0047024889694010138 -0.013228516197734744 0 -0.0048694138316451932 -0.013257652116812835 0 -0.0047850974308470233 -0.013340030332336305 0 -0.0046831154701507368 -0.013358196932459933 0 -0.0047024889694010138 -0.013228516197734744 0 -0.0048694138316451932 -0.013257652116812835 0 -0.0048950283150562728 -0.01307373955606172 0 -0.0048169053012004316 -0.013034752428895931 0 -0.0047024889694010138 -0.013228516197734744 0 -0.0048694138316451932 -0.013257652116812835 0 -0.0048169053012004316 -0.013034752428895931 0 -0.0050680156865685437 -0.013346378159809231 0 -0.0049679501425276143 -0.013251060574447844 0 -0.0050168479564642833 -0.01318871443688136 0 -0.0051703440861084349 -0.013330457844892949 0 -0.0050680156865685437 -0.013346378159809231 0 -0.0050168479564642833 -0.01318871443688136 0 -0.0049872332226524891 -0.013368151377085668 0 -0.0050680156865685437 -0.013346378159809231 0 -0.0049679501425276143 -0.013251060574447844 0 -0.0049872332226524891 -0.013368151377085668 0 -0.0048694138316451932 -0.013257652116812835 0 -0.0049679501425276143 -0.013251060574447844 0 -0.0049679501425276143 -0.013251060574447844 0 -0.0050168479564642833 -0.01318871443688136 0 -0.0048950283150562728 -0.01307373955606172 0 -0.0048694138316451932 -0.013257652116812835 0 -0.0049679501425276143 -0.013251060574447844 0 -0.0048950283150562728 -0.01307373955606172 0 -0.0050168479564642833 -0.01318871443688136 0 -0.0049146312964267721 -0.013055492282984976 0 -0.0048950283150562728 -0.01307373955606172 0 -0.0050551765438760533 -0.013119210913092837 0 -0.0050168479564642833 -0.01318871443688136 0 -0.0049146312964267721 -0.013055492282984976 0 -0.0047968325905181049 -0.013211249081362649 0 -0.0051536656477804725 -0.013514923552312713 0 -0.0049115803137012399 -0.013222358319283039 0 -0.0048950283150562728 -0.01307373955606172 0 -0.0048169053012004316 -0.013034752428895931 0 -0.0049115803137012399 -0.013222358319283039 0 -0.0050362609604897466 -0.013641724453917606 0 -0.0050389563699029735 -0.013645364591370437 0 -0.0049115803137012399 -0.013222358319283039 0 -0.0049146312964267721 -0.013055492282984976 0 -0.0048950283150562728 -0.01307373955606172 0 -0.0050020839478768257 -0.013024486365701684 0 -0.0048677101192149824 -0.013017561697673725 0 -0.0049146312964267721 -0.013055492282984976 0 -0.0050551765438760533 -0.013119210913092837 0 -0.0050020839478768257 -0.013024486365701684 0 -0.0049146312964267721 -0.013055492282984976 0 -0.0049115803137012399 -0.013222358319283039 0 -0.0048677101192149824 -0.013017561697673725 0 -0.0049146312964267721 -0.013055492282984976 0 -0.0050362609604897466 -0.013641724453917606 0 -0.0050389563699029735 -0.013645364591370437 0 -0.0050338671869838893 -0.013720550124183844 0 -0.0049115803137012399 -0.013222358319283039 0 -0.0049025814103714743 -0.013749426458217499 0 -0.0049747377138742027 -0.013620669339051726 0 -0.0049115803137012399 -0.013222358319283039 0 -0.0050389563699029735 -0.013645364591370437 0 -0.0049747377138742027 -0.013620669339051726 0 -0.0050389563699029735 -0.013645364591370437 0 -0.0049747377138742027 -0.013620669339051726 0 -0.0049835367048960029 -0.013878257894509947 0 -0.0049025814103714743 -0.013749426458217499 0 -0.0049835367048960029 -0.013878257894509947 0 -0.0049086527058582836 -0.014019135791539333 0 -0.0049025814103714743 -0.013749426458217499 0 -0.0049747377138742027 -0.013620669339051726 0 -0.0049835367048960029 -0.013878257894509947 0 -0.0050389563699029735 -0.013645364591370437 0 -0.0049835367048960029 -0.013878257894509947 0 -0.0050271387016812344 -0.013959039285518865 0 -0.0050389563699029735 -0.013645364591370437 0 -0.0050271387016812344 -0.013959039285518865 0 -0.0050410453620693425 -0.013856600565882147 0 -0.0050271387016812344 -0.013959039285518865 0 -0.0050410453620693425 -0.013856600565882147 0 -0.0050221505862731034 -0.014062840313046433 0 -0.0050410453620693425 -0.013856600565882147 0 -0.0050338671869838893 -0.013720550124183844 0 -0.0050512349862648579 -0.013787568267663306 0 -0.0050389563699029735 -0.013645364591370437 0 -0.0050410453620693425 -0.013856600565882147 0 -0.0050338671869838893 -0.013720550124183844 0 -0.0050410453620693425 -0.013856600565882147 0 -0.0050512349862648579 -0.013787568267663306 0 -0.0050461965618300427 -0.013969555444417671 0 -0.0050512349862648579 -0.013787568267663306 0 -0.0050461965618300427 -0.013969555444417671 0 -0.0050997786738579574 -0.013801580075529781 0 -0.0050410453620693425 -0.013856600565882147 0 -0.0050461965618300427 -0.013969555444417671 0 -0.0050221505862731034 -0.014062840313046433 0 -0.0050461965618300427 -0.013969555444417671 0 -0.0050855115762227353 -0.013999852080337424 0 -0.0050148627663299987 -0.014137709731104757 0 -0.0050461965618300427 -0.013969555444417671 0 -0.0050855115762227353 -0.013999852080337424 0 -0.0050997786738579574 -0.013801580075529781 0 0.00070264134647480376 -0.0082328909031763736 0 0.00015338953240576469 -0.0093459924535361869 0 6.0493645407186867e-05 -0.008051193841283253 0 0.00029563690518219596 -0.0082413066771770613 0 0.00048939851486315877 -0.0076295297331911132 0 -0.00084255859644258313 -0.009530962436847052 0 0.00015338953240576469 -0.0093459924535361869 0 -0.0019721407388757547 -0.011330689022885497 0 -0.0019729640402928951 -0.011310250195759673 0 -0.0019023729563313007 -0.011283951000248198 0 -0.0019721407388757547 -0.011330689022885497 0 -0.0019729640402928951 -0.011310250195759673 0 -0.0020646838220592348 -0.01138214671317144 0 6.0493645407186867e-05 -0.008051193841283253 0 0.00029563690518219596 -0.0082413066771770613 0 0.00010301307928631267 -0.008468652934827842 0 0.00070264134647480376 -0.0082328909031763736 0 0.000302850023538585 -0.0084675675571005971 0 6.0493645407186867e-05 -0.008051193841283253 0 0.00010301307928631267 -0.008468652934827842 0 -0.00062498684650462151 -0.0086222977491413316 0 0.00010301307928631267 -0.008468652934827842 0 -0.00062498684650462151 -0.0086222977491413316 0 0.00017372162131154293 -0.008919255542218776 0 0.00070264134647480376 -0.0082328909031763736 0 0.00022712636997851318 -0.0088731342636935075 0 0.00060359231898720418 -0.0081958665722178994 0 0.00017372162131154293 -0.008919255542218776 0 0.00079274234484118472 -0.0087562658858555513 0 0.00034135948906126193 -0.0082214396653692672 0 0.00010301307928631267 -0.008468652934827842 0 0.00017372162131154293 -0.008919255542218776 0 -0.0036648674704836018 -0.012855362614086395 0 -0.002546009117928477 -0.01134911255048102 0 -0.00084255859644258313 -0.009530962436847052 0 -0.002546009117928477 -0.01134911255048102 0 -0.0030873093071639018 -0.011535186235141773 0 -0.002546009117928477 -0.01134911255048102 0 -0.0011461468704463931 -0.0093638855793739973 0 -0.00062498684650462151 -0.0086222977491413316 0 -0.00040701054906440047 -0.0092013489518117282 0 -0.0011461468704463931 -0.0093638855793739973 0 -0.00040701054906440047 -0.0092013489518117282 0 -0.00063580082693822531 -0.00977791212145083 0 -0.00040701054906440047 -0.0092013489518117282 0 0.000205440379093186 -0.0098184097519142255 0 -0.00063580082693822531 -0.00977791212145083 0 -0.00062498684650462151 -0.0086222977491413316 0 -0.00040701054906440047 -0.0092013489518117282 0 0.00017372162131154293 -0.008919255542218776 0 0.0015814679296939544 -0.007121277639882395 0 0.0015090683633329238 -0.007311993572751193 0 0.0015088793802411418 -0.0073719848456567753 0 0.00017372162131154293 -0.008919255542218776 0 0.000205440379093186 -0.0098184097519142255 0 0.00079274234484118472 -0.0087562658858555513 0 -0.00040701054906440047 -0.0092013489518117282 0 0.00017372162131154293 -0.008919255542218776 0 0.000205440379093186 -0.0098184097519142255 0 0.000941442330380522 -0.0084947801178209669 0 0.0011281448325827568 -0.0080808355839250834 0 0.0015814679296939544 -0.007121277639882395 0 0.0014752541365757313 -0.0071712495856640912 0 0.0015090683633329238 -0.007311993572751193 0 0.0015814679296939544 -0.007121277639882395 0 0.0016645193588426192 -0.0069228203173939537 0 0.0015768092894689859 -0.0069299176991347309 0 0.000941442330380522 -0.0084947801178209669 0 -0.00014623525722557221 -0.00847343969427246 0 0.0015814679296939544 -0.007121277639882395 0 0.0015768092894689859 -0.0069299176991347309 0 0.0015110078958553523 -0.0069641685091528308 0 0.0015814679296939544 -0.007121277639882395 0 0.0014378211733449629 -0.007028613604608964 0 0.0014752541365757313 -0.0071712495856640912 0 0.0015814679296939544 -0.007121277639882395 0 0.0014378211733449629 -0.007028613604608964 0 0.0015110078958553523 -0.0069641685091528308 0 0.000205440379093186 -0.0098184097519142255 0 -0.00075796314109764481 -0.010491873003713421 0 -0.00038795582350179491 -0.010883811596012595 0 -0.0016300662540472449 -0.010129238696855966 0 -0.00075796314109764481 -0.010491873003713421 0 -0.0010503757941975507 -0.0099704342359906127 0 0.000205440379093186 -0.0098184097519142255 0 -0.00075796314109764481 -0.010491873003713421 0 -0.00063580082693822531 -0.00977791212145083 0 -0.00075796314109764481 -0.010491873003713421 0 -0.0010503757941975507 -0.0099704342359906127 0 -0.00063580082693822531 -0.00977791212145083 0 -0.0011461468704463931 -0.0093638855793739973 0 -0.0010503757941975507 -0.0099704342359906127 0 -0.00063580082693822531 -0.00977791212145083 0 0.00083480080664867311 -0.0066984629670854444 0 0.0012253206831805239 -0.006784922552291614 0 0.00093362315552601477 -0.0070107316713697975 0 0.00083480080664867311 -0.0066984629670854444 0 0.00052124121465312175 -0.006505048603282962 0 0.00091251493650116255 -0.0063052658883217148 0 0.00083480080664867311 -0.0066984629670854444 0 0.0012253206831805239 -0.006784922552291614 0 0.00091251493650116255 -0.0063052658883217148 0 0.0013497394853579474 -0.0070546388585477808 0 0.00083583639970191161 -0.0060089313554038759 0 0.0013419045837665888 -0.0071125096071112002 0 0.001371282295849139 -0.0069182841961681991 0 0.0012153125764478173 -0.0069251489380864556 0 0.0014378211733449629 -0.007028613604608964 0 0.0013419045837665888 -0.0071125096071112002 0 0.001371282295849139 -0.0069182841961681991 0 0.0014378211733449629 -0.007028613604608964 0 0.0013419045837665888 -0.0071125096071112002 0 0.0014752541365757313 -0.0071712495856640912 0 0.0012253206831805239 -0.006784922552291614 0 0.0015090683633329238 -0.007311993572751193 0 0.0011710867752195444 -0.0072642776680463192 0 0.0012253206831805239 -0.006784922552291614 0 0.0011710867752195444 -0.0072642776680463192 0 0.00093362315552601477 -0.0070107316713697975 0 0.0013497394853579474 -0.0070546388585477808 0 0.0014612047429286383 -0.0072310464117993087 0 0.0013419045837665888 -0.0071125096071112002 0 0.0014752541365757313 -0.0071712495856640912 0 0.0015090683633329238 -0.007311993572751193 0 0.0015090683633329238 -0.007311993572751193 0 0.0011710867752195444 -0.0072642776680463192 0 0.0013127939658187972 -0.0074051893684838428 0 0.0015090683633329238 -0.007311993572751193 0 0.0015088793802411418 -0.0073719848456567753 0 0.0013127939658187972 -0.0074051893684838428 0 0.00088111315363312629 -0.0074266503858958109 0 0.00050304190429210634 -0.0075558200078111827 0 0.00059581334917332876 -0.0070053872808611226 0 0.0011710867752195444 -0.0072642776680463192 0 0.00093362315552601477 -0.0070107316713697975 0 0.00088111315363312629 -0.0074266503858958109 0 0.00083480080664867311 -0.0066984629670854444 0 0.00093362315552601477 -0.0070107316713697975 0 0.00059581334917332876 -0.0070053872808611226 0 0.00093362315552601477 -0.0070107316713697975 0 0.00088111315363312629 -0.0074266503858958109 0 0.00059581334917332876 -0.0070053872808611226 0 0.00088111315363312629 -0.0074266503858958109 0 0.00080220240817987056 -0.0077614677566181954 0 0.00050304190429210634 -0.0075558200078111827 0 0.0011710867752195444 -0.0072642776680463192 0 0.00088111315363312629 -0.0074266503858958109 0 0.0011848160897679446 -0.0076055768265450114 0 0.00088111315363312629 -0.0074266503858958109 0 0.00099513410888352129 -0.0077962470979831009 0 0.0011848160897679446 -0.0076055768265450114 0 0.00088111315363312629 -0.0074266503858958109 0 0.00099513410888352129 -0.0077962470979831009 0 0.00080220240817987056 -0.0077614677566181954 0 0.00099513410888352129 -0.0077962470979831009 0 0.00080220240817987056 -0.0077614677566181954 0 0.00094717055813696189 -0.0079956757111591583 0 0.0011281448325827568 -0.0080808355839250834 0 0.0011247222325147218 -0.0080625107520167667 0 0.0015088793802411418 -0.0073719848456567753 0 0.0011848160897679446 -0.0076055768265450114 0 0.0011121937333581293 -0.0080645622159092809 0 0.00060359231898720418 -0.0081958665722178994 0 0.00079274234484118472 -0.0087562658858555513 0 0.0011121937333581293 -0.0080645622159092809 0 0.0015088793802411418 -0.0073719848456567753 0 0.0013127939658187972 -0.0074051893684838428 0 0.0011848160897679446 -0.0076055768265450114 0 0.0011710867752195444 -0.0072642776680463192 0 0.0013127939658187972 -0.0074051893684838428 0 0.0011848160897679446 -0.0076055768265450114 0 0.00099513410888352129 -0.0077962470979831009 0 0.0011848160897679446 -0.0076055768265450114 0 0.0011121937333581293 -0.0080645622159092809 0 0.0012401130136562044 -0.0085273727377299224 0 0.00095463608487413227 -0.0088094790919626461 0 0.0011388619534005928 -0.0088618396635212014 0 0.00070264134647480376 -0.0082328909031763736 0 0.0010595241366343512 -0.0084670769351961293 0 0.00060359231898720418 -0.0081958665722178994 0 0.0011121937333581293 -0.0080645622159092809 0 0.0011707299621731655 -0.0080677780244023459 0 0.0011707299621731655 -0.0080677780244023459 0 0.00094717055813696189 -0.0079956757111591583 0 0.00076040889966866234 -0.0082423419595137656 0 0.00080220240817987056 -0.0077614677566181954 0 0.00094717055813696189 -0.0079956757111591583 0 0.00064233400562750697 -0.0079901798279778183 0 0.00094717055813696189 -0.0079956757111591583 0 0.00076040889966866234 -0.0082423419595137656 0 0.00064233400562750697 -0.0079901798279778183 0 0.0011121937333581293 -0.0080645622159092809 0 0.0011707299621731655 -0.0080677780244023459 0 0.00094717055813696189 -0.0079956757111591583 0 0.00099513410888352129 -0.0077962470979831009 0 0.0011121937333581293 -0.0080645622159092809 0 0.00094717055813696189 -0.0079956757111591583 0 0.00076040889966866234 -0.0082423419595137656 0 0.00043959123044189422 -0.0081465943065620744 0 0.00038439938794032771 -0.0084583177177076085 0 0.00076040889966866234 -0.0082423419595137656 0 0.00064233400562750697 -0.0079901798279778183 0 0.00043959123044189422 -0.0081465943065620744 0 0.00064233400562750697 -0.0079901798279778183 0 0.00033549855793754034 -0.0078845094967346947 0 0.00043959123044189422 -0.0081465943065620744 0 0.00033549855793754034 -0.0078845094967346947 0 0.00043959123044189422 -0.0081465943065620744 0 5.3634701282001411e-05 -0.0081613068605205473 0 0.00043959123044189422 -0.0081465943065620744 0 5.3634701282001411e-05 -0.0081613068605205473 0 0.00038439938794032771 -0.0084583177177076085 0 0.00033549855793754034 -0.0078845094967346947 0 5.3634701282001411e-05 -0.0081613068605205473 0 9.1495818324638867e-06 -0.0076371486180234153 0 5.3634701282001411e-05 -0.0081613068605205473 0 9.1495818324638867e-06 -0.0076371486180234153 0 -0.00036704239969126824 -0.0079840863362716993 0 5.3634701282001411e-05 -0.0081613068605205473 0 -0.00036704239969126824 -0.0079840863362716993 0 -0.00041193070579237834 -0.0084501303675617173 0 9.1495818324638867e-06 -0.0076371486180234153 0 -0.00030963606294089838 -0.0072474594745339281 0 0.00019989903513308827 -0.0071786830746123935 0 9.1495818324638867e-06 -0.0076371486180234153 0 -0.00036704239969126824 -0.0079840863362716993 0 -0.00044100425851948224 -0.0075984370809754056 0 9.1495818324638867e-06 -0.0076371486180234153 0 -0.00044100425851948224 -0.0075984370809754056 0 -0.00030963606294089838 -0.0072474594745339281 0 9.1495818324638867e-06 -0.0076371486180234153 0 0.00050304190429210634 -0.0075558200078111827 0 0.00019989903513308827 -0.0071786830746123935 0 0.00033549855793754034 -0.0078845094967346947 0 9.1495818324638867e-06 -0.0076371486180234153 0 0.00050304190429210634 -0.0075558200078111827 0 0.00064233400562750697 -0.0079901798279778183 0 0.00033549855793754034 -0.0078845094967346947 0 0.00050304190429210634 -0.0075558200078111827 0 0.00080220240817987056 -0.0077614677566181954 0 0.00064233400562750697 -0.0079901798279778183 0 0.00050304190429210634 -0.0075558200078111827 0 -0.00097707736951080436 -0.0081367614943502475 0 -0.00036704239969126824 -0.0079840863362716993 0 -0.00044100425851948224 -0.0075984370809754056 0 -0.00097707736951080436 -0.0081367614943502475 0 -0.00036704239969126824 -0.0079840863362716993 0 -0.00041193070579237834 -0.0084501303675617173 0 -0.00044100425851948224 -0.0075984370809754056 0 -0.00078451369965072475 -0.0074917609534822472 0 -0.00030963606294089838 -0.0072474594745339281 0 -0.00097707736951080436 -0.0081367614943502475 0 -0.00044100425851948224 -0.0075984370809754056 0 -0.00078451369965072475 -0.0074917609534822472 0 -0.00097707736951080436 -0.0081367614943502475 0 -0.00078451369965072475 -0.0074917609534822472 0 -0.0012207694659293409 -0.0074343811913276363 0 0.0026318892260606356 -0.0078173837637827166 0 0.0023726132552972646 -0.0070563426023616685 0 -0.00078451369965072475 -0.0074917609534822472 0 -0.00093714246215429841 -0.0070757478436930315 0 -0.0012207694659293409 -0.0074343811913276363 0 -0.0016791654285785314 -0.0068648581764900324 0 -9.5636486420110791e-05 -0.007285542722975576 0 -0.00078451369965072475 -0.0074917609534822472 0 -0.00093714246215429841 -0.0070757478436930315 0 -0.00030963606294089838 -0.0072474594745339281 0 -0.0011757779882442913 -0.0067621341092279795 0 -0.00030963606294089838 -0.0072474594745339281 0 -0.00038526350466551619 -0.0065469912953912308 0 -0.0011757779882442913 -0.0067621341092279795 0 -0.00038526350466551619 -0.0065469912953912308 0 -0.00089036585568474534 -0.0062753426423635579 0 -0.00089036585568474534 -0.0062753426423635579 0 -0.00089282093940172146 -0.0057849458054011734 0 -0.00054769466697801865 -0.0059840024731777682 0 -0.00038526350466551619 -0.0065469912953912308 0 -0.00089036585568474534 -0.0062753426423635579 0 -0.00054769466697801865 -0.0059840024731777682 0 -0.0011757779882442913 -0.0067621341092279795 0 -0.00089036585568474534 -0.0062753426423635579 0 -0.0013940497509896635 -0.0060080907140597868 0 -0.00089036585568474534 -0.0062753426423635579 0 -0.0013940497509896635 -0.0060080907140597868 0 -0.00089282093940172146 -0.0057849458054011734 0 0.00050304190429210634 -0.0075558200078111827 0 0.00059581334917332876 -0.0070053872808611226 0 0.00019989903513308827 -0.0071786830746123935 0 0.0003188967039273494 -0.0068761279937500659 0 0.00059581334917332876 -0.0070053872808611226 0 0.00019989903513308827 -0.0071786830746123935 0 -0.00030963606294089838 -0.0072474594745339281 0 0.00019989903513308827 -0.0071786830746123935 0 5.7415927802821731e-05 -0.0068961409993803634 0 -0.00030963606294089838 -0.0072474594745339281 0 -0.00038526350466551619 -0.0065469912953912308 0 -0.00019923809008331255 -0.0067667945208822874 0 -0.00030963606294089838 -0.0072474594745339281 0 -0.00019923809008331255 -0.0067667945208822874 0 5.7415927802821731e-05 -0.0068961409993803634 0 0.0003188967039273494 -0.0068761279937500659 0 0.00019989903513308827 -0.0071786830746123935 0 5.7415927802821731e-05 -0.0068961409993803634 0 -0.00019923809008331255 -0.0067667945208822874 0 5.7415927802821731e-05 -0.0068961409993803634 0 0.00013090378889529808 -0.0066404916317550876 0 -0.00038526350466551619 -0.0065469912953912308 0 -0.00019923809008331255 -0.0067667945208822874 0 -0.00018565078172436977 -0.0060273398820376734 0 -0.00019923809008331255 -0.0067667945208822874 0 0.00013090378889529808 -0.0066404916317550876 0 -0.00032796969004109751 -0.0061845624950999387 0 -0.00021368217677204796 -0.0066664933590746397 0 -0.0002555453857738034 -0.0061190373943256701 0 0.0003188967039273494 -0.0068761279937500659 0 5.7415927802821731e-05 -0.0068961409993803634 0 0.00013090378889529808 -0.0066404916317550876 0 0.00013090378889529808 -0.0066404916317550876 0 0.00015879446294952488 -0.0062262134066617359 0 -0.00032796969004109751 -0.0061845624950999387 0 0.00083480080664867311 -0.0066984629670854444 0 0.00059581334917332876 -0.0070053872808611226 0 0.00052124121465312175 -0.006505048603282962 0 0.00013090378889529808 -0.0066404916317550876 0 0.00015879446294952488 -0.0062262134066617359 0 0.00071018339771632328 -0.0063304123773865696 0 0.00019277991353618273 -0.0066208404010637528 0 0.00061883190878457637 -0.0063967261134219942 0 0.0003188967039273494 -0.0068761279937500659 0 0.00059581334917332876 -0.0070053872808611226 0 0.00052124121465312175 -0.006505048603282962 0 0.0003188967039273494 -0.0068761279937500659 0 0.00013090378889529808 -0.0066404916317550876 0 0.00052124121465312175 -0.006505048603282962 0 0.00024147020778874777 -0.0057828517730700892 0 0.00058832721969734217 -0.0049738781965220748 0 0.0013010018087332485 -0.0060100565520036908 0 0.00071018339771632328 -0.0063304123773865696 0 0.00024147020778874777 -0.0057828517730700892 0 0.0013010018087332485 -0.0060100565520036908 0 0.00015879446294952488 -0.0062262134066617359 0 0.00071018339771632328 -0.0063304123773865696 0 0.00024147020778874777 -0.0057828517730700892 0 -0.0002555453857738034 -0.0061190373943256701 0 -0.00032955616428493087 -0.0053155700480847362 0 0.00015879446294952488 -0.0062262134066617359 0 0.00024147020778874777 -0.0057828517730700892 0 -0.00032796969004109751 -0.0061845624950999387 0 0.00024147020778874777 -0.0057828517730700892 0 -0.00032796969004109751 -0.0061845624950999387 0 -0.00040595931910077099 -0.0054455563426358744 0 -0.00038526350466551619 -0.0065469912953912308 0 -0.00018565078172436977 -0.0060273398820376734 0 -0.00021522278921067226 -0.0053220373341174593 0 -0.00032955616428493087 -0.0053155700480847362 0 -0.00035406274804865019 -0.0044865372827537602 0 0.00024147020778874777 -0.0057828517730700892 0 2.1901277360283757e-05 -0.0051443967853618162 0 -0.00040595931910077099 -0.0054455563426358744 0 -0.00047375928353216414 -0.0051530841334570757 0 -0.00038578640439329885 -0.0044735936219197732 0 -0.00051141074892420999 -0.0043691366954053167 0 -0.00032955616428493087 -0.0053155700480847362 0 -0.00043881194356568928 -0.0043636047582174889 0 2.1901277360283757e-05 -0.0051443967853618162 0 0.00058832721969734217 -0.0049738781965220748 0 -0.00031471790557750621 -0.0045364282928800929 0 2.1901277360283757e-05 -0.0051443967853618162 0 -0.00040595931910077099 -0.0054455563426358744 0 -0.00031471790557750621 -0.0045364282928800929 0 0.00024147020778874777 -0.0057828517730700892 0 2.1901277360283757e-05 -0.0051443967853618162 0 0.00058832721969734217 -0.0049738781965220748 0 -0.0013940497509896635 -0.0060080907140597868 0 -0.0012027576758267715 -0.0053847578240458719 0 -0.0016204011007545027 -0.0053934522151149545 0 -0.0013940497509896635 -0.0060080907140597868 0 -0.0012027576758267715 -0.0053847578240458719 0 -0.00089282093940172146 -0.0057849458054011734 0 -0.0012027576758267715 -0.0053847578240458719 0 -0.00089282093940172146 -0.0057849458054011734 0 -0.00075952758118555614 -0.0052848187920251947 0 -0.00038526350466551619 -0.0065469912953912308 0 -0.00021687878470163897 -0.0052899689168636179 0 -0.00054769466697801865 -0.0059840024731777682 0 -0.00021687878470163897 -0.0052899689168636179 0 -0.00060851926726412063 -0.005586970224364534 0 -0.00054769466697801865 -0.0059840024731777682 0 -0.00034674156259191741 -0.0064863470628489048 0 -0.00032955616428493087 -0.0053155700480847362 0 -0.00089282093940172146 -0.0057849458054011734 0 -0.00060851926726412063 -0.005586970224364534 0 -0.00075952758118555614 -0.0052848187920251947 0 -0.00089282093940172146 -0.0057849458054011734 0 -0.00060851926726412063 -0.005586970224364534 0 -0.00054769466697801865 -0.0059840024731777682 0 -0.00021687878470163897 -0.0052899689168636179 0 -0.00060851926726412063 -0.005586970224364534 0 -0.00075952758118555614 -0.0052848187920251947 0 -0.00021687878470163897 -0.0052899689168636179 0 -0.00053984642540719522 -0.0048350906381164627 0 -0.00035327238433505495 -0.0044010854005611007 0 -0.00021687878470163897 -0.0052899689168636179 0 -0.00053984642540719522 -0.0048350906381164627 0 -0.00075952758118555614 -0.0052848187920251947 0 -0.00053984642540719522 -0.0048350906381164627 0 -0.0010375440915604747 -0.0049051912020433288 0 -0.0008723198533411075 -0.0045065141239056293 0 -0.00053984642540719522 -0.0048350906381164627 0 -0.00075952758118555614 -0.0052848187920251947 0 -0.0010375440915604747 -0.0049051912020433288 0 -0.0012027576758267715 -0.0053847578240458719 0 -0.00075952758118555614 -0.0052848187920251947 0 -0.0010375440915604747 -0.0049051912020433288 0 -0.0010375440915604747 -0.0049051912020433288 0 -0.0013492110005129605 -0.0045080192876171179 0 -0.0014898447510514753 -0.004978235941148294 0 -0.0012027576758267715 -0.0053847578240458719 0 -0.0010375440915604747 -0.0049051912020433288 0 -0.0014898447510514753 -0.004978235941148294 0 -0.0012027576758267715 -0.0053847578240458719 0 -0.0016204011007545027 -0.0053934522151149545 0 -0.0014898447510514753 -0.004978235941148294 0 -0.0013492110005129605 -0.0045080192876171179 0 -0.0011005659050790054 -0.0042167731652066349 0 -0.0014158083327876958 -0.0040472021606264936 0 -0.0010375440915604747 -0.0049051912020433288 0 -0.0013492110005129605 -0.0045080192876171179 0 -0.0008723198533411075 -0.0045065141239056293 0 -0.0011005659050790054 -0.0042167731652066349 0 -0.00087809975918602516 -0.0042472907032944625 0 -0.0008723198533411075 -0.0045065141239056293 0 -0.0013492110005129605 -0.0045080192876171179 0 -0.0011005659050790054 -0.0042167731652066349 0 -0.0008723198533411075 -0.0045065141239056293 0 -0.0011005659050790054 -0.0042167731652066349 0 -0.00087809975918602516 -0.0042472907032944625 0 -0.00087443228455509668 -0.0040208599996414025 0 -0.00087809975918602516 -0.0042472907032944625 0 -0.00066082447179204669 -0.0042492870730108309 0 -0.00087443228455509668 -0.0040208599996414025 0 -0.0008723198533411075 -0.0045065141239056293 0 -0.00060782593251315295 -0.0044967893489202704 0 -0.00066082447179204669 -0.0042492870730108309 0 -0.00087809975918602516 -0.0042472907032944625 0 -0.0008723198533411075 -0.0045065141239056293 0 -0.00066082447179204669 -0.0042492870730108309 0 -0.00053984642540719522 -0.0048350906381164627 0 -0.0008723198533411075 -0.0045065141239056293 0 -0.00060782593251315295 -0.0044967893489202704 0 -0.00053984642540719522 -0.0048350906381164627 0 -0.00060782593251315295 -0.0044967893489202704 0 -0.00035327238433505495 -0.0044010854005611007 0 -0.00060782593251315295 -0.0044967893489202704 0 -0.00066082447179204669 -0.0042492870730108309 0 -0.00035327238433505495 -0.0044010854005611007 0 -0.00066082447179204669 -0.0042492870730108309 0 -0.00064859856206579637 -0.0040132076351414954 0 -0.00035327238433505495 -0.0044010854005611007 0 -0.00054376179178564402 -0.0036135949592701285 0 -0.00064859856206579637 -0.0040132076351414954 0 -0.00035327238433505495 -0.0044010854005611007 0 -0.00052284307835681327 -0.0036843194204276416 0 -0.00043881194356568928 -0.0043636047582174889 0 -0.00054376179178564402 -0.0036135949592701285 0 -0.00064859856206579637 -0.0040132076351414954 0 -0.00081704806362506617 -0.0037647521654630288 0 -0.0009798041836732187 -0.0035845525902405704 0 -0.00081704806362506617 -0.0037647521654630288 0 -0.0011562351344123519 -0.0037973754332372932 0 -0.00081704806362506617 -0.0037647521654630288 0 -0.00087443228455509668 -0.0040208599996414025 0 -0.0011562351344123519 -0.0037973754332372932 0 -0.00064859856206579637 -0.0040132076351414954 0 -0.00081704806362506617 -0.0037647521654630288 0 -0.00087443228455509668 -0.0040208599996414025 0 -0.00066082447179204669 -0.0042492870730108309 0 -0.00064859856206579637 -0.0040132076351414954 0 -0.00087443228455509668 -0.0040208599996414025 0 -0.0011005659050790054 -0.0042167731652066349 0 -0.00087443228455509668 -0.0040208599996414025 0 -0.0011562351344123519 -0.0037973754332372932 0 -0.0011562351344123519 -0.0037973754332372932 0 -0.0014158083327876958 -0.0040472021606264936 0 -0.0015833431685146175 -0.0035553913518971947 0 -0.0011005659050790054 -0.0042167731652066349 0 -0.0011562351344123519 -0.0037973754332372932 0 -0.0014158083327876958 -0.0040472021606264936 0 0.00010947856561707271 -0.0043516964304850525 0 0.00016897188823103537 -0.0040694306148234142 0 -0.00018241402053551349 -0.0039974934764869232 0 0.0003084462560635847 -0.0045305536418487197 0 -0.00012774296283246843 -0.0040791115492528522 0 0.00010947856561707271 -0.0043516964304850525 0 0.00016897188823103537 -0.0040694306148234142 0 0.00030370002286243938 -0.0042573740858523005 0 -0.00035406274804865019 -0.0044865372827537602 0 -0.00025869892460492211 -0.003894793368070699 0 0.00058832721969734217 -0.0049738781965220748 0 -0.00031471790557750621 -0.0045364282928800929 0 -0.00018241402053551349 -0.0039974934764869232 0 -0.00038578640439329885 -0.0044735936219197732 0 -0.00051141074892420999 -0.0043691366954053167 0 -0.00030373749624849336 -0.0038139442609062711 0 -0.00031471790557750621 -0.0045364282928800929 0 -0.00018241402053551349 -0.0039974934764869232 0 -0.00023544893648914348 -0.0037669030927419403 0 -0.00018241402053551349 -0.0039974934764869232 0 -0.00023544893648914348 -0.0037669030927419403 0 -1.6280759688944798e-05 -0.0038080652850062823 0 -0.00054376179178564402 -0.0036135949592701285 0 -0.00051141074892420999 -0.0043691366954053167 0 -0.00030373749624849336 -0.0038139442609062711 0 0.00016897188823103537 -0.0040694306148234142 0 -0.00018241402053551349 -0.0039974934764869232 0 -1.6280759688944798e-05 -0.0038080652850062823 0 0.00016897188823103537 -0.0040694306148234142 0 -1.6280759688944798e-05 -0.0038080652850062823 0 0.00020458181336861317 -0.0037966784365517305 0 -0.001628686518832373 -0.001587428983263842 0 -0.0017554024470024798 -0.0018473868411291938 0 -0.0017580890815820976 -0.0017136830989862263 0 -0.0018516271628872874 -0.001640721645740955 0 -0.001628686518832373 -0.001587428983263842 0 -0.0017580890815820976 -0.0017136830989862263 0 -0.00069536980998176475 -0.0027242567320966866 0 -0.0006273441035085824 -0.0027830681129219505 0 0.00016897188823103537 -0.0040694306148234142 0 0.00020458181336861317 -0.0037966784365517305 0 0.00050833316761491449 -0.0041610178597731922 0 0.00016897188823103537 -0.0040694306148234142 0 0.00030370002286243938 -0.0042573740858523005 0 0.00050833316761491449 -0.0041610178597731922 0 -0.0017554024470024798 -0.0018473868411291938 0 -0.0016822082126352878 -0.0018463764957994224 0 -0.0016402075695888941 -0.0019191920915834757 0 -0.0017554024470024798 -0.0018473868411291938 0 -0.0016822082126352878 -0.0018463764957994224 0 -0.0017580890815820976 -0.0017136830989862263 0 -0.0018516271628872874 -0.001640721645740955 0 -0.0017580890815820976 -0.0017136830989862263 0 -0.0016538591878862811 -0.0016555184916505622 0 -0.0016822082126352878 -0.0018463764957994224 0 -0.0017580890815820976 -0.0017136830989862263 0 -0.0016538591878862811 -0.0016555184916505622 0 -0.0016822082126352878 -0.0018463764957994224 0 -0.0015162665473801215 -0.0017688771253966166 0 -0.0013288671633377158 -0.0019098529347900183 0 -0.0016822082126352878 -0.0018463764957994224 0 -0.0016538591878862811 -0.0016555184916505622 0 -0.0015162665473801215 -0.0017688771253966166 0 -0.0016538591878862811 -0.0016555184916505622 0 -0.0014013024677010202 -0.0016649081670882418 0 -0.0015162665473801215 -0.0017688771253966166 0 -0.0014013024677010202 -0.0016649081670882418 0 -0.0015162665473801215 -0.0017688771253966166 0 -0.0013288671633377158 -0.0019098529347900183 0 -0.0011835839761479333 -0.0015922804365190056 0 -0.001030988208629948 -0.0017606982561204612 0 -0.0013288671633377158 -0.0019098529347900183 0 -0.00089450282921451675 -0.0019100345260100291 0 -0.001030988208629948 -0.0017606982561204612 0 -0.0013288671633377158 -0.0019098529347900183 0 -0.0011835839761479333 -0.0015922804365190056 0 -0.0014013024677010202 -0.0016649081670882418 0 -0.0013288671633377158 -0.0019098529347900183 0 -0.0024886623158723821 -0.0036199364514317746 0 -0.001182194500857305 -0.0017560656221100423 0 -0.0016044454573052353 -0.001962492396220674 0 -0.0015993954117074867 -0.0019262929678866426 0 -0.0015946072957026616 -0.001965687732031277 0 -0.0016148330197127032 -0.0019737491173579813 0 -0.0016044454573052353 -0.001962492396220674 0 -0.0015993954117074867 -0.0019262929678866426 0 -0.0015993954117074867 -0.0019262929678866426 0 -0.0016402075695888941 -0.0019191920915834757 0 -0.0015946072957026616 -0.001965687732031277 0 -0.001780881413756495 -0.0018980127884126938 0 -0.001182194500857305 -0.0017560656221100423 0 -0.0016822082126352878 -0.0018463764957994224 0 -0.0015993954117074867 -0.0019262929678866426 0 -0.0016402075695888941 -0.0019191920915834757 0 -0.0016402075695888941 -0.0019191920915834757 0 -0.001638954053605279 -0.0020238627439989249 0 -0.0015946072957026616 -0.001965687732031277 0 -0.00068770722957544933 -0.0045955039135235085 0 -0.0013030713247391891 -0.0038698405357971192 0 -0.00092719270059436775 -0.005450816101079196 0 -0.00079313181050486091 -0.0055807792552874519 0 -0.0013960832528028264 -0.0059012451488738762 0 5.5972769767442827e-05 -0.0062369805903023561 0 -0.00068770722957544933 -0.0045955039135235085 0 -0.00048029582734258512 -0.0055359373616421514 0 -0.00017002411060853138 -0.0058421325531364332 0 0.00041634787366797685 -0.0055236373735491496 0 5.5972769767442827e-05 -0.0062369805903023561 0 0.00072141592636930981 -0.0053179699789787293 0 -0.00068770722957544933 -0.0045955039135235085 0 0.00072141592636930981 -0.0053179699789787293 0 0.00081152191158153524 -0.0044867174151768299 0 0.00069381477820177012 -0.0045408050269944 0 0.00071754590567491949 -0.0045404301157064104 0 -0.0040454070510774686 -0.0082933599525376132 0 -0.0040733691607397846 -0.0080258301954056442 0 -0.0037827790255275115 -0.0078605066494370698 0 -0.001993554750913046 -0.0062147906135365623 0 -0.0013960832528028264 -0.0059012451488738762 0 -0.0015652983153160601 -0.0054634442339863299 0 -0.0025807248362125982 -0.005516988600169118 0 -0.0019191536367083421 -0.0080674610907926648 0 -0.0025807248362125982 -0.005516988600169118 0 -0.0013030713247391891 -0.0038698405357971192 0 -0.00092719270059436775 -0.005450816101079196 0 -0.0013960832528028264 -0.0059012451488738762 0 -0.0015652983153160601 -0.0054634442339863299 0 5.5972769767442827e-05 -0.0062369805903023561 0 -0.0019191536367083421 -0.0080674610907926648 0 -0.0012874909793540907 -0.011150106534864559 0 -0.00074338742135670417 -0.011558415140534448 0 -0.00082010032352110057 -0.010943376160925609 0 -0.00074338742135670417 -0.011558415140534448 0 -0.00038795582350179491 -0.010883811596012595 0 -0.00082010032352110057 -0.010943376160925609 0 -0.00042519228597854663 -0.0075529827843697009 0 -0.00082581537894405542 -0.0075636960653029115 0 -0.00068073683624671481 -0.007308253936622087 0 -0.0019191536367083421 -0.0080674610907926648 0 -0.00014623525722557221 -0.00847343969427246 0 -0.00075796314109764481 -0.010491873003713421 0 -0.00038795582350179491 -0.010883811596012595 0 -0.00082010032352110057 -0.010943376160925609 0 -0.0013094678827392672 -0.010725449061445284 0 -0.00075796314109764481 -0.010491873003713421 0 -0.00082010032352110057 -0.010943376160925609 0 -0.0013094678827392672 -0.010725449061445284 0 -0.0012874909793540907 -0.011150106534864559 0 -0.00082010032352110057 -0.010943376160925609 0 0.0015615509365261401 -0.0068065044294546807 0 0.0015157271861742682 -0.0068741104681499243 0 0.0014633971189432291 -0.0068004231533812546 0 0.0015615509365261401 -0.0068065044294546807 0 0.0015157271861742682 -0.0068741104681499243 0 0.0015768092894689859 -0.0069299176991347309 0 0.0015157271861742682 -0.0068741104681499243 0 0.0014585175564358205 -0.0069166293909833799 0 0.0014633971189432291 -0.0068004231533812546 0 0.0015615509365261401 -0.0068065044294546807 0 0.0016645193588426192 -0.0069228203173939537 0 0.0015768092894689859 -0.0069299176991347309 0 5.5972769767442827e-05 -0.0062369805903023561 0 -0.00014623525722557221 -0.00847343969427246 0 0.0015157271861742682 -0.0068741104681499243 0 0.0015768092894689859 -0.0069299176991347309 0 0.0015110078958553523 -0.0069641685091528308 0 0.0015157271861742682 -0.0068741104681499243 0 0.0015110078958553523 -0.0069641685091528308 0 0.0014585175564358205 -0.0069166293909833799 0 0.0014378211733449629 -0.007028613604608964 0 0.0014585175564358205 -0.0069166293909833799 0 0.001371282295849139 -0.0069182841961681991 0 0.0014378211733449629 -0.007028613604608964 0 0.0015110078958553523 -0.0069641685091528308 0 0.0014585175564358205 -0.0069166293909833799 0 0.00069381477820177012 -0.0045408050269944 0 0.00037387575208498014 -0.004740587304006354 0 0.00071851263597216396 -0.0045402984176600722 0 0.00083583639970191161 -0.0060089313554038759 0 0.00072141592636930981 -0.0053179699789787293 0 0.00069381477820177012 -0.0045408050269944 0 0.00037387575208498014 -0.004740587304006354 0 0.00042682786295813351 -0.0044474213892769388 0 0.001371282295849139 -0.0069182841961681991 0 0.0012153125764478173 -0.0069251489380864556 0 0.0014633971189432291 -0.0068004231533812546 0 0.0014585175564358205 -0.0069166293909833799 0 0.001371282295849139 -0.0069182841961681991 0 0.0014633971189432291 -0.0068004231533812546 0 0.00072014583048858789 -0.005300006857988082 0 0.00072141592636930981 -0.0053179699789787293 0 0.0003084462560635847 -0.0045305536418487197 0 0.00083583639970191161 -0.0060089313554038759 0 0.00061883190878457637 -0.0063967261134219942 0 0.00083583639970191161 -0.0060089313554038759 0 0.00010947856561707271 -0.0043516964304850525 0 0.00037387575208498014 -0.004740587304006354 0 0.00042682786295813351 -0.0044474213892769388 0 0.00010947856561707271 -0.0043516964304850525 0 0.00030370002286243938 -0.0042573740858523005 0 0.00042682786295813351 -0.0044474213892769388 0 0.00030370002286243938 -0.0042573740858523005 0 0.00050833316761491449 -0.0041610178597731922 0 0.00042682786295813351 -0.0044474213892769388 0 0.00050833316761491449 -0.0041610178597731922 0 0.00069381477820177012 -0.0045408050269944 0 0.00042682786295813351 -0.0044474213892769388 0 0.00050833316761491449 -0.0041610178597731922 0 0.00081152191158153524 -0.0044867174151768299 0 0.00069381477820177012 -0.0045408050269944 0 -0.0017554024470024798 -0.0018473868411291938 0 -0.0016402075695888941 -0.0019191920915834757 0 -0.001638954053605279 -0.0020238627439989249 0 -0.0006273441035085824 -0.0027830681129219505 0 -0.00068770722957544933 -0.0045955039135235085 0 -0.015613712527267704 -0.002848269347759412 0 -0.015472408123660079 -0.0034538892364584309 0 -0.015982552019617458 -0.0033306504091738937 0 -0.015613712527267704 -0.002848269347759412 0 -0.014999949694510222 -0.0028591451052533759 0 -0.015472408123660079 -0.0034538892364584309 0 -0.014999949694510222 -0.0028591451052533759 0 -0.014999960049471239 -0.0037369959744876793 0 -0.015472408123660079 -0.0034538892364584309 0 -0.015472408123660079 -0.0034538892364584309 0 -0.015982552019617458 -0.0033306504091738937 0 -0.015860690696788148 -0.0037317468333658847 0 -0.015982552019617458 -0.0033306504091738937 0 -0.016321026011134613 -0.0037234503443237844 0 -0.015860690696788148 -0.0037317468333658847 0 -0.015982552019617458 -0.0033306504091738937 0 -0.016321026011134613 -0.0037234503443237844 0 -0.016403455763694792 -0.003193738732342198 0 -0.016321026011134613 -0.0037234503443237844 0 -0.016403455763694792 -0.003193738732342198 0 -0.016797559894210258 -0.0035940990322321821 0 -0.016403455763694792 -0.003193738732342198 0 -0.016397438585757262 -0.0025510465595142565 0 -0.016838799266778722 -0.0031033441009599861 0 -0.015982552019617458 -0.0033306504091738937 0 -0.016403455763694792 -0.003193738732342198 0 -0.016068491488855231 -0.0028524712048221073 0 -0.015613712527267704 -0.002848269347759412 0 -0.015982552019617458 -0.0033306504091738937 0 -0.016068491488855231 -0.0028524712048221073 0 -0.016068491488855231 -0.0028524712048221073 0 -0.01586667633675903 -0.0023940764824521479 0 -0.016397438585757262 -0.0025510465595142565 0 -0.015933379532168425 -0.0024149406228119548 0 -0.016432437678616227 -0.0025120441635203142 0 -0.015613712527267704 -0.002848269347759412 0 -0.016068491488855231 -0.0028524712048221073 0 -0.01586667633675903 -0.0023940764824521479 0 -0.016432437678616227 -0.0025120441635203142 0 -0.016724388528588249 -0.0028673258739846724 0 -0.016403455763694792 -0.003193738732342198 0 -0.016068491488855231 -0.0028524712048221073 0 -0.016397438585757262 -0.0025510465595142565 0 -0.016351747304482914 -0.0022508292165170987 0 -0.016461159842268466 -0.001791366713155772 0 -0.016065900147484775 -0.0019509390104373824 0 -0.016351747304482914 -0.0022508292165170987 0 -0.016461159842268466 -0.001791366713155772 0 -0.016942853039895608 -0.0017926179124958795 0 -0.016432437678616227 -0.0025120441635203142 0 -0.016119204332347273 -0.0020163098328247202 0 -0.01586667633675903 -0.0023940764824521479 0 -0.016594242610942854 -0.0025120699448418563 0 -0.016205666712548306 -0.0021040729054981593 0 -0.01586667633675903 -0.0023940764824521479 0 -0.016205666712548306 -0.0021040729054981593 0 -0.015848502301408326 -0.0020562540959710887 0 -0.016119204332347273 -0.0020163098328247202 0 -0.015851103064017779 -0.0017379571341311589 0 -0.016205666712548306 -0.0021040729054981593 0 -0.015848502301408326 -0.0020562540959710887 0 -0.015804679587136671 -0.0016936488038827653 0 -0.015848502301408326 -0.0020562540959710887 0 -0.015458197678333575 -0.0021130272622762827 0 -0.015804679587136671 -0.0016936488038827653 0 -0.01586667633675903 -0.0023940764824521479 0 -0.015848502301408326 -0.0020562540959710887 0 -0.015458197678333575 -0.0021130272622762827 0 -0.015613712527267704 -0.002848269347759412 0 -0.01586667633675903 -0.0023940764824521479 0 -0.015458197678333575 -0.0021130272622762827 0 -0.015613712527267704 -0.002848269347759412 0 -0.014999949694510222 -0.0028591451052533759 0 -0.015458197678333575 -0.0021130272622762827 0 -0.014999949694510222 -0.0028591451052533759 0 -0.015458197678333575 -0.0021130272622762827 0 -0.014999932958158262 -0.0019809861822506275 0 -0.015458197678333575 -0.0021130272622762827 0 -0.014999932958158262 -0.0019809861822506275 0 -0.01540713429637639 -0.0014321813570353113 0 -0.014999932958158262 -0.0019809861822506275 0 -0.01540713429637639 -0.0014321813570353113 0 -0.014999934515624529 -0.0011029083601262933 0 -0.015458197678333575 -0.0021130272622762827 0 -0.015804679587136671 -0.0016936488038827653 0 -0.01540713429637639 -0.0014321813570353113 0 -0.015804679587136671 -0.0016936488038827653 0 -0.01540713429637639 -0.0014321813570353113 0 -0.0157641518957462 -0.001273837187457485 0 -0.0157641518957462 -0.001273837187457485 0 -0.015432372546887462 -0.00083345589753862413 0 -0.01606501308123727 -0.00096511662031974015 0 -0.01540713429637639 -0.0014321813570353113 0 -0.0157641518957462 -0.001273837187457485 0 -0.015432372546887462 -0.00083345589753862413 0 -0.01540713429637639 -0.0014321813570353113 0 -0.014999934515624529 -0.0011029083601262933 0 -0.015432372546887462 -0.00083345589753862413 0 -0.014999934515624529 -0.0011029083601262933 0 -0.015432372546887462 -0.00083345589753862413 0 -0.014999982168399303 -0.00022495876225155063 0 -0.015432372546887462 -0.00083345589753862413 0 -0.015417810143493159 -0.00015364075876908898 0 -0.015860698058313877 -0.00043289522213644827 0 -0.015434122186276249 -0.00077814970046840182 0 -0.015486030472833303 -0.00015242994816969284 0 -0.015772309119645132 4.991708355512536e-05 0 -0.015417810143493159 -0.00015364075876908898 0 -0.015860698058313877 -0.00043289522213644827 0 -0.015432372546887462 -0.00083345589753862413 0 -0.015552961749155495 -0.00013990812954513612 0 -0.014999982168399303 -0.00022495876225155063 0 -0.015296545296530503 0.00021434965917485683 0 -0.015552961749155495 -0.00013990812954513612 0 -0.014999982168399303 -0.00022495876225155063 0 -0.016164695729259861 -3.1631015767517794e-05 0 -0.01649944615738011 -0.0004880418720813578 0 -0.016564276704079128 -4.7584652464184986e-05 0 -0.016164695729259861 -3.1631015767517794e-05 0 -0.015860698058313877 -0.00043289522213644827 0 -0.01649944615738011 -0.0004880418720813578 0 -0.015772309119645132 4.991708355512536e-05 0 -0.016164695729259861 -3.1631015767517794e-05 0 -0.015860698058313877 -0.00043289522213644827 0 -0.015432372546887462 -0.00083345589753862413 0 -0.015860698058313877 -0.00043289522213644827 0 -0.01606501308123727 -0.00096511662031974015 0 -0.015860698058313877 -0.00043289522213644827 0 -0.01649944615738011 -0.0004880418720813578 0 -0.01606501308123727 -0.00096511662031974015 0 -0.01649944615738011 -0.0004880418720813578 0 -0.01606501308123727 -0.00096511662031974015 0 -0.016758746206986096 -0.0011848009151357163 0 -0.01606501308123727 -0.00096511662031974015 0 -0.016149710916426158 -0.001496015751305973 0 -0.016758746206986096 -0.0011848009151357163 0 -0.0157641518957462 -0.001273837187457485 0 -0.01606501308123727 -0.00096511662031974015 0 -0.016149710916426158 -0.001496015751305973 0 -0.016065900147484775 -0.0019509390104373824 0 -0.015804679587136671 -0.0016936488038827653 0 -0.016149710916426158 -0.001496015751305973 0 -0.015804679587136671 -0.0016936488038827653 0 -0.0157641518957462 -0.001273837187457485 0 -0.016149710916426158 -0.001496015751305973 0 -0.016461159842268466 -0.001791366713155772 0 -0.016149710916426158 -0.001496015751305973 0 -0.016758746206986096 -0.0011848009151357163 0 -0.016461159842268466 -0.001791366713155772 0 -0.016065900147484775 -0.0019509390104373824 0 -0.016149710916426158 -0.001496015751305973 0 -0.016684613248858528 -0.0010135077673833904 0 -0.016853823921825491 -0.0014588547000761269 0 -0.016461159842268466 -0.001791366713155772 0 -0.016758746206986096 -0.0011848009151357163 0 -0.016942853039895608 -0.0017926179124958795 0 -0.017025356596850168 -0.00087806022588005485 0 -0.016621957958259506 -0.00083847865419192072 0 -0.01673910053323624 -0.0012174580170900803 0 -0.017025356596850168 -0.00087806022588005485 0 -0.017124330037011873 -0.0012820294089894851 0 -0.01673910053323624 -0.0012174580170900803 0 -0.017025356596850168 -0.00087806022588005485 0 -0.016621957958259506 -0.00083847865419192072 0 -0.016895102737153039 -0.00045068713526889105 0 -0.01649944615738011 -0.0004880418720813578 0 -0.016621957958259506 -0.00083847865419192072 0 -0.016895102737153039 -0.00045068713526889105 0 -0.016516577209614799 -0.00052169926306234158 0 -0.016684613248858528 -0.0010135077673833904 0 -0.016928293503368198 1.9960284805005672e-05 0 -0.016895102737153039 -0.00045068713526889105 0 -0.017229366742329919 -8.4674422172508997e-05 0 -0.016928293503368198 1.9960284805005672e-05 0 -0.016895102737153039 -0.00045068713526889105 0 -0.016564276704079128 -4.7584652464184986e-05 0 -0.01649944615738011 -0.0004880418720813578 0 -0.016895102737153039 -0.00045068713526889105 0 -0.016564276704079128 -4.7584652464184986e-05 0 -0.017551030364631022 -4.6712209508142676e-05 0 -0.01735908344942589 -0.00040977757104257499 0 -0.01796409085480348 -0.00025592418607857257 0 -0.018400930445462028 -0.00043440858970774022 0 -0.015239888857615739 0.00034508243060128729 0 -0.016895102737153039 -0.00045068713526889105 0 -0.017229366742329919 -8.4674422172508997e-05 0 -0.01735908344942589 -0.00040977757104257499 0 -0.017551030364631022 -4.6712209508142676e-05 0 -0.017229366742329919 -8.4674422172508997e-05 0 -0.01735908344942589 -0.00040977757104257499 0 -0.017025356596850168 -0.00087806022588005485 0 -0.016895102737153039 -0.00045068713526889105 0 -0.01735908344942589 -0.00040977757104257499 0 -0.01735908344942589 -0.00040977757104257499 0 -0.0174440876821048 -0.00079175263300177248 0 -0.017733579632741706 -0.00058114286034602303 0 -0.017025356596850168 -0.00087806022588005485 0 -0.01735908344942589 -0.00040977757104257499 0 -0.0174440876821048 -0.00079175263300177248 0 -0.017025356596850168 -0.00087806022588005485 0 -0.0174440876821048 -0.00079175263300177248 0 -0.017124330037011873 -0.0012820294089894851 0 -0.0174440876821048 -0.00079175263300177248 0 -0.017545424877745526 -0.0012498783449691883 0 -0.017124330037011873 -0.0012820294089894851 0 -0.017545424877745526 -0.0012498783449691883 0 -0.017275489016507745 -0.0016639586859405915 0 -0.017124330037011873 -0.0012820294089894851 0 -0.012851723238293915 -0.002350243728045126 0 -0.013120980758164201 -0.0019736491073060912 0 -0.013152470467768093 -0.0019788141367696756 0 -0.015431971548485348 -0.0018093650194602282 0 -0.015507704362211754 -0.0020922246658242284 0 -0.013120980758164201 -0.0019736491073060912 0 -0.012922893184072547 -0.001937532227636964 0 -0.012781255956026093 -0.002135812272174692 0 -0.012851723238293915 -0.002350243728045126 0 -0.013120980758164201 -0.0019736491073060912 0 -0.012781255956026093 -0.002135812272174692 0 -0.013120980758164201 -0.0019736491073060912 0 -0.013155861407645407 -0.001979883583350136 0 -0.013043733865856838 -0.0018608365502321459 0 -0.015234844204802611 -0.0020563007737727543 0 -0.015507704362211754 -0.0020922246658242284 0 -0.015507704362211754 -0.0020922246658242284 0 -0.016772025749730041 -0.0022551963886861624 0 -0.017275489016507745 -0.0016639586859405915 0 -0.017124330037011873 -0.0012820294089894851 0 -0.016849273832116717 -0.0015932556419009359 0 -0.017124330037011873 -0.0012820294089894851 0 -0.01673910053323624 -0.0012174580170900803 0 -0.016849273832116717 -0.0015932556419009359 0 -0.016853823921825491 -0.0014588547000761269 0 -0.016772025749730041 -0.0022551963886861624 0 -0.016351747304482914 -0.0022508292165170987 0 -0.016942853039895608 -0.0017926179124958795 0 -0.017122073727450792 -0.0023715885288510788 0 -0.016620507191804246 -0.0027132691920658718 0 -0.01624136825276443 -0.0026544094788557055 0 -0.016386887453984041 -0.0024719163978817395 0 -0.016432437678616227 -0.0025120441635203142 0 -0.016772025749730041 -0.0022551963886861624 0 -0.015888644434399413 -0.0025990169227523745 0 -0.016240931978379815 -0.0026565304934823616 0 -0.016215362745304034 -0.0025797158186356538 0 -0.01624136825276443 -0.0026544094788557055 0 -0.016215362745304034 -0.0025797158186356538 0 -0.016386887453984041 -0.0024719163978817395 0 -0.016772025749730041 -0.0022551963886861624 0 -0.016628724840278483 -0.0024333635965409625 0 -0.016215362745304034 -0.0025797158186356538 0 -0.016144526692753802 -0.002223868226713159 0 -0.016017214756848048 -0.0024103873823815157 0 -0.016215362745304034 -0.0025797158186356538 0 -0.016386887453984041 -0.0024719163978817395 0 -0.016144526692753802 -0.002223868226713159 0 -0.016403455763694792 -0.003193738732342198 0 -0.016838799266778722 -0.0031033441009599861 0 -0.016797559894210258 -0.0035940990322321821 0 -0.016838799266778722 -0.0031033441009599861 0 -0.016797559894210258 -0.0035940990322321821 0 -0.017277308039528098 -0.0036332456435116353 0 -0.016724388528588249 -0.0028673258739846724 0 -0.016185036307622976 -0.0027220726154301004 0 -0.016797559894210258 -0.0035940990322321821 0 -0.017277308039528098 -0.0036332456435116353 0 -0.017057921170093686 -0.0039565239872217601 0 -0.01355932902924289 -0.0014494808098208681 0 -0.013142591079255622 -0.0015086589943540186 0 -0.013355522012992836 -0.0017218164012164487 0 -0.016185036307622976 -0.0027220726154301004 0 -0.014613030794678858 -0.0021553394952343132 0 -0.013142591079255622 -0.0015086589943540186 0 -0.012966522539513919 -0.0017159206750281628 0 -0.012791729283814054 -0.0015116041360802644 0 -0.013142591079255622 -0.0015086589943540186 0 -0.012791729283814054 -0.0015116041360802644 0 -0.012975633843468387 -0.0013236577392804155 0 -0.013142591079255622 -0.0015086589943540186 0 -0.01314404030399359 -0.001736433372023896 0 -0.012966522539513919 -0.0017159206750281628 0 -0.01314404030399359 -0.001736433372023896 0 -0.012966522539513919 -0.0017159206750281628 0 -0.013043733865856838 -0.0018608365502321459 0 -0.012966522539513919 -0.0017159206750281628 0 -0.012886238112426623 -0.0018252344235416733 0 -0.012774013609362292 -0.0017137806136882858 0 -0.012966522539513919 -0.0017159206750281628 0 -0.012886238112426623 -0.0018252344235416733 0 -0.013043733865856838 -0.0018608365502321459 0 -0.012922893184072547 -0.001937532227636964 0 -0.012886238112426623 -0.0018252344235416733 0 -0.013043733865856838 -0.0018608365502321459 0 -0.013120980758164201 -0.0019736491073060912 0 -0.012922893184072547 -0.001937532227636964 0 -0.013043733865856838 -0.0018608365502321459 0 -0.013155861407645407 -0.001979883583350136 0 -0.01314404030399359 -0.001736433372023896 0 -0.013043733865856838 -0.0018608365502321459 0 -0.015888644434399413 -0.0025990169227523745 0 -0.016215362745304034 -0.0025797158186356538 0 -0.016017214756848048 -0.0024103873823815157 0 -0.013155861407645407 -0.001979883583350136 0 -0.01314404030399359 -0.001736433372023896 0 -0.013355522012992836 -0.0017218164012164487 0 -0.015507704362211754 -0.0020922246658242284 0 -0.014613030794678858 -0.0021553394952343132 0 -0.013142591079255622 -0.0015086589943540186 0 -0.01314404030399359 -0.001736433372023896 0 -0.013355522012992836 -0.0017218164012164487 0 -0.012318946469623657 -0.0018844161741322762 0 -0.012722816935399691 -0.0018952491198018656 0 -0.012530046710844445 -0.0016399399706087099 0 -0.012886238112426623 -0.0018252344235416733 0 -0.012722816935399691 -0.0018952491198018656 0 -0.012774013609362292 -0.0017137806136882858 0 -0.012922893184072547 -0.001937532227636964 0 -0.012886238112426623 -0.0018252344235416733 0 -0.012722816935399691 -0.0018952491198018656 0 -0.012966522539513919 -0.0017159206750281628 0 -0.012774013609362292 -0.0017137806136882858 0 -0.012791729283814054 -0.0015116041360802644 0 -0.012722816935399691 -0.0018952491198018656 0 -0.012774013609362292 -0.0017137806136882858 0 -0.012530046710844445 -0.0016399399706087099 0 -0.012791729283814054 -0.0015116041360802644 0 -0.012530046710844445 -0.0016399399706087099 0 -0.012489158732298332 -0.0013286955205946737 0 -0.012774013609362292 -0.0017137806136882858 0 -0.012791729283814054 -0.0015116041360802644 0 -0.012530046710844445 -0.0016399399706087099 0 -0.012318946469623657 -0.0018844161741322762 0 -0.012530046710844445 -0.0016399399706087099 0 -0.012093297655607817 -0.0013362529867811555 0 -0.012530046710844445 -0.0016399399706087099 0 -0.012093297655607817 -0.0013362529867811555 0 -0.012489158732298332 -0.0013286955205946737 0 -0.012118801403895858 -0.0015494991647411519 0 -0.012079321827270905 -0.0013454086122793372 0 -0.012093297655607817 -0.0013362529867811555 0 -0.011974548628149067 -0.001306743972716763 0 -0.011961684368981458 -0.0013101228151240201 0 -0.011974548628149067 -0.001306743972716763 0 -0.011929002711436324 -0.0013249870420476049 0 -0.011924900788409418 -0.0011976104307654522 0 -0.011974548628149067 -0.001306743972716763 0 -0.011961684368981458 -0.0013101228151240201 0 -0.011929002711436324 -0.0013249870420476049 0 -0.011961684368981458 -0.0013101228151240201 0 -0.011967932911091878 -0.0012345078516151505 0 -0.01191355515260736 -0.0012876959048088237 0 -0.011961684368981458 -0.0013101228151240201 0 -0.01191355515260736 -0.0012876959048088237 0 -0.011929002711436324 -0.0013249870420476049 0 -0.011878007237408245 -0.0012871879973772641 0 -0.011961684368981458 -0.0013101228151240201 0 -0.011967932911091878 -0.0012345078516151505 0 -0.011878007237408245 -0.0012871879973772641 0 -0.012093297655607817 -0.0013362529867811555 0 -0.011961684368981458 -0.0013101228151240201 0 -0.011878007237408245 -0.0012871879973772641 0 -0.011967932911091878 -0.0012345078516151505 0 -0.011749125939800155 -0.0010762987178157205 0 -0.011967932911091878 -0.0012345078516151505 0 -0.012110895851474119 -0.0011163855905053988 0 -0.01191355515260736 -0.0012876959048088237 0 -0.011957003800017916 -0.0010638459325773954 0 -0.012190420295066378 -0.00076854576942205714 0 -0.012110895851474119 -0.0011163855905053988 0 -0.011967932911091878 -0.0012345078516151505 0 -0.011957003800017916 -0.0010638459325773954 0 -0.012110895851474119 -0.0011163855905053988 0 -0.011957003800017916 -0.0010638459325773954 0 -0.011749125939800155 -0.0010762987178157205 0 -0.011925869657994392 -0.000863278489684579 0 -0.011967932911091878 -0.0012345078516151505 0 -0.011957003800017916 -0.0010638459325773954 0 -0.011749125939800155 -0.0010762987178157205 0 -0.012118801403895858 -0.0015494991647411519 0 -0.011965833490527112 -0.0017864095056526858 0 -0.012318946469623657 -0.0018844161741322762 0 -0.012495113274630258 -0.0023089331492389567 0 -0.012781255956026093 -0.002135812272174692 0 -0.012318946469623657 -0.0018844161741322762 0 -0.012722816935399691 -0.0018952491198018656 0 -0.012781255956026093 -0.002135812272174692 0 -0.012922893184072547 -0.001937532227636964 0 -0.012722816935399691 -0.0018952491198018656 0 -0.012781255956026093 -0.002135812272174692 0 -0.012851723238293915 -0.002350243728045126 0 -0.012495113274630258 -0.0023089331492389567 0 -0.012781255956026093 -0.002135812272174692 0 -0.0174440876821048 -0.00079175263300177248 0 -0.017545424877745526 -0.0012498783449691883 0 -0.017787517437602492 -0.00083534613393196626 0 -0.012851723238293915 -0.002350243728045126 0 -0.012495113274630258 -0.0023089331492389567 0 -0.012616554753498285 -0.0026738329349184332 0 -0.015431971548485348 -0.0018093650194602282 0 -0.013373189427643064 -0.0011276072377960314 0 -0.011965833490527112 -0.0017864095056526858 0 -0.013373189427643064 -0.0011276072377960314 0 -0.011749125939800155 -0.0010762987178157205 0 -0.011799281659482569 -0.00076089636005043635 0 -0.011632375100876101 -0.00072805564482463804 0 -0.011749125939800155 -0.0010762987178157205 0 -0.011799281659482569 -0.00076089636005043635 0 -0.011925869657994392 -0.000863278489684579 0 -0.011799281659482569 -0.00076089636005043635 0 -0.011699333392580528 -0.00060584081219400515 0 -0.011632375100876101 -0.00072805564482463804 0 -0.011699333392580528 -0.00060584081219400515 0 -0.011641711695713663 -0.00071205804901393647 0 -0.011592618095058797 -0.00050435937803943538 0 -0.012253818154027027 -0.0010643637351511778 0 -0.013373189427643064 -0.0011276072377960314 0 -0.011799281659482569 -0.00076089636005043635 0 -0.011699333392580528 -0.00060584081219400515 0 -0.011842253079268025 -0.00057865283568187562 0 -0.0174440876821048 -0.00079175263300177248 0 -0.017787517437602492 -0.00083534613393196626 0 -0.017733579632741706 -0.00058114286034602303 0 -0.013373189427643064 -0.0011276072377960314 0 -0.014658904724486428 -0.00061864940042242371 0 -0.01735908344942589 -0.00040977757104257499 0 -0.017733579632741706 -0.00058114286034602303 0 -0.017678031192243426 -0.00035557051705883475 0 -0.011592618095058797 -0.00050435937803943538 0 -0.011728590284381885 -0.00042744640606845702 0 -0.011559895865227994 -0.00029723076889813282 0 -0.014658904724486428 -0.00061864940042242371 0 -0.015239888857615739 0.00034508243060128729 0 -0.011699333392580528 -0.00060584081219400515 0 -0.011592618095058797 -0.00050435937803943538 0 -0.011728590284381885 -0.00042744640606845702 0 -0.011728590284381885 -0.00042744640606845702 0 -0.011861500024583447 -0.00041169483013003545 0 -0.011842253079268025 -0.00057865283568187562 0 -0.011699333392580528 -0.00060584081219400515 0 -0.011728590284381885 -0.00042744640606845702 0 -0.011842253079268025 -0.00057865283568187562 0 -0.011728590284381885 -0.00042744640606845702 0 -0.011753989767838518 -0.00023454504680990424 0 -0.011861500024583447 -0.00041169483013003545 0 -0.013467888468787669 0.0029051910384924108 0 -0.013623612767857951 0.0027842889139342575 0 -0.013736335974671237 0.0029474765199768542 0 -0.011728590284381885 -0.00042744640606845702 0 -0.011753989767838518 -0.00023454504680990424 0 -0.011559895865227994 -0.00029723076889813282 0 -0.012265814621803929 0.0012524982938129424 0 -0.015239888857615739 0.00034508243060128729 0 -0.015828096184513266 0.0016600710530745245 0 -0.015239888857615739 0.00034508243060128729 0 -0.013804674823628427 0.0026743204278427486 0 -0.013623612767857951 0.0027842889139342575 0 -0.013736335974671237 0.0029474765199768542 0 -0.017867023648410172 0.0002190495085090401 0 -0.017551030364631022 -4.6712209508142676e-05 0 -0.01796409085480348 -0.00025592418607857257 0 -0.01230764916942682 1.0907115321211543e-05 0 -0.012086669065268526 -0.00019159360095019097 0 -0.011955170814014295 -0.0001306348496472147 0 -0.011530270591872916 0.0039395373804464945 0 -0.01195905203424863 0.0031354436873511885 0 -0.012086669065268526 -0.00019159360095019097 0 -0.012011750185073888 -0.00023618802193171897 0 -0.012044383945966292 -0.00031831670699436552 0 -0.012086669065268526 -0.00019159360095019097 0 -0.011979876693467952 -0.00015778557946310307 0 -0.012011750185073888 -0.00023618802193171897 0 -0.012086669065268526 -0.00019159360095019097 0 -0.012168725886109275 -0.00027638463613451287 0 -0.012044383945966292 -0.00031831670699436552 0 -0.012086669065268526 -0.00019159360095019097 0 -0.012234259863972244 -0.00016773710854349225 0 -0.012168725886109275 -0.00027638463613451287 0 -0.012168725886109275 -0.00027638463613451287 0 -0.012244765615162988 -0.00033513327587405536 0 -0.012413658529912648 -0.00016551433428832718 0 -0.012234259863972244 -0.00016773710854349225 0 -0.012168725886109275 -0.00027638463613451287 0 -0.012413658529912648 -0.00016551433428832718 0 -0.01230764916942682 1.0907115321211543e-05 0 -0.012086669065268526 -0.00019159360095019097 0 -0.012234259863972244 -0.00016773710854349225 0 -0.012265814621803929 0.0012524982938129424 0 -0.01195905203424863 0.0031354436873511885 0 -0.012086669065268526 -0.00019159360095019097 0 -0.011955170814014295 -0.0001306348496472147 0 -0.011979876693467952 -0.00015778557946310307 0 -0.013456913048101083 0.002605278995200893 0 -0.013467888468787669 0.0029051910384924108 0 -0.013194252737098084 0.0028532200054610978 0 -0.011753989767838518 -0.00023454504680990424 0 -0.011962376960639088 -0.00014026448643165269 0 -0.011940948593514446 -0.00027477789981834015 0 -0.011962376960639088 -0.00014026448643165269 0 -0.011979876693467952 -0.00015778557946310307 0 -0.011940948593514446 -0.00027477789981834015 0 -0.01195905203424863 0.0031354436873511885 0 -0.01215605863875914 0.0027816980068158638 0 -0.011753989767838518 -0.00023454504680990424 0 -0.011940948593514446 -0.00027477789981834015 0 -0.011861500024583447 -0.00041169483013003545 0 -0.011979876693467952 -0.00015778557946310307 0 -0.012011750185073888 -0.00023618802193171897 0 -0.011940948593514446 -0.00027477789981834015 0 -0.012011750185073888 -0.00023618802193171897 0 -0.011940948593514446 -0.00027477789981834015 0 -0.012044383945966292 -0.00031831670699436552 0 -0.011940948593514446 -0.00027477789981834015 0 -0.011991191858069494 -0.00042024663376346184 0 -0.012044383945966292 -0.00031831670699436552 0 -0.011940948593514446 -0.00027477789981834015 0 -0.011991191858069494 -0.00042024663376346184 0 -0.011861500024583447 -0.00041169483013003545 0 -0.011861500024583447 -0.00041169483013003545 0 -0.011938161056994318 -0.00053113029788424352 0 -0.011842253079268025 -0.00057865283568187562 0 -0.011991191858069494 -0.00042024663376346184 0 -0.011938161056994318 -0.00053113029788424352 0 -0.012040863164749329 -0.00056762250935926207 0 -0.011991191858069494 -0.00042024663376346184 0 -0.011861500024583447 -0.00041169483013003545 0 -0.011938161056994318 -0.00053113029788424352 0 -0.011991191858069494 -0.00042024663376346184 0 -0.012123261413551472 -0.00043896174857668867 0 -0.012040863164749329 -0.00056762250935926207 0 -0.01201494585044637 -0.00039777894512755678 0 -0.011830302684774712 -0.00069608991785352517 0 -0.012123261413551472 -0.00043896174857668867 0 -0.012216847488723778 -0.00035723406273506823 0 -0.012190420295066378 -0.00076854576942205714 0 -0.011991191858069494 -0.00042024663376346184 0 -0.012123261413551472 -0.00043896174857668867 0 -0.012044383945966292 -0.00031831670699436552 0 -0.012168725886109275 -0.00027638463613451287 0 -0.012123261413551472 -0.00043896174857668867 0 -0.012044383945966292 -0.00031831670699436552 0 -0.012168725886109275 -0.00027638463613451287 0 -0.012123261413551472 -0.00043896174857668867 0 -0.012244765615162988 -0.00033513327587405536 0 -0.012123675765836003 -0.00036908507668528736 0 -0.01201494585044637 -0.00039777894512755678 0 -0.012190420295066378 -0.00076854576942205714 0 -0.012040863164749329 -0.00056762250935926207 0 -0.011957072556013453 -0.00067262158996711583 0 -0.012123261413551472 -0.00043896174857668867 0 -0.012190420295066378 -0.00076854576942205714 0 -0.012040863164749329 -0.00056762250935926207 0 -0.012190420295066378 -0.00076854576942205714 0 -0.011957072556013453 -0.00067262158996711583 0 -0.011925869657994392 -0.000863278489684579 0 -0.011938161056994318 -0.00053113029788424352 0 -0.011842253079268025 -0.00057865283568187562 0 -0.011957072556013453 -0.00067262158996711583 0 -0.011799281659482569 -0.00076089636005043635 0 -0.011842253079268025 -0.00057865283568187562 0 -0.011957072556013453 -0.00067262158996711583 0 -0.011938161056994318 -0.00053113029788424352 0 -0.012040863164749329 -0.00056762250935926207 0 -0.011957072556013453 -0.00067262158996711583 0 -0.011799281659482569 -0.00076089636005043635 0 -0.011957072556013453 -0.00067262158996711583 0 -0.011925869657994392 -0.000863278489684579 0 -0.011957003800017916 -0.0010638459325773954 0 -0.012190420295066378 -0.00076854576942205714 0 -0.011925869657994392 -0.000863278489684579 0 -0.011830302684774712 -0.00069608991785352517 0 -0.011873893719299335 -0.0010293183297512339 0 -0.011516174296614655 -0.00064372759696952641 0 -0.011659551115115897 -0.00072121613976321142 0 -0.011624937563715089 -0.00096927902284885332 0 -0.011758454635301011 -0.00079169263770311089 0 -0.011729199079522896 -0.00078783593384397195 0 -0.01173421772986041 -0.0006969944465852236 0 -0.011659551115115897 -0.00072121613976321142 0 -0.011729199079522896 -0.00078783593384397195 0 -0.011727110692297781 -0.00084953577906297028 0 -0.011659551115115897 -0.00072121613976321142 0 -0.011729199079522896 -0.00078783593384397195 0 -0.01173421772986041 -0.0006969944465852236 0 -0.011659551115115897 -0.00072121613976321142 0 -0.01173421772986041 -0.0006969944465852236 0 -0.011650663465487595 -0.00061348213524067884 0 -0.011718189395748953 -0.00050914862304474433 0 -0.011650663465487595 -0.00061348213524067884 0 -0.01159610714466478 -0.00049388422834468083 0 -0.01173421772986041 -0.0006969944465852236 0 -0.011718189395748953 -0.00050914862304474433 0 -0.011650663465487595 -0.00061348213524067884 0 -0.011516174296614655 -0.00064372759696952641 0 -0.011659551115115897 -0.00072121613976321142 0 -0.011650663465487595 -0.00061348213524067884 0 -0.011516174296614655 -0.00064372759696952641 0 -0.011650663465487595 -0.00061348213524067884 0 -0.01159610714466478 -0.00049388422834468083 0 -0.011482035668891203 -0.00040043250499393078 0 -0.011516174296614655 -0.00064372759696952641 0 -0.01159610714466478 -0.00049388422834468083 0 -0.011482035668891203 -0.00040043250499393078 0 -0.011575241696080889 -0.00039760792204779881 0 -0.01159610714466478 -0.00049388422834468083 0 -0.011575241696080889 -0.00039760792204779881 0 -0.01159610714466478 -0.00049388422834468083 0 -0.011638320245417801 -0.00041855051385459175 0 -0.011718189395748953 -0.00050914862304474433 0 -0.011638320245417801 -0.00041855051385459175 0 -0.011677315018870444 -0.00036934360338593942 0 -0.011718189395748953 -0.00050914862304474433 0 -0.01159610714466478 -0.00049388422834468083 0 -0.011638320245417801 -0.00041855051385459175 0 -0.011638320245417801 -0.00041855051385459175 0 -0.011621847292033437 -0.00033266787587408016 0 -0.011677315018870444 -0.00036934360338593942 0 -0.011624265805392196 -0.0002332869011236998 0 -0.011621847292033437 -0.00033266787587408016 0 -0.011551649511234141 -0.00033939657000414501 0 -0.011575241696080889 -0.00039760792204779881 0 -0.011638320245417801 -0.00041855051385459175 0 -0.011621847292033437 -0.00033266787587408016 0 -0.011621847292033437 -0.00033266787587408016 0 -0.011677315018870444 -0.00036934360338593942 0 -0.011656342449506691 -0.00030674481943144025 0 -0.011677315018870444 -0.00036934360338593942 0 -0.011656342449506691 -0.00030674481943144025 0 -0.011691967805351375 -0.00029220168153257714 0 -0.01165868944679717 -0.00026295059936865347 0 -0.011656342449506691 -0.00030674481943144025 0 -0.011691967805351375 -0.00029220168153257714 0 -0.01163733945370523 -0.00026521253114658648 0 -0.011621847292033437 -0.00033266787587408016 0 -0.011656342449506691 -0.00030674481943144025 0 -0.01165868944679717 -0.00026295059936865347 0 -0.01163733945370523 -0.00026521253114658648 0 -0.011656342449506691 -0.00030674481943144025 0 -0.011624265805392196 -0.0002332869011236998 0 -0.01163733945370523 -0.00026521253114658648 0 -0.011621847292033437 -0.00033266787587408016 0 -0.01230764916942682 1.0907115321211543e-05 0 -0.012703233812201837 0.00014675529549444593 0 -0.012413658529912648 -0.00016551433428832718 0 -0.011713282536196152 0.0021336286223271736 0 -0.011880107284269366 -0.00053836716852209449 0 -0.01230764916942682 1.0907115321211543e-05 0 -0.012234259863972244 -0.00016773710854349225 0 -0.012413658529912648 -0.00016551433428832718 0 -0.011482035668891203 -0.00040043250499393078 0 -0.011575241696080889 -0.00039760792204779881 0 -0.011551649511234141 -0.00033939657000414501 0 -0.01201494585044637 -0.00039777894512755678 0 -0.011880107284269366 -0.00053836716852209449 0 -0.011575241696080889 -0.00039760792204779881 0 -0.011621847292033437 -0.00033266787587408016 0 -0.011551649511234141 -0.00033939657000414501 0 -0.008813658938167955 0.0011707191491559653 0 -0.008641645128450141 0.0014707233511888471 0 -0.0055178731110689799 0.0033704212730892489 0 -0.0059994911682466207 0.0033615955304649083 0 -0.005769625119061446 0.0028920950650879454 0 -0.01175155474391751 -0.00027161066242972678 0 -0.011761008242735677 -0.00037208406473694222 0 -0.011739186313905577 -0.00037174618248642268 0 -0.01175155474391751 -0.00027161066242972678 0 -0.011691967805351375 -0.00029220168153257714 0 -0.011739186313905577 -0.00037174618248642268 0 -0.011677315018870444 -0.00036934360338593942 0 -0.011691967805351375 -0.00029220168153257714 0 -0.011739186313905577 -0.00037174618248642268 0 -0.011718189395748953 -0.00050914862304474433 0 -0.011739186313905577 -0.00037174618248642268 0 -0.01175342768492172 -0.00042130927391050758 0 -0.011718189395748953 -0.00050914862304474433 0 -0.011677315018870444 -0.00036934360338593942 0 -0.011739186313905577 -0.00037174618248642268 0 -0.011761008242735677 -0.00037208406473694222 0 -0.011739186313905577 -0.00037174618248642268 0 -0.01175342768492172 -0.00042130927391050758 0 -0.011740723509989894 -0.00039263563732704879 0 -0.011761008242735677 -0.00037208406473694222 0 -0.01175342768492172 -0.00042130927391050758 0 -0.011866382342472118 -0.00057854623438429191 0 -0.011808716654219184 -0.0006571387042523777 0 -0.011882965980744882 -0.0007305885963008659 0 -0.0092423319494555657 0.00016024738367829112 0 -0.012342266822908246 -0.00054921601531578569 0 -0.011942151829768714 -0.00059685667977257167 0 -0.011866382342472118 -0.00057854623438429191 0 -0.011882965980744882 -0.0007305885963008659 0 -0.011507236320860703 -0.0004973572701662787 0 -0.012342266822908246 -0.00054921601531578569 0 -0.011718189395748953 -0.00050914862304474433 0 -0.011866382342472118 -0.00057854623438429191 0 -0.011808716654219184 -0.0006571387042523777 0 -0.01173421772986041 -0.0006969944465852236 0 -0.011718189395748953 -0.00050914862304474433 0 -0.011808716654219184 -0.0006571387042523777 0 -0.01173421772986041 -0.0006969944465852236 0 -0.011808716654219184 -0.0006571387042523777 0 -0.011801632945645613 -0.00076273499496963494 0 -0.011808716654219184 -0.0006571387042523777 0 -0.011801632945645613 -0.00076273499496963494 0 -0.011882965980744882 -0.0007305885963008659 0 -0.011758454635301011 -0.00079169263770311089 0 -0.01173421772986041 -0.0006969944465852236 0 -0.011801632945645613 -0.00076273499496963494 0 -0.0097154348321472246 -0.0032182020973587312 0 -0.0095058917462029074 -0.0028160571984801779 0 -0.00909914067861518 -0.0033133222636548636 0 -0.0097154348321472246 -0.0032182020973587312 0 -0.0095477210337296288 -0.0036360846100046492 0 -0.00909914067861518 -0.0033133222636548636 0 -0.010469861143312172 -0.0044956461186233801 0 -0.0110086884542037 -0.0034877202928836376 0 -0.011075360471013698 -0.0052922016078320614 0 -0.011188843634245845 -0.0053530061576149424 0 -0.011182037951495759 -0.0052803506365204306 0 -0.011801632945645613 -0.00076273499496963494 0 -0.011882965980744882 -0.0007305885963008659 0 -0.011777098386469309 -0.00090557816140388416 0 -0.011758454635301011 -0.00079169263770311089 0 -0.011801632945645613 -0.00076273499496963494 0 -0.011777098386469309 -0.00090557816140388416 0 -0.010948811410264853 -0.0016517410510749628 0 -0.0110086884542037 -0.0034877202928836376 0 -0.011758454635301011 -0.00079169263770311089 0 -0.011777098386469309 -0.00090557816140388416 0 -0.0117380911732641 -0.00083798914245972005 0 -0.011758454635301011 -0.00079169263770311089 0 -0.011729199079522896 -0.00078783593384397195 0 -0.0117380911732641 -0.00083798914245972005 0 -0.011524960330402496 -0.0018839581337306633 0 -0.011576071079457481 -0.00098731239946812867 0 -0.011729199079522896 -0.00078783593384397195 0 -0.0117380911732641 -0.00083798914245972005 0 -0.011727110692297781 -0.00084953577906297028 0 -0.0117380911732641 -0.00083798914245972005 0 -0.011736516432005441 -0.00084193059365082225 0 -0.011727110692297781 -0.00084953577906297028 0 -0.01190504147153624 -0.00095992192217236655 0 -0.011727110692297781 -0.00084953577906297028 0 -0.01178268590130491 -0.0010045311189938082 0 -0.0110086884542037 -0.0034877202928836376 0 -0.011524960330402496 -0.0018839581337306633 0 -0.011777098386469309 -0.00090557816140388416 0 -0.0117380911732641 -0.00083798914245972005 0 -0.011724221965003744 -0.00086171007195676326 0 -0.011686147910105239 -0.0015270643057264284 0 -0.011524960330402496 -0.0018839581337306633 0 -0.011659551115115897 -0.00072121613976321142 0 -0.011727110692297781 -0.00084953577906297028 0 -0.011624937563715089 -0.00096927902284885332 0 -0.011727110692297781 -0.00084953577906297028 0 -0.01178268590130491 -0.0010045311189938082 0 -0.011624937563715089 -0.00096927902284885332 0 -0.01178268590130491 -0.0010045311189938082 0 -0.011624937563715089 -0.00096927902284885332 0 -0.011876280813416228 -0.0012293803985769008 0 -0.011873893719299335 -0.0010293183297512339 0 -0.011904663798537593 -0.0012518966473173332 0 -0.011624937563715089 -0.00096927902284885332 0 -0.011876280813416228 -0.0012293803985769008 0 -0.01191355515260736 -0.0012876959048088237 0 -0.011593571663636804 -0.0044571366782135751 0 -0.011367871485878017 -0.0049687296813335571 0 -0.011517891790182821 -0.004944560379071275 0 -0.011188843634245845 -0.0053530061576149424 0 -0.011264464027262456 -0.0052909969617777304 0 -0.011182037951495759 -0.0052803506365204306 0 -0.011801723177356008 -0.0045944791751105305 0 -0.011593571663636804 -0.0044571366782135751 0 -0.011517891790182821 -0.004944560379071275 0 -0.01190504147153624 -0.00095992192217236655 0 -0.01178268590130491 -0.0010045311189938082 0 -0.011876280813416228 -0.0012293803985769008 0 -0.011524960330402496 -0.0018839581337306633 0 -0.011606636135942717 -0.0032611327976557348 0 -0.0110086884542037 -0.0034877202928836376 0 -0.011324095588512132 -0.005257198625740719 0 -0.011264464027262456 -0.0052909969617777304 0 -0.011222632812058953 -0.0052425146860546256 0 -0.011182037951495759 -0.0052803506365204306 0 -0.011264464027262456 -0.0052909969617777304 0 -0.011274382201873882 -0.005211364485159551 0 -0.011351131375122751 -0.0051495898660687475 0 -0.011264464027262456 -0.0052909969617777304 0 -0.011222632812058953 -0.0052425146860546256 0 -0.011274382201873882 -0.005211364485159551 0 -0.011274382201873882 -0.005211364485159551 0 -0.011242733033076741 -0.0051889061139350386 0 -0.01129621892167431 -0.005179304834614761 0 -0.011222632812058953 -0.0052425146860546256 0 -0.011242733033076741 -0.0051889061139350386 0 -0.011159978610005073 -0.0052266075756506975 0 -0.011222632812058953 -0.0052425146860546256 0 -0.011274382201873882 -0.005211364485159551 0 -0.011242733033076741 -0.0051889061139350386 0 -0.011876280813416228 -0.0012293803985769008 0 -0.01191355515260736 -0.0012876959048088237 0 -0.011929002711436324 -0.0013249870420476049 0 -0.011606636135942717 -0.0032611327976557348 0 -0.011637415749658717 -0.0031100881277983132 0 -0.011367871485878017 -0.0049687296813335571 0 -0.011351131375122751 -0.0051495898660687475 0 -0.011322106543000579 -0.0052188788675825619 0 -0.011367871485878017 -0.0049687296813335571 0 -0.011517891790182821 -0.004944560379071275 0 -0.011351131375122751 -0.0051495898660687475 0 -0.011324095588512132 -0.005257198625740719 0 -0.011387336648330453 -0.0051083118320930957 0 -0.011274382201873882 -0.005211364485159551 0 -0.011351131375122751 -0.0051495898660687475 0 -0.01129621892167431 -0.005179304834614761 0 -0.011351131375122751 -0.0051495898660687475 0 -0.011322106543000579 -0.0052188788675825619 0 -0.011308740831418846 -0.0051814828289666204 0 -0.011351131375122751 -0.0051495898660687475 0 -0.011308740831418846 -0.0051814828289666204 0 -0.01129621892167431 -0.005179304834614761 0 -0.011322106543000579 -0.0052188788675825619 0 -0.011308740831418846 -0.0051814828289666204 0 -0.011360187588468474 -0.0051605601189676428 0 -0.011308740831418846 -0.0051814828289666204 0 -0.011242733033076741 -0.0051889061139350386 0 -0.01129621892167431 -0.005179304834614761 0 -0.011308740831418846 -0.0051814828289666204 0 -0.011242733033076741 -0.0051889061139350386 0 -0.011242369667344881 -0.0051492218433545414 0 -0.011242733033076741 -0.0051889061139350386 0 -0.011167688960696052 -0.0051645701616763497 0 -0.011242369667344881 -0.0051492218433545414 0 -0.011167688960696052 -0.0051645701616763497 0 -0.011078782501913662 -0.0051934498630946532 0 -0.011159978610005073 -0.0052266075756506975 0 -0.011242733033076741 -0.0051889061139350386 0 -0.011167688960696052 -0.0051645701616763497 0 -0.011159978610005073 -0.0052266075756506975 0 -0.010966134130099371 -0.0052393505296071084 0 -0.011075360471013698 -0.0052922016078320614 0 -0.011078782501913662 -0.0051934498630946532 0 -0.011075360471013698 -0.0052922016078320614 0 -0.011078782501913662 -0.0051934498630946532 0 -0.011159978610005073 -0.0052266075756506975 0 -0.011075360471013698 -0.0052922016078320614 0 -0.011182037951495759 -0.0052803506365204306 0 -0.011159978610005073 -0.0052266075756506975 0 -0.011222632812058953 -0.0052425146860546256 0 -0.011182037951495759 -0.0052803506365204306 0 -0.011159978610005073 -0.0052266075756506975 0 -0.011190492811058118 -0.005091542792359063 0 -0.011100775739827404 -0.0051046434226090795 0 -0.011150508261585316 -0.0050150960980024127 0 -0.011026282833673023 -0.0050349606515599134 0 -0.011100775739827404 -0.0051046434226090795 0 -0.011150508261585316 -0.0050150960980024127 0 -0.011001841770727931 -0.0051327765390765685 0 -0.011026282833673023 -0.0050349606515599134 0 -0.011100775739827404 -0.0051046434226090795 0 -0.011001841770727931 -0.0051327765390765685 0 -0.011078782501913662 -0.0051934498630946532 0 -0.011100775739827404 -0.0051046434226090795 0 -0.011167688960696052 -0.0051645701616763497 0 -0.011078782501913662 -0.0051934498630946532 0 -0.011100775739827404 -0.0051046434226090795 0 -0.011167688960696052 -0.0051645701616763497 0 -0.011190492811058118 -0.005091542792359063 0 -0.011100775739827404 -0.0051046434226090795 0 -0.011167688960696052 -0.0051645701616763497 0 -0.011190492811058118 -0.005091542792359063 0 -0.011242369667344881 -0.0051492218433545414 0 -0.011308740831418846 -0.0051814828289666204 0 -0.011242369667344881 -0.0051492218433545414 0 -0.01130487603722583 -0.0051091120881295218 0 -0.011190492811058118 -0.005091542792359063 0 -0.011242369667344881 -0.0051492218433545414 0 -0.01130487603722583 -0.0051091120881295218 0 -0.011308740831418846 -0.0051814828289666204 0 -0.011360187588468474 -0.0051605601189676428 0 -0.01130487603722583 -0.0051091120881295218 0 -0.011360187588468474 -0.0051605601189676428 0 -0.01130487603722583 -0.0051091120881295218 0 -0.01140391225545969 -0.0051146767162411587 0 -0.01130487603722583 -0.0051091120881295218 0 -0.011382807338989076 -0.0050457696413261505 0 -0.01140391225545969 -0.0051146767162411587 0 -0.011382807338989076 -0.0050457696413261505 0 -0.01128208670663591 -0.0049877739849872012 0 -0.011481874614479 -0.0049175169842078257 0 -0.01130487603722583 -0.0051091120881295218 0 -0.011382807338989076 -0.0050457696413261505 0 -0.01128208670663591 -0.0049877739849872012 0 -0.011190492811058118 -0.005091542792359063 0 -0.01130487603722583 -0.0051091120881295218 0 -0.01128208670663591 -0.0049877739849872012 0 -0.011190492811058118 -0.005091542792359063 0 -0.01128208670663591 -0.0049877739849872012 0 -0.011150508261585316 -0.0050150960980024127 0 -0.011734801813416164 -0.010180013352376305 0 -0.011469660916682894 -0.0098619637228789751 0 -0.011152501918634145 -0.010164687989633697 0 -0.011460007167745086 -0.0075881219615567853 0 -0.011361222036112339 -0.0075185415424573578 0 -0.011460007167745086 -0.0075881219615567853 0 -0.011934404401339929 -0.0075376061896488171 0 -0.011734801813416164 -0.010180013352376305 0 -0.011861234685345296 -0.009697291362141645 0 -0.012238435868227945 -0.009822607044167363 0 -0.011861234685345296 -0.009697291362141645 0 -0.011469660916682894 -0.0098619637228789751 0 -0.011517576484484784 -0.009498208299959102 0 -0.011734801813416164 -0.010180013352376305 0 -0.011861234685345296 -0.009697291362141645 0 -0.011469660916682894 -0.0098619637228789751 0 -0.011469660916682894 -0.0098619637228789751 0 -0.011079044151366763 -0.0097741066147478128 0 -0.011517576484484784 -0.009498208299959102 0 -0.011469660916682894 -0.0098619637228789751 0 -0.011079044151366763 -0.0097741066147478128 0 -0.011152501918634145 -0.010164687989633697 0 -0.0098296701860793624 -0.0082951965906910251 0 -0.011361222036112339 -0.0075185415424573578 0 -0.010585728545982855 -0.010124079037220911 0 -0.011079044151366763 -0.0097741066147478128 0 -0.011152501918634145 -0.010164687989633697 0 -0.0098296701860793624 -0.0082951965906910251 0 -0.010490920783454006 -0.0097848154191746192 0 -0.010585728545982855 -0.010124079037220911 0 -0.011079044151366763 -0.0097741066147478128 0 -0.010685873627212962 -0.0095945477838120605 0 -0.010214917097943532 -0.0092775934320551527 0 -0.010375282366895434 -0.0090834837613509214 0 -0.010688415810429685 -0.0089777711193861093 0 -0.010490920783454006 -0.0097848154191746192 0 -0.010669330447046037 -0.0088203901086964139 0 -0.011079044151366763 -0.0097741066147478128 0 -0.010685873627212962 -0.0095945477838120605 0 -0.01109804283177666 -0.0093651134884932419 0 -0.010685873627212962 -0.0095945477838120605 0 -0.01109804283177666 -0.0093651134884932419 0 -0.010688415810429685 -0.0089777711193861093 0 -0.011079044151366763 -0.0097741066147478128 0 -0.01109804283177666 -0.0093651134884932419 0 -0.011517576484484784 -0.009498208299959102 0 -0.01109804283177666 -0.0093651134884932419 0 -0.011030164763136733 -0.0091135852782878463 0 -0.011477649319100371 -0.0091012425370596214 0 -0.011030164763136733 -0.0091135852782878463 0 -0.011148003295590609 -0.0089295632836898665 0 -0.011477649319100371 -0.0091012425370596214 0 -0.01109804283177666 -0.0093651134884932419 0 -0.011030164763136733 -0.0091135852782878463 0 -0.010688415810429685 -0.0089777711193861093 0 -0.011030164763136733 -0.0091135852782878463 0 -0.010688415810429685 -0.0089777711193861093 0 -0.011148003295590609 -0.0089295632836898665 0 -0.010688415810429685 -0.0089777711193861093 0 -0.010688443401552032 -0.0087861915868551656 0 -0.011148003295590609 -0.0089295632836898665 0 -0.010375282366895434 -0.0090834837613509214 0 -0.010688415810429685 -0.0089777711193861093 0 -0.010688443401552032 -0.0087861915868551656 0 -0.0091734374536319926 -0.011557669320005338 0 -0.010532402942835339 -0.01016620247777502 0 -0.0093498765491059708 -0.010348403871463777 0 -0.0085148362346379788 -0.010516456642785312 0 -0.0091734374536319926 -0.011557669320005338 0 -0.0093498765491059708 -0.010348403871463777 0 -0.010688443401552032 -0.0087861915868551656 0 -0.011148003295590609 -0.0089295632836898665 0 -0.011355093402864237 -0.0086705172402860246 0 -0.011148003295590609 -0.0089295632836898665 0 -0.011355093402864237 -0.0086705172402860246 0 -0.011477649319100371 -0.0091012425370596214 0 -0.0098857817037519939 -0.010194835121504623 0 -0.010916994268572235 -0.0094190795358547168 0 -0.0085148362346379788 -0.010516456642785312 0 -0.0093498765491059708 -0.010348403871463777 0 -0.0091607171782866446 -0.0092130650462390572 0 -0.010532402942835339 -0.01016620247777502 0 -0.0093498765491059708 -0.010348403871463777 0 -0.0091607171782866446 -0.0092130650462390572 0 -0.01187007982205609 -0.0089274513421419566 0 -0.012333885501021021 -0.0087629570019962504 0 -0.011688326183653733 -0.0086901110693257972 0 -0.011355093402864237 -0.0086705172402860246 0 -0.01187007982205609 -0.0089274513421419566 0 -0.011688326183653733 -0.0086901110693257972 0 -0.010916994268572235 -0.0094190795358547168 0 -0.011630149420549766 -0.0087710380920095841 0 -0.011355093402864237 -0.0086705172402860246 0 -0.01187007982205609 -0.0089274513421419566 0 -0.011477649319100371 -0.0091012425370596214 0 -0.01187007982205609 -0.0089274513421419566 0 -0.011477649319100371 -0.0091012425370596214 0 -0.011895067618621734 -0.0093040424366796059 0 -0.01187007982205609 -0.0089274513421419566 0 -0.011895067618621734 -0.0093040424366796059 0 -0.012383896572803118 -0.0091477244431190409 0 -0.011477649319100371 -0.0091012425370596214 0 -0.011517576484484784 -0.009498208299959102 0 -0.011895067618621734 -0.0093040424366796059 0 -0.01109804283177666 -0.0093651134884932419 0 -0.011477649319100371 -0.0091012425370596214 0 -0.011517576484484784 -0.009498208299959102 0 -0.011861234685345296 -0.009697291362141645 0 -0.011517576484484784 -0.009498208299959102 0 -0.011895067618621734 -0.0093040424366796059 0 -0.011861234685345296 -0.009697291362141645 0 -0.011895067618621734 -0.0093040424366796059 0 -0.012231527952498798 -0.0095033803728567113 0 -0.011895067618621734 -0.0093040424366796059 0 -0.012231527952498798 -0.0095033803728567113 0 -0.012383896572803118 -0.0091477244431190409 0 -0.012231527952498798 -0.0095033803728567113 0 -0.012383896572803118 -0.0091477244431190409 0 -0.012678163317600365 -0.0095240522665740561 0 -0.012383896572803118 -0.0091477244431190409 0 -0.012876155495638598 -0.0092223450170556744 0 -0.012678163317600365 -0.0095240522665740561 0 -0.012383896572803118 -0.0091477244431190409 0 -0.0129047089678847 -0.0087904934654367897 0 -0.012876155495638598 -0.0092223450170556744 0 -0.01187007982205609 -0.0089274513421419566 0 -0.012383896572803118 -0.0091477244431190409 0 -0.012333885501021021 -0.0087629570019962504 0 -0.012383896572803118 -0.0091477244431190409 0 -0.012333885501021021 -0.0087629570019962504 0 -0.0129047089678847 -0.0087904934654367897 0 -0.012657629796202281 -0.0084615569000827829 0 -0.012333885501021021 -0.0087629570019962504 0 -0.0129047089678847 -0.0087904934654367897 0 -0.012657629796202281 -0.0084615569000827829 0 -0.0129047089678847 -0.0087904934654367897 0 -0.01309621314103545 -0.0080392365621519708 0 -0.012333885501021021 -0.0087629570019962504 0 -0.012315685716339337 -0.0082095170219597183 0 -0.011688326183653733 -0.0086901110693257972 0 -0.012657629796202281 -0.0084615569000827829 0 -0.012333885501021021 -0.0087629570019962504 0 -0.012315685716339337 -0.0082095170219597183 0 -0.013701034728970165 -0.0082008288737348053 0 -0.013317469707154736 -0.0083735062448627908 0 -0.013433304768550676 -0.0080828950235226522 0 -0.01310593208888151 -0.0085588481981105809 0 -0.01309362438503572 -0.0080461745638047474 0 -0.013317469707154736 -0.0083735062448627908 0 -0.013702135317614694 -0.008523336908416404 0 -0.013260204301779122 -0.0087706092204344679 0 -0.01310593208888151 -0.0085588481981105809 0 -0.01306967577270751 -0.0090225500343632976 0 -0.013701034728970165 -0.0082008288737348053 0 -0.013317469707154736 -0.0083735062448627908 0 -0.013702135317614694 -0.008523336908416404 0 -0.013702135317614694 -0.008523336908416404 0 -0.013260204301779122 -0.0087706092204344679 0 -0.013907362347851861 -0.0088724895555483511 0 -0.01306967577270751 -0.0090225500343632976 0 -0.013055387458985554 -0.0095831406652300988 0 -0.012876155495638598 -0.0092223450170556744 0 -0.013045475953706703 -0.0095959211840409165 0 -0.012678163317600365 -0.0095240522665740561 0 -0.013260204301779122 -0.0087706092204344679 0 -0.01342840913917148 -0.0092799737618863617 0 -0.013045475953706703 -0.0095959211840409165 0 -0.01342840913917148 -0.0092799737618863617 0 -0.013792072170291209 -0.0092732470442988147 0 -0.013907362347851861 -0.0088724895555483511 0 -0.013260204301779122 -0.0087706092204344679 0 -0.01342840913917148 -0.0092799737618863617 0 -0.013907362347851861 -0.0088724895555483511 0 -0.01342840913917148 -0.0092799737618863617 0 -0.013543780324538793 -0.00961088006245483 0 -0.013792072170291209 -0.0092732470442988147 0 -0.01342840913917148 -0.0092799737618863617 0 -0.013543780324538793 -0.00961088006245483 0 -0.013203730695732115 -0.0096594900619718024 0 -0.013221817724398502 -0.010608959898813313 0 -0.01479022882114199 -0.0072406323269431734 0 -0.013543780324538793 -0.00961088006245483 0 -0.014028170603269677 -0.010431658935559852 0 -0.014124150202094158 -0.0098579994637738484 0 -0.013271508906341992 -0.010027790166740262 0 -0.013203730695732115 -0.0096594900619718024 0 -0.013670187141142607 -0.010144945122157174 0 -0.013543780324538793 -0.00961088006245483 0 -0.013203730695732115 -0.0096594900619718024 0 -0.014028170603269677 -0.010431658935559852 0 -0.013271508906341992 -0.010027790166740262 0 -0.0135938266043115 -0.010207423313143114 0 -0.012917242713391376 -0.010189239435132112 0 -0.013271508906341992 -0.010027790166740262 0 -0.0135938266043115 -0.010207423313143114 0 -0.013670187141142607 -0.010144945122157174 0 -0.013271508906341992 -0.010027790166740262 0 -0.012972107233397806 -0.0098503261386856632 0 -0.012917242713391376 -0.010189239435132112 0 -0.013271508906341992 -0.010027790166740262 0 -0.012972107233397806 -0.0098503261386856632 0 -0.013203730695732115 -0.0096594900619718024 0 -0.012972107233397806 -0.0098503261386856632 0 -0.012626537920176345 -0.009864963570624892 0 -0.012917242713391376 -0.010189239435132112 0 -0.012972107233397806 -0.0098503261386856632 0 -0.012822229877736424 -0.0097336124033225394 0 -0.013045475953706703 -0.0095959211840409165 0 -0.012972107233397806 -0.0098503261386856632 0 -0.013045475953706703 -0.0095959211840409165 0 -0.013203730695732115 -0.0096594900619718024 0 -0.01342840913917148 -0.0092799737618863617 0 -0.013045475953706703 -0.0095959211840409165 0 -0.013203730695732115 -0.0096594900619718024 0 -0.012822229877736424 -0.0097336124033225394 0 -0.013045475953706703 -0.0095959211840409165 0 -0.012678163317600365 -0.0095240522665740561 0 -0.012678163317600365 -0.0095240522665740561 0 -0.012238435868227945 -0.009822607044167363 0 -0.012626537920176345 -0.009864963570624892 0 -0.012822229877736424 -0.0097336124033225394 0 -0.012678163317600365 -0.0095240522665740561 0 -0.012626537920176345 -0.009864963570624892 0 -0.012231527952498798 -0.0095033803728567113 0 -0.012678163317600365 -0.0095240522665740561 0 -0.012238435868227945 -0.009822607044167363 0 -0.011861234685345296 -0.009697291362141645 0 -0.012231527952498798 -0.0095033803728567113 0 -0.012238435868227945 -0.009822607044167363 0 -0.012238435868227945 -0.009822607044167363 0 -0.012306043287131939 -0.010179092903314315 0 -0.012626537920176345 -0.009864963570624892 0 -0.011734801813416164 -0.010180013352376305 0 -0.012238435868227945 -0.009822607044167363 0 -0.012306043287131939 -0.010179092903314315 0 -0.012306043287131939 -0.010179092903314315 0 -0.012626537920176345 -0.009864963570624892 0 -0.012917242713391376 -0.010189239435132112 0 -0.011934404401339929 -0.0075376061896488171 0 -0.012382750449434142 -0.0076332947945394053 0 -0.012972107233397806 -0.0098503261386856632 0 -0.012822229877736424 -0.0097336124033225394 0 -0.012626537920176345 -0.009864963570624892 0 -0.011716841738017788 -0.0050057714209350325 0 -0.011857621613685816 -0.0051148364462355938 0 -0.012055231252392825 -0.0048585537796054668 0 -0.011857621613685816 -0.0051148364462355938 0 -0.011474390172677863 -0.0053763789977990233 0 -0.012185133856687283 -0.0051944076273130338 0 -0.011481874614479 -0.0049175169842078257 0 -0.011716841738017788 -0.0050057714209350325 0 -0.012055231252392825 -0.0048585537796054668 0 -0.011442130191025753 -0.0054459178025385614 0 -0.011960962844252953 -0.0038860111422121058 0 -0.011716841738017788 -0.0050057714209350325 0 -0.011857621613685816 -0.0051148364462355938 0 -0.011474390172677863 -0.0053763789977990233 0 -0.011382807338989076 -0.0050457696413261505 0 -0.011481874614479 -0.0049175169842078257 0 -0.011485562937603196 -0.0050707949062236864 0 -0.011481874614479 -0.0049175169842078257 0 -0.011716841738017788 -0.0050057714209350325 0 -0.011485562937603196 -0.0050707949062236864 0 -0.011716841738017788 -0.0050057714209350325 0 -0.011485562937603196 -0.0050707949062236864 0 -0.011495406357162178 -0.0051451957386087384 0 -0.011382807338989076 -0.0050457696413261505 0 -0.011485562937603196 -0.0050707949062236864 0 -0.01140391225545969 -0.0051146767162411587 0 -0.011322106543000579 -0.0052188788675825619 0 -0.011360187588468474 -0.0051605601189676428 0 -0.011495406357162178 -0.0051451957386087384 0 -0.011637415749658717 -0.0031100881277983132 0 -0.011960962844252953 -0.0038860111422121058 0 -0.011360187588468474 -0.0051605601189676428 0 -0.01140391225545969 -0.0051146767162411587 0 -0.011495406357162178 -0.0051451957386087384 0 -0.011485562937603196 -0.0050707949062236864 0 -0.01140391225545969 -0.0051146767162411587 0 -0.011495406357162178 -0.0051451957386087384 0 -0.012093297655607817 -0.0013362529867811555 0 -0.011974548628149067 -0.001306743972716763 0 -0.011924900788409418 -0.0011976104307654522 0 -0.012093297655607817 -0.0013362529867811555 0 -0.011924900788409418 -0.0011976104307654522 0 -0.012335747229132372 -0.00098202884878322667 0 -0.011960962844252953 -0.0038860111422121058 0 -0.011832308277524529 -0.0027994393316372892 0 -0.012093297655607817 -0.0013362529867811555 0 -0.012489158732298332 -0.0013286955205946737 0 -0.012335747229132372 -0.00098202884878322667 0 -0.012791729283814054 -0.0015116041360802644 0 -0.012726492441292262 -0.0011413695543178799 0 -0.012975633843468387 -0.0013236577392804155 0 -0.012489158732298332 -0.0013286955205946737 0 -0.012726492441292262 -0.0011413695543178799 0 -0.012335747229132372 -0.00098202884878322667 0 -0.012791729283814054 -0.0015116041360802644 0 -0.012489158732298332 -0.0013286955205946737 0 -0.012726492441292262 -0.0011413695543178799 0 -0.013791857291081228 -0.0065355870339697869 0 -0.012382750449434142 -0.0076332947945394053 0 -0.011832308277524529 -0.0027994393316372892 0 -0.015188208722346547 -0.0047518020703851468 0 -0.012726492441292262 -0.0011413695543178799 0 -0.012335747229132372 -0.00098202884878322667 0 -0.012924407196943977 -0.00080311734391470759 0 -0.012935334928130818 -0.0048900674647621946 0 -0.012185133856687283 -0.0051944076273130338 0 -0.013135706827725675 -0.0049083966403372899 0 -0.013791857291081228 -0.0065355870339697869 0 -0.01479022882114199 -0.0072406323269431734 0 -0.012935334928130818 -0.0048900674647621946 0 -0.012055231252392825 -0.0048585537796054668 0 -0.012185133856687283 -0.0051944076273130338 0 -0.011857621613685816 -0.0051148364462355938 0 -0.012055231252392825 -0.0048585537796054668 0 -0.012185133856687283 -0.0051944076273130338 0 -0.017601240642559662 -0.0043191552419847203 0 -0.017411307544927302 -0.0040744516065035511 0 -0.017251047311397271 -0.0043339045342742537 0 -0.017411307544927302 -0.0040744516065035511 0 -0.017223469582411464 -0.004031348839912176 0 -0.017251047311397271 -0.0043339045342742537 0 -0.015188208722346547 -0.0047518020703851468 0 -0.017709995823565427 -0.0045042736095707598 0 -0.017361673377317147 -0.0047931287376802622 0 -0.017130163804212561 -0.0047053786205818963 0 -0.017202978475020572 -0.0048339296650939988 0 -0.015188208722346547 -0.0047518020703851468 0 -0.015088193077357794 -0.002220985546310538 0 -0.012726492441292262 -0.0011413695543178799 0 -0.012924407196943977 -0.00080311734391470759 0 -0.013244149457721763 -0.0011270787240603511 0 -0.013791857291081228 -0.0065355870339697869 0 -0.015188208722346547 -0.0047518020703851468 0 -0.014355347099222409 -0.005672542149873519 0 -0.015219043170935075 -0.0057273798656668554 0 -0.014806848663008691 -0.0053023787639061197 0 -0.015188208722346547 -0.0047518020703851468 0 -0.01479022882114199 -0.0072406323269431734 0 -0.012726492441292262 -0.0011413695543178799 0 -0.012975633843468387 -0.0013236577392804155 0 -0.013244149457721763 -0.0011270787240603511 0 -0.013142591079255622 -0.0015086589943540186 0 -0.012975633843468387 -0.0013236577392804155 0 -0.013244149457721763 -0.0011270787240603511 0 -0.016185036307622976 -0.0027220726154301004 0 -0.015088193077357794 -0.002220985546310538 0 -0.01355932902924289 -0.0014494808098208681 0 -0.013142591079255622 -0.0015086589943540186 0 -0.013244149457721763 -0.0011270787240603511 0 -0.01717150226465787 -0.0037742983372352234 0 -0.017411307544927302 -0.0040744516065035511 0 -0.017223469582411464 -0.004031348839912176 0 -0.017057921170093686 -0.0039565239872217601 0 -0.017223469582411464 -0.004031348839912176 0 -0.017251047311397271 -0.0043339045342742537 0 -0.01717150226465787 -0.0037742983372352234 0 -0.017057921170093686 -0.0039565239872217601 0 -0.017223469582411464 -0.004031348839912176 0 -0.016185036307622976 -0.0027220726154301004 0 -0.016862339900268523 -0.0038445156402919563 0 -0.016797559894210258 -0.0035940990322321821 0 -0.017057921170093686 -0.0039565239872217601 0 -0.016650622519618657 -0.003977891699269793 0 -0.017057921170093686 -0.0039565239872217601 0 -0.016650622519618657 -0.003977891699269793 0 -0.016668999924270778 -0.0044361630744611819 0 -0.017057921170093686 -0.0039565239872217601 0 -0.016668999924270778 -0.0044361630744611819 0 -0.017251047311397271 -0.0043339045342742537 0 -0.016445142872247388 -0.0044418909695356631 0 -0.017709995823565427 -0.0045042736095707598 0 -0.016668999924270778 -0.0044361630744611819 0 -0.017130163804212561 -0.0047053786205818963 0 -0.016898171744251539 -0.004778815796169858 0 -0.017130163804212561 -0.0047053786205818963 0 -0.016898171744251539 -0.004778815796169858 0 -0.0170341129006574 -0.004894553260966608 0 -0.016898171744251539 -0.004778815796169858 0 -0.0170341129006574 -0.004894553260966608 0 -0.016916310565116027 -0.0050191427151564045 0 -0.016668999924270778 -0.0044361630744611819 0 -0.016898171744251539 -0.004778815796169858 0 -0.016726615811749182 -0.0049606018161334232 0 -0.016898171744251539 -0.004778815796169858 0 -0.016726615811749182 -0.0049606018161334232 0 -0.016916310565116027 -0.0050191427151564045 0 -0.016726615811749182 -0.0049606018161334232 0 -0.016768000161829937 -0.0052419026874358258 0 -0.016375546746944407 -0.005006000866624438 0 -0.016726615811749182 -0.0049606018161334232 0 -0.016768000161829937 -0.0052419026874358258 0 -0.016916310565116027 -0.0050191427151564045 0 -0.016803664657516312 -0.0057090461692088082 0 -0.016090367220638235 -0.0075889864631380312 0 -0.016410217604944436 -0.0065479424276791024 0 -0.016931278803199824 -0.006503645496726552 0 -0.016610270605988707 -0.0067681182345099324 0 -0.016768000161829937 -0.0052419026874358258 0 -0.016916310565116027 -0.0050191427151564045 0 -0.017136244397463248 -0.0051049025764710295 0 -0.0170341129006574 -0.004894553260966608 0 -0.016916310565116027 -0.0050191427151564045 0 -0.017136244397463248 -0.0051049025764710295 0 -0.0170341129006574 -0.004894553260966608 0 -0.017136244397463248 -0.0051049025764710295 0 -0.017155995323039807 -0.0049408564474287845 0 -0.016090367220638235 -0.0075889864631380312 0 -0.015976754976749854 -0.0077389962269516334 0 -0.015516375119688442 -0.0092627645496967132 0 -0.014743269530892123 -0.0098981941116431209 0 -0.014483042633318918 -0.0094153994429842305 0 -0.016090367220638235 -0.0075889864631380312 0 -0.014036455488425373 -0.0095431691138530145 0 -0.014706105540909202 -0.0093891178615925445 0 -0.014043512964394395 -0.0094529932940980669 0 -0.014282294070716992 -0.0090535548378562203 0 -0.016090367220638235 -0.0075889864631380312 0 -0.016114622238462058 -0.0073274330509268551 0 -0.017136244397463248 -0.0051049025764710295 0 -0.017155995323039807 -0.0049408564474287845 0 -0.017239418942753968 -0.0049042956772041577 0 -0.0170341129006574 -0.004894553260966608 0 -0.017155995323039807 -0.0049408564474287845 0 -0.017202978475020572 -0.0048339296650939988 0 -0.017155995323039807 -0.0049408564474287845 0 -0.017202978475020572 -0.0048339296650939988 0 -0.017239418942753968 -0.0049042956772041577 0 -0.017130163804212561 -0.0047053786205818963 0 -0.0170341129006574 -0.004894553260966608 0 -0.017202978475020572 -0.0048339296650939988 0 -0.017234390692338921 -0.0048746637475661847 0 -0.017202978475020572 -0.0048339296650939988 0 -0.017239418942753968 -0.0049042956772041577 0 -0.015188208722346547 -0.0047518020703851468 0 -0.017938248680174247 -0.0046756796842911648 0 -0.017234390692338921 -0.0048746637475661847 0 -0.017233352872130049 -0.0048814433611603222 0 -0.017239418942753968 -0.0049042956772041577 0 -0.01479022882114199 -0.0072406323269431734 0 -0.016114622238462058 -0.0073274330509268551 0 -0.014028170603269677 -0.010431658935559852 0 -0.014743269530892123 -0.0098981941116431209 0 -0.014124150202094158 -0.0098579994637738484 0 -0.013689723908512015 -0.0095611082202579738 0 -0.014036455488425373 -0.0095431691138530145 0 -0.013543780324538793 -0.00961088006245483 0 -0.014043512964394395 -0.0094529932940980669 0 -0.013792072170291209 -0.0092732470442988147 0 -0.013543780324538793 -0.00961088006245483 0 -0.014124150202094158 -0.0098579994637738484 0 -0.014483042633318918 -0.0094153994429842305 0 -0.014743269530892123 -0.0098981941116431209 0 -0.014124150202094158 -0.0098579994637738484 0 -0.014483042633318918 -0.0094153994429842305 0 -0.014043512964394395 -0.0094529932940980669 0 -0.014004924290648962 -0.0091598369105361788 0 -0.014282294070716992 -0.0090535548378562203 0 -0.014043512964394395 -0.0094529932940980669 0 -0.013792072170291209 -0.0092732470442988147 0 -0.014004924290648962 -0.0091598369105361788 0 -0.013792072170291209 -0.0092732470442988147 0 -0.014004924290648962 -0.0091598369105361788 0 -0.013907362347851861 -0.0088724895555483511 0 -0.014004924290648962 -0.0091598369105361788 0 -0.013907362347851861 -0.0088724895555483511 0 -0.014282294070716992 -0.0090535548378562203 0 -0.014706105540909202 -0.0093891178615925445 0 -0.014428455941847286 -0.0085476758362363781 0 -0.014282294070716992 -0.0090535548378562203 0 -0.013907362347851861 -0.0088724895555483511 0 -0.014428455941847286 -0.0085476758362363781 0 -0.014282294070716992 -0.0090535548378562203 0 -0.014428455941847286 -0.0085476758362363781 0 -0.01418546768880749 -0.0085439479985774652 0 -0.014518656957273602 -0.0084808337290809364 0 -0.013702135317614694 -0.008523336908416404 0 -0.013907362347851861 -0.0088724895555483511 0 -0.01418546768880749 -0.0085439479985774652 0 -0.013907362347851861 -0.0088724895555483511 0 -0.014428455941847286 -0.0085476758362363781 0 -0.01418546768880749 -0.0085439479985774652 0 -0.013701034728970165 -0.0082008288737348053 0 -0.013702135317614694 -0.008523336908416404 0 -0.014157268967263253 -0.0083822616748586935 0 -0.013702135317614694 -0.008523336908416404 0 -0.01418546768880749 -0.0085439479985774652 0 -0.014157268967263253 -0.0083822616748586935 0 -0.01418546768880749 -0.0085439479985774652 0 -0.014157268967263253 -0.0083822616748586935 0 -0.014518656957273602 -0.0084808337290809364 0 -0.014157268967263253 -0.0083822616748586935 0 -0.014397204983768843 -0.0083050962691374863 0 -0.014518656957273602 -0.0084808337290809364 0 -0.014157268967263253 -0.0083822616748586935 0 -0.014397204983768843 -0.0083050962691374863 0 -0.014065945504307259 -0.0081898673324383893 0 -0.013701034728970165 -0.0082008288737348053 0 -0.014157268967263253 -0.0083822616748586935 0 -0.014065945504307259 -0.0081898673324383893 0 -0.014765565683840609 -0.0084185570527394761 0 -0.014629568918796675 -0.0083817298168548573 0 -0.014644945708663211 -0.0082073584381452819 0 -0.014765565683840609 -0.0084185570527394761 0 -0.01465787241390557 -0.008944600442024369 0 -0.014644945708663211 -0.0082073584381452819 0 -0.014397204983768843 -0.0083050962691374863 0 -0.014629568918796675 -0.0083817298168548573 0 -0.014644945708663211 -0.0082073584381452819 0 -0.014397204983768843 -0.0083050962691374863 0 -0.014629568918796675 -0.0083817298168548573 0 -0.014518656957273602 -0.0084808337290809364 0 -0.014629568918796675 -0.0083817298168548573 0 -0.014692214481677001 -0.0083979434904515853 0 -0.014518656957273602 -0.0084808337290809364 0 -0.014692214481677001 -0.0083979434904515853 0 -0.01469111317524373 -0.008517349332652047 0 -0.014795254134292378 -0.0083097742694655946 0 -0.014765565683840609 -0.0084185570527394761 0 -0.014629568918796675 -0.0083817298168548573 0 -0.014692214481677001 -0.0083979434904515853 0 -0.014765565683840609 -0.0084185570527394761 0 -0.014692214481677001 -0.0083979434904515853 0 -0.014795254134292378 -0.0083097742694655946 0 -0.014692214481677001 -0.0083979434904515853 0 -0.01469111317524373 -0.008517349332652047 0 -0.014518656957273602 -0.0084808337290809364 0 -0.014428455941847286 -0.0085476758362363781 0 -0.01469111317524373 -0.008517349332652047 0 -0.014518656957273602 -0.0084808337290809364 0 -0.014514190617004428 -0.0084557432423800361 0 -0.015382917155427462 -0.0079144892376999242 0 -0.014706105540909202 -0.0093891178615925445 0 -0.014428455941847286 -0.0085476758362363781 0 -0.015556878635832602 -0.0086490770791212753 0 -0.014428455941847286 -0.0085476758362363781 0 -0.016078213747029061 -0.0072632828951904775 0 -0.015556878635832602 -0.0086490770791212753 0 -0.016410217604944436 -0.0065479424276791024 0 -0.016309387775763146 -0.0068086952122788195 0 -0.016067436125070344 -0.0067958378227219373 0 -0.016078213747029061 -0.0072632828951904775 0 -0.016184201712810625 -0.0071810464288918257 0 -0.015556878635832602 -0.0086490770791212753 0 -0.016196239505812358 -0.0072973081227825599 0 -0.015976754976749854 -0.0077389962269516334 0 -0.016184201712810625 -0.0071810464288918257 0 -0.016610270605988707 -0.0067681182345099324 0 -0.016309387775763146 -0.0068086952122788195 0 -0.016410217604944436 -0.0065479424276791024 0 -0.016610270605988707 -0.0067681182345099324 0 -0.016309387775763146 -0.0068086952122788195 0 -0.016067436125070344 -0.0067958378227219373 0 -0.015859369454744868 -0.0066103467041009013 0 -0.015961223102094753 -0.0065152316629157117 0 -0.016410217604944436 -0.0065479424276791024 0 -0.016067436125070344 -0.0067958378227219373 0 -0.015961223102094753 -0.0065152316629157117 0 -0.016184201712810625 -0.0071810464288918257 0 -0.016309387775763146 -0.0068086952122788195 0 -0.016067436125070344 -0.0067958378227219373 0 -0.015593133864072203 -0.0058824046315752027 0 -0.016045978024459253 -0.0059682135116264972 0 -0.015859369454744868 -0.0066103467041009013 0 -0.015575363911830672 -0.0061927161837931075 0 -0.015961223102094753 -0.0065152316629157117 0 -0.015859369454744868 -0.0066103467041009013 0 -0.016019371371312884 -0.0069508494383606744 0 -0.015480526185965399 -0.0065324830551646111 0 -0.016067436125070344 -0.0067958378227219373 0 -0.015859369454744868 -0.0066103467041009013 0 -0.016019371371312884 -0.0069508494383606744 0 -0.016078213747029061 -0.0072632828951904775 0 -0.016184201712810625 -0.0071810464288918257 0 -0.016019371371312884 -0.0069508494383606744 0 -0.01469111317524373 -0.008517349332652047 0 -0.014998072294802966 -0.0081848624024635861 0 -0.014795254134292378 -0.0083097742694655946 0 -0.016184201712810625 -0.0071810464288918257 0 -0.016067436125070344 -0.0067958378227219373 0 -0.016019371371312884 -0.0069508494383606744 0 -0.015382917155427462 -0.0079144892376999242 0 -0.01548030170565777 -0.007544889197854174 0 -0.014998072294802966 -0.0081848624024635861 0 -0.014795254134292378 -0.0083097742694655946 0 -0.014876439636195334 -0.0082051068918749803 0 -0.014795254134292378 -0.0083097742694655946 0 -0.014760334035988016 -0.0083558127146333306 0 -0.014876439636195334 -0.0082051068918749803 0 -0.014765565683840609 -0.0084185570527394761 0 -0.014795254134292378 -0.0083097742694655946 0 -0.014760334035988016 -0.0083558127146333306 0 -0.014998072294802966 -0.0081848624024635861 0 -0.01519854281313561 -0.0078621809711918456 0 -0.014876439636195334 -0.0082051068918749803 0 -0.01519854281313561 -0.0078621809711918456 0 -0.01498115350169562 -0.0081706616593739748 0 -0.014876439636195334 -0.0082051068918749803 0 -0.01498115350169562 -0.0081706616593739748 0 -0.014628593185330697 -0.0086324063301712779 0 -0.014876439636195334 -0.0082051068918749803 0 -0.014765565683840609 -0.0084185570527394761 0 -0.014628593185330697 -0.0086324063301712779 0 -0.01465787241390557 -0.008944600442024369 0 -0.014765565683840609 -0.0084185570527394761 0 -0.014628593185330697 -0.0086324063301712779 0 -0.014760334035988016 -0.0083558127146333306 0 -0.014628593185330697 -0.0086324063301712779 0 -0.014760334035988016 -0.0083558127146333306 0 -0.014876439636195334 -0.0082051068918749803 0 -0.014999955109984786 -0.0073120549477878518 0 -0.01522685964424075 -0.0075295952234275673 0 -0.015307717967930269 -0.0071229428182899499 0 -0.014999955109984786 -0.0073120549477878518 0 -0.01522685964424075 -0.0075295952234275673 0 -0.015276317058365383 -0.0077753577482008564 0 -0.01519854281313561 -0.0078621809711918456 0 -0.01522685964424075 -0.0075295952234275673 0 -0.015307717967930269 -0.0071229428182899499 0 -0.01519854281313561 -0.0078621809711918456 0 -0.01522685964424075 -0.0075295952234275673 0 -0.015276317058365383 -0.0077753577482008564 0 -0.014998072294802966 -0.0081848624024635861 0 -0.01519854281313561 -0.0078621809711918456 0 -0.015307717967930269 -0.0071229428182899499 0 -0.01548030170565777 -0.007544889197854174 0 -0.015282316158991303 -0.0072124626097048858 0 -0.014999955109984786 -0.0073120549477878518 0 -0.015307717967930269 -0.0071229428182899499 0 -0.014999746568345384 -0.0065328459939800734 0 -0.015307717967930269 -0.0071229428182899499 0 -0.014999746568345384 -0.0065328459939800734 0 -0.015480526185965399 -0.0065324830551646111 0 -0.014999746568345384 -0.0065328459939800734 0 -0.015480526185965399 -0.0065324830551646111 0 -0.015000075042658087 -0.0057532755746285066 0 -0.016019371371312884 -0.0069508494383606744 0 -0.015307717967930269 -0.0071229428182899499 0 -0.015480526185965399 -0.0065324830551646111 0 -0.015859369454744868 -0.0066103467041009013 0 -0.015480526185965399 -0.0065324830551646111 0 -0.015575363911830672 -0.0061927161837931075 0 -0.015480526185965399 -0.0065324830551646111 0 -0.015575363911830672 -0.0061927161837931075 0 -0.015000075042658087 -0.0057532755746285066 0 -0.015593133864072203 -0.0058824046315752027 0 -0.01500002866402834 -0.0057527847494684816 0 -0.015672213299706202 -0.00558152706366626 0 -0.014999972305864112 -0.0057525699449787991 0 -0.015000004532779571 -0.0050808184228598669 0 -0.015672213299706202 -0.00558152706366626 0 -0.015000004532779571 -0.0050808184228598669 0 -0.015613249279401923 -0.0048464843546529995 0 -0.015000004532779571 -0.0050808184228598669 0 -0.015613249279401923 -0.0048464843546529995 0 -0.014999988268799907 -0.0044089954062006588 0 -0.015672213299706202 -0.00558152706366626 0 -0.015613249279401923 -0.0048464843546529995 0 -0.016044507163849284 -0.0050925248955846335 0 -0.015672213299706202 -0.00558152706366626 0 -0.016044507163849284 -0.0050925248955846335 0 -0.016261083487829467 -0.005402689441774312 0 -0.016044507163849284 -0.0050925248955846335 0 -0.016261083487829467 -0.005402689441774312 0 -0.016375546746944407 -0.005006000866624438 0 -0.016768000161829937 -0.0052419026874358258 0 -0.016261083487829467 -0.005402689441774312 0 -0.016375546746944407 -0.005006000866624438 0 -0.016803664657516312 -0.0057090461692088082 0 -0.016045978024459253 -0.0059682135116264972 0 -0.016668999924270778 -0.0044361630744611819 0 -0.016726615811749182 -0.0049606018161334232 0 -0.016175326957864344 -0.004527765744996021 0 -0.016726615811749182 -0.0049606018161334232 0 -0.016375546746944407 -0.005006000866624438 0 -0.016247207970568354 -0.0046486641860355379 0 -0.016705452284816319 -0.0049405811984932976 0 -0.016216953907041989 -0.0045918207490814921 0 -0.016044507163849284 -0.0050925248955846335 0 -0.016375546746944407 -0.005006000866624438 0 -0.016247207970568354 -0.0046486641860355379 0 -0.015613249279401923 -0.0048464843546529995 0 -0.016044507163849284 -0.0050925248955846335 0 -0.016247207970568354 -0.0046486641860355379 0 -0.016216953907041989 -0.0045918207490814921 0 -0.015622757501118151 -0.0041630975311568634 0 -0.016175326957864344 -0.004527765744996021 0 -0.016067049984177087 -0.004041033176926152 0 -0.015599298103988813 -0.0041155040028724435 0 -0.016650622519618657 -0.003977891699269793 0 -0.016668999924270778 -0.0044361630744611819 0 -0.0163901056553989 -0.0041652456946807831 0 -0.016668999924270778 -0.0044361630744611819 0 -0.016175326957864344 -0.004527765744996021 0 -0.0163901056553989 -0.0041652456946807831 0 -0.016175326957864344 -0.004527765744996021 0 -0.0163901056553989 -0.0041652456946807831 0 -0.016067049984177087 -0.004041033176926152 0 -0.016321026011134613 -0.0037234503443237844 0 -0.016797559894210258 -0.0035940990322321821 0 -0.016650622519618657 -0.003977891699269793 0 -0.016321026011134613 -0.0037234503443237844 0 -0.0163901056553989 -0.0041652456946807831 0 -0.016067049984177087 -0.004041033176926152 0 -0.016321026011134613 -0.0037234503443237844 0 -0.016650622519618657 -0.003977891699269793 0 -0.0163901056553989 -0.0041652456946807831 0 -0.015860690696788148 -0.0037317468333658847 0 -0.016067049984177087 -0.004041033176926152 0 -0.015599298103988813 -0.0041155040028724435 0 -0.016321026011134613 -0.0037234503443237844 0 -0.015860690696788148 -0.0037317468333658847 0 -0.016067049984177087 -0.004041033176926152 0 -0.015472408123660079 -0.0034538892364584309 0 -0.015860690696788148 -0.0037317468333658847 0 -0.015599298103988813 -0.0041155040028724435 0 -0.015000107408540362 -0.0037372041084117206 0 -0.015622757501118151 -0.0041630975311568634 0 -0.014999960049471239 -0.0037369959744876793 0 -0.015472408123660079 -0.0034538892364584309 0 -0.015599298103988813 -0.0041155040028724435 0 -0.014999995619049623 -0.0037371654316271587 0 -0.015655508129832445 -0.0042125039150711354 0 -0.014999988268799907 -0.0044089954062006588 0 -0.015613249279401923 -0.0048464843546529995 0 -0.015655508129832445 -0.0042125039150711354 0 -0.014999988268799907 -0.0044089954062006588 0 -0.015613249279401923 -0.0048464843546529995 0 -0.016247207970568354 -0.0046486641860355379 0 -0.015655508129832445 -0.0042125039150711354 0 -0.014469388855020802 -0.010792498158161043 0 -0.014787467680232372 -0.010676525211169441 0 -0.014685981781976215 -0.010259765153379764 0 -0.014787467680232372 -0.010676525211169441 0 -0.014998665994880075 -0.010915768008329487 0 -0.014999700021077029 -0.01023510048993998 0 -0.014787467680232372 -0.010676525211169441 0 -0.014998665994880075 -0.010915768008329487 0 -0.014439996621036439 -0.01099421051693761 0 -0.014469388855020802 -0.010792498158161043 0 -0.014787467680232372 -0.010676525211169441 0 -0.014439996621036439 -0.01099421051693761 0 -0.014469388855020802 -0.010792498158161043 0 -0.014439996621036439 -0.01099421051693761 0 -0.01421227830393673 -0.011252444159108891 0 -0.01421227830393673 -0.011252444159108891 0 -0.014048999644608743 -0.011601590992949955 0 -0.013615739555727664 -0.011493203240738669 0 -0.01421227830393673 -0.011252444159108891 0 -0.014048999644608743 -0.011601590992949955 0 -0.014314383200919874 -0.010710028191265052 0 -0.014048999644608743 -0.011601590992949955 0 -0.014314383200919874 -0.010710028191265052 0 -0.014359962057460993 -0.010470234825141266 0 -0.014469388855020802 -0.010792498158161043 0 -0.01421227830393673 -0.011252444159108891 0 -0.014314383200919874 -0.010710028191265052 0 -0.014469388855020802 -0.010792498158161043 0 -0.014314383200919874 -0.010710028191265052 0 -0.014685981781976215 -0.010259765153379764 0 -0.014314383200919874 -0.010710028191265052 0 -0.014483717725263988 -0.010169349140541236 0 -0.014685981781976215 -0.010259765153379764 0 -0.014314383200919874 -0.010710028191265052 0 -0.014359962057460993 -0.010470234825141266 0 -0.014483717725263988 -0.010169349140541236 0 -0.014359962057460993 -0.010470234825141266 0 -0.014483717725263988 -0.010169349140541236 0 -0.014350614973701515 -0.010258549400105422 0 -0.014483717725263988 -0.010169349140541236 0 -0.014685981781976215 -0.010259765153379764 0 -0.014733704644420004 -0.0096929925528050024 0 -0.014685981781976215 -0.010259765153379764 0 -0.014999700021077029 -0.01023510048993998 0 -0.014999487319188771 -0.0095522158715075096 0 -0.014787467680232372 -0.010676525211169441 0 -0.014685981781976215 -0.010259765153379764 0 -0.014999700021077029 -0.01023510048993998 0 -0.014685981781976215 -0.010259765153379764 0 -0.014999487319188771 -0.0095522158715075096 0 -0.014733704644420004 -0.0096929925528050024 0 -0.014999487319188771 -0.0095522158715075096 0 -0.014733704644420004 -0.0096929925528050024 0 -0.014999771279066373 -0.0088733748319626583 0 -0.014733704644420004 -0.0096929925528050024 0 -0.01462154383268786 -0.0098830943973318257 0 -0.014417148934297207 -0.010113618730768636 0 -0.014733704644420004 -0.0096929925528050024 0 -0.014999771279066373 -0.0088733748319626583 0 -0.01462154383268786 -0.0098830943973318257 0 -0.014999984328519112 -0.0088702322561788598 0 -0.014999850065339659 -0.0080908075990266167 0 -0.015340267961754904 -0.0082190369603336866 0 -0.014999915639155722 -0.0088705907038855621 0 -0.014925865937151775 -0.0090488067957497937 0 -0.014999850065339659 -0.0080908075990266167 0 -0.015340267961754904 -0.0082190369603336866 0 -0.015276317058365383 -0.0077753577482008564 0 -0.015340267961754904 -0.0082190369603336866 0 -0.015276317058365383 -0.0077753577482008564 0 -0.015237227342446952 -0.0078473467875037808 0 -0.014925865937151775 -0.0090488067957497937 0 -0.014734860535202014 -0.0089009543864637664 0 -0.01519854281313561 -0.0078621809711918456 0 -0.015276317058365383 -0.0077753577482008564 0 -0.015237227342446952 -0.0078473467875037808 0 -0.014999955109984786 -0.0073120549477878518 0 -0.014999850065339659 -0.0080908075990266167 0 -0.015276317058365383 -0.0077753577482008564 0 -0.01465787241390557 -0.008944600442024369 0 -0.014183512901005115 -0.010001560491258917 0 -0.014431773436872285 -0.010138789493067743 0 -0.014697664408140642 -0.0086429724370865619 0 -0.014734860535202014 -0.0089009543864637664 0 -0.01465787241390557 -0.008944600442024369 0 -0.014431773436872285 -0.010138789493067743 0 -0.014537789143657331 -0.010410386420609383 0 -0.014628593185330697 -0.0086324063301712779 0 -0.01465787241390557 -0.008944600442024369 0 -0.014183512901005115 -0.010001560491258917 0 -0.01519854281313561 -0.0078621809711918456 0 -0.01498115350169562 -0.0081706616593739748 0 -0.015237227342446952 -0.0078473467875037808 0 -0.01498115350169562 -0.0081706616593739748 0 -0.014628593185330697 -0.0086324063301712779 0 -0.015237227342446952 -0.0078473467875037808 0 -0.014183512901005115 -0.010001560491258917 0 -0.014431773436872285 -0.010138789493067743 0 -0.014417148934297207 -0.010113618730768636 0 -0.01462154383268786 -0.0098830943973318257 0 -0.014183512901005115 -0.010001560491258917 0 -0.014417148934297207 -0.010113618730768636 0 -0.014431773436872285 -0.010138789493067743 0 -0.014417148934297207 -0.010113618730768636 0 -0.014457920098001309 -0.010398546778610459 0 -0.014417148934297207 -0.010113618730768636 0 -0.014422167707536664 -0.010292033023139174 0 -0.014457920098001309 -0.010398546778610459 0 -0.014483717725263988 -0.010169349140541236 0 -0.014733704644420004 -0.0096929925528050024 0 -0.014417148934297207 -0.010113618730768636 0 -0.014483717725263988 -0.010169349140541236 0 -0.014422167707536664 -0.010292033023139174 0 -0.014350614973701515 -0.010258549400105422 0 -0.014483717725263988 -0.010169349140541236 0 -0.014417148934297207 -0.010113618730768636 0 -0.014422167707536664 -0.010292033023139174 0 -0.014422167707536664 -0.010292033023139174 0 -0.014184039301565627 -0.010476713263891909 0 -0.014350614973701515 -0.010258549400105422 0 -0.014184039301565627 -0.010476713263891909 0 -0.014107371309603422 -0.010217321512581586 0 -0.014350614973701515 -0.010258549400105422 0 -0.014184039301565627 -0.010476713263891909 0 -0.013564647242407307 -0.010397347603992737 0 -0.014107371309603422 -0.010217321512581586 0 -0.014184039301565627 -0.010476713263891909 0 -0.014086625799259478 -0.010931320874995112 0 -0.013619488684267218 -0.010865624643234501 0 -0.014184039301565627 -0.010476713263891909 0 -0.014457920098001309 -0.010398546778610459 0 -0.014086625799259478 -0.010931320874995112 0 -0.014422167707536664 -0.010292033023139174 0 -0.014184039301565627 -0.010476713263891909 0 -0.014457920098001309 -0.010398546778610459 0 -0.014457920098001309 -0.010398546778610459 0 -0.014537789143657331 -0.010410386420609383 0 -0.014086625799259478 -0.010931320874995112 0 -0.014431773436872285 -0.010138789493067743 0 -0.014457920098001309 -0.010398546778610459 0 -0.014537789143657331 -0.010410386420609383 0 -0.014537789143657331 -0.010410386420609383 0 -0.014086625799259478 -0.010931320874995112 0 -0.014369043463663564 -0.010965451811801759 0 -0.01465787241390557 -0.008944600442024369 0 -0.014537789143657331 -0.010410386420609383 0 -0.014369043463663564 -0.010965451811801759 0 -0.014509284409053786 -0.0090209474657020478 0 -0.014392794523657142 -0.0095449189295226458 0 -0.013701034728970165 -0.0082008288737348053 0 -0.014065945504307259 -0.0081898673324383893 0 -0.014104183949991007 -0.0079094139380166094 0 -0.014397204983768843 -0.0083050962691374863 0 -0.014065945504307259 -0.0081898673324383893 0 -0.014104183949991007 -0.0079094139380166094 0 -0.014397204983768843 -0.0083050962691374863 0 -0.014644945708663211 -0.0082073584381452819 0 -0.014104183949991007 -0.0079094139380166094 0 -0.014392794523657142 -0.0095449189295226458 0 -0.013471920674806218 -0.010031080725362457 0 -0.014086625799259478 -0.010931320874995112 0 -0.014369043463663564 -0.010965451811801759 0 -0.012975516056189728 -0.012188822314594198 0 -0.014086625799259478 -0.010931320874995112 0 -0.012975516056189728 -0.012188822314594198 0 -0.013179027926523599 -0.011396075533794355 0 -0.013471920674806218 -0.010031080725362457 0 -0.012135591620374543 -0.010303291347966892 0 -0.012975516056189728 -0.012188822314594198 0 -0.012008660605044024 -0.011790143458741451 0 -0.01081879061128402 -0.012893191742673364 0 -0.012975516056189728 -0.012188822314594198 0 -0.013179027926523599 -0.011396075533794355 0 -0.012008660605044024 -0.011790143458741451 0 -0.013179027926523599 -0.011396075533794355 0 -0.012008660605044024 -0.011790143458741451 0 -0.012956783003834006 -0.0109469264583684 0 -0.012956783003834006 -0.0109469264583684 0 -0.01218407175210136 -0.011044827201500282 0 -0.012742133291108494 -0.010592642677042578 0 -0.012008660605044024 -0.011790143458741451 0 -0.012956783003834006 -0.0109469264583684 0 -0.01218407175210136 -0.011044827201500282 0 -0.012956783003834006 -0.0109469264583684 0 -0.013619488684267218 -0.010865624643234501 0 -0.013564647242407307 -0.010397347603992737 0 -0.014086625799259478 -0.010931320874995112 0 -0.013179027926523599 -0.011396075533794355 0 -0.013619488684267218 -0.010865624643234501 0 -0.013179027926523599 -0.011396075533794355 0 -0.012956783003834006 -0.0109469264583684 0 -0.013619488684267218 -0.010865624643234501 0 -0.014184039301565627 -0.010476713263891909 0 -0.013619488684267218 -0.010865624643234501 0 -0.013564647242407307 -0.010397347603992737 0 -0.013564647242407307 -0.010397347603992737 0 -0.012742133291108494 -0.010592642677042578 0 -0.012909759229750377 -0.0099935797149900713 0 -0.012318773217531522 -0.010508550603473643 0 -0.012742133291108494 -0.010592642677042578 0 -0.012909759229750377 -0.0099935797149900713 0 -0.01218407175210136 -0.011044827201500282 0 -0.012318773217531522 -0.010508550603473643 0 -0.012742133291108494 -0.010592642677042578 0 -0.012956783003834006 -0.0109469264583684 0 -0.013564647242407307 -0.010397347603992737 0 -0.012742133291108494 -0.010592642677042578 0 -0.010808980953399236 -0.014647046562730621 0 -0.011687999108836536 -0.014117984544285747 0 -0.010613798707299811 -0.013527490117898958 0 -0.010808980953399236 -0.014647046562730621 0 -0.010613798707299811 -0.013527490117898958 0 -0.010147895945109786 -0.014229390440208732 0 -0.013564647242407307 -0.010397347603992737 0 -0.012909759229750377 -0.0099935797149900713 0 -0.013912991757403988 -0.010019020246811134 0 -0.013564647242407307 -0.010397347603992737 0 -0.013912991757403988 -0.010019020246811134 0 -0.014107371309603422 -0.010217321512581586 0 -0.011849598375019942 -0.012375935603315916 0 -0.012771366047900488 -0.012084785818860836 0 -0.014107371309603422 -0.010217321512581586 0 -0.014350614973701515 -0.010258549400105422 0 -0.014479936406878079 -0.01048146326049069 0 -0.014359962057460993 -0.010470234825141266 0 -0.014350614973701515 -0.010258549400105422 0 -0.014479936406878079 -0.01048146326049069 0 -0.012771366047900488 -0.012084785818860836 0 -0.013560962236797825 -0.011877247423259562 0 -0.013912991757403988 -0.010019020246811134 0 -0.014107371309603422 -0.010217321512581586 0 -0.014479936406878079 -0.01048146326049069 0 -0.011687999108836536 -0.014117984544285747 0 -0.012775327167720433 -0.013254672480930992 0 -0.011734116253000111 -0.013082162574817792 0 -0.012775327167720433 -0.013254672480930992 0 -0.012591026731171615 -0.012002178816426163 0 -0.011734116253000111 -0.013082162574817792 0 -0.014048999644608743 -0.011601590992949955 0 -0.014359962057460993 -0.010470234825141266 0 -0.014479936406878079 -0.01048146326049069 0 -0.013962898217329276 -0.011662324985032248 0 -0.013560962236797825 -0.011877247423259562 0 -0.014048999644608743 -0.011601590992949955 0 -0.012775327167720433 -0.013254672480930992 0 -0.012591026731171615 -0.012002178816426163 0 -0.014048999644608743 -0.011601590992949955 0 -0.012591026731171615 -0.012002178816426163 0 -0.013615739555727664 -0.011493203240738669 0 -0.012591026731171615 -0.012002178816426163 0 -0.011236246929801443 -0.012526219253768752 0 -0.011734116253000111 -0.013082162574817792 0 -0.011236246929801443 -0.012526219253768752 0 -0.010353929448665046 -0.012772804799246147 0 -0.010613798707299811 -0.013527490117898958 0 -0.011687999108836536 -0.014117984544285747 0 -0.010613798707299811 -0.013527490117898958 0 -0.011734116253000111 -0.013082162574817792 0 -0.011236246929801443 -0.012526219253768752 0 -0.010613798707299811 -0.013527490117898958 0 -0.011734116253000111 -0.013082162574817792 0 -0.0098188100296419042 -0.013669217565121279 0 -0.0097341135958451102 -0.01314773034610189 0 -0.0090665370254621892 -0.013342692507313481 0 -0.010613798707299811 -0.013527490117898958 0 -0.0098188100296419042 -0.013669217565121279 0 -0.0097341135958451102 -0.01314773034610189 0 -0.010353929448665046 -0.012772804799246147 0 -0.010613798707299811 -0.013527490117898958 0 -0.0097341135958451102 -0.01314773034610189 0 -0.010353929448665046 -0.012772804799246147 0 -0.0097341135958451102 -0.01314773034610189 0 -0.0098002170435305316 -0.012639559700162272 0 -0.0097341135958451102 -0.01314773034610189 0 -0.0090665370254621892 -0.013342692507313481 0 -0.00920028480766669 -0.012902701141442294 0 -0.0087907892341338341 -0.013173231142537154 0 -0.0090665370254621892 -0.013342692507313481 0 -0.00920028480766669 -0.012902701141442294 0 -0.0087907892341338341 -0.013173231142537154 0 -0.0090665370254621892 -0.013342692507313481 0 -0.0086675624191543798 -0.01341017836848204 0 -0.0090665370254621892 -0.013342692507313481 0 -0.0090352750968131137 -0.013318844749323582 0 -0.0086675624191543798 -0.01341017836848204 0 -0.0091133371602830342 -0.013262987870415936 0 -0.0095216794735154403 -0.013912188773341756 0 -0.0090665370254621892 -0.013342692507313481 0 -0.0090352750968131137 -0.013318844749323582 0 -0.0095681410545856004 -0.013046928677731271 0 -0.0090352750968131137 -0.013318844749323582 0 -0.0092523926824599305 -0.013307635195133866 0 -0.0085615947197174753 -0.013503936921710554 0 -0.0092523926824599305 -0.013307635195133866 0 -0.0095681410545856004 -0.013046928677731271 0 -0.0099237122169635282 -0.012870472665131508 0 -0.0090352750968131137 -0.013318844749323582 0 -0.0092523926824599305 -0.013307635195133866 0 -0.0095681410545856004 -0.013046928677731271 0 -0.0095216794735154403 -0.013912188773341756 0 -0.01078231114791975 -0.012481202851782495 0 -0.0098188100296419042 -0.013669217565121279 0 -0.0090665370254621892 -0.013342692507313481 0 -0.0094929228016968157 -0.014191148306026391 0 -0.0098188100296419042 -0.013669217565121279 0 -0.0094929228016968157 -0.014191148306026391 0 -0.010147895945109786 -0.014229390440208732 0 -0.010613798707299811 -0.013527490117898958 0 -0.0098188100296419042 -0.013669217565121279 0 -0.010147895945109786 -0.014229390440208732 0 -0.0094929228016968157 -0.014191148306026391 0 -0.010147895945109786 -0.014229390440208732 0 -0.010055587723865677 -0.015111729806087855 0 -0.010808980953399236 -0.014647046562730621 0 -0.010147895945109786 -0.014229390440208732 0 -0.010055587723865677 -0.015111729806087855 0 -0.011849598375019942 -0.012375935603315916 0 -0.01078231114791975 -0.012481202851782495 0 -0.012318773217531522 -0.010508550603473643 0 -0.012909759229750377 -0.0099935797149900713 0 -0.011740257866678002 -0.010387706117140407 0 -0.01078231114791975 -0.012481202851782495 0 -0.010639974515551109 -0.012556029426206686 0 -0.01218407175210136 -0.011044827201500282 0 -0.012318773217531522 -0.010508550603473643 0 -0.011740257866678002 -0.010387706117140407 0 -0.0095681410545856004 -0.013046928677731271 0 -0.010333710785476178 -0.012593435845495169 0 -0.0099237122169635282 -0.012870472665131508 0 -0.0095681410545856004 -0.013046928677731271 0 -0.010307900432912076 -0.012607989980699398 0 -0.010333710785476178 -0.012593435845495169 0 -0.0096829935732549947 -0.012350240596887526 0 -0.01012026479306803 -0.012596506822444247 0 -0.011294691450959855 -0.01214059387856903 0 -0.010333710785476178 -0.012593435845495169 0 -0.0099237122169635282 -0.012870472665131508 0 -0.011294691450959855 -0.01214059387856903 0 -0.0098577725153165333 -0.012571686501109156 0 -0.01111421885695239 -0.012274746779961678 0 -0.0096829935732549947 -0.012350240596887526 0 -0.01012026479306803 -0.012596506822444247 0 -0.009599462524540997 -0.012651325567909205 0 -0.012008660605044024 -0.011790143458741451 0 -0.010366926510339878 -0.012533713467364541 0 -0.011294691450959855 -0.01214059387856903 0 -0.010366926510339878 -0.012533713467364541 0 -0.010333710785476178 -0.012593435845495169 0 -0.011294691450959855 -0.01214059387856903 0 -0.012008660605044024 -0.011790143458741451 0 -0.01218407175210136 -0.011044827201500282 0 -0.011740257866678002 -0.010387706117140407 0 -0.011963335823061416 -0.011594318497835683 0 -0.01078231114791975 -0.012481202851782495 0 -0.01012026479306803 -0.012596506822444247 0 -0.011294691450959855 -0.01214059387856903 0 -0.01081879061128402 -0.012893191742673364 0 -0.012008660605044024 -0.011790143458741451 0 -0.011294691450959855 -0.01214059387856903 0 -0.01081879061128402 -0.012893191742673364 0 -0.01012026479306803 -0.012596506822444247 0 -0.01081879061128402 -0.012893191742673364 0 -0.0093447082725375431 -0.013016757700932439 0 -0.013504904128527966 -0.0077838721047949339 0 -0.01309621314103545 -0.0080392365621519708 0 -0.012773470717460107 -0.0076326409750332317 0 -0.012135591620374543 -0.010303291347966892 0 -0.011065851920698045 -0.010307820553812458 0 -0.013317469707154736 -0.0083735062448627908 0 -0.01309621314103545 -0.0080392365621519708 0 -0.013433304768550676 -0.0080828950235226522 0 -0.013504904128527966 -0.0077838721047949339 0 -0.01309621314103545 -0.0080392365621519708 0 -0.013433304768550676 -0.0080828950235226522 0 -0.013701034728970165 -0.0082008288737348053 0 -0.014104183949991007 -0.0079094139380166094 0 -0.013504904128527966 -0.0077838721047949339 0 -0.013701034728970165 -0.0082008288737348053 0 -0.013504904128527966 -0.0077838721047949339 0 -0.013433304768550676 -0.0080828950235226522 0 -0.012657629796202281 -0.0084615569000827829 0 -0.01309621314103545 -0.0080392365621519708 0 -0.012315685716339337 -0.0082095170219597183 0 -0.01309621314103545 -0.0080392365621519708 0 -0.012315685716339337 -0.0082095170219597183 0 -0.012773470717460107 -0.0076326409750332317 0 -0.012315685716339337 -0.0082095170219597183 0 -0.012773470717460107 -0.0076326409750332317 0 -0.011910030353368259 -0.0073673463496365596 0 -0.0093447082725375431 -0.013016757700932439 0 -0.0090778877422068877 -0.012769672790810802 0 -0.0087360482280833835 -0.013026421245510117 0 -0.011065851920698045 -0.010307820553812458 0 -0.010275184864226712 -0.010224091566476561 0 -0.0090778877422068877 -0.012769672790810802 0 -0.0086664359118134599 -0.013015910710150359 0 -0.0087360482280833835 -0.013026421245510117 0 -0.0096829935732549947 -0.012350240596887526 0 -0.0090778877422068877 -0.012769672790810802 0 -0.009599462524540997 -0.012651325567909205 0 -0.0093447082725375431 -0.013016757700932439 0 -0.0090778877422068877 -0.012769672790810802 0 -0.009599462524540997 -0.012651325567909205 0 -0.01012026479306803 -0.012596506822444247 0 -0.0093447082725375431 -0.013016757700932439 0 -0.009599462524540997 -0.012651325567909205 0 -0.0090406058607698618 -0.01307654687423826 0 -0.0098577725153165333 -0.012571686501109156 0 -0.0088265828897482398 -0.012825956035416921 0 -0.0096829935732549947 -0.012350240596887526 0 -0.0090778877422068877 -0.012769672790810802 0 -0.0088265828897482398 -0.012825956035416921 0 -0.0090778877422068877 -0.012769672790810802 0 -0.0086664359118134599 -0.013015910710150359 0 -0.0086664359118134599 -0.013015910710150359 0 -0.0086425456831259288 -0.013062057723961478 0 -0.0085603017762989012 -0.013289219675346046 0 -0.010687774500221523 -0.0068812314847511479 0 -0.011910030353368259 -0.0073673463496365596 0 -0.011351769395424397 -0.0079383246684974502 0 -0.0098748131768814952 -0.0096552944147133852 0 -0.010275184864226712 -0.010224091566476561 0 -0.0086664359118134599 -0.013015910710150359 0 -0.0086425456831259288 -0.013062057723961478 0 -0.0087360482280833835 -0.013026421245510117 0 -0.012315685716339337 -0.0082095170219597183 0 -0.011910030353368259 -0.0073673463496365596 0 -0.011351769395424397 -0.0079383246684974502 0 -0.010687774500221523 -0.0068812314847511479 0 -0.011351769395424397 -0.0079383246684974502 0 -0.010325225133719855 -0.0083281811460392176 0 -0.011351769395424397 -0.0079383246684974502 0 -0.011688326183653733 -0.0086901110693257972 0 -0.010325225133719855 -0.0083281811460392176 0 -0.010532402942835339 -0.01016620247777502 0 -0.011688326183653733 -0.0086901110693257972 0 -0.010325225133719855 -0.0083281811460392176 0 -0.012315685716339337 -0.0082095170219597183 0 -0.011351769395424397 -0.0079383246684974502 0 -0.011688326183653733 -0.0086901110693257972 0 -0.0091607171782866446 -0.0092130650462390572 0 -0.010325225133719855 -0.0083281811460392176 0 -0.0093421226178538614 -0.007634801536306776 0 -0.010532402942835339 -0.01016620247777502 0 -0.0091607171782866446 -0.0092130650462390572 0 -0.010325225133719855 -0.0083281811460392176 0 -0.010687774500221523 -0.0068812314847511479 0 -0.010325225133719855 -0.0083281811460392176 0 -0.0093421226178538614 -0.007634801536306776 0 -0.0091607171782866446 -0.0092130650462390572 0 -0.0093421226178538614 -0.007634801536306776 0 -0.0079153392066384064 -0.0076976603044620609 0 -0.0093421226178538614 -0.007634801536306776 0 -0.009048349499594717 -0.0064115186295516553 0 -0.0079153392066384064 -0.0076976603044620609 0 -0.010687774500221523 -0.0068812314847511479 0 -0.0093421226178538614 -0.007634801536306776 0 -0.009048349499594717 -0.0064115186295516553 0 -0.0098748131768814952 -0.0096552944147133852 0 -0.0077262861641011699 -0.01235827859784497 0 -0.0086425456831259288 -0.013062057723961478 0 -0.0089357993767224756 -0.013141956121360165 0 -0.0087885805553720546 -0.013348641865733557 0 -0.0086425456831259288 -0.013062057723961478 0 -0.0087885805553720546 -0.013348641865733557 0 -0.0085603017762989012 -0.013289219675346046 0 -0.0070414752223322023 -0.015309398475527163 0 -0.0068734858021212812 -0.014553089344300722 0 -0.0075779579217522411 -0.014758252244079716 0 -0.0077262861641011699 -0.01235827859784497 0 -0.0080818524466480419 -0.014308641387254677 0 -0.0068734858021212812 -0.014553089344300722 0 -0.0074931255659136005 -0.014118084048244155 0 -0.0075779579217522411 -0.014758252244079716 0 -0.0069935890355588342 -0.013962721837987233 0 -0.0074931255659136005 -0.014118084048244155 0 -0.0077802939636031528 -0.013752137462637138 0 -0.0068734858021212812 -0.014553089344300722 0 -0.0069935890355588342 -0.013962721837987233 0 -0.0074931255659136005 -0.014118084048244155 0 -0.0074931255659136005 -0.014118084048244155 0 -0.0083122772078766741 -0.013818766754607069 0 -0.0077802939636031528 -0.013752137462637138 0 -0.0080818524466480419 -0.014308641387254677 0 -0.0083673139981106492 -0.013749946998657258 0 -0.0087885805553720546 -0.013348641865733557 0 -0.0085603017762989012 -0.013289219675346046 0 -0.0083122772078766741 -0.013818766754607069 0 -0.0074931255659136005 -0.014118084048244155 0 -0.0075779579217522411 -0.014758252244079716 0 -0.0083122772078766741 -0.013818766754607069 0 -0.0085603017762989012 -0.013289219675346046 0 -0.0085615947197174753 -0.013503936921710554 0 -0.0083122772078766741 -0.013818766754607069 0 -0.0086664359118134599 -0.013015910710150359 0 -0.0085603017762989012 -0.013289219675346046 0 -0.0085615947197174753 -0.013503936921710554 0 -0.0090406058607698618 -0.01307654687423826 0 -0.0086309919239788407 -0.013427621762192896 0 -0.0088265828897482398 -0.012825956035416921 0 -0.0086664359118134599 -0.013015910710150359 0 -0.0085615947197174753 -0.013503936921710554 0 -0.0090352750968131137 -0.013318844749323582 0 -0.0085615947197174753 -0.013503936921710554 0 -0.0086675624191543798 -0.01341017836848204 0 -0.0085615947197174753 -0.013503936921710554 0 -0.0083696457946602805 -0.013592049288921236 0 -0.0086675624191543798 -0.01341017836848204 0 -0.0085615947197174753 -0.013503936921710554 0 -0.0083122772078766741 -0.013818766754607069 0 -0.0083696457946602805 -0.013592049288921236 0 -0.0083122772078766741 -0.013818766754607069 0 -0.0083696457946602805 -0.013592049288921236 0 -0.0077802939636031528 -0.013752137462637138 0 -0.0083696457946602805 -0.013592049288921236 0 -0.0081502735707850386 -0.013472217037511485 0 -0.0077802939636031528 -0.013752137462637138 0 -0.0083696457946602805 -0.013592049288921236 0 -0.0086675624191543798 -0.01341017836848204 0 -0.0081502735707850386 -0.013472217037511485 0 -0.0087907892341338341 -0.013173231142537154 0 -0.0086675624191543798 -0.01341017836848204 0 -0.0084780697273165052 -0.013313103519762682 0 -0.0086675624191543798 -0.01341017836848204 0 -0.0084780697273165052 -0.013313103519762682 0 -0.0081502735707850386 -0.013472217037511485 0 -0.0084780697273165052 -0.013313103519762682 0 -0.0081502735707850386 -0.013472217037511485 0 -0.0082446261449617558 -0.013439591617602532 0 -0.0081502735707850386 -0.013472217037511485 0 -0.0080861311914320125 -0.013592172501129183 0 -0.0082446261449617558 -0.013439591617602532 0 -0.0081502735707850386 -0.013472217037511485 0 -0.0072253013733184152 -0.013689296783357901 0 -0.0072074237656223998 -0.013551641338629154 0 -0.0080995157542529186 -0.013546613502724736 0 -0.0076490975790657863 -0.013597848365471572 0 -0.0072253013733184152 -0.013689296783357901 0 -0.0068364814152625051 -0.013770957551002813 0 -0.0067604211109412275 -0.013873057946952091 0 -0.0072253013733184152 -0.013689296783357901 0 -0.0067604211109412275 -0.013873057946952091 0 -0.0065183220069422237 -0.013812474032740083 0 -0.0072253013733184152 -0.013689296783357901 0 -0.0068364814152625051 -0.013770957551002813 0 -0.0072074237656223998 -0.013551641338629154 0 -0.0069935890355588342 -0.013962721837987233 0 -0.0072253013733184152 -0.013689296783357901 0 -0.0065183220069422237 -0.013812474032740083 0 -0.0069935890355588342 -0.013962721837987233 0 -0.0072253013733184152 -0.013689296783357901 0 -0.0077802939636031528 -0.013752137462637138 0 -0.0081502735707850386 -0.013472217037511485 0 -0.0072253013733184152 -0.013689296783357901 0 -0.0077802939636031528 -0.013752137462637138 0 -0.0078781651575173719 -0.013612121377025799 0 -0.0082034031683891288 -0.013473068627660616 0 -0.0082380067082728648 -0.01350535549608514 0 -0.0078781651575173719 -0.013612121377025799 0 -0.0082380067082728648 -0.01350535549608514 0 -0.0082544404463007117 -0.013548688610586491 0 -0.0078781651575173719 -0.013612121377025799 0 -0.0082156178238607745 -0.013481860449305424 0 -0.0082034031683891288 -0.013473068627660616 0 -0.0078781651575173719 -0.013612121377025799 0 -0.0073911966977203321 -0.013860675871539265 0 -0.006959722618917254 -0.014146833785467879 0 -0.0066166259612333161 -0.013869921131883164 0 -0.0068364814152625051 -0.013770957551002813 0 -0.0065343481284181985 -0.013980098984020164 0 -0.0078781651575173719 -0.013612121377025799 0 -0.0073911966977203321 -0.013860675871539265 0 -0.0080861311914320125 -0.013592172501129183 0 -0.0069968122962895674 -0.013856128681530761 0 -0.0076490975790657863 -0.013597848365471572 0 -0.0066166259612333161 -0.013869921131883164 0 -0.0068364814152625051 -0.013770957551002813 0 -0.0072074237656223998 -0.013551641338629154 0 -0.0082156178238607745 -0.013481860449305424 0 -0.0080861311914320125 -0.013592172501129183 0 -0.0082446261449617558 -0.013439591617602532 0 -0.0078781651575173719 -0.013612121377025799 0 -0.0082156178238607745 -0.013481860449305424 0 -0.0080861311914320125 -0.013592172501129183 0 -0.0084780697273165052 -0.013313103519762682 0 -0.0082446261449617558 -0.013439591617602532 0 -0.0084041024076918526 -0.013325808644030298 0 -0.0082156178238607745 -0.013481860449305424 0 -0.0082446261449617558 -0.013439591617602532 0 -0.0084041024076918526 -0.013325808644030298 0 -0.0084780697273165052 -0.013313103519762682 0 -0.0086246726418273377 -0.013152747427071156 0 -0.0084041024076918526 -0.013325808644030298 0 -0.0087907892341338341 -0.013173231142537154 0 -0.0084780697273165052 -0.013313103519762682 0 -0.0086246726418273377 -0.013152747427071156 0 -0.0086246726418273377 -0.013152747427071156 0 -0.0085400974373626148 -0.013221751895542339 0 -0.0084041024076918526 -0.013325808644030298 0 -0.0085400974373626148 -0.013221751895542339 0 -0.0084041024076918526 -0.013325808644030298 0 -0.0083616013614875775 -0.013382065988226662 0 -0.0082156178238607745 -0.013481860449305424 0 -0.0084041024076918526 -0.013325808644030298 0 -0.0083616013614875775 -0.013382065988226662 0 -0.0082156178238607745 -0.013481860449305424 0 -0.0082034031683891288 -0.013473068627660616 0 -0.0083616013614875775 -0.013382065988226662 0 -0.0083616013614875775 -0.013382065988226662 0 -0.0083729568769515868 -0.013469274578169996 0 -0.008300282999089437 -0.013480747350890615 0 -0.0082034031683891288 -0.013473068627660616 0 -0.0083616013614875775 -0.013382065988226662 0 -0.008300282999089437 -0.013480747350890615 0 -0.0083616013614875775 -0.013382065988226662 0 -0.0083729568769515868 -0.013469274578169996 0 -0.0084801716422894385 -0.01337270742036206 0 -0.0083729568769515868 -0.013469274578169996 0 -0.0083444598392831779 -0.013569066688989046 0 -0.008300282999089437 -0.013480747350890615 0 -0.0085400974373626148 -0.013221751895542339 0 -0.0083616013614875775 -0.013382065988226662 0 -0.0084801716422894385 -0.01337270742036206 0 -0.0085400974373626148 -0.013221751895542339 0 -0.0084801716422894385 -0.01337270742036206 0 -0.0086080928669267399 -0.013241356342907915 0 -0.0086080928669267399 -0.013241356342907915 0 -0.0085274125500910611 -0.013474453728019052 0 -0.0086235915961778171 -0.013404068783086814 0 -0.0084801716422894385 -0.01337270742036206 0 -0.0086080928669267399 -0.013241356342907915 0 -0.0085274125500910611 -0.013474453728019052 0 -0.0085274125500910611 -0.013474453728019052 0 -0.0084027974075310333 -0.013610321797674815 0 -0.0084672301517644405 -0.013711779257467199 0 -0.0084801716422894385 -0.01337270742036206 0 -0.0085274125500910611 -0.013474453728019052 0 -0.0084027974075310333 -0.013610321797674815 0 -0.0083729568769515868 -0.013469274578169996 0 -0.0084027974075310333 -0.013610321797674815 0 -0.0083444598392831779 -0.013569066688989046 0 -0.0083729568769515868 -0.013469274578169996 0 -0.0084801716422894385 -0.01337270742036206 0 -0.0084027974075310333 -0.013610321797674815 0 -0.0084027974075310333 -0.013610321797674815 0 -0.0083659549370001703 -0.013835456145857629 0 -0.0084094639880278009 -0.013826663383355437 0 -0.0084027974075310333 -0.013610321797674815 0 -0.0084672301517644405 -0.013711779257467199 0 -0.0084094639880278009 -0.013826663383355437 0 -0.0084027974075310333 -0.013610321797674815 0 -0.0083659549370001703 -0.013835456145857629 0 -0.0083453650806181411 -0.013704427218092669 0 -0.0083659549370001703 -0.013835456145857629 0 -0.0083532548465667066 -0.013869476887348789 0 -0.0083453650806181411 -0.013704427218092669 0 -0.0083532548465667066 -0.013869476887348789 0 -0.0083423899855068328 -0.013715058569347899 0 -0.0083453650806181411 -0.013704427218092669 0 -0.0083532548465667066 -0.013869476887348789 0 -0.0083423899855068328 -0.013715058569347899 0 -0.0083771820151911161 -0.013805305609480593 0 -0.0083423899855068328 -0.013715058569347899 0 -0.0083453650806181411 -0.013704427218092669 0 -0.008314370050919893 -0.013589607504431332 0 -0.0083423899855068328 -0.013715058569347899 0 -0.008314370050919893 -0.013589607504431332 0 -0.0083386730047897584 -0.01363482427468359 0 -0.0083444598392831779 -0.013569066688989046 0 -0.0083453650806181411 -0.013704427218092669 0 -0.008314370050919893 -0.013589607504431332 0 -0.0084027974075310333 -0.013610321797674815 0 -0.0083444598392831779 -0.013569066688989046 0 -0.0083453650806181411 -0.013704427218092669 0 -0.008314370050919893 -0.013589607504431332 0 -0.0082380067082728648 -0.01350535549608514 0 -0.008300282999089437 -0.013480747350890615 0 -0.0083444598392831779 -0.013569066688989046 0 -0.008314370050919893 -0.013589607504431332 0 -0.008300282999089437 -0.013480747350890615 0 -0.008314370050919893 -0.013589607504431332 0 -0.0082964033078638758 -0.013566681796708167 0 -0.0082380067082728648 -0.01350535549608514 0 -0.008314370050919893 -0.013589607504431332 0 -0.0082964033078638758 -0.013566681796708167 0 -0.0083386730047897584 -0.01363482427468359 0 -0.0082964033078638758 -0.013566681796708167 0 -0.0082380067082728648 -0.01350535549608514 0 -0.0082544404463007117 -0.013548688610586491 0 -0.0082034031683891288 -0.013473068627660616 0 -0.0082380067082728648 -0.01350535549608514 0 -0.008300282999089437 -0.013480747350890615 0 -0.0078686590172360391 -0.013714425504663157 0 -0.0076976229316897673 -0.013926679717183222 0 -0.0078781651575173719 -0.013612121377025799 0 -0.0068907948310426717 -0.014204742879879729 0 -0.006959722618917254 -0.014146833785467879 0 -0.0078781651575173719 -0.013612121377025799 0 -0.0082544404463007117 -0.013548688610586491 0 -0.0084565413153785182 -0.013556777362442389 0 -0.0073911966977203321 -0.013860675871539265 0 -0.006959722618917254 -0.014146833785467879 0 -0.0068049590222775428 -0.01425646559556582 0 -0.0082544404463007117 -0.013548688610586491 0 -0.0083422493500785264 -0.013582419923048058 0 -0.0084565413153785182 -0.013556777362442389 0 -0.0082964033078638758 -0.013566681796708167 0 -0.0082544404463007117 -0.013548688610586491 0 -0.0083422493500785264 -0.013582419923048058 0 -0.0082964033078638758 -0.013566681796708167 0 -0.0083422493500785264 -0.013582419923048058 0 -0.0083386730047897584 -0.01363482427468359 0 -0.0083422493500785264 -0.013582419923048058 0 -0.0083386730047897584 -0.01363482427468359 0 -0.0083792302242088456 -0.013635534341677693 0 -0.0083422493500785264 -0.013582419923048058 0 -0.0084565413153785182 -0.013556777362442389 0 -0.0083792302242088456 -0.013635534341677693 0 -0.0076976229316897673 -0.013926679717183222 0 -0.0075692866840728866 -0.014475988268724675 0 -0.0084565413153785182 -0.013556777362442389 0 -0.0084171836623487158 -0.013714398819801873 0 -0.0084532859674597977 -0.013879910219635182 0 -0.0068706383210364354 -0.014205191071862236 0 -0.0065239784547194129 -0.014623427845594665 0 -0.006959722618917254 -0.014146833785467879 0 -0.0066092012576705909 -0.014353306205164212 0 -0.0062698935350781037 -0.014555227793589157 0 -0.006959722618917254 -0.014146833785467879 0 -0.0066092012576705909 -0.014353306205164212 0 -0.0068049590222775428 -0.01425646559556582 0 -0.0068907948310426717 -0.014204742879879729 0 -0.006959722618917254 -0.014146833785467879 0 -0.0066713295126156853 -0.014686850860286793 0 -0.0084565413153785182 -0.013556777362442389 0 -0.0084532859674597977 -0.013879910219635182 0 -0.0085149451669299797 -0.014255536002046461 0 -0.0084171836623487158 -0.013714398819801873 0 -0.0084098694078124023 -0.013784709822959266 0 -0.0084532859674597977 -0.013879910219635182 0 -0.0083386730047897584 -0.01363482427468359 0 -0.0083792302242088456 -0.013635534341677693 0 -0.0083622008930066948 -0.013712394901674103 0 -0.0083423899855068328 -0.013715058569347899 0 -0.0083386730047897584 -0.01363482427468359 0 -0.0083622008930066948 -0.013712394901674103 0 -0.0083792302242088456 -0.013635534341677693 0 -0.0083903172661599495 -0.013716459822247833 0 -0.0083622008930066948 -0.013712394901674103 0 -0.0084565413153785182 -0.013556777362442389 0 -0.0083792302242088456 -0.013635534341677693 0 -0.0084171836623487158 -0.013714398819801873 0 -0.0083792302242088456 -0.013635534341677693 0 -0.0084171836623487158 -0.013714398819801873 0 -0.0083903172661599495 -0.013716459822247833 0 -0.0084098694078124023 -0.013784709822959266 0 -0.0083903172661599495 -0.013716459822247833 0 -0.0083771820151911161 -0.013805305609480593 0 -0.0084171836623487158 -0.013714398819801873 0 -0.0084098694078124023 -0.013784709822959266 0 -0.0083903172661599495 -0.013716459822247833 0 -0.0083423899855068328 -0.013715058569347899 0 -0.0083622008930066948 -0.013712394901674103 0 -0.0083771820151911161 -0.013805305609480593 0 -0.0083903172661599495 -0.013716459822247833 0 -0.0083622008930066948 -0.013712394901674103 0 -0.0083771820151911161 -0.013805305609480593 0 -0.0084098694078124023 -0.013784709822959266 0 -0.0083771820151911161 -0.013805305609480593 0 -0.0084095967857071019 -0.013877937190071819 0 -0.0083771820151911161 -0.013805305609480593 0 -0.0084095967857071019 -0.013877937190071819 0 -0.0083855574355783564 -0.013937147776976152 0 -0.0084095967857071019 -0.013877937190071819 0 -0.0083855574355783564 -0.013937147776976152 0 -0.0084134841644226185 -0.013962007547331842 0 -0.0083532548465667066 -0.013869476887348789 0 -0.0083771820151911161 -0.013805305609480593 0 -0.0083855574355783564 -0.013937147776976152 0 -0.0083532548465667066 -0.013869476887348789 0 -0.0083855574355783564 -0.013937147776976152 0 -0.0083630605119798685 -0.01403085855264893 0 -0.0084098694078124023 -0.013784709822959266 0 -0.0084095967857071019 -0.013877937190071819 0 -0.0084532859674597977 -0.013879910219635182 0 -0.0084532859674597977 -0.013879910219635182 0 -0.0084134841644226185 -0.013962007547331842 0 -0.0084245867899258621 -0.014024414658226445 0 -0.0084095967857071019 -0.013877937190071819 0 -0.0084532859674597977 -0.013879910219635182 0 -0.0084134841644226185 -0.013962007547331842 0 -0.0084456965562730302 -0.014082607385405231 0 -0.0084151852465724399 -0.014144475604891661 0 -0.0084245867899258621 -0.014024414658226445 0 -0.0084532859674597977 -0.013879910219635182 0 -0.0084456965562730302 -0.014082607385405231 0 -0.0085149451669299797 -0.014255536002046461 0 -0.0084532859674597977 -0.013879910219635182 0 -0.0084456965562730302 -0.014082607385405231 0 -0.0084245867899258621 -0.014024414658226445 0 -0.0084456965562730302 -0.014082607385405231 0 -0.008446806470143715 -0.014211836031982179 0 -0.0084751314260171559 -0.014225365664908398 0 -0.0084456965562730302 -0.014082607385405231 0 -0.0084433184654103977 -0.014122914435994283 0 -0.008446806470143715 -0.014211836031982179 0 -0.0084456965562730302 -0.014082607385405231 0 -0.0084433184654103977 -0.014122914435994283 0 -0.0084151852465724399 -0.014144475604891661 0 -0.0084433184654103977 -0.014122914435994283 0 -0.0084151852465724399 -0.014144475604891661 0 -0.008446806470143715 -0.014211836031982179 0 -0.0084151852465724399 -0.014144475604891661 0 -0.0083952603891074961 -0.014053564421368521 0 -0.0083653486254397242 -0.014175067517966586 0 -0.0084151852465724399 -0.014144475604891661 0 -0.0083952603891074961 -0.014053564421368521 0 -0.0084245867899258621 -0.014024414658226445 0 -0.0084134841644226185 -0.013962007547331842 0 -0.0083952603891074961 -0.014053564421368521 0 -0.0084245867899258621 -0.014024414658226445 0 -0.0083855574355783564 -0.013937147776976152 0 -0.0084134841644226185 -0.013962007547331842 0 -0.0083952603891074961 -0.014053564421368521 0 -0.0083855574355783564 -0.013937147776976152 0 -0.0083952603891074961 -0.014053564421368521 0 -0.0083630605119798685 -0.01403085855264893 0 -0.0083630605119798685 -0.01403085855264893 0 -0.0083442721458602022 -0.014146984594186313 0 -0.0083528272829315794 -0.01399976560988579 0 -0.0083630605119798685 -0.01403085855264893 0 -0.0083653486254397242 -0.014175067517966586 0 -0.0083442721458602022 -0.014146984594186313 0 -0.0083952603891074961 -0.014053564421368521 0 -0.0083630605119798685 -0.01403085855264893 0 -0.0083653486254397242 -0.014175067517966586 0 -0.0083653486254397242 -0.014175067517966586 0 -0.0083442721458602022 -0.014146984594186313 0 -0.008315654306799215 -0.014307354811840086 0 -0.0083442721458602022 -0.014146984594186313 0 -0.008315654306799215 -0.014307354811840086 0 -0.0083392028576276204 -0.014213475816427934 0 -0.0083653486254397242 -0.014175067517966586 0 -0.008315654306799215 -0.014307354811840086 0 -0.0083225276543601508 -0.014359764651587137 0 -0.0083225276543601508 -0.014359764651587137 0 -0.0083867351858474635 -0.014331563796036107 0 -0.0083938850504755459 -0.014247788258626255 0 -0.0083225276543601508 -0.014359764651587137 0 -0.0083867351858474635 -0.014331563796036107 0 -0.0083209535480434308 -0.014422605943931844 0 -0.0084151852465724399 -0.014144475604891661 0 -0.0083938850504755459 -0.014247788258626255 0 -0.008446806470143715 -0.014211836031982179 0 -0.0083867351858474635 -0.014331563796036107 0 -0.0083938850504755459 -0.014247788258626255 0 -0.0084424655990303563 -0.014272193492846974 0 -0.0083938850504755459 -0.014247788258626255 0 -0.008446806470143715 -0.014211836031982179 0 -0.0084424655990303563 -0.014272193492846974 0 -0.0083653486254397242 -0.014175067517966586 0 -0.0083225276543601508 -0.014359764651587137 0 -0.0083938850504755459 -0.014247788258626255 0 -0.0084151852465724399 -0.014144475604891661 0 -0.0083653486254397242 -0.014175067517966586 0 -0.0083938850504755459 -0.014247788258626255 0 -0.0083659549370001703 -0.013835456145857629 0 -0.0083528272829315794 -0.01399976560988579 0 -0.0083788789883375864 -0.014016128800418803 0 -0.0083659549370001703 -0.013835456145857629 0 -0.0083788789883375864 -0.014016128800418803 0 -0.0084094639880278009 -0.013826663383355437 0 -0.0083659549370001703 -0.013835456145857629 0 -0.0083532548465667066 -0.013869476887348789 0 -0.0083528272829315794 -0.01399976560988579 0 -0.0083532548465667066 -0.013869476887348789 0 -0.0083630605119798685 -0.01403085855264893 0 -0.0083528272829315794 -0.01399976560988579 0 -0.0083442721458602022 -0.014146984594186313 0 -0.0083528272829315794 -0.01399976560988579 0 -0.0083392028576276204 -0.014213475816427934 0 -0.0083528272829315794 -0.01399976560988579 0 -0.0083392028576276204 -0.014213475816427934 0 -0.0083788789883375864 -0.014016128800418803 0 -0.0083392028576276204 -0.014213475816427934 0 -0.0083788789883375864 -0.014016128800418803 0 -0.0083847658781384827 -0.014232237458257423 0 -0.008315654306799215 -0.014307354811840086 0 -0.0083392028576276204 -0.014213475816427934 0 -0.0083040905350272413 -0.014412400520772303 0 -0.0083392028576276204 -0.014213475816427934 0 -0.0083847658781384827 -0.014232237458257423 0 -0.0083040905350272413 -0.014412400520772303 0 -0.0083040905350272413 -0.014412400520772303 0 -0.0083746285841961084 -0.014492650234013306 0 -0.0082161218102707236 -0.014633190094248613 0 -0.0083847658781384827 -0.014232237458257423 0 -0.0083040905350272413 -0.014412400520772303 0 -0.0083746285841961084 -0.014492650234013306 0 -0.0083847658781384827 -0.014232237458257423 0 -0.0083746285841961084 -0.014492650234013306 0 -0.0084817448362991994 -0.014275253800776138 0 -0.0082517504014424838 -0.014503947837726513 0 -0.008169654887597284 -0.014623760419846274 0 -0.0082471557009557977 -0.014529013583075144 0 -0.0082517504014424838 -0.014503947837726513 0 -0.0083209535480434308 -0.014422605943931844 0 -0.0082471557009557977 -0.014529013583075144 0 -0.0083225276543601508 -0.014359764651587137 0 -0.0082517504014424838 -0.014503947837726513 0 -0.0083209535480434308 -0.014422605943931844 0 -0.0083225276543601508 -0.014359764651587137 0 -0.0082517504014424838 -0.014503947837726513 0 -0.0082583239371219769 -0.014480842510461335 0 -0.008315654306799215 -0.014307354811840086 0 -0.0083040905350272413 -0.014412400520772303 0 -0.0082583239371219769 -0.014480842510461335 0 -0.008315654306799215 -0.014307354811840086 0 -0.0083225276543601508 -0.014359764651587137 0 -0.0082583239371219769 -0.014480842510461335 0 -0.0083040905350272413 -0.014412400520772303 0 -0.0082583239371219769 -0.014480842510461335 0 -0.0082161218102707236 -0.014633190094248613 0 -0.0082583239371219769 -0.014480842510461335 0 -0.0081690794812136099 -0.014630109816770227 0 -0.0082161218102707236 -0.014633190094248613 0 -0.0082517504014424838 -0.014503947837726513 0 -0.0082583239371219769 -0.014480842510461335 0 -0.0081690794812136099 -0.014630109816770227 0 -0.0082517504014424838 -0.014503947837726513 0 -0.0081690794812136099 -0.014630109816770227 0 -0.008169654887597284 -0.014623760419846274 0 -0.0081690794812136099 -0.014630109816770227 0 -0.0080923627808772627 -0.014719444608248729 0 -0.008169654887597284 -0.014623760419846274 0 -0.0080777398282460555 -0.014756715974175928 0 -0.0079090844630154734 -0.014886852256593731 0 -0.0079854451201604604 -0.014815495140950388 0 -0.0080923627808772627 -0.014719444608248729 0 -0.0080777398282460555 -0.014756715974175928 0 -0.0079854451201604604 -0.014815495140950388 0 -0.0081690794812136099 -0.014630109816770227 0 -0.0080923627808772627 -0.014719444608248729 0 -0.0080777398282460555 -0.014756715974175928 0 -0.0080777398282460555 -0.014756715974175928 0 -0.0079090844630154734 -0.014886852256593731 0 -0.0080558582950343537 -0.014877279136403883 0 -0.0080777398282460555 -0.014756715974175928 0 -0.0080558582950343537 -0.014877279136403883 0 -0.0082161218102707236 -0.014633190094248613 0 -0.0081690794812136099 -0.014630109816770227 0 -0.0080777398282460555 -0.014756715974175928 0 -0.0082161218102707236 -0.014633190094248613 0 -0.0083746285841961084 -0.014492650234013306 0 -0.0082161218102707236 -0.014633190094248613 0 -0.0083031482324587725 -0.014768539856276916 0 -0.0083746285841961084 -0.014492650234013306 0 -0.0083031482324587725 -0.014768539856276916 0 -0.0085728183716232524 -0.014615715995743199 0 -0.0080558582950343537 -0.014877279136403883 0 -0.0082161218102707236 -0.014633190094248613 0 -0.0083031482324587725 -0.014768539856276916 0 -0.0083031482324587725 -0.014768539856276916 0 -0.0082775660698204672 -0.014999659900544219 0 -0.0085728183716232524 -0.014615715995743199 0 -0.0080558582950343537 -0.014877279136403883 0 -0.0083031482324587725 -0.014768539856276916 0 -0.0082775660698204672 -0.014999659900544219 0 -0.0080558582950343537 -0.014877279136403883 0 -0.0082775660698204672 -0.014999659900544219 0 -0.007526325358241122 -0.014999535509398228 0 -0.0079090844630154734 -0.014886852256593731 0 -0.0080558582950343537 -0.014877279136403883 0 -0.007526325358241122 -0.014999535509398228 0 -0.0090260194202627098 -0.014999130902348482 0 -0.0086806938268492104 -0.014472868244156905 0 -0.008451549069985128 -0.014311094670069965 0 -0.0090280109369685127 -0.015000007575242218 0 -0.009078768505274162 -0.01480461138727614 0 -0.0090260194202627098 -0.014999130902348482 0 -0.0085728183716232524 -0.014615715995743199 0 -0.0086806938268492104 -0.014472868244156905 0 -0.0082775660698204672 -0.014999659900544219 0 -0.0090260194202627098 -0.014999130902348482 0 -0.0085728183716232524 -0.014615715995743199 0 -0.0083746285841961084 -0.014492650234013306 0 -0.0085728183716232524 -0.014615715995743199 0 -0.0084817448362991994 -0.014275253800776138 0 -0.0085728183716232524 -0.014615715995743199 0 -0.0085858997680298872 -0.014075737586891913 0 -0.0084817448362991994 -0.014275253800776138 0 -0.0085728183716232524 -0.014615715995743199 0 -0.0086806938268492104 -0.014472868244156905 0 -0.0085858997680298872 -0.014075737586891913 0 -0.0086806938268492104 -0.014472868244156905 0 -0.0085858997680298872 -0.014075737586891913 0 -0.008451549069985128 -0.014311094670069965 0 -0.0085858997680298872 -0.014075737586891913 0 -0.0085484320807422843 -0.013703740968604534 0 -0.0085827694237367597 -0.013716304467411967 0 -0.0085858997680298872 -0.014075737586891913 0 -0.0084607398699165053 -0.013967555954569591 0 -0.0085484320807422843 -0.013703740968604534 0 -0.0085858997680298872 -0.014075737586891913 0 -0.0084817448362991994 -0.014275253800776138 0 -0.0084607398699165053 -0.013967555954569591 0 -0.0083847658781384827 -0.014232237458257423 0 -0.0084817448362991994 -0.014275253800776138 0 -0.0084607398699165053 -0.013967555954569591 0 -0.0083788789883375864 -0.014016128800418803 0 -0.0083847658781384827 -0.014232237458257423 0 -0.0084607398699165053 -0.013967555954569591 0 -0.0083788789883375864 -0.014016128800418803 0 -0.0084607398699165053 -0.013967555954569591 0 -0.0084094639880278009 -0.013826663383355437 0 -0.0084607398699165053 -0.013967555954569591 0 -0.0084672301517644405 -0.013711779257467199 0 -0.0085484320807422843 -0.013703740968604534 0 -0.0084607398699165053 -0.013967555954569591 0 -0.0084672301517644405 -0.013711779257467199 0 -0.0084094639880278009 -0.013826663383355437 0 -0.0085274125500910611 -0.013474453728019052 0 -0.0084672301517644405 -0.013711779257467199 0 -0.0085484320807422843 -0.013703740968604534 0 -0.0085274125500910611 -0.013474453728019052 0 -0.0085484320807422843 -0.013703740968604534 0 -0.0086235915961778171 -0.013404068783086814 0 -0.0085484320807422843 -0.013703740968604534 0 -0.0085827694237367597 -0.013716304467411967 0 -0.0086235915961778171 -0.013404068783086814 0 -0.0086933434054596911 -0.013312998663661127 0 -0.0085827694237367597 -0.013716304467411967 0 -0.0086235915961778171 -0.013404068783086814 0 -0.0086933434054596911 -0.013312998663661127 0 -0.0085233345486582391 -0.013703097680831843 0 -0.0086917490483593342 -0.013260498045120006 0 -0.0086933434054596911 -0.013312998663661127 0 -0.0086917490483593342 -0.013260498045120006 0 -0.0088042490092547932 -0.013049712001548365 0 -0.0086933434054596911 -0.013312998663661127 0 -0.0085233345486582391 -0.013703097680831843 0 -0.0085827694237367597 -0.013716304467411967 0 -0.0085233345486582391 -0.013703097680831843 0 -0.0085827694237367597 -0.013716304467411967 0 -0.008451549069985128 -0.014311094670069965 0 -0.0085858997680298872 -0.014075737586891913 0 -0.0085827694237367597 -0.013716304467411967 0 -0.008451549069985128 -0.014311094670069965 0 -0.010190415228563588 -0.015513106949350715 0 -0.010044437106438616 -0.015338362391883648 0 -0.010224101192493763 -0.015377371626624645 0 -0.010190415228563588 -0.015513106949350715 0 -0.0097044358351834701 -0.015402935376900056 0 -0.010044437106438616 -0.015338362391883648 0 -0.0094150634185724159 -0.014888004365424128 0 -0.009078768505274162 -0.01480461138727614 0 -0.010044437106438616 -0.015338362391883648 0 -0.010263589454005082 -0.015190307513791995 0 -0.0097558064191322798 -0.014999952276988146 0 -0.010263589454005082 -0.015190307513791995 0 -0.0097558064191322798 -0.014999952276988146 0 -0.010483092220919709 -0.014999931974439069 0 -0.010044437106438616 -0.015338362391883648 0 -0.010263589454005082 -0.015190307513791995 0 -0.010224101192493763 -0.015377371626624645 0 -0.0090279782497144027 -0.015000004667405413 0 -0.0097044358351834701 -0.015402935376900056 0 -0.0097558064191322798 -0.014999952276988146 0 -0.0097044358351834701 -0.015402935376900056 0 -0.010044437106438616 -0.015338362391883648 0 -0.0097558064191322798 -0.014999952276988146 0 -0.011037600181711991 -0.015208705912303999 0 -0.010620646678804538 -0.014999982860096177 0 -0.011339839507534925 -0.014999967929495787 0 -0.011037600181711991 -0.015208705912303999 0 -0.011034758069013679 -0.015557026313306729 0 -0.011629030159099444 -0.015396058716244342 0 -0.010909401070821487 -0.014949134595722098 0 -0.010530801113333934 -0.011362861949541437 0 -0.011037600181711991 -0.015208705912303999 0 -0.010660574803655976 -0.015178292727837682 0 -0.011034758069013679 -0.015557026313306729 0 -0.011289892039270135 -0.013938165415402118 0 -0.011131094739413049 -0.012990950360549086 0 -0.0098098888959499437 -0.012249597111188726 0 -0.011037600181711991 -0.015208705912303999 0 -0.010620646678804538 -0.014999982860096177 0 -0.010660574803655976 -0.015178292727837682 0 -0.010620606641718084 -0.014999997738273964 0 -0.010654263896783495 -0.015188635594411182 0 -0.010483421227359676 -0.01500000096078616 0 -0.010909401070821487 -0.014949134595722098 0 -0.010483746562146009 -0.014999897516149245 0 -0.010621007343671036 -0.015000010635842666 0 -0.010909401070821487 -0.014949134595722098 0 -0.010263589454005082 -0.015190307513791995 0 -0.010637623329022206 -0.015169842589940353 0 -0.010483092220919709 -0.014999931974439069 0 -0.010263589454005082 -0.015190307513791995 0 -0.01032596075140038 -0.015301593146815029 0 -0.010224101192493763 -0.015377371626624645 0 -0.010674070859165592 -0.015157560789303423 0 -0.010509026202643837 -0.013032628616010331 0 -0.010909401070821487 -0.014949134595722098 0 -0.010509026202643837 -0.013032628616010331 0 -0.010263589454005082 -0.015190307513791995 0 -0.010637623329022206 -0.015169842589940353 0 -0.010680117314206787 -0.015410293548749959 0 -0.01032596075140038 -0.015301593146815029 0 -0.010224101192493763 -0.015377371626624645 0 -0.010296617390451925 -0.015455425825959478 0 -0.010190415228563588 -0.015513106949350715 0 -0.010224101192493763 -0.015377371626624645 0 -0.010296617390451925 -0.015455425825959478 0 -0.010509026202643837 -0.013032628616010331 0 -0.0099561737836115754 -0.011938270844001429 0 -0.0096416217888978285 -0.0083886724046001119 0 -0.009940712004959636 -0.0085187516472287131 0 -0.0096961447655885234 -0.0088755627871079639 0 -0.009940712004959636 -0.0085187516472287131 0 -0.010096755499681467 -0.0089078689885652151 0 -0.0096961447655885234 -0.0088755627871079639 0 -0.010509026202643837 -0.013032628616010331 0 -0.010530801113333934 -0.011362861949541437 0 -0.0099561737836115754 -0.011938270844001429 0 -0.0096026672514182791 -0.012678537000972689 0 -0.010096755499681467 -0.0089078689885652151 0 -0.0096961447655885234 -0.0088755627871079639 0 -0.010113403882909225 -0.0091339768795273332 0 -0.009940712004959636 -0.0085187516472287131 0 -0.010096755499681467 -0.0089078689885652151 0 -0.010701108441665301 -0.0090962434351161952 0 -0.0096961447655885234 -0.0088755627871079639 0 -0.0099043553858128401 -0.0093442073709893159 0 -0.0096953012605312354 -0.0095408084636125559 0 -0.0096961447655885234 -0.0088755627871079639 0 -0.0099043553858128401 -0.0093442073709893159 0 -0.010113403882909225 -0.0091339768795273332 0 -0.0099043553858128401 -0.0093442073709893159 0 -0.010113403882909225 -0.0091339768795273332 0 -0.010189947767655605 -0.0095618721471800762 0 -0.010190415228563588 -0.015513106949350715 0 -0.010296617390451925 -0.015455425825959478 0 -0.010295163981121704 -0.015482721420113033 0 -0.0085233345486582391 -0.013703097680831843 0 -0.0086917490483593342 -0.013260498045120006 0 -0.0085908864771103224 -0.013230839061913758 0 -0.0094150634185724159 -0.014888004365424128 0 -0.0096026672514182791 -0.012678537000972689 0 -0.0086917490483593342 -0.013260498045120006 0 -0.0087680758861834792 -0.013008553528146245 0 -0.0085908864771103224 -0.013230839061913758 0 -0.0086917490483593342 -0.013260498045120006 0 -0.0087680758861834792 -0.013008553528146245 0 -0.0088042490092547932 -0.013049712001548365 0 -0.0096026672514182791 -0.012678537000972689 0 -0.0092349326956478253 -0.011416289174247351 0 -0.0096953012605312354 -0.0095408084636125559 0 -0.0099440586035368494 -0.0099818760649895717 0 -0.0096153106372265061 -0.010465503136463456 0 -0.0087680758861834792 -0.013008553528146245 0 -0.0085908864771103224 -0.013230839061913758 0 -0.008842324735751611 -0.012736065918947674 0 -0.0099043553858128401 -0.0093442073709893159 0 -0.010189947767655605 -0.0095618721471800762 0 -0.0096953012605312354 -0.0095408084636125559 0 -0.010189947767655605 -0.0095618721471800762 0 -0.0096953012605312354 -0.0095408084636125559 0 -0.0099440586035368494 -0.0099818760649895717 0 -0.010189947767655605 -0.0095618721471800762 0 -0.0099440586035368494 -0.0099818760649895717 0 -0.010398587547704233 -0.010078951078931661 0 -0.0092349326956478253 -0.011416289174247351 0 -0.0095412575354963756 -0.012073241074595346 0 -0.0096153106372265061 -0.010465503136463456 0 -0.0096162938201447886 -0.011927770324786984 0 -0.010797208941548739 -0.010905009754789158 0 -0.0099440586035368494 -0.0099818760649895717 0 -0.0096153106372265061 -0.010465503136463456 0 -0.010398587547704233 -0.010078951078931661 0 -0.008842324735751611 -0.012736065918947674 0 -0.0096162938201447886 -0.011927770324786984 0 -0.0090578145366376431 -0.012570430651551159 0 -0.0096162938201447886 -0.011927770324786984 0 -0.0090578145366376431 -0.012570430651551159 0 -0.0094231009835878243 -0.012399062666780867 0 -0.0090578145366376431 -0.012570430651551159 0 -0.0090422381230403828 -0.012717335832452416 0 -0.0094231009835878243 -0.012399062666780867 0 -0.0087680758861834792 -0.013008553528146245 0 -0.008842324735751611 -0.012736065918947674 0 -0.0090578145366376431 -0.012570430651551159 0 -0.0087680758861834792 -0.013008553528146245 0 -0.0090578145366376431 -0.012570430651551159 0 -0.0088042490092547932 -0.013049712001548365 0 -0.0090578145366376431 -0.012570430651551159 0 -0.0088042490092547932 -0.013049712001548365 0 -0.0088244822373275324 -0.012983265436930473 0 -0.0086933434054596911 -0.013312998663661127 0 -0.0088244822373275324 -0.012983265436930473 0 -0.0087286236359328511 -0.013116802477736774 0 -0.0086933434054596911 -0.013312998663661127 0 -0.0088042490092547932 -0.013049712001548365 0 -0.0088244822373275324 -0.012983265436930473 0 -0.0088244822373275324 -0.012983265436930473 0 -0.0087286236359328511 -0.013116802477736774 0 -0.0088863503908977008 -0.01284172151583163 0 -0.0090578145366376431 -0.012570430651551159 0 -0.0088244822373275324 -0.012983265436930473 0 -0.0088863503908977008 -0.01284172151583163 0 -0.0086933434054596911 -0.013312998663661127 0 -0.0086235915961778171 -0.013404068783086814 0 -0.0087286236359328511 -0.013116802477736774 0 -0.0086080928669267399 -0.013241356342907915 0 -0.0086235915961778171 -0.013404068783086814 0 -0.0087286236359328511 -0.013116802477736774 0 -0.0086080928669267399 -0.013241356342907915 0 -0.0087286236359328511 -0.013116802477736774 0 -0.0087503848480731672 -0.012999709022568336 0 -0.0085400974373626148 -0.013221751895542339 0 -0.0086080928669267399 -0.013241356342907915 0 -0.0087503848480731672 -0.012999709022568336 0 -0.0087286236359328511 -0.013116802477736774 0 -0.0087503848480731672 -0.012999709022568336 0 -0.0088863503908977008 -0.01284172151583163 0 -0.0090578145366376431 -0.012570430651551159 0 -0.0088863503908977008 -0.01284172151583163 0 -0.0090422381230403828 -0.012717335832452416 0 -0.0087503848480731672 -0.012999709022568336 0 -0.0088863503908977008 -0.01284172151583163 0 -0.0090422381230403828 -0.012717335832452416 0 -0.0087503848480731672 -0.012999709022568336 0 -0.0090422381230403828 -0.012717335832452416 0 -0.0088653479184201116 -0.012970481792130898 0 -0.0090422381230403828 -0.012717335832452416 0 -0.0088653479184201116 -0.012970481792130898 0 -0.00920028480766669 -0.012902701141442294 0 -0.0086246726418273377 -0.013152747427071156 0 -0.0085400974373626148 -0.013221751895542339 0 -0.0087503848480731672 -0.012999709022568336 0 -0.0086246726418273377 -0.013152747427071156 0 -0.0087503848480731672 -0.012999709022568336 0 -0.0088653479184201116 -0.012970481792130898 0 -0.0087907892341338341 -0.013173231142537154 0 -0.0086246726418273377 -0.013152747427071156 0 -0.0088653479184201116 -0.012970481792130898 0 -0.0087907892341338341 -0.013173231142537154 0 -0.0088653479184201116 -0.012970481792130898 0 -0.00920028480766669 -0.012902701141442294 0 -0.0097341135958451102 -0.01314773034610189 0 -0.00920028480766669 -0.012902701141442294 0 -0.0098002170435305316 -0.012639559700162272 0 -0.00920028480766669 -0.012902701141442294 0 -0.0098002170435305316 -0.012639559700162272 0 -0.0094231009835878243 -0.012399062666780867 0 -0.010353929448665046 -0.012772804799246147 0 -0.0098002170435305316 -0.012639559700162272 0 -0.010583272336666654 -0.012063748074847402 0 -0.0098002170435305316 -0.012639559700162272 0 -0.0094231009835878243 -0.012399062666780867 0 -0.010583272336666654 -0.012063748074847402 0 -0.0096162938201447886 -0.011927770324786984 0 -0.0094231009835878243 -0.012399062666780867 0 -0.010583272336666654 -0.012063748074847402 0 -0.0090422381230403828 -0.012717335832452416 0 -0.00920028480766669 -0.012902701141442294 0 -0.0094231009835878243 -0.012399062666780867 0 -0.010583272336666654 -0.012063748074847402 0 -0.012062717658236207 -0.011739734351180892 0 -0.011559622144742522 -0.011333992103072102 0 -0.010583272336666654 -0.012063748074847402 0 -0.011559622144742522 -0.011333992103072102 0 -0.010692467785559826 -0.011581315113476889 0 -0.0096162938201447886 -0.011927770324786984 0 -0.010583272336666654 -0.012063748074847402 0 -0.010692467785559826 -0.011581315113476889 0 -0.011236246929801443 -0.012526219253768752 0 -0.010353929448665046 -0.012772804799246147 0 -0.010583272336666654 -0.012063748074847402 0 -0.011236246929801443 -0.012526219253768752 0 -0.010583272336666654 -0.012063748074847402 0 -0.012062717658236207 -0.011739734351180892 0 -0.012591026731171615 -0.012002178816426163 0 -0.012062717658236207 -0.011739734351180892 0 -0.012981622440043293 -0.011307714898843893 0 -0.012591026731171615 -0.012002178816426163 0 -0.011236246929801443 -0.012526219253768752 0 -0.012062717658236207 -0.011739734351180892 0 -0.012981622440043293 -0.011307714898843893 0 -0.013601332841000489 -0.011243462183898883 0 -0.013615739555727664 -0.011493203240738669 0 -0.012591026731171615 -0.012002178816426163 0 -0.012981622440043293 -0.011307714898843893 0 -0.013615739555727664 -0.011493203240738669 0 -0.012981622440043293 -0.011307714898843893 0 -0.012338424011562267 -0.011293620155206262 0 -0.012962355467554669 -0.010949450298113931 0 -0.012981622440043293 -0.011307714898843893 0 -0.013450885174816015 -0.011013994315994464 0 -0.013601332841000489 -0.011243462183898883 0 -0.012981622440043293 -0.011307714898843893 0 -0.012962355467554669 -0.010949450298113931 0 -0.013450885174816015 -0.011013994315994464 0 -0.012062717658236207 -0.011739734351180892 0 -0.012981622440043293 -0.011307714898843893 0 -0.012338424011562267 -0.011293620155206262 0 -0.012062717658236207 -0.011739734351180892 0 -0.012338424011562267 -0.011293620155206262 0 -0.011559622144742522 -0.011333992103072102 0 -0.012338424011562267 -0.011293620155206262 0 -0.012422066778713905 -0.01084146865000875 0 -0.011559622144742522 -0.011333992103072102 0 -0.012338424011562267 -0.011293620155206262 0 -0.012422066778713905 -0.01084146865000875 0 -0.012962355467554669 -0.010949450298113931 0 -0.012962355467554669 -0.010949450298113931 0 -0.013367022888573405 -0.01071715879523622 0 -0.013450885174816015 -0.011013994315994464 0 -0.012422066778713905 -0.01084146865000875 0 -0.012962355467554669 -0.010949450298113931 0 -0.012953916050014034 -0.010470699235376003 0 -0.012962355467554669 -0.010949450298113931 0 -0.012953916050014034 -0.010470699235376003 0 -0.013367022888573405 -0.01071715879523622 0 -0.012953916050014034 -0.010470699235376003 0 -0.012580070537730239 -0.010044808113730127 0 -0.013514391669241036 -0.010121533615004868 0 -0.012422066778713905 -0.01084146865000875 0 -0.012953916050014034 -0.010470699235376003 0 -0.012218273240958755 -0.010387746264907667 0 -0.012422066778713905 -0.01084146865000875 0 -0.012218273240958755 -0.010387746264907667 0 -0.011630952172108681 -0.010690780800684798 0 -0.012953916050014034 -0.010470699235376003 0 -0.012218273240958755 -0.010387746264907667 0 -0.012580070537730239 -0.010044808113730127 0 -0.012218273240958755 -0.010387746264907667 0 -0.012239360080241395 -0.0099076126997958563 0 -0.012580070537730239 -0.010044808113730127 0 -0.012218273240958755 -0.010387746264907667 0 -0.011800759888399298 -0.010002273118606823 0 -0.012239360080241395 -0.0099076126997958563 0 -0.012218273240958755 -0.010387746264907667 0 -0.011630952172108681 -0.010690780800684798 0 -0.011800759888399298 -0.010002273118606823 0 -0.011630952172108681 -0.010690780800684798 0 -0.011072898408598333 -0.010272756465189553 0 -0.011800759888399298 -0.010002273118606823 0 -0.011630952172108681 -0.010690780800684798 0 -0.010797208941548739 -0.010905009754789158 0 -0.011072898408598333 -0.010272756465189553 0 -0.012422066778713905 -0.01084146865000875 0 -0.011630952172108681 -0.010690780800684798 0 -0.011559622144742522 -0.011333992103072102 0 -0.011630952172108681 -0.010690780800684798 0 -0.011559622144742522 -0.011333992103072102 0 -0.010797208941548739 -0.010905009754789158 0 -0.0096162938201447886 -0.011927770324786984 0 -0.010692467785559826 -0.011581315113476889 0 -0.010797208941548739 -0.010905009754789158 0 -0.011559622144742522 -0.011333992103072102 0 -0.010692467785559826 -0.011581315113476889 0 -0.010797208941548739 -0.010905009754789158 0 -0.0096153106372265061 -0.010465503136463456 0 -0.010797208941548739 -0.010905009754789158 0 -0.010398587547704233 -0.010078951078931661 0 -0.010797208941548739 -0.010905009754789158 0 -0.011072898408598333 -0.010272756465189553 0 -0.010398587547704233 -0.010078951078931661 0 -0.010189947767655605 -0.0095618721471800762 0 -0.010398587547704233 -0.010078951078931661 0 -0.01068339690583048 -0.0096668447245453031 0 -0.011072898408598333 -0.010272756465189553 0 -0.010398587547704233 -0.010078951078931661 0 -0.01068339690583048 -0.0096668447245453031 0 -0.010113403882909225 -0.0091339768795273332 0 -0.010189947767655605 -0.0095618721471800762 0 -0.01068339690583048 -0.0096668447245453031 0 -0.011072898408598333 -0.010272756465189553 0 -0.01068339690583048 -0.0096668447245453031 0 -0.011800759888399298 -0.010002273118606823 0 -0.011800759888399298 -0.010002273118606823 0 -0.011447701637931009 -0.0095011979316720029 0 -0.0119378705681021 -0.0094891793954815212 0 -0.011845615316872891 -0.010149088681024123 0 -0.010966983373425327 -0.008862250828372064 0 -0.01068339690583048 -0.0096668447245453031 0 -0.011800759888399298 -0.010002273118606823 0 -0.010701108441665301 -0.0090962434351161952 0 -0.011707653454653326 -0.012730529071818035 0 -0.012074698088540937 -0.012882874110341636 0 -0.011628850351944867 -0.015850320606653513 0 -0.012093955031469313 -0.015744584038409854 0 -0.012217827591532225 -0.016107121073942559 0 -0.011447701637931009 -0.0095011979316720029 0 -0.011478731854198046 -0.0093563256611255297 0 -0.0119378705681021 -0.0094891793954815212 0 -0.010113403882909225 -0.0091339768795273332 0 -0.01068339690583048 -0.0096668447245453031 0 -0.010701108441665301 -0.0090962434351161952 0 -0.010096755499681467 -0.0089078689885652151 0 -0.010113403882909225 -0.0091339768795273332 0 -0.010701108441665301 -0.0090962434351161952 0 -0.011034758069013679 -0.015557026313306729 0 -0.011628850351944867 -0.015850320606653513 0 -0.011629030159099444 -0.015396058716244342 0 -0.010530801113333934 -0.011362861949541437 0 -0.010966983373425327 -0.008862250828372064 0 -0.010530801113333934 -0.011362861949541437 0 -0.011707653454653326 -0.012730529071818035 0 -0.011183680601858037 -0.0092449396398597092 0 -0.011447701637931009 -0.0095011979316720029 0 -0.011478731854198046 -0.0093563256611255297 0 -0.011628850351944867 -0.015850320606653513 0 -0.012093955031469313 -0.015744584038409854 0 -0.011629030159099444 -0.015396058716244342 0 -0.012093955031469313 -0.015744584038409854 0 -0.011629030159099444 -0.015396058716244342 0 -0.012244458438926919 -0.015399782684167361 0 -0.012059053480252199 -0.014999974014684283 0 -0.011629030159099444 -0.015396058716244342 0 -0.012244458438926919 -0.015399782684167361 0 -0.011037600181711991 -0.015208705912303999 0 -0.011629030159099444 -0.015396058716244342 0 -0.011339839507534925 -0.014999967929495787 0 -0.012059053480252199 -0.014999974014684283 0 -0.011629030159099444 -0.015396058716244342 0 -0.011339839507534925 -0.014999967929495787 0 -0.012778255909202629 -0.014999972918945363 0 -0.012648304170327265 -0.015519422198667162 0 -0.013136053567012642 -0.015663678713748255 0 -0.012778255909202629 -0.014999972918945363 0 -0.012244458438926919 -0.015399782684167361 0 -0.012648304170327265 -0.015519422198667162 0 -0.012059053480252199 -0.014999974014684283 0 -0.012778255909202629 -0.014999972918945363 0 -0.012244458438926919 -0.015399782684167361 0 -0.012244458438926919 -0.015399782684167361 0 -0.012380906643931183 -0.015708544181936235 0 -0.012648304170327265 -0.015519422198667162 0 -0.012093955031469313 -0.015744584038409854 0 -0.012244458438926919 -0.015399782684167361 0 -0.012380906643931183 -0.015708544181936235 0 -0.012093955031469313 -0.015744584038409854 0 -0.012380906643931183 -0.015708544181936235 0 -0.012405471737467064 -0.015987554014220272 0 -0.012380906643931183 -0.015708544181936235 0 -0.012699033979722357 -0.015830487910637521 0 -0.012648304170327265 -0.015519422198667162 0 -0.012380906643931183 -0.015708544181936235 0 -0.012699033979722357 -0.015830487910637521 0 -0.012405471737467064 -0.015987554014220272 0 -0.012699033979722357 -0.015830487910637521 0 -0.012648304170327265 -0.015519422198667162 0 -0.013136053567012642 -0.015663678713748255 0 -0.012699033979722357 -0.015830487910637521 0 -0.012405471737467064 -0.015987554014220272 0 -0.012810972062096249 -0.016318673679039521 0 -0.012699033979722357 -0.015830487910637521 0 -0.012810972062096249 -0.016318673679039521 0 -0.013136053567012642 -0.015663678713748255 0 -0.012405471737467064 -0.015987554014220272 0 -0.012684174009605457 -0.016183646492210883 0 -0.012650070044902954 -0.016260883867249228 0 -0.013428491559805338 -0.014389668708353454 0 -0.014103252991339112 -0.015037850879670583 0 -0.012405471737467064 -0.015987554014220272 0 -0.012217827591532225 -0.016107121073942559 0 -0.012650070044902954 -0.016260883867249228 0 -0.012093955031469313 -0.015744584038409854 0 -0.012405471737467064 -0.015987554014220272 0 -0.012217827591532225 -0.016107121073942559 0 -0.012592165193322541 -0.016212272146391475 0 -0.013428491559805338 -0.014389668708353454 0 -0.011800759888399298 -0.010002273118606823 0 -0.0119378705681021 -0.0094891793954815212 0 -0.012239360080241395 -0.0099076126997958563 0 -0.0119378705681021 -0.0094891793954815212 0 -0.012239360080241395 -0.0099076126997958563 0 -0.012668877052334097 -0.0097496027588984645 0 -0.012074698088540937 -0.012882874110341636 0 -0.012852616672071333 -0.011908450875654543 0 -0.012239360080241395 -0.0099076126997958563 0 -0.012668877052334097 -0.0097496027588984645 0 -0.012580070537730239 -0.010044808113730127 0 -0.012852616672071333 -0.011908450875654543 0 -0.014328854039840277 -0.011793368904001612 0 -0.012742991086061299 -0.0097010758666592495 0 -0.012580070537730239 -0.010044808113730127 0 -0.013514391669241036 -0.010121533615004868 0 -0.01351512633974437 -0.012312964509958228 0 -0.013481030454186381 -0.012386246625519227 0 -0.013834075751344814 -0.012555735839331275 0 -0.013428491559805338 -0.014389668708353454 0 -0.014328854039840277 -0.011793368904001612 0 -0.013428491559805338 -0.014389668708353454 0 -0.012852616672071333 -0.011908450875654543 0 -0.012852616672071333 -0.011908450875654543 0 -0.013067687948830032 -0.010035131553978251 0 -0.015616165524901828 -0.01336480487039989 0 -0.014738168537720201 -0.013488186811184712 0 -0.015038750131027786 -0.012671750487785577 0 -0.014496855681415814 -0.012781896407877275 0 -0.014738168537720201 -0.013488186811184712 0 -0.015038750131027786 -0.012671750487785577 0 -0.014496855681415814 -0.012781896407877275 0 -0.014738168537720201 -0.013488186811184712 0 -0.013906760304807525 -0.013150054874269733 0 -0.014496855681415814 -0.012781896407877275 0 -0.013906760304807525 -0.013150054874269733 0 -0.014259829536539747 -0.011792353978465718 0 -0.014738168537720201 -0.013488186811184712 0 -0.014356026346947362 -0.014524201125317462 0 -0.013906760304807525 -0.013150054874269733 0 -0.014396616612949642 -0.014421002140158365 0 -0.014494536652459582 -0.013438319011196857 0 -0.015616165524901828 -0.01336480487039989 0 -0.014738168537720201 -0.013488186811184712 0 -0.01491677093324952 -0.014403815830270431 0 -0.01491677093324952 -0.014403815830270431 0 -0.014356026346947362 -0.014524201125317462 0 -0.013502198355053863 -0.014998802734681444 0 -0.014738168537720201 -0.013488186811184712 0 -0.01491677093324952 -0.014403815830270431 0 -0.014356026346947362 -0.014524201125317462 0 -0.012778255909202629 -0.014999972918945363 0 -0.013136053567012642 -0.015663678713748255 0 -0.013497427713451771 -0.014999984644161897 0 -0.014103252991339112 -0.015037850879670583 0 -0.013497741631344795 -0.014999815468792843 0 -0.014356026346947362 -0.014524201125317462 0 -0.014998133875405419 -0.014999493437023162 0 -0.015108606861233397 -0.013768765528184998 0 -0.014356026346947362 -0.014524201125317462 0 -0.013502198355053863 -0.014998802734681444 0 -0.014998133875405419 -0.014999493437023162 0 -0.014998133875405419 -0.014999493437023162 0 -0.015108606861233397 -0.013768765528184998 0 -0.01499970129499262 -0.013200275258899693 0 -0.01499970129499262 -0.013200275258899693 0 -0.015395641795022777 -0.012720401096463139 0 -0.014999952776499457 -0.011881158313264733 0 -0.014610512241079891 -0.012120949108521824 0 -0.014801602876054176 -0.01138339017199946 0 -0.014121893796790722 -0.011179479888145048 0 -0.013826562857631453 -0.011481255451013897 0 -0.014180540855583925 -0.011079796919445765 0 -0.013826562857631453 -0.011481255451013897 0 -0.014188132430512196 -0.01156228017648485 0 -0.014259829536539747 -0.011792353978465718 0 -0.014121893796790722 -0.011179479888145048 0 -0.013826562857631453 -0.011481255451013897 0 -0.014188132430512196 -0.01156228017648485 0 -0.013906760304807525 -0.013150054874269733 0 -0.013826562857631453 -0.011481255451013897 0 -0.014259829536539747 -0.011792353978465718 0 -0.015108606861233397 -0.013768765528184998 0 -0.01499970129499262 -0.013200275258899693 0 -0.015395641795022777 -0.012720401096463139 0 -0.014494536652459582 -0.013438319011196857 0 -0.014610512241079891 -0.012120949108521824 0 -0.014515360653522429 -0.011778570083846814 0 -0.014259829536539747 -0.011792353978465718 0 -0.014979557336630324 -0.012163495437106738 0 -0.014570313552777324 -0.012059698354219243 0 -0.014328854039840277 -0.011793368904001612 0 -0.014496855681415814 -0.012781896407877275 0 -0.014259829536539747 -0.011792353978465718 0 -0.015038750131027786 -0.012671750487785577 0 -0.014188132430512196 -0.01156228017648485 0 -0.014515360653522429 -0.011778570083846814 0 -0.014259829536539747 -0.011792353978465718 0 -0.012953916050014034 -0.010470699235376003 0 -0.013514391669241036 -0.010121533615004868 0 -0.013367022888573405 -0.01071715879523622 0 -0.013991020915128546 -0.010621089286232469 0 -0.013514391669241036 -0.010121533615004868 0 -0.013729413189748203 -0.010798354687353668 0 -0.013514391669241036 -0.010121533615004868 0 -0.013367022888573405 -0.01071715879523622 0 -0.013729413189748203 -0.010798354687353668 0 -0.014168779985015787 -0.011107544143767035 0 -0.014328854039840277 -0.011793368904001612 0 -0.013367022888573405 -0.01071715879523622 0 -0.013729413189748203 -0.010798354687353668 0 -0.013450885174816015 -0.011013994315994464 0 -0.013729413189748203 -0.010798354687353668 0 -0.013450885174816015 -0.011013994315994464 0 -0.013887573532517069 -0.0110531286650828 0 -0.014121893796790722 -0.011179479888145048 0 -0.013991020915128546 -0.010621089286232469 0 -0.014009419564547335 -0.010971898702513203 0 -0.014141048547814434 -0.011172417433701983 0 -0.014168779985015787 -0.011107544143767035 0 -0.014121893796790722 -0.011179479888145048 0 -0.014188132430512196 -0.01156228017648485 0 -0.014515360653522429 -0.011778570083846814 0 -0.013991020915128546 -0.010621089286232469 0 -0.013729413189748203 -0.010798354687353668 0 -0.014009419564547335 -0.010971898702513203 0 -0.013729413189748203 -0.010798354687353668 0 -0.014009419564547335 -0.010971898702513203 0 -0.013887573532517069 -0.0110531286650828 0 -0.014009419564547335 -0.010971898702513203 0 -0.014123930959586436 -0.011071547219441532 0 -0.013887573532517069 -0.0110531286650828 0 -0.014121893796790722 -0.011179479888145048 0 -0.014009419564547335 -0.010971898702513203 0 -0.014123930959586436 -0.011071547219441532 0 -0.014123930959586436 -0.011071547219441532 0 -0.013887573532517069 -0.0110531286650828 0 -0.014053629014452054 -0.011132442180600777 0 -0.014123930959586436 -0.011071547219441532 0 -0.014053629014452054 -0.011132442180600777 0 -0.014217272839705301 -0.01105576982449759 0 -0.013887573532517069 -0.0110531286650828 0 -0.014053629014452054 -0.011132442180600777 0 -0.013601332841000489 -0.011243462183898883 0 -0.013450885174816015 -0.011013994315994464 0 -0.013887573532517069 -0.0110531286650828 0 -0.013601332841000489 -0.011243462183898883 0 -0.01421227830393673 -0.011252444159108891 0 -0.013615739555727664 -0.011493203240738669 0 -0.013975227145474408 -0.011259110729231983 0 -0.014053629014452054 -0.011132442180600777 0 -0.013601332841000489 -0.011243462183898883 0 -0.013975227145474408 -0.011259110729231983 0 -0.013601332841000489 -0.011243462183898883 0 -0.013615739555727664 -0.011493203240738669 0 -0.013975227145474408 -0.011259110729231983 0 -0.01421227830393673 -0.011252444159108891 0 -0.014228184014930674 -0.011109097141336214 0 -0.013975227145474408 -0.011259110729231983 0 -0.014053629014452054 -0.011132442180600777 0 -0.014228184014930674 -0.011109097141336214 0 -0.013975227145474408 -0.011259110729231983 0 -0.014053629014452054 -0.011132442180600777 0 -0.014228184014930674 -0.011109097141336214 0 -0.014217272839705301 -0.01105576982449759 0 -0.014439996621036439 -0.01099421051693761 0 -0.014228184014930674 -0.011109097141336214 0 -0.014304474767141773 -0.011012706652474653 0 -0.014439996621036439 -0.01099421051693761 0 -0.014304474767141773 -0.011012706652474653 0 -0.014315319201767067 -0.010929704415001148 0 -0.015000017111933649 -0.010916554463669093 0 -0.014999952776499457 -0.011881158313264733 0 -0.015275238294663858 -0.011768227488267669 0 -0.014439996621036439 -0.01099421051693761 0 -0.01421227830393673 -0.011252444159108891 0 -0.014228184014930674 -0.011109097141336214 0 -0.014228184014930674 -0.011109097141336214 0 -0.014304474767141773 -0.011012706652474653 0 -0.014217272839705301 -0.01105576982449759 0 -0.014998665994880075 -0.010915768008329487 0 -0.014439996621036439 -0.01099421051693761 0 -0.014315319201767067 -0.010929704415001148 0 -0.014999945669726724 -0.010916675558333592 0 -0.014801602876054176 -0.01138339017199946 0 -0.015395641795022777 -0.012720401096463139 0 -0.014999952776499457 -0.011881158313264733 0 -0.015275238294663858 -0.011768227488267669 0 -0.013826562857631453 -0.011481255451013897 0 -0.014315319201767067 -0.010929704415001148 0 -0.014180540855583925 -0.011079796919445765 0 -0.014121893796790722 -0.011179479888145048 0 -0.014123930959586436 -0.011071547219441532 0 -0.014180540855583925 -0.011079796919445765 0 -0.014123930959586436 -0.011071547219441532 0 -0.014180540855583925 -0.011079796919445765 0 -0.014217272839705301 -0.01105576982449759 0 -0.014304474767141773 -0.011012706652474653 0 -0.014217272839705301 -0.01105576982449759 0 -0.014256628597859375 -0.011017155983600873 0 -0.014315319201767067 -0.010929704415001148 0 -0.014180540855583925 -0.011079796919445765 0 -0.014256628597859375 -0.011017155983600873 0 -0.014180540855583925 -0.011079796919445765 0 -0.014217272839705301 -0.01105576982449759 0 -0.014256628597859375 -0.011017155983600873 0 -0.014304474767141773 -0.011012706652474653 0 -0.014315319201767067 -0.010929704415001148 0 -0.014256628597859375 -0.011017155983600873 0 -0.0040497330590425007 -0.015173386139324349 0 -0.0039981527740335487 -0.015239434781523984 0 -0.0041369332632470515 -0.015150031937035248 0 -0.0040497330590425007 -0.015173386139324349 0 -0.0039981527740335487 -0.015239434781523984 0 -0.0039382536143692456 -0.015286473838281564 0 -0.0039981527740335487 -0.015239434781523984 0 -0.0039382536143692456 -0.015286473838281564 0 -0.0038596383429146076 -0.015314535706055385 0 -0.0040420697067568446 -0.015209749358939846 0 -0.0041204314672008734 -0.015145046839583195 0 -0.0041143158000103239 -0.015233930964467504 0 -0.0039981527740335487 -0.015239434781523984 0 -0.0040420697067568446 -0.015209749358939846 0 -0.0039086606944112659 -0.015288678359326012 0 -0.0039981527740335487 -0.015239434781523984 0 -0.0040420697067568446 -0.015209749358939846 0 -0.0041369332632470515 -0.015150031937035248 0 -0.0040420697067568446 -0.015209749358939846 0 -0.0041204314672008734 -0.015145046839583195 0 -0.0041369332632470515 -0.015150031937035248 0 -0.0049009780548596622 -0.015258985017565872 0 -0.0045119845581093523 -0.01464434637371999 0 -0.0046906099684066865 -0.014442057394680834 0 -0.0023861557743164986 -0.013643282297931034 0 -0.0020750489300223906 -0.012408701009422219 0 -0.0041204314672008734 -0.015145046839583195 0 -0.0041369332632470515 -0.015150031937035248 0 -0.0043400072769431411 -0.014961959269380987 0 0.00058509965171738465 -0.010870827952192356 0 0.0004552110635329748 -0.010497114902480485 0 0.00069683026424180721 -0.01024246866418599 0 -0.0023861557743164986 -0.013643282297931034 0 -0.0051295685820958265 -0.015498475668251235 0 -0.0049009780548596622 -0.015258985017565872 0 -0.0043400072769431411 -0.014961959269380987 0 -0.0045119845581093523 -0.01464434637371999 0 -0.0040497330590425007 -0.015173386139324349 0 -0.0043400072769431411 -0.014961959269380987 0 -0.0038759129440764039 -0.015095342103428824 0 -0.0043400072769431411 -0.014961959269380987 0 -0.0038759129440764039 -0.015095342103428824 0 -0.0045119845581093523 -0.01464434637371999 0 -0.0040497330590425007 -0.015173386139324349 0 -0.0041369332632470515 -0.015150031937035248 0 -0.0043400072769431411 -0.014961959269380987 0 -0.0049592587395973133 -0.014351631290611162 0 -0.004928977277450698 -0.014464152026467008 0 -0.0049856754300676275 -0.014647135286326642 0 -0.0049592587395973133 -0.014351631290611162 0 -0.004928977277450698 -0.014464152026467008 0 -0.004944657583390512 -0.014368767950528511 0 -0.0038759129440764039 -0.015095342103428824 0 -0.0040713422008929901 -0.01538012772172509 0 -0.0039382536143692456 -0.015286473838281564 0 -0.004434720124475198 -0.014730308603116374 0 -0.004526174089538656 -0.014994629945829731 0 -0.0040497330590425007 -0.015173386139324349 0 -0.0038759129440764039 -0.015095342103428824 0 -0.0039382536143692456 -0.015286473838281564 0 -0.0040713422008929901 -0.01538012772172509 0 -0.0039382536143692456 -0.015286473838281564 0 -0.0039149646461512609 -0.015282193624740649 0 -0.0039382536143692456 -0.015286473838281564 0 -0.0039149646461512609 -0.015282193624740649 0 -0.0038596383429146076 -0.015314535706055385 0 -0.0040713422008929901 -0.01538012772172509 0 -0.0039149646461512609 -0.015282193624740649 0 -0.0041486427332844333 -0.015104547525137173 0 -0.0040713422008929901 -0.01538012772172509 0 -0.0041486427332844333 -0.015104547525137173 0 -0.0046551338145043621 -0.015053557227431858 0 -0.0039149646461512609 -0.015282193624740649 0 -0.0041486427332844333 -0.015104547525137173 0 -0.0038642251313387478 -0.015183187244762907 0 -0.0041486427332844333 -0.015104547525137173 0 -0.0038642251313387478 -0.015183187244762907 0 -0.0038782684081982688 -0.014992727384665503 0 -0.0039149646461512609 -0.015282193624740649 0 -0.0038642251313387478 -0.015183187244762907 0 -0.0037637621434358204 -0.015312743497350179 0 -0.0038642251313387478 -0.015183187244762907 0 -0.0037637621434358204 -0.015312743497350179 0 -0.0036466834480192831 -0.015171098558693454 0 -0.0035877340157564803 -0.015328271304152666 0 -0.0037637621434358204 -0.015312743497350179 0 -0.0036466834480192831 -0.015171098558693454 0 -0.0035877340157564803 -0.015328271304152666 0 -0.0034277502124655502 -0.015213785224343232 0 -0.0036466834480192831 -0.015171098558693454 0 -0.0035877340157564803 -0.015328271304152666 0 -0.0037637621434358204 -0.015312743497350179 0 -0.0037255675795096919 -0.015409851052935594 0 -0.0039149646461512609 -0.015282193624740649 0 -0.0037637621434358204 -0.015312743497350179 0 -0.0038596383429146076 -0.015314535706055385 0 -0.0038596383429146076 -0.015314535706055385 0 -0.0039086606944112659 -0.015288678359326012 0 -0.0037255675795096919 -0.015409851052935594 0 -0.0037637621434358204 -0.015312743497350179 0 -0.0038596383429146076 -0.015314535706055385 0 -0.0037255675795096919 -0.015409851052935594 0 -0.0039981527740335487 -0.015239434781523984 0 -0.0038596383429146076 -0.015314535706055385 0 -0.0039086606944112659 -0.015288678359326012 0 -0.0039601427866427525 -0.015309417188904925 0 -0.0039657201611643092 -0.015505567245790872 0 -0.0041143158000103239 -0.015233930964467504 0 -0.0033225481741560041 -0.015299399185942345 0 -0.0016182464447760602 -0.015179863685216885 0 -0.0040420697067568446 -0.015209749358939846 0 -0.0039601427866427525 -0.015309417188904925 0 -0.0041143158000103239 -0.015233930964467504 0 -0.0040420697067568446 -0.015209749358939846 0 -0.0039601427866427525 -0.015309417188904925 0 -0.0039086606944112659 -0.015288678359326012 0 -0.0039601427866427525 -0.015309417188904925 0 -0.0039086606944112659 -0.015288678359326012 0 -0.0037255675795096919 -0.015409851052935594 0 -0.0039601427866427525 -0.015309417188904925 0 -0.0037255675795096919 -0.015409851052935594 0 -0.0039657201611643092 -0.015505567245790872 0 -0.0032318728771462287 -0.015567449006168034 0 -0.0031617199459402692 -0.015236688904851295 0 -0.0029439523177704438 -0.015253175847122704 0 -0.0033225481741560041 -0.015299399185942345 0 -0.0033094939019831719 -0.015374331505816926 0 -0.0037255675795096919 -0.015409851052935594 0 -0.003375583748064907 -0.015426634677702816 0 -0.0035108011399562133 -0.015383507730918258 0 -0.0035877340157564803 -0.015328271304152666 0 -0.0037255675795096919 -0.015409851052935594 0 -0.0035108011399562133 -0.015383507730918258 0 -0.0036994804534852175 -0.015455205908521273 0 -0.0033225481741560041 -0.015299399185942345 0 -0.003375583748064907 -0.015426634677702816 0 -0.0035108011399562133 -0.015383507730918258 0 -0.0033508964512395816 -0.015385766109814961 0 -0.0033508964512395816 -0.015385766109814961 0 -0.0034277502124655502 -0.015213785224343232 0 -0.0031617199459402692 -0.015236688904851295 0 -0.0035877340157564803 -0.015328271304152666 0 -0.0033508964512395816 -0.015385766109814961 0 -0.0034277502124655502 -0.015213785224343232 0 -0.0035877340157564803 -0.015328271304152666 0 -0.0035108011399562133 -0.015383507730918258 0 -0.0033508964512395816 -0.015385766109814961 0 -0.0032318728771462287 -0.015567449006168034 0 -0.0033508964512395816 -0.015385766109814961 0 -0.0031617199459402692 -0.015236688904851295 0 -0.0033225481741560041 -0.015299399185942345 0 -0.001690401888028818 -0.015468641240789087 0 -0.0022054809383355652 -0.015299709614880667 0 -0.0020859995689511399 -0.015239778011682607 0 -0.0021419809915488022 -0.015416777695574804 0 -0.0032318728771462287 -0.015567449006168034 0 -0.0029439523177704438 -0.015253175847122704 0 -0.0026865366348399304 -0.015306437381145791 0 -0.0032318728771462287 -0.015567449006168034 0 -0.0026508221889347283 -0.015486443888337656 0 -0.0026865366348399304 -0.015306437381145791 0 -0.00031376636200541901 -0.015765159315715493 0 -0.00024583484858439308 -0.015741323552671233 0 -0.00024795467146027171 -0.01586061682718018 0 -0.0003767671578543095 -0.015730665428528429 0 -0.00031376636200541901 -0.015765159315715493 0 -0.00035512766199256157 -0.015700078358116668 0 -0.00031376636200541901 -0.015765159315715493 0 -0.00024583484858439308 -0.015741323552671233 0 -0.00035512766199256157 -0.015700078358116668 0 -0.0003767671578543095 -0.015730665428528429 0 -0.00031376636200541901 -0.015765159315715493 0 -0.00033344420122350326 -0.015809141148120421 0 -0.00031376636200541901 -0.015765159315715493 0 -0.00033344420122350326 -0.015809141148120421 0 -0.00024795467146027171 -0.01586061682718018 0 -0.00033344420122350326 -0.015809141148120421 0 -0.00024795467146027171 -0.01586061682718018 0 -0.00034383258581182637 -0.015859459673815031 0 -0.0003767671578543095 -0.015730665428528429 0 -0.00033344420122350326 -0.015809141148120421 0 -0.00036912598461172114 -0.015837109559658544 0 -0.001690401888028818 -0.015468641240789087 0 -0.0016182464447760602 -0.015179863685216885 0 -0.00033344420122350326 -0.015809141148120421 0 -0.00036912598461172114 -0.015837109559658544 0 -0.00034383258581182637 -0.015859459673815031 0 -1.6303405419564853e-07 -0.015896118449653742 0 -0.00024583484858439308 -0.015741323552671233 0 -0.00024795467146027171 -0.01586061682718018 0 0.0030065619637620828 -0.014262225168919477 0 0.0037475322935616819 -0.014019814515562926 0 0.00613388288136871 -0.012627785121348819 0 0.0070439536730986709 -0.012008279744004112 0 0.0062494756024006528 -0.011597096259425805 0 0.0070439536730986709 -0.012008279744004112 0 0.0062494756024006528 -0.011597096259425805 0 0.0071227795300931448 -0.011194345412638472 0 0.0062494756024006528 -0.011597096259425805 0 0.0071227795300931448 -0.011194345412638472 0 0.0066640241345563523 -0.010336137911324468 0 0.0062494756024006528 -0.011597096259425805 0 0.0066640241345563523 -0.010336137911324468 0 0.0058550649704433976 -0.010751806705864356 0 -0.00098066861343505262 -0.013606340555332561 0 -0.0010475517030812829 -0.013833442514570785 0 -0.0011120854453759697 -0.013692394510899975 0 -0.0023861557743164986 -0.013643282297931034 0 -0.0016182464447760602 -0.015179863685216885 0 -0.0023861557743164986 -0.013643282297931034 0 0.0017957477235036666 -0.012513058160604724 0 -0.0016182464447760602 -0.015179863685216885 0 0.0017957477235036666 -0.012513058160604724 0 0.0037475322935616819 -0.014019814515562926 0 0.0017957477235036666 -0.012513058160604724 0 0.0070439536730986709 -0.012008279744004112 0 0.0079253901646162798 -0.011428383616870279 0 0.0071227795300931448 -0.011194345412638472 0 0.0079253901646162798 -0.011428383616870279 0 0.0071227795300931448 -0.011194345412638472 0 0.0075280206122978399 -0.010482458557938737 0 0.0071227795300931448 -0.011194345412638472 0 0.0075280206122978399 -0.010482458557938737 0 0.0066640241345563523 -0.010336137911324468 0 0.00033640280532893561 -0.01103560386451233 0 0.0004552110635329748 -0.010497114902480485 0 6.0761898783910283e-05 -0.010459157479985345 0 0.0017957477235036666 -0.012513058160604724 0 0.0040451591521352978 -0.010313384185137078 0 0.00058509965171738465 -0.010870827952192356 0 0.00033640280532893561 -0.01103560386451233 0 0.0004552110635329748 -0.010497114902480485 0 0.00033891927356663937 -0.010170805156844711 0 6.0761898783910283e-05 -0.010459157479985345 0 0.00013692751684408127 -0.0099544843124651575 0 0.0004552110635329748 -0.010497114902480485 0 0.00033891927356663937 -0.010170805156844711 0 0.00064330067097437857 -0.010212101917723797 0 0.0004552110635329748 -0.010497114902480485 0 0.00033891927356663937 -0.010170805156844711 0 6.0761898783910283e-05 -0.010459157479985345 0 0.00033891927356663937 -0.010170805156844711 0 0.00050549399066949325 -0.010012764708459312 0 0.00064330067097437857 -0.010212101917723797 0 6.0761898783910283e-05 -0.010459157479985345 0 0.00013692751684408127 -0.0099544843124651575 0 -0.00029851672779918737 -0.009802246285331143 0 0.0040451591521352978 -0.010313384185137078 0 0.0033809786097589501 -0.0096646332514943173 0 0.00013692751684408127 -0.0099544843124651575 0 -0.00029851672779918737 -0.009802246285331143 0 0.00017897082671821304 -0.0094686782109228308 0 0.00013692751684408127 -0.0099544843124651575 0 0.00040094634422921128 -0.009799166564592135 0 0.00017897082671821304 -0.0094686782109228308 0 0.00033891927356663937 -0.010170805156844711 0 0.00040094634422921128 -0.009799166564592135 0 0.00050549399066949325 -0.010012764708459312 0 0.00040094634422921128 -0.009799166564592135 0 0.00050549399066949325 -0.010012764708459312 0 0.00061801068863410818 -0.0098854377480650981 0 0.00033891927356663937 -0.010170805156844711 0 0.00013692751684408127 -0.0099544843124651575 0 0.00040094634422921128 -0.009799166564592135 0 0.0066640241345563523 -0.010336137911324468 0 0.0058550649704433976 -0.010751806705864356 0 0.0058172590109983472 -0.0097857778495335536 0 0.0075280206122978399 -0.010482458557938737 0 0.0066640241345563523 -0.010336137911324468 0 0.0071159025235963689 -0.0095033559142131303 0 0.0066640241345563523 -0.010336137911324468 0 0.0071159025235963689 -0.0095033559142131303 0 0.00641284437354193 -0.0092349758957944953 0 0.00641284437354193 -0.0092349758957944953 0 0.0056074885595761709 -0.0090886355281375713 0 0.0058172590109983472 -0.0097857778495335536 0 0.0066640241345563523 -0.010336137911324468 0 0.00641284437354193 -0.0092349758957944953 0 0.0058172590109983472 -0.0097857778495335536 0 0.00641284437354193 -0.0092349758957944953 0 0.0066935471972021455 -0.0085149917939240354 0 0.0058389358935716082 -0.0083835206567105681 0 0.00641284437354193 -0.0092349758957944953 0 0.0058389358935716082 -0.0083835206567105681 0 0.0056074885595761709 -0.0090886355281375713 0 0.0071159025235963689 -0.0095033559142131303 0 0.00641284437354193 -0.0092349758957944953 0 0.0066935471972021455 -0.0085149917939240354 0 0.0033809786097589501 -0.0096646332514943173 0 0.0030155525228929138 -0.0087335961251302878 0 -0.00029851672779918737 -0.009802246285331143 0 -0.00067791541856078842 -0.0089480124539319111 0 -0.00014248104706221141 -0.0090522249534791717 0 -0.00097707736951080436 -0.0081367614943502475 0 -0.00067791541856078842 -0.0089480124539319111 0 -0.00041193070579237834 -0.0084501303675617173 0 -0.00067791541856078842 -0.0089480124539319111 0 -0.00041193070579237834 -0.0084501303675617173 0 -0.00014248104706221141 -0.0090522249534791717 0 0.0062635670451223271 -0.0075238671781647504 0 0.0066935471972021455 -0.0085149917939240354 0 0.0058389358935716082 -0.0083835206567105681 0 0.0026318892260606356 -0.0078173837637827166 0 0.0030155525228929138 -0.0087335961251302878 0 0.00020837553077660841 -0.0094350894851589918 0 0.00066847674734634138 -0.0089508242644395601 0 0.00040094634422921128 -0.009799166564592135 0 0.00050911717974992524 -0.0093974686230804162 0 0.00083202653170245217 -0.0092328238940480086 0 0.00050911717974992524 -0.0093974686230804162 0 0.00017897082671821304 -0.0094686782109228308 0 0.00062078540105859269 -0.009113324806032011 0 0.00017897082671821304 -0.0094686782109228308 0 0.0002516072526719689 -0.0088684201395550135 0 0.0007628856106804856 -0.0087713588294069684 0 0.00040094634422921128 -0.009799166564592135 0 0.00050911717974992524 -0.0093974686230804162 0 0.00017897082671821304 -0.0094686782109228308 0 -0.00029851672779918737 -0.009802246285331143 0 0.00017897082671821304 -0.0094686782109228308 0 -0.00014248104706221141 -0.0090522249534791717 0 0.00017897082671821304 -0.0094686782109228308 0 -0.00014248104706221141 -0.0090522249534791717 0 0.0002516072526719689 -0.0088684201395550135 0 -0.00014248104706221141 -0.0090522249534791717 0 1.2493174230521099e-05 -0.008577872750595128 0 0.0002516072526719689 -0.0088684201395550135 0 -0.00041193070579237834 -0.0084501303675617173 0 -0.00014248104706221141 -0.0090522249534791717 0 1.2493174230521099e-05 -0.008577872750595128 0 5.3634701282001411e-05 -0.0081613068605205473 0 -0.00041193070579237834 -0.0084501303675617173 0 1.2493174230521099e-05 -0.008577872750595128 0 5.3634701282001411e-05 -0.0081613068605205473 0 1.2493174230521099e-05 -0.008577872750595128 0 0.00038439938794032771 -0.0084583177177076085 0 1.2493174230521099e-05 -0.008577872750595128 0 0.00038439938794032771 -0.0084583177177076085 0 0.0002516072526719689 -0.0088684201395550135 0 0.00038439938794032771 -0.0084583177177076085 0 0.0002516072526719689 -0.0088684201395550135 0 0.0007628856106804856 -0.0087713588294069684 0 0.00076040889966866234 -0.0082423419595137656 0 0.00038439938794032771 -0.0084583177177076085 0 0.0007628856106804856 -0.0087713588294069684 0 0.0010595241366343512 -0.0084670769351961293 0 0.00066847674734634138 -0.0089508242644395601 0 0.0011707299621731655 -0.0080677780244023459 0 0.00076040889966866234 -0.0082423419595137656 0 0.0007628856106804856 -0.0087713588294069684 0 0.00095463608487413227 -0.0088094790919626461 0 0.00062078540105859269 -0.009113324806032011 0 0.00083202653170245217 -0.0092328238940480086 0 0.00087251687298883123 -0.0094327807029026718 0 0.00083552975554955771 -0.0095578637537779391 0 0.0007260076450586368 -0.0095837155666755255 0 0.00095463608487413227 -0.0088094790919626461 0 0.0011388619534005928 -0.0088618396635212014 0 0.00083202653170245217 -0.0092328238940480086 0 0.00015338953240576469 -0.0093459924535361869 0 0.00092513096336488757 -0.0093355543096269554 0 0.00015338953240576469 -0.0093459924535361869 0 -0.00051664487937694 -0.010395481076977048 0 -0.0019023729563313007 -0.011283951000248198 0 -0.0018776241293943182 -0.011248999056819045 0 -0.0019048156521500091 -0.01125752769918947 0 -0.0018776241293943182 -0.011248999056819045 0 -0.0019048156521500091 -0.01125752769918947 0 -0.0018450547114646199 -0.011222237072474004 0 -0.0049917625033152153 -0.014185669268614439 0 -0.0048187599701898075 -0.014283540550117227 0 -0.0049493236783964088 -0.014250988207212979 0 -0.0037128517076334866 -0.012984646947629233 0 -0.001344845013924705 -0.011496862679452699 0 -0.00051664487937694 -0.010395481076977048 0 -0.001344845013924705 -0.011496862679452699 0 0.00083552975554955771 -0.0095578637537779391 0 0.00082794016219632244 -0.0097189927915256047 0 0.0007260076450586368 -0.0095837155666755255 0 0.00035935949586593383 -0.0098263385450962151 0 0.00092513096336488757 -0.0093355543096269554 0 0.00040094634422921128 -0.009799166564592135 0 0.0007260076450586368 -0.0095837155666755255 0 0.00064669687548336223 -0.0097478589237116834 0 0.00050911717974992524 -0.0093974686230804162 0 0.00062078540105859269 -0.009113324806032011 0 0.00083202653170245217 -0.0092328238940480086 0 0.00082794016219632244 -0.0097189927915256047 0 0.0007260076450586368 -0.0095837155666755255 0 0.00064669687548336223 -0.0097478589237116834 0 0.00061536043790728608 -0.010228598639496036 0 0.00069683026424180721 -0.01024246866418599 0 0.00064330067097437857 -0.010212101917723797 0 -0.001344845013924705 -0.011496862679452699 0 -0.0020750489300223906 -0.012408701009422219 0 -0.001344845013924705 -0.011496862679452699 0 0.0013492109364458629 -0.0094618792193054725 0 0.00040094634422921128 -0.009799166564592135 0 0.00064669687548336223 -0.0097478589237116834 0 0.00061801068863410818 -0.0098854377480650981 0 0.00082794016219632244 -0.0097189927915256047 0 0.00061801068863410818 -0.0098854377480650981 0 0.00064330067097437857 -0.010212101917723797 0 0.00050549399066949325 -0.010012764708459312 0 0.00061801068863410818 -0.0098854377480650981 0 0.00064330067097437857 -0.010212101917723797 0 0.00082794016219632244 -0.0097189927915256047 0 0.00064669687548336223 -0.0097478589237116834 0 0.00061801068863410818 -0.0098854377480650981 0 -0.0048187599701898075 -0.014283540550117227 0 -0.0047246794835031254 -0.014354891356181383 0 -0.0046906099684066865 -0.014442057394680834 0 -0.0048187599701898075 -0.014283540550117227 0 -0.0048505273827975587 -0.01433505626362438 0 -0.0049493236783964088 -0.014250988207212979 0 -0.0048187599701898075 -0.014283540550117227 0 -0.0047246794835031254 -0.014354891356181383 0 -0.0048505273827975587 -0.01433505626362438 0 -0.0047246794835031254 -0.014354891356181383 0 -0.0047669082058987488 -0.01437309429910689 0 -0.0048505273827975587 -0.01433505626362438 0 -0.0047246794835031254 -0.014354891356181383 0 -0.0045980407991421763 -0.014399445575570971 0 -0.0047669082058987488 -0.01437309429910689 0 -0.004434720124475198 -0.014730308603116374 0 -0.0045807539353453618 -0.014437578149407316 0 -0.0047246794835031254 -0.014354891356181383 0 -0.0045980407991421763 -0.014399445575570971 0 -0.0046906099684066865 -0.014442057394680834 0 -0.0038759129440764039 -0.015095342103428824 0 -0.0045980407991421763 -0.014399445575570971 0 -0.0045119845581093523 -0.01464434637371999 0 -0.0049592587395973133 -0.014351631290611162 0 -0.0045980407991421763 -0.014399445575570971 0 -0.0048683832662939864 -0.01436949267883815 0 -0.0045980407991421763 -0.014399445575570971 0 -0.0047669082058987488 -0.01437309429910689 0 -0.0048683832662939864 -0.01436949267883815 0 -0.0045980407991421763 -0.014399445575570971 0 -0.0045119845581093523 -0.01464434637371999 0 -0.0046906099684066865 -0.014442057394680834 0 0.0004552110635329748 -0.010497114902480485 0 0.00069683026424180721 -0.01024246866418599 0 0.00064330067097437857 -0.010212101917723797 0 -0.004928977277450698 -0.014464152026467008 0 -0.004944657583390512 -0.014368767950528511 0 -0.0049255065275287573 -0.014342079681402518 0 -0.004944657583390512 -0.014368767950528511 0 -0.0049420385583136247 -0.014313451018452033 0 -0.0049255065275287573 -0.014342079681402518 0 -0.0049592587395973133 -0.014351631290611162 0 -0.004944657583390512 -0.014368767950528511 0 -0.0048683832662939864 -0.01436949267883815 0 -0.004944657583390512 -0.014368767950528511 0 -0.0048683832662939864 -0.01436949267883815 0 -0.0049420385583136247 -0.014313451018452033 0 -0.0047669082058987488 -0.01437309429910689 0 -0.0048683832662939864 -0.01436949267883815 0 -0.0048505273827975587 -0.01433505626362438 0 -0.0048505273827975587 -0.01433505626362438 0 -0.0049420385583136247 -0.014313451018452033 0 -0.0049493236783964088 -0.014250988207212979 0 -0.0048683832662939864 -0.01436949267883815 0 -0.0048505273827975587 -0.01433505626362438 0 -0.0049420385583136247 -0.014313451018452033 0 -0.0049420385583136247 -0.014313451018452033 0 -0.0049760281424910558 -0.014237886238077233 0 -0.0049493236783964088 -0.014250988207212979 0 -0.0049420385583136247 -0.014313451018452033 0 -0.0049760281424910558 -0.014237886238077233 0 -0.0049255065275287573 -0.014342079681402518 0 -0.0049760281424910558 -0.014237886238077233 0 -0.0049493236783964088 -0.014250988207212979 0 -0.0050148627663299987 -0.014137709731104757 0 -0.0049760281424910558 -0.014237886238077233 0 -0.0050148627663299987 -0.014137709731104757 0 -0.0050103893172823953 -0.014127886823863544 0 -0.0049917625033152153 -0.014185669268614439 0 -0.0049493236783964088 -0.014250988207212979 0 -0.0050148627663299987 -0.014137709731104757 0 -0.0019729640402928951 -0.011310250195759673 0 -0.0019023729563313007 -0.011283951000248198 0 -0.0019048156521500091 -0.01125752769918947 0 -0.0036648674704836018 -0.012855362614086395 0 -0.0037128517076334866 -0.012984646947629233 0 -0.0050855115762227353 -0.013999852080337424 0 -0.0049917625033152153 -0.014185669268614439 0 -0.0050148627663299987 -0.014137709731104757 0 -0.0050461965618300427 -0.013969555444417671 0 -0.0050148627663299987 -0.014137709731104757 0 -0.0050103893172823953 -0.014127886823863544 0 -0.0050461965618300427 -0.013969555444417671 0 -0.0050103893172823953 -0.014127886823863544 0 -0.0050221505862731034 -0.014062840313046433 0 -0.0050103893172823953 -0.014127886823863544 0 -0.0050221505862731034 -0.014062840313046433 0 -0.0049784141318202427 -0.014246132165340548 0 -0.0049760281424910558 -0.014237886238077233 0 -0.0050103893172823953 -0.014127886823863544 0 -0.0049784141318202427 -0.014246132165340548 0 -0.005005383298897088 -0.014164246892054814 0 -0.0049784141318202427 -0.014246132165340548 0 -0.0049731213892311617 -0.014286900878032792 0 -0.0050221505862731034 -0.014062840313046433 0 -0.005005383298897088 -0.014164246892054814 0 -0.0049784141318202427 -0.014246132165340548 0 -0.0050271387016812344 -0.013959039285518865 0 -0.0050221505862731034 -0.014062840313046433 0 -0.005005383298897088 -0.014164246892054814 0 -0.0049835367048960029 -0.013878257894509947 0 -0.0050271387016812344 -0.013959039285518865 0 -0.0050008458327625615 -0.014109942461634512 0 -0.0050271387016812344 -0.013959039285518865 0 -0.0050008458327625615 -0.014109942461634512 0 -0.005005383298897088 -0.014164246892054814 0 -0.0049835367048960029 -0.013878257894509947 0 -0.0050008458327625615 -0.014109942461634512 0 -0.0049086527058582836 -0.014019135791539333 0 -0.0050008458327625615 -0.014109942461634512 0 -0.0050012056967231764 -0.01427916747595275 0 -0.0050203664078460712 -0.01425693788563453 0 -0.0050008458327625615 -0.014109942461634512 0 -0.0049086527058582836 -0.014019135791539333 0 -0.0050203664078460712 -0.01425693788563453 0 -0.005005383298897088 -0.014164246892054814 0 -0.0050012056967231764 -0.01427916747595275 0 -0.0049731213892311617 -0.014286900878032792 0 -0.0050008458327625615 -0.014109942461634512 0 -0.005005383298897088 -0.014164246892054814 0 -0.0050012056967231764 -0.01427916747595275 0 -0.0050012056967231764 -0.01427916747595275 0 -0.0049490651920319805 -0.01437202569306288 0 -0.0049731213892311617 -0.014286900878032792 0 -0.0050012056967231764 -0.01427916747595275 0 -0.0050314103208693364 -0.014382403044953468 0 -0.0049490651920319805 -0.01437202569306288 0 -0.0050012056967231764 -0.01427916747595275 0 -0.0050314103208693364 -0.014382403044953468 0 -0.0050203664078460712 -0.01425693788563453 0 -0.0049490651920319805 -0.01437202569306288 0 -0.0048636927273370961 -0.014438006587213968 0 -0.0049722813910263132 -0.014388408791699175 0 -0.0050314103208693364 -0.014382403044953468 0 -0.0049490651920319805 -0.01437202569306288 0 -0.0049722813910263132 -0.014388408791699175 0 -0.0049490651920319805 -0.01437202569306288 0 -0.0049255065275287573 -0.014342079681402518 0 -0.0048636927273370961 -0.014438006587213968 0 -0.0049490651920319805 -0.01437202569306288 0 -0.0049255065275287573 -0.014342079681402518 0 -0.0049731213892311617 -0.014286900878032792 0 -0.0049760281424910558 -0.014237886238077233 0 -0.0049255065275287573 -0.014342079681402518 0 -0.0049784141318202427 -0.014246132165340548 0 -0.0049255065275287573 -0.014342079681402518 0 -0.0049784141318202427 -0.014246132165340548 0 -0.0049731213892311617 -0.014286900878032792 0 -0.0091607171782866446 -0.0092130650462390572 0 -0.0079153392066384064 -0.0076976603044620609 0 -0.0078712493085597024 -0.0095485053877513697 0 -0.0079153392066384064 -0.0076976603044620609 0 -0.0078712493085597024 -0.0095485053877513697 0 -0.006671957797633815 -0.0091988179398284405 0 -0.0048304878346819066 -0.014191012196503114 0 -0.0048274454920598682 -0.014030639497894241 0 -0.0049842800737759114 -0.014275822473288622 0 -0.0063258894606301385 -0.01062089791484548 0 -0.005744971910206541 -0.01166882466519867 0 -0.0048274454920598682 -0.014030639497894241 0 -0.0049546196735635682 -0.014174872445923277 0 -0.0049842800737759114 -0.014275822473288622 0 -0.0048274454920598682 -0.014030639497894241 0 -0.0049546196735635682 -0.014174872445923277 0 -0.0049086527058582836 -0.014019135791539333 0 -0.0049546196735635682 -0.014174872445923277 0 -0.0049086527058582836 -0.014019135791539333 0 -0.0050203664078460712 -0.01425693788563453 0 -0.0049546196735635682 -0.014174872445923277 0 -0.0050203664078460712 -0.01425693788563453 0 -0.0051222813345332225 -0.014409137732174705 0 -0.0050314103208693364 -0.014382403044953468 0 -0.0050203664078460712 -0.01425693788563453 0 -0.0051222813345332225 -0.014409137732174705 0 -0.0050314103208693364 -0.014382403044953468 0 -0.0051222813345332225 -0.014409137732174705 0 -0.0051321732045066333 -0.014390278586779976 0 -0.0051222813345332225 -0.014409137732174705 0 -0.0053043041969261647 -0.014592096674090444 0 -0.0051321732045066333 -0.014390278586779976 0 -0.0051222813345332225 -0.014409137732174705 0 -0.0053043041969261647 -0.014592096674090444 0 -0.0049842800737759114 -0.014275822473288622 0 -0.0049546196735635682 -0.014174872445923277 0 -0.0051222813345332225 -0.014409137732174705 0 -0.0049842800737759114 -0.014275822473288622 0 -0.0048304878346819066 -0.014191012196503114 0 -0.0049842800737759114 -0.014275822473288622 0 -0.0048886570565574708 -0.014465155328859934 0 -0.0054368555246868426 -0.014606608055533014 0 -0.005256897679536192 -0.01491074626346006 0 -0.0053043041969261647 -0.014592096674090444 0 -0.0049842800737759114 -0.014275822473288622 0 -0.0048886570565574708 -0.014465155328859934 0 -0.0077262861641011699 -0.01235827859784497 0 -0.005256897679536192 -0.01491074626346006 0 -0.0070414752223322023 -0.015309398475527163 0 -0.0068734858021212812 -0.014553089344300722 0 -0.0062126499199520319 -0.015028790213731772 0 -0.0047297744722539677 -0.014377500471369604 0 -0.0048304878346819066 -0.014191012196503114 0 -0.0048886570565574708 -0.014465155328859934 0 -0.0077262861641011699 -0.01235827859784497 0 -0.0063258894606301385 -0.01062089791484548 0 -0.0069935890355588342 -0.013962721837987233 0 -0.0060899618150046034 -0.014220361993813531 0 -0.0065183220069422237 -0.013812474032740083 0 -0.0068734858021212812 -0.014553089344300722 0 -0.0069935890355588342 -0.013962721837987233 0 -0.0060899618150046034 -0.014220361993813531 0 -0.0068734858021212812 -0.014553089344300722 0 -0.0062126499199520319 -0.015028790213731772 0 -0.0060899618150046034 -0.014220361993813531 0 -0.0053043041969261647 -0.014592096674090444 0 -0.0062126499199520319 -0.015028790213731772 0 -0.0060899618150046034 -0.014220361993813531 0 -0.0060899618150046034 -0.014220361993813531 0 -0.005441826565495092 -0.014231916444927309 0 -0.0060246082951362955 -0.013622215822341259 0 -0.0053043041969261647 -0.014592096674090444 0 -0.0060899618150046034 -0.014220361993813531 0 -0.005441826565495092 -0.014231916444927309 0 -0.0053043041969261647 -0.014592096674090444 0 -0.005441826565495092 -0.014231916444927309 0 -0.0051321732045066333 -0.014390278586779976 0 -0.005441826565495092 -0.014231916444927309 0 -0.0051321732045066333 -0.014390278586779976 0 -0.0052234094911854144 -0.013923502101523962 0 -0.0054166110905499183 -0.015069275789914415 0 -0.0053638539445437661 -0.014761960927526076 0 -0.0057671243465310332 -0.014556494742131765 0 -0.0054166110905499183 -0.015069275789914415 0 -0.0060881832065718235 -0.014728208094579922 0 -0.0057671243465310332 -0.014556494742131765 0 -0.005441826565495092 -0.014231916444927309 0 -0.0052234094911854144 -0.013923502101523962 0 -0.0060246082951362955 -0.013622215822341259 0 -0.0053314102198105083 -0.014487667671474275 0 -0.0060380944204658123 -0.014181646187522191 0 -0.0060899618150046034 -0.014220361993813531 0 -0.0060246082951362955 -0.013622215822341259 0 -0.0065183220069422237 -0.013812474032740083 0 -0.0060881832065718235 -0.014728208094579922 0 -0.0067604211109412275 -0.013873057946952091 0 -0.0065343481284181985 -0.013980098984020164 0 -0.0060380944204658123 -0.014181646187522191 0 -0.006679697999435354 -0.013909560931411658 0 -0.0060246082951362955 -0.013622215822341259 0 -0.0067604211109412275 -0.013873057946952091 0 -0.0065183220069422237 -0.013812474032740083 0 -0.0048335541406873865 -0.014579164090040201 0 -0.0049097018081155665 -0.014619379605328251 0 -0.004796647086155327 -0.014576941408632714 0 -0.0048636927273370961 -0.014438006587213968 0 -0.0049009563512035035 -0.014230469921813101 0 -0.004796647086155327 -0.014576941408632714 0 -0.0048608284051630075 -0.015042440864343821 0 -0.0047832229435051093 -0.015000857810205697 0 -0.004928977277450698 -0.014464152026467008 0 -0.0049856754300676275 -0.014647135286326642 0 -0.004796647086155327 -0.014576941408632714 0 -0.0049856754300676275 -0.014647135286326642 0 -0.004796647086155327 -0.014576941408632714 0 -0.0046551338145043621 -0.015053557227431858 0 -0.004928977277450698 -0.014464152026467008 0 -0.0049255065275287573 -0.014342079681402518 0 -0.004796647086155327 -0.014576941408632714 0 -0.0049255065275287573 -0.014342079681402518 0 -0.004796647086155327 -0.014576941408632714 0 -0.0048636927273370961 -0.014438006587213968 0 -0.0048636927273370961 -0.014438006587213968 0 -0.0049722813910263132 -0.014388408791699175 0 -0.0049009563512035035 -0.014230469921813101 0 -0.0051321732045066333 -0.014390278586779976 0 -0.0049722813910263132 -0.014388408791699175 0 -0.0049009563512035035 -0.014230469921813101 0 -0.0050314103208693364 -0.014382403044953468 0 -0.0051321732045066333 -0.014390278586779976 0 -0.0049722813910263132 -0.014388408791699175 0 -0.0051321732045066333 -0.014390278586779976 0 -0.0052234094911854144 -0.013923502101523962 0 -0.0049009563512035035 -0.014230469921813101 0 -0.0048608284051630075 -0.015042440864343821 0 -0.0050197244032810775 -0.014882208686623762 0 -0.0047832229435051093 -0.015000857810205697 0 -0.0053314102198105083 -0.014487667671474275 0 -0.0049097018081155665 -0.014619379605328251 0 -0.0054166110905499183 -0.015069275789914415 0 -0.0048608284051630075 -0.015042440864343821 0 -0.0050197244032810775 -0.014882208686623762 0 -0.0054166110905499183 -0.015069275789914415 0 -0.0053638539445437661 -0.014761960927526076 0 -0.0050197244032810775 -0.014882208686623762 0 -0.0053638539445437661 -0.014761960927526076 0 -0.0050197244032810775 -0.014882208686623762 0 -0.0051335121903348033 -0.014690662415822068 0 -0.0050197244032810775 -0.014882208686623762 0 -0.0047832229435051093 -0.015000857810205697 0 -0.0047534750312310239 -0.01484058477591459 0 -0.0047832229435051093 -0.015000857810205697 0 -0.0046551338145043621 -0.015053557227431858 0 -0.0047534750312310239 -0.01484058477591459 0 -0.004796647086155327 -0.014576941408632714 0 -0.0047832229435051093 -0.015000857810205697 0 -0.0046551338145043621 -0.015053557227431858 0 -0.004526174089538656 -0.014994629945829731 0 -0.0046428215649078047 -0.015039783957795027 0 -0.0041486427332844333 -0.015104547525137173 0 -0.0046551338145043621 -0.015053557227431858 0 -0.0044165504679134467 -0.014847129815057347 0 -0.0046551338145043621 -0.015053557227431858 0 -0.0044165504679134467 -0.014847129815057347 0 -0.0047534750312310239 -0.01484058477591459 0 -0.0044165504679134467 -0.014847129815057347 0 -0.0045325880865772156 -0.014471262426473898 0 -0.0042627613957427358 -0.014584011489213044 0 -0.0044165504679134467 -0.014847129815057347 0 -0.0047534750312310239 -0.01484058477591459 0 -0.0045325880865772156 -0.014471262426473898 0 -0.0048261849315317882 -0.014649379720783003 0 -0.0045448126133849501 -0.014584212446377757 0 -0.0047534750312310239 -0.01484058477591459 0 -0.0048589004315598133 -0.014641137446234137 0 -0.0045325880865772156 -0.014471262426473898 0 -0.0050197244032810775 -0.014882208686623762 0 -0.0047534750312310239 -0.01484058477591459 0 -0.0051335121903348033 -0.014690662415822068 0 -0.0047534750312310239 -0.01484058477591459 0 -0.0051335121903348033 -0.014690662415822068 0 -0.0048589004315598133 -0.014641137446234137 0 -0.0053638539445437661 -0.014761960927526076 0 -0.0051335121903348033 -0.014690662415822068 0 -0.0055266099834757939 -0.01455180599948094 0 -0.0051335121903348033 -0.014690662415822068 0 -0.0053296710000159588 -0.014519919875271533 0 -0.0055266099834757939 -0.01455180599948094 0 -0.0051335121903348033 -0.014690662415822068 0 -0.0048589004315598133 -0.014641137446234137 0 -0.0053296710000159588 -0.014519919875271533 0 -0.0048589004315598133 -0.014641137446234137 0 -0.0053296710000159588 -0.014519919875271533 0 -0.0048139848329670437 -0.014564263756544682 0 -0.0053296710000159588 -0.014519919875271533 0 -0.0052401617631015118 -0.014299951650476435 0 -0.0048139848329670437 -0.014564263756544682 0 -0.0048139848329670437 -0.014564263756544682 0 -0.0045110417380125629 -0.014702032238774415 0 -0.0045924638157268374 -0.014726804801249133 0 -0.0048139848329670437 -0.014564263756544682 0 -0.0045110417380125629 -0.014702032238774415 0 -0.0046868030849242046 -0.014536588933538663 0 -0.0045110417380125629 -0.014702032238774415 0 -0.0045924638157268374 -0.014726804801249133 0 -0.00444546278433809 -0.014776281074151321 0 -0.0045448126133849501 -0.014584212446377757 0 -0.0043552245188221558 -0.01450557400950394 0 -0.0045325880865772156 -0.014471262426473898 0 -0.0041121113309317532 -0.014227755261758658 0 -0.0042627613957427358 -0.014584011489213044 0 -0.0048589004315598133 -0.014641137446234137 0 -0.0048139848329670437 -0.014564263756544682 0 -0.0045924638157268374 -0.014726804801249133 0 -0.0066166259612333161 -0.013869921131883164 0 -0.0063488727631460509 -0.014061036313821801 0 -0.0061975274953304663 -0.014155463526460691 0 -0.0066166259612333161 -0.013869921131883164 0 -0.0063488727631460509 -0.014061036313821801 0 -0.0065343481284181985 -0.013980098984020164 0 -0.0068364814152625051 -0.013770957551002813 0 -0.0067604211109412275 -0.013873057946952091 0 -0.0065343481284181985 -0.013980098984020164 0 -0.0060881832065718235 -0.014728208094579922 0 -0.0065343481284181985 -0.013980098984020164 0 -0.0061561616386287092 -0.014226744606978693 0 -0.0063488727631460509 -0.014061036313821801 0 -0.0065343481284181985 -0.013980098984020164 0 -0.0061561616386287092 -0.014226744606978693 0 -0.0061561616386287092 -0.014226744606978693 0 -0.0061432490897428398 -0.014207208527911772 0 -0.0059100128042299657 -0.014347515152995805 0 -0.0063488727631460509 -0.014061036313821801 0 -0.0061432490897428398 -0.014207208527911772 0 -0.0061975274953304663 -0.014155463526460691 0 -0.0063488727631460509 -0.014061036313821801 0 -0.0061561616386287092 -0.014226744606978693 0 -0.0061432490897428398 -0.014207208527911772 0 -0.0060881832065718235 -0.014728208094579922 0 -0.0061561616386287092 -0.014226744606978693 0 -0.0057671243465310332 -0.014556494742131765 0 -0.0059100128042299657 -0.014347515152995805 0 -0.0057671243465310332 -0.014556494742131765 0 -0.0055266099834757939 -0.01455180599948094 0 -0.0061561616386287092 -0.014226744606978693 0 -0.0059100128042299657 -0.014347515152995805 0 -0.0057671243465310332 -0.014556494742131765 0 -0.0053638539445437661 -0.014761960927526076 0 -0.0057671243465310332 -0.014556494742131765 0 -0.0055266099834757939 -0.01455180599948094 0 -0.0053296710000159588 -0.014519919875271533 0 -0.0059100128042299657 -0.014347515152995805 0 -0.0055266099834757939 -0.01455180599948094 0 -0.0053296710000159588 -0.014519919875271533 0 -0.0059100128042299657 -0.014347515152995805 0 -0.0059700690668858256 -0.014435664971213517 0 -0.0053296710000159588 -0.014519919875271533 0 -0.0052401617631015118 -0.014299951650476435 0 -0.0059700690668858256 -0.014435664971213517 0 -0.0055138910817957134 -0.014722098656876478 0 -0.005902116820403233 -0.014486894468379098 0 -0.0058097490570214946 -0.015174563967743701 0 -0.0059700690668858256 -0.014435664971213517 0 -0.0060238714523580643 -0.01476338504845586 0 -0.0059700690668858256 -0.014435664971213517 0 -0.0061081640396451154 -0.014311136352065504 0 -0.0061219810567220883 -0.014553966532178921 0 -0.0059700690668858256 -0.014435664971213517 0 -0.0061219810567220883 -0.014553966532178921 0 -0.0060238714523580643 -0.01476338504845586 0 -0.0059100128042299657 -0.014347515152995805 0 -0.0059700690668858256 -0.014435664971213517 0 -0.0061081640396451154 -0.014311136352065504 0 -0.0061432490897428398 -0.014207208527911772 0 -0.0061081640396451154 -0.014311136352065504 0 -0.0061975274953304663 -0.014155463526460691 0 -0.0061432490897428398 -0.014207208527911772 0 -0.0059100128042299657 -0.014347515152995805 0 -0.0061081640396451154 -0.014311136352065504 0 -0.0061081640396451154 -0.014311136352065504 0 -0.0061219810567220883 -0.014553966532178921 0 -0.0061975274953304663 -0.014155463526460691 0 -0.0061792572613564517 -0.014483608959374922 0 -0.006449056694652601 -0.014225658219964969 0 -0.0061219810567220883 -0.014553966532178921 0 -0.0066080395188346684 -0.014361992438123887 0 -0.0064472812594108487 -0.014440255257288438 0 -0.0061219810567220883 -0.014553966532178921 0 -0.0066080395188346684 -0.014361992438123887 0 -0.0066975464167796277 -0.014333435056702395 0 -0.0061219810567220883 -0.014553966532178921 0 -0.0064472812594108487 -0.014440255257288438 0 -0.0063261052870687623 -0.014521228791534517 0 -0.0066080395188346684 -0.014361992438123887 0 -0.0064472812594108487 -0.014440255257288438 0 -0.0066092012576705909 -0.014353306205164212 0 -0.0064332159954699278 -0.014457090114092382 0 -0.0066092012576705909 -0.014353306205164212 0 -0.0062698935350781037 -0.014555227793589157 0 -0.0068907948310426717 -0.014204742879879729 0 -0.0066477541477826989 -0.014722965531206136 0 -0.0066713295126156853 -0.014686850860286793 0 -0.0064472812594108487 -0.014440255257288438 0 -0.0064332159954699278 -0.014457090114092382 0 -0.0063261052870687623 -0.014521228791534517 0 -0.0064472812594108487 -0.014440255257288438 0 -0.0064332159954699278 -0.014457090114092382 0 -0.0066092012576705909 -0.014353306205164212 0 -0.0066080395188346684 -0.014361992438123887 0 -0.0066092012576705909 -0.014353306205164212 0 -0.0068049590222775428 -0.01425646559556582 0 -0.0069968122962895674 -0.013856128681530761 0 -0.006449056694652601 -0.014225658219964969 0 -0.0073911966977203321 -0.013860675871539265 0 -0.0068049590222775428 -0.01425646559556582 0 -0.0066975464167796277 -0.014333435056702395 0 -0.0066080395188346684 -0.014361992438123887 0 -0.0068049590222775428 -0.01425646559556582 0 -0.0066975464167796277 -0.014333435056702395 0 -0.0082368952689857982 -0.01455084012060073 0 -0.0085149451669299797 -0.014255536002046461 0 -0.0078899571619847238 -0.014928911063348925 0 -0.0061978193488409772 -0.014824577971365759 0 -0.0062698935350781037 -0.014555227793589157 0 -0.0061502440918950333 -0.014974526367549854 0 -0.0075692866840728866 -0.014475988268724675 0 -0.0073487501019064531 -0.015014001724409618 0 -0.0065239784547194129 -0.014623427845594665 0 -0.0065260618111817308 -0.015070754948226309 0 -0.0066477541477826989 -0.014722965531206136 0 -0.0066713295126156853 -0.014686850860286793 0 -0.0068921783616437988 -0.015224311368155522 0 -0.0066477541477826989 -0.014722965531206136 0 -0.0068921783616437988 -0.015224311368155522 0 -0.0068799003448460055 -0.015228011461984395 0 -0.0081493442085455257 -0.014646804247162162 0 -0.0082368952689857982 -0.01455084012060073 0 -0.0080000372808424723 -0.014804515567528612 0 -0.0081493442085455257 -0.014646804247162162 0 -0.008169654887597284 -0.014623760419846274 0 -0.0082471557009557977 -0.014529013583075144 0 -0.0081493442085455257 -0.014646804247162162 0 -0.008169654887597284 -0.014623760419846274 0 -0.0080820389209900582 -0.014721810110839889 0 -0.0080923627808772627 -0.014719444608248729 0 -0.008169654887597284 -0.014623760419846274 0 -0.0080820389209900582 -0.014721810110839889 0 -0.0081493442085455257 -0.014646804247162162 0 -0.0080820389209900582 -0.014721810110839889 0 -0.0080000372808424723 -0.014804515567528612 0 -0.0082368952689857982 -0.01455084012060073 0 -0.0078899571619847238 -0.014928911063348925 0 -0.0080000372808424723 -0.014804515567528612 0 -0.0061978193488409772 -0.014824577971365759 0 -0.0062311407046037647 -0.014715857648248421 0 -0.0062481076534075999 -0.01465294236422655 0 -0.0061978193488409772 -0.014824577971365759 0 -0.0062153732573628434 -0.014772228713851249 0 -0.0062094518592584668 -0.01480317757214447 0 -0.0061978193488409772 -0.014824577971365759 0 -0.0062153732573628434 -0.014772228713851249 0 -0.0062311407046037647 -0.014715857648248421 0 -0.0062153732573628434 -0.014772228713851249 0 -0.0062236923894096923 -0.014745564353285915 0 -0.0062094518592584668 -0.01480317757214447 0 -0.0062236923894096923 -0.014745564353285915 0 -0.006247404338308323 -0.014679857613577301 0 -0.0062204456085288235 -0.014742366325220517 0 -0.0062236923894096923 -0.014745564353285915 0 -0.0062311407046037647 -0.014715857648248421 0 -0.006247404338308323 -0.014679857613577301 0 -0.0062153732573628434 -0.014772228713851249 0 -0.0062236923894096923 -0.014745564353285915 0 -0.0062311407046037647 -0.014715857648248421 0 -0.0081493442085455257 -0.014646804247162162 0 -0.0082368952689857982 -0.01455084012060073 0 -0.0082471557009557977 -0.014529013583075144 0 -0.0082368952689857982 -0.01455084012060073 0 -0.0082471557009557977 -0.014529013583075144 0 -0.0083282413976519462 -0.014439484718589338 0 -0.0082368952689857982 -0.01455084012060073 0 -0.0083282413976519462 -0.014439484718589338 0 -0.0083952472099692345 -0.014366414280904623 0 -0.0083209535480434308 -0.014422605943931844 0 -0.0082471557009557977 -0.014529013583075144 0 -0.0083282413976519462 -0.014439484718589338 0 -0.0083209535480434308 -0.014422605943931844 0 -0.0083282413976519462 -0.014439484718589338 0 -0.0083952472099692345 -0.014366414280904623 0 -0.0061978193488409772 -0.014824577971365759 0 -0.0062698935350781037 -0.014555227793589157 0 -0.0062481076534075999 -0.01465294236422655 0 -0.0083867351858474635 -0.014331563796036107 0 -0.0083209535480434308 -0.014422605943931844 0 -0.0083952472099692345 -0.014366414280904623 0 -0.0082368952689857982 -0.01455084012060073 0 -0.0083952472099692345 -0.014366414280904623 0 -0.0085149451669299797 -0.014255536002046461 0 -0.0083867351858474635 -0.014331563796036107 0 -0.0083952472099692345 -0.014366414280904623 0 -0.0084424655990303563 -0.014272193492846974 0 -0.0062698935350781037 -0.014555227793589157 0 -0.0062885203958387174 -0.01458946486598702 0 -0.0062481076534075999 -0.01465294236422655 0 -0.0083952472099692345 -0.014366414280904623 0 -0.0084424655990303563 -0.014272193492846974 0 -0.0085149451669299797 -0.014255536002046461 0 -0.008446806470143715 -0.014211836031982179 0 -0.0084424655990303563 -0.014272193492846974 0 -0.0084751314260171559 -0.014225365664908398 0 -0.0084424655990303563 -0.014272193492846974 0 -0.0085149451669299797 -0.014255536002046461 0 -0.0084751314260171559 -0.014225365664908398 0 -0.0064332159954699278 -0.014457090114092382 0 -0.0062698935350781037 -0.014555227793589157 0 -0.0063386331813884535 -0.01452236082334054 0 -0.0084456965562730302 -0.014082607385405231 0 -0.0085149451669299797 -0.014255536002046461 0 -0.0084751314260171559 -0.014225365664908398 0 -0.0062698935350781037 -0.014555227793589157 0 -0.0063113413325816209 -0.014548039164477736 0 -0.0062885203958387174 -0.01458946486598702 0 -0.0062698935350781037 -0.014555227793589157 0 -0.0063113413325816209 -0.014548039164477736 0 -0.0063386331813884535 -0.01452236082334054 0 -0.0064332159954699278 -0.014457090114092382 0 -0.0063386331813884535 -0.01452236082334054 0 -0.0063309863864607178 -0.014533269098008778 0 -0.0064332159954699278 -0.014457090114092382 0 -0.0063261052870687623 -0.014521228791534517 0 -0.0063309863864607178 -0.014533269098008778 0 -0.0063309863864607178 -0.014533269098008778 0 -0.0062821389950950181 -0.014607480975037355 0 -0.0062885203958387174 -0.01458946486598702 0 -0.0063113413325816209 -0.014548039164477736 0 -0.0063309863864607178 -0.014533269098008778 0 -0.0062885203958387174 -0.01458946486598702 0 -0.0063113413325816209 -0.014548039164477736 0 -0.0063386331813884535 -0.01452236082334054 0 -0.0063309863864607178 -0.014533269098008778 0 -0.0063261052870687623 -0.014521228791534517 0 -0.0063309863864607178 -0.014533269098008778 0 -0.0062821389950950181 -0.014607480975037355 0 -0.0062821389950950181 -0.014607480975037355 0 -0.006247404338308323 -0.014679857613577301 0 -0.0062320797703242182 -0.01468312195794654 0 -0.0062821389950950181 -0.014607480975037355 0 -0.006266615722619058 -0.01463237345287937 0 -0.006247404338308323 -0.014679857613577301 0 -0.0062821389950950181 -0.014607480975037355 0 -0.0062885203958387174 -0.01458946486598702 0 -0.006266615722619058 -0.01463237345287937 0 -0.0062885203958387174 -0.01458946486598702 0 -0.006266615722619058 -0.01463237345287937 0 -0.0062481076534075999 -0.01465294236422655 0 -0.0062311407046037647 -0.014715857648248421 0 -0.0062481076534075999 -0.01465294236422655 0 -0.006247404338308323 -0.014679857613577301 0 -0.006266615722619058 -0.01463237345287937 0 -0.0062481076534075999 -0.01465294236422655 0 -0.006247404338308323 -0.014679857613577301 0 -0.006247404338308323 -0.014679857613577301 0 -0.0062320797703242182 -0.01468312195794654 0 -0.0062204456085288235 -0.014742366325220517 0 -0.0061219810567220883 -0.014553966532178921 0 -0.0061868850765228649 -0.014647266716801919 0 -0.0060238714523580643 -0.01476338504845586 0 -0.0062320797703242182 -0.01468312195794654 0 -0.0061868850765228649 -0.014647266716801919 0 -0.006202700547775733 -0.014771298656917942 0 -0.0062821389950950181 -0.014607480975037355 0 -0.0062320797703242182 -0.01468312195794654 0 -0.0061868850765228649 -0.014647266716801919 0 -0.0062320797703242182 -0.01468312195794654 0 -0.006202700547775733 -0.014771298656917942 0 -0.0062204456085288235 -0.014742366325220517 0 -0.0061219810567220883 -0.014553966532178921 0 -0.0063261052870687623 -0.014521228791534517 0 -0.0061868850765228649 -0.014647266716801919 0 -0.0063261052870687623 -0.014521228791534517 0 -0.0062821389950950181 -0.014607480975037355 0 -0.0061868850765228649 -0.014647266716801919 0 -0.0061868850765228649 -0.014647266716801919 0 -0.006202700547775733 -0.014771298656917942 0 -0.006124657530038065 -0.014865919995381553 0 -0.006182739137304296 -0.014855931037736757 0 -0.0061922360607818494 -0.014938086022920703 0 -0.006124657530038065 -0.014865919995381553 0 -0.006182739137304296 -0.014855931037736757 0 -0.006202700547775733 -0.014771298656917942 0 -0.0062011190653915296 -0.014867196208063701 0 -0.006182739137304296 -0.014855931037736757 0 -0.006202700547775733 -0.014771298656917942 0 -0.006124657530038065 -0.014865919995381553 0 -0.006202700547775733 -0.014771298656917942 0 -0.0062094518592584668 -0.01480317757214447 0 -0.0062011190653915296 -0.014867196208063701 0 -0.006202700547775733 -0.014771298656917942 0 -0.0062204456085288235 -0.014742366325220517 0 -0.0062094518592584668 -0.01480317757214447 0 -0.0062236923894096923 -0.014745564353285915 0 -0.0062204456085288235 -0.014742366325220517 0 -0.0062094518592584668 -0.01480317757214447 0 -0.0061978193488409772 -0.014824577971365759 0 -0.0061944017788666894 -0.014870502415966063 0 -0.0061502440918950333 -0.014974526367549854 0 -0.0061978193488409772 -0.014824577971365759 0 -0.0062094518592584668 -0.01480317757214447 0 -0.0061944017788666894 -0.014870502415966063 0 -0.0062094518592584668 -0.01480317757214447 0 -0.0062011190653915296 -0.014867196208063701 0 -0.0061944017788666894 -0.014870502415966063 0 -0.0061944017788666894 -0.014870502415966063 0 -0.0061935635507543085 -0.014907834256275097 0 -0.0061502440918950333 -0.014974526367549854 0 -0.0062011190653915296 -0.014867196208063701 0 -0.0061935635507543085 -0.014907834256275097 0 -0.0062143202081608459 -0.014941487852018043 0 -0.0062011190653915296 -0.014867196208063701 0 -0.0061944017788666894 -0.014870502415966063 0 -0.0061935635507543085 -0.014907834256275097 0 -0.0062011190653915296 -0.014867196208063701 0 -0.0061922360607818494 -0.014938086022920703 0 -0.0062143202081608459 -0.014941487852018043 0 -0.006182739137304296 -0.014855931037736757 0 -0.0062011190653915296 -0.014867196208063701 0 -0.0061922360607818494 -0.014938086022920703 0 -0.006124657530038065 -0.014865919995381553 0 -0.0059778213584273029 -0.014976325604512238 0 -0.0060356894829587072 -0.015041712916963398 0 -0.0061922360607818494 -0.014938086022920703 0 -0.006124657530038065 -0.014865919995381553 0 -0.0060356894829587072 -0.015041712916963398 0 -0.0061868850765228649 -0.014647266716801919 0 -0.006124657530038065 -0.014865919995381553 0 -0.0060238714523580643 -0.01476338504845586 0 -0.006124657530038065 -0.014865919995381553 0 -0.0060238714523580643 -0.01476338504845586 0 -0.0059778213584273029 -0.014976325604512238 0 -0.0058097490570214946 -0.015174563967743701 0 -0.0060238714523580643 -0.01476338504845586 0 -0.0059778213584273029 -0.014976325604512238 0 -0.0058097490570214946 -0.015174563967743701 0 -0.0059778213584273029 -0.014976325604512238 0 -0.0057183005238666575 -0.015132379887560098 0 -0.0060356894829587072 -0.015041712916963398 0 -0.0057183005238666575 -0.015132379887560098 0 -0.0055042709051636675 -0.015102379375739083 0 -0.0059778213584273029 -0.014976325604512238 0 -0.0060356894829587072 -0.015041712916963398 0 -0.0057183005238666575 -0.015132379887560098 0 -0.0060554372015780619 -0.015058573979003356 0 -0.0060356894829587072 -0.015041712916963398 0 -0.0055042709051636675 -0.015102379375739083 0 -0.005835712588917426 -0.014999655750815738 0 -0.0060554372015780619 -0.015058573979003356 0 -0.0055042709051636675 -0.015102379375739083 0 -0.005835712588917426 -0.014999655750815738 0 -0.0060554372015780619 -0.015058573979003356 0 -0.0066669441566870073 -0.014999829271010892 0 -0.0060554372015780619 -0.015058573979003356 0 -0.0063061612559658121 -0.015026214063337626 0 -0.0066669441566870073 -0.014999829271010892 0 -0.0060554372015780619 -0.015058573979003356 0 -0.0060356894829587072 -0.015041712916963398 0 -0.0063061612559658121 -0.015026214063337626 0 -0.0061922360607818494 -0.014938086022920703 0 -0.0060356894829587072 -0.015041712916963398 0 -0.0063061612559658121 -0.015026214063337626 0 -0.0068921783616437988 -0.015224311368155522 0 -0.0067739773151289815 -0.014999707705774057 0 -0.0068799003448460055 -0.015228011461984395 0 -0.0061922360607818494 -0.014938086022920703 0 -0.0062143202081608459 -0.014941487852018043 0 -0.0063061612559658121 -0.015026214063337626 0 -0.0062143202081608459 -0.014941487852018043 0 -0.0061502440918950333 -0.014974526367549854 0 -0.0063061612559658121 -0.015026214063337626 0 -0.0061935635507543085 -0.014907834256275097 0 -0.0062143202081608459 -0.014941487852018043 0 -0.0061502440918950333 -0.014974526367549854 0 -0.0061502440918950333 -0.014974526367549854 0 -0.0063061612559658121 -0.015026214063337626 0 -0.0066669441566870073 -0.014999829271010892 0 -0.0067751305443625323 -0.014999849980805592 0 -0.0073487501019064531 -0.015014001724409618 0 -0.0068921783616437988 -0.015224311368155522 0 -0.0067739773151289815 -0.014999707705774057 0 -0.0066692522276811782 -0.015000269027238779 0 -0.0065260618111817308 -0.015070754948226309 0 -0.0066681572920478842 -0.014999938863632335 0 -0.007526325358241122 -0.014999535509398228 0 -0.0067760211680502717 -0.014999898117069461 0 -0.0076417803110545622 -0.014958874178026561 0 -0.0079090844630154734 -0.014886852256593731 0 -0.007526325358241122 -0.014999535509398228 0 -0.0076417803110545622 -0.014958874178026561 0 -0.0067760211680502717 -0.014999898117069461 0 -0.0076417803110545622 -0.014958874178026561 0 -0.0078899571619847238 -0.014928911063348925 0 -0.0079090844630154734 -0.014886852256593731 0 -0.0076417803110545622 -0.014958874178026561 0 -0.0078703444981665285 -0.014896360099783346 0 -0.0076417803110545622 -0.014958874178026561 0 -0.0078899571619847238 -0.014928911063348925 0 -0.0078703444981665285 -0.014896360099783346 0 -0.0078899571619847238 -0.014928911063348925 0 -0.0080000372808424723 -0.014804515567528612 0 -0.0078703444981665285 -0.014896360099783346 0 -0.0079090844630154734 -0.014886852256593731 0 -0.0079854451201604604 -0.014815495140950388 0 -0.0078703444981665285 -0.014896360099783346 0 -0.0080820389209900582 -0.014721810110839889 0 -0.0080000372808424723 -0.014804515567528612 0 -0.0079854451201604604 -0.014815495140950388 0 -0.0080923627808772627 -0.014719444608248729 0 -0.0080820389209900582 -0.014721810110839889 0 -0.0079854451201604604 -0.014815495140950388 0 -0.0080000372808424723 -0.014804515567528612 0 -0.0079854451201604604 -0.014815495140950388 0 -0.0078703444981665285 -0.014896360099783346 0 -0.0043445373780772118 -0.015051941177123229 0 -0.0050738630337761256 -0.015368347787278507 0 -0.0046600282408945769 -0.015092918437438372 0 -0.0044130618681986027 -0.015029201113268007 0 -0.004891111265796555 -0.014953382795986998 0 -0.0045110417380125629 -0.014702032238774415 0 -0.0043445373780772118 -0.015051941177123229 0 -0.0044187719009667527 -0.014828848270278508 0 -0.0045110417380125629 -0.014702032238774415 0 -0.0043445373780772118 -0.015051941177123229 0 -0.0046868030849242046 -0.014536588933538663 0 -0.0052401617631015118 -0.014299951650476435 0 -0.0048139848329670437 -0.014564263756544682 0 -0.0046868030849242046 -0.014536588933538663 0 -0.0055138910817957134 -0.014722098656876478 0 -0.004891111265796555 -0.014953382795986998 0 -0.0058097490570214946 -0.015174563967743701 0 -0.0050738630337761256 -0.015368347787278507 0 -0.0057183005238666575 -0.015132379887560098 0 -0.0050738630337761256 -0.015368347787278507 0 -0.0057183005238666575 -0.015132379887560098 0 -0.0055042709051636675 -0.015102379375739083 0 -0.0050738630337761256 -0.015368347787278507 0 -0.0055042709051636675 -0.015102379375739083 0 -0.0046600282408945769 -0.015092918437438372 0 -0.005835712588917426 -0.014999655750815738 0 -0.0055042709051636675 -0.015102379375739083 0 -0.0050027990178371637 -0.014999645554386869 0 -0.0055042709051636675 -0.015102379375739083 0 -0.0050027990178371637 -0.014999645554386869 0 -0.0046600282408945769 -0.015092918437438372 0 -0.0050027990178371637 -0.014999645554386869 0 -0.0046600282408945769 -0.015092918437438372 0 -0.0041698711934397828 -0.014999686447266805 0 -0.0043445373780772118 -0.015051941177123229 0 -0.0046600282408945769 -0.015092918437438372 0 -0.0040439019163407419 -0.015109605974752695 0 -0.0040439019163407419 -0.015109605974752695 0 -0.0041698711934397828 -0.014999686447266805 0 -0.0033386595402050507 -0.014999861895965052 0 -0.0046600282408945769 -0.015092918437438372 0 -0.0040439019163407419 -0.015109605974752695 0 -0.0041698711934397828 -0.014999686447266805 0 -0.0040439019163407419 -0.015109605974752695 0 -0.0033386595402050507 -0.014999861895965052 0 -0.0040533325793156863 -0.015077990191585981 0 -0.0033371301345203309 -0.014999826298440893 0 -0.0034190129928337813 -0.01502504762631585 0 -0.0033359161837574454 -0.014999597143521929 0 -0.0027812469399589469 -0.015126040545411947 0 -0.0025264934602069822 -0.015000000275554494 0 -0.0043445373780772118 -0.015051941177123229 0 -0.0040439019163407419 -0.015109605974752695 0 -0.0040533325793156863 -0.015077990191585981 0 -0.0025264934602069822 -0.015000000275554494 0 -0.0022845587098323434 -0.01518363061566463 0 -0.0017158046153914136 -0.01499965924856636 0 -0.0025264934602069822 -0.015000000275554494 0 -0.0025278885381115473 -0.015022898505755441 0 -0.0022845587098323434 -0.01518363061566463 0 -0.0027812469399589469 -0.015126040545411947 0 -0.0025264934602069822 -0.015000000275554494 0 -0.0025278885381115473 -0.015022898505755441 0 -0.0025278885381115473 -0.015022898505755441 0 -0.0022845587098323434 -0.01518363061566463 0 -0.0024614980520153091 -0.014773253547582136 0 -0.0025278885381115473 -0.015022898505755441 0 -0.0024614980520153091 -0.014773253547582136 0 -0.0025785869085403266 -0.014756355398331722 0 -0.0024614980520153091 -0.014773253547582136 0 -0.0025785869085403266 -0.014756355398331722 0 -0.0025552235186619031 -0.014488933718822565 0 -0.0025278885381115473 -0.015022898505755441 0 -0.0026428390756532993 -0.014720828610206339 0 -0.0025264089278439401 -0.014849778576998292 0 -0.0025278885381115473 -0.015022898505755441 0 -0.0025785869085403266 -0.014756355398331722 0 -0.0026428390756532993 -0.014720828610206339 0 -0.0026428390756532993 -0.014720828610206339 0 -0.0026024515204525591 -0.014417776626569621 0 -0.0028195528399137556 -0.01448012910549251 0 -0.0026428390756532993 -0.014720828610206339 0 -0.0027121438307235999 -0.014543382045329015 0 -0.0028195528399137556 -0.01448012910549251 0 -0.0025785869085403266 -0.014756355398331722 0 -0.0026428390756532993 -0.014720828610206339 0 -0.0027121438307235999 -0.014543382045329015 0 -0.0027121438307235999 -0.014543382045329015 0 -0.0026752612460169559 -0.014446306414505363 0 -0.0025552235186619031 -0.014488933718822565 0 -0.0025785869085403266 -0.014756355398331722 0 -0.0027121438307235999 -0.014543382045329015 0 -0.0025552235186619031 -0.014488933718822565 0 -0.0043445373780772118 -0.015051941177123229 0 -0.0040533325793156863 -0.015077990191585981 0 -0.0043405978115383069 -0.014934146129520697 0 -0.0043445373780772118 -0.015051941177123229 0 -0.0043405978115383069 -0.014934146129520697 0 -0.0044187719009667527 -0.014828848270278508 0 -0.0034190129928337813 -0.01502504762631585 0 -0.0034466004428939799 -0.01489453099509056 0 -0.0027812469399589469 -0.015126040545411947 0 -0.0025278885381115473 -0.015022898505755441 0 -0.0025264089278439401 -0.014849778576998292 0 -0.0026428390756532993 -0.014720828610206339 0 -0.0025264089278439401 -0.014849778576998292 0 -0.0026024515204525591 -0.014417776626569621 0 -0.0034466004428939799 -0.01489453099509056 0 -0.0034544333732577062 -0.014554608625720094 0 -0.0043405978115383069 -0.014934146129520697 0 -0.0044187719009667527 -0.014828848270278508 0 -0.0044270078853674809 -0.014822875866102673 0 -0.0044187719009667527 -0.014828848270278508 0 -0.00444546278433809 -0.014776281074151321 0 -0.0044270078853674809 -0.014822875866102673 0 -0.0045110417380125629 -0.014702032238774415 0 -0.0044187719009667527 -0.014828848270278508 0 -0.00444546278433809 -0.014776281074151321 0 -0.0041121113309317532 -0.014227755261758658 0 -0.003949120143640697 -0.014702625978133944 0 -0.0042627613957427358 -0.014584011489213044 0 -0.0041121113309317532 -0.014227755261758658 0 -0.0034775334232941403 -0.013939353524989165 0 -0.0033534376791940247 -0.01452123039870809 0 -0.0034544333732577062 -0.014554608625720094 0 -0.003317711606754098 -0.014401235494839935 0 -0.0041121113309317532 -0.014227755261758658 0 -0.0033534376791940247 -0.01452123039870809 0 -0.003949120143640697 -0.014702625978133944 0 -0.0043552245188221558 -0.01450557400950394 0 -0.0034544333732577062 -0.014554608625720094 0 -0.0030471341703929172 -0.014456983003836988 0 -0.0028195528399137556 -0.01448012910549251 0 -0.0030263558170388971 -0.014480875139963588 0 -0.0034544333732577062 -0.014554608625720094 0 -0.0027713878386007528 -0.014375732453422644 0 -0.0030471341703929172 -0.014456983003836988 0 -0.0030263558170388971 -0.014480875139963588 0 -0.0033534376791940247 -0.01452123039870809 0 -0.0028195528399137556 -0.01448012910549251 0 -0.0030263558170388971 -0.014480875139963588 0 -0.0028405086663354389 -0.014468937980638027 0 -0.0028405086663354389 -0.014468937980638027 0 -0.0027376058146453362 -0.014495540923614368 0 -0.0026752612460169559 -0.014446306414505363 0 -0.0027121438307235999 -0.014543382045329015 0 -0.0028405086663354389 -0.014468937980638027 0 -0.0026752612460169559 -0.014446306414505363 0 -0.0027121438307235999 -0.014543382045329015 0 -0.0028195528399137556 -0.01448012910549251 0 -0.0028405086663354389 -0.014468937980638027 0 -0.0030263558170388971 -0.014480875139963588 0 -0.0028405086663354389 -0.014468937980638027 0 -0.0029782639763776485 -0.014585109281464724 0 -0.0028405086663354389 -0.014468937980638027 0 -0.0029782639763776485 -0.014585109281464724 0 -0.0027376058146453362 -0.014495540923614368 0 -0.0029782639763776485 -0.014585109281464724 0 -0.0027212829912046333 -0.014608531262427261 0 -0.0027376058146453362 -0.014495540923614368 0 -0.0029782639763776485 -0.014585109281464724 0 -0.0028745966170659726 -0.014712224707502145 0 -0.0027212829912046333 -0.014608531262427261 0 -0.0029782639763776485 -0.014585109281464724 0 -0.0028745966170659726 -0.014712224707502145 0 -0.0030298795959164942 -0.01477662112335053 0 -0.0029782639763776485 -0.014585109281464724 0 -0.0033534376791940247 -0.01452123039870809 0 -0.0032177539604454496 -0.014764291309421558 0 -0.0030263558170388971 -0.014480875139963588 0 -0.0029782639763776485 -0.014585109281464724 0 -0.0033534376791940247 -0.01452123039870809 0 -0.0033534376791940247 -0.01452123039870809 0 -0.0035064736781125188 -0.014778916963207473 0 -0.0032177539604454496 -0.014764291309421558 0 -0.0035064736781125188 -0.014778916963207473 0 -0.0032177539604454496 -0.014764291309421558 0 -0.0033330216534270358 -0.014940683665740188 0 -0.0035064736781125188 -0.014778916963207473 0 -0.0033330216534270358 -0.014940683665740188 0 -0.0035626308779873762 -0.014991621937526354 0 -0.0028745966170659726 -0.014712224707502145 0 -0.0030298795959164942 -0.01477662112335053 0 -0.002921578685368503 -0.01492714495394333 0 -0.0032177539604454496 -0.014764291309421558 0 -0.0030298795959164942 -0.01477662112335053 0 -0.0031343808668239273 -0.014930999393255153 0 -0.0029782639763776485 -0.014585109281464724 0 -0.0032177539604454496 -0.014764291309421558 0 -0.0030298795959164942 -0.01477662112335053 0 -0.0032177539604454496 -0.014764291309421558 0 -0.0033330216534270358 -0.014940683665740188 0 -0.0031343808668239273 -0.014930999393255153 0 -0.0031343808668239273 -0.014930999393255153 0 -0.002921578685368503 -0.01492714495394333 0 -0.0030356106543289402 -0.015088165223988053 0 -0.0030298795959164942 -0.01477662112335053 0 -0.0031343808668239273 -0.014930999393255153 0 -0.002921578685368503 -0.01492714495394333 0 -0.0030356106543289402 -0.015088165223988053 0 -0.0032516529686192285 -0.015081120858179975 0 -0.0031617199459402692 -0.015236688904851295 0 -0.0031343808668239273 -0.014930999393255153 0 -0.0030356106543289402 -0.015088165223988053 0 -0.0032516529686192285 -0.015081120858179975 0 -0.0033330216534270358 -0.014940683665740188 0 -0.0031343808668239273 -0.014930999393255153 0 -0.0032516529686192285 -0.015081120858179975 0 -0.0032516529686192285 -0.015081120858179975 0 -0.0034277502124655502 -0.015213785224343232 0 -0.0031617199459402692 -0.015236688904851295 0 -0.0032516529686192285 -0.015081120858179975 0 -0.0034277502124655502 -0.015213785224343232 0 -0.0034523034431388202 -0.015083158338754314 0 -0.0030356106543289402 -0.015088165223988053 0 -0.0031617199459402692 -0.015236688904851295 0 -0.0029439523177704438 -0.015253175847122704 0 -0.0033330216534270358 -0.014940683665740188 0 -0.0035626308779873762 -0.014991621937526354 0 -0.0034523034431388202 -0.015083158338754314 0 -0.0033330216534270358 -0.014940683665740188 0 -0.0032516529686192285 -0.015081120858179975 0 -0.0034523034431388202 -0.015083158338754314 0 -0.0034277502124655502 -0.015213785224343232 0 -0.0034523034431388202 -0.015083158338754314 0 -0.0036466834480192831 -0.015171098558693454 0 -0.0035626308779873762 -0.014991621937526354 0 -0.0034523034431388202 -0.015083158338754314 0 -0.0036466834480192831 -0.015171098558693454 0 -0.0035626308779873762 -0.014991621937526354 0 -0.0036466834480192831 -0.015171098558693454 0 -0.0038782684081982688 -0.014992727384665503 0 -0.0038642251313387478 -0.015183187244762907 0 -0.0036466834480192831 -0.015171098558693454 0 -0.0038782684081982688 -0.014992727384665503 0 -0.0035064736781125188 -0.014778916963207473 0 -0.0035626308779873762 -0.014991621937526354 0 -0.0038782684081982688 -0.014992727384665503 0 -0.0041486427332844333 -0.015104547525137173 0 -0.0044165504679134467 -0.014847129815057347 0 -0.0038782684081982688 -0.014992727384665503 0 -0.0044165504679134467 -0.014847129815057347 0 -0.0038782684081982688 -0.014992727384665503 0 -0.003949120143640697 -0.014702625978133944 0 -0.0044165504679134467 -0.014847129815057347 0 -0.003949120143640697 -0.014702625978133944 0 -0.0042627613957427358 -0.014584011489213044 0 -0.0035064736781125188 -0.014778916963207473 0 -0.0038782684081982688 -0.014992727384665503 0 -0.003949120143640697 -0.014702625978133944 0 -0.0033534376791940247 -0.01452123039870809 0 -0.0035064736781125188 -0.014778916963207473 0 -0.003949120143640697 -0.014702625978133944 0 -1.6303405419564853e-07 -0.015896118449653742 0 -0.00022793978495912567 -0.015469189046581911 0 0.00047498239237688493 -0.01584626879723311 0 -0.0015701187796556015 -0.015458905550961162 0 -0.0020929360452757108 -0.014807224671680939 0 -0.0017170560837511985 -0.014616641331486839 0 -0.0015701187796556015 -0.015458905550961162 0 -0.0023783321120765602 -0.014997682842520029 0 -0.0020929360452757108 -0.014807224671680939 0 -0.0015701187796556015 -0.015458905550961162 0 -0.0017170560837511985 -0.014616641331486839 0 -0.00083636972126082125 -0.014553897443737383 0 -0.00084942703853519222 -0.015443249171078902 0 9.9962128144266942e-05 -0.01501249456976844 0 -0.0015701187796556015 -0.015458905550961162 0 -0.00083636972126082125 -0.014553897443737383 0 0.00013463788127197868 -0.015010090189234888 0 -1.6303405419564853e-07 -0.015896118449653742 0 -0.00024583484858439308 -0.015741323552671233 0 -0.00022793978495912567 -0.015469189046581911 0 -0.00084942703853519222 -0.015443249171078902 0 -0.0013981085882836923 -0.015539511209571925 0 -0.00024583484858439308 -0.015741323552671233 0 -0.00022793978495912567 -0.015469189046581911 0 -0.00035512766199256157 -0.015700078358116668 0 -0.0015701187796556015 -0.015458905550961162 0 -0.0024261737657380938 -0.015469943742971915 0 -0.0023783321120765602 -0.014997682842520029 0 -0.0024261737657380938 -0.015469943742971915 0 -0.0025890077391344424 -0.015161561478524163 0 -0.0023783321120765602 -0.014997682842520029 0 -0.001690401888028818 -0.015468641240789087 0 -0.0013981085882836923 -0.015539511209571925 0 -0.0026508221889347283 -0.015486443888337656 0 -0.0024261737657380938 -0.015469943742971915 0 -0.0026865366348399304 -0.015306437381145791 0 -0.0024261737657380938 -0.015469943742971915 0 -0.0026865366348399304 -0.015306437381145791 0 -0.0025890077391344424 -0.015161561478524163 0 -0.0026865366348399304 -0.015306437381145791 0 -0.0025890077391344424 -0.015161561478524163 0 -0.0028155660852977413 -0.015107632167861753 0 -0.0030356106543289402 -0.015088165223988053 0 -0.0029439523177704438 -0.015253175847122704 0 -0.0028155660852977413 -0.015107632167861753 0 -0.0029439523177704438 -0.015253175847122704 0 -0.0026865366348399304 -0.015306437381145791 0 -0.0028155660852977413 -0.015107632167861753 0 -0.002921578685368503 -0.01492714495394333 0 -0.0030356106543289402 -0.015088165223988053 0 -0.0028155660852977413 -0.015107632167861753 0 -0.002921578685368503 -0.01492714495394333 0 -0.0028155660852977413 -0.015107632167861753 0 -0.0026961922072377183 -0.014940161957471229 0 -0.0025890077391344424 -0.015161561478524163 0 -0.0028155660852977413 -0.015107632167861753 0 -0.0026961922072377183 -0.014940161957471229 0 -0.0025890077391344424 -0.015161561478524163 0 -0.0026961922072377183 -0.014940161957471229 0 -0.0023783321120765602 -0.014997682842520029 0 -0.0026961922072377183 -0.014940161957471229 0 -0.0023783321120765602 -0.014997682842520029 0 -0.0026447018461122612 -0.01476357403563601 0 -0.0028745966170659726 -0.014712224707502145 0 -0.0026961922072377183 -0.014940161957471229 0 -0.0026447018461122612 -0.01476357403563601 0 -0.0028745966170659726 -0.014712224707502145 0 -0.002921578685368503 -0.01492714495394333 0 -0.0026961922072377183 -0.014940161957471229 0 -0.0023783321120765602 -0.014997682842520029 0 -0.0020929360452757108 -0.014807224671680939 0 -0.002461736048607241 -0.01465237338039998 0 -0.0023783321120765602 -0.014997682842520029 0 -0.002461736048607241 -0.01465237338039998 0 -0.0026447018461122612 -0.01476357403563601 0 -0.0020929360452757108 -0.014807224671680939 0 -0.002461736048607241 -0.01465237338039998 0 -0.0022347182867567292 -0.014538456943080697 0 -0.002461736048607241 -0.01465237338039998 0 -0.0022347182867567292 -0.014538456943080697 0 -0.0025544482205345749 -0.014514560690724598 0 -0.0028745966170659726 -0.014712224707502145 0 -0.0026447018461122612 -0.01476357403563601 0 -0.0027212829912046333 -0.014608531262427261 0 -0.002461736048607241 -0.01465237338039998 0 -0.0026447018461122612 -0.01476357403563601 0 -0.0027212829912046333 -0.014608531262427261 0 -0.002461736048607241 -0.01465237338039998 0 -0.0025544482205345749 -0.014514560690724598 0 -0.0027212829912046333 -0.014608531262427261 0 -0.0025544482205345749 -0.014514560690724598 0 -0.0027212829912046333 -0.014608531262427261 0 -0.0027376058146453362 -0.014495540923614368 0 -0.0025544482205345749 -0.014514560690724598 0 -0.0027376058146453362 -0.014495540923614368 0 -0.0026004503822321247 -0.014436983393851292 0 -0.0025544482205345749 -0.014514560690724598 0 -0.0026004503822321247 -0.014436983393851292 0 -0.0024063223825685287 -0.014386521708726896 0 -0.0026004503822321247 -0.014436983393851292 0 -0.0024063223825685287 -0.014386521708726896 0 -0.0025328266120156276 -0.01437426283881464 0 -0.0026004503822321247 -0.014436983393851292 0 -0.0026752612460169559 -0.014446306414505363 0 -0.0025328266120156276 -0.01437426283881464 0 -0.0027376058146453362 -0.014495540923614368 0 -0.0026004503822321247 -0.014436983393851292 0 -0.0026752612460169559 -0.014446306414505363 0 -0.0022347182867567292 -0.014538456943080697 0 -0.0021687343791839098 -0.014303924258475195 0 -0.0024063223825685287 -0.014386521708726896 0 -0.0022347182867567292 -0.014538456943080697 0 -0.0025544482205345749 -0.014514560690724598 0 -0.0024063223825685287 -0.014386521708726896 0 -0.0024063223825685287 -0.014386521708726896 0 -0.0023405002505011287 -0.014292503637593388 0 -0.0025328266120156276 -0.01437426283881464 0 -0.0021687343791839098 -0.014303924258475195 0 -0.0023405002505011287 -0.014292503637593388 0 -0.0021408905425565681 -0.014203518588179573 0 -0.0021687343791839098 -0.014303924258475195 0 -0.0024063223825685287 -0.014386521708726896 0 -0.0023405002505011287 -0.014292503637593388 0 -0.0021687343791839098 -0.014303924258475195 0 -0.0021408905425565681 -0.014203518588179573 0 -0.0019802596177019337 -0.014201588109029625 0 -0.0021408905425565681 -0.014203518588179573 0 -0.0019802596177019337 -0.014201588109029625 0 -0.0019296922055674994 -0.014103372867572855 0 -0.0019802596177019337 -0.014201588109029625 0 -0.001587275995767123 -0.01393611067209556 0 -0.0019296922055674994 -0.014103372867572855 0 -0.0019802596177019337 -0.014201588109029625 0 -0.001849503522195359 -0.014288315231551281 0 -0.001587275995767123 -0.01393611067209556 0 -0.001849503522195359 -0.014288315231551281 0 -0.001401063418117387 -0.014274965075347895 0 -0.001587275995767123 -0.01393611067209556 0 -0.0021687343791839098 -0.014303924258475195 0 -0.0019802596177019337 -0.014201588109029625 0 -0.001849503522195359 -0.014288315231551281 0 -0.0022347182867567292 -0.014538456943080697 0 -0.0021687343791839098 -0.014303924258475195 0 -0.001849503522195359 -0.014288315231551281 0 -0.0022347182867567292 -0.014538456943080697 0 -0.001849503522195359 -0.014288315231551281 0 -0.0017170560837511985 -0.014616641331486839 0 -0.001849503522195359 -0.014288315231551281 0 -0.0017170560837511985 -0.014616641331486839 0 -0.001401063418117387 -0.014274965075347895 0 -0.0020929360452757108 -0.014807224671680939 0 -0.0022347182867567292 -0.014538456943080697 0 -0.0017170560837511985 -0.014616641331486839 0 -0.0017170560837511985 -0.014616641331486839 0 -0.00083636972126082125 -0.014553897443737383 0 -0.001401063418117387 -0.014274965075347895 0 -0.00083636972126082125 -0.014553897443737383 0 -0.00083790771761934734 -0.013998167862571905 0 -0.001401063418117387 -0.014274965075347895 0 -0.00083790771761934734 -0.013998167862571905 0 -0.001401063418117387 -0.014274965075347895 0 -0.001587275995767123 -0.01393611067209556 0 -0.0013951427601455217 -0.014222889858249411 0 8.9477507684787639e-05 -0.014177640349255519 0 -0.00083790771761934734 -0.013998167862571905 0 -0.001587275995767123 -0.01393611067209556 0 -0.00092229503549522639 -0.01329208753523225 0 0.00032159968188033138 -0.015380201511753754 0 -9.2008653337933657e-05 -0.015119934339634289 0 0.00047855038385115459 -0.014843716579755853 0 -0.001587275995767123 -0.01393611067209556 0 -0.0016356627523549134 -0.013995790898968616 0 -0.0018031356842724783 -0.014036846450404442 0 -0.0016356627523549134 -0.013995790898968616 0 -0.0018031356842724783 -0.014036846450404442 0 -0.0018833939781644313 -0.013996146288177301 0 8.9477507684787639e-05 -0.014177640349255519 0 -0.0010513486439756167 -0.014977908682142792 0 -0.001587275995767123 -0.01393611067209556 0 -0.0019296922055674994 -0.014103372867572855 0 -0.0018031356842724783 -0.014036846450404442 0 -0.0019296922055674994 -0.014103372867572855 0 -0.0019582624559105646 -0.014085419032757666 0 -0.0018031356842724783 -0.014036846450404442 0 -0.0019582624559105646 -0.014085419032757666 0 -0.0018031356842724783 -0.014036846450404442 0 -0.0020137026047965579 -0.014060606615732465 0 -0.0021408905425565681 -0.014203518588179573 0 -0.0019296922055674994 -0.014103372867572855 0 -0.0020793191275497651 -0.014137699608732958 0 -0.0019296922055674994 -0.014103372867572855 0 -0.0019582624559105646 -0.014085419032757666 0 -0.0020793191275497651 -0.014137699608732958 0 -0.0019582624559105646 -0.014085419032757666 0 -0.0020793191275497651 -0.014137699608732958 0 -0.0020137026047965579 -0.014060606615732465 0 -0.0020793191275497651 -0.014137699608732958 0 -0.0020137026047965579 -0.014060606615732465 0 -0.0022863551172480887 -0.014233556388744332 0 -0.0018031356842724783 -0.014036846450404442 0 -0.0020137026047965579 -0.014060606615732465 0 -0.0018833939781644313 -0.013996146288177301 0 -0.001247870313109224 -0.014921434585572621 0 -0.0010513486439756167 -0.014977908682142792 0 -0.0020137026047965579 -0.014060606615732465 0 -0.0019700154827959268 -0.0140252204211286 0 -0.0025610066235914847 -0.014435688341811125 0 -0.00061079238629570525 -0.016461861289511742 0 -0.00047444465219393718 -0.015966696353709415 0 -0.0013598826666779986 -0.015986250098347643 0 -0.00061079238629570525 -0.016461861289511742 0 -0.00047444465219393718 -0.015966696353709415 0 4.1725336956695393e-05 -0.01613330351244462 0 -0.0010513486439756167 -0.014977908682142792 0 0.00035087377237511908 -0.015553593503604687 0 -0.0026752612460169559 -0.014446306414505363 0 -0.0025552235186619031 -0.014488933718822565 0 -0.0025328266120156276 -0.01437426283881464 0 -0.0025552235186619031 -0.014488933718822565 0 -0.0025328266120156276 -0.01437426283881464 0 -0.0024887164832978698 -0.014361148807485298 0 -0.0020137026047965579 -0.014060606615732465 0 -0.0022863551172480887 -0.014233556388744332 0 -0.0025610066235914847 -0.014435688341811125 0 -0.0023405002505011287 -0.014292503637593388 0 -0.0025328266120156276 -0.01437426283881464 0 -0.0024887164832978698 -0.014361148807485298 0 -0.0023405002505011287 -0.014292503637593388 0 -0.0024887164832978698 -0.014361148807485298 0 -0.0022863551172480887 -0.014233556388744332 0 -0.0021408905425565681 -0.014203518588179573 0 -0.0020793191275497651 -0.014137699608732958 0 -0.0022863551172480887 -0.014233556388744332 0 -0.0023405002505011287 -0.014292503637593388 0 -0.0021408905425565681 -0.014203518588179573 0 -0.0022863551172480887 -0.014233556388744332 0 -0.0010513486439756167 -0.014977908682142792 0 -0.001957508260066312 -0.015255693077132223 0 -0.0024887164832978698 -0.014361148807485298 0 -0.0022863551172480887 -0.014233556388744332 0 -0.0025610066235914847 -0.014435688341811125 0 -0.0024614980520153091 -0.014773253547582136 0 -0.0025552235186619031 -0.014488933718822565 0 -0.0025610066235914847 -0.014435688341811125 0 -0.0025552235186619031 -0.014488933718822565 0 -0.0024887164832978698 -0.014361148807485298 0 -0.0025610066235914847 -0.014435688341811125 0 -0.0022845587098323434 -0.01518363061566463 0 -0.0024614980520153091 -0.014773253547582136 0 -0.0025610066235914847 -0.014435688341811125 0 -0.0022845587098323434 -0.01518363061566463 0 -0.0013598826666779986 -0.015986250098347643 0 -0.0013788998913187773 -0.015299565033867823 0 -0.0022303795552047279 -0.015178488095554913 0 -0.001957508260066312 -0.015255693077132223 0 -0.0013598826666779986 -0.015986250098347643 0 -0.0013788998913187773 -0.015299565033867823 0 -0.00067839598594768237 -0.015480716810419393 0 -0.0013788998913187773 -0.015299565033867823 0 -0.00067839598594768237 -0.015480716810419393 0 -0.0009046174661518847 -0.014999950595451506 0 -0.0013788998913187773 -0.015299565033867823 0 -0.0017158046153914136 -0.01499965924856636 0 -0.0009046174661518847 -0.014999950595451506 0 -0.0022845587098323434 -0.01518363061566463 0 -0.0013788998913187773 -0.015299565033867823 0 -0.0017158046153914136 -0.01499965924856636 0 -0.00047444465219393718 -0.015966696353709415 0 4.577673580371239e-05 -0.015581567067919288 0 4.1725336956695393e-05 -0.01613330351244462 0 -0.00047444465219393718 -0.015966696353709415 0 -0.00067839598594768237 -0.015480716810419393 0 4.577673580371239e-05 -0.015581567067919288 0 -0.00047444465219393718 -0.015966696353709415 0 -0.0013598826666779986 -0.015986250098347643 0 -0.00067839598594768237 -0.015480716810419393 0 -0.00067839598594768237 -0.015480716810419393 0 -0.0009046174661518847 -0.014999950595451506 0 -9.3808722811670428e-05 -0.014999971241652593 0 -0.00067839598594768237 -0.015480716810419393 0 -9.3808722811670428e-05 -0.014999971241652593 0 4.577673580371239e-05 -0.015581567067919288 0 -9.3808722811670428e-05 -0.014999971241652593 0 4.577673580371239e-05 -0.015581567067919288 0 0.0007170139954221958 -0.014999988741719933 0 4.577673580371239e-05 -0.015581567067919288 0 0.00067804557446177714 -0.015821167872177612 0 4.1725336956695393e-05 -0.01613330351244462 0 4.577673580371239e-05 -0.015581567067919288 0 0.00067804557446177714 -0.015821167872177612 0 0.0007170139954221958 -0.014999988741719933 0 0.00067804557446177714 -0.015821167872177612 0 0.0007170139954221958 -0.014999988741719933 0 0.0013139132343263445 -0.015511366648326176 0 0.0007170139954221958 -0.014999988741719933 0 0.0015278266111298899 -0.014999990821478524 0 0.0013139132343263445 -0.015511366648326176 0 0.0015278266111298899 -0.014999990821478524 0 0.0013139132343263445 -0.015511366648326176 0 0.0019533492108743103 -0.015194394389199666 0 0.0015278266111298899 -0.014999990821478524 0 0.0021066209132351759 -0.015078114188885543 0 0.0019533492108743103 -0.015194394389199666 0 0.0014060070161292949 -0.014934976333738388 0 0.002165056339120008 -0.014698297979894389 0 0.0020610863330754944 -0.014290313371774714 0 0.002165056339120008 -0.014698297979894389 0 0.0026212329458978763 -0.014359811797403765 0 0.0026186142296879362 -0.014164334806382871 0 0.0026296561066927425 -0.014639909476201246 0 0.0026212329458978763 -0.014359811797403765 0 0.0025969357007214569 -0.014164082585816527 0 0.0025556289806900291 -0.014097802595618646 0 0.0015533113855092813 -0.01435232307826363 0 0.001506465642915279 -0.014508442919789411 0 0.002049285613114093 -0.014124657543461863 0 0.0026277905985231768 -0.014329543928672597 0 0.002569296686243797 -0.014069409869575861 0 0.0026212329458978763 -0.014359811797403765 0 0.0026186142296879362 -0.014164334806382871 0 0.0025969357007214569 -0.014164082585816527 0 0.00084515755249518613 -0.015201434457304033 0 0.0014060070161292949 -0.014934976333738388 0 0.0010316550542100367 -0.014590456880713703 0 0.0015533113855092813 -0.01435232307826363 0 0.001506465642915279 -0.014508442919789411 0 0.0026186142296879362 -0.014164334806382871 0 0.0025329947968091553 -0.014141357256616539 0 0.0023408041663568833 -0.014105599179324926 0 0.0025329947968091553 -0.014141357256616539 0 0.00251465345831195 -0.014134593287954932 0 0.0023408041663568833 -0.014105599179324926 0 0.0026186142296879362 -0.014164334806382871 0 0.0025329947968091553 -0.014141357256616539 0 0.0025969357007214569 -0.014164082585816527 0 0.0025329947968091553 -0.014141357256616539 0 0.00251465345831195 -0.014134593287954932 0 0.0025969357007214569 -0.014164082585816527 0 0.00251465345831195 -0.014134593287954932 0 0.0025969357007214569 -0.014164082585816527 0 0.0025613751309876659 -0.014115706232072022 0 0.0025969357007214569 -0.014164082585816527 0 0.0025613751309876659 -0.014115706232072022 0 0.0025556289806900291 -0.014097802595618646 0 0.00251465345831195 -0.014134593287954932 0 0.0025613751309876659 -0.014115706232072022 0 0.002477196795305761 -0.014144288719182673 0 0.0025613751309876659 -0.014115706232072022 0 0.002477196795305761 -0.014144288719182673 0 0.0025669018819612236 -0.014146783242051861 0 0.0025613751309876659 -0.014115706232072022 0 0.0026156192920347198 -0.014130063326147682 0 0.0025669018819612236 -0.014146783242051861 0 0.00251465345831195 -0.014134593287954932 0 0.0023834002533461834 -0.014180088128509271 0 0.0023408041663568833 -0.014105599179324926 0 0.00251465345831195 -0.014134593287954932 0 0.002477196795305761 -0.014144288719182673 0 0.0023834002533461834 -0.014180088128509271 0 0.0023834002533461834 -0.014180088128509271 0 0.0022912878663765763 -0.014178299265532055 0 0.0023408041663568833 -0.014105599179324926 0 0.00032159968188033138 -0.015380201511753754 0 0.00047855038385115459 -0.014843716579755853 0 0.00093353590165930059 -0.01492545352754357 0 8.9477507684787639e-05 -0.014177640349255519 0 0.0018270637336397126 -0.014589613919265314 0 0.0021610710494659809 -0.014182284299031282 0 0.0022912878663765763 -0.014178299265532055 0 0.0023408041663568833 -0.014105599179324926 0 0.0010316550542100367 -0.014590456880713703 0 0.00047855038385115459 -0.014843716579755853 0 0.00093353590165930059 -0.01492545352754357 0 0.00084515755249518613 -0.015201434457304033 0 0.00035087377237511908 -0.015553593503604687 0 0.0020610863330754944 -0.014290313371774714 0 0.0018270637336397126 -0.014589613919265314 0 0.0010316550542100367 -0.014590456880713703 0 0.001506465642915279 -0.014508442919789411 0 0.00093353590165930059 -0.01492545352754357 0 0.0033653883335479939 -0.015427469524613647 0 0.0035763045440458316 -0.016015705467421114 0 0.0039445293606328036 -0.015506271186151912 0 0.0033653883335479939 -0.015427469524613647 0 0.003037950445979252 -0.015695156582730515 0 0.0035763045440458316 -0.016015705467421114 0 0.003649102734058691 -0.015062618391196554 0 0.003210431531752567 -0.01499996116266895 0 0.0040052518421467165 -0.01499997764587321 0 0.0033653883335479939 -0.015427469524613647 0 0.003649102734058691 -0.015062618391196554 0 0.003210431531752567 -0.01499996116266895 0 0.0033653883335479939 -0.015427469524613647 0 0.003649102734058691 -0.015062618391196554 0 0.0039445293606328036 -0.015506271186151912 0 0.003210431531752567 -0.01499996116266895 0 0.0029141133823110598 -0.015353939109732271 0 0.0024156947552651212 -0.014999986847615698 0 0.0033653883335479939 -0.015427469524613647 0 0.003210431531752567 -0.01499996116266895 0 0.0029141133823110598 -0.015353939109732271 0 0.0029141133823110598 -0.015353939109732271 0 0.003037950445979252 -0.015695156582730515 0 0.0025949856585310879 -0.015560898460150376 0 0.0033653883335479939 -0.015427469524613647 0 0.0029141133823110598 -0.015353939109732271 0 0.003037950445979252 -0.015695156582730515 0 0.0024282384601665196 -0.015124055969461918 0 0.0026439129712209092 -0.014209490103018608 0 0.003037950445979252 -0.015695156582730515 0 0.0025949856585310879 -0.015560898460150376 0 0.0027419321476580528 -0.01611203215665518 0 0.0022228280891103541 -0.014386845285568885 0 0.0024142143368687825 -0.015000131109122477 0 0.0024334458035273204 -0.014658750109268164 0 0.0024282384601665196 -0.015124055969461918 0 0.0024155713221077038 -0.014999803710069861 0 0.0029141133823110598 -0.015353939109732271 0 0.0025949856585310879 -0.015560898460150376 0 0.0024156947552651212 -0.014999986847615698 0 0.0015278266111298899 -0.014999990821478524 0 0.0023386441311253818 -0.014999997837262254 0 0.0021066209132351759 -0.015078114188885543 0 0.0024334458035273204 -0.014658750109268164 0 0.0026296561066927425 -0.014639909476201246 0 0.0025387028343846919 -0.014306187981214313 0 0.0024142143368687825 -0.015000131109122477 0 0.0024334458035273204 -0.014658750109268164 0 0.0023399787107940481 -0.01499955906234063 0 0.0023385554397506066 -0.014999910819935521 0 0.002165056339120008 -0.014698297979894389 0 0.0024334458035273204 -0.014658750109268164 0 0.0023399787107940481 -0.01499955906234063 0 0.0026296561066927425 -0.014639909476201246 0 0.0023386441311253818 -0.014999997837262254 0 0.0021066209132351759 -0.015078114188885543 0 0.001954011803395527 -0.01519362150069198 0 0.0020042571222304716 -0.014930458765926814 0 0.002165056339120008 -0.014698297979894389 0 0.0026212329458978763 -0.014359811797403765 0 0.0026296561066927425 -0.014639909476201246 0 0.0025387028343846919 -0.014306187981214313 0 0.0026212329458978763 -0.014359811797403765 0 0.0025387028343846919 -0.014306187981214313 0 0.0025826217485381371 -0.014022083635672249 0 0.0022228280891103541 -0.014386845285568885 0 0.0024334458035273204 -0.014658750109268164 0 0.0025387028343846919 -0.014306187981214313 0 0.0022228280891103541 -0.014386845285568885 0 0.0025387028343846919 -0.014306187981214313 0 0.0024157234101683596 -0.014125949305251517 0 0.0025387028343846919 -0.014306187981214313 0 0.0025826217485381371 -0.014022083635672249 0 0.0024157234101683596 -0.014125949305251517 0 0.0025826217485381371 -0.014022083635672249 0 0.0024501406615786963 -0.013951993467757624 0 0.0024157234101683596 -0.014125949305251517 0 0.002569296686243797 -0.014069409869575861 0 0.0026124297457237192 -0.013958152201523617 0 0.0025613751309876659 -0.014115706232072022 0 0.0025556289806900291 -0.014097802595618646 0 0.0026156192920347198 -0.014130063326147682 0 0.0025826217485381371 -0.014022083635672249 0 0.0025001790456807239 -0.013756712527226376 0 0.0024501406615786963 -0.013951993467757624 0 0.0025556289806900291 -0.014097802595618646 0 0.0026156192920347198 -0.014130063326147682 0 0.0027172529134681382 -0.014151195875113902 0 0.0025001790456807239 -0.013756712527226376 0 0.0024197325307208396 -0.013901293257648465 0 0.0026471279806129892 -0.013737602682136921 0 0.0025001790456807239 -0.013756712527226376 0 0.0024197325307208396 -0.013901293257648465 0 0.0024501406615786963 -0.013951993467757624 0 0.0022228280891103541 -0.014386845285568885 0 0.002192634103225068 -0.013979657746327034 0 0.0024157234101683596 -0.014125949305251517 0 0.0026439129712209092 -0.014209490103018608 0 0.0023880095477904284 -0.014042504555747959 0 0.002192634103225068 -0.013979657746327034 0 0.0024501406615786963 -0.013951993467757624 0 0.0024157234101683596 -0.014125949305251517 0 0.003037950445979252 -0.015695156582730515 0 0.0027419321476580528 -0.01611203215665518 0 0.0035763045440458316 -0.016015705467421114 0 0.0026439129712209092 -0.014209490103018608 0 0.0033206591128225808 -0.014486025161709966 0 0.0024230671079253094 -0.013011976391883028 0 0.0027759152102361218 -0.013265260898922531 0 0.0030729451637212263 -0.012894529563726052 0 0.0026439129712209092 -0.014209490103018608 0 0.0025334988978267048 -0.013411682831817031 0 0.0027759152102361218 -0.013265260898922531 0 0.0030442583743912643 -0.013361576356998512 0 0.0026471279806129892 -0.013737602682136921 0 0.0024230671079253094 -0.013011976391883028 0 0.0027759152102361218 -0.013265260898922531 0 0.0026471279806129892 -0.013737602682136921 0 0.0027759152102361218 -0.013265260898922531 0 0.0030442583743912643 -0.013361576356998512 0 0.0030729451637212263 -0.012894529563726052 0 0.003048068610953841 -0.013891895954171158 0 0.0032035949074936919 -0.013784481656083244 0 0.0031857711093822043 -0.013959634096485228 0 0.003048068610953841 -0.013891895954171158 0 0.0030028776053205725 -0.014025445143197693 0 0.0031857711093822043 -0.013959634096485228 0 0.003048068610953841 -0.013891895954171158 0 0.0028741008405019819 -0.013966798664648377 0 0.0030028776053205725 -0.014025445143197693 0 0.003048068610953841 -0.013891895954171158 0 0.002883312527162661 -0.013856267473157687 0 0.0028741008405019819 -0.013966798664648377 0 0.003048068610953841 -0.013891895954171158 0 0.0030411147868644058 -0.013683886261913938 0 0.002883312527162661 -0.013856267473157687 0 0.003048068610953841 -0.013891895954171158 0 0.0030411147868644058 -0.013683886261913938 0 0.0032035949074936919 -0.013784481656083244 0 0.0030442583743912643 -0.013361576356998512 0 0.0030411147868644058 -0.013683886261913938 0 0.0026471279806129892 -0.013737602682136921 0 0.0030442583743912643 -0.013361576356998512 0 0.0030411147868644058 -0.013683886261913938 0 0.0033142334734798649 -0.01353134361417588 0 0.0030411147868644058 -0.013683886261913938 0 0.0026471279806129892 -0.013737602682136921 0 0.002883312527162661 -0.013856267473157687 0 0.0026471279806129892 -0.013737602682136921 0 0.0027198278198876939 -0.013988426095820449 0 0.002883312527162661 -0.013856267473157687 0 0.0027198278198876939 -0.013988426095820449 0 0.0028741008405019819 -0.013966798664648377 0 0.0028061903194067767 -0.014023527518677198 0 0.0027198278198876939 -0.013988426095820449 0 0.002883312527162661 -0.013856267473157687 0 0.0028741008405019819 -0.013966798664648377 0 0.0027198278198876939 -0.013988426095820449 0 0.002737908077913504 -0.014107208395439623 0 0.0028061903194067767 -0.014023527518677198 0 0.0027198278198876939 -0.013988426095820449 0 0.0027689788500217687 -0.014162914085242227 0 0.002737908077913504 -0.014107208395439623 0 0.0025001790456807239 -0.013756712527226376 0 0.0026471279806129892 -0.013737602682136921 0 0.0027198278198876939 -0.013988426095820449 0 0.0026124297457237192 -0.013958152201523617 0 0.0027054999917043871 -0.01399136445598384 0 0.0027172529134681382 -0.014151195875113902 0 0.0027198278198876939 -0.013988426095820449 0 0.0027689788500217687 -0.014162914085242227 0 0.0026637891524491585 -0.014158109201649864 0 0.0027689788500217687 -0.014162914085242227 0 0.0026073278805837435 -0.014208271303444913 0 0.0027172529134681382 -0.014151195875113902 0 0.0026637891524491585 -0.014158109201649864 0 0.0027689788500217687 -0.014162914085242227 0 0.0026156192920347198 -0.014130063326147682 0 0.0027172529134681382 -0.014151195875113902 0 0.0026637891524491585 -0.014158109201649864 0 0.0026156192920347198 -0.014130063326147682 0 0.0026637891524491585 -0.014158109201649864 0 0.0025669018819612236 -0.014146783242051861 0 0.0027689788500217687 -0.014162914085242227 0 0.0026073278805837435 -0.014208271303444913 0 0.0029234851128341357 -0.014390363128549783 0 0.0027689788500217687 -0.014162914085242227 0 0.002737908077913504 -0.014107208395439623 0 0.0029234851128341357 -0.014390363128549783 0 0.0026879755407651675 -0.013914201500219705 0 0.0029234851128341357 -0.014390363128549783 0 0.0032531349858671722 -0.013848915790297324 0 0.0026879755407651675 -0.013914201500219705 0 0.002737908077913504 -0.014107208395439623 0 0.0029234851128341357 -0.014390363128549783 0 0.0026879755407651675 -0.013914201500219705 0 0.0032531349858671722 -0.013848915790297324 0 0.0034425432423854248 -0.013166025825167779 0 0.0026879755407651675 -0.013914201500219705 0 0.0029986648178529107 -0.014110618739084105 0 0.0029336446297160788 -0.01421552072397354 0 0.0026822268156466325 -0.013893497321712809 0 0.0024625682733428228 -0.013452894009715874 0 0.0026879755407651675 -0.013914201500219705 0 0.002737908077913504 -0.014107208395439623 0 0.0028061903194067767 -0.014023527518677198 0 0.0028741008405019819 -0.013966798664648377 0 0.0028061903194067767 -0.014023527518677198 0 0.0030028776053205725 -0.014025445143197693 0 0.0028061903194067767 -0.014023527518677198 0 0.0029986648178529107 -0.014110618739084105 0 0.0030028776053205725 -0.014025445143197693 0 0.0026879755407651675 -0.013914201500219705 0 0.0028061903194067767 -0.014023527518677198 0 0.0029986648178529107 -0.014110618739084105 0 0.0031157488467035616 -0.014110085800874033 0 0.0031277666248996036 -0.014184509089331552 0 0.0032336119385294754 -0.014164782476350633 0 0.0029986648178529107 -0.014110618739084105 0 0.0031157488467035616 -0.014110085800874033 0 0.0030028776053205725 -0.014025445143197693 0 0.0029986648178529107 -0.014110618739084105 0 0.0031157488467035616 -0.014110085800874033 0 0.0031277666248996036 -0.014184509089331552 0 0.0031157488467035616 -0.014110085800874033 0 0.0031497825333181308 -0.014052752893994332 0 0.0032229330285850856 -0.014104944291839165 0 0.0031157488467035616 -0.014110085800874033 0 0.0031497825333181308 -0.014052752893994332 0 0.0030028776053205725 -0.014025445143197693 0 0.0031497825333181308 -0.014052752893994332 0 0.0030028776053205725 -0.014025445143197693 0 0.0031857711093822043 -0.013959634096485228 0 0.00056252634579431163 -0.013867210149913172 0 0.0021202920893939954 -0.014417229376950622 0 0.0010818254280545606 -0.014964028275074967 0 0.0015268318759905379 -0.01403563268256173 0 0.0020758934642907787 -0.014426594244740375 0 0.00056252634579431163 -0.013867210149913172 0 0.0010818254280545606 -0.014964028275074967 0 0.00013463788127197868 -0.015010090189234888 0 -0.00083636972126082125 -0.014553897443737383 0 0.00056252634579431163 -0.013867210149913172 0 0.00013463788127197868 -0.015010090189234888 0 0.0021610710494659809 -0.014182284299031282 0 0.0022912878663765763 -0.014178299265532055 0 0.0022738703520407194 -0.014245570150982717 0 -0.00083636972126082125 -0.014553897443737383 0 -0.00083790771761934734 -0.013998167862571905 0 0.00056252634579431163 -0.013867210149913172 0 -0.00083790771761934734 -0.013998167862571905 0 -0.00092229503549522639 -0.01329208753523225 0 0.00056252634579431163 -0.013867210149913172 0 8.9477507684787639e-05 -0.014177640349255519 0 0.0015268318759905379 -0.01403563268256173 0 0.0023834002533461834 -0.014180088128509271 0 0.0022912878663765763 -0.014178299265532055 0 0.0022738703520407194 -0.014245570150982717 0 0.0023834002533461834 -0.014180088128509271 0 0.0022738703520407194 -0.014245570150982717 0 0.002341767434597318 -0.014212691007977904 0 0.002477196795305761 -0.014144288719182673 0 0.0023834002533461834 -0.014180088128509271 0 0.002341767434597318 -0.014212691007977904 0 0.002477196795305761 -0.014144288719182673 0 0.002341767434597318 -0.014212691007977904 0 0.0025669018819612236 -0.014146783242051861 0 0.002341767434597318 -0.014212691007977904 0 0.0025669018819612236 -0.014146783242051861 0 0.0026073278805837435 -0.014208271303444913 0 0.0026637891524491585 -0.014158109201649864 0 0.0025669018819612236 -0.014146783242051861 0 0.0026073278805837435 -0.014208271303444913 0 0.0026073278805837435 -0.014208271303444913 0 0.0021202920893939954 -0.014417229376950622 0 0.0029234851128341357 -0.014390363128549783 0 0.0022738703520407194 -0.014245570150982717 0 0.002341767434597318 -0.014212691007977904 0 0.0021202920893939954 -0.014417229376950622 0 0.002341767434597318 -0.014212691007977904 0 0.0026073278805837435 -0.014208271303444913 0 0.0021202920893939954 -0.014417229376950622 0 0.0021202920893939954 -0.014417229376950622 0 0.0018343119268878915 -0.015422168949749578 0 0.0010818254280545606 -0.014964028275074967 0 0.0021202920893939954 -0.014417229376950622 0 0.0018343119268878915 -0.015422168949749578 0 0.0029234851128341357 -0.014390363128549783 0 0.0041571721176965198 -0.013918058129721285 0 0.0029234851128341357 -0.014390363128549783 0 0.0032531349858671722 -0.013848915790297324 0 0.0029726979015618467 -0.014627985965759205 0 0.0029449462910941101 -0.014446146836508449 0 0.0041571721176965198 -0.013918058129721285 0 0.0032531349858671722 -0.013848915790297324 0 0.0034425432423854248 -0.013166025825167779 0 0.0041571721176965198 -0.013918058129721285 0 0.0043629544159749902 -0.012860680380302332 0 0.0034425432423854248 -0.013166025825167779 0 0.0041571721176965198 -0.013918058129721285 0 0.0051847269261104259 -0.013268822772837596 0 0.0043629544159749902 -0.012860680380302332 0 0.0018343119268878915 -0.015422168949749578 0 0.00047498239237688493 -0.01584626879723311 0 0.0010818254280545606 -0.014964028275074967 0 -0.00022793978495912567 -0.015469189046581911 0 0.00047498239237688493 -0.01584626879723311 0 0.00013463788127197868 -0.015010090189234888 0 0.0029726979015618467 -0.014627985965759205 0 0.002868448805590298 -0.014550654908878309 0 0.00047498239237688493 -0.01584626879723311 0 0.0010818254280545606 -0.014964028275074967 0 0.00013463788127197868 -0.015010090189234888 0 0.0030065619637620828 -0.014262225168919477 0 0.002868448805590298 -0.014550654908878309 0 0.0051847269261104259 -0.013268822772837596 0 0.0051382612962773836 -0.011884383810797311 0 0.0043629544159749902 -0.012860680380302332 0 0.00613388288136871 -0.012627785121348819 0 0.0051847269261104259 -0.013268822772837596 0 0.0051382612962773836 -0.011884383810797311 0 0.00613388288136871 -0.012627785121348819 0 0.0062494756024006528 -0.011597096259425805 0 0.0051382612962773836 -0.011884383810797311 0 0.0062494756024006528 -0.011597096259425805 0 0.0051382612962773836 -0.011884383810797311 0 0.0058550649704433976 -0.010751806705864356 0 0.0051382612962773836 -0.011884383810797311 0 0.0050211905782601863 -0.010544488893708858 0 0.004374052818610764 -0.011213118966074747 0 0.0051382612962773836 -0.011884383810797311 0 0.0050211905782601863 -0.010544488893708858 0 0.0058550649704433976 -0.010751806705864356 0 0.0035731693627329112 -0.011163009444438196 0 0.0031498341014446441 -0.0099297246724754946 0 0.0042470130827194823 -0.010295601210917294 0 0.0050211905782601863 -0.010544488893708858 0 0.004374052818610764 -0.011213118966074747 0 0.0042470130827194823 -0.010295601210917294 0 0.004374052818610764 -0.011213118966074747 0 0.0035731693627329112 -0.011163009444438196 0 0.0042470130827194823 -0.010295601210917294 0 0.0051382612962773836 -0.011884383810797311 0 0.004374052818610764 -0.011213118966074747 0 0.0038714842492515267 -0.012090198866591687 0 0.004374052818610764 -0.011213118966074747 0 0.0035731693627329112 -0.011163009444438196 0 0.0038714842492515267 -0.012090198866591687 0 0.0038714842492515267 -0.012090198866591687 0 0.0034425432423854248 -0.013166025825167779 0 0.0029444830170102096 -0.012242869676772138 0 0.0035731693627329112 -0.011163009444438196 0 0.0038714842492515267 -0.012090198866591687 0 0.0029444830170102096 -0.012242869676772138 0 0.0051382612962773836 -0.011884383810797311 0 0.0038714842492515267 -0.012090198866591687 0 0.0043629544159749902 -0.012860680380302332 0 0.0038714842492515267 -0.012090198866591687 0 0.0043629544159749902 -0.012860680380302332 0 0.0034425432423854248 -0.013166025825167779 0 0.0026879755407651675 -0.013914201500219705 0 0.0034425432423854248 -0.013166025825167779 0 0.0029444830170102096 -0.012242869676772138 0 0.0026879755407651675 -0.013914201500219705 0 0.0029444830170102096 -0.012242869676772138 0 0.001974642148259704 -0.012688495070845426 0 0.0029444830170102096 -0.012242869676772138 0 0.001974642148259704 -0.012688495070845426 0 0.002226766555972474 -0.01168025046088814 0 0.0031277666248996036 -0.014184509089331552 0 0.0029336446297160788 -0.01421552072397354 0 0.0031924278630499543 -0.01423235327984239 0 0.0029986648178529107 -0.014110618739084105 0 0.0031277666248996036 -0.014184509089331552 0 0.0029336446297160788 -0.01421552072397354 0 0.001974642148259704 -0.012688495070845426 0 0.001384825107583907 -0.011559562450428098 0 0.002226766555972474 -0.01168025046088814 0 0.0029336446297160788 -0.01421552072397354 0 0.0031924278630499543 -0.01423235327984239 0 0.0031661334548160102 -0.014244445348340446 0 0.0024625682733428228 -0.013452894009715874 0 0.0022661524265325172 -0.012897499655834005 0 0.0031661334548160102 -0.014244445348340446 0 0.0032841255041564784 -0.014107035784231153 0 0.0032371910041543309 -0.014203573201658333 0 0.0031924278630499543 -0.01423235327984239 0 0.0031661334548160102 -0.014244445348340446 0 0.0032371910041543309 -0.014203573201658333 0 0.001384825107583907 -0.011559562450428098 0 0.0019571684407504119 -0.010507864030912167 0 0.002226766555972474 -0.01168025046088814 0 0.001384825107583907 -0.011559562450428098 0 0.0019571684407504119 -0.010507864030912167 0 0.00079463984806393774 -0.010479780765403832 0 0.0022661524265325172 -0.012897499655834005 0 0.0020646144794587975 -0.012290395198154849 0 0.0035731693627329112 -0.011163009444438196 0 0.0029444830170102096 -0.012242869676772138 0 0.0028134752129766998 -0.010981132292095085 0 0.0029444830170102096 -0.012242869676772138 0 0.002226766555972474 -0.01168025046088814 0 0.0028134752129766998 -0.010981132292095085 0 0.0019571684407504119 -0.010507864030912167 0 0.0028134752129766998 -0.010981132292095085 0 0.0031498341014446441 -0.0099297246724754946 0 0.0019571684407504119 -0.010507864030912167 0 0.002226766555972474 -0.01168025046088814 0 0.0028134752129766998 -0.010981132292095085 0 0.0035731693627329112 -0.011163009444438196 0 0.0028134752129766998 -0.010981132292095085 0 0.0031498341014446441 -0.0099297246724754946 0 0.0019571684407504119 -0.010507864030912167 0 0.0031498341014446441 -0.0099297246724754946 0 0.0021152359706891107 -0.0092808739169323966 0 0.0031498341014446441 -0.0099297246724754946 0 0.0028788026567871383 -0.0091369412841736108 0 0.0021152359706891107 -0.0092808739169323966 0 0.0031498341014446441 -0.0099297246724754946 0 0.0028788026567871383 -0.0091369412841736108 0 0.0034862682742876671 -0.0088175823635712799 0 0.0019571684407504119 -0.010507864030912167 0 0.0012184903793083018 -0.0094831322692714212 0 0.00079463984806393774 -0.010479780765403832 0 0.0019571684407504119 -0.010507864030912167 0 0.0021152359706891107 -0.0092808739169323966 0 0.0012184903793083018 -0.0094831322692714212 0 0.0014747409110646922 -0.0084733508734405397 0 0.00089638113741496788 -0.008118463305858286 0 0.00082987518130636379 -0.0088081789331458573 0 0.0012184903793083018 -0.0094831322692714212 0 0.0014747409110646922 -0.0084733508734405397 0 0.00082987518130636379 -0.0088081789331458573 0 0.0021152359706891107 -0.0092808739169323966 0 0.0014747409110646922 -0.0084733508734405397 0 0.002151870593039281 -0.008256203858430719 0 0.0021152359706891107 -0.0092808739169323966 0 0.0012184903793083018 -0.0094831322692714212 0 0.0014747409110646922 -0.0084733508734405397 0 0.0014747409110646922 -0.0084733508734405397 0 0.002151870593039281 -0.008256203858430719 0 0.0018470732977676912 -0.0076403881398432356 0 0.0014747409110646922 -0.0084733508734405397 0 0.0018470732977676912 -0.0076403881398432356 0 0.0012670359611515567 -0.007703512966397541 0 0.0014747409110646922 -0.0084733508734405397 0 0.00089638113741496788 -0.008118463305858286 0 0.0012670359611515567 -0.007703512966397541 0 0.00089638113741496788 -0.008118463305858286 0 0.0012670359611515567 -0.007703512966397541 0 0.00088314256775629874 -0.0075786053967747341 0 0.0028788026567871383 -0.0091369412841736108 0 0.0028267608866036032 -0.0084438702091659233 0 0.0034862682742876671 -0.0088175823635712799 0 0.0028788026567871383 -0.0091369412841736108 0 0.0021152359706891107 -0.0092808739169323966 0 0.0028267608866036032 -0.0084438702091659233 0 0.0021152359706891107 -0.0092808739169323966 0 0.002151870593039281 -0.008256203858430719 0 0.0028267608866036032 -0.0084438702091659233 0 0.002151870593039281 -0.008256203858430719 0 0.0027448491184960907 -0.0075517726417942991 0 0.0018470732977676912 -0.0076403881398432356 0 0.002151870593039281 -0.008256203858430719 0 0.0028267608866036032 -0.0084438702091659233 0 0.0027448491184960907 -0.0075517726417942991 0 0.0028267608866036032 -0.0084438702091659233 0 0.0036602212509328088 -0.0078175474840111864 0 0.0027448491184960907 -0.0075517726417942991 0 0.0028267608866036032 -0.0084438702091659233 0 0.0036602212509328088 -0.0078175474840111864 0 0.0034862682742876671 -0.0088175823635712799 0 0.0036602212509328088 -0.0078175474840111864 0 0.0034862682742876671 -0.0088175823635712799 0 0.0041438253119944557 -0.0084110177422127477 0 0.0034862682742876671 -0.0088175823635712799 0 0.0041438253119944557 -0.0084110177422127477 0 0.0042464183766874799 -0.0091985340378091338 0 0.0041438253119944557 -0.0084110177422127477 0 0.0048761865508171421 -0.0085079979832499465 0 0.0042464183766874799 -0.0091985340378091338 0 0.0041438253119944557 -0.0084110177422127477 0 0.0048761865508171421 -0.0085079979832499465 0 0.0044478729563920457 -0.007717303205538993 0 0.0036602212509328088 -0.0078175474840111864 0 0.0041438253119944557 -0.0084110177422127477 0 0.0044478729563920457 -0.007717303205538993 0 0.0048761865508171421 -0.0085079979832499465 0 0.0044478729563920457 -0.007717303205538993 0 0.0051653247997617731 -0.007609115363447984 0 0.0058389358935716082 -0.0083835206567105681 0 0.0048761865508171421 -0.0085079979832499465 0 0.0051653247997617731 -0.007609115363447984 0 0.0062635670451223271 -0.0075238671781647504 0 0.0058389358935716082 -0.0083835206567105681 0 0.0051653247997617731 -0.007609115363447984 0 0.0058389358935716082 -0.0083835206567105681 0 0.0056074885595761709 -0.0090886355281375713 0 0.0048761865508171421 -0.0085079979832499465 0 0.0056074885595761709 -0.0090886355281375713 0 0.0048761865508171421 -0.0085079979832499465 0 0.0049615880083182292 -0.0095685822816411175 0 0.0048761865508171421 -0.0085079979832499465 0 0.0049615880083182292 -0.0095685822816411175 0 0.0042464183766874799 -0.0091985340378091338 0 0.0056074885595761709 -0.0090886355281375713 0 0.0049615880083182292 -0.0095685822816411175 0 0.0058172590109983472 -0.0097857778495335536 0 0.0050211905782601863 -0.010544488893708858 0 0.0058550649704433976 -0.010751806705864356 0 0.0058172590109983472 -0.0097857778495335536 0 0.0050211905782601863 -0.010544488893708858 0 0.0049615880083182292 -0.0095685822816411175 0 0.0058172590109983472 -0.0097857778495335536 0 0.0050211905782601863 -0.010544488893708858 0 0.0049615880083182292 -0.0095685822816411175 0 0.0042470130827194823 -0.010295601210917294 0 0.0031498341014446441 -0.0099297246724754946 0 0.0042470130827194823 -0.010295601210917294 0 0.0042464183766874799 -0.0091985340378091338 0 0.0031498341014446441 -0.0099297246724754946 0 0.0034862682742876671 -0.0088175823635712799 0 0.0042464183766874799 -0.0091985340378091338 0 0.0049615880083182292 -0.0095685822816411175 0 0.0042470130827194823 -0.010295601210917294 0 0.0042464183766874799 -0.0091985340378091338 0 0.0091283592080584567 -0.014055074439791117 0 0.0088724812746964997 -0.014106543290462296 0 0.0088724087258256062 -0.01384929965452838 0 0.0091283592080584567 -0.014055074439791117 0 0.0088724812746964997 -0.014106543290462296 0 0.0091509619832904118 -0.014355432438755688 0 0.0078380019606442055 -0.012924342888475814 0 0.0085734562764291731 -0.012176102411741567 0 0.0087665317555126066 -0.013125968280522539 0 0.0078380019606442055 -0.012924342888475814 0 0.0087665317555126066 -0.013125968280522539 0 0.0086336836322848803 -0.013743373029199269 0 0.008377396694695274 -0.013490966806265544 0 0.0086021060805889799 -0.013738176225977247 0 0.0088724087258256062 -0.01384929965452838 0 0.0086336836322848803 -0.013743373029199269 0 0.0087059826374555598 -0.013663410233119641 0 0.0088724812746964997 -0.014106543290462296 0 0.0088724087258256062 -0.01384929965452838 0 0.0086336836322848803 -0.013743373029199269 0 0.0088724087258256062 -0.01384929965452838 0 0.0090197662281391189 -0.013667282465765904 0 0.0087059826374555598 -0.013663410233119641 0 0.0088724087258256062 -0.01384929965452838 0 0.0090907320505660937 -0.013854510319823297 0 0.0090197662281391189 -0.013667282465765904 0 0.0090907320505660937 -0.013854510319823297 0 0.0090197662281391189 -0.013667282465765904 0 0.0093280816730736439 -0.013749676513445018 0 0.0091283592080584567 -0.014055074439791117 0 0.0088724087258256062 -0.01384929965452838 0 0.0090907320505660937 -0.013854510319823297 0 0.0091283592080584567 -0.014055074439791117 0 0.0090907320505660937 -0.013854510319823297 0 0.0092778286762028213 -0.013925539883518766 0 0.0090907320505660937 -0.013854510319823297 0 0.0092778286762028213 -0.013925539883518766 0 0.0093280816730736439 -0.013749676513445018 0 0.0092778286762028213 -0.013925539883518766 0 0.0094722671578444453 -0.013941474150313113 0 0.0093280816730736439 -0.013749676513445018 0 0.0092778286762028213 -0.013925539883518766 0 0.0094722671578444453 -0.013941474150313113 0 0.0093963311193801403 -0.014051172916542481 0 0.0097178664499505442 -0.013796967418882084 0 0.0095684771760904969 -0.013805200995930689 0 0.0096251143797266951 -0.01390785864963376 0 0.0095684771760904969 -0.013805200995930689 0 0.0094722671578444453 -0.013941474150313113 0 0.0093280816730736439 -0.013749676513445018 0 0.0095684771760904969 -0.013805200995930689 0 0.0094722671578444453 -0.013941474150313113 0 0.0096251143797266951 -0.01390785864963376 0 0.0094722671578444453 -0.013941474150313113 0 0.0096251143797266951 -0.01390785864963376 0 0.0095585731388226677 -0.014050572218257324 0 0.0096251143797266951 -0.01390785864963376 0 0.0095585731388226677 -0.014050572218257324 0 0.0098073801495722028 -0.01393468561939866 0 0.0095585731388226677 -0.014050572218257324 0 0.0095443070252364866 -0.014256287998548821 0 0.0098073801495722028 -0.01393468561939866 0 0.011330253743932726 -0.01258833780162575 0 0.011123065092696002 -0.012589435486545298 0 0.0095585731388226677 -0.014050572218257324 0 0.0094445335912390575 -0.014163085934675513 0 0.0095443070252364866 -0.014256287998548821 0 0.0094722671578444453 -0.013941474150313113 0 0.0095585731388226677 -0.014050572218257324 0 0.0093963311193801403 -0.014051172916542481 0 0.0095585731388226677 -0.014050572218257324 0 0.0094445335912390575 -0.014163085934675513 0 0.0093963311193801403 -0.014051172916542481 0 0.0091283592080584567 -0.014055074439791117 0 0.0093963311193801403 -0.014051172916542481 0 0.0093104060007854483 -0.014179339190199288 0 0.0091283592080584567 -0.014055074439791117 0 0.0092778286762028213 -0.013925539883518766 0 0.0093963311193801403 -0.014051172916542481 0 0.0094445335912390575 -0.014163085934675513 0 0.0093963311193801403 -0.014051172916542481 0 0.0093104060007854483 -0.014179339190199288 0 0.0091283592080584567 -0.014055074439791117 0 0.0093104060007854483 -0.014179339190199288 0 0.0091509619832904118 -0.014355432438755688 0 0.0093104060007854483 -0.014179339190199288 0 0.0093866795378863797 -0.01426381867966962 0 0.0091509619832904118 -0.014355432438755688 0 0.0093866795378863797 -0.01426381867966962 0 0.0093683703273447737 -0.014359962543780398 0 0.0091509619832904118 -0.014355432438755688 0 0.0094445335912390575 -0.014163085934675513 0 0.0093104060007854483 -0.014179339190199288 0 0.0093866795378863797 -0.01426381867966962 0 0.012708626482347333 -0.010544162174353212 0 0.012616046511326929 -0.010380336380226344 0 0.012568342487099451 -0.010541699369975788 0 0.0094445335912390575 -0.014163085934675513 0 0.0093866795378863797 -0.01426381867966962 0 0.0095443070252364866 -0.014256287998548821 0 0.0093866795378863797 -0.01426381867966962 0 0.0093683703273447737 -0.014359962543780398 0 0.0095443070252364866 -0.014256287998548821 0 0.012708626482347333 -0.010544162174353212 0 0.012616046511326929 -0.010380336380226344 0 0.012730052333026307 -0.010322977797492387 0 0.0093683703273447737 -0.014359962543780398 0 0.0095443070252364866 -0.014256287998548821 0 0.0093595066254392612 -0.014543540299450148 0 0.011330253743932726 -0.01258833780162575 0 0.0095052805393361396 -0.011337992548851039 0 0.0070942858682649605 -0.012006179238327454 0 0.0073315913344124805 -0.011035570640239391 0 0.006367456796026569 -0.011079608684504463 0 0.0093683703273447737 -0.014359962543780398 0 0.0091509619832904118 -0.014355432438755688 0 0.0093595066254392612 -0.014543540299450148 0 0.007970678594544969 -0.013328740007586298 0 0.0095052805393361396 -0.011337992548851039 0 0.0070942858682649605 -0.012006179238327454 0 0.0078720417288019751 -0.011753295282418348 0 0.0073315913344124805 -0.011035570640239391 0 0.008377396694695274 -0.013490966806265544 0 0.007970678594544969 -0.013328740007586298 0 0.0078380019606442055 -0.012924342888475814 0 0.0070942858682649605 -0.012006179238327454 0 0.0078720417288019751 -0.011753295282418348 0 0.0078380019606442055 -0.012924342888475814 0 0.0078720417288019751 -0.011753295282418348 0 0.0085734562764291731 -0.012176102411741567 0 0.0078720417288019751 -0.011753295282418348 0 0.0085734562764291731 -0.012176102411741567 0 0.0083060184474766912 -0.010985854353982624 0 0.0078720417288019751 -0.011753295282418348 0 0.0083060184474766912 -0.010985854353982624 0 0.0073315913344124805 -0.011035570640239391 0 0.0093081258886480635 -0.011503760068305025 0 0.0085734562764291731 -0.012176102411741567 0 0.0083060184474766912 -0.010985854353982624 0 0.0041103786019911622 -0.010364725051306445 0 0.0047503971419995579 -0.010719100349962787 0 0.005190578013584436 -0.0095383942387645415 0 0.0024288463086891495 -0.01053336630990841 0 0.0010886815796153327 -0.0080587811300837451 0 0.0067532625287087481 -0.010705096012515989 0 0.0062733748479156881 -0.013236106782560784 0 0.0030854397982387248 -0.013458854785423486 0 0.0032554898435652123 -0.013817232239727938 0 0.0030014644523637083 -0.01372654977007518 0 0.0024288463086891495 -0.01053336630990841 0 0.0062733748479156881 -0.013236106782560784 0 0.0041103786019911622 -0.010364725051306445 0 0.0047503971419995579 -0.010719100349962787 0 0.0042549270780629722 -0.012001602426031146 0 0.0085734562764291731 -0.012176102411741567 0 0.0087665317555126066 -0.013125968280522539 0 0.0093680283496745641 -0.012715159629819303 0 0.0093081258886480635 -0.011503760068305025 0 0.0085734562764291731 -0.012176102411741567 0 0.0093680283496745641 -0.012715159629819303 0 0.00089638113741496788 -0.008118463305858286 0 0.0004243289973887621 -0.0084281578582993105 0 0.00082987518130636379 -0.0088081789331458573 0 0.00089638113741496788 -0.008118463305858286 0 0.00088314256775629874 -0.0075786053967747341 0 0.00053130581734660981 -0.0077907047547027689 0 0.00089638113741496788 -0.008118463305858286 0 0.0004243289973887621 -0.0084281578582993105 0 0.00053130581734660981 -0.0077907047547027689 0 0.0004243289973887621 -0.0084281578582993105 0 0.00013223209405691241 -0.007900847896257418 0 0.00053130581734660981 -0.0077907047547027689 0 -0.00044238011424091569 -0.0083723405949195397 0 -9.9914875895396163e-05 -0.0082696923102904673 0 -0.00014833702824157115 -0.0077009559901453466 0 0.0004243289973887621 -0.0084281578582993105 0 0.00013223209405691241 -0.007900847896257418 0 -9.9914875895396163e-05 -0.0082696923102904673 0 -2.3199449231534953e-05 -0.0080069355831582818 0 0.0010886815796153327 -0.0080587811300837451 0 0.00013223209405691241 -0.007900847896257418 0 -9.9914875895396163e-05 -0.0082696923102904673 0 -0.00018142627229712823 -0.0075900156714341811 0 0.0024288463086891495 -0.01053336630990841 0 0.0015412433613289321 -0.011653227031981857 0 0.0004243289973887621 -0.0084281578582993105 0 -9.9914875895396163e-05 -0.0082696923102904673 0 0.00018657542606151584 -0.0094190808986579621 0 -0.00044238011424091569 -0.0083723405949195397 0 -9.9914875895396163e-05 -0.0082696923102904673 0 0.00018657542606151584 -0.0094190808986579621 0 0.0004243289973887621 -0.0084281578582993105 0 0.00082987518130636379 -0.0088081789331458573 0 0.00018657542606151584 -0.0094190808986579621 0 0.0012184903793083018 -0.0094831322692714212 0 0.00082987518130636379 -0.0088081789331458573 0 0.00018657542606151584 -0.0094190808986579621 0 0.0012184903793083018 -0.0094831322692714212 0 0.00018657542606151584 -0.0094190808986579621 0 0.00079463984806393774 -0.010479780765403832 0 0.0032554898435652123 -0.013817232239727938 0 0.0031908463839566393 -0.013987458847648064 0 0.0030014644523637083 -0.01372654977007518 0 0.0031908463839566393 -0.013987458847648064 0 0.0030728191255196486 -0.014032391958081473 0 0.0032064269873098811 -0.014124360500659242 0 0.0031908463839566393 -0.013987458847648064 0 0.0032841255041564784 -0.014107035784231153 0 0.0032064269873098811 -0.014124360500659242 0 0.0032554898435652123 -0.013817232239727938 0 0.0031908463839566393 -0.013987458847648064 0 0.0032841255041564784 -0.014107035784231153 0 0.0015412433613289321 -0.011653227031981857 0 0.0020646144794587975 -0.012290395198154849 0 0.0062733748479156881 -0.013236106782560784 0 0.008900889623542416 -0.013729529201282684 0 0.0087665317555126066 -0.013125968280522539 0 0.0093680283496745641 -0.012715159629819303 0 0.0087473716227374782 -0.013761813820169501 0 0.0062733748479156881 -0.013236106782560784 0 0.0055697974988115941 -0.014089923218536042 0 0.0082020466357431709 -0.01420480074601769 0 0.0082058247183600646 -0.013850222460356131 0 0.0083871711721473282 -0.013879029916644612 0 0.0031908463839566393 -0.013987458847648064 0 0.0030014644523637083 -0.01372654977007518 0 0.0030728191255196486 -0.014032391958081473 0 0.0082058247183600646 -0.013850222460356131 0 0.0083871711721473282 -0.013879029916644612 0 0.0083541434314789876 -0.013641037773246465 0 0.0087473716227374782 -0.013761813820169501 0 0.0086336836322848803 -0.013743373029199269 0 0.0087059826374555598 -0.013663410233119641 0 0.0087665317555126066 -0.013125968280522539 0 0.0087473716227374782 -0.013761813820169501 0 0.0086336836322848803 -0.013743373029199269 0 0.0083541434314789876 -0.013641037773246465 0 0.0081893540974048908 -0.013436265491142652 0 0.0085904066174936778 -0.013510674402169976 0 0.0087473716227374782 -0.013761813820169501 0 0.0085904066174936778 -0.013510674402169976 0 0.0087059826374555598 -0.013663410233119641 0 0.008900889623542416 -0.013729529201282684 0 0.0085173225872860973 -0.013571809355008077 0 0.0083871711721473282 -0.013879029916644612 0 0.0083541434314789876 -0.013641037773246465 0 0.0085904066174936778 -0.013510674402169976 0 0.0055697974988115941 -0.014089923218536042 0 0.005687281840201678 -0.013784544790100859 0 0.0030728191255196486 -0.014032391958081473 0 0.0031926681337747023 -0.014196326286062277 0 0.0032064269873098811 -0.014124360500659242 0 0.0082058247183600646 -0.013850222460356131 0 0.0083541434314789876 -0.013641037773246465 0 0.0081893540974048908 -0.013436265491142652 0 0.0081893540974048908 -0.013436265491142652 0 0.0085904066174936778 -0.013510674402169976 0 0.0084757186158224921 -0.01319493212679051 0 0.0032841255041564784 -0.014107035784231153 0 0.0032064269873098811 -0.014124360500659242 0 0.0032371910041543309 -0.014203573201658333 0 0.0031926681337747023 -0.014196326286062277 0 0.0032371910041543309 -0.014203573201658333 0 0.0032630594259724509 -0.014226295747837469 0 0.0031926681337747023 -0.014196326286062277 0 0.0032064269873098811 -0.014124360500659242 0 0.0032371910041543309 -0.014203573201658333 0 0.0031924278630499543 -0.01423235327984239 0 0.0032371910041543309 -0.014203573201658333 0 0.0032630594259724509 -0.014226295747837469 0 0.0031924278630499543 -0.01423235327984239 0 0.0032630594259724509 -0.014226295747837469 0 0.0032398221211915471 -0.014211354732879105 0 0.0032630594259724509 -0.014226295747837469 0 0.0033311508393425774 -0.014194818647839518 0 0.0032398221211915471 -0.014211354732879105 0 0.0033311508393425774 -0.014194818647839518 0 0.003313932136225055 -0.014217136772601821 0 0.0034126571795700263 -0.014172722012381853 0 0.0032630594259724509 -0.014226295747837469 0 0.0033311508393425774 -0.014194818647839518 0 0.003313932136225055 -0.014217136772601821 0 0.0031277666248996036 -0.014184509089331552 0 0.0031924278630499543 -0.01423235327984239 0 0.0032398221211915471 -0.014211354732879105 0 0.0033311508393425774 -0.014194818647839518 0 0.0032398221211915471 -0.014211354732879105 0 0.0032336119385294754 -0.014164782476350633 0 0.0031277666248996036 -0.014184509089331552 0 0.0032398221211915471 -0.014211354732879105 0 0.0032336119385294754 -0.014164782476350633 0 0.0031926681337747023 -0.014196326286062277 0 0.0032630594259724509 -0.014226295747837469 0 0.003313932136225055 -0.014217136772601821 0 0.0081893540974048908 -0.013436265491142652 0 0.0084757186158224921 -0.01319493212679051 0 0.0082065668194276353 -0.013085080198850133 0 0.005687281840201678 -0.013784544790100859 0 0.0058660990378192335 -0.013620138296564815 0 0.0082065668194276353 -0.013085080198850133 0 0.0083975154703755418 -0.012940005939405787 0 0.008213613417447977 -0.012856485058024229 0 0.003313932136225055 -0.014217136772601821 0 0.0034547780234035503 -0.014155201643584844 0 0.0034126571795700263 -0.014172722012381853 0 0.0058660990378192335 -0.013620138296564815 0 0.0049055848017864586 -0.013689543440727304 0 0.0084757186158224921 -0.01319493212679051 0 0.0083975154703755418 -0.012940005939405787 0 0.0086943275790406695 -0.012992466184290424 0 0.0084757186158224921 -0.01319493212679051 0 0.0082065668194276353 -0.013085080198850133 0 0.0083975154703755418 -0.012940005939405787 0 0.0083975154703755418 -0.012940005939405787 0 0.0086943275790406695 -0.012992466184290424 0 0.0085844833177995163 -0.012908733821480788 0 0.0086943275790406695 -0.012992466184290424 0 0.008713555033480808 -0.012993152994244099 0 0.0086521854941180639 -0.012908945218956715 0 0.0086943275790406695 -0.012992466184290424 0 0.0086521854941180639 -0.012908945218956715 0 0.0085844833177995163 -0.012908733821480788 0 0.0087085688744564203 -0.012975979216203914 0 0.0089974972885087066 -0.012815499267132402 0 0.0086943275790406695 -0.012992466184290424 0 0.0092395487473387033 -0.013175478206654833 0 0.0092642037314408301 -0.01262164455174071 0 0.0086943275790406695 -0.012992466184290424 0 0.0088336354334300499 -0.013378137906185264 0 0.0092395487473387033 -0.013175478206654833 0 0.0084757186158224921 -0.01319493212679051 0 0.0086943275790406695 -0.012992466184290424 0 0.0088336354334300499 -0.013378137906185264 0 0.0085904066174936778 -0.013510674402169976 0 0.0084757186158224921 -0.01319493212679051 0 0.0088336354334300499 -0.013378137906185264 0 0.0088336354334300499 -0.013378137906185264 0 0.0092896151674577761 -0.013490809390862927 0 0.0092395487473387033 -0.013175478206654833 0 0.0088336354334300499 -0.013378137906185264 0 0.0090197662281391189 -0.013667282465765904 0 0.0092896151674577761 -0.013490809390862927 0 0.0085904066174936778 -0.013510674402169976 0 0.0088336354334300499 -0.013378137906185264 0 0.0087059826374555598 -0.013663410233119641 0 0.0088336354334300499 -0.013378137906185264 0 0.0090197662281391189 -0.013667282465765904 0 0.0087059826374555598 -0.013663410233119641 0 0.0097178664499505442 -0.013796967418882084 0 0.0096210273567809909 -0.013621943804568867 0 0.0098391622971982957 -0.013666794332007326 0 0.0097178664499505442 -0.013796967418882084 0 0.0095684771760904969 -0.013805200995930689 0 0.0096210273567809909 -0.013621943804568867 0 0.0095684771760904969 -0.013805200995930689 0 0.0096210273567809909 -0.013621943804568867 0 0.0093280816730736439 -0.013749676513445018 0 0.0090197662281391189 -0.013667282465765904 0 0.0093280816730736439 -0.013749676513445018 0 0.0092896151674577761 -0.013490809390862927 0 0.0096210273567809909 -0.013621943804568867 0 0.0093280816730736439 -0.013749676513445018 0 0.0092896151674577761 -0.013490809390862927 0 0.0092896151674577761 -0.013490809390862927 0 0.0095659922522737546 -0.013349545619600001 0 0.0092395487473387033 -0.013175478206654833 0 0.0096210273567809909 -0.013621943804568867 0 0.0092896151674577761 -0.013490809390862927 0 0.0095659922522737546 -0.013349545619600001 0 0.0096210273567809909 -0.013621943804568867 0 0.0095659922522737546 -0.013349545619600001 0 0.0098821125053286177 -0.013392756178782033 0 0.0095659922522737546 -0.013349545619600001 0 0.0098821125053286177 -0.013392756178782033 0 0.0098146310926323851 -0.013019131873146112 0 0.0095659922522737546 -0.013349545619600001 0 0.0092395487473387033 -0.013175478206654833 0 0.0098146310926323851 -0.013019131873146112 0 0.0092395487473387033 -0.013175478206654833 0 0.0092642037314408301 -0.01262164455174071 0 0.0098146310926323851 -0.013019131873146112 0 0.0092642037314408301 -0.01262164455174071 0 0.0098594806532103958 -0.012317420634121628 0 0.0098146310926323851 -0.013019131873146112 0 0.008713555033480808 -0.012993152994244099 0 0.0088320805109834526 -0.012849221621206759 0 0.0090400280273673032 -0.013039341965443594 0 0.0089974972885087066 -0.012815499267132402 0 0.0094653738077577626 -0.01267257289699894 0 0.0088320805109834526 -0.012849221621206759 0 0.0090143855816594565 -0.012555933756571672 0 0.009195971820100627 -0.012753851057000148 0 0.0088320805109834526 -0.012849221621206759 0 0.0090400280273673032 -0.013039341965443594 0 0.009195971820100627 -0.012753851057000148 0 0.0088320805109834526 -0.012849221621206759 0 0.0090143855816594565 -0.012555933756571672 0 0.0087143014780120473 -0.012676070154313233 0 0.0086908115456634343 -0.012824538924451854 0 0.0086310046426454259 -0.012713077389452833 0 0.0087143014780120473 -0.012676070154313233 0 0.0088320805109834526 -0.012849221621206759 0 0.0086908115456634343 -0.012824538924451854 0 0.0087143014780120473 -0.012676070154313233 0 0.008713555033480808 -0.012993152994244099 0 0.0088320805109834526 -0.012849221621206759 0 0.0086908115456634343 -0.012824538924451854 0 0.008713555033480808 -0.012993152994244099 0 0.0086908115456634343 -0.012824538924451854 0 0.0086521854941180639 -0.012908945218956715 0 0.0086521854941180639 -0.012908945218956715 0 0.0085759786587234592 -0.012837603423890251 0 0.0086254851460635888 -0.012807083860439963 0 0.0086521854941180639 -0.012908945218956715 0 0.0085844833177995163 -0.012908733821480788 0 0.0085759786587234592 -0.012837603423890251 0 0.0085844833177995163 -0.012908733821480788 0 0.0085759786587234592 -0.012837603423890251 0 0.0084692312232048164 -0.012850298288387884 0 0.0084814183313957625 -0.012772678301915719 0 0.0085759786587234592 -0.012837603423890251 0 0.0084692312232048164 -0.012850298288387884 0 0.0084814183313957625 -0.012772678301915719 0 0.0085759786587234592 -0.012837603423890251 0 0.0085612868604950012 -0.012758427541671915 0 0.0084814183313957625 -0.012772678301915719 0 0.0085612868604950012 -0.012758427541671915 0 0.0084724687132145121 -0.012674098435980869 0 0.0086908115456634343 -0.012824538924451854 0 0.0086521854941180639 -0.012908945218956715 0 0.0086254851460635888 -0.012807083860439963 0 0.0085759786587234592 -0.012837603423890251 0 0.0085612868604950012 -0.012758427541671915 0 0.0086254851460635888 -0.012807083860439963 0 0.0085612868604950012 -0.012758427541671915 0 0.0086254851460635888 -0.012807083860439963 0 0.0086310046426454259 -0.012713077389452833 0 0.0086908115456634343 -0.012824538924451854 0 0.0086254851460635888 -0.012807083860439963 0 0.0086310046426454259 -0.012713077389452833 0 0.0070486696817672395 -0.012896308946647351 0 0.0065513989207880907 -0.011333804708183799 0 0.0078409228035993712 -0.012720214799013882 0 0.0070486696817672395 -0.012896308946647351 0 0.006169435540942291 -0.012341317777632282 0 0.0065513989207880907 -0.011333804708183799 0 0.0077923138691625565 -0.012782986089029896 0 0.0071469167601285882 -0.012695656333238926 0 0.0085612868604950012 -0.012758427541671915 0 0.0086310046426454259 -0.012713077389452833 0 0.0084724687132145121 -0.012674098435980869 0 0.0070486696817672395 -0.012896308946647351 0 0.0053321645047005265 -0.012792497939518659 0 0.006169435540942291 -0.012341317777632282 0 0.0053321645047005265 -0.012792497939518659 0 0.006169435540942291 -0.012341317777632282 0 0.005186132228187517 -0.0123465007089276 0 0.0050749672356698895 -0.012358142343392756 0 0.0050275888959946764 -0.012346776043350396 0 0.005186132228187517 -0.0123465007089276 0 0.0064758502483562739 -0.012092901084774701 0 0.0050170739995010804 -0.012304863892180695 0 0.006169435540942291 -0.012341317777632282 0 0.0065513989207880907 -0.011333804708183799 0 0.005186132228187517 -0.0123465007089276 0 0.0071986943837328617 -0.01167095983313798 0 0.0079516020419885067 -0.011902694896542358 0 0.0078436020246526548 -0.011336919082149189 0 0.0071986943837328617 -0.01167095983313798 0 0.0079516020419885067 -0.011902694896542358 0 0.0078409228035993712 -0.012720214799013882 0 0.0064758502483562739 -0.012092901084774701 0 0.007886391004700552 -0.012498213153812372 0 0.0079516020419885067 -0.011902694896542358 0 0.0082372147631650534 -0.011558299682927221 0 0.0078436020246526548 -0.011336919082149189 0 0.0079516020419885067 -0.011902694896542358 0 0.0083257580746116423 -0.011896553179419563 0 0.0083406905032411879 -0.012249078969421959 0 0.0083257580746116423 -0.011896553179419563 0 0.0082372147631650534 -0.011558299682927221 0 0.0086449003302832977 -0.011631677329116514 0 0.0079516020419885067 -0.011902694896542358 0 0.0083257580746116423 -0.011896553179419563 0 0.0082372147631650534 -0.011558299682927221 0 0.0090156007878184393 -0.011814850648247575 0 0.0087788825226806054 -0.012152638679876612 0 0.0093269178427998305 -0.012078066290754835 0 0.0086449003302832977 -0.011631677329116514 0 0.0090156007878184393 -0.011814850648247575 0 0.0087788825226806054 -0.012152638679876612 0 0.0086449003302832977 -0.011631677329116514 0 0.0090156007878184393 -0.011814850648247575 0 0.0090170323367147788 -0.011457623320350642 0 0.0083257580746116423 -0.011896553179419563 0 0.0086449003302832977 -0.011631677329116514 0 0.0087788825226806054 -0.012152638679876612 0 0.0083257580746116423 -0.011896553179419563 0 0.0087788825226806054 -0.012152638679876612 0 0.0083406905032411879 -0.012249078969421959 0 0.0087788825226806054 -0.012152638679876612 0 0.0090143855816594565 -0.012555933756571672 0 0.0093269178427998305 -0.012078066290754835 0 0.0087788825226806054 -0.012152638679876612 0 0.0090143855816594565 -0.012555933756571672 0 0.0087143014780120473 -0.012676070154313233 0 0.0087788825226806054 -0.012152638679876612 0 0.0087143014780120473 -0.012676070154313233 0 0.0083406905032411879 -0.012249078969421959 0 0.0077923138691625565 -0.012782986089029896 0 0.008660737692279253 -0.012710532163608797 0 0.0079516020419885067 -0.011902694896542358 0 0.0078409228035993712 -0.012720214799013882 0 0.0083406905032411879 -0.012249078969421959 0 0.0070486696817672395 -0.012896308946647351 0 0.0087143014780120473 -0.012676070154313233 0 0.0078409228035993712 -0.012720214799013882 0 0.0087143014780120473 -0.012676070154313233 0 0.0078409228035993712 -0.012720214799013882 0 0.0083406905032411879 -0.012249078969421959 0 0.0031497825333181308 -0.014052752893994332 0 0.0033038787480504294 -0.014052717220610593 0 0.0031857711093822043 -0.013959634096485228 0 0.0033038787480504294 -0.014052717220610593 0 0.003413896090854616 -0.013953155514778942 0 0.0031857711093822043 -0.013959634096485228 0 0.0033038787480504294 -0.014052717220610593 0 0.0032229330285850856 -0.014104944291839165 0 0.0033547560401450643 -0.014132351992086754 0 0.0031497825333181308 -0.014052752893994332 0 0.0033038787480504294 -0.014052717220610593 0 0.0032229330285850856 -0.014104944291839165 0 0.0031157488467035616 -0.014110085800874033 0 0.0032229330285850856 -0.014104944291839165 0 0.0032336119385294754 -0.014164782476350633 0 0.0033311508393425774 -0.014194818647839518 0 0.0032336119385294754 -0.014164782476350633 0 0.0033547560401450643 -0.014132351992086754 0 0.0032229330285850856 -0.014104944291839165 0 0.0032336119385294754 -0.014164782476350633 0 0.0033547560401450643 -0.014132351992086754 0 0.0033311508393425774 -0.014194818647839518 0 0.0033547560401450643 -0.014132351992086754 0 0.0034206682696040344 -0.014152479401278244 0 0.0033311508393425774 -0.014194818647839518 0 0.0034206682696040344 -0.014152479401278244 0 0.0034126571795700263 -0.014172722012381853 0 0.0033547560401450643 -0.014132351992086754 0 0.0034206682696040344 -0.014152479401278244 0 0.0034952389090033573 -0.014106640780731917 0 0.0034206682696040344 -0.014152479401278244 0 0.0034952389090033573 -0.014106640780731917 0 0.0034903262365039525 -0.014143717475506098 0 0.0034952389090033573 -0.014106640780731917 0 0.0034804162739710538 -0.014046084143503999 0 0.0036135105254977602 -0.014052941754182152 0 0.0033547560401450643 -0.014132351992086754 0 0.0034952389090033573 -0.014106640780731917 0 0.0034804162739710538 -0.014046084143503999 0 0.0033038787480504294 -0.014052717220610593 0 0.0033547560401450643 -0.014132351992086754 0 0.0034804162739710538 -0.014046084143503999 0 0.0034804162739710538 -0.014046084143503999 0 0.0035508629252034222 -0.013965892927269226 0 0.003413896090854616 -0.013953155514778942 0 0.0033038787480504294 -0.014052717220610593 0 0.0034804162739710538 -0.014046084143503999 0 0.003413896090854616 -0.013953155514778942 0 0.0034804162739710538 -0.014046084143503999 0 0.0036386365886427827 -0.013978714486010917 0 0.0035508629252034222 -0.013965892927269226 0 0.0034804162739710538 -0.014046084143503999 0 0.0036386365886427827 -0.013978714486010917 0 0.0036135105254977602 -0.014052941754182152 0 0.0049055848017864586 -0.013689543440727304 0 0.0055144916182565508 -0.013032570500385098 0 0.0082913023849282286 -0.012781897793818222 0 0.008336834516392869 -0.01273467449304865 0 0.0082659936136503746 -0.012654008123658123 0 0.0036135105254977602 -0.014052941754182152 0 0.0035929029601409618 -0.014165526598532574 0 0.0037584687322845959 -0.013913835498479332 0 0.0082913023849282286 -0.012781897793818222 0 0.008213613417447977 -0.012856485058024229 0 0.0082659936136503746 -0.012654008123658123 0 0.0036386365886427827 -0.013978714486010917 0 0.0036135105254977602 -0.014052941754182152 0 0.0037584687322845959 -0.013913835498479332 0 0.0039676758599657257 -0.014097096452809888 0 0.0049055848017864586 -0.013689543440727304 0 0.0034952389090033573 -0.014106640780731917 0 0.0036135105254977602 -0.014052941754182152 0 0.0034903262365039525 -0.014143717475506098 0 0.0083975154703755418 -0.012940005939405787 0 0.008213613417447977 -0.012856485058024229 0 0.0083487401282665002 -0.012844722113462045 0 0.0034206682696040344 -0.014152479401278244 0 0.0034903262365039525 -0.014143717475506098 0 0.0034126571795700263 -0.014172722012381853 0 0.0049055848017864586 -0.013689543440727304 0 0.004225664652264479 -0.014259435750653131 0 0.0082913023849282286 -0.012781897793818222 0 0.008213613417447977 -0.012856485058024229 0 0.0083487401282665002 -0.012844722113462045 0 0.0083487401282665002 -0.012844722113462045 0 0.0084692312232048164 -0.012850298288387884 0 0.0083840338512087623 -0.012787004642147881 0 0.0083975154703755418 -0.012940005939405787 0 0.0085844833177995163 -0.012908733821480788 0 0.0084692312232048164 -0.012850298288387884 0 0.0083975154703755418 -0.012940005939405787 0 0.0083487401282665002 -0.012844722113462045 0 0.0084692312232048164 -0.012850298288387884 0 0.0084814183313957625 -0.012772678301915719 0 0.0084692312232048164 -0.012850298288387884 0 0.0083840338512087623 -0.012787004642147881 0 0.0082913023849282286 -0.012781897793818222 0 0.0083487401282665002 -0.012844722113462045 0 0.0083840338512087623 -0.012787004642147881 0 0.0082913023849282286 -0.012781897793818222 0 0.0083840338512087623 -0.012787004642147881 0 0.008336834516392869 -0.01273467449304865 0 0.0083840338512087623 -0.012787004642147881 0 0.008336834516392869 -0.01273467449304865 0 0.0083964252820528159 -0.012720679788856775 0 0.008336834516392869 -0.01273467449304865 0 0.0083964252820528159 -0.012720679788856775 0 0.0082659936136503746 -0.012654008123658123 0 0.0084814183313957625 -0.012772678301915719 0 0.0084724687132145121 -0.012674098435980869 0 0.0083964252820528159 -0.012720679788856775 0 0.0084814183313957625 -0.012772678301915719 0 0.0083840338512087623 -0.012787004642147881 0 0.0083964252820528159 -0.012720679788856775 0 0.0071469167601285882 -0.012695656333238926 0 0.0055144916182565508 -0.013032570500385098 0 0.0084724687132145121 -0.012674098435980869 0 0.0083964252820528159 -0.012720679788856775 0 0.0082659936136503746 -0.012654008123658123 0 0.0053321645047005265 -0.012792497939518659 0 0.005186132228187517 -0.0123465007089276 0 0.0048357456624776689 -0.012583176362383246 0 0.005186132228187517 -0.0123465007089276 0 0.0048357456624776689 -0.012583176362383246 0 0.0050245390846687509 -0.012323386565452532 0 0.0050749672356698895 -0.012358142343392756 0 0.005186132228187517 -0.0123465007089276 0 0.0050245390846687509 -0.012323386565452532 0 0.0055144916182565508 -0.013032570500385098 0 0.0045196969937627814 -0.012909969227348765 0 0.003982661310694322 -0.013623704942143364 0 0.0036766289286927121 -0.013457181407896686 0 0.0043518783871081424 -0.013363657258797644 0 0.003982661310694322 -0.013623704942143364 0 0.0039943193879175623 -0.013963668473265935 0 0.0043518783871081424 -0.013363657258797644 0 0.003982661310694322 -0.013623704942143364 0 0.0038508764672752559 -0.013814780828689605 0 0.0037242038837216451 -0.01374887409148281 0 0.003982661310694322 -0.013623704942143364 0 0.0038508764672752559 -0.013814780828689605 0 0.0039943193879175623 -0.013963668473265935 0 0.0038508764672752559 -0.013814780828689605 0 0.0039943193879175623 -0.013963668473265935 0 0.0037239386719299075 -0.013930201701647481 0 0.0038508764672752559 -0.013814780828689605 0 0.0037239386719299075 -0.013930201701647481 0 0.0037242038837216451 -0.01374887409148281 0 0.0036386365886427827 -0.013978714486010917 0 0.0037584687322845959 -0.013913835498479332 0 0.0037239386719299075 -0.013930201701647481 0 0.0055144916182565508 -0.013032570500385098 0 0.0038242924760615552 -0.01344604434424209 0 0.0037239386719299075 -0.013930201701647481 0 0.003575111751979393 -0.013879516743912874 0 0.0035508629252034222 -0.013965892927269226 0 0.0036386365886427827 -0.013978714486010917 0 0.0037239386719299075 -0.013930201701647481 0 0.0035508629252034222 -0.013965892927269226 0 0.003575111751979393 -0.013879516743912874 0 0.0035508629252034222 -0.013965892927269226 0 0.003413896090854616 -0.013953155514778942 0 0.003575111751979393 -0.013879516743912874 0 0.003413896090854616 -0.013953155514778942 0 0.0034745067805566658 -0.013762904285826692 0 0.003575111751979393 -0.013879516743912874 0 0.0034745067805566658 -0.013762904285826692 0 0.0037242038837216451 -0.01374887409148281 0 0.0037239386719299075 -0.013930201701647481 0 0.003575111751979393 -0.013879516743912874 0 0.0037242038837216451 -0.01374887409148281 0 0.0034745067805566658 -0.013762904285826692 0 0.0036766289286927121 -0.013457181407896686 0 0.0033142334734798649 -0.01353134361417588 0 0.003982661310694322 -0.013623704942143364 0 0.0037242038837216451 -0.01374887409148281 0 0.0036766289286927121 -0.013457181407896686 0 0.0034745067805566658 -0.013762904285826692 0 0.0037242038837216451 -0.01374887409148281 0 0.0036766289286927121 -0.013457181407896686 0 0.0034745067805566658 -0.013762904285826692 0 0.0033142334734798649 -0.01353134361417588 0 0.0032035949074936919 -0.013784481656083244 0 0.0030411147868644058 -0.013683886261913938 0 0.0033142334734798649 -0.01353134361417588 0 0.0032035949074936919 -0.013784481656083244 0 0.003413896090854616 -0.013953155514778942 0 0.0034745067805566658 -0.013762904285826692 0 0.0033146080381357616 -0.013871500783857252 0 0.0034745067805566658 -0.013762904285826692 0 0.0032035949074936919 -0.013784481656083244 0 0.0033146080381357616 -0.013871500783857252 0 0.003413896090854616 -0.013953155514778942 0 0.0033146080381357616 -0.013871500783857252 0 0.0031857711093822043 -0.013959634096485228 0 0.0032035949074936919 -0.013784481656083244 0 0.0033146080381357616 -0.013871500783857252 0 0.0031857711093822043 -0.013959634096485228 0 0.0033206591128225808 -0.014486025161709966 0 0.0040579768185585235 -0.014359751215449985 0 0.0030729451637212263 -0.012894529563726052 0 0.0034683584754377755 -0.013107496242485212 0 0.0037370213478288591 -0.012631242851490143 0 0.0036766289286927121 -0.013457181407896686 0 0.0033142334734798649 -0.01353134361417588 0 0.0034683584754377755 -0.013107496242485212 0 0.0030442583743912643 -0.013361576356998512 0 0.0033142334734798649 -0.01353134361417588 0 0.0034683584754377755 -0.013107496242485212 0 0.0030442583743912643 -0.013361576356998512 0 0.0030729451637212263 -0.012894529563726052 0 0.0034683584754377755 -0.013107496242485212 0 0.0036766289286927121 -0.013457181407896686 0 0.0034683584754377755 -0.013107496242485212 0 0.0041958670347174163 -0.012883956603335951 0 0.0034683584754377755 -0.013107496242485212 0 0.0037370213478288591 -0.012631242851490143 0 0.0041958670347174163 -0.012883956603335951 0 0.0037370213478288591 -0.012631242851490143 0 0.0041958670347174163 -0.012883956603335951 0 0.0047902599084158563 -0.012408180613678788 0 0.0040579768185585235 -0.014359751215449985 0 0.0052027202009209709 -0.013438691461633288 0 0.0036766289286927121 -0.013457181407896686 0 0.0041958670347174163 -0.012883956603335951 0 0.0043518783871081424 -0.013363657258797644 0 0.0050749672356698895 -0.012358142343392756 0 0.0050245390846687509 -0.012323386565452532 0 0.0049936143862047795 -0.01241718591722407 0 0.0045196969937627814 -0.012909969227348765 0 0.0048448897260393673 -0.012416416499128103 0 0.0050245390846687509 -0.012323386565452532 0 0.0047972819128875117 -0.012459260914308542 0 0.0049936143862047795 -0.01241718591722407 0 0.0041958670347174163 -0.012883956603335951 0 0.0043518783871081424 -0.013363657258797644 0 0.0047972819128875117 -0.012459260914308542 0 0.0052027202009209709 -0.013438691461633288 0 0.0054268686244460466 -0.011939144714008532 0 0.0047972819128875117 -0.012459260914308542 0 0.0047902599084158563 -0.012408180613678788 0 0.0049936143862047795 -0.01241718591722407 0 0.0041958670347174163 -0.012883956603335951 0 0.0047972819128875117 -0.012459260914308542 0 0.0047902599084158563 -0.012408180613678788 0 0.0053257189547608781 -0.015795654749887374 0 0.0051806857546460878 -0.01561473421017087 0 0.0055096056383237522 -0.015530404436005136 0 0.0052027202009209709 -0.013438691461633288 0 0.0057479498696359965 -0.015043465173731927 0 0.0051806857546460878 -0.01561473421017087 0 0.0051694034657640223 -0.015375372717650179 0 0.0055096056383237522 -0.015530404436005136 0 0.0051694034657640223 -0.015375372717650179 0 0.0055096056383237522 -0.015530404436005136 0 0.0054753159068427898 -0.015298127412735067 0 0.005594934137764903 -0.014999985977573311 0 0.004800121041442112 -0.01500001060851891 0 0.0051386266039720263 -0.015161707438263821 0 0.0054753159068427898 -0.015298127412735067 0 0.0050872917052930122 -0.015059043068583522 0 0.0058679367502292353 -0.015087800006598463 0 0.005594934137764903 -0.014999985977573311 0 0.0051386266039720263 -0.015161707438263821 0 0.0058814874691123578 -0.015208024856127201 0 0.0051174602643667818 -0.015111764826626546 0 0.0058724914433153494 -0.015149445788538957 0 0.0051694034657640223 -0.015375372717650179 0 0.0054753159068427898 -0.015298127412735067 0 0.0050872917052930122 -0.015059043068583522 0 0.0051694034657640223 -0.015375372717650179 0 0.0050872917052930122 -0.015059043068583522 0 0.0048115656514402172 -0.015283494268381227 0 0.0050872917052930122 -0.015059043068583522 0 0.0048115656514402172 -0.015283494268381227 0 0.0043431320871084511 -0.015056591935933891 0 0.0051174602643667818 -0.015111764826626546 0 0.0043628828217836483 -0.015086731153027385 0 0.004800121041442112 -0.01500001060851891 0 0.0051386266039720263 -0.015161707438263821 0 0.0043961080976830623 -0.015117639340488705 0 0.0044296837774017595 -0.015904320151657901 0 0.0053169181235547813 -0.01578395346693285 0 0.0051806857546460878 -0.01561473421017087 0 0.0048115656514402172 -0.015283494268381227 0 0.0048540162933457861 -0.01551224062977952 0 0.0046131649439788494 -0.015422210526548311 0 0.0044296837774017595 -0.015904320151657901 0 0.0051806857546460878 -0.01561473421017087 0 0.0048540162933457861 -0.01551224062977952 0 0.0051806857546460878 -0.01561473421017087 0 0.0051694034657640223 -0.015375372717650179 0 0.0048540162933457861 -0.01551224062977952 0 0.0051694034657640223 -0.015375372717650179 0 0.0048115656514402172 -0.015283494268381227 0 0.0048540162933457861 -0.01551224062977952 0 0.0044296837774017595 -0.015904320151657901 0 0.0043128887205268682 -0.015422109857933073 0 0.0039445293606328036 -0.015506271186151912 0 0.0044296837774017595 -0.015904320151657901 0 0.0043128887205268682 -0.015422109857933073 0 0.0046131649439788494 -0.015422210526548311 0 0.0044296837774017595 -0.015904320151657901 0 0.0048540162933457861 -0.01551224062977952 0 0.0046131649439788494 -0.015422210526548311 0 0.0048115656514402172 -0.015283494268381227 0 0.0046131649439788494 -0.015422210526548311 0 0.0043431320871084511 -0.015056591935933891 0 0.0043128887205268682 -0.015422109857933073 0 0.0046131649439788494 -0.015422210526548311 0 0.0043431320871084511 -0.015056591935933891 0 0.004800121041442112 -0.01500001060851891 0 0.0043961080976830623 -0.015117639340488705 0 0.0040052518421467165 -0.01499997764587321 0 0.0043128887205268682 -0.015422109857933073 0 0.0043431320871084511 -0.015056591935933891 0 0.0039445293606328036 -0.015506271186151912 0 0.0036975160952366242 -0.015061671271366111 0 0.0043628828217836483 -0.015086731153027385 0 0.003649102734058691 -0.015062618391196554 0 0.0043431320871084511 -0.015056591935933891 0 0.0039445293606328036 -0.015506271186151912 0 0.003649102734058691 -0.015062618391196554 0 0.0043961080976830623 -0.015117639340488705 0 0.0040052518421467165 -0.01499997764587321 0 0.0035763045440458316 -0.016015705467421114 0 0.0044296837774017595 -0.015904320151657901 0 0.0039445293606328036 -0.015506271186151912 0 0.0073719524013744538 -0.011410444264257667 0 0.0081132036246357678 -0.011955572033441038 0 0.0069829406441748905 -0.01198333726723283 0 0.0073719524013744538 -0.011410444264257667 0 0.0082329554520660791 -0.011257667416860949 0 0.0077187555314972732 -0.010784920648150219 0 0.0073719524013744538 -0.011410444264257667 0 0.0082329554520660791 -0.011257667416860949 0 0.0081132036246357678 -0.011955572033441038 0 0.0083195780130205423 -0.011638672977605336 0 0.0090338997811082195 -0.011348099870793042 0 0.0082329554520660791 -0.011257667416860949 0 0.0088659725581951617 -0.010620011418859234 0 0.0089002118350127932 -0.011468898869978804 0 0.0082329554520660791 -0.011257667416860949 0 0.0081132036246357678 -0.011955572033441038 0 0.0089002118350127932 -0.011468898869978804 0 0.0086467854168949879 -0.011531121236365051 0 0.0091521036664916067 -0.011234880045412413 0 0.0094378037026976343 -0.011507676980815878 0 0.0084714325289284905 -0.011050026982285813 0 0.0090170323367147788 -0.011457623320350642 0 0.0094395624612648409 -0.011126289140391933 0 0.0083195780130205423 -0.011638672977605336 0 0.0094848680533669901 -0.011272838843995332 0 0.0086449003302832977 -0.011631677329116514 0 0.0084714325289284905 -0.011050026982285813 0 0.0090170323367147788 -0.011457623320350642 0 0.0082372147631650534 -0.011558299682927221 0 0.0086449003302832977 -0.011631677329116514 0 0.0084714325289284905 -0.011050026982285813 0 0.0080894915866254694 -0.011948474850605149 0 0.0074371038133105062 -0.012334975700115561 0 0.0069829406441748905 -0.01198333726723283 0 0.0082372147631650534 -0.011558299682927221 0 0.0084714325289284905 -0.011050026982285813 0 0.0078436020246526548 -0.011336919082149189 0 0.0083195780130205423 -0.011638672977605336 0 0.0069607030666269465 -0.012041494076124825 0 0.0083195780130205423 -0.011638672977605336 0 0.0076935370749675698 -0.011802929999224525 0 0.0067890585566554081 -0.012709921561482375 0 0.0074371038133105062 -0.012334975700115561 0 0.0069829406441748905 -0.01198333726723283 0 0.0064758502483562739 -0.012092901084774701 0 0.0076935370749675698 -0.011802929999224525 0 0.0067890585566554081 -0.012709921561482375 0 0.0069829406441748905 -0.01198333726723283 0 0.0061571516945452221 -0.011901795981241348 0 0.0064758502483562739 -0.012092901084774701 0 0.0054268686244460466 -0.011939144714008532 0 0.0050749672356698895 -0.012358142343392756 0 0.0050275888959946764 -0.012346776043350396 0 0.0049936143862047795 -0.01241718591722407 0 0.0069829406441748905 -0.01198333726723283 0 0.0061571516945452221 -0.011901795981241348 0 0.0066094124289176256 -0.011535242532406521 0 0.0055284576931224185 -0.011113909662932265 0 0.0066094124289176256 -0.011535242532406521 0 0.0066081531657043741 -0.010956433045509813 0 0.0055284576931224185 -0.011113909662932265 0 0.0061571516945452221 -0.011901795981241348 0 0.0066094124289176256 -0.011535242532406521 0 0.0073719524013744538 -0.011410444264257667 0 0.0069829406441748905 -0.01198333726723283 0 0.0066094124289176256 -0.011535242532406521 0 0.0073719524013744538 -0.011410444264257667 0 0.0066094124289176256 -0.011535242532406521 0 0.0066081531657043741 -0.010956433045509813 0 0.0063951558364802484 -0.013327355571976602 0 0.0072681097181044483 -0.013200004861247146 0 0.0062464405462194922 -0.015359125790144619 0 0.0066444794840342944 -0.015152210080751622 0 0.0068271770038819211 -0.015613165806663307 0 0.0073719524013744538 -0.011410444264257667 0 0.0066081531657043741 -0.010956433045509813 0 0.0077187555314972732 -0.010784920648150219 0 0.0060846883052205992 -0.015702852511472205 0 0.0062464405462194922 -0.015359125790144619 0 0.0068271770038819211 -0.015613165806663307 0 0.0055096056383237522 -0.015530404436005136 0 0.0060846883052205992 -0.015702852511472205 0 0.0058265093512780064 -0.015400248994663088 0 0.0053257189547608781 -0.015795654749887374 0 0.0055096056383237522 -0.015530404436005136 0 0.0060846883052205992 -0.015702852511472205 0 0.0052027202009209709 -0.013438691461633288 0 0.0063951558364802484 -0.013327355571976602 0 0.0060846883052205992 -0.015702852511472205 0 0.0058265093512780064 -0.015400248994663088 0 0.0062464405462194922 -0.015359125790144619 0 0.0055096056383237522 -0.015530404436005136 0 0.0054753159068427898 -0.015298127412735067 0 0.0058265093512780064 -0.015400248994663088 0 0.005594934137764903 -0.014999985977573311 0 0.0058814874691123578 -0.015208024856127201 0 0.0063897837323435404 -0.015000039439926203 0 0.0054753159068427898 -0.015298127412735067 0 0.0058265093512780064 -0.015400248994663088 0 0.0058679367502292353 -0.015087800006598463 0 0.0058265093512780064 -0.015400248994663088 0 0.0058679367502292353 -0.015087800006598463 0 0.0062464405462194922 -0.015359125790144619 0 0.0058814874691123578 -0.015208024856127201 0 0.0063897837323435404 -0.015000039439926203 0 0.0066292108130351218 -0.015251808174111236 0 0.0058724914433153494 -0.015149445788538957 0 0.0066429824595370633 -0.015200779152761534 0 0.0058679367502292353 -0.015087800006598463 0 0.0062464405462194922 -0.015359125790144619 0 0.0066444794840342944 -0.015152210080751622 0 0.0066444794840342944 -0.015152210080751622 0 0.0068271770038819211 -0.015613165806663307 0 0.0073698013846357144 -0.015241236058747288 0 0.0066429824595370633 -0.015200779152761534 0 0.0073180270559196573 -0.015239566237527362 0 0.0063897837323435404 -0.015000039439926203 0 0.0066292108130351218 -0.015251808174111236 0 0.0071846210655115532 -0.014999832119529689 0 0.0068271770038819211 -0.015613165806663307 0 0.0073698013846357144 -0.015241236058747288 0 0.0075219300416231958 -0.01554918895635406 0 0.0082329554520660791 -0.011257667416860949 0 0.0077187555314972732 -0.010784920648150219 0 0.0088659725581951617 -0.010620011418859234 0 0.0072681097181044483 -0.013200004861247146 0 0.0081840019316776758 -0.013094792294892455 0 0.0071847587339295155 -0.015000017664462966 0 0.0077924227596793492 -0.015106999857639398 0 0.0066292108130351218 -0.015251808174111236 0 0.0073698013846357144 -0.015241236058747288 0 0.0071846210655115532 -0.014999832119529689 0 0.0073698013846357144 -0.015241236058747288 0 0.0071846210655115532 -0.014999832119529689 0 0.0077819219990445864 -0.015061444810271165 0 0.0071846028748582969 -0.014999999458056129 0 0.0077763520308815658 -0.015150994288179662 0 0.0080581804573472277 -0.014999998263946946 0 0.0077819219990445864 -0.015061444810271165 0 0.0079369820695174495 -0.015311504700783457 0 0.0076587234469442057 -0.015295783220446042 0 0.0073698013846357144 -0.015241236058747288 0 0.0077819219990445864 -0.015061444810271165 0 0.0076587234469442057 -0.015295783220446042 0 0.0073698013846357144 -0.015241236058747288 0 0.0076587234469442057 -0.015295783220446042 0 0.0075219300416231958 -0.01554918895635406 0 0.0077819219990445864 -0.015061444810271165 0 0.0079369820695174495 -0.015311504700783457 0 0.008445663589335628 -0.015176776750572583 0 0.0077924227596793492 -0.015106999857639398 0 0.0083552019783294136 -0.015321455279552434 0 0.0077763520308815658 -0.015150994288179662 0 0.0080581804573472277 -0.014999998263946946 0 0.0083693276321720866 -0.015299833134239679 0 0.0079369820695174495 -0.015311504700783457 0 0.008445663589335628 -0.015176776750572583 0 0.0082996658297356911 -0.01545338983936813 0 0.0096429650380459673 -0.010951640440795959 0 0.0098713513827760144 -0.010533782700426687 0 0.010228426167177446 -0.010893689552192866 0 0.0096429650380459673 -0.010951640440795959 0 0.0098713513827760144 -0.010533782700426687 0 0.0088659725581951617 -0.010620011418859234 0 0.0079369820695174495 -0.015311504700783457 0 0.0082996658297356911 -0.01545338983936813 0 0.0075219300416231958 -0.01554918895635406 0 0.0091322381493935574 -0.012915431262418559 0 0.0081840019316776758 -0.013094792294892455 0 0.0096429650380459673 -0.010951640440795959 0 0.0088659725581951617 -0.010620011418859234 0 0.0089002118350127932 -0.011468898869978804 0 0.0079369820695174495 -0.015311504700783457 0 0.0076587234469442057 -0.015295783220446042 0 0.0075219300416231958 -0.01554918895635406 0 0.0095814446306480353 -0.010998568400913499 0 0.0090338997811082195 -0.011348099870793042 0 0.0096429650380459673 -0.010951640440795959 0 0.0091521036664916067 -0.011234880045412413 0 0.0094378037026976343 -0.011507676980815878 0 0.0096429650380459673 -0.010951640440795959 0 0.0094378037026976343 -0.011507676980815878 0 0.010265918203890492 -0.011445039017498463 0 0.0096429650380459673 -0.010951640440795959 0 0.010265918203890492 -0.011445039017498463 0 0.010228426167177446 -0.010893689552192866 0 0.0094395624612648409 -0.011126289140391933 0 0.010300322079053657 -0.01116886359503841 0 0.0094685304359641304 -0.011654210147493882 0 0.0094848680533669901 -0.011272838843995332 0 0.010268831001068039 -0.011310297236750666 0 0.0090170323367147788 -0.011457623320350642 0 0.0094395624612648409 -0.011126289140391933 0 0.0094685304359641304 -0.011654210147493882 0 0.010268831001068039 -0.011310297236750666 0 0.010983614215522504 -0.011281782230102216 0 0.010300322079053657 -0.01116886359503841 0 0.011035369602630653 -0.01127928123342779 0 0.010695163643192149 -0.011738995510655935 0 0.010265918203890492 -0.011445039017498463 0 0.010696327892616991 -0.010945853281468368 0 0.010228426167177446 -0.010893689552192866 0 0.010265918203890492 -0.011445039017498463 0 0.010696327892616991 -0.010945853281468368 0 0.011035369602630653 -0.01127928123342779 0 0.010696327892616991 -0.010945853281468368 0 0.011149850580010476 -0.010655081268251911 0 0.011035369602630653 -0.01127928123342779 0 0.010696327892616991 -0.010945853281468368 0 0.010604466911834068 -0.010486534499896581 0 0.011149850580010476 -0.010655081268251911 0 0.0096712169537311633 -0.013661007075911466 0 0.010763238445456274 -0.011874091657833376 0 0.0098960589010210556 -0.013254093448038689 0 0.010270396195723962 -0.013204811464750299 0 0.010348745871231446 -0.01336012541436774 0 0.010696327892616991 -0.010945853281468368 0 0.010228426167177446 -0.010893689552192866 0 0.010604466911834068 -0.010486534499896581 0 0.0098713513827760144 -0.010533782700426687 0 0.010228426167177446 -0.010893689552192866 0 0.010604466911834068 -0.010486534499896581 0 0.0091322381493935574 -0.012915431262418559 0 0.0096712169537311633 -0.013661007075911466 0 0.0083552019783294136 -0.015321455279552434 0 0.0096712169537311633 -0.013661007075911466 0 0.0080581804573472277 -0.014999998263946946 0 0.0083693276321720866 -0.015299833134239679 0 0.0089317609078404542 -0.014999991937622524 0 0.008445663589335628 -0.015176776750572583 0 0.0082996658297356911 -0.01545338983936813 0 0.0091484143339565678 -0.015322038461012464 0 0.0083693276321720866 -0.015299833134239679 0 0.0089628944298867867 -0.015445795309960503 0 0.0089317609078404542 -0.014999991937622524 0 0.0089628944298867867 -0.015445795309960503 0 0.0092919247513426357 -0.015207533438703286 0 0.0094678461112553541 -0.015384320061938401 0 0.0089317609078404542 -0.014999991937622524 0 0.0092919247513426357 -0.015207533438703286 0 0.0098053324019249273 -0.014999992029353301 0 0.0096712169537311633 -0.013661007075911466 0 0.0098144847451907147 -0.014299400258204052 0 0.0089628944298867867 -0.015445795309960503 0 0.0089317609078404542 -0.014999991937622524 0 0.0092919247513426357 -0.015207533438703286 0 0.010270396195723962 -0.013204811464750299 0 0.010635359790305743 -0.013162822944536468 0 0.010615052864098919 -0.013233614373097696 0 0.0094678461112553541 -0.015384320061938401 0 0.009863100943751606 -0.015101752349951194 0 0.0099717390930137862 -0.015321642614097025 0 0.0092919247513426357 -0.015207533438703286 0 0.0094678461112553541 -0.015384320061938401 0 0.0098053324019249273 -0.014999992029353301 0 0.0098144847451907147 -0.014299400258204052 0 0.01034913608837479 -0.014540469181406121 0 0.0094678461112553541 -0.015384320061938401 0 0.0098053324019249273 -0.014999992029353301 0 0.009863100943751606 -0.015101752349951194 0 0.01034913608837479 -0.014540469181406121 0 0.011065632929330379 -0.014619293599590017 0 0.010536354841218197 -0.014480908194152748 0 0.0105689524097793 -0.014548024418457459 0 0.011043313149611308 -0.014424309910012529 0 0.009863100943751606 -0.015101752349951194 0 0.009973316200758444 -0.015324624148983052 0 0.010595128925622593 -0.015250144592727237 0 0.0098053324019249273 -0.014999992029353301 0 0.009863100943751606 -0.015101752349951194 0 0.010678904396030848 -0.015000692957206621 0 0.010769835224126367 -0.013928100109981783 0 0.011065632929330379 -0.014619293599590017 0 0.010216624554416234 -0.015012786573740059 0 0.01034913608837479 -0.014540469181406121 0 0.010635359790305743 -0.013162822944536468 0 0.010663858425839133 -0.01322136264704209 0 0.010615052864098919 -0.013233614373097696 0 0.01034913608837479 -0.014540469181406121 0 0.010769835224126367 -0.013928100109981783 0 0.010769835224126367 -0.013928100109981783 0 0.01076935052740504 -0.013888134924008129 0 0.011623975365320586 -0.010794489609373899 0 0.011149850580010476 -0.010655081268251911 0 0.011461051102403965 -0.011287694028744744 0 0.010663911950467458 -0.013220246071766865 0 0.010615052864098919 -0.013233614373097696 0 0.010788292683099601 -0.013463488463370869 0 0.011316278498807109 -0.012492310934634985 0 0.010763238445456274 -0.011874091657833376 0 0.010615052864098919 -0.013233614373097696 0 0.010788292683099601 -0.013463488463370869 0 0.010348745871231446 -0.01336012541436774 0 0.011393443888725856 -0.013712965270537071 0 0.011396155025698494 -0.013709803538327832 0 0.011395994401772098 -0.013713353794101593 0 0.010769835224126367 -0.013928100109981783 0 0.011316278498807109 -0.012492310934634985 0 0.010270396195723962 -0.013204811464750299 0 0.010615052864098919 -0.013233614373097696 0 0.010348745871231446 -0.01336012541436774 0 0.011327620919071255 -0.014802610762848908 0 0.011517858643180843 -0.015000493674413721 0 0.013492008375667205 -0.014767960078975335 0 0.013401316187954143 -0.014679006772542176 0 0.013335911027763134 -0.014813174807506912 0 0.010701962051730735 -0.015239372341166563 0 0.010678914070568812 -0.015000693849657073 0 0.011519021981153739 -0.015000002100679675 0 0.011327620919071255 -0.014802610762848908 0 0.012520259928294933 -0.014979274912731187 0 0.010833746001863509 -0.01520293280230251 0 0.01151913023633578 -0.014999973699068522 0 0.011374330832361492 -0.015138061712028646 0 0.009863100943751606 -0.015101752349951194 0 0.010595128925622593 -0.015250144592727237 0 0.010678904396030848 -0.015000692957206621 0 0.011393443888725856 -0.013712965270537071 0 0.011395454466982384 -0.013718153768851157 0 0.011395994401772098 -0.013713353794101593 0 0.011065632929330379 -0.014619293599590017 0 0.011327620919071255 -0.014802610762848908 0 0.010595128925622593 -0.015250144592727237 0 0.010700856634611846 -0.015236842673391834 0 0.010678904396030848 -0.015000692957206621 0 0.011327620919071255 -0.014802610762848908 0 0.010679555591750819 -0.015000759218827332 0 0.011327620919071255 -0.014802610762848908 0 0.012463942616134196 -0.013214602595944071 0 0.011396155025698494 -0.013709803538327832 0 0.01140177723995316 -0.013709202763087082 0 0.011395994401772098 -0.013713353794101593 0 0.011316278498807109 -0.012492310934634985 0 0.012463942616134196 -0.013214602595944071 0 0.011395454466982384 -0.013718153768851157 0 0.01140177723995316 -0.013709202763087082 0 0.011395994401772098 -0.013713353794101593 0 0.011395454466982384 -0.013718153768851157 0 0.011395131708940277 -0.013719138993190267 0 0.01140177723995316 -0.013709202763087082 0 0.013482153889249391 -0.014581181866079819 0 0.013401316187954143 -0.014679006772542176 0 0.013325388147185075 -0.01453091918351903 0 0.013492008375667205 -0.014767960078975335 0 0.013482153889249391 -0.014581181866079819 0 0.013401316187954143 -0.014679006772542176 0 0.012463942616134196 -0.013214602595944071 0 0.012103374964181469 -0.011811067760947985 0 0.012397023417817083 -0.011924239419605076 0 0.012394054651549222 -0.011970108588768518 0 0.012456868961143818 -0.011928236140064103 0 0.012463942616134196 -0.013214602595944071 0 0.012779288598061316 -0.013213617141403572 0 0.012135138342490909 -0.012411207988193495 0 0.011903738962919923 -0.012351077668332046 0 0.012000357935861626 -0.012108827534865136 0 0.011903738962919923 -0.012351077668332046 0 0.012000357935861626 -0.012108827534865136 0 0.011881971910124123 -0.012077836114124689 0 0.011316278498807109 -0.012492310934634985 0 0.011943505089640094 -0.011532184432779417 0 0.012000357935861626 -0.012108827534865136 0 0.011881971910124123 -0.012077836114124689 0 0.011863379501963972 -0.011807891569172242 0 0.011943505089640094 -0.011532184432779417 0 0.012119702932857777 -0.011933288729797554 0 0.012394054651549222 -0.011970108588768518 0 0.012426823335705259 -0.011985950927408862 0 0.01237492258667083 -0.012027914211968461 0 0.012394054651549222 -0.011970108588768518 0 0.012426823335705259 -0.011985950927408862 0 0.012456868961143818 -0.011928236140064103 0 0.011149850580010476 -0.010655081268251911 0 0.011461051102403965 -0.011287694028744744 0 0.011035369602630653 -0.01127928123342779 0 0.011623975365320586 -0.010794489609373899 0 0.011860835294804332 -0.011336687665384853 0 0.011461051102403965 -0.011287694028744744 0 0.011860835294804332 -0.011336687665384853 0 0.011461051102403965 -0.011287694028744744 0 0.011707349516870608 -0.011659152388206981 0 0.011461051102403965 -0.011287694028744744 0 0.011035369602630653 -0.01127928123342779 0 0.011385621470280091 -0.011885930223146523 0 0.011035369602630653 -0.01127928123342779 0 0.011385621470280091 -0.011885930223146523 0 0.010695163643192149 -0.011738995510655935 0 0.011385621470280091 -0.011885930223146523 0 0.011741981401675315 -0.011990212467459519 0 0.011593766225472821 -0.012235695188255723 0 0.011385621470280091 -0.011885930223146523 0 0.011707349516870608 -0.011659152388206981 0 0.011741981401675315 -0.011990212467459519 0 0.011461051102403965 -0.011287694028744744 0 0.011385621470280091 -0.011885930223146523 0 0.011707349516870608 -0.011659152388206981 0 0.011385621470280091 -0.011885930223146523 0 0.011303799601282281 -0.012166227903451465 0 0.011101366647603665 -0.011934412339363373 0 0.012103374964181469 -0.011811067760947985 0 0.012119702932857777 -0.011933288729797554 0 0.012411782150684419 -0.01202390022930548 0 0.012368437194023375 -0.0120427451502103 0 0.012417873836482749 -0.012048433639880058 0 0.012426823335705259 -0.011985950927408862 0 0.012411782150684419 -0.01202390022930548 0 0.01237492258667083 -0.012027914211968461 0 0.012411782150684419 -0.01202390022930548 0 0.01237492258667083 -0.012027914211968461 0 0.012368437194023375 -0.0120427451502103 0 0.012119702932857777 -0.011933288729797554 0 0.012232025058692499 -0.012043657185656755 0 0.011707349516870608 -0.011659152388206981 0 0.012025730226767726 -0.011772437972528792 0 0.011741981401675315 -0.011990212467459519 0 0.011860835294804332 -0.011336687665384853 0 0.011707349516870608 -0.011659152388206981 0 0.012025730226767726 -0.011772437972528792 0 0.012025730226767726 -0.011772437972528792 0 0.011741981401675315 -0.011990212467459519 0 0.012055881410259879 -0.012119015079147493 0 0.012368437194023375 -0.0120427451502103 0 0.012386441496119411 -0.012091102303185289 0 0.012294629320453313 -0.012143117686509679 0 0.012374168950175351 -0.012015707604684123 0 0.012368437194023375 -0.0120427451502103 0 0.012294629320453313 -0.012143117686509679 0 0.012119702932857777 -0.011933288729797554 0 0.01218747564961784 -0.012137404714982059 0 0.012368437194023375 -0.0120427451502103 0 0.012386441496119411 -0.012091102303185289 0 0.012417873836482749 -0.012048433639880058 0 0.012386441496119411 -0.012091102303185289 0 0.012294629320453313 -0.012143117686509679 0 0.012455990531975932 -0.012171379618180909 0 0.011741981401675315 -0.011990212467459519 0 0.012055881410259879 -0.012119015079147493 0 0.011882620700666374 -0.012277035242849253 0 0.011882620700666374 -0.012277035242849253 0 0.011752552263368597 -0.012509150189954028 0 0.012183250489752471 -0.012446907564418647 0 0.012294629320453313 -0.012143117686509679 0 0.012399065694310027 -0.012324293500087584 0 0.012183250489752471 -0.012446907564418647 0 0.01218747564961784 -0.012137404714982059 0 0.012183993552834208 -0.012443150082599564 0 0.012055881410259879 -0.012119015079147493 0 0.011882620700666374 -0.012277035242849253 0 0.012183250489752471 -0.012446907564418647 0 0.011385621470280091 -0.011885930223146523 0 0.011303799601282281 -0.012166227903451465 0 0.011593766225472821 -0.012235695188255723 0 0.011741981401675315 -0.011990212467459519 0 0.011882620700666374 -0.012277035242849253 0 0.011593766225472821 -0.012235695188255723 0 0.011593766225472821 -0.012235695188255723 0 0.011331304666748759 -0.012428160750574657 0 0.011752552263368597 -0.012509150189954028 0 0.011882620700666374 -0.012277035242849253 0 0.011593766225472821 -0.012235695188255723 0 0.011752552263368597 -0.012509150189954028 0 0.011303799601282281 -0.012166227903451465 0 0.011593766225472821 -0.012235695188255723 0 0.011331304666748759 -0.012428160750574657 0 0.011303799601282281 -0.012166227903451465 0 0.011331304666748759 -0.012428160750574657 0 0.011035215177238338 -0.012459366484760077 0 0.011303799601282281 -0.012166227903451465 0 0.011035215177238338 -0.012459366484760077 0 0.011101366647603665 -0.011934412339363373 0 0.011035215177238338 -0.012459366484760077 0 0.010542950615546685 -0.012051913151270325 0 0.011101366647603665 -0.011934412339363373 0 0.010178134814132937 -0.012447200288227447 0 0.010871930560652365 -0.012166904193579024 0 0.011035215177238338 -0.012459366484760077 0 0.010542950615546685 -0.012051913151270325 0 0.010370209331798132 -0.01258830313654853 0 0.0098594806532103958 -0.012317420634121628 0 0.010542950615546685 -0.012051913151270325 0 0.010370209331798132 -0.01258830313654853 0 0.009195971820100627 -0.012753851057000148 0 0.0098239115127884118 -0.012846424327831122 0 0.0094274126025582286 -0.012455229960480933 0 0.0094653738077577626 -0.01267257289699894 0 0.010178134814132937 -0.012447200288227447 0 0.0090400280273673032 -0.013039341965443594 0 0.009195971820100627 -0.012753851057000148 0 0.0098239115127884118 -0.012846424327831122 0 0.0098239115127884118 -0.012846424327831122 0 0.0094274126025582286 -0.012455229960480933 0 0.0099485544588729536 -0.012036610863563758 0 0.0094274126025582286 -0.012455229960480933 0 0.0093269178427998305 -0.012078066290754835 0 0.0099485544588729536 -0.012036610863563758 0 0.0090143855816594565 -0.012555933756571672 0 0.009195971820100627 -0.012753851057000148 0 0.0094274126025582286 -0.012455229960480933 0 0.0090143855816594565 -0.012555933756571672 0 0.0094274126025582286 -0.012455229960480933 0 0.0093269178427998305 -0.012078066290754835 0 0.0090156007878184393 -0.011814850648247575 0 0.0090170323367147788 -0.011457623320350642 0 0.0094685304359641304 -0.011654210147493882 0 0.0090156007878184393 -0.011814850648247575 0 0.0093269178427998305 -0.012078066290754835 0 0.0094685304359641304 -0.011654210147493882 0 0.010300322079053657 -0.01116886359503841 0 0.0094685304359641304 -0.011654210147493882 0 0.0099485544588729536 -0.012036610863563758 0 0.0093269178427998305 -0.012078066290754835 0 0.0094685304359641304 -0.011654210147493882 0 0.0099485544588729536 -0.012036610863563758 0 0.010300322079053657 -0.01116886359503841 0 0.0099485544588729536 -0.012036610863563758 0 0.010695163643192149 -0.011738995510655935 0 0.0099485544588729536 -0.012036610863563758 0 0.010695163643192149 -0.011738995510655935 0 0.010663149116056673 -0.012407015057927897 0 0.011385621470280091 -0.011885930223146523 0 0.010695163643192149 -0.011738995510655935 0 0.010663149116056673 -0.012407015057927897 0 0.011354152570255569 -0.01190938892130018 0 0.010871930560652365 -0.012166904193579024 0 0.0098239115127884118 -0.012846424327831122 0 0.0099485544588729536 -0.012036610863563758 0 0.010663149116056673 -0.012407015057927897 0 0.014999949930562939 -0.013522819108175784 0 0.015148795900980571 -0.013745120259977529 0 0.014999827496966706 -0.013002057848669283 0 0.014999949930562939 -0.013522819108175784 0 0.015148795900980571 -0.013745120259977529 0 0.01511240552501404 -0.013753729301405501 0 0.01511240552501404 -0.013753729301405501 0 0.015032729405624995 -0.013665129604253919 0 0.014900190529349211 -0.013767677873021834 0 0.015148795900980571 -0.013745120259977529 0 0.01511240552501404 -0.013753729301405501 0 0.014900190529349211 -0.013767677873021834 0 0.014999949930562939 -0.013522819108175784 0 0.01511240552501404 -0.013753729301405501 0 0.014999967510869665 -0.014042839833076188 0 0.015000265729323854 -0.014999506874597477 0 0.014910672601344783 -0.014955145337812611 0 0.013840362388016633 -0.014999831902196286 0 0.014999052375420463 -0.01426030127891984 0 0.014910672601344783 -0.014955145337812611 0 0.015349730817978167 -0.014545374371283275 0 0.015000011990065388 -0.014043832061362631 0 0.01499997891573869 -0.01425900903526485 0 0.015621123220012245 -0.014352335210211436 0 0.01511240552501404 -0.013753729301405501 0 0.014999967510869665 -0.014042839833076188 0 0.015080534703861368 -0.013635256712115075 0 0.015000133215519492 -0.014043542152262209 0 0.015107139122339918 -0.014402263734002352 0 0.015000518334075749 -0.01425919334468651 0 0.015107139122339918 -0.014402263734002352 0 0.014999052375420463 -0.01426030127891984 0 0.015000265729323854 -0.014999506874597477 0 0.014910672601344783 -0.014955145337812611 0 0.015077391894965386 -0.014968886548433501 0 0.014204612469105576 -0.01465397589870954 0 0.014910672601344783 -0.014955145337812611 0 0.014236538082128844 -0.015469349842481755 0 0.013840362388016633 -0.014999831902196286 0 0.014910672601344783 -0.014955145337812611 0 0.015537674927520973 -0.014635040558135467 0 0.015349730817978167 -0.014545374371283275 0 0.01511240552501404 -0.013753729301405501 0 0.015080534703861368 -0.013635256712115075 0 0.015032729405624995 -0.013665129604253919 0 0.014982263399116997 -0.013501602232815022 0 0.015032729405624995 -0.013665129604253919 0 0.014900190529349211 -0.013767677873021834 0 0.013692270485064401 -0.014487672177368441 0 0.015107139122339918 -0.014402263734002352 0 0.014268687802546504 -0.014256862910618028 0 0.013972876029227786 -0.014410124481511032 0 0.01486851333631021 -0.014537523109234051 0 0.014204612469105576 -0.01465397589870954 0 0.015107139122339918 -0.014402263734002352 0 0.014204612469105576 -0.01465397589870954 0 0.013692270485064401 -0.014487672177368441 0 0.014982263399116997 -0.013501602232815022 0 0.015080534703861368 -0.013635256712115075 0 0.015032729405624995 -0.013665129604253919 0 0.012271631326010656 -0.014729593816725032 0 0.012544731102959393 -0.014775933181223814 0 0.012579881726835088 -0.014529705516331698 0 0.012956713625387379 -0.014929038184578143 0 0.012944535438849377 -0.014935834938200361 0 0.012869849305185539 -0.014912210006195888 0 0.013692270485064401 -0.014487672177368441 0 0.012507078271498998 -0.014850728029725618 0 0.012944535438849377 -0.014935834938200361 0 0.012869849305185539 -0.014912210006195888 0 0.012878234748983532 -0.014925493476029176 0 0.014982263399116997 -0.013501602232815022 0 0.014317255575771548 -0.0135345252096462 0 0.014900190529349211 -0.013767677873021834 0 0.013692270485064401 -0.014487672177368441 0 0.013447106403147984 -0.014009464036969739 0 0.014236538082128844 -0.015469349842481755 0 0.013840362388016633 -0.014999831902196286 0 0.013578933530602879 -0.015270400657079143 0 0.014204612469105576 -0.01465397589870954 0 0.013146651179637696 -0.015112997412720892 0 0.012869849305185539 -0.014912210006195888 0 0.012894091265639031 -0.014919449486688937 0 0.012967061307200087 -0.014999693153417088 0 0.012894091265639031 -0.014919449486688937 0 0.012878234748983532 -0.014925493476029176 0 0.012866375105322753 -0.014878365506509048 0 0.013146651179637696 -0.015112997412720892 0 0.012968698484313422 -0.015000035508979239 0 0.013840362388016633 -0.014999831902196286 0 0.013578933530602879 -0.015270400657079143 0 0.01296845209586508 -0.015000073177801197 0 0.012869849305185539 -0.014912210006195888 0 0.012894091265639031 -0.014919449486688937 0 0.012878234748983532 -0.014925493476029176 0 0.012507078271498998 -0.014850728029725618 0 0.012939197956406013 -0.014884065786999514 0 0.012544731102959393 -0.014775933181223814 0 0.012764527338347939 -0.014684561702307209 0 0.012866375105322753 -0.014878365506509048 0 0.012544731102959393 -0.014775933181223814 0 0.012579881726835088 -0.014529705516331698 0 0.012764527338347939 -0.014684561702307209 0 0.014317255575771548 -0.0135345252096462 0 0.014524558741247386 -0.014197649013930815 0 0.013248151242797374 -0.014271506609293744 0 0.014317255575771548 -0.0135345252096462 0 0.014900190529349211 -0.013767677873021834 0 0.014524558741247386 -0.014197649013930815 0 0.015148795900980571 -0.013745120259977529 0 0.014900190529349211 -0.013767677873021834 0 0.014524558741247386 -0.014197649013930815 0 0.015306514577592066 -0.013361145980490782 0 0.01515419138981855 -0.013563589918094613 0 0.015552985087005424 -0.013003140094759063 0 0.0159568464897617 -0.012997017441245894 0 0.01560609667796267 -0.012836132466178389 0 0.0159568464897617 -0.012997017441245894 0 0.016039015948828443 -0.012832200099347137 0 0.01560609667796267 -0.012836132466178389 0 0.0159568464897617 -0.012997017441245894 0 0.016382248808373061 -0.013021607600967877 0 0.016039015948828443 -0.012832200099347137 0 0.01515419138981855 -0.013563589918094613 0 0.015049010908550698 -0.013734636866835992 0 0.016382248808373061 -0.013021607600967877 0 0.016529638642305503 -0.012817651417895424 0 0.016039015948828443 -0.012832200099347137 0 0.016513814590153091 -0.012819422254123304 0 0.016094296635374313 -0.012766437742402988 0 0.016382248808373061 -0.013021607600967877 0 0.016529638642305503 -0.012817651417895424 0 0.016809695660622195 -0.01311376425902523 0 0.016529638642305503 -0.012817651417895424 0 0.016809695660622195 -0.01311376425902523 0 0.016788220169723731 -0.012725362858902778 0 0.013248151242797374 -0.014271506609293744 0 0.013178966049297563 -0.014280753665321683 0 0.013096300881482082 -0.014436578965780916 0 0.013108764138813206 -0.01444742719272212 0 0.013178966049297563 -0.014280753665321683 0 0.013096300881482082 -0.014436578965780916 0 0.015049010908550698 -0.013734636866835992 0 0.01392681017187725 -0.013214501621910771 0 0.013108764138813206 -0.01444742719272212 0 0.013102076445683548 -0.01453534689049954 0 0.013096300881482082 -0.014436578965780916 0 0.013108764138813206 -0.01444742719272212 0 0.013036154486616285 -0.014582052590725227 0 0.013102076445683548 -0.01453534689049954 0 0.013108764138813206 -0.01444742719272212 0 0.013064779560598833 -0.01446516244941959 0 0.013178966049297563 -0.014280753665321683 0 0.013108764138813206 -0.01444742719272212 0 0.013064779560598833 -0.01446516244941959 0 0.013036154486616285 -0.014582052590725227 0 0.014317255575771548 -0.0135345252096462 0 0.013248151242797374 -0.014271506609293744 0 0.013178966049297563 -0.014280753665321683 0 0.012579881726835088 -0.014529705516331698 0 0.013178966049297563 -0.014280753665321683 0 0.012902600533906971 -0.014535974702433171 0 0.013447106403147984 -0.014009464036969739 0 0.013190522482673097 -0.014261834399401995 0 0.013064779560598833 -0.01446516244941959 0 0.013178966049297563 -0.014280753665321683 0 0.012902600533906971 -0.014535974702433171 0 0.012579881726835088 -0.014529705516331698 0 0.012902600533906971 -0.014535974702433171 0 0.012764527338347939 -0.014684561702307209 0 0.012902600533906971 -0.014535974702433171 0 0.012764527338347939 -0.014684561702307209 0 0.012942581307916534 -0.014662523561976882 0 0.013064779560598833 -0.01446516244941959 0 0.012902600533906971 -0.014535974702433171 0 0.012942581307916534 -0.014662523561976882 0 0.012942581307916534 -0.014662523561976882 0 0.012866375105322753 -0.014878365506509048 0 0.012981134304819741 -0.01472459955648287 0 0.012764527338347939 -0.014684561702307209 0 0.012942581307916534 -0.014662523561976882 0 0.012866375105322753 -0.014878365506509048 0 0.012894091265639031 -0.014919449486688937 0 0.012866375105322753 -0.014878365506509048 0 0.012967061307200087 -0.014999693153417088 0 0.012866375105322753 -0.014878365506509048 0 0.012967061307200087 -0.014999693153417088 0 0.01265493517582208 -0.015000009072355418 0 0.01265493517582208 -0.015000009072355418 0 0.012981134304819741 -0.01472459955648287 0 0.013143353786553043 -0.014902197836522199 0 0.012653146202947713 -0.014999990034904168 0 0.012531945302174625 -0.014991745743560696 0 0.012866375105322753 -0.014878365506509048 0 0.01265493517582208 -0.015000009072355418 0 0.012981134304819741 -0.01472459955648287 0 0.012653150983708504 -0.014999993957453104 0 0.01200090365743787 -0.015080434011387815 0 0.012086027489808733 -0.015000010402100946 0 0.013064779560598833 -0.01446516244941959 0 0.012942581307916534 -0.014662523561976882 0 0.013036154486616285 -0.014582052590725227 0 0.012942581307916534 -0.014662523561976882 0 0.012981134304819741 -0.01472459955648287 0 0.013036154486616285 -0.014582052590725227 0 0.012981134304819741 -0.01472459955648287 0 0.013036154486616285 -0.014582052590725227 0 0.013102076445683548 -0.01453534689049954 0 0.012981134304819741 -0.01472459955648287 0 0.013102076445683548 -0.01453534689049954 0 0.013172618058951853 -0.014618843164802046 0 0.013172618058951853 -0.014618843164802046 0 0.013143353786553043 -0.014902197836522199 0 0.013301261113379247 -0.014668066050377064 0 0.01200090365743787 -0.015080434011387815 0 0.012086027489808733 -0.015000010402100946 0 0.01151913023633578 -0.014999973699068522 0 0.012981134304819741 -0.01472459955648287 0 0.013172618058951853 -0.014618843164802046 0 0.013143353786553043 -0.014902197836522199 0 0.013143353786553043 -0.014902197836522199 0 0.013335911027763134 -0.014813174807506912 0 0.013301261113379247 -0.014668066050377064 0 0.012531945302174625 -0.014991745743560696 0 0.012520259928294933 -0.014979274912731187 0 0.01200090365743787 -0.015080434011387815 0 0.01151913023633578 -0.014999973699068522 0 0.011374330832361492 -0.015138061712028646 0 0.013401316187954143 -0.014679006772542176 0 0.013335911027763134 -0.014813174807506912 0 0.013301261113379247 -0.014668066050377064 0 0.013172618058951853 -0.014618843164802046 0 0.013301261113379247 -0.014668066050377064 0 0.013325388147185075 -0.01453091918351903 0 0.013401316187954143 -0.014679006772542176 0 0.013301261113379247 -0.014668066050377064 0 0.013325388147185075 -0.01453091918351903 0 0.012779288598061316 -0.013213617141403572 0 0.01392681017187725 -0.013214501621910771 0 0.012456868961143818 -0.011928236140064103 0 0.012536882092885799 -0.011940974184825011 0 0.012492065593945839 -0.011972477190258133 0 0.013172618058951853 -0.014618843164802046 0 0.013325388147185075 -0.01453091918351903 0 0.013157412689049634 -0.014474055634925929 0 0.013227303866817501 -0.014967356928118507 0 0.01392681017187725 -0.013214501621910771 0 0.013102076445683548 -0.01453534689049954 0 0.013172618058951853 -0.014618843164802046 0 0.013096300881482082 -0.014436578965780916 0 0.012536882092885799 -0.011940974184825011 0 0.012492065593945839 -0.011972477190258133 0 0.012550284566966028 -0.011998016501657398 0 0.012492065593945839 -0.011972477190258133 0 0.012466472867890196 -0.01201688339872002 0 0.012550284566966028 -0.011998016501657398 0 0.01392681017187725 -0.013214501621910771 0 0.014709361931695685 -0.012230896959165146 0 0.012426823335705259 -0.011985950927408862 0 0.012456868961143818 -0.011928236140064103 0 0.012492065593945839 -0.011972477190258133 0 0.012426823335705259 -0.011985950927408862 0 0.012492065593945839 -0.011972477190258133 0 0.012466472867890196 -0.01201688339872002 0 0.012466472867890196 -0.01201688339872002 0 0.012459553837985221 -0.012077557790507556 0 0.012417873836482749 -0.012048433639880058 0 0.012466472867890196 -0.01201688339872002 0 0.012518255065534386 -0.012042419222806243 0 0.012459553837985221 -0.012077557790507556 0 0.012411782150684419 -0.01202390022930548 0 0.012466472867890196 -0.01201688339872002 0 0.012417873836482749 -0.012048433639880058 0 0.012426823335705259 -0.011985950927408862 0 0.012411782150684419 -0.01202390022930548 0 0.012466472867890196 -0.01201688339872002 0 0.014709361931695685 -0.012230896959165146 0 0.014670650977964425 -0.012254211363789342 0 0.012466472867890196 -0.01201688339872002 0 0.012518255065534386 -0.012042419222806243 0 0.012550284566966028 -0.011998016501657398 0 0.012518255065534386 -0.012042419222806243 0 0.012550284566966028 -0.011998016501657398 0 0.012580717625054036 -0.012075224964455325 0 0.012518255065534386 -0.012042419222806243 0 0.01253028293208298 -0.012119425958881538 0 0.012580717625054036 -0.012075224964455325 0 0.012518255065534386 -0.012042419222806243 0 0.01253028293208298 -0.012119425958881538 0 0.012459553837985221 -0.012077557790507556 0 0.012386441496119411 -0.012091102303185289 0 0.012459553837985221 -0.012077557790507556 0 0.012455990531975932 -0.012171379618180909 0 0.012386441496119411 -0.012091102303185289 0 0.012459553837985221 -0.012077557790507556 0 0.012417873836482749 -0.012048433639880058 0 0.01253028293208298 -0.012119425958881538 0 0.012459553837985221 -0.012077557790507556 0 0.012455990531975932 -0.012171379618180909 0 0.012294629320453313 -0.012143117686509679 0 0.012455990531975932 -0.012171379618180909 0 0.012399065694310027 -0.012324293500087584 0 0.012399065694310027 -0.012324293500087584 0 0.012621636036601177 -0.01233104164704993 0 0.012535174404588935 -0.012623251322993854 0 0.012455990531975932 -0.012171379618180909 0 0.012399065694310027 -0.012324293500087584 0 0.012621636036601177 -0.01233104164704993 0 0.012621636036601177 -0.01233104164704993 0 0.012845591821606044 -0.012163125890097397 0 0.012876095226277398 -0.012363673377282999 0 0.012621636036601177 -0.01233104164704993 0 0.012876095226277398 -0.012363673377282999 0 0.012535174404588935 -0.012623251322993854 0 0.011673541941090444 -0.012184918134305412 0 0.014670389503894458 -0.011945834861011192 0 0.012455990531975932 -0.012171379618180909 0 0.012621636036601177 -0.01233104164704993 0 0.012845591821606044 -0.012163125890097397 0 0.01253028293208298 -0.012119425958881538 0 0.012455990531975932 -0.012171379618180909 0 0.0126134974695363 -0.012187585838692944 0 0.01253028293208298 -0.012119425958881538 0 0.012580717625054036 -0.012075224964455325 0 0.0126134974695363 -0.012187585838692944 0 0.016514135643600835 -0.011337337298526914 0 0.016448616334273473 -0.011201895361659654 0 0.01626057963023804 -0.011333870778722969 0 0.014670389503894458 -0.011945834861011192 0 0.01670492519845071 -0.011636297421549615 0 0.01654137655407029 -0.012148663797503199 0 0.016715619692698084 -0.01196497636642976 0 0.016405315486648375 -0.011921351320688266 0 0.016761236255896608 -0.012330201964130967 0 0.01654137655407029 -0.012148663797503199 0 0.016715619692698084 -0.01196497636642976 0 0.014670650977964425 -0.012254211363789342 0 0.014670389503894458 -0.011945834861011192 0 0.014670389503894458 -0.011945834861011192 0 0.015360469574563844 -0.0117453202443067 0 0.016514135643600835 -0.011337337298526914 0 0.016448616334273473 -0.011201895361659654 0 0.016494576608081565 -0.011161558885567477 0 0.015965217486040337 -0.011315708282907382 0 0.015360469574563844 -0.0117453202443067 0 0.016448616334273473 -0.011201895361659654 0 0.016423236348724023 -0.011101062337753993 0 0.01633622978122758 -0.011183750611242183 0 0.016423236348724023 -0.011101062337753993 0 0.016334017772101268 -0.011077068734593389 0 0.01633622978122758 -0.011183750611242183 0 0.016423236348724023 -0.011101062337753993 0 0.016334017772101268 -0.011077068734593389 0 0.016412691116171753 -0.010992006771400357 0 0.016423236348724023 -0.011101062337753993 0 0.016489257795425798 -0.011035233293925679 0 0.016412691116171753 -0.010992006771400357 0 0.015575614633195572 -0.011396667996087967 0 0.015360469574563844 -0.0117453202443067 0 0.016423236348724023 -0.011101062337753993 0 0.016489257795425798 -0.011035233293925679 0 0.016510686342733838 -0.011136986154540751 0 0.016448616334273473 -0.011201895361659654 0 0.016423236348724023 -0.011101062337753993 0 0.016510686342733838 -0.011136986154540751 0 0.016210366470122278 -0.011193713241892547 0 0.01626057963023804 -0.011333870778722969 0 0.01600083598590174 -0.011404310623383025 0 0.016210366470122278 -0.011193713241892547 0 0.016060888615724082 -0.011150725829121284 0 0.01621869566316253 -0.01101072026355669 0 0.016210366470122278 -0.011193713241892547 0 0.016334017772101268 -0.011077068734593389 0 0.01621869566316253 -0.01101072026355669 0 0.016210366470122278 -0.011193713241892547 0 0.016334017772101268 -0.011077068734593389 0 0.01633622978122758 -0.011183750611242183 0 0.016448616334273473 -0.011201895361659654 0 0.01633622978122758 -0.011183750611242183 0 0.01626057963023804 -0.011333870778722969 0 0.016210366470122278 -0.011193713241892547 0 0.01633622978122758 -0.011183750611242183 0 0.01626057963023804 -0.011333870778722969 0 0.01654137655407029 -0.012148663797503199 0 0.016405315486648375 -0.011921351320688266 0 0.016365328889482191 -0.012142043859859364 0 0.016405315486648375 -0.011921351320688266 0 0.016365328889482191 -0.012142043859859364 0 0.016176034267654398 -0.012149677798260324 0 0.016365328889482191 -0.012142043859859364 0 0.016339661670887927 -0.01235607492249699 0 0.016176034267654398 -0.012149677798260324 0 0.01654137655407029 -0.012148663797503199 0 0.016339661670887927 -0.01235607492249699 0 0.016525480428297577 -0.012368396341370659 0 0.01654137655407029 -0.012148663797503199 0 0.016365328889482191 -0.012142043859859364 0 0.016339661670887927 -0.01235607492249699 0 0.016761236255896608 -0.012330201964130967 0 0.01654137655407029 -0.012148663797503199 0 0.016525480428297577 -0.012368396341370659 0 0.016761236255896608 -0.012330201964130967 0 0.016525480428297577 -0.012368396341370659 0 0.01659085226087794 -0.012569253157918958 0 0.016788220169723731 -0.012725362858902778 0 0.016761236255896608 -0.012330201964130967 0 0.01659085226087794 -0.012569253157918958 0 0.016529638642305503 -0.012817651417895424 0 0.016788220169723731 -0.012725362858902778 0 0.01659085226087794 -0.012569253157918958 0 0.016529638642305503 -0.012817651417895424 0 0.01659085226087794 -0.012569253157918958 0 0.016355284528893531 -0.012633950996456231 0 0.016529638642305503 -0.012817651417895424 0 0.016355284528893531 -0.012633950996456231 0 0.016129371562944788 -0.012690537825750503 0 0.016339661670887927 -0.01235607492249699 0 0.016355284528893531 -0.012633950996456231 0 0.016238215158123754 -0.01253868074093277 0 0.016525480428297577 -0.012368396341370659 0 0.01659085226087794 -0.012569253157918958 0 0.016355284528893531 -0.012633950996456231 0 0.016339661670887927 -0.01235607492249699 0 0.016525480428297577 -0.012368396341370659 0 0.016355284528893531 -0.012633950996456231 0 0.016136512972862588 -0.012462111477026534 0 0.016129371562944788 -0.012690537825750503 0 0.015932886526868688 -0.012522282046363445 0 0.016238215158123754 -0.01253868074093277 0 0.016136512972862588 -0.012462111477026534 0 0.016129371562944788 -0.012690537825750503 0 0.016339661670887927 -0.01235607492249699 0 0.016238215158123754 -0.01253868074093277 0 0.016136512972862588 -0.012462111477026534 0 0.016355284528893531 -0.012633950996456231 0 0.016238215158123754 -0.01253868074093277 0 0.016129371562944788 -0.012690537825750503 0 0.016129371562944788 -0.012690537825750503 0 0.015932886526868688 -0.012522282046363445 0 0.015635974269178593 -0.012666838175492813 0 0.015932886526868688 -0.012522282046363445 0 0.015756347490160954 -0.012406228023833493 0 0.015635974269178593 -0.012666838175492813 0 0.016094296635374313 -0.012766437742402988 0 0.015609778276650213 -0.012752259566925141 0 0.015932886526868688 -0.012522282046363445 0 0.015982738072128952 -0.012341951362089374 0 0.015756347490160954 -0.012406228023833493 0 0.015756347490160954 -0.012406228023833493 0 0.015876571494719615 -0.012076380624634042 0 0.015558931498467503 -0.012218656076451125 0 0.015982738072128952 -0.012341951362089374 0 0.015756347490160954 -0.012406228023833493 0 0.015876571494719615 -0.012076380624634042 0 0.015982738072128952 -0.012341951362089374 0 0.016176034267654398 -0.012149677798260324 0 0.015876571494719615 -0.012076380624634042 0 0.016339661670887927 -0.01235607492249699 0 0.016136512972862588 -0.012462111477026534 0 0.016176034267654398 -0.012149677798260324 0 0.016136512972862588 -0.012462111477026534 0 0.015982738072128952 -0.012341951362089374 0 0.016176034267654398 -0.012149677798260324 0 0.016136512972862588 -0.012462111477026534 0 0.015932886526868688 -0.012522282046363445 0 0.015982738072128952 -0.012341951362089374 0 0.016176034267654398 -0.012149677798260324 0 0.016090964520759893 -0.011821154394631753 0 0.015876571494719615 -0.012076380624634042 0 0.016405315486648375 -0.011921351320688266 0 0.016176034267654398 -0.012149677798260324 0 0.016090964520759893 -0.011821154394631753 0 0.01670492519845071 -0.011636297421549615 0 0.015941734092963813 -0.011608230849720387 0 0.016210366470122278 -0.011193713241892547 0 0.01600083598590174 -0.011404310623383025 0 0.016060888615724082 -0.011150725829121284 0 0.01600083598590174 -0.011404310623383025 0 0.016060888615724082 -0.011150725829121284 0 0.015871621624731051 -0.011222967578242198 0 0.01600083598590174 -0.011404310623383025 0 0.015871621624731051 -0.011222967578242198 0 0.015673698603329532 -0.011611557936046612 0 0.015941734092963813 -0.011608230849720387 0 0.015709746910227699 -0.011606083854252967 0 0.015871621624731051 -0.011222967578242198 0 0.015521355341501071 -0.011270516563724062 0 0.015673698603329532 -0.011611557936046612 0 0.015876571494719615 -0.012076380624634042 0 0.015673698603329532 -0.011611557936046612 0 0.015558931498467503 -0.012218656076451125 0 0.016090964520759893 -0.011821154394631753 0 0.015876571494719615 -0.012076380624634042 0 0.015673698603329532 -0.011611557936046612 0 0.015353199967117153 -0.01176007503732426 0 0.015268329206473677 -0.012246777221035805 0 0.015558931498467503 -0.012218656076451125 0 0.015673698603329532 -0.011611557936046612 0 0.015353199967117153 -0.01176007503732426 0 0.015558931498467503 -0.012218656076451125 0 0.015521355341501071 -0.011270516563724062 0 0.015673698603329532 -0.011611557936046612 0 0.015353199967117153 -0.01176007503732426 0 0.014999916091068733 -0.011274195559359637 0 0.014999907050170656 -0.012013198658481135 0 0.015353199967117153 -0.01176007503732426 0 0.015521355341501071 -0.011270516563724062 0 0.014999916091068733 -0.011274195559359637 0 0.015353199967117153 -0.01176007503732426 0 0.014999907050170656 -0.012013198658481135 0 0.015353199967117153 -0.01176007503732426 0 0.015268329206473677 -0.012246777221035805 0 0.014999907050170656 -0.012013198658481135 0 0.015268329206473677 -0.012246777221035805 0 0.014999980036975093 -0.012751826606750472 0 0.015268329206473677 -0.012246777221035805 0 0.01539554823332091 -0.012499640696851907 0 0.014999980036975093 -0.012751826606750472 0 0.015268329206473677 -0.012246777221035805 0 0.015558931498467503 -0.012218656076451125 0 0.01539554823332091 -0.012499640696851907 0 0.015756347490160954 -0.012406228023833493 0 0.015558931498467503 -0.012218656076451125 0 0.01558826774596318 -0.012455143274303021 0 0.015558931498467503 -0.012218656076451125 0 0.01558826774596318 -0.012455143274303021 0 0.01539554823332091 -0.012499640696851907 0 0.01558826774596318 -0.012455143274303021 0 0.01539554823332091 -0.012499640696851907 0 0.015635974269178593 -0.012666838175492813 0 0.015552985087005424 -0.013003140094759063 0 0.01560609667796267 -0.012836132466178389 0 0.015000009513587879 -0.013000930044898112 0 0.015756347490160954 -0.012406228023833493 0 0.01558826774596318 -0.012455143274303021 0 0.015635974269178593 -0.012666838175492813 0 0.015306514577592066 -0.013361145980490782 0 0.014999924167582997 -0.01300145926219636 0 0.01539554823332091 -0.012499640696851907 0 0.015635974269178593 -0.012666838175492813 0 0.014999980036975093 -0.012751826606750472 0 0.01560609667796267 -0.012836132466178389 0 0.014999979910912918 -0.012752539330630268 0 0.015000009513587879 -0.013000930044898112 0 0.015609778276650213 -0.012752259566925141 0 0.015000091268644024 -0.01275214363176286 0 0.015000089939279329 -0.0097963268842354307 0 0.015507125028906412 -0.0095934355410328652 0 0.014999913261469636 -0.0097965085789102867 0 0.015446921022894184 -0.0096350479283331108 0 0.015287904062746188 -0.010061743854283127 0 0.014999995608052763 -0.0097963459756072822 0 0.015496063920053005 -0.0095837444635866308 0 0.014999993769620218 -0.0089116038199940403 0 0.015507125028906412 -0.0095934355410328652 0 0.015741339778417397 -0.0094824590229555823 0 0.015446921022894184 -0.0096350479283331108 0 0.01567615152135984 -0.0099068524699425092 0 0.015926534788121928 -0.0094385250884047572 0 0.015560407573030569 -0.010061242288975907 0 0.015741339778417397 -0.0094824590229555823 0 0.015446921022894184 -0.0096350479283331108 0 0.01567615152135984 -0.0099068524699425092 0 0.015287904062746188 -0.010061743854283127 0 0.015560407573030569 -0.010061242288975907 0 0.015401435115743038 -0.010366453750988 0 0.015471700467203893 -0.01015953143246939 0 0.015553899619649345 -0.010372562516363456 0 0.01537625173576871 -0.010419709652231539 0 0.01567615152135984 -0.0099068524699425092 0 0.015287904062746188 -0.010061743854283127 0 0.01537625173576871 -0.010419709652231539 0 0.015471700467203893 -0.01015953143246939 0 0.015553899619649345 -0.010372562516363456 0 0.015702029417381663 -0.010227620590087617 0 0.015287904062746188 -0.010061743854283127 0 0.014999945358920059 -0.010535383893826985 0 0.01537625173576871 -0.010419709652231539 0 0.014999913261469636 -0.0097965085789102867 0 0.015287904062746188 -0.010061743854283127 0 0.014999945358920059 -0.010535383893826985 0 0.014999945358920059 -0.010535383893826985 0 0.015404124764738106 -0.010842605633190174 0 0.01537625173576871 -0.010419709652231539 0 0.015521355341501071 -0.011270516563724062 0 0.014999916091068733 -0.011274195559359637 0 0.015404124764738106 -0.010842605633190174 0 0.014999916091068733 -0.011274195559359637 0 0.014999945358920059 -0.010535383893826985 0 0.015404124764738106 -0.010842605633190174 0 0.015404124764738106 -0.010842605633190174 0 0.015594860965090152 -0.010632946225781344 0 0.01573113129864067 -0.010949039662488566 0 0.015521355341501071 -0.011270516563724062 0 0.015404124764738106 -0.010842605633190174 0 0.01573113129864067 -0.010949039662488566 0 0.015404124764738106 -0.010842605633190174 0 0.015594860965090152 -0.010632946225781344 0 0.01537625173576871 -0.010419709652231539 0 0.015553899619649345 -0.010372562516363456 0 0.015594860965090152 -0.010632946225781344 0 0.01537625173576871 -0.010419709652231539 0 0.015553899619649345 -0.010372562516363456 0 0.015594860965090152 -0.010632946225781344 0 0.015705679541274643 -0.010467354343300534 0 0.015594860965090152 -0.010632946225781344 0 0.015705679541274643 -0.010467354343300534 0 0.015828873138222073 -0.010674760324732501 0 0.015705679541274643 -0.010467354343300534 0 0.015828873138222073 -0.010674760324732501 0 0.01588574646743433 -0.010421872894200932 0 0.015594860965090152 -0.010632946225781344 0 0.015828873138222073 -0.010674760324732501 0 0.01573113129864067 -0.010949039662488566 0 0.015871621624731051 -0.011222967578242198 0 0.01573113129864067 -0.010949039662488566 0 0.016011876460007179 -0.010906263733616656 0 0.015828873138222073 -0.010674760324732501 0 0.01573113129864067 -0.010949039662488566 0 0.016011876460007179 -0.010906263733616656 0 0.015871621624731051 -0.011222967578242198 0 0.015521355341501071 -0.011270516563724062 0 0.01573113129864067 -0.010949039662488566 0 0.016060888615724082 -0.011150725829121284 0 0.016011876460007179 -0.010906263733616656 0 0.01621869566316253 -0.01101072026355669 0 0.016060888615724082 -0.011150725829121284 0 0.015871621624731051 -0.011222967578242198 0 0.016011876460007179 -0.010906263733616656 0 0.016011876460007179 -0.010906263733616656 0 0.01611537144890381 -0.010746633380380196 0 0.016200702376766529 -0.010843318824524873 0 0.016011876460007179 -0.010906263733616656 0 0.016200702376766529 -0.010843318824524873 0 0.01621869566316253 -0.01101072026355669 0 0.016011876460007179 -0.010906263733616656 0 0.01611537144890381 -0.010746633380380196 0 0.016012832594165173 -0.010630210164938425 0 0.015828873138222073 -0.010674760324732501 0 0.016011876460007179 -0.010906263733616656 0 0.016012832594165173 -0.010630210164938425 0 0.015828873138222073 -0.010674760324732501 0 0.016012832594165173 -0.010630210164938425 0 0.01588574646743433 -0.010421872894200932 0 0.016012832594165173 -0.010630210164938425 0 0.016076652510988179 -0.010469033742493085 0 0.01588574646743433 -0.010421872894200932 0 0.01611537144890381 -0.010746633380380196 0 0.016012832594165173 -0.010630210164938425 0 0.016165276375012805 -0.010598033259087727 0 0.016012832594165173 -0.010630210164938425 0 0.016076652510988179 -0.010469033742493085 0 0.016165276375012805 -0.010598033259087727 0 0.016076652510988179 -0.010469033742493085 0 0.016050148945133517 -0.010310428153041683 0 0.01588574646743433 -0.010421872894200932 0 0.016076652510988179 -0.010469033742493085 0 0.016050148945133517 -0.010310428153041683 0 0.016144843244391222 -0.010384135870019016 0 0.015887713473980443 -0.010120485714769385 0 0.015853671490254601 -0.0099605858871240193 0 0.015877830294965256 -0.0099814290457642812 0 0.016050148945133517 -0.010310428153041683 0 0.015887713473980443 -0.010120485714769385 0 0.016201835770618206 -0.010276554341698024 0 0.016050148945133517 -0.010310428153041683 0 0.016148826485781347 -0.010321842202235351 0 0.016144843244391222 -0.010384135870019016 0 0.015947250914136329 -0.0099969414122697362 0 0.015657423567983168 -0.0096418204445924433 0 0.016050148945133517 -0.010310428153041683 0 0.015887713473980443 -0.010120485714769385 0 0.01588574646743433 -0.010421872894200932 0 0.015887713473980443 -0.010120485714769385 0 0.01588574646743433 -0.010421872894200932 0 0.015702029417381663 -0.010227620590087617 0 0.015705679541274643 -0.010467354343300534 0 0.01588574646743433 -0.010421872894200932 0 0.015702029417381663 -0.010227620590087617 0 0.015553899619649345 -0.010372562516363456 0 0.015705679541274643 -0.010467354343300534 0 0.015702029417381663 -0.010227620590087617 0 0.015471700467203893 -0.01015953143246939 0 0.015702029417381663 -0.010227620590087617 0 0.015654459662981655 -0.010047116140928949 0 0.015887713473980443 -0.010120485714769385 0 0.015702029417381663 -0.010227620590087617 0 0.015765956049754896 -0.010032512308583217 0 0.015471700467203893 -0.01015953143246939 0 0.015654459662981655 -0.010047116140928949 0 0.015599478681634858 -0.0098621380327951307 0 0.015765956049754896 -0.010032512308583217 0 0.015719789706044724 -0.0099907802224098938 0 0.015777752664937798 -0.0099180924022738304 0 0.015765956049754896 -0.010032512308583217 0 0.015719789706044724 -0.0099907802224098938 0 0.015654459662981655 -0.010047116140928949 0 0.015702029417381663 -0.010227620590087617 0 0.015765956049754896 -0.010032512308583217 0 0.015654459662981655 -0.010047116140928949 0 0.015719789706044724 -0.0099907802224098938 0 0.015654459662981655 -0.010047116140928949 0 0.015694360484514069 -0.0099266872589668358 0 0.015654459662981655 -0.010047116140928949 0 0.015599478681634858 -0.0098621380327951307 0 0.015694360484514069 -0.0099266872589668358 0 0.015599478681634858 -0.0098621380327951307 0 0.015694360484514069 -0.0099266872589668358 0 0.015717444535446424 -0.0098142032838579151 0 0.015719789706044724 -0.0099907802224098938 0 0.015694360484514069 -0.0099266872589668358 0 0.015777752664937798 -0.0099180924022738304 0 0.015694360484514069 -0.0099266872589668358 0 0.015777752664937798 -0.0099180924022738304 0 0.015717444535446424 -0.0098142032838579151 0 0.015777752664937798 -0.0099180924022738304 0 0.015824457159145905 -0.0098963696790007154 0 0.015809675713298308 -0.0099004544955805258 0 0.015777752664937798 -0.0099180924022738304 0 0.015824457159145905 -0.0098963696790007154 0 0.015839038725196868 -0.0099572154816750524 0 0.015905681732803861 -0.010031985054883707 0 0.015248334729113173 -0.00898147573301325 0 0.015824457159145905 -0.0098963696790007154 0 0.015810152764337233 -0.0098325780095409234 0 0.015813001613022178 -0.0099145839036704625 0 0.015810152764337233 -0.0098325780095409234 0 0.015846262496177817 -0.0095700275075072984 0 0.015445898341209345 -0.0091967463294718235 0 0.015824457159145905 -0.0098963696790007154 0 0.015839038725196868 -0.0099572154816750524 0 0.015810152764337233 -0.0098325780095409234 0 0.015853671490254601 -0.0099605858871240193 0 0.015839038725196868 -0.0099572154816750524 0 0.015810152764337233 -0.0098325780095409234 0 0.015887713473980443 -0.010120485714769385 0 0.015853671490254601 -0.0099605858871240193 0 0.015839038725196868 -0.0099572154816750524 0 0.015765956049754896 -0.010032512308583217 0 0.015777752664937798 -0.0099180924022738304 0 0.015839038725196868 -0.0099572154816750524 0 0.015887713473980443 -0.010120485714769385 0 0.015765956049754896 -0.010032512308583217 0 0.015839038725196868 -0.0099572154816750524 0 0.015729123110140478 -0.0090408845710460654 0 0.015657423567983168 -0.0096418204445924433 0 0.015947139300245678 -0.0096336820403019226 0 0.016215377650077734 -0.0094187442407910153 0 0.015877830294965256 -0.0099814290457642812 0 0.015854906507576601 -0.0098588245826580455 0 0.015947139300245678 -0.0096336820403019226 0 0.015877830294965256 -0.0099814290457642812 0 0.015853671490254601 -0.0099605858871240193 0 0.015854906507576601 -0.0098588245826580455 0 0.015877830294965256 -0.0099814290457642812 0 0.015810152764337233 -0.0098325780095409234 0 0.015854906507576601 -0.0098588245826580455 0 0.015947139300245678 -0.0096336820403019226 0 0.015853671490254601 -0.0099605858871240193 0 0.015810152764337233 -0.0098325780095409234 0 0.015854906507576601 -0.0098588245826580455 0 0.015810152764337233 -0.0098325780095409234 0 0.015846262496177817 -0.0095700275075072984 0 0.015947139300245678 -0.0096336820403019226 0 0.015846262496177817 -0.0095700275075072984 0 0.015947139300245678 -0.0096336820403019226 0 0.015923508081232045 -0.0094178516799756935 0 0.015947139300245678 -0.0096336820403019226 0 0.01605710537788518 -0.0092956298753988278 0 0.015923508081232045 -0.0094178516799756935 0 0.015947139300245678 -0.0096336820403019226 0 0.016215377650077734 -0.0094187442407910153 0 0.01605710537788518 -0.0092956298753988278 0 0.015346699289902944 -0.0086723918592697471 0 0.014958920258884244 -0.0089807054077548736 0 0.015540855018970822 -0.0089531796831296001 0 0.015346699289902944 -0.0086723918592697471 0 0.015540855018970822 -0.0089531796831296001 0 0.015619775887102998 -0.008669179063368438 0 0.015657423567983168 -0.0096418204445924433 0 0.0159303356867855 -0.0097364931684165521 0 0.016352017533001119 -0.010408916183440144 0 0.016201835770618206 -0.010276554341698024 0 0.01654277662878912 -0.010479010366457781 0 0.016352017533001119 -0.010408916183440144 0 0.01645254952296183 -0.010535393403547045 0 0.01654277662878912 -0.010479010366457781 0 0.016352017533001119 -0.010408916183440144 0 0.01645254952296183 -0.010535393403547045 0 0.016342137594559745 -0.010485840241179319 0 0.01645254952296183 -0.010535393403547045 0 0.016383552601263132 -0.010566661462004228 0 0.016342137594559745 -0.010485840241179319 0 0.01645254952296183 -0.010535393403547045 0 0.016383552601263132 -0.010566661462004228 0 0.016424427796816129 -0.010629840444104035 0 0.016292269853514906 -0.010501109592131267 0 0.016342137594559745 -0.010485840241179319 0 0.01632797799267564 -0.010564696979460872 0 0.016383552601263132 -0.010566661462004228 0 0.016342137594559745 -0.010485840241179319 0 0.01632797799267564 -0.010564696979460872 0 0.016292269853514906 -0.010501109592131267 0 0.016251127368718983 -0.010562761750806941 0 0.01632797799267564 -0.010564696979460872 0 0.016292269853514906 -0.010501109592131267 0 0.016241752659946953 -0.010461530538107952 0 0.016251127368718983 -0.010562761750806941 0 0.016292269853514906 -0.010501109592131267 0 0.016283391119851283 -0.010437377964921536 0 0.016241752659946953 -0.010461530538107952 0 0.016283391119851283 -0.010437377964921536 0 0.016239096788074173 -0.010393821084154136 0 0.016241752659946953 -0.010461530538107952 0 0.016283391119851283 -0.010437377964921536 0 0.016262447940471707 -0.010391049430763841 0 0.016239096788074173 -0.010393821084154136 0 0.016283391119851283 -0.010437377964921536 0 0.016342137594559745 -0.010485840241179319 0 0.016291406461186729 -0.01038773784427543 0 0.016292269853514906 -0.010501109592131267 0 0.016283391119851283 -0.010437377964921536 0 0.016342137594559745 -0.010485840241179319 0 0.016352017533001119 -0.010408916183440144 0 0.016291406461186729 -0.01038773784427543 0 0.016201835770618206 -0.010276554341698024 0 0.016352017533001119 -0.010408916183440144 0 0.016342137594559745 -0.010485840241179319 0 0.016291406461186729 -0.01038773784427543 0 0.016283391119851283 -0.010437377964921536 0 0.016291406461186729 -0.01038773784427543 0 0.016262447940471707 -0.010391049430763841 0 0.016291406461186729 -0.01038773784427543 0 0.016262447940471707 -0.010391049430763841 0 0.016235429900101388 -0.010345206501670151 0 0.016201835770618206 -0.010276554341698024 0 0.016204587999291645 -0.01031088720610438 0 0.016235429900101388 -0.010345206501670151 0 0.016204587999291645 -0.01031088720610438 0 0.016235429900101388 -0.010345206501670151 0 0.016194921554495364 -0.010344020610591892 0 0.016291406461186729 -0.01038773784427543 0 0.016201835770618206 -0.010276554341698024 0 0.016235429900101388 -0.010345206501670151 0 0.016235429900101388 -0.010345206501670151 0 0.016239096788074173 -0.010393821084154136 0 0.016218275277630277 -0.010368573401226272 0 0.016262447940471707 -0.010391049430763841 0 0.016235429900101388 -0.010345206501670151 0 0.016239096788074173 -0.010393821084154136 0 0.016218275277630277 -0.010368573401226272 0 0.016194921554495364 -0.010344020610591892 0 0.016199667232791173 -0.010397875228658969 0 0.016235429900101388 -0.010345206501670151 0 0.016218275277630277 -0.010368573401226272 0 0.016194921554495364 -0.010344020610591892 0 0.016050148945133517 -0.010310428153041683 0 0.016201835770618206 -0.010276554341698024 0 0.016148826485781347 -0.010321842202235351 0 0.016194921554495364 -0.010344020610591892 0 0.016148826485781347 -0.010321842202235351 0 0.016144843244391222 -0.010384135870019016 0 0.016204587999291645 -0.01031088720610438 0 0.016194921554495364 -0.010344020610591892 0 0.016148826485781347 -0.010321842202235351 0 0.016201835770618206 -0.010276554341698024 0 0.016204587999291645 -0.01031088720610438 0 0.016148826485781347 -0.010321842202235351 0 0.016144843244391222 -0.010384135870019016 0 0.016199667232791173 -0.010397875228658969 0 0.016183438860058276 -0.010476908541903994 0 0.016194921554495364 -0.010344020610591892 0 0.016144843244391222 -0.010384135870019016 0 0.016199667232791173 -0.010397875228658969 0 0.016199667232791173 -0.010397875228658969 0 0.016241752659946953 -0.010461530538107952 0 0.016183438860058276 -0.010476908541903994 0 0.016239096788074173 -0.010393821084154136 0 0.016199667232791173 -0.010397875228658969 0 0.016241752659946953 -0.010461530538107952 0 0.016239096788074173 -0.010393821084154136 0 0.016218275277630277 -0.010368573401226272 0 0.016199667232791173 -0.010397875228658969 0 0.016241752659946953 -0.010461530538107952 0 0.016183438860058276 -0.010476908541903994 0 0.016251127368718983 -0.010562761750806941 0 0.016076652510988179 -0.010469033742493085 0 0.016144843244391222 -0.010384135870019016 0 0.016183438860058276 -0.010476908541903994 0 0.016076652510988179 -0.010469033742493085 0 0.016183438860058276 -0.010476908541903994 0 0.016165276375012805 -0.010598033259087727 0 0.016183438860058276 -0.010476908541903994 0 0.016251127368718983 -0.010562761750806941 0 0.016165276375012805 -0.010598033259087727 0 0.016251127368718983 -0.010562761750806941 0 0.016165276375012805 -0.010598033259087727 0 0.016245072837655049 -0.010695229517980846 0 0.01632797799267564 -0.010564696979460872 0 0.016304028141005587 -0.010630099549992266 0 0.016360731998304703 -0.010630627991504318 0 0.016251127368718983 -0.010562761750806941 0 0.01632797799267564 -0.010564696979460872 0 0.016304028141005587 -0.010630099549992266 0 0.016251127368718983 -0.010562761750806941 0 0.016304028141005587 -0.010630099549992266 0 0.016245072837655049 -0.010695229517980846 0 0.016304028141005587 -0.010630099549992266 0 0.016328276452505962 -0.010704695639589975 0 0.016360731998304703 -0.010630627991504318 0 0.016245072837655049 -0.010695229517980846 0 0.016200702376766529 -0.010843318824524873 0 0.016312082803091293 -0.010805165547867455 0 0.016328276452505962 -0.010704695639589975 0 0.016245072837655049 -0.010695229517980846 0 0.016312082803091293 -0.010805165547867455 0 0.016304028141005587 -0.010630099549992266 0 0.016328276452505962 -0.010704695639589975 0 0.016245072837655049 -0.010695229517980846 0 0.016328276452505962 -0.010704695639589975 0 0.016312082803091293 -0.010805165547867455 0 0.016405586105983701 -0.010788521086125283 0 0.01611537144890381 -0.010746633380380196 0 0.016165276375012805 -0.010598033259087727 0 0.016245072837655049 -0.010695229517980846 0 0.01611537144890381 -0.010746633380380196 0 0.016245072837655049 -0.010695229517980846 0 0.016200702376766529 -0.010843318824524873 0 0.016200702376766529 -0.010843318824524873 0 0.016291339769863408 -0.010902758015345491 0 0.01621869566316253 -0.01101072026355669 0 0.016200702376766529 -0.010843318824524873 0 0.016312082803091293 -0.010805165547867455 0 0.016291339769863408 -0.010902758015345491 0 0.016291339769863408 -0.010902758015345491 0 0.016327962284111711 -0.010975440974822819 0 0.016379315174091143 -0.010895640116103413 0 0.016312082803091293 -0.010805165547867455 0 0.016291339769863408 -0.010902758015345491 0 0.016379315174091143 -0.010895640116103413 0 0.016291339769863408 -0.010902758015345491 0 0.016327962284111711 -0.010975440974822819 0 0.01621869566316253 -0.01101072026355669 0 0.016334017772101268 -0.011077068734593389 0 0.016327962284111711 -0.010975440974822819 0 0.01621869566316253 -0.01101072026355669 0 0.016489257795425798 -0.011035233293925679 0 0.016412691116171753 -0.010992006771400357 0 0.016489396615841721 -0.01087828046153564 0 0.016412691116171753 -0.010992006771400357 0 0.016379315174091143 -0.010895640116103413 0 0.016489396615841721 -0.01087828046153564 0 0.016334017772101268 -0.011077068734593389 0 0.016327962284111711 -0.010975440974822819 0 0.016412691116171753 -0.010992006771400357 0 0.016327962284111711 -0.010975440974822819 0 0.016412691116171753 -0.010992006771400357 0 0.016379315174091143 -0.010895640116103413 0 0.016379315174091143 -0.010895640116103413 0 0.016489396615841721 -0.01087828046153564 0 0.016405586105983701 -0.010788521086125283 0 0.016312082803091293 -0.010805165547867455 0 0.016379315174091143 -0.010895640116103413 0 0.016405586105983701 -0.010788521086125283 0 0.016489396615841721 -0.01087828046153564 0 0.016405586105983701 -0.010788521086125283 0 0.016526714630340722 -0.01075756248326137 0 0.016449119336710921 -0.01070511949249627 0 0.016405586105983701 -0.010788521086125283 0 0.016526714630340722 -0.01075756248326137 0 0.016449119336710921 -0.01070511949249627 0 0.016492058536628593 -0.010657846705741748 0 0.016526714630340722 -0.01075756248326137 0 0.016449119336710921 -0.01070511949249627 0 0.016405586105983701 -0.010788521086125283 0 0.016394476607662335 -0.010693426783361361 0 0.016328276452505962 -0.010704695639589975 0 0.016405586105983701 -0.010788521086125283 0 0.016394476607662335 -0.010693426783361361 0 0.016328276452505962 -0.010704695639589975 0 0.016394476607662335 -0.010693426783361361 0 0.016360731998304703 -0.010630627991504318 0 0.016394476607662335 -0.010693426783361361 0 0.016360731998304703 -0.010630627991504318 0 0.016424427796816129 -0.010629840444104035 0 0.016449119336710921 -0.01070511949249627 0 0.016394476607662335 -0.010693426783361361 0 0.016424427796816129 -0.010629840444104035 0 0.016383552601263132 -0.010566661462004228 0 0.016360731998304703 -0.010630627991504318 0 0.016424427796816129 -0.010629840444104035 0 0.016383552601263132 -0.010566661462004228 0 0.01632797799267564 -0.010564696979460872 0 0.016360731998304703 -0.010630627991504318 0 0.01645254952296183 -0.010535393403547045 0 0.016492058536628593 -0.010657846705741748 0 0.016575917887200562 -0.010633510408222763 0 0.01645254952296183 -0.010535393403547045 0 0.016424427796816129 -0.010629840444104035 0 0.016492058536628593 -0.010657846705741748 0 0.016449119336710921 -0.01070511949249627 0 0.016424427796816129 -0.010629840444104035 0 0.016492058536628593 -0.010657846705741748 0 0.016575917887200562 -0.010633510408222763 0 0.016660057833584072 -0.010799545874924711 0 0.016649554560299672 -0.010623458142761853 0 0.016575917887200562 -0.010633510408222763 0 0.016526714630340722 -0.01075756248326137 0 0.016660057833584072 -0.010799545874924711 0 0.016492058536628593 -0.010657846705741748 0 0.016575917887200562 -0.010633510408222763 0 0.016526714630340722 -0.01075756248326137 0 0.016489257795425798 -0.011035233293925679 0 0.016489396615841721 -0.01087828046153564 0 0.016660057833584072 -0.010799545874924711 0 0.016489257795425798 -0.011035233293925679 0 0.016497675599699557 -0.011096738743782347 0 0.016660057833584072 -0.010799545874924711 0 0.015360469574563844 -0.0117453202443067 0 0.014506797646813535 -0.011706063361380041 0 0.016489396615841721 -0.01087828046153564 0 0.016526714630340722 -0.01075756248326137 0 0.016660057833584072 -0.010799545874924711 0 0.012399065694310027 -0.012324293500087584 0 0.012535174404588935 -0.012623251322993854 0 0.012183250489752471 -0.012446907564418647 0 0.016660057833584072 -0.010799545874924711 0 0.016649554560299672 -0.010623458142761853 0 0.016692173529873792 -0.010628687375179142 0 0.014506797646813535 -0.011706063361380041 0 0.014274542215329334 -0.011911506686988965 0 0.016649554560299672 -0.010623458142761853 0 0.016684062539893803 -0.010585045992205267 0 0.016692173529873792 -0.010628687375179142 0 0.0159303356867855 -0.0097364931684165521 0 0.016813804355834051 -0.0095901103594877146 0 0.016649554560299672 -0.010623458142761853 0 0.01654277662878912 -0.010479010366457781 0 0.016684062539893803 -0.010585045992205267 0 0.01645254952296183 -0.010535393403547045 0 0.016575917887200562 -0.010633510408222763 0 0.01654277662878912 -0.010479010366457781 0 0.016575917887200562 -0.010633510408222763 0 0.016649554560299672 -0.010623458142761853 0 0.01654277662878912 -0.010479010366457781 0 0.015540855018970822 -0.0089531796831296001 0 0.015619775887102998 -0.008669179063368438 0 0.015850008774258423 -0.0087209009875558723 0 0.015540855018970822 -0.0089531796831296001 0 0.015850008774258423 -0.0087209009875558723 0 0.016186412536999751 -0.0089371069026670646 0 0.015850008774258423 -0.0087209009875558723 0 0.016186412536999751 -0.0089371069026670646 0 0.015954852214564812 -0.0084898937994782493 0 0.016186412536999751 -0.0089371069026670646 0 0.015954852214564812 -0.0084898937994782493 0 0.016217589567267942 -0.0084266723735321233 0 0.015850008774258423 -0.0087209009875558723 0 0.015954852214564812 -0.0084898937994782493 0 0.01574681448436701 -0.0083197631463690566 0 0.015954852214564812 -0.0084898937994782493 0 0.01574681448436701 -0.0083197631463690566 0 0.016211522625106986 -0.0078912377742089354 0 0.015954852214564812 -0.0084898937994782493 0 0.016217589567267942 -0.0084266723735321233 0 0.016211522625106986 -0.0078912377742089354 0 0.015346699289902944 -0.0086723918592697471 0 0.015619775887102998 -0.008669179063368438 0 0.01574681448436701 -0.0083197631463690566 0 0.015729123110140478 -0.0090408845710460654 0 0.016059090558023261 -0.0085756007592414415 0 0.015619775887102998 -0.008669179063368438 0 0.015850008774258423 -0.0087209009875558723 0 0.01574681448436701 -0.0083197631463690566 0 0.016392332728763316 -0.0088250063659715949 0 0.016248592761952715 -0.0087400682671056242 0 0.016194680105065733 -0.0090259047730546164 0 0.016392332728763316 -0.0088250063659715949 0 0.016248592761952715 -0.0087400682671056242 0 0.016466487267298435 -0.0081343057052502277 0 0.015792707839565802 -0.0082024804618792239 0 0.01604430194877466 -0.0079885899538247908 0 0.016466487267298435 -0.0081343057052502277 0 0.016059266494390916 -0.0084492611698840474 0 0.016476878611894386 -0.008180888247196462 0 0.015792707839565802 -0.0082024804618792239 0 0.015825553781402858 -0.0080398304944047042 0 0.01604430194877466 -0.0079885899538247908 0 0.015825553781402858 -0.0080398304944047042 0 0.01604430194877466 -0.0079885899538247908 0 0.015882249651468755 -0.0078097601560095748 0 0.015825553781402858 -0.0080398304944047042 0 0.015882249651468755 -0.0078097601560095748 0 0.015670410515708614 -0.0078596369827081333 0 0.016059090558023261 -0.0085756007592414415 0 0.016429864072441167 -0.0079884853421929459 0 0.016466487267298435 -0.0081343057052502277 0 0.016364931436446368 -0.0077594925763743768 0 0.016241364549079443 -0.0079052707437434616 0 0.01604430194877466 -0.0079885899538247908 0 0.016466487267298435 -0.0081343057052502277 0 0.016241364549079443 -0.0079052707437434616 0 0.016392332728763316 -0.0088250063659715949 0 0.016466487267298435 -0.0081343057052502277 0 0.016660199213713724 -0.0080445526332501727 0 0.016466487267298435 -0.0081343057052502277 0 0.01655935678311167 -0.0077770292540474536 0 0.016660199213713724 -0.0080445526332501727 0 0.016466487267298435 -0.0081343057052502277 0 0.01655935678311167 -0.0077770292540474536 0 0.016364931436446368 -0.0077594925763743768 0 0.01655935678311167 -0.0077770292540474536 0 0.016364931436446368 -0.0077594925763743768 0 0.016493439227709805 -0.0075109671695432149 0 0.016364931436446368 -0.0077594925763743768 0 0.016241364549079443 -0.0079052707437434616 0 0.016106392839350368 -0.0077569956161785561 0 0.016364931436446368 -0.0077594925763743768 0 0.016227934181634429 -0.007506187246934473 0 0.016106392839350368 -0.0077569956161785561 0 0.016364931436446368 -0.0077594925763743768 0 0.016227934181634429 -0.007506187246934473 0 0.016493439227709805 -0.0075109671695432149 0 0.016227934181634429 -0.007506187246934473 0 0.016493439227709805 -0.0075109671695432149 0 0.016356072579228276 -0.007261404978782064 0 0.01655935678311167 -0.0077770292540474536 0 0.016493439227709805 -0.0075109671695432149 0 0.01674361575594753 -0.0075135745522568647 0 0.016356072579228276 -0.007261404978782064 0 0.016342628446762129 -0.0070151718826795785 0 0.016716230269909982 -0.0070343018240777832 0 0.016493439227709805 -0.0075109671695432149 0 0.016356072579228276 -0.007261404978782064 0 0.016716230269909982 -0.0070343018240777832 0 0.016227934181634429 -0.007506187246934473 0 0.016356072579228276 -0.007261404978782064 0 0.016095727401303248 -0.0072499597111410907 0 0.016356072579228276 -0.007261404978782064 0 0.016342628446762129 -0.0070151718826795785 0 0.016095727401303248 -0.0072499597111410907 0 0.016342628446762129 -0.0070151718826795785 0 0.01592184284260682 -0.0070106613824230703 0 0.016095727401303248 -0.0072499597111410907 0 0.01592184284260682 -0.0070106613824230703 0 0.016095727401303248 -0.0072499597111410907 0 0.015793119646565542 -0.0073302055247733552 0 0.016095727401303248 -0.0072499597111410907 0 0.015793119646565542 -0.0073302055247733552 0 0.015969790157669549 -0.0075417527195202538 0 0.015793119646565542 -0.0073302055247733552 0 0.015969790157669549 -0.0075417527195202538 0 0.015724498939356842 -0.0076202080467132755 0 0.016227934181634429 -0.007506187246934473 0 0.016095727401303248 -0.0072499597111410907 0 0.015969790157669549 -0.0075417527195202538 0 0.016227934181634429 -0.007506187246934473 0 0.015969790157669549 -0.0075417527195202538 0 0.016106392839350368 -0.0077569956161785561 0 0.015969790157669549 -0.0075417527195202538 0 0.016106392839350368 -0.0077569956161785561 0 0.015882249651468755 -0.0078097601560095748 0 0.01604430194877466 -0.0079885899538247908 0 0.016106392839350368 -0.0077569956161785561 0 0.015882249651468755 -0.0078097601560095748 0 0.01604430194877466 -0.0079885899538247908 0 0.016241364549079443 -0.0079052707437434616 0 0.016106392839350368 -0.0077569956161785561 0 0.015969790157669549 -0.0075417527195202538 0 0.015882249651468755 -0.0078097601560095748 0 0.015724498939356842 -0.0076202080467132755 0 0.015882249651468755 -0.0078097601560095748 0 0.015670410515708614 -0.0078596369827081333 0 0.015724498939356842 -0.0076202080467132755 0 0.015670410515708614 -0.0078596369827081333 0 0.015505989395545938 -0.007753588248103487 0 0.015724498939356842 -0.0076202080467132755 0 0.015670410515708614 -0.0078596369827081333 0 0.015505989395545938 -0.007753588248103487 0 0.015456333739052005 -0.0079702474349895528 0 0.015505989395545938 -0.007753588248103487 0 0.015340909233411094 -0.0076251089764092185 0 0.015319614161100727 -0.0078444560374042651 0 0.015505989395545938 -0.007753588248103487 0 0.015319614161100727 -0.0078444560374042651 0 0.015456333739052005 -0.0079702474349895528 0 0.015505989395545938 -0.007753588248103487 0 0.015340909233411094 -0.0076251089764092185 0 0.015540056252080638 -0.0074498535912855745 0 0.015340909233411094 -0.0076251089764092185 0 0.015540056252080638 -0.0074498535912855745 0 0.015210244639219574 -0.0073586170292142053 0 0.015793119646565542 -0.0073302055247733552 0 0.015540056252080638 -0.0074498535912855745 0 0.015724498939356842 -0.0076202080467132755 0 0.015505989395545938 -0.007753588248103487 0 0.015540056252080638 -0.0074498535912855745 0 0.015724498939356842 -0.0076202080467132755 0 0.015793119646565542 -0.0073302055247733552 0 0.015540056252080638 -0.0074498535912855745 0 0.015502806660435861 -0.0071337310060747821 0 0.01592184284260682 -0.0070106613824230703 0 0.015793119646565542 -0.0073302055247733552 0 0.015502806660435861 -0.0071337310060747821 0 0.015540056252080638 -0.0074498535912855745 0 0.015502806660435861 -0.0071337310060747821 0 0.015210244639219574 -0.0073586170292142053 0 0.015210244639219574 -0.0073586170292142053 0 0.014785490567133443 -0.0075205613755142007 0 0.015099681955851745 -0.0069804002757330088 0 0.015502806660435861 -0.0071337310060747821 0 0.015210244639219574 -0.0073586170292142053 0 0.015099681955851745 -0.0069804002757330088 0 0.014808707943746464 -0.0074327557997434113 0 0.015082151289052371 -0.0070179907619426609 0 0.015210244639219574 -0.0073586170292142053 0 0.015109035656947796 -0.0076788634767239565 0 0.014785490567133443 -0.0075205613755142007 0 0.015340909233411094 -0.0076251089764092185 0 0.015210244639219574 -0.0073586170292142053 0 0.015109035656947796 -0.0076788634767239565 0 0.015319614161100727 -0.0078444560374042651 0 0.015109035656947796 -0.0076788634767239565 0 0.015117031135023884 -0.0079274305239921579 0 0.015340909233411094 -0.0076251089764092185 0 0.015319614161100727 -0.0078444560374042651 0 0.015109035656947796 -0.0076788634767239565 0 0.015109035656947796 -0.0076788634767239565 0 0.015117031135023884 -0.0079274305239921579 0 0.0148890848874047 -0.0078514021940204373 0 0.015109035656947796 -0.0076788634767239565 0 0.0148890848874047 -0.0078514021940204373 0 0.014785490567133443 -0.0075205613755142007 0 0.015117031135023884 -0.0079274305239921579 0 0.014943411806848524 -0.0080980452644155727 0 0.0151479307175095 -0.0080684257911211362 0 0.015117031135023884 -0.0079274305239921579 0 0.014943411806848524 -0.0080980452644155727 0 0.0148890848874047 -0.0078514021940204373 0 0.014943411806848524 -0.0080980452644155727 0 0.015266786789021681 -0.0082291708226024888 0 0.014712261655667835 -0.0084638748482434318 0 0.014943411806848524 -0.0080980452644155727 0 0.015266786789021681 -0.0082291708226024888 0 0.0151479307175095 -0.0080684257911211362 0 0.015266786789021681 -0.0082291708226024888 0 0.015263308159650895 -0.0080172582026238389 0 0.015456333739052005 -0.0079702474349895528 0 0.015266786789021681 -0.0082291708226024888 0 0.0151479307175095 -0.0080684257911211362 0 0.015263308159650895 -0.0080172582026238389 0 0.015117031135023884 -0.0079274305239921579 0 0.0151479307175095 -0.0080684257911211362 0 0.015263308159650895 -0.0080172582026238389 0 0.015319614161100727 -0.0078444560374042651 0 0.015117031135023884 -0.0079274305239921579 0 0.015263308159650895 -0.0080172582026238389 0 0.015825553781402858 -0.0080398304944047042 0 0.015266786789021681 -0.0082291708226024888 0 0.01555415899895634 -0.0080270978050473538 0 0.016059266494390916 -0.0084492611698840474 0 0.015638752045982376 -0.0087017156907273786 0 0.015812670888536932 -0.008054304505772502 0 0.01523085894912336 -0.0082259221442911607 0 0.015792707839565802 -0.0082024804618792239 0 0.015825553781402858 -0.0080398304944047042 0 0.015305685944536174 -0.0082901065571371682 0 0.015319614161100727 -0.0078444560374042651 0 0.015263308159650895 -0.0080172582026238389 0 0.015456333739052005 -0.0079702474349895528 0 0.015792707839565802 -0.0082024804618792239 0 0.015305685944536174 -0.0082901065571371682 0 0.015301295139037059 -0.0083712767720538449 0 0.015825553781402858 -0.0080398304944047042 0 0.015670410515708614 -0.0078596369827081333 0 0.01555415899895634 -0.0080270978050473538 0 0.015670410515708614 -0.0078596369827081333 0 0.015456333739052005 -0.0079702474349895528 0 0.01555415899895634 -0.0080270978050473538 0 0.015266786789021681 -0.0082291708226024888 0 0.015456333739052005 -0.0079702474349895528 0 0.01555415899895634 -0.0080270978050473538 0 0.016215377650077734 -0.0094187442407910153 0 0.016392332728763316 -0.0088250063659715949 0 0.016194680105065733 -0.0090259047730546164 0 0.016248592761952715 -0.0087400682671056242 0 0.016194680105065733 -0.0090259047730546164 0 0.016021457683417183 -0.0090596269127806092 0 0.01609715072073872 -0.0091448544757035313 0 0.016194680105065733 -0.0090259047730546164 0 0.016021457683417183 -0.0090596269127806092 0 0.016215377650077734 -0.0094187442407910153 0 0.01609715072073872 -0.0091448544757035313 0 0.016194680105065733 -0.0090259047730546164 0 0.016215377650077734 -0.0094187442407910153 0 0.01609715072073872 -0.0091448544757035313 0 0.01605710537788518 -0.0092956298753988278 0 0.01609715072073872 -0.0091448544757035313 0 0.01605710537788518 -0.0092956298753988278 0 0.016028670240205555 -0.0091807688679783686 0 0.015638752045982376 -0.0087017156907273786 0 0.015248334729113173 -0.00898147573301325 0 0.01523085894912336 -0.0082259221442911607 0 0.015248334729113173 -0.00898147573301325 0 0.015933446178754602 -0.009237067558048288 0 0.01581804249877649 -0.0093580862651782629 0 0.015445898341209345 -0.0091967463294718235 0 0.015933446178754602 -0.009237067558048288 0 0.016021457683417183 -0.0090596269127806092 0 0.015445898341209345 -0.0091967463294718235 0 0.015305685944536174 -0.0082901065571371682 0 0.015301295139037059 -0.0083712767720538449 0 0.014870400702559974 -0.0085079472068005368 0 0.01605710537788518 -0.0092956298753988278 0 0.015933446178754602 -0.009237067558048288 0 0.016028670240205555 -0.0091807688679783686 0 0.01605710537788518 -0.0092956298753988278 0 0.015933446178754602 -0.009237067558048288 0 0.015923508081232045 -0.0094178516799756935 0 0.015846262496177817 -0.0095700275075072984 0 0.015923508081232045 -0.0094178516799756935 0 0.01581804249877649 -0.0093580862651782629 0 0.015933446178754602 -0.009237067558048288 0 0.015923508081232045 -0.0094178516799756935 0 0.01581804249877649 -0.0093580862651782629 0 0.015933446178754602 -0.009237067558048288 0 0.016021457683417183 -0.0090596269127806092 0 0.016028670240205555 -0.0091807688679783686 0 0.01609715072073872 -0.0091448544757035313 0 0.016021457683417183 -0.0090596269127806092 0 0.016028670240205555 -0.0091807688679783686 0 0.015500123259323087 -0.0089283537234600072 0 0.015113451206158233 -0.008768477817955863 0 0.015271785634092242 -0.0084716186770394473 0 0.015846262496177817 -0.0095700275075072984 0 0.01581804249877649 -0.0093580862651782629 0 0.015445898341209345 -0.0091967463294718235 0 0.015824457159145905 -0.0098963696790007154 0 0.015813001613022178 -0.0099145839036704625 0 0.015809675713298308 -0.0099004544955805258 0 0.015813001613022178 -0.0099145839036704625 0 0.015809675713298308 -0.0099004544955805258 0 0.015792489091552751 -0.0098932880101422101 0 0.015248334729113173 -0.00898147573301325 0 0.015555230054049267 -0.0094236863047272301 0 0.015701539090453794 -0.0098674914980971026 0 0.015555230054049267 -0.0094236863047272301 0 0.015777752664937798 -0.0099180924022738304 0 0.015809675713298308 -0.0099004544955805258 0 0.015792489091552751 -0.0098932880101422101 0 0.0156616383500136 -0.0093232073365467592 0 0.015552697243956057 -0.0093577790039835931 0 0.015663525366133076 -0.0090865575316663311 0 0.015777752664937798 -0.0099180924022738304 0 0.015753235556800811 -0.0097990659702499611 0 0.015717444535446424 -0.0098142032838579151 0 0.015988984975713629 -0.0093749943960433416 0 0.016210899846166412 -0.0089591276385100702 0 0.015698783393318125 -0.0088383552307072649 0 0.015710922590092036 -0.00930274188553918 0 0.0156616383500136 -0.0093232073365467592 0 0.015663525366133076 -0.0090865575316663311 0 0.015555230054049267 -0.0094236863047272301 0 0.015604942496692264 -0.0094448315421341786 0 0.015501876998577633 -0.0093900546999265994 0 0.015552697243956057 -0.0093577790039835931 0 0.015663525366133076 -0.0090865575316663311 0 0.015741339778417397 -0.0094824590229555823 0 0.0155530578820962 -0.0088145766445110255 0 0.015604942496692264 -0.0094448315421341786 0 0.015606596824858383 -0.0094196811125579673 0 0.015501876998577633 -0.0093900546999265994 0 0.015661818061572772 -0.0093234905665718262 0 0.015552697243956057 -0.0093577790039835931 0 0.015741339778417397 -0.0094824590229555823 0 0.015604942496692264 -0.0094448315421341786 0 0.015500123259323087 -0.0089283537234600072 0 0.015178042213026585 -0.0090624625465530791 0 0.015113451206158233 -0.008768477817955863 0 0.015555230054049267 -0.0094236863047272301 0 0.0155530578820962 -0.0088145766445110255 0 0.016210899846166412 -0.0089591276385100702 0 0.01609097526798894 -0.0084097296145957123 0 0.015698783393318125 -0.0088383552307072649 0 0.0155530578820962 -0.0088145766445110255 0 0.014932800717460216 -0.00811252843808501 0 0.015366524370987227 -0.0086087489629855518 0 0.015511962120783512 -0.0083375957656182526 0 0.015259056591880458 -0.0081099120466086531 0 0.0155530578820962 -0.0088145766445110255 0 0.015702552877982858 -0.0083085836080581434 0 0.014943411806848524 -0.0080980452644155727 0 0.014504910251303786 -0.0080568354361931147 0 0.0148890848874047 -0.0078514021940204373 0 0.014943411806848524 -0.0080980452644155727 0 0.014712261655667835 -0.0084638748482434318 0 0.014504910251303786 -0.0080568354361931147 0 0.015248334729113173 -0.00898147573301325 0 0.014932800717460216 -0.00811252843808501 0 0.014504910251303786 -0.0080568354361931147 0 0.0148890848874047 -0.0078514021940204373 0 0.014785490567133443 -0.0075205613755142007 0 0.014932800717460216 -0.00811252843808501 0 0.014808707943746464 -0.0074327557997434113 0 0.014877316185547041 -0.0073868760639026901 0 0.014852628662616645 -0.0070754753861586089 0 0.015099681955851745 -0.0069804002757330088 0 0.014852628662616645 -0.0070754753861586089 0 0.014611687416612807 -0.007149707082198923 0 0.014848663957627392 -0.0068108013269337552 0 0.014877316185547041 -0.0073868760639026901 0 0.014852628662616645 -0.0070754753861586089 0 0.014611687416612807 -0.007149707082198923 0 0.014518905102016484 -0.0070053036530697789 0 0.014382800612756853 -0.0071993681280715666 0 0.014318577482507583 -0.0068606231265810717 0 0.014877316185547041 -0.0073868760639026901 0 0.014611687416612807 -0.007149707082198923 0 0.014389615486122411 -0.0072443350661539974 0 0.014518905102016484 -0.0070053036530697789 0 0.014611687416612807 -0.007149707082198923 0 0.014382800612756853 -0.0071993681280715666 0 0.014611687416612807 -0.007149707082198923 0 0.014372585201378931 -0.0072095808364785602 0 0.014389615486122411 -0.0072443350661539974 0 0.014450041539799299 -0.0073051876748274564 0 0.015186806739342121 -0.0074921268540065972 0 0.015186806739342121 -0.0074921268540065972 0 0.015153933480619573 -0.0075417170893485224 0 0.014932800717460216 -0.00811252843808501 0 0.015153933480619573 -0.0075417170893485224 0 0.01466303852189624 -0.0077949982429978875 0 0.014877316185547041 -0.0073868760639026901 0 0.014389615486122411 -0.0072443350661539974 0 0.01596830150651175 -0.0078626002386888352 0 0.01609097526798894 -0.0084097296145957123 0 0.015757596917321814 -0.0081957007809735985 0 0.015511962120783512 -0.0083375957656182526 0 0.015152174754258221 -0.0076112006028607468 0 0.015259056591880458 -0.0081099120466086531 0 0.015153933480619573 -0.0075417170893485224 0 0.015702552877982858 -0.0083085836080581434 0 0.01594255072499489 -0.0078116040204887433 0 0.015757596917321814 -0.0081957007809735985 0 0.015473316577024715 -0.0079220046739413401 0 0.015757596917321814 -0.0081957007809735985 0 0.015473316577024715 -0.0079220046739413401 0 0.015386726522934177 -0.0083780304767916876 0 0.015932180227038701 -0.0077938200495493775 0 0.015470710727515375 -0.0079068042806032454 0 0.015684910963436369 -0.0072921445041790236 0 0.015186806739342121 -0.0074921268540065972 0 0.015571648415938099 -0.0078835065681160128 0 0.01594255072499489 -0.0078116040204887433 0 0.01596830150651175 -0.0078626002386888352 0 0.015757596917321814 -0.0081957007809735985 0 0.015186806739342121 -0.0074921268540065972 0 0.014705851440965919 -0.0066811774620889825 0 0.015186806739342121 -0.0074921268540065972 0 0.015387640352014989 -0.0070500983355233143 0 0.015470710727515375 -0.0079068042806032454 0 0.014999990191188981 -0.0080268172302800801 0 0.01499999753192641 -0.0073278103222372062 0 0.015470710727515375 -0.0079068042806032454 0 0.01499999753192641 -0.0073278103222372062 0 0.015684910963436369 -0.0072921445041790236 0 0.015571648415938099 -0.0078835065681160128 0 0.01500005755611261 -0.0080268447834046918 0 0.015473316577024715 -0.0079220046739413401 0 0.014999994136557011 -0.0080268796237166293 0 0.015386726522934177 -0.0083780304767916876 0 0.015386726522934177 -0.0083780304767916876 0 0.015698783393318125 -0.0088383552307072649 0 0.014999993769620218 -0.0089116038199940403 0 0.014999994136557011 -0.0080268796237166293 0 0.015386726522934177 -0.0083780304767916876 0 0.014999993769620218 -0.0089116038199940403 0 0.015757596917321814 -0.0081957007809735985 0 0.015386726522934177 -0.0083780304767916876 0 0.015698783393318125 -0.0088383552307072649 0 0.01609097526798894 -0.0084097296145957123 0 0.015757596917321814 -0.0081957007809735985 0 0.015698783393318125 -0.0088383552307072649 0 0.015496063920053005 -0.0095837444635866308 0 0.015988984975713629 -0.0093749943960433416 0 0.015698783393318125 -0.0088383552307072649 0 0.015496063920053005 -0.0095837444635866308 0 0.015698783393318125 -0.0088383552307072649 0 0.014999993769620218 -0.0089116038199940403 0 0.011383165262716637 -0.012464694160861101 0 0.011533250692418829 -0.012380066371910288 0 0.011328737609848769 -0.012648930389174444 0 0.011383165262716637 -0.012464694160861101 0 0.011277381804032519 -0.012412541024419898 0 0.011409154656097516 -0.012242878899793044 0 0.011383165262716637 -0.012464694160861101 0 0.011409154656097516 -0.012242878899793044 0 0.011533250692418829 -0.012380066371910288 0 0.011383165262716637 -0.012464694160861101 0 0.011277381804032519 -0.012412541024419898 0 0.011286367140609203 -0.012578411568147816 0 0.011220086388928885 -0.012560075947752356 0 0.011277381804032519 -0.012412541024419898 0 0.011050255697547213 -0.012383948923577517 0 0.011220086388928885 -0.012560075947752356 0 0.011277381804032519 -0.012412541024419898 0 0.011286367140609203 -0.012578411568147816 0 0.011143581019750964 -0.012424371796349289 0 0.01183444138945031 -0.01244688226073697 0 0.011220086388928885 -0.012560075947752356 0 0.011276139779592281 -0.012606609302034638 0 0.011254564499708518 -0.012618878181234224 0 0.011220086388928885 -0.012560075947752356 0 0.011050255697547213 -0.012383948923577517 0 0.011025101570066467 -0.012462662790392846 0 0.011277381804032519 -0.012412541024419898 0 0.011254940627359641 -0.012195829525596948 0 0.011050255697547213 -0.012383948923577517 0 0.013061199354794311 -0.010959836829699711 0 0.012532875947828348 -0.011292460396965624 0 0.01278097985077381 -0.010569547727504253 0 0.012597088921237322 -0.011530587134878043 0 0.013899503872738948 -0.010208966343417968 0 0.014796362394878679 -0.010587048057047506 0 0.014722750929659687 -0.010143486392918309 0 0.01506236363381927 -0.0098462028805918842 0 0.012108895125444002 -0.011609763768830227 0 0.012597088921237322 -0.011530587134878043 0 0.011254940627359641 -0.012195829525596948 0 0.011409154656097516 -0.012242878899793044 0 0.011502417289187633 -0.011956263222196447 0 0.012108895125444002 -0.011609763768830227 0 0.011997249252798945 -0.011324044751190362 0 0.011277381804032519 -0.012412541024419898 0 0.011254940627359641 -0.012195829525596948 0 0.011409154656097516 -0.012242878899793044 0 0.011409154656097516 -0.012242878899793044 0 0.011562560733906992 -0.012081908530526146 0 0.011533250692418829 -0.012380066371910288 0 0.011409154656097516 -0.012242878899793044 0 0.011562560733906992 -0.012081908530526146 0 0.011502417289187633 -0.011956263222196447 0 0.011834093688908079 -0.011869617917862726 0 0.011997249252798945 -0.011324044751190362 0 0.011562560733906992 -0.012081908530526146 0 0.011383359353719289 -0.011704805656293721 0 0.01190341270301069 -0.011670694709593896 0 0.011562560733906992 -0.012081908530526146 0 0.011924938216235461 -0.011902216152949563 0 0.01190341270301069 -0.011670694709593896 0 0.011562560733906992 -0.012081908530526146 0 0.011924938216235461 -0.011902216152949563 0 0.01184197438664266 -0.012350884843122243 0 0.011562560733906992 -0.012081908530526146 0 0.01184197438664266 -0.012350884843122243 0 0.011533250692418829 -0.012380066371910288 0 0.0096210273567809909 -0.013621943804568867 0 0.0098391622971982957 -0.013666794332007326 0 0.0098821125053286177 -0.013392756178782033 0 0.011924938216235461 -0.011902216152949563 0 0.01184197438664266 -0.012350884843122243 0 0.012506307901891533 -0.011313141967154917 0 0.011009884028719961 -0.012933010962081069 0 0.011123065092696002 -0.012589435486545298 0 0.010158544222029841 -0.013556209648301809 0 0.0098391622971982957 -0.013666794332007326 0 0.0098821125053286177 -0.013392756178782033 0 0.010158544222029841 -0.013556209648301809 0 0.0098391622971982957 -0.013666794332007326 0 0.0098073801495722028 -0.01393468561939866 0 0.01184197438664266 -0.012350884843122243 0 0.011533250692418829 -0.012380066371910288 0 0.011328737609848769 -0.012648930389174444 0 0.010158544222029841 -0.013556209648301809 0 0.0098821125053286177 -0.013392756178782033 0 0.010566928473368603 -0.013071750216345638 0 0.011009884028719961 -0.012933010962081069 0 0.010959812427613179 -0.012829464781407684 0 0.0098821125053286177 -0.013392756178782033 0 0.010566928473368603 -0.013071750216345638 0 0.0098146310926323851 -0.013019131873146112 0 0.0098594806532103958 -0.012317420634121628 0 0.0098146310926323851 -0.013019131873146112 0 0.010370209331798132 -0.01258830313654853 0 0.010566928473368603 -0.013071750216345638 0 0.0098146310926323851 -0.013019131873146112 0 0.010370209331798132 -0.01258830313654853 0 0.011048780930281232 -0.01246634232915942 0 0.010959812427613179 -0.012829464781407684 0 0.011035215177238338 -0.012459366484760077 0 0.011328737609848769 -0.012648930389174444 0 0.011225379890111577 -0.012605068501059805 0 0.011035215177238338 -0.012459366484760077 0 0.010566928473368603 -0.013071750216345638 0 0.010370209331798132 -0.01258830313654853 0 0.011328737609848769 -0.012648930389174444 0 0.011286367140609203 -0.012578411568147816 0 0.011225379890111577 -0.012605068501059805 0 0.011383165262716637 -0.012464694160861101 0 0.011328737609848769 -0.012648930389174444 0 0.011286367140609203 -0.012578411568147816 0 0.011220086388928885 -0.012560075947752356 0 0.011286367140609203 -0.012578411568147816 0 0.011225379890111577 -0.012605068501059805 0 0.011220086388928885 -0.012560075947752356 0 0.011225379890111577 -0.012605068501059805 0 0.011272938105674764 -0.012605319959740817 0 0.011220086388928885 -0.012560075947752356 0 0.011272938105674764 -0.012605319959740817 0 0.011276139779592281 -0.012606609302034638 0 0.011331304666748759 -0.012428160750574657 0 0.011035215177238338 -0.012459366484760077 0 0.011225379890111577 -0.012605068501059805 0 0.011331304666748759 -0.012428160750574657 0 0.011225379890111577 -0.012605068501059805 0 0.011422957145320409 -0.012620406318064563 0 0.011331304666748759 -0.012428160750574657 0 0.011422957145320409 -0.012620406318064563 0 0.011752552263368597 -0.012509150189954028 0 0.011422957145320409 -0.012620406318064563 0 0.011752552263368597 -0.012509150189954028 0 0.011678181533040413 -0.012712929921864661 0 0.011752552263368597 -0.012509150189954028 0 0.011678181533040413 -0.012712929921864661 0 0.011933134229963862 -0.012779393885706206 0 0.011422957145320409 -0.012620406318064563 0 0.011678181533040413 -0.012712929921864661 0 0.011617308862583916 -0.012966494124822363 0 0.011678181533040413 -0.012712929921864661 0 0.011933134229963862 -0.012779393885706206 0 0.011617308862583916 -0.012966494124822363 0 0.011933134229963862 -0.012779393885706206 0 0.011963573690973214 -0.01285102697899488 0 0.011925465497571806 -0.012848108340991992 0 0.011977369632748603 -0.012760806504822551 0 0.011614175358389925 -0.013002464464344884 0 0.011422957145320409 -0.012620406318064563 0 0.011276139779592281 -0.012606609302034638 0 0.011254564499708518 -0.012618878181234224 0 0.011422957145320409 -0.012620406318064563 0 0.011272592276268268 -0.013109344315130587 0 0.011617308862583916 -0.012966494124822363 0 0.011238151844258909 -0.012820363609852208 0 0.01183444138945031 -0.01244688226073697 0 0.011225379890111577 -0.012605068501059805 0 0.011272938105674764 -0.012605319959740817 0 0.011422957145320409 -0.012620406318064563 0 0.011272938105674764 -0.012605319959740817 0 0.011422957145320409 -0.012620406318064563 0 0.011276139779592281 -0.012606609302034638 0 0.012535174404588935 -0.012623251322993854 0 0.012183250489752471 -0.012446907564418647 0 0.012115733422891009 -0.01265966834641374 0 0.011752552263368597 -0.012509150189954028 0 0.012183250489752471 -0.012446907564418647 0 0.012115733422891009 -0.01265966834641374 0 0.011752552263368597 -0.012509150189954028 0 0.012115733422891009 -0.01265966834641374 0 0.011933134229963862 -0.012779393885706206 0 0.011933134229963862 -0.012779393885706206 0 0.012170248699957604 -0.012852253634298212 0 0.011963573690973214 -0.01285102697899488 0 0.012535174404588935 -0.012623251322993854 0 0.012115733422891009 -0.01265966834641374 0 0.012170248699957604 -0.012852253634298212 0 0.012115733422891009 -0.01265966834641374 0 0.011933134229963862 -0.012779393885706206 0 0.012170248699957604 -0.012852253634298212 0 0.016684062539893803 -0.010585045992205267 0 0.016692173529873792 -0.010628687375179142 0 0.016660513164839515 -0.01061402457092731 0 0.012170248699957604 -0.012852253634298212 0 0.011963573690973214 -0.01285102697899488 0 0.011968541519615433 -0.01290866523375557 0 0.014274542215329334 -0.011911506686988965 0 0.015088267703679834 -0.010914426426789775 0 0.011963573690973214 -0.01285102697899488 0 0.011968541519615433 -0.01290866523375557 0 0.011944746436871831 -0.012872228583296584 0 0.016559119302908806 -0.0086361164773808927 0 0.016781589389558114 -0.008915583413198579 0 0.016887423682334285 -0.0088248460081166002 0 0.016695563246252008 -0.0086725955627054499 0 0.017183789305667965 -0.0089242258968294033 0 0.01716339549058735 -0.0083518541862788939 0 0.016756661947302715 -0.0086734779061223427 0 0.015776043669098645 -0.0098248220861523513 0 0.016186412536999751 -0.0089371069026670646 0 0.016559119302908806 -0.0086361164773808927 0 0.016781589389558114 -0.008915583413198579 0 0.016813804355834051 -0.0095901103594877146 0 0.015088267703679834 -0.010914426426789775 0 0.016186412536999751 -0.0089371069026670646 0 0.016559119302908806 -0.0086361164773808927 0 0.016217589567267942 -0.0084266723735321233 0 0.011272592276268268 -0.013109344315130587 0 0.011332358925863395 -0.013138390635045384 0 0.011617308862583916 -0.012966494124822363 0 0.01463843081159112 -0.010684611930717548 0 0.014177155896055093 -0.010447654153498952 0 0.014388049466327497 -0.010439026646006183 0 0.01463843081159112 -0.010684611930717548 0 0.014388049466327497 -0.010439026646006183 0 0.014603057132753372 -0.010408688160337982 0 0.012430159523760108 -0.012309647924889778 0 0.013585405146251985 -0.010915236832575509 0 0.014796362394878679 -0.010587048057047506 0 0.01463843081159112 -0.010684611930717548 0 0.014603057132753372 -0.010408688160337982 0 0.012597088921237322 -0.011530587134878043 0 0.012430159523760108 -0.012309647924889778 0 0.012240525954842395 -0.012022502284463062 0 0.01216581095898785 -0.012240483266178926 0 0.01201370053424909 -0.012165044441976355 0 0.012597088921237322 -0.011530587134878043 0 0.01183444138945031 -0.01244688226073697 0 0.01183444138945031 -0.01244688226073697 0 0.012430159523760108 -0.012309647924889778 0 0.012430159523760108 -0.012309647924889778 0 0.011614175358389925 -0.013002464464344884 0 0.011925465497571806 -0.012848108340991992 0 0.011944746436871831 -0.012872228583296584 0 0.011932638637820171 -0.012882253435350117 0 0.011909988723616075 -0.01286333954971049 0 0.011925465497571806 -0.012848108340991992 0 0.011932638637820171 -0.012882253435350117 0 0.011963573690973214 -0.01285102697899488 0 0.011925465497571806 -0.012848108340991992 0 0.011944746436871831 -0.012872228583296584 0 0.011968541519615433 -0.01290866523375557 0 0.011944746436871831 -0.012872228583296584 0 0.011932638637820171 -0.012882253435350117 0 0.013585405146251985 -0.010915236832575509 0 0.014148424057136103 -0.010758536403048467 0 0.014307864245836206 -0.010243157597515104 0 0.013924367005749916 -0.010307959334802948 0 0.014608953566469806 -0.0097076672448118996 0 0.014192214423242772 -0.010442635423433143 0 0.014307864245836206 -0.010243157597515104 0 0.014388049466327497 -0.010439026646006183 0 0.014192214423242772 -0.010442635423433143 0 0.014307864245836206 -0.010243157597515104 0 0.013924367005749916 -0.010307959334802948 0 0.015776043669098645 -0.0098248220861523513 0 0.016436043455921492 -0.0088972378815532702 0 0.013585405146251985 -0.010915236832575509 0 0.015776043669098645 -0.0098248220861523513 0 0.015088267703679834 -0.010914426426789775 0 0.013585405146251985 -0.010915236832575509 0 0.015404280412145836 -0.010597452594143335 0 0.014180209664933661 -0.010641246180583378 0 0.014919091207863333 -0.011006841760221431 0 0.015088267703679834 -0.010914426426789775 0 0.015776043669098645 -0.0098248220861523513 0 0.014307864245836206 -0.010243157597515104 0 0.014522586657917719 -0.010193564841246743 0 0.014608953566469806 -0.0097076672448118996 0 0.014307864245836206 -0.010243157597515104 0 0.014522586657917719 -0.010193564841246743 0 0.014388049466327497 -0.010439026646006183 0 0.014522586657917719 -0.010193564841246743 0 0.014388049466327497 -0.010439026646006183 0 0.014603057132753372 -0.010408688160337982 0 0.014796362394878679 -0.010587048057047506 0 0.014603057132753372 -0.010408688160337982 0 0.014722750929659687 -0.010143486392918309 0 0.014522586657917719 -0.010193564841246743 0 0.014603057132753372 -0.010408688160337982 0 0.014722750929659687 -0.010143486392918309 0 0.014522586657917719 -0.010193564841246743 0 0.014722750929659687 -0.010143486392918309 0 0.014608953566469806 -0.0097076672448118996 0 0.014722750929659687 -0.010143486392918309 0 0.014608953566469806 -0.0097076672448118996 0 0.01506236363381927 -0.0098462028805918842 0 0.017183789305667965 -0.0089242258968294033 0 0.017799259409606527 -0.008398777403564409 0 0.01716339549058735 -0.0083518541862788939 0 0.017799259409606527 -0.008398777403564409 0 0.01716339549058735 -0.0083518541862788939 0 0.017384660041682327 -0.0077020590620973878 0 0.017799259409606527 -0.008398777403564409 0 0.017384660041682327 -0.0077020590620973878 0 0.017926312152379869 -0.0076187638233408874 0 0.016470375125102747 -0.0082568098413227462 0 0.016217589567267942 -0.0084266723735321233 0 0.016211522625106986 -0.0078912377742089354 0 0.016695563246252008 -0.0086725955627054499 0 0.016470375125102747 -0.0082568098413227462 0 0.016763176936501638 -0.0080462466123057772 0 0.016756661947302715 -0.0086734779061223427 0 0.016211629288351601 -0.0084334449912419826 0 0.016695563246252008 -0.0086725955627054499 0 0.016470375125102747 -0.0082568098413227462 0 0.016217589567267942 -0.0084266723735321233 0 0.016695563246252008 -0.0086725955627054499 0 0.01716339549058735 -0.0083518541862788939 0 0.016763176936501638 -0.0080462466123057772 0 0.01716339549058735 -0.0083518541862788939 0 0.017384660041682327 -0.0077020590620973878 0 0.016763176936501638 -0.0080462466123057772 0 0.017384660041682327 -0.0077020590620973878 0 0.016763176936501638 -0.0080462466123057772 0 0.016787451980229719 -0.0074081043087335721 0 0.016470375125102747 -0.0082568098413227462 0 0.016763176936501638 -0.0080462466123057772 0 0.016211522625106986 -0.0078912377742089354 0 0.016763176936501638 -0.0080462466123057772 0 0.016211522625106986 -0.0078912377742089354 0 0.016787451980229719 -0.0074081043087335721 0 0.016429864072441167 -0.0079884853421929459 0 0.016932563641431239 -0.0074285882854249388 0 0.016660199213713724 -0.0080445526332501727 0 0.01674361575594753 -0.0075135745522568647 0 0.017075499822770603 -0.0074480613213578585 0 0.01674361575594753 -0.0075135745522568647 0 0.017075499822770603 -0.0074480613213578585 0 0.016716230269909982 -0.0070343018240777832 0 0.016493439227709805 -0.0075109671695432149 0 0.01674361575594753 -0.0075135745522568647 0 0.016716230269909982 -0.0070343018240777832 0 0.01655935678311167 -0.0077770292540474536 0 0.016660199213713724 -0.0080445526332501727 0 0.01674361575594753 -0.0075135745522568647 0 0.017075499822770603 -0.0074480613213578585 0 0.017439871954240873 -0.0069328099756940072 0 0.017094119454266418 -0.0066080799699267069 0 0.017075499822770603 -0.0074480613213578585 0 0.016716230269909982 -0.0070343018240777832 0 0.017094119454266418 -0.0066080799699267069 0 0.016932563641431239 -0.0074285882854249388 0 0.017406356998939162 -0.0069808679304427827 0 0.017384660041682327 -0.0077020590620973878 0 0.017926312152379869 -0.0076187638233408874 0 0.017844406766464368 -0.007133988557697625 0 0.017926312152379869 -0.0076187638233408874 0 0.017844406766464368 -0.007133988557697625 0 0.01820029805437515 -0.0074316346192864991 0 0.017384660041682327 -0.0077020590620973878 0 0.017439871954240873 -0.0069328099756940072 0 0.017844406766464368 -0.007133988557697625 0 0.017384660041682327 -0.0077020590620973878 0 0.016787451980229719 -0.0074081043087335721 0 0.017439871954240873 -0.0069328099756940072 0 0.017439871954240873 -0.0069328099756940072 0 0.017844406766464368 -0.007133988557697625 0 0.017988563919098203 -0.0065081607411272627 0 0.018263424115575019 -0.0069302057624286454 0 0.018006113039543276 -0.006572021757195505 0 0.017844406766464368 -0.007133988557697625 0 0.018276973478122252 -0.0070577593041017562 0 0.017988563919098203 -0.0065081607411272627 0 0.014649611619467063 -0.0081344943404590472 0 0.015626603497921426 -0.0087988756505455873 0 0.018095108199218474 -0.0069164519353288193 0 0.018500438377209431 -0.0066960754375258265 0 0.018229587861646249 -0.0064344480368391304 0 0.011430284953520923 -0.0093335625048742606 0 0.011443786245229374 -0.010498050056222088 0 0.01187692876755461 -0.0099505725982397611 0 0.018095108199218474 -0.0069164519353288193 0 0.018500438377209431 -0.0066960754375258265 0 0.018257740932545813 -0.0073663130488746771 0 0.011430284953520923 -0.0093335625048742606 0 0.011090620914080834 -0.010533361573322811 0 0.011443786245229374 -0.010498050056222088 0 0.011090620914080834 -0.010533361573322811 0 0.011443786245229374 -0.010498050056222088 0 0.011179156185307416 -0.010721027642949115 0 0.015626603497921426 -0.0087988756505455873 0 0.013341846117477527 -0.0097953257094813458 0 0.011628220109344199 -0.010814615817527698 0 0.013341846117477527 -0.0097953257094813458 0 0.011443786245229374 -0.010498050056222088 0 0.011561960293660412 -0.010732686179729226 0 0.011826450291958092 -0.010699506573205772 0 0.017926312152379869 -0.0076187638233408874 0 0.01820029805437515 -0.0074316346192864991 0 0.018409795541509486 -0.0078680272590117752 0 0.018276973478122252 -0.0070577593041017562 0 0.018502873154952471 -0.0076016500109828671 0 0.01820029805437515 -0.0074316346192864991 0 0.018263424115575019 -0.0069302057624286454 0 0.015626603497921426 -0.0087988756505455873 0 0.017844406766464368 -0.007133988557697625 0 0.018276973478122252 -0.0070577593041017562 0 0.01820029805437515 -0.0074316346192864991 0 0.018502873154952471 -0.0076016500109828671 0 0.01820029805437515 -0.0074316346192864991 0 0.018409795541509486 -0.0078680272590117752 0 0.017799259409606527 -0.008398777403564409 0 0.017926312152379869 -0.0076187638233408874 0 0.018409795541509486 -0.0078680272590117752 0 0.016436043455921492 -0.0088972378815532702 0 0.015492720592115544 -0.0089171578906636437 0 0.015626603497921426 -0.0087988756505455873 0 0.015492720592115544 -0.0089171578906636437 0 0.015235676491635911 -0.0092940869199770425 0 0.015203414012333724 -0.0093968249408698506 0 0.015258644244001402 -0.0093476833845322713 0 0.015492720592115544 -0.0089171578906636437 0 0.013341846117477527 -0.0097953257094813458 0 0.013032154610397287 -0.0098477905628378652 0 0.013196910167546014 -0.0097078817911528375 0 0.013207037966346421 -0.010315934699053826 0 0.011249573806243947 -0.010704345993294211 0 0.011774918639161041 -0.011278326898928081 0 0.011736999030166078 -0.011010686413925093 0 0.013341846117477527 -0.0097953257094813458 0 0.011997249252798945 -0.011324044751190362 0 0.011443786245229374 -0.010498050056222088 0 0.011249573806243947 -0.010704345993294211 0 0.011561960293660412 -0.010732686179729226 0 0.011249573806243947 -0.010704345993294211 0 0.011561960293660412 -0.010732686179729226 0 0.011736999030166078 -0.011010686413925093 0 0.013196910167546014 -0.0097078817911528375 0 0.013207037966346421 -0.010315934699053826 0 0.013585085847601862 -0.010631716364598908 0 0.013061199354794311 -0.010959836829699711 0 0.013207037966346421 -0.010315934699053826 0 0.013585085847601862 -0.010631716364598908 0 0.011249573806243947 -0.010704345993294211 0 0.011685178926608523 -0.011595296573010078 0 0.011774918639161041 -0.011278326898928081 0 0.013032154610397287 -0.0098477905628378652 0 0.013207037966346421 -0.010315934699053826 0 0.01278097985077381 -0.010569547727504253 0 0.013061199354794311 -0.010959836829699711 0 0.013207037966346421 -0.010315934699053826 0 0.01278097985077381 -0.010569547727504253 0 0.014608953566469806 -0.0097076672448118996 0 0.015323109878726674 -0.0090915920554396588 0 0.01506236363381927 -0.0098462028805918842 0 0.015492720592115544 -0.0089171578906636437 0 0.013899503872738948 -0.010208966343417968 0 0.0097178664499505442 -0.013796967418882084 0 0.0098391622971982957 -0.013666794332007326 0 0.0098073801495722028 -0.01393468561939866 0 0.012200020907942056 -0.011239858529927441 0 0.012506307901891533 -0.011313141967154917 0 0.01190341270301069 -0.011670694709593896 0 0.012200020907942056 -0.011239858529927441 0 0.012506307901891533 -0.011313141967154917 0 0.012320308296839853 -0.011086861632337578 0 0.0097178664499505442 -0.013796967418882084 0 0.0096251143797266951 -0.01390785864963376 0 0.0098073801495722028 -0.01393468561939866 0 0.011924938216235461 -0.011902216152949563 0 0.012506307901891533 -0.011313141967154917 0 0.01190341270301069 -0.011670694709593896 0 0.011685178926608523 -0.011595296573010078 0 0.012200020907942056 -0.011239858529927441 0 0.011774918639161041 -0.011278326898928081 0 0.011997249252798945 -0.011324044751190362 0 0.011961412085385145 -0.011391941613305315 0 0.011383359353719289 -0.011704805656293721 0 0.012200020907942056 -0.011239858529927441 0 0.01190341270301069 -0.011670694709593896 0 0.012200020907942056 -0.011239858529927441 0 0.011774918639161041 -0.011278326898928081 0 0.011966157349406913 -0.011133575934944569 0 0.012200020907942056 -0.011239858529927441 0 0.011966157349406913 -0.011133575934944569 0 0.01214561864227685 -0.010938034284263112 0 0.011966157349406913 -0.011133575934944569 0 0.01214561864227685 -0.010938034284263112 0 0.011736999030166078 -0.011010686413925093 0 0.011774918639161041 -0.011278326898928081 0 0.011966157349406913 -0.011133575934944569 0 0.011736999030166078 -0.011010686413925093 0 0.011561960293660412 -0.010732686179729226 0 0.011736999030166078 -0.011010686413925093 0 0.011826450291958092 -0.010699506573205772 0 0.01214561864227685 -0.010938034284263112 0 0.011736999030166078 -0.011010686413925093 0 0.011826450291958092 -0.010699506573205772 0 0.01214561864227685 -0.010938034284263112 0 0.011826450291958092 -0.010699506573205772 0 0.012275169791540783 -0.010564333859746217 0 0.01214561864227685 -0.010938034284263112 0 0.012456559097847488 -0.010885259085781394 0 0.012275169791540783 -0.010564333859746217 0 0.012708626482347333 -0.010544162174353212 0 0.012506307901891533 -0.011313141967154917 0 0.012456559097847488 -0.010885259085781394 0 0.012200020907942056 -0.011239858529927441 0 0.01214561864227685 -0.010938034284263112 0 0.012320308296839853 -0.011086861632337578 0 0.01214561864227685 -0.010938034284263112 0 0.012320308296839853 -0.011086861632337578 0 0.012456559097847488 -0.010885259085781394 0 0.012506307901891533 -0.011313141967154917 0 0.012320308296839853 -0.011086861632337578 0 0.012456559097847488 -0.010885259085781394 0 0.012708626482347333 -0.010544162174353212 0 0.012456559097847488 -0.010885259085781394 0 0.012568342487099451 -0.010541699369975788 0 0.012656722693770179 -0.0099609442987188494 0 0.012561772574355102 -0.010625905023921642 0 0.012656722693770179 -0.0099609442987188494 0 0.012399291123918297 -0.010490539303218305 0 0.01261887676988732 -0.010210059503744932 0 0.012568342487099451 -0.010541699369975788 0 0.012275169791540783 -0.010564333859746217 0 0.012456559097847488 -0.010885259085781394 0 0.012568342487099451 -0.010541699369975788 0 0.012275169791540783 -0.010564333859746217 0 0.012275169791540783 -0.010564333859746217 0 0.01187692876755461 -0.0099505725982397611 0 0.012361601137644108 -0.0096395417137237066 0 0.011443786245229374 -0.010498050056222088 0 0.011826450291958092 -0.010699506573205772 0 0.011826289229338453 -0.010399711414641237 0 0.011826450291958092 -0.010699506573205772 0 0.011826289229338453 -0.010399711414641237 0 0.012275169791540783 -0.010564333859746217 0 0.011826289229338453 -0.010399711414641237 0 0.012275169791540783 -0.010564333859746217 0 0.01187692876755461 -0.0099505725982397611 0 0.011443786245229374 -0.010498050056222088 0 0.011826289229338453 -0.010399711414641237 0 0.01187692876755461 -0.0099505725982397611 0 0.01187692876755461 -0.0099505725982397611 0 0.012361601137644108 -0.0096395417137237066 0 0.012044755595577749 -0.0093105906812056636 0 0.012361601137644108 -0.0096395417137237066 0 0.012044755595577749 -0.0093105906812056636 0 0.01251125081902944 -0.0089174947620527054 0 0.011430284953520923 -0.0093335625048742606 0 0.01187692876755461 -0.0099505725982397611 0 0.012044755595577749 -0.0093105906812056636 0 0.013195228627426281 -0.0096094054390188782 0 0.012275169791540783 -0.010564333859746217 0 0.012361601137644108 -0.0096395417137237066 0 0.013195228627426281 -0.0096094054390188782 0 0.012361601137644108 -0.0096395417137237066 0 0.01251125081902944 -0.0089174947620527054 0 0.013195228627426281 -0.0096094054390188782 0 0.01251125081902944 -0.0089174947620527054 0 0.012927259256294005 -0.0086016852347666588 0 0.013195228627426281 -0.0096094054390188782 0 0.012927259256294005 -0.0086016852347666588 0 0.013401867055501277 -0.0082881724399392377 0 0.01251125081902944 -0.0089174947620527054 0 0.012927259256294005 -0.0086016852347666588 0 0.012481310463585336 -0.0083595564476286847 0 0.011430284953520923 -0.0093335625048742606 0 0.01205580502935428 -0.0086911334504686868 0 0.011870795411795677 -0.0080196656725870855 0 0.011430284953520923 -0.0093335625048742606 0 0.012044755595577749 -0.0093105906812056636 0 0.01205580502935428 -0.0086911334504686868 0 0.012044755595577749 -0.0093105906812056636 0 0.01251125081902944 -0.0089174947620527054 0 0.01205580502935428 -0.0086911334504686868 0 0.01251125081902944 -0.0089174947620527054 0 0.01205580502935428 -0.0086911334504686868 0 0.012481310463585336 -0.0083595564476286847 0 0.01205580502935428 -0.0086911334504686868 0 0.011870795411795677 -0.0080196656725870855 0 0.012481310463585336 -0.0083595564476286847 0 0.016549422790570149 -0.0068446104013132163 0 0.014503773808911883 -0.0057262082488789591 0 0.012927259256294005 -0.0086016852347666588 0 0.013048426937166418 -0.0078394257199575022 0 0.013401867055501277 -0.0082881724399392377 0 0.011870795411795677 -0.0080196656725870855 0 0.012481310463585336 -0.0083595564476286847 0 0.013048426937166418 -0.0078394257199575022 0 0.012927259256294005 -0.0086016852347666588 0 0.012481310463585336 -0.0083595564476286847 0 0.013048426937166418 -0.0078394257199575022 0 0.01824566030683232 -0.0055413185911482293 0 0.018406283364513207 -0.0056775908507730377 0 0.018473723903413761 -0.0056602595504576889 0 0.016039836065288009 -0.0032165868848874892 0 0.012688317947018204 -0.00048214238916995274 0 0.014149185271763325 -0.0030807296452223638 0 0.014485472234517842 -0.0034750846827296578 0 0.013830304782692744 -0.0035111307733978222 0 0.014503773808911883 -0.0057262082488789591 0 0.016039836065288009 -0.0032165868848874892 0 0.018406283364513207 -0.0056775908507730377 0 0.018473723903413761 -0.0056602595504576889 0 0.018527452442857615 -0.0056430724398608498 0 0.018501467579122351 -0.0055141253855204011 0 0.01824566030683232 -0.0055413185911482293 0 0.018473723903413761 -0.0056602595504576889 0 0.018571592420200008 -0.0058990309425980833 0 0.018473723903413761 -0.0056602595504576889 0 0.018504515890729902 -0.0057811881946587202 0 0.016549422790570149 -0.0068446104013132163 0 0.018629470561409883 -0.0051539009227329746 0 0.016039836065288009 -0.0032165868848874892 0 0.019391953721328178 -0.0056664341783424438 0 0.018473723903413761 -0.0056602595504576889 0 0.018527452442857615 -0.0056430724398608498 0 0.018504515890729902 -0.0057811881946587202 0 0.013656088215484585 0.0020056506163344443 0 0.014160903274502961 0.0014515031358721638 0 0.013500471276443637 0.0013996926735439545 0 0.016039836065288009 -0.0032165868848874892 0 0.016341855963738359 -0.001587821632395556 0 0.018928217069373709 -0.0055807692760939595 0 0.018592703899346339 -0.0051038751345813772 0 0.018527452442857615 -0.0056430724398608498 0 0.013656088215484585 0.0020056506163344443 0 0.013240259116273594 0.0016573138259957587 0 0.012965162327127529 0.0019685143880867409 0 0.013656088215484585 0.0020056506163344443 0 0.013240259116273594 0.0016573138259957587 0 0.013500471276443637 0.0013996926735439545 0 0.018246993504328866 -0.005320111511222231 0 0.017879889537454074 -0.0053760077974019166 0 0.017975673472026211 -0.0050024405900878314 0 0.018246993504328866 -0.005320111511222231 0 0.018067791222460588 -0.0056505118037870365 0 0.017879889537454074 -0.0053760077974019166 0 0.018592703899346339 -0.0051038751345813772 0 0.018246993504328866 -0.005320111511222231 0 0.018527452442857615 -0.0056430724398608498 0 0.018246993504328866 -0.005320111511222231 0 0.018527452442857615 -0.0056430724398608498 0 0.018314530504725899 -0.0057531075102862424 0 0.018527452442857615 -0.0056430724398608498 0 0.018504515890729902 -0.0057811881946587202 0 0.018314530504725899 -0.0057531075102862424 0 0.018314530504725899 -0.0057531075102862424 0 0.018067791222460588 -0.0056505118037870365 0 0.018081965983800286 -0.0060531030230130175 0 0.018067791222460588 -0.0056505118037870365 0 0.018081965983800286 -0.0060531030230130175 0 0.017726955527824075 -0.0057948508237796103 0 0.018246993504328866 -0.005320111511222231 0 0.018314530504725899 -0.0057531075102862424 0 0.018067791222460588 -0.0056505118037870365 0 0.018314530504725899 -0.0057531075102862424 0 0.018081965983800286 -0.0060531030230130175 0 0.018408916480243474 -0.0060353131897328688 0 0.018081965983800286 -0.0060531030230130175 0 0.018408916480243474 -0.0060353131897328688 0 0.018229587861646249 -0.0064344480368391304 0 0.018571592420200008 -0.0058990309425980833 0 0.018504515890729902 -0.0057811881946587202 0 0.018408916480243474 -0.0060353131897328688 0 0.016549422790570149 -0.0068446104013132163 0 0.018912027832861406 -0.0060743432229500389 0 0.018504515890729902 -0.0057811881946587202 0 0.018314530504725899 -0.0057531075102862424 0 0.018408916480243474 -0.0060353131897328688 0 0.018500438377209431 -0.0066960754375258265 0 0.018408916480243474 -0.0060353131897328688 0 0.018229587861646249 -0.0064344480368391304 0 0.018500438377209431 -0.0066960754375258265 0 0.018709391914609432 -0.0059962896282452346 0 0.018408916480243474 -0.0060353131897328688 0 0.014649611619467063 -0.0081344943404590472 0 0.016549422790570149 -0.0068446104013132163 0 0.018081965983800286 -0.0060531030230130175 0 0.018229587861646249 -0.0064344480368391304 0 0.017988563919098203 -0.0065081607411272627 0 0.018095108199218474 -0.0069164519353288193 0 0.018229587861646249 -0.0064344480368391304 0 0.017988563919098203 -0.0065081607411272627 0 0.017439871954240873 -0.0069328099756940072 0 0.017988563919098203 -0.0065081607411272627 0 0.017745459141846935 -0.006215222488658999 0 0.017439871954240873 -0.0069328099756940072 0 0.017390839503780498 -0.0062048919182862679 0 0.017745459141846935 -0.006215222488658999 0 0.017439871954240873 -0.0069328099756940072 0 0.017390839503780498 -0.0062048919182862679 0 0.017094119454266418 -0.0066080799699267069 0 0.017390839503780498 -0.0062048919182862679 0 0.017726955527824075 -0.0057948508237796103 0 0.017287902544954329 -0.005679760396920897 0 0.017390839503780498 -0.0062048919182862679 0 0.017745459141846935 -0.006215222488658999 0 0.017726955527824075 -0.0057948508237796103 0 0.018081965983800286 -0.0060531030230130175 0 0.017745459141846935 -0.006215222488658999 0 0.017726955527824075 -0.0057948508237796103 0 0.018081965983800286 -0.0060531030230130175 0 0.017988563919098203 -0.0065081607411272627 0 0.017745459141846935 -0.006215222488658999 0 0.016716230269909982 -0.0070343018240777832 0 0.016600890041893804 -0.006324354963853418 0 0.017094119454266418 -0.0066080799699267069 0 0.016600890041893804 -0.006324354963853418 0 0.017094119454266418 -0.0066080799699267069 0 0.01698428918706205 -0.0060338204237544756 0 0.017390839503780498 -0.0062048919182862679 0 0.017094119454266418 -0.0066080799699267069 0 0.01698428918706205 -0.0060338204237544756 0 0.017390839503780498 -0.0062048919182862679 0 0.01698428918706205 -0.0060338204237544756 0 0.017287902544954329 -0.005679760396920897 0 0.016600890041893804 -0.006324354963853418 0 0.01698428918706205 -0.0060338204237544756 0 0.01663014446002015 -0.0059153086109627094 0 0.016600890041893804 -0.006324354963853418 0 0.01663014446002015 -0.0059153086109627094 0 0.016307603582933539 -0.0059352202264630373 0 0.01698428918706205 -0.0060338204237544756 0 0.01663014446002015 -0.0059153086109627094 0 0.016869008773083654 -0.0055553115281801639 0 0.016869008773083654 -0.0055553115281801639 0 0.016529413438894944 -0.005237465295928799 0 0.016430167671073054 -0.0056306327515972107 0 0.01663014446002015 -0.0059153086109627094 0 0.016869008773083654 -0.0055553115281801639 0 0.016430167671073054 -0.0056306327515972107 0 0.01698428918706205 -0.0060338204237544756 0 0.016869008773083654 -0.0055553115281801639 0 0.017287902544954329 -0.005679760396920897 0 0.016869008773083654 -0.0055553115281801639 0 0.017171758128550828 -0.0051175532034650386 0 0.016826468887461494 -0.0051770349471834641 0 0.016869008773083654 -0.0055553115281801639 0 0.017171758128550828 -0.0051175532034650386 0 0.017287902544954329 -0.005679760396920897 0 0.016826468887461494 -0.0051770349471834641 0 0.016529413438894944 -0.005237465295928799 0 0.016738712465107525 -0.0048062318872909146 0 0.016869008773083654 -0.0055553115281801639 0 0.016826468887461494 -0.0051770349471834641 0 0.016529413438894944 -0.005237465295928799 0 0.017726955527824075 -0.0057948508237796103 0 0.017578988637420662 -0.0054122427462802462 0 0.017879889537454074 -0.0053760077974019166 0 0.018067791222460588 -0.0056505118037870365 0 0.017726955527824075 -0.0057948508237796103 0 0.017879889537454074 -0.0053760077974019166 0 0.017726955527824075 -0.0057948508237796103 0 0.017287902544954329 -0.005679760396920897 0 0.017578988637420662 -0.0054122427462802462 0 0.017171758128550828 -0.0051175532034650386 0 0.017578988637420662 -0.0054122427462802462 0 0.017631689511944968 -0.0050182174467391649 0 0.017171758128550828 -0.0051175532034650386 0 0.017287902544954329 -0.005679760396920897 0 0.017578988637420662 -0.0054122427462802462 0 0.017879889537454074 -0.0053760077974019166 0 0.017631689511944968 -0.0050182174467391649 0 0.017975673472026211 -0.0050024405900878314 0 0.017578988637420662 -0.0054122427462802462 0 0.017879889537454074 -0.0053760077974019166 0 0.017631689511944968 -0.0050182174467391649 0 0.017631689511944968 -0.0050182174467391649 0 0.017839842024157632 -0.0046734367062018231 0 0.017975673472026211 -0.0050024405900878314 0 0.017631689511944968 -0.0050182174467391649 0 0.017464496948269927 -0.0045966824504742425 0 0.017839842024157632 -0.0046734367062018231 0 0.017171758128550828 -0.0051175532034650386 0 0.017631689511944968 -0.0050182174467391649 0 0.017464496948269927 -0.0045966824504742425 0 0.017171758128550828 -0.0051175532034650386 0 0.017464496948269927 -0.0045966824504742425 0 0.017023701632667317 -0.004501378964930379 0 0.017464496948269927 -0.0045966824504742425 0 0.017023701632667317 -0.004501378964930379 0 0.017283619888908471 -0.0041050577027155841 0 0.017464496948269927 -0.0045966824504742425 0 0.017839842024157632 -0.0046734367062018231 0 0.017888091586500558 -0.0041437278418206269 0 0.016529413438894944 -0.005237465295928799 0 0.016738712465107525 -0.0048062318872909146 0 0.01635191840135038 -0.0047792634637686977 0 0.017171758128550828 -0.0051175532034650386 0 0.016826468887461494 -0.0051770349471834641 0 0.016738712465107525 -0.0048062318872909146 0 0.017171758128550828 -0.0051175532034650386 0 0.016738712465107525 -0.0048062318872909146 0 0.017023701632667317 -0.004501378964930379 0 0.016738712465107525 -0.0048062318872909146 0 0.017023701632667317 -0.004501378964930379 0 0.016547387690315399 -0.0043819120456100079 0 0.016738712465107525 -0.0048062318872909146 0 0.016547387690315399 -0.0043819120456100079 0 0.01635191840135038 -0.0047792634637686977 0 0.017023701632667317 -0.004501378964930379 0 0.016547387690315399 -0.0043819120456100079 0 0.016775866568093996 -0.0038899725755332589 0 0.016547387690315399 -0.0043819120456100079 0 0.016775866568093996 -0.0038899725755332589 0 0.016332787224114988 -0.0039853457299443631 0 0.017023701632667317 -0.004501378964930379 0 0.016775866568093996 -0.0038899725755332589 0 0.017283619888908471 -0.0041050577027155841 0 0.017111334412925637 -0.0036728561494031122 0 0.016775866568093996 -0.0038899725755332589 0 0.017283619888908471 -0.0041050577027155841 0 0.017888091586500558 -0.0041437278418206269 0 0.017283619888908471 -0.0041050577027155841 0 0.017525524889317395 -0.0036983211627796462 0 0.017464496948269927 -0.0045966824504742425 0 0.017888091586500558 -0.0041437278418206269 0 0.017283619888908471 -0.0041050577027155841 0 0.017111334412925637 -0.0036728561494031122 0 0.017283619888908471 -0.0041050577027155841 0 0.017525524889317395 -0.0036983211627796462 0 0.016575046189853618 -0.0019230473602560346 0 0.016654611419663883 -0.0020132662520052236 0 0.01527159736065534 0.00028442880035004409 0 0.015790958636842232 -0.00031608206532593149 0 0.015217256501808678 -0.00030672716103670916 0 0.01527159736065534 0.00028442880035004409 0 0.014639033191423938 -0.00017652418837293794 0 0.014197345466105548 0.00040594817467566369 0 0.01527159736065534 0.00028442880035004409 0 0.014197345466105548 0.00040594817467566369 0 0.014718262463988526 0.00088178195401218001 0 0.01527159736065534 0.00028442880035004409 0 0.015217256501808678 -0.00030672716103670916 0 0.014639033191423938 -0.00017652418837293794 0 0.014639033191423938 -0.00017652418837293794 0 0.013987031972553726 -0.00019601330624136648 0 0.014197345466105548 0.00040594817467566369 0 0.013861488393398711 -0.0003055714627846166 0 0.013362735828091868 -0.001364633399038108 0 0.013002324218130612 4.1068090535724765e-05 0 0.013861488393398711 -0.0003055714627846166 0 0.01359288541904259 0.00029160411943256165 0 0.013002324218130612 4.1068090535724765e-05 0 0.01359288541904259 0.00029160411943256165 0 0.013269692140039795 0.00071417271378779342 0 0.013002324218130612 4.1068090535724765e-05 0 0.013921567129920272 -0.00024591028692502482 0 0.014184683583783407 0.00036397335909316495 0 0.013861488393398711 -0.0003055714627846166 0 0.01359288541904259 0.00029160411943256165 0 0.014197345466105548 0.00040594817467566369 0 0.01359288541904259 0.00029160411943256165 0 0.014197345466105548 0.00040594817467566369 0 0.013928728874718814 0.00090163772433579517 0 0.01359288541904259 0.00029160411943256165 0 0.013928728874718814 0.00090163772433579517 0 0.013269692140039795 0.00071417271378779342 0 0.013269692140039795 0.00071417271378779342 0 0.013500471276443637 0.0013996926735439545 0 0.012822875894318587 0.0012403527944737393 0 0.013928728874718814 0.00090163772433579517 0 0.013269692140039795 0.00071417271378779342 0 0.013500471276443637 0.0013996926735439545 0 0.013240259116273594 0.0016573138259957587 0 0.013500471276443637 0.0013996926735439545 0 0.012822875894318587 0.0012403527944737393 0 0.014160903274502961 0.0014515031358721638 0 0.013928728874718814 0.00090163772433579517 0 0.013500471276443637 0.0013996926735439545 0 0.014160903274502961 0.0014515031358721638 0 0.013928728874718814 0.00090163772433579517 0 0.014718262463988526 0.00088178195401218001 0 0.016341855963738359 -0.001587821632395556 0 0.01650269445049907 -0.0019130101944285528 0 0.018592703899346339 -0.0051038751345813772 0 0.018246993504328866 -0.005320111511222231 0 0.018251604904818159 -0.0046136548316242833 0 0.018246993504328866 -0.005320111511222231 0 0.017975673472026211 -0.0050024405900878314 0 0.018251604904818159 -0.0046136548316242833 0 0.017839842024157632 -0.0046734367062018231 0 0.017975673472026211 -0.0050024405900878314 0 0.018251604904818159 -0.0046136548316242833 0 0.016575046189853618 -0.0019230473602560346 0 0.01650269445049907 -0.0019130101944285528 0 0.017839842024157632 -0.0046734367062018231 0 0.017888091586500558 -0.0041437278418206269 0 0.018251604904818159 -0.0046136548316242833 0 0.014197345466105548 0.00040594817467566369 0 0.013928728874718814 0.00090163772433579517 0 0.014718262463988526 0.00088178195401218001 0 0.015112587476450359 -0.0060957354857977325 0 0.015000009794578292 -0.0058751359911720256 0 0.015408685299525438 -0.0052779533560192923 0 0.015034197764824243 -0.0059551648872855443 0 0.014976827811953791 -0.0050228394672410387 0 0.014781174693641271 -0.0056760376362187384 0 0.015103848756259844 -0.0056447991764389215 0 0.014996734526516108 -0.0051482716110353207 0 0.015034197764824243 -0.0059551648872855443 0 0.015000057753984301 -0.0058752861728591553 0 0.014837090324806847 -0.005361995977492668 0 0.014976827811953791 -0.0050228394672410387 0 0.014633542129009202 -0.0048964042102154172 0 0.014766086461188059 -0.0049449407271820569 0 0.014604809953598251 -0.0051594519521781 0 0.014633542129009202 -0.0048964042102154172 0 0.014604809953598251 -0.0051594519521781 0 0.014500065594762961 -0.0046848591195281465 0 0.014766086461188059 -0.0049449407271820569 0 0.014604809953598251 -0.0051594519521781 0 0.014823871152736996 -0.0051545190247340869 0 0.014837090324806847 -0.005361995977492668 0 0.014846230304864799 -0.00594055537078795 0 0.015103848756259844 -0.0056447991764389215 0 0.015027905675247751 -0.0061708176876537554 0 0.015209962611699948 -0.0061394203828879041 0 0.014604809953598251 -0.0051594519521781 0 0.014703298738261004 -0.0055939546235529184 0 0.014835480607832767 -0.0053410774669095228 0 0.014604809953598251 -0.0051594519521781 0 0.014835480607832767 -0.0053410774669095228 0 0.014823871152736996 -0.0051545190247340869 0 0.015034197764824243 -0.0059551648872855443 0 0.015211336887910295 -0.0065237972124663479 0 0.015107810420034277 -0.0060939875351380783 0 0.01499999819018853 -0.0063685034489378792 0 0.01547854673079466 -0.0068368813787148914 0 0.014781174693641271 -0.0056760376362187384 0 0.015103848756259844 -0.0056447991764389215 0 0.015027905675247751 -0.0061708176876537554 0 0.015108792270004558 -0.0060926879751164592 0 0.014999999640817725 -0.0058751601685758824 0 0.014999999157297102 -0.0063684971085292323 0 0.015034197764824243 -0.0059551648872855443 0 0.014999972926186413 -0.006368343412523206 0 0.01499999819018853 -0.0063685034489378792 0 0.014999996492429616 -0.0069198923042572986 0 0.01547854673079466 -0.0068368813787148914 0 0.014999993969876084 -0.006919930751556857 0 0.015288504449928577 -0.0070924750816963363 0 0.015467102847922264 -0.0068461357845223799 0 0.015000297437848963 -0.0069198301544877638 0 0.015211336887910295 -0.0065237972124663479 0 0.015288504449928577 -0.0070924750816963363 0 0.014999997960902015 -0.0073277412812272971 0 0.015682948521137646 -0.007275657164679465 0 0.01500052793504413 -0.0073278325182571371 0 0.015387640352014989 -0.0070500983355233143 0 0.014999993969876084 -0.006919930751556857 0 0.015288504449928577 -0.0070924750816963363 0 0.014999997960902015 -0.0073277412812272971 0 0.014705851440965919 -0.0066811774620889825 0 0.014846230304864799 -0.00594055537078795 0 0.015056800687022653 -0.0067259703180333674 0 0.015163707638044815 -0.0067193847336420613 0 0.015092904463153256 -0.0063898086370002905 0 0.015190021171264461 -0.0074326159378491951 0 0.014912244652722558 -0.0068725799840532861 0 0.01508321952277852 -0.0068624362938298211 0 0.015387640352014989 -0.0070500983355233143 0 0.014705851440965919 -0.0066811774620889825 0 0.015288504449928577 -0.0070924750816963363 0 0.015682948521137646 -0.007275657164679465 0 0.015467102847922264 -0.0068461357845223799 0 0.015387640352014989 -0.0070500983355233143 0 0.015211336887910295 -0.0065237972124663479 0 0.015056800687022653 -0.0067259703180333674 0 0.014906250540669857 -0.0064217176478366658 0 0.015092904463153256 -0.0063898086370002905 0 0.015211336887910295 -0.0065237972124663479 0 0.014846230304864799 -0.00594055537078795 0 0.014534092905959783 -0.0056898659595266549 0 0.014848870369588952 -0.0058142111851422137 0 0.015103898051719139 -0.0055834105016861141 0 0.014703298738261004 -0.0055939546235529184 0 0.015191351241688926 -0.0055125008626114892 0 0.014835480607832767 -0.0053410774669095228 0 0.014602695933719349 -0.0060103835476836556 0 0.014534092905959783 -0.0056898659595266549 0 0.014848870369588952 -0.0058142111851422137 0 0.014846230304864799 -0.00594055537078795 0 0.015105700508570167 -0.0055081803042632506 0 0.014518905102016484 -0.0070053036530697789 0 0.014318577482507583 -0.0068606231265810717 0 0.014848663957627392 -0.0068108013269337552 0 0.014602695933719349 -0.0060103835476836556 0 0.014848870369588952 -0.0058142111851422137 0 0.015156661115312031 -0.00597367922806842 0 0.014705851440965919 -0.0066811774620889825 0 0.014949377978998505 -0.0063599505850330182 0 0.014518905102016484 -0.0070053036530697789 0 0.014611687416612807 -0.007149707082198923 0 0.014848663957627392 -0.0068108013269337552 0 0.014852628662616645 -0.0070754753861586089 0 0.014848663957627392 -0.0068108013269337552 0 0.015099681955851745 -0.0069804002757330088 0 0.014848870369588952 -0.0058142111851422137 0 0.015156661115312031 -0.00597367922806842 0 0.015103898051719139 -0.0055834105016861141 0 0.015156661115312031 -0.00597367922806842 0 0.015103898051719139 -0.0055834105016861141 0 0.015431865081874692 -0.0057293017118492861 0 0.015191351241688926 -0.0055125008626114892 0 0.015026156847813381 -0.0052328468884102891 0 0.015349746006468093 -0.0052919444022269712 0 0.015191351241688926 -0.0055125008626114892 0 0.014835480607832767 -0.0053410774669095228 0 0.015026156847813381 -0.0052328468884102891 0 0.014835480607832767 -0.0053410774669095228 0 0.015026156847813381 -0.0052328468884102891 0 0.014823871152736996 -0.0051545190247340869 0 0.015026156847813381 -0.0052328468884102891 0 0.014934961550566664 -0.0050464997788472066 0 0.015126296361289558 -0.0050377522278471608 0 0.015026156847813381 -0.0052328468884102891 0 0.014934961550566664 -0.0050464997788472066 0 0.014823871152736996 -0.0051545190247340869 0 0.014766086461188059 -0.0049449407271820569 0 0.014934961550566664 -0.0050464997788472066 0 0.014823871152736996 -0.0051545190247340869 0 0.014766086461188059 -0.0049449407271820569 0 0.014934961550566664 -0.0050464997788472066 0 0.014952874985230888 -0.0048342002576920069 0 0.014934961550566664 -0.0050464997788472066 0 0.015126296361289558 -0.0050377522278471608 0 0.014952874985230888 -0.0048342002576920069 0 0.015026156847813381 -0.0052328468884102891 0 0.015126296361289558 -0.0050377522278471608 0 0.015349746006468093 -0.0052919444022269712 0 0.015126296361289558 -0.0050377522278471608 0 0.015331009815839328 -0.0050201416210651321 0 0.015349746006468093 -0.0052919444022269712 0 0.015126296361289558 -0.0050377522278471608 0 0.015331009815839328 -0.0050201416210651321 0 0.015193453942916026 -0.0047728731158522466 0 0.015331009815839328 -0.0050201416210651321 0 0.015632218377616434 -0.00528042464439524 0 0.015349746006468093 -0.0052919444022269712 0 0.015331009815839328 -0.0050201416210651321 0 0.015732711399939037 -0.005194514881949803 0 0.015698812455232584 -0.0048991796615841451 0 0.015331009815839328 -0.0050201416210651321 0 0.015732711399939037 -0.005194514881949803 0 0.015576567742078166 -0.0054179141838749971 0 0.015349642623025048 -0.0050556663003253881 0 0.015609757035283509 -0.005354036713901493 0 0.015732711399939037 -0.005194514881949803 0 0.01590619962360721 -0.0050907755404068925 0 0.015698812455232584 -0.0048991796615841451 0 0.015732711399939037 -0.005194514881949803 0 0.01594364794732063 -0.0054081430946170987 0 0.01590619962360721 -0.0050907755404068925 0 0.015576567742078166 -0.0054179141838749971 0 0.015873838992651663 -0.0058422309941624732 0 0.01594364794732063 -0.0054081430946170987 0 0.015609757035283509 -0.005354036713901493 0 0.015918118477332429 -0.0056935227309201242 0 0.015632218377616434 -0.00528042464439524 0 0.015696978312959232 -0.0054656743821178133 0 0.015964706364654867 -0.0055872962795491211 0 0.015732711399939037 -0.005194514881949803 0 0.015576567742078166 -0.0054179141838749971 0 0.01594364794732063 -0.0054081430946170987 0 0.015191351241688926 -0.0055125008626114892 0 0.015696978312959232 -0.0054656743821178133 0 0.015349746006468093 -0.0052919444022269712 0 0.015632218377616434 -0.00528042464439524 0 0.015696978312959232 -0.0054656743821178133 0 0.015349746006468093 -0.0052919444022269712 0 0.015103898051719139 -0.0055834105016861141 0 0.015696978312959232 -0.0054656743821178133 0 0.015431865081874692 -0.0057293017118492861 0 0.015105700508570167 -0.0055081803042632506 0 0.015694098313762634 -0.0054777111539168945 0 0.014848663957627392 -0.0068108013269337552 0 0.015099681955851745 -0.0069804002757330088 0 0.015506927395562099 -0.0067263482714589491 0 0.015156661115312031 -0.00597367922806842 0 0.015431865081874692 -0.0057293017118492861 0 0.015728849299842865 -0.0059372435042261496 0 0.014949377978998505 -0.0063599505850330182 0 0.015642192768782936 -0.0063368307290827836 0 0.015502806660435861 -0.0071337310060747821 0 0.015099681955851745 -0.0069804002757330088 0 0.015506927395562099 -0.0067263482714589491 0 0.01592184284260682 -0.0070106613824230703 0 0.015502806660435861 -0.0071337310060747821 0 0.015506927395562099 -0.0067263482714589491 0 0.015728849299842865 -0.0059372435042261496 0 0.015694933007753382 -0.0056878643845335065 0 0.015964706364654867 -0.0055872962795491211 0 0.015431865081874692 -0.0057293017118492861 0 0.015728849299842865 -0.0059372435042261496 0 0.015694933007753382 -0.0056878643845335065 0 0.015696978312959232 -0.0054656743821178133 0 0.015431865081874692 -0.0057293017118492861 0 0.015694933007753382 -0.0056878643845335065 0 0.015696978312959232 -0.0054656743821178133 0 0.015694933007753382 -0.0056878643845335065 0 0.015964706364654867 -0.0055872962795491211 0 0.015873838992651663 -0.0058422309941624732 0 0.016217437185767871 -0.0062680853411388763 0 0.016307603582933539 -0.0059352202264630373 0 0.015873838992651663 -0.0058422309941624732 0 0.016307603582933539 -0.0059352202264630373 0 0.01612613336084048 -0.0056528543310106691 0 0.015918118477332429 -0.0056935227309201242 0 0.016229644440675744 -0.0062909555502265735 0 0.015728849299842865 -0.0059372435042261496 0 0.015964706364654867 -0.0055872962795491211 0 0.016309875595905386 -0.0059067539680253229 0 0.01592184284260682 -0.0070106613824230703 0 0.015506927395562099 -0.0067263482714589491 0 0.01624326339383772 -0.0066727614915000049 0 0.015642192768782936 -0.0063368307290827836 0 0.016229644440675744 -0.0062909555502265735 0 0.016342628446762129 -0.0070151718826795785 0 0.016716230269909982 -0.0070343018240777832 0 0.01624326339383772 -0.0066727614915000049 0 0.016504761040105103 -0.0063166968852448714 0 0.016229644440675744 -0.0062909555502265735 0 0.016342628446762129 -0.0070151718826795785 0 0.01592184284260682 -0.0070106613824230703 0 0.01624326339383772 -0.0066727614915000049 0 0.016716230269909982 -0.0070343018240777832 0 0.016600890041893804 -0.006324354963853418 0 0.015965697597174339 -0.0063611298324957339 0 0.016663533354472237 -0.0070760428897228131 0 0.016229644440675744 -0.0062909555502265735 0 0.016600890041893804 -0.006324354963853418 0 0.016217437185767871 -0.0062680853411388763 0 0.016307603582933539 -0.0059352202264630373 0 0.01663014446002015 -0.0059153086109627094 0 0.016307603582933539 -0.0059352202264630373 0 0.016430167671073054 -0.0056306327515972107 0 0.016529413438894944 -0.005237465295928799 0 0.016430167671073054 -0.0056306327515972107 0 0.016241953624004875 -0.0054250635186761827 0 0.016430167671073054 -0.0056306327515972107 0 0.016241953624004875 -0.0054250635186761827 0 0.01612613336084048 -0.0056528543310106691 0 0.016307603582933539 -0.0059352202264630373 0 0.016430167671073054 -0.0056306327515972107 0 0.01612613336084048 -0.0056528543310106691 0 0.015873838992651663 -0.0058422309941624732 0 0.01612613336084048 -0.0056528543310106691 0 0.01594364794732063 -0.0054081430946170987 0 0.016241953624004875 -0.0054250635186761827 0 0.01612613336084048 -0.0056528543310106691 0 0.01594364794732063 -0.0054081430946170987 0 0.016241953624004875 -0.0054250635186761827 0 0.01594364794732063 -0.0054081430946170987 0 0.016171206004930674 -0.0051601475461938761 0 0.01594364794732063 -0.0054081430946170987 0 0.01590619962360721 -0.0050907755404068925 0 0.016171206004930674 -0.0051601475461938761 0 0.01590619962360721 -0.0050907755404068925 0 0.016171206004930674 -0.0051601475461938761 0 0.015997216862057396 -0.004805984367442429 0 0.016529413438894944 -0.005237465295928799 0 0.016241953624004875 -0.0054250635186761827 0 0.016171206004930674 -0.0051601475461938761 0 0.016529413438894944 -0.005237465295928799 0 0.016171206004930674 -0.0051601475461938761 0 0.01635191840135038 -0.0047792634637686977 0 0.016171206004930674 -0.0051601475461938761 0 0.01635191840135038 -0.0047792634637686977 0 0.015997216862057396 -0.004805984367442429 0 0.015997216862057396 -0.004805984367442429 0 0.016087165897893763 -0.0043419801550449609 0 0.015757492033731325 -0.0045225071524024356 0 0.01635191840135038 -0.0047792634637686977 0 0.015997216862057396 -0.004805984367442429 0 0.016087165897893763 -0.0043419801550449609 0 0.016547387690315399 -0.0043819120456100079 0 0.01635191840135038 -0.0047792634637686977 0 0.016087165897893763 -0.0043419801550449609 0 0.016332787224114988 -0.0039853457299443631 0 0.015966547625657402 -0.0037490547571574595 0 0.016385630957425991 -0.0033008433952419407 0 0.016547387690315399 -0.0043819120456100079 0 0.016087165897893763 -0.0043419801550449609 0 0.016332787224114988 -0.0039853457299443631 0 0.016775866568093996 -0.0038899725755332589 0 0.016332787224114988 -0.0039853457299443631 0 0.016385630957425991 -0.0033008433952419407 0 0.016087165897893763 -0.0043419801550449609 0 0.016332787224114988 -0.0039853457299443631 0 0.015966547625657402 -0.0037490547571574595 0 0.016087165897893763 -0.0043419801550449609 0 0.015966547625657402 -0.0037490547571574595 0 0.015586398243099375 -0.0041345850310059544 0 0.015896503684275438 -0.0037024968677521245 0 0.015586344961174805 -0.0041190295020761781 0 0.015828714824215016 -0.0036711868364748788 0 0.015586398243099375 -0.0041345850310059544 0 0.01547890077075104 -0.0036241988325193706 0 0.015586398243099375 -0.0041345850310059544 0 0.015220165852571516 -0.0039552085491694686 0 0.01547890077075104 -0.0036241988325193706 0 0.015586398243099375 -0.0041345850310059544 0 0.015757492033731325 -0.0045225071524024356 0 0.01546164688039846 -0.0047147160258172111 0 0.015586398243099375 -0.0041345850310059544 0 0.01546164688039846 -0.0047147160258172111 0 0.015250920240124108 -0.0044276087291266857 0 0.016087165897893763 -0.0043419801550449609 0 0.015586398243099375 -0.0041345850310059544 0 0.015757492033731325 -0.0045225071524024356 0 0.015997216862057396 -0.004805984367442429 0 0.015757492033731325 -0.0045225071524024356 0 0.015698812455232584 -0.0048991796615841451 0 0.015757492033731325 -0.0045225071524024356 0 0.015698812455232584 -0.0048991796615841451 0 0.01546164688039846 -0.0047147160258172111 0 0.01590619962360721 -0.0050907755404068925 0 0.015997216862057396 -0.004805984367442429 0 0.015698812455232584 -0.0048991796615841451 0 0.015331009815839328 -0.0050201416210651321 0 0.015698812455232584 -0.0048991796615841451 0 0.01546164688039846 -0.0047147160258172111 0 0.01546164688039846 -0.0047147160258172111 0 0.015193453942916026 -0.0047728731158522466 0 0.015250920240124108 -0.0044276087291266857 0 0.015331009815839328 -0.0050201416210651321 0 0.01546164688039846 -0.0047147160258172111 0 0.015193453942916026 -0.0047728731158522466 0 0.015193453942916026 -0.0047728731158522466 0 0.015036406314360273 -0.0045822643659882258 0 0.015250920240124108 -0.0044276087291266857 0 0.015126296361289558 -0.0050377522278471608 0 0.015193453942916026 -0.0047728731158522466 0 0.014952874985230888 -0.0048342002576920069 0 0.014766086461188059 -0.0049449407271820569 0 0.014952874985230888 -0.0048342002576920069 0 0.014775671000880609 -0.0047250870949659962 0 0.014903587644151556 -0.0046606499166981412 0 0.014859678627684798 -0.004497364134095609 0 0.014775671000880609 -0.0047250870949659962 0 0.014952874985230888 -0.0048342002576920069 0 0.014903587644151556 -0.0046606499166981412 0 0.014775671000880609 -0.0047250870949659962 0 0.014952874985230888 -0.0048342002576920069 0 0.014903587644151556 -0.0046606499166981412 0 0.015036406314360273 -0.0045822643659882258 0 0.015193453942916026 -0.0047728731158522466 0 0.014952874985230888 -0.0048342002576920069 0 0.015036406314360273 -0.0045822643659882258 0 0.015036406314360273 -0.0045822643659882258 0 0.014859678627684798 -0.004497364134095609 0 0.015030413497517279 -0.0042959422719974745 0 0.014859678627684798 -0.004497364134095609 0 0.015030413497517279 -0.0042959422719974745 0 0.014769959098534416 -0.0041510212504588251 0 0.014903587644151556 -0.0046606499166981412 0 0.015036406314360273 -0.0045822643659882258 0 0.014859678627684798 -0.004497364134095609 0 0.015036406314360273 -0.0045822643659882258 0 0.015030413497517279 -0.0042959422719974745 0 0.015250920240124108 -0.0044276087291266857 0 0.015586398243099375 -0.0041345850310059544 0 0.015250920240124108 -0.0044276087291266857 0 0.015220165852571516 -0.0039552085491694686 0 0.015030413497517279 -0.0042959422719974745 0 0.015250920240124108 -0.0044276087291266857 0 0.015220165852571516 -0.0039552085491694686 0 0.015220165852571516 -0.0039552085491694686 0 0.015264120559655509 -0.0035839591595424243 0 0.01547890077075104 -0.0036241988325193706 0 0.015220165852571516 -0.0039552085491694686 0 0.015180941662081938 -0.0037178822078381382 0 0.015264120559655509 -0.0035839591595424243 0 0.015220165852571516 -0.0039552085491694686 0 0.014769959098534416 -0.0041510212504588251 0 0.015180941662081938 -0.0037178822078381382 0 0.015030413497517279 -0.0042959422719974745 0 0.015220165852571516 -0.0039552085491694686 0 0.014769959098534416 -0.0041510212504588251 0 0.015114634564869858 -0.0042761076240823686 0 0.015183255030269731 -0.0037867673831894562 0 0.015494663758839362 -0.004377372227071883 0 0.015221072743344048 -0.0038832102801980382 0 0.015180941662081938 -0.0037178822078381382 0 0.015221072743344048 -0.0038832102801980382 0 0.014999850435177981 -0.0043631595765970602 0 0.014999865248142421 -0.0036082130495895628 0 0.015494663758839362 -0.004377372227071883 0 0.015221072743344048 -0.0038832102801980382 0 0.014999850435177981 -0.0043631595765970602 0 0.015494663758839362 -0.004377372227071883 0 0.014999850435177981 -0.0043631595765970602 0 0.015220729649882862 -0.0047718521127482821 0 0.01499993229306259 -0.0051192691789050575 0 0.015220729649882862 -0.0047718521127482821 0 0.015408685299525438 -0.0052779533560192923 0 0.014999850435177981 -0.0043631595765970602 0 0.01499993229306259 -0.0051192691789050575 0 0.015220729649882862 -0.0047718521127482821 0 0.015494663758839362 -0.004377372227071883 0 0.015220729649882862 -0.0047718521127482821 0 0.015408685299525438 -0.0052779533560192923 0 0.015114634564869858 -0.0042761076240823686 0 0.014976827811953791 -0.0050228394672410387 0 0.014769959098534416 -0.0041510212504588251 0 0.014667332816644752 -0.0045821330986815356 0 0.014500065594762961 -0.0046848591195281465 0 0.014859678627684798 -0.004497364134095609 0 0.014769959098534416 -0.0041510212504588251 0 0.014667332816644752 -0.0045821330986815356 0 0.014652698602670176 -0.0046967550180309851 0 0.014667974862981213 -0.0047897967217043601 0 0.014500065594762961 -0.0046848591195281465 0 0.014667332816644752 -0.0045821330986815356 0 0.014652698602670176 -0.0046967550180309851 0 0.014500065594762961 -0.0046848591195281465 0 0.014859678627684798 -0.004497364134095609 0 0.014667332816644752 -0.0045821330986815356 0 0.014775671000880609 -0.0047250870949659962 0 0.014667332816644752 -0.0045821330986815356 0 0.014652698602670176 -0.0046967550180309851 0 0.014775671000880609 -0.0047250870949659962 0 0.014652698602670176 -0.0046967550180309851 0 0.014775671000880609 -0.0047250870949659962 0 0.014667974862981213 -0.0047897967217043601 0 0.014766086461188059 -0.0049449407271820569 0 0.014775671000880609 -0.0047250870949659962 0 0.014667974862981213 -0.0047897967217043601 0 0.014633542129009202 -0.0048964042102154172 0 0.014766086461188059 -0.0049449407271820569 0 0.014667974862981213 -0.0047897967217043601 0 0.014633542129009202 -0.0048964042102154172 0 0.014667974862981213 -0.0047897967217043601 0 0.014500065594762961 -0.0046848591195281465 0 0.015000009794578292 -0.0058751359911720256 0 0.01499993229306259 -0.0051192691789050575 0 0.015408685299525438 -0.0052779533560192923 0 0.015050511211085712 -0.0023865942202921501 0 0.014873709430082328 -0.0027773145024755086 0 0.015327086804885565 -0.0020239000643467327 0 0.014998280694161424 -0.0026553625607878 0 0.014999992618593411 -0.0017972596742823349 0 0.014928454771050511 -0.0026991619068487873 0 0.014859255763905926 -0.0028676590456126407 0 0.015047513030567018 -0.0028063726184348139 0 0.014783565779273542 -0.0027406248599912654 0 0.014928454771050511 -0.0026991619068487873 0 0.014859255763905926 -0.0028676590456126407 0 0.015021920837107317 -0.0028508719547785362 0 0.015156066422634826 -0.0028290609112466233 0 0.015238822314058622 -0.002839448267872051 0 0.015284766964981879 -0.0029395020388484783 0 0.015249360343443407 -0.0028789113476668194 0 0.015238822314058622 -0.002839448267872051 0 0.015215479724513207 -0.0029323520785771644 0 0.015284766964981879 -0.0029395020388484783 0 0.014783565779273542 -0.0027406248599912654 0 0.014859255763905926 -0.0028676590456126407 0 0.014687315081378402 -0.0029367561525016801 0 0.015238822314058622 -0.002839448267872051 0 0.014998280732448202 -0.0026559445643005893 0 0.015215479724513207 -0.0029323520785771644 0 0.015021920837107317 -0.0028508719547785362 0 0.014873709430082328 -0.0027773145024755086 0 0.014998280732448202 -0.0026559445643005893 0 0.015215479724513207 -0.0029323520785771644 0 0.014999914250694833 -0.0031313934851104883 0 0.015215479724513207 -0.0029323520785771644 0 0.014999914250694833 -0.0031313934851104883 0 0.015320297393245993 -0.003157821185932995 0 0.015221072743344048 -0.0038832102801980382 0 0.014999865248142421 -0.0036082130495895628 0 0.015175216463237703 -0.0036441252403672316 0 0.014999984987028064 -0.0036076087209862009 0 0.015221896063456686 -0.0034043019893587028 0 0.014999914250694833 -0.0031313934851104883 0 0.01499996096490425 -0.003607360042611044 0 0.015320297393245993 -0.003157821185932995 0 0.015221072743344048 -0.0038832102801980382 0 0.015175216463237703 -0.0036441252403672316 0 0.015180941662081938 -0.0037178822078381382 0 0.015215479724513207 -0.0029323520785771644 0 0.015320297393245993 -0.003157821185932995 0 0.015284766964981879 -0.0029395020388484783 0 0.015320297393245993 -0.003157821185932995 0 0.015309269050973502 -0.0030230665461404098 0 0.015284766964981879 -0.0029395020388484783 0 0.015221896063456686 -0.0034043019893587028 0 0.015269273910440046 -0.0032361807519861157 0 0.015182281492794387 -0.0034493023455857688 0 0.015180941662081938 -0.0037178822078381382 0 0.015264120559655509 -0.0035839591595424243 0 0.015175216463237703 -0.0036441252403672316 0 0.015182281492794387 -0.0034493023455857688 0 0.015180941662081938 -0.0037178822078381382 0 0.015269273910440046 -0.0032361807519861157 0 0.015382960659539931 -0.0031230468212324462 0 0.015182281492794387 -0.0034493023455857688 0 0.015264120559655509 -0.0035839591595424243 0 0.015371983620929563 -0.0031140202639949972 0 0.015309269050973502 -0.0030230665461404098 0 0.015278376042822126 -0.0029473845804836112 0 0.015371983620929563 -0.0031140202639949972 0 0.015278376042822126 -0.0029473845804836112 0 0.015284766964981879 -0.0029395020388484783 0 0.015249360343443407 -0.0028789113476668194 0 0.015309269050973502 -0.0030230665461404098 0 0.015278376042822126 -0.0029473845804836112 0 0.015284766964981879 -0.0029395020388484783 0 0.015278376042822126 -0.0029473845804836112 0 0.015262635242555379 -0.0027467541405077228 0 0.015416604783379842 -0.0028493761767032339 0 0.015156066422634826 -0.0028290609112466233 0 0.015263712578660351 -0.0027600632735097978 0 0.015278376042822126 -0.0029473845804836112 0 0.015249360343443407 -0.0028789113476668194 0 0.015262635242555379 -0.0027467541405077228 0 0.015262635242555379 -0.0027467541405077228 0 0.015416604783379842 -0.0028493761767032339 0 0.015407302662617008 -0.0025979016746883903 0 0.015416604783379842 -0.0028493761767032339 0 0.015591775545061377 -0.0027485053657506997 0 0.015407302662617008 -0.0025979016746883903 0 0.015416604783379842 -0.0028493761767032339 0 0.015591775545061377 -0.0027485053657506997 0 0.015580996387616026 -0.0029760391624087915 0 0.015416604783379842 -0.0028493761767032339 0 0.015580996387616026 -0.0029760391624087915 0 0.015371983620929563 -0.0031140202639949972 0 0.015278376042822126 -0.0029473845804836112 0 0.015416604783379842 -0.0028493761767032339 0 0.015371983620929563 -0.0031140202639949972 0 0.015371983620929563 -0.0031140202639949972 0 0.01547890077075104 -0.0036241988325193706 0 0.01570252825172825 -0.0032539268269460931 0 0.015264120559655509 -0.0035839591595424243 0 0.015371983620929563 -0.0031140202639949972 0 0.01547890077075104 -0.0036241988325193706 0 0.015828714824215016 -0.0036711868364748788 0 0.01547890077075104 -0.0036241988325193706 0 0.01570252825172825 -0.0032539268269460931 0 0.015580996387616026 -0.0029760391624087915 0 0.015371983620929563 -0.0031140202639949972 0 0.01570252825172825 -0.0032539268269460931 0 0.01570252825172825 -0.0032539268269460931 0 0.015987083803746225 -0.0032574203192098877 0 0.015830801823938544 -0.0029332169789784146 0 0.015828714824215016 -0.0036711868364748788 0 0.01570252825172825 -0.0032539268269460931 0 0.015987083803746225 -0.0032574203192098877 0 0.015896503684275438 -0.0037024968677521245 0 0.01616331468047303 -0.0033656142795329201 0 0.015987083803746225 -0.0032574203192098877 0 0.015830801823938544 -0.0029332169789784146 0 0.01597842167578226 -0.0029391896326827031 0 0.015830801823938544 -0.0029332169789784146 0 0.015949008903331358 -0.0028048199013837776 0 0.01597842167578226 -0.0029391896326827031 0 0.015580996387616026 -0.0029760391624087915 0 0.01570252825172825 -0.0032539268269460931 0 0.015830801823938544 -0.0029332169789784146 0 0.015591775545061377 -0.0027485053657506997 0 0.015580996387616026 -0.0029760391624087915 0 0.015830801823938544 -0.0029332169789784146 0 0.015591775545061377 -0.0027485053657506997 0 0.015830801823938544 -0.0029332169789784146 0 0.015884513728596679 -0.0026584386932180194 0 0.01559247125034003 -0.0027393435741680278 0 0.015765385095849238 -0.0026295226163869033 0 0.015830801823938544 -0.0029332169789784146 0 0.015949008903331358 -0.0028048199013837776 0 0.015884513728596679 -0.0026584386932180194 0 0.015949008903331358 -0.0028048199013837776 0 0.015884513728596679 -0.0026584386932180194 0 0.015966867271076435 -0.0027127002205662534 0 0.015591775545061377 -0.0027485053657506997 0 0.015660976087155422 -0.0025802285215444378 0 0.015518442693998267 -0.002485505895968668 0 0.015518442693998267 -0.002485505895968668 0 0.015615003562028855 -0.0023679481334321307 0 0.015420527938570827 -0.0022459892041365144 0 0.015660976087155422 -0.0025802285215444378 0 0.015518442693998267 -0.002485505895968668 0 0.015615003562028855 -0.0023679481334321307 0 0.015660976087155422 -0.0025802285215444378 0 0.015615003562028855 -0.0023679481334321307 0 0.015829027844669392 -0.0024529479615041892 0 0.015615003562028855 -0.0023679481334321307 0 0.015661107128435096 -0.0021593103941775962 0 0.015352186328258723 -0.0020956604358932734 0 0.015403928423591251 -0.0016940631511225665 0 0.015661107128435096 -0.0021593103941775962 0 0.015352186328258723 -0.0020956604358932734 0 0.015933666636539414 -0.0016425682119137401 0 0.015403928423591251 -0.0016940631511225665 0 0.015661107128435096 -0.0021593103941775962 0 0.015352186328258723 -0.0020956604358932734 0 0.015420527938570827 -0.0022459892041365144 0 0.015382627142220291 -0.0021096250127304174 0 0.015394175547943919 -0.0020837709356848885 0 0.015352186328258723 -0.0020956604358932734 0 0.015382627142220291 -0.0021096250127304174 0 0.015615003562028855 -0.0023679481334321307 0 0.015352186328258723 -0.0020956604358932734 0 0.015420527938570827 -0.0022459892041365144 0 0.015420527938570827 -0.0022459892041365144 0 0.015351352296499879 -0.0022026518718931522 0 0.015374882698107285 -0.0023674196732737939 0 0.015420527938570827 -0.0022459892041365144 0 0.015351352296499879 -0.0022026518718931522 0 0.015382627142220291 -0.0021096250127304174 0 0.015311232243388059 -0.0020931051512071077 0 0.015351352296499879 -0.0022026518718931522 0 0.015357366388244923 -0.0021085702998428668 0 0.015351352296499879 -0.0022026518718931522 0 0.015357366388244923 -0.0021085702998428668 0 0.015382627142220291 -0.0021096250127304174 0 0.015358853786244514 -0.0022011273237958636 0 0.015203417820645639 -0.0021720989789880442 0 0.015311232243388059 -0.0020931051512071077 0 0.015351352296499879 -0.0022026518718931522 0 0.01525626746404327 -0.0021531050235152963 0 0.015311232243388059 -0.0020931051512071077 0 0.015244003203183677 -0.0020893592652364763 0 0.01525626746404327 -0.0021531050235152963 0 0.015351352296499879 -0.0022026518718931522 0 0.015280900352322978 -0.0022910121907912168 0 0.015247602654488905 -0.0021725313243832998 0 0.015351352296499879 -0.0022026518718931522 0 0.015280900352322978 -0.0022910121907912168 0 0.015374882698107285 -0.0023674196732737939 0 0.015374882698107285 -0.0023674196732737939 0 0.015407302662617008 -0.0025979016746883903 0 0.015265408168954261 -0.0024461785600723837 0 0.015280900352322978 -0.0022910121907912168 0 0.015374882698107285 -0.0023674196732737939 0 0.015265408168954261 -0.0024461785600723837 0 0.015518442693998267 -0.002485505895968668 0 0.015420527938570827 -0.0022459892041365144 0 0.015374882698107285 -0.0023674196732737939 0 0.015518442693998267 -0.002485505895968668 0 0.015374882698107285 -0.0023674196732737939 0 0.015407302662617008 -0.0025979016746883903 0 0.015591775545061377 -0.0027485053657506997 0 0.015518442693998267 -0.002485505895968668 0 0.015407302662617008 -0.0025979016746883903 0 0.015262635242555379 -0.0027467541405077228 0 0.015407302662617008 -0.0025979016746883903 0 0.015265408168954261 -0.0024461785600723837 0 0.015262635242555379 -0.0027467541405077228 0 0.015074475846881506 -0.0025459819543439447 0 0.015265408168954261 -0.0024461785600723837 0 0.015047513030567018 -0.0028063726184348139 0 0.015262635242555379 -0.0027467541405077228 0 0.015074475846881506 -0.0025459819543439447 0 0.014928454771050511 -0.0026991619068487873 0 0.015047513030567018 -0.0028063726184348139 0 0.015074475846881506 -0.0025459819543439447 0 0.015074475846881506 -0.0025459819543439447 0 0.014996851177301743 -0.0023022118842790226 0 0.014885900591042146 -0.0025211279702635225 0 0.015074475846881506 -0.0025459819543439447 0 0.015163490124010755 -0.0023031126161614651 0 0.014996851177301743 -0.0023022118842790226 0 0.015074475846881506 -0.0025459819543439447 0 0.015265408168954261 -0.0024461785600723837 0 0.015163490124010755 -0.0023031126161614651 0 0.015280900352322978 -0.0022910121907912168 0 0.015265408168954261 -0.0024461785600723837 0 0.015163490124010755 -0.0023031126161614651 0 0.015280900352322978 -0.0022910121907912168 0 0.015163490124010755 -0.0023031126161614651 0 0.015247602654488905 -0.0021725313243832998 0 0.015163490124010755 -0.0023031126161614651 0 0.015247602654488905 -0.0021725313243832998 0 0.01510229222822872 -0.0021136824403804703 0 0.015203417820645639 -0.0021720989789880442 0 0.01569965516663234 -0.0011110401133547602 0 0.015244003203183677 -0.0020893592652364763 0 0.01525626746404327 -0.0021531050235152963 0 0.015172633336885972 -0.0021126688814420485 0 0.01569965516663234 -0.0011110401133547602 0 0.015482556280582501 -0.0015401104156652383 0 0.01575886444000869 0.00010380273679929987 0 0.01569965516663234 -0.0011110401133547602 0 0.015716458036495112 4.0686552554963979e-05 0 0.016288944229320829 -0.00014979505495781782 0 0.015856254496035151 -0.00034094134324735826 0 0.016288944229320829 -0.00014979505495781782 0 0.015971666625204089 -0.00076688344724554994 0 0.015856254496035151 -0.00034094134324735826 0 0.015163490124010755 -0.0023031126161614651 0 0.01510229222822872 -0.0021136824403804703 0 0.014996851177301743 -0.0023022118842790226 0 0.015971666625204089 -0.00076688344724554994 0 0.015444941574404757 -0.00048851463710266447 0 0.015650733344829307 -0.0013938894831132739 0 0.015971666625204089 -0.00076688344724554994 0 0.015856254496035151 -0.00034094134324735826 0 0.015444941574404757 -0.00048851463710266447 0 0.015716458036495112 4.0686552554963979e-05 0 0.015343276251603429 -6.4822590949229747e-05 0 0.015444941574404757 -0.00048851463710266447 0 0.015716458036495112 4.0686552554963979e-05 0 0.015856254496035151 -0.00034094134324735826 0 0.015444941574404757 -0.00048851463710266447 0 0.014999993191622939 -8.1056735006167344e-05 0 0.015343276251603429 -6.4822590949229747e-05 0 0.015444941574404757 -0.00048851463710266447 0 0.014999993191622939 -8.1056735006167344e-05 0 0.015444941574404757 -0.00048851463710266447 0 0.01499999527203833 -0.00093916814933359528 0 0.01499999527203833 -0.00093916814933359528 0 0.015650733344829307 -0.0013938894831132739 0 0.014999992618593411 -0.0017972596742823349 0 0.015444941574404757 -0.00048851463710266447 0 0.01499999527203833 -0.00093916814933359528 0 0.015650733344829307 -0.0013938894831132739 0 0.015482556280582501 -0.0015401104156652383 0 0.015269909687541789 -0.001955477362127445 0 0.014928454771050511 -0.0026991619068487873 0 0.015074475846881506 -0.0025459819543439447 0 0.014885900591042146 -0.0025211279702635225 0 0.015050511211085712 -0.0023865942202921501 0 0.015269909687541789 -0.001955477362127445 0 0.014783565779273542 -0.0027406248599912654 0 0.014928454771050511 -0.0026991619068487873 0 0.014885900591042146 -0.0025211279702635225 0 0.015327086804885565 -0.0020239000643467327 0 0.015650733344829307 -0.0013938894831132739 0 0.014999992618593411 -0.0017972596742823349 0 0.014907386825425679 -0.0018323082844523605 0 0.014376655012362476 -0.0019577090680765212 0 0.014172886441794225 -0.0013826265832417803 0 0.014907386825425679 -0.0018323082844523605 0 0.014172886441794225 -0.0013826265832417803 0 0.014708241076847229 -0.0012375371288820501 0 0.014907386825425679 -0.0018323082844523605 0 0.01556028075212929 -0.0013635305948395111 0 0.015523882647891556 -0.0019840590383701658 0 0.014907386825425679 -0.0018323082844523605 0 0.014708241076847229 -0.0012375371288820501 0 0.01556028075212929 -0.0013635305948395111 0 0.014907386825425679 -0.0018323082844523605 0 0.015523882647891556 -0.0019840590383701658 0 0.01524152808510575 -0.0024712206674254661 0 0.014907386825425679 -0.0018323082844523605 0 0.014725905920375348 -0.0023591940780698026 0 0.01524152808510575 -0.0024712206674254661 0 0.014907386825425679 -0.0018323082844523605 0 0.014376655012362476 -0.0019577090680765212 0 0.014725905920375348 -0.0023591940780698026 0 0.014376655012362476 -0.0019577090680765212 0 0.014725905920375348 -0.0023591940780698026 0 0.014275679483763503 -0.0024126978723362936 0 0.01383852703255675 -0.0019810537092442466 0 0.014376655012362476 -0.0019577090680765212 0 0.014275679483763503 -0.0024126978723362936 0 0.01383852703255675 -0.0019810537092442466 0 0.013758819143866237 -0.0024849689580851856 0 0.014275679483763503 -0.0024126978723362936 0 0.01383852703255675 -0.0019810537092442466 0 0.013227174610869344 -0.002366159486221645 0 0.013268492898986716 -0.0013605678951090832 0 0.01383852703255675 -0.0019810537092442466 0 0.013227174610869344 -0.002366159486221645 0 0.013758819143866237 -0.0024849689580851856 0 0.01383852703255675 -0.0019810537092442466 0 0.013268492898986716 -0.0013605678951090832 0 0.014172886441794225 -0.0013826265832417803 0 0.01383852703255675 -0.0019810537092442466 0 0.014376655012362476 -0.0019577090680765212 0 0.014172886441794225 -0.0013826265832417803 0 0.014172886441794225 -0.0013826265832417803 0 0.013688772921890534 -0.00076466587497357318 0 0.014354749377953177 -0.00074371358719268891 0 0.012983724867559139 -0.0017882627212229497 0 0.013511012931942117 -0.0010539671866557935 0 0.013268492898986716 -0.0013605678951090832 0 0.014172886441794225 -0.0013826265832417803 0 0.013688772921890534 -0.00076466587497357318 0 0.012703400248049078 -0.0022174789696684624 0 0.013362735828091868 -0.001364633399038108 0 0.012453856534069359 -0.0013161148397226833 0 0.013362735828091868 -0.001364633399038108 0 0.012453856534069359 -0.0013161148397226833 0 0.013002324218130612 4.1068090535724765e-05 0 0.013987031972553726 -0.00019601330624136648 0 0.013688772921890534 -0.00076466587497357318 0 0.014354749377953177 -0.00074371358719268891 0 0.013921567129920272 -0.00024591028692502482 0 0.013511012931942117 -0.0010539671866557935 0 0.014639033191423938 -0.00017652418837293794 0 0.013987031972553726 -0.00019601330624136648 0 0.014354749377953177 -0.00074371358719268891 0 0.014639033191423938 -0.00017652418837293794 0 0.014354749377953177 -0.00074371358719268891 0 0.014930924656407687 -0.00075707502076214576 0 0.014354749377953177 -0.00074371358719268891 0 0.014708241076847229 -0.0012375371288820501 0 0.014930924656407687 -0.00075707502076214576 0 0.014172886441794225 -0.0013826265832417803 0 0.014354749377953177 -0.00074371358719268891 0 0.014708241076847229 -0.0012375371288820501 0 0.014708241076847229 -0.0012375371288820501 0 0.014930924656407687 -0.00075707502076214576 0 0.01556028075212929 -0.0013635305948395111 0 0.015217256501808678 -0.00030672716103670916 0 0.014930924656407687 -0.00075707502076214576 0 0.015504745292636082 -0.00076875614889052057 0 0.015217256501808678 -0.00030672716103670916 0 0.014639033191423938 -0.00017652418837293794 0 0.014930924656407687 -0.00075707502076214576 0 0.015790958636842232 -0.00031608206532593149 0 0.015217256501808678 -0.00030672716103670916 0 0.015504745292636082 -0.00076875614889052057 0 0.015790958636842232 -0.00031608206532593149 0 0.015504745292636082 -0.00076875614889052057 0 0.016278149941076188 -0.00091926050241744324 0 0.017111334412925637 -0.0036728561494031122 0 0.017525524889317395 -0.0036983211627796462 0 0.017172459118472941 -0.0032732796713061322 0 0.016654611419663883 -0.0020132662520052236 0 0.016762828846959184 -0.0020685664811596399 0 0.016278149941076188 -0.00091926050241744324 0 0.01556028075212929 -0.0013635305948395111 0 0.016129007444979887 -0.0015124129077586437 0 0.015504745292636082 -0.00076875614889052057 0 0.016278149941076188 -0.00091926050241744324 0 0.01556028075212929 -0.0013635305948395111 0 0.014930924656407687 -0.00075707502076214576 0 0.015504745292636082 -0.00076875614889052057 0 0.01556028075212929 -0.0013635305948395111 0 0.016775866568093996 -0.0038899725755332589 0 0.016385630957425991 -0.0033008433952419407 0 0.016829968723887402 -0.0033579164685670622 0 0.017111334412925637 -0.0036728561494031122 0 0.016829968723887402 -0.0033579164685670622 0 0.017172459118472941 -0.0032732796713061322 0 0.017111334412925637 -0.0036728561494031122 0 0.016775866568093996 -0.0038899725755332589 0 0.016829968723887402 -0.0033579164685670622 0 0.016829968723887402 -0.0033579164685670622 0 0.017172459118472941 -0.0032732796713061322 0 0.016823966576307116 -0.0028477154098693483 0 0.016762828846959184 -0.0020685664811596399 0 0.016443175218911667 -0.0024310500423631552 0 0.016278149941076188 -0.00091926050241744324 0 0.016738320925727759 -0.0015047706641516741 0 0.016129007444979887 -0.0015124129077586437 0 0.016385630957425991 -0.0033008433952419407 0 0.016829968723887402 -0.0033579164685670622 0 0.016823966576307116 -0.0028477154098693483 0 0.01616331468047303 -0.0033656142795329201 0 0.016443175218911667 -0.0024310500423631552 0 0.015987083803746225 -0.0032574203192098877 0 0.01597842167578226 -0.0029391896326827031 0 0.016090909150084789 -0.0028988623183286077 0 0.015949008903331358 -0.0028048199013837776 0 0.016032568322614283 -0.0028312178013591531 0 0.015985244460346829 -0.0027660549893004966 0 0.015949008903331358 -0.0028048199013837776 0 0.01597842167578226 -0.0029391896326827031 0 0.016032568322614283 -0.0028312178013591531 0 0.01597842167578226 -0.0029391896326827031 0 0.016090909150084789 -0.0028988623183286077 0 0.016032568322614283 -0.0028312178013591531 0 0.016443175218911667 -0.0024310500423631552 0 0.016354159353211994 -0.0025616195584692207 0 0.016030740053392122 -0.0028217209169563735 0 0.016032568322614283 -0.0028312178013591531 0 0.015973283755371045 -0.0027279370834668781 0 0.016443175218911667 -0.0024310500423631552 0 0.016028585776419545 -0.0023091833366910668 0 0.016738320925727759 -0.0015047706641516741 0 0.016129007444979887 -0.0015124129077586437 0 0.016176254395750975 -0.002043661940183654 0 0.016030740053392122 -0.0028217209169563735 0 0.015973283755371045 -0.0027279370834668781 0 0.015905698243845447 -0.0026420568104250719 0 0.015973283755371045 -0.0027279370834668781 0 0.015905698243845447 -0.0026420568104250719 0 0.015906181415367888 -0.002656649661022675 0 0.015973283755371045 -0.0027279370834668781 0 0.015966867271076435 -0.0027127002205662534 0 0.015906181415367888 -0.002656649661022675 0 0.016032568322614283 -0.0028312178013591531 0 0.015973283755371045 -0.0027279370834668781 0 0.015985244460346829 -0.0027660549893004966 0 0.015973283755371045 -0.0027279370834668781 0 0.015985244460346829 -0.0027660549893004966 0 0.015966867271076435 -0.0027127002205662534 0 0.015949008903331358 -0.0028048199013837776 0 0.015985244460346829 -0.0027660549893004966 0 0.015966867271076435 -0.0027127002205662534 0 0.01556028075212929 -0.0013635305948395111 0 0.016129007444979887 -0.0015124129077586437 0 0.015523882647891556 -0.0019840590383701658 0 0.016129007444979887 -0.0015124129077586437 0 0.016176254395750975 -0.002043661940183654 0 0.015523882647891556 -0.0019840590383701658 0 0.016176254395750975 -0.002043661940183654 0 0.015523882647891556 -0.0019840590383701658 0 0.01563709605808726 -0.0025699882764056068 0 0.015523882647891556 -0.0019840590383701658 0 0.01563709605808726 -0.0025699882764056068 0 0.01524152808510575 -0.0024712206674254661 0 0.01563709605808726 -0.0025699882764056068 0 0.015534570459039228 -0.0027132650105530687 0 0.01524152808510575 -0.0024712206674254661 0 0.01563709605808726 -0.0025699882764056068 0 0.015784051052817591 -0.0027553793592098061 0 0.015906181415367888 -0.002656649661022675 0 0.015905698243845447 -0.0026420568104250719 0 0.01563709605808726 -0.0025699882764056068 0 0.015906181415367888 -0.002656649661022675 0 0.016028585776419545 -0.0023091833366910668 0 0.015657051132772937 -0.0025905052998484294 0 0.01563709605808726 -0.0025699882764056068 0 0.015784051052817591 -0.0027553793592098061 0 0.015534570459039228 -0.0027132650105530687 0 0.015784051052817591 -0.0027553793592098061 0 0.015534570459039228 -0.0027132650105530687 0 0.015577683288371665 -0.0027224029611732374 0 0.015884513728596679 -0.0026584386932180194 0 0.015966867271076435 -0.0027127002205662534 0 0.015958753684268471 -0.0026910435380409496 0 0.015765385095849238 -0.0026295226163869033 0 0.015884769174785124 -0.0025692794676253788 0 0.015966867271076435 -0.0027127002205662534 0 0.015906181415367888 -0.002656649661022675 0 0.015958753684268471 -0.0026910435380409496 0 0.015784051052817591 -0.0027553793592098061 0 0.015906181415367888 -0.002656649661022675 0 0.015958753684268471 -0.0026910435380409496 0 0.015821587970937946 -0.0025708814221425316 0 0.015884769174785124 -0.0025692794676253788 0 0.015857142981376353 -0.0023674675469469012 0 0.015829027844669392 -0.0024529479615041892 0 0.015876873138139843 -0.0022617045829293621 0 0.015615003562028855 -0.0023679481334321307 0 0.015829027844669392 -0.0024529479615041892 0 0.015876873138139843 -0.0022617045829293621 0 0.015615003562028855 -0.0023679481334321307 0 0.015661107128435096 -0.0021593103941775962 0 0.015876873138139843 -0.0022617045829293621 0 0.015857142981376353 -0.0023674675469469012 0 0.015876873138139843 -0.0022617045829293621 0 0.015819771651150866 -0.0024145619944016075 0 0.015870731678377169 -0.0022494543113255883 0 0.015876873138139843 -0.0022617045829293621 0 0.015819771651150866 -0.0024145619944016075 0 0.015870731678377169 -0.0022494543113255883 0 0.015933666636539414 -0.0016425682119137401 0 0.015876873138139843 -0.0022617045829293621 0 0.015933666636539414 -0.0016425682119137401 0 0.015661107128435096 -0.0021593103941775962 0 0.015876873138139843 -0.0022617045829293621 0 0.015821587970937946 -0.0025708814221425316 0 0.015607968478832304 -0.0026977033609105849 0 0.015857142981376353 -0.0023674675469469012 0 0.015708825085369263 -0.0025797368022685628 0 0.015577683288371665 -0.0027224029611732374 0 0.015708825085369263 -0.0025797368022685628 0 0.01563641304749094 -0.0027699444922038184 0 0.015577683288371665 -0.0027224029611732374 0 0.01563641304749094 -0.0027699444922038184 0 0.015577683288371665 -0.0027224029611732374 0 0.015447507234978165 -0.0027868259594778333 0 0.015534570459039228 -0.0027132650105530687 0 0.015577683288371665 -0.0027224029611732374 0 0.015446728099700312 -0.0027522620842788414 0 0.015857142981376353 -0.0023674675469469012 0 0.015708825085369263 -0.0025797368022685628 0 0.015819771651150866 -0.0024145619944016075 0 0.015870731678377169 -0.0022494543113255883 0 0.015819771651150866 -0.0024145619944016075 0 0.015749104716811194 -0.002476736723982801 0 0.015708825085369263 -0.0025797368022685628 0 0.015819771651150866 -0.0024145619944016075 0 0.015749104716811194 -0.002476736723982801 0 0.015708825085369263 -0.0025797368022685628 0 0.015749104716811194 -0.002476736723982801 0 0.015692147865586387 -0.0025934856597404901 0 0.015708825085369263 -0.0025797368022685628 0 0.01563641304749094 -0.0027699444922038184 0 0.015692147865586387 -0.0025934856597404901 0 0.01563641304749094 -0.0027699444922038184 0 0.015692147865586387 -0.0025934856597404901 0 0.015735993356900548 -0.0026111059986573142 0 0.015692147865586387 -0.0025934856597404901 0 0.015731054182432487 -0.0025371807472316997 0 0.015735993356900548 -0.0026111059986573142 0 0.015738134271980411 -0.0024718670653230209 0 0.015749104716811194 -0.002476736723982801 0 0.015731054182432487 -0.0025371807472316997 0 0.015749104716811194 -0.002476736723982801 0 0.015692147865586387 -0.0025934856597404901 0 0.015731054182432487 -0.0025371807472316997 0 0.015731054182432487 -0.0025371807472316997 0 0.015826258248017793 -0.002555571694535306 0 0.015735993356900548 -0.0026111059986573142 0 0.015738134271980411 -0.0024718670653230209 0 0.015731054182432487 -0.0025371807472316997 0 0.015869015846394503 -0.0025006387594140515 0 0.015731054182432487 -0.0025371807472316997 0 0.015869015846394503 -0.0025006387594140515 0 0.015826258248017793 -0.002555571694535306 0 0.01563641304749094 -0.0027699444922038184 0 0.01589571963195012 -0.0025965362883776867 0 0.016025561133602109 -0.0026457743215755488 0 0.015869015846394503 -0.0025006387594140515 0 0.015911329063878495 -0.0025322133254314142 0 0.015969703954743179 -0.0024855803695506429 0 0.015911329063878495 -0.0025322133254314142 0 0.015826258248017793 -0.002555571694535306 0 0.01589571963195012 -0.0025965362883776867 0 0.015869015846394503 -0.0025006387594140515 0 0.015911329063878495 -0.0025322133254314142 0 0.015826258248017793 -0.002555571694535306 0 0.015826258248017793 -0.002555571694535306 0 0.01589571963195012 -0.0025965362883776867 0 0.015735993356900548 -0.0026111059986573142 0 0.01563641304749094 -0.0027699444922038184 0 0.01589571963195012 -0.0025965362883776867 0 0.015735993356900548 -0.0026111059986573142 0 0.016078300791543518 -0.0025301184470335521 0 0.016119212077628127 -0.0025469211473443465 0 0.016118507397781472 -0.0025159741691775333 0 0.016078300791543518 -0.0025301184470335521 0 0.016095024428998943 -0.0024919301508460707 0 0.016118507397781472 -0.0025159741691775333 0 0.016078300791543518 -0.0025301184470335521 0 0.016095024428998943 -0.0024919301508460707 0 0.016057277300205362 -0.0024801808583021492 0 0.016095024428998943 -0.0024919301508460707 0 0.016108855616250972 -0.0024623145731854051 0 0.016057277300205362 -0.0024801808583021492 0 0.016095024428998943 -0.0024919301508460707 0 0.016108855616250972 -0.0024623145731854051 0 0.016118507397781472 -0.0025159741691775333 0 0.016078300791543518 -0.0025301184470335521 0 0.016057277300205362 -0.0024801808583021492 0 0.016008636111251143 -0.0025272532309095429 0 0.016078300791543518 -0.0025301184470335521 0 0.016008636111251143 -0.0025272532309095429 0 0.016041642041209885 -0.0025827540047632324 0 0.015911329063878495 -0.0025322133254314142 0 0.01589571963195012 -0.0025965362883776867 0 0.016008636111251143 -0.0025272532309095429 0 0.016057277300205362 -0.0024801808583021492 0 0.016008636111251143 -0.0025272532309095429 0 0.015969703954743179 -0.0024855803695506429 0 0.015911329063878495 -0.0025322133254314142 0 0.016008636111251143 -0.0025272532309095429 0 0.015969703954743179 -0.0024855803695506429 0 0.01589571963195012 -0.0025965362883776867 0 0.016008636111251143 -0.0025272532309095429 0 0.016041642041209885 -0.0025827540047632324 0 0.01589571963195012 -0.0025965362883776867 0 0.016025561133602109 -0.0026457743215755488 0 0.016041642041209885 -0.0025827540047632324 0 0.016078300791543518 -0.0025301184470335521 0 0.016041642041209885 -0.0025827540047632324 0 0.01609152104318792 -0.0026140718881067131 0 0.016078300791543518 -0.0025301184470335521 0 0.01609152104318792 -0.0026140718881067131 0 0.016119212077628127 -0.0025469211473443465 0 0.016025561133602109 -0.0026457743215755488 0 0.016041642041209885 -0.0025827540047632324 0 0.01609152104318792 -0.0026140718881067131 0 0.014798768226171335 -0.0031275742279478123 0 0.014534314686801726 -0.0031811269389135652 0 0.014548333120328515 -0.0030445199801282974 0 0.0153626966552341 -0.0026286000876893658 0 0.015016993069756726 -0.002065272303742211 0 0.01468657341063399 -0.0031259457582721124 0 0.015331091035026705 -0.0029156884596775365 0 0.014668587038378681 -0.0032430390375027709 0 0.015022368044080867 -0.0029170495281328774 0 0.015183993270150971 -0.0029087981965454876 0 0.014798768226171335 -0.0031275742279478123 0 0.014548333120328515 -0.0030445199801282974 0 0.015426528502790832 -0.0028514743226702491 0 0.015022368044080867 -0.0029170495281328774 0 0.014756911027487716 -0.0029890096828351755 0 0.014900802735582334 -0.0028525005705695786 0 0.015022368044080867 -0.0029170495281328774 0 0.015129664593841779 -0.0028029963053532764 0 0.014900802735582334 -0.0028525005705695786 0 0.014756911027487716 -0.0029890096828351755 0 0.014900802735582334 -0.0028525005705695786 0 0.014632934528399191 -0.0029021561934101125 0 0.014668587038378681 -0.0032430390375027709 0 0.015022368044080867 -0.0029170495281328774 0 0.014756911027487716 -0.0029890096828351755 0 0.014668587038378681 -0.0032430390375027709 0 0.014756911027487716 -0.0029890096828351755 0 0.014549354777461457 -0.0030210557707557018 0 0.014756911027487716 -0.0029890096828351755 0 0.014632934528399191 -0.0029021561934101125 0 0.014549354777461457 -0.0030210557707557018 0 0.015611488258174804 -0.0028397464535119279 0 0.0153626966552341 -0.0026286000876893658 0 0.01563641304749094 -0.0027699444922038184 0 0.014798768226171335 -0.0031275742279478123 0 0.015426528502790832 -0.0028514743226702491 0 0.014668587038378681 -0.0032430390375027709 0 0.015426528502790832 -0.0028514743226702491 0 0.015183993270150971 -0.0029087981965454876 0 0.015447507234978165 -0.0027868259594778333 0 0.015426528502790832 -0.0028514743226702491 0 0.015183993270150971 -0.0029087981965454876 0 0.01563641304749094 -0.0027699444922038184 0 0.015447507234978165 -0.0027868259594778333 0 0.015426528502790832 -0.0028514743226702491 0 0.015022368044080867 -0.0029170495281328774 0 0.015183993270150971 -0.0029087981965454876 0 0.015307640509810627 -0.0028053581355251909 0 0.015022368044080867 -0.0029170495281328774 0 0.015307640509810627 -0.0028053581355251909 0 0.015129664593841779 -0.0028029963053532764 0 0.015447507234978165 -0.0027868259594778333 0 0.015183993270150971 -0.0029087981965454876 0 0.015307640509810627 -0.0028053581355251909 0 0.015447507234978165 -0.0027868259594778333 0 0.015307640509810627 -0.0028053581355251909 0 0.015446728099700312 -0.0027522620842788414 0 0.015577683288371665 -0.0027224029611732374 0 0.015447507234978165 -0.0027868259594778333 0 0.015446728099700312 -0.0027522620842788414 0 0.015534570459039228 -0.0027132650105530687 0 0.015446728099700312 -0.0027522620842788414 0 0.015280981407743826 -0.0027255871209790577 0 0.015534570459039228 -0.0027132650105530687 0 0.015280981407743826 -0.0027255871209790577 0 0.01524152808510575 -0.0024712206674254661 0 0.015280981407743826 -0.0027255871209790577 0 0.014991157520096976 -0.0026889160710926972 0 0.01524152808510575 -0.0024712206674254661 0 0.015307640509810627 -0.0028053581355251909 0 0.015446728099700312 -0.0027522620842788414 0 0.015280981407743826 -0.0027255871209790577 0 0.015280981407743826 -0.0027255871209790577 0 0.015129664593841779 -0.0028029963053532764 0 0.014991157520096976 -0.0026889160710926972 0 0.015307640509810627 -0.0028053581355251909 0 0.015280981407743826 -0.0027255871209790577 0 0.015129664593841779 -0.0028029963053532764 0 0.015129664593841779 -0.0028029963053532764 0 0.014900802735582334 -0.0028525005705695786 0 0.014991157520096976 -0.0026889160710926972 0 0.014900802735582334 -0.0028525005705695786 0 0.014632934528399191 -0.0029021561934101125 0 0.014601043216188244 -0.0027064553398195618 0 0.014900802735582334 -0.0028525005705695786 0 0.014601043216188244 -0.0027064553398195618 0 0.014991157520096976 -0.0026889160710926972 0 0.014601043216188244 -0.0027064553398195618 0 0.014991157520096976 -0.0026889160710926972 0 0.014725905920375348 -0.0023591940780698026 0 0.014601043216188244 -0.0027064553398195618 0 0.014725905920375348 -0.0023591940780698026 0 0.014275679483763503 -0.0024126978723362936 0 0.014991157520096976 -0.0026889160710926972 0 0.014725905920375348 -0.0023591940780698026 0 0.01524152808510575 -0.0024712206674254661 0 0.013296459194207215 -0.0029698611843559453 0 0.013758819143866237 -0.0024849689580851856 0 0.014146415369586945 -0.0028048085870981698 0 0.013227174610869344 -0.002366159486221645 0 0.013296459194207215 -0.0029698611843559453 0 0.013758819143866237 -0.0024849689580851856 0 0.013758819143866237 -0.0024849689580851856 0 0.014275679483763503 -0.0024126978723362936 0 0.014146415369586945 -0.0028048085870981698 0 0.014601043216188244 -0.0027064553398195618 0 0.014275679483763503 -0.0024126978723362936 0 0.014146415369586945 -0.0028048085870981698 0 0.014146415369586945 -0.0028048085870981698 0 0.014344753440386099 -0.0029170907216873473 0 0.014148405262915222 -0.0028916282223582215 0 0.014601043216188244 -0.0027064553398195618 0 0.014146415369586945 -0.0028048085870981698 0 0.014344753440386099 -0.0029170907216873473 0 0.014632934528399191 -0.0029021561934101125 0 0.014344753440386099 -0.0029170907216873473 0 0.014549354777461457 -0.0030210557707557018 0 0.014632934528399191 -0.0029021561934101125 0 0.014601043216188244 -0.0027064553398195618 0 0.014344753440386099 -0.0029170907216873473 0 0.014344753440386099 -0.0029170907216873473 0 0.014148405262915222 -0.0028916282223582215 0 0.014183965628647599 -0.0030432739387155957 0 0.013607958169771884 -0.0037128843283298278 0 0.013108147998016075 -0.0044116001638985171 0 0.012879233361192425 -0.0034790483048492736 0 0.01411450126498099 -0.0028909358832755238 0 0.013873240581133019 -0.0032594295129429701 0 0.013296459194207215 -0.0029698611843559453 0 0.014146415369586945 -0.0028048085870981698 0 0.013607958169771884 -0.0037128843283298278 0 0.013296459194207215 -0.0029698611843559453 0 0.013607958169771884 -0.0037128843283298278 0 0.012879233361192425 -0.0034790483048492736 0 0.013873240581133019 -0.0032594295129429701 0 0.013168442338508083 -0.0036981078178165046 0 0.013953445475219223 -0.0031160234112448545 0 0.014183965628647599 -0.0030432739387155957 0 0.014086763183103311 -0.003239418326562936 0 0.014183965628647599 -0.0030432739387155957 0 0.014086763183103311 -0.003239418326562936 0 0.014363254980425896 -0.0030914353823206096 0 0.014148405262915222 -0.0028916282223582215 0 0.013953445475219223 -0.0031160234112448545 0 0.014183965628647599 -0.0030432739387155957 0 0.013597963150890683 -0.0029237152374521117 0 0.012603558029511278 -0.003591510472370434 0 0.013107891547848 -0.0031758167480226622 0 0.013350066678429862 -0.0033688340668381065 0 0.01297641420067739 -0.0033617233482327357 0 0.013168442338508083 -0.0036981078178165046 0 0.013597963150890683 -0.0029237152374521117 0 0.014668587038378681 -0.0032430390375027709 0 0.014086763183103311 -0.003239418326562936 0 0.014363254980425896 -0.0030914353823206096 0 0.01468657341063399 -0.0031259457582721124 0 0.013597963150890683 -0.0029237152374521117 0 0.014548333120328515 -0.0030445199801282974 0 0.013717203671425374 -0.0030000025405984513 0 0.013991358326696866 -0.0032256467839091182 0 0.014344753440386099 -0.0029170907216873473 0 0.014549354777461457 -0.0030210557707557018 0 0.014363254980425896 -0.0030914353823206096 0 0.014668587038378681 -0.0032430390375027709 0 0.014549354777461457 -0.0030210557707557018 0 0.014363254980425896 -0.0030914353823206096 0 0.014344753440386099 -0.0029170907216873473 0 0.014183965628647599 -0.0030432739387155957 0 0.014363254980425896 -0.0030914353823206096 0 0.014154362005746397 0.0034692451548006503 0 0.015275369029228112 0.0037006303589729016 0 0.014593243403047042 0.0042450531017263768 0 0.014816877422426617 -0.0011928904185219218 0 0.01431217176252632 -0.0014417047694413162 0 0.01409025825286442 -0.0012619525089854866 0 0.015016993069756726 -0.002065272303742211 0 0.013726553364383002 -0.0010148730822216643 0 0.014534314686801726 -0.0031811269389135652 0 0.014548333120328515 -0.0030445199801282974 0 0.013991358326696866 -0.0032256467839091182 0 0.015016993069756726 -0.002065272303742211 0 0.014464299922227388 5.3458796720037311e-05 0 0.01609152104318792 -0.0026140718881067131 0 0.016119212077628127 -0.0025469211473443465 0 0.016194165784783107 -0.0025373887938009245 0 0.014464299922227388 5.3458796720037311e-05 0 0.013726553364383002 -0.0010148730822216643 0 0.016108855616250972 -0.0024623145731854051 0 0.016194165784783107 -0.0025373887938009245 0 0.016118507397781472 -0.0025159741691775333 0 0.01618921122911424 0.0015332732470012024 0 0.014464299922227388 5.3458796720037311e-05 0 0.016119212077628127 -0.0025469211473443465 0 0.016194165784783107 -0.0025373887938009245 0 0.016118507397781472 -0.0025159741691775333 0 0.013726553364383002 -0.0010148730822216643 0 0.011743073272580217 -0.00066665174111074806 0 0.01247971290184623 0.0012189514895061691 0 0.01324343335573978 0.0018082655304520175 0 0.012124327105404975 0.0017094695142358129 0 0.012429200722558969 0.0055792793262653293 0 0.014464299922227388 5.3458796720037311e-05 0 0.01247971290184623 0.0012189514895061691 0 0.013453051717096072 0.001639535914688147 0 0.01324343335573978 0.0018082655304520175 0 0.01308787309695804 -0.0014235977492246495 0 0.013469034139501755 -0.0017276858165908076 0 0.01223622680840865 -0.0018569699814420543 0 0.014154362005746397 0.0034692451548006503 0 0.01298013098460548 0.0035325987720476681 0 0.014593243403047042 0.0042450531017263768 0 0.013597963150890683 -0.0029237152374521117 0 0.013726553364383002 -0.0010148730822216643 0 0.012202121835923292 0.001232114882721975 0 0.01247971290184623 0.0012189514895061691 0 0.012124327105404975 0.0017094695142358129 0 0.01308787309695804 -0.0014235977492246495 0 0.01223622680840865 -0.0018569699814420543 0 0.01255644082399753 -0.0014110249988076628 0 0.011743073272580217 -0.00066665174111074806 0 0.012603558029511278 -0.003591510472370434 0 0.011743073272580217 -0.00066665174111074806 0 0.010531971977326861 -0.00039905374053869277 0 0.011286799580692886 0.00012611466089967616 0 0.011095860206900659 -0.00013881824978874641 0 0.010845306411651037 7.9806218555556846e-05 0 0.012202121835923292 0.001232114882721975 0 0.012124327105404975 0.0017094695142358129 0 0.011940943088739253 0.0014591846064697593 0 0.011743073272580217 -0.00066665174111074806 0 0.010775818948148039 0.0024855530664909435 0 0.011810767477991882 0.0056071742175608785 0 0.010775818948148039 0.0024855530664909435 0 0.0094549952902020923 0.0067723229146521317 0 0.010775818948148039 0.0024855530664909435 0 0.0074373093626729876 0.0078300686653718782 0 0.008245500223070773 0.0078612489499340996 0 0.0076257587511797138 0.0075258932659283623 0 0.0094549952902020923 0.0067723229146521317 0 0.0071239193087217758 0.0012090725707844968 0 0.0093711368893678454 0.0033867109898125677 0 0.0094473097760069194 0.002715618522670014 0 0.010096100980473538 0.002213316417754527 0 0.0093711368893678454 0.0033867109898125677 0 0.0088978701026316692 0.0027021213695225112 0 0.0094473097760069194 0.002715618522670014 0 0.0094473097760069194 0.002715618522670014 0 0.010096100980473538 0.002213316417754527 0 0.0095047328373225916 0.0021517336629195967 0 0.010775818948148039 0.0024855530664909435 0 0.010531971977326861 -0.00039905374053869277 0 0.0088978701026316692 0.0027021213695225112 0 0.0094473097760069194 0.002715618522670014 0 0.0095047328373225916 0.0021517336629195967 0 0.0071239193087217758 0.0012090725707844968 0 0.0089743851202427876 -0.0032125220421081509 0 0.010531971977326861 -0.00039905374053869277 0 0.0089743851202427876 -0.0032125220421081509 0 0.0085844521035255868 -0.00041674795908571674 0 0.0079030157990329607 -0.00048681128894856302 0 0.0095737345761216421 -0.0020174652696497535 0 0.01221210780842661 -0.00477745447988287 0 0.011884890064461863 -0.0048231141079336723 0 0.011733806421911186 -0.0044674759884236583 0 0.0071239193087217758 0.0012090725707844968 0 0.010531971977326861 -0.00039905374053869277 0 0.011733663038494669 -0.0040897836632154249 0 0.011362799512292521 -0.0044540484033581199 0 0.011388672516611709 -0.0037762527526290215 0 0.011884890064461863 -0.0048231141079336723 0 0.011733806421911186 -0.0044674759884236583 0 0.011362799512292521 -0.0044540484033581199 0 0.011733806421911186 -0.0044674759884236583 0 0.011733663038494669 -0.0040897836632154249 0 0.011362799512292521 -0.0044540484033581199 0 0.011733806421911186 -0.0044674759884236583 0 0.011733663038494669 -0.0040897836632154249 0 0.012206024357756454 -0.0041447555542492836 0 0.011733806421911186 -0.0044674759884236583 0 0.012206024357756454 -0.0041447555542492836 0 0.012662895720229998 -0.004500011707264496 0 0.012825042903180815 -0.0042614502113301617 0 0.012206024357756454 -0.0041447555542492836 0 0.012003014324037041 -0.0035555029948133687 0 0.01221210780842661 -0.00477745447988287 0 0.011733806421911186 -0.0044674759884236583 0 0.012438157914589411 -0.0044548114043610971 0 0.011786596803724889 -0.0045724222701159969 0 0.012603558029511278 -0.003591510472370434 0 0.012825042903180815 -0.0042614502113301617 0 0.012206024357756454 -0.0041447555542492836 0 0.012662895720229998 -0.004500011707264496 0 0.013168442338508083 -0.0036981078178165046 0 0.012603558029511278 -0.003591510472370434 0 0.008245500223070773 0.0078612489499340996 0 0.0083723544455605869 0.0076752686076408446 0 0.0093430298486892258 0.0082113964687027547 0 0.0058274795682982461 0.0028701161922084625 0 0.0069560082043826719 0.0028653775975758886 0 0.0039193768391650383 -0.0022217969110834403 0 0.0039204231321779475 -0.0022554820566200607 0 0.0039265126406892222 -0.0021955690102635228 0 0.0039158094193676015 -0.0022369948076544134 0 0.0039066656708917746 -0.002262629619557623 0 0.0039111967804301671 -0.0022429987872015938 0 0.0039124372317861089 -0.0022573218279162543 0 0.0039158094193676015 -0.0022369948076544134 0 0.0039066656708917746 -0.002262629619557623 0 0.0039124372317861089 -0.0022573218279162543 0 0.0039158094193676015 -0.0022369948076544134 0 0.00391606449833548 -0.0022514286713795854 0 0.0039158094193676015 -0.0022369948076544134 0 0.0039193768391650383 -0.0022217969110834403 0 0.0039111967804301671 -0.0022429987872015938 0 0.0039158094193676015 -0.0022369948076544134 0 0.0039193768391650383 -0.0022217969110834403 0 0.0039204231321779475 -0.0022554820566200607 0 0.0039204231321779475 -0.0022554820566200607 0 0.00391606449833548 -0.0022514286713795854 0 0.003921148288822218 -0.0022592547732296691 0 0.0039158094193676015 -0.0022369948076544134 0 0.0039204231321779475 -0.0022554820566200607 0 0.00391606449833548 -0.0022514286713795854 0 0.0039124372317861089 -0.0022573218279162543 0 0.003921148288822218 -0.0022592547732296691 0 0.0039104353271512326 -0.002272498071821736 0 0.0039124372317861089 -0.0022573218279162543 0 0.00391606449833548 -0.0022514286713795854 0 0.003921148288822218 -0.0022592547732296691 0 0.0071239193087217758 0.0012090725707844968 0 0.0058274795682982461 0.0028701161922084625 0 0.0040076761337028638 -0.0022591505915889247 0 0.0039204231321779475 -0.0022554820566200607 0 0.0039464373084842084 -0.0022597361721573795 0 0.008245500223070773 0.0078612489499340996 0 0.0076257587511797138 0.0075258932659283623 0 0.0083723544455605869 0.0076752686076408446 0 0.0039204231321779475 -0.0022554820566200607 0 0.003921148288822218 -0.0022592547732296691 0 0.0039464373084842084 -0.0022597361721573795 0 0.003921148288822218 -0.0022592547732296691 0 0.0039464373084842084 -0.0022597361721573795 0 0.0039321236590927977 -0.0022656918224592099 0 0.0040076761337028638 -0.0022591505915889247 0 0.0039464373084842084 -0.0022597361721573795 0 0.0039642692320514252 -0.002256060311160493 0 0.0089743851202427876 -0.0032125220421081509 0 0.010633884788399146 -0.0036332063706015615 0 0.0089743851202427876 -0.0032125220421081509 0 0.0065245107722670609 -0.0027382364035730255 0 0.0039642692320514252 -0.002256060311160493 0 0.0039301539358752927 -0.002290306074576789 0 0.0039083137080055093 -0.0023437572552799488 0 0.0039464373084842084 -0.0022597361721573795 0 0.0039642692320514252 -0.002256060311160493 0 0.0039396522318074214 -0.0022683016938205704 0 0.0039642692320514252 -0.002256060311160493 0 0.0039301539358752927 -0.002290306074576789 0 0.0039396522318074214 -0.0022683016938205704 0 0.0039301539358752927 -0.002290306074576789 0 0.0039396522318074214 -0.0022683016938205704 0 0.0039232520167098266 -0.0022759395091823237 0 0.0039464373084842084 -0.0022597361721573795 0 0.0039396522318074214 -0.0022683016938205704 0 0.0039321236590927977 -0.0022656918224592099 0 0.0039396522318074214 -0.0022683016938205704 0 0.0039321236590927977 -0.0022656918224592099 0 0.0039232520167098266 -0.0022759395091823237 0 0.003921148288822218 -0.0022592547732296691 0 0.0039232520167098266 -0.0022759395091823237 0 0.0039104353271512326 -0.002272498071821736 0 0.003921148288822218 -0.0022592547732296691 0 0.0039321236590927977 -0.0022656918224592099 0 0.0039232520167098266 -0.0022759395091823237 0 0.0039232520167098266 -0.0022759395091823237 0 0.0039104353271512326 -0.002272498071821736 0 0.0039129035068058088 -0.0022925496596530722 0 0.0039104353271512326 -0.002272498071821736 0 0.0039129035068058088 -0.0022925496596530722 0 0.0039000003534222193 -0.0022907382537953537 0 0.0039301539358752927 -0.002290306074576789 0 0.0039232520167098266 -0.0022759395091823237 0 0.0039129035068058088 -0.0022925496596530722 0 0.0039301539358752927 -0.002290306074576789 0 0.0039129518178803958 -0.0023128263395923348 0 0.0039083137080055093 -0.0023437572552799488 0 0.0039301539358752927 -0.002290306074576789 0 0.0039129518178803958 -0.0023128263395923348 0 0.0039129035068058088 -0.0022925496596530722 0 0.0039129518178803958 -0.0023128263395923348 0 0.003899101841967542 -0.0023144309007205183 0 0.0039029230612612595 -0.0023286390563391434 0 0.0039129518178803958 -0.0023128263395923348 0 0.0039129035068058088 -0.0022925496596530722 0 0.003899101841967542 -0.0023144309007205183 0 0.0039129035068058088 -0.0022925496596530722 0 0.003899101841967542 -0.0023144309007205183 0 0.0039000003534222193 -0.0022907382537953537 0 0.003899101841967542 -0.0023144309007205183 0 0.0038858523285563978 -0.0023387569683509294 0 0.0039029230612612595 -0.0023286390563391434 0 0.003899101841967542 -0.0023144309007205183 0 0.003883293091510101 -0.0023179897712038173 0 0.0038858523285563978 -0.0023387569683509294 0 0.003899101841967542 -0.0023144309007205183 0 0.003883293091510101 -0.0023179897712038173 0 0.0039000003534222193 -0.0022907382537953537 0 0.003883293091510101 -0.0023179897712038173 0 0.0039000003534222193 -0.0022907382537953537 0 0.0038983348476081306 -0.0022796384282785182 0 0.0039104353271512326 -0.002272498071821736 0 0.0039000003534222193 -0.0022907382537953537 0 0.0039066656708917746 -0.002262629619557623 0 0.0039124372317861089 -0.0022573218279162543 0 0.0039104353271512326 -0.002272498071821736 0 0.0039066656708917746 -0.002262629619557623 0 0.0039000003534222193 -0.0022907382537953537 0 0.0039066656708917746 -0.002262629619557623 0 0.0038983348476081306 -0.0022796384282785182 0 0.0039066656708917746 -0.002262629619557623 0 0.0038983348476081306 -0.0022796384282785182 0 0.0039111967804301671 -0.0022429987872015938 0 0.0038858523285563978 -0.0023387569683509294 0 0.0039083137080055093 -0.0023437572552799488 0 0.0038494820192298599 -0.0023624783973328822 0 0.003883293091510101 -0.0023179897712038173 0 0.0038858523285563978 -0.0023387569683509294 0 0.0038494820192298599 -0.0023624783973328822 0 0.0038858523285563978 -0.0023387569683509294 0 0.0039083137080055093 -0.0023437572552799488 0 0.0039029230612612595 -0.0023286390563391434 0 0.0039129518178803958 -0.0023128263395923348 0 0.0039083137080055093 -0.0023437572552799488 0 0.0039029230612612595 -0.0023286390563391434 0 0.010332596668089515 -0.0037534346361558467 0 0.0098498029541144675 -0.0033484851109767447 0 0.010036806106415216 -0.003229356941340905 0 0.011362799512292521 -0.0044540484033581199 0 0.010616683927375524 -0.0035546876351560679 0 0.011388672516611709 -0.0037762527526290215 0 0.010616683927375524 -0.0035546876351560679 0 0.011272409655472333 -0.0032388843356179102 0 0.011388672516611709 -0.0037762527526290215 0 0.011272409655472333 -0.0032388843356179102 0 0.011103321505196663 -0.0026417660444552605 0 0.010642364493146974 -0.0028602781376544685 0 0.011272409655472333 -0.0032388843356179102 0 0.011103321505196663 -0.0026417660444552605 0 0.011793152610932618 -0.0028315823919318091 0 0.011103321505196663 -0.0026417660444552605 0 0.010642364493146974 -0.0028602781376544685 0 0.01048837318982601 -0.0022558607344075978 0 0.010616683927375524 -0.0035546876351560679 0 0.011272409655472333 -0.0032388843356179102 0 0.010642364493146974 -0.0028602781376544685 0 0.0098498029541144675 -0.0033484851109767447 0 0.0096629623905903142 -0.0024041761656801277 0 0.009049111053563378 -0.0027391100603387547 0 0.010616683927375524 -0.0035546876351560679 0 0.010642364493146974 -0.0028602781376544685 0 0.0096629623905903142 -0.0024041761656801277 0 0.010633884788399146 -0.0036332063706015615 0 0.00958200459131444 -0.0023210217415705844 0 0.0098498029541144675 -0.0033484851109767447 0 0.010036806106415216 -0.003229356941340905 0 0.0096629623905903142 -0.0024041761656801277 0 0.010642364493146974 -0.0028602781376544685 0 0.0096629623905903142 -0.0024041761656801277 0 0.01048837318982601 -0.0022558607344075978 0 0.012879233361192425 -0.0034790483048492736 0 0.012003014324037041 -0.0035555029948133687 0 0.012430315893148655 -0.002801485145407004 0 0.013168442338508083 -0.0036981078178165046 0 0.012041468234556598 -0.0037689593178060589 0 0.013108147998016075 -0.0044116001638985171 0 0.012879233361192425 -0.0034790483048492736 0 0.012003014324037041 -0.0035555029948133687 0 0.011733663038494669 -0.0040897836632154249 0 0.012206024357756454 -0.0041447555542492836 0 0.012003014324037041 -0.0035555029948133687 0 0.011733663038494669 -0.0040897836632154249 0 0.011388672516611709 -0.0037762527526290215 0 0.012003014324037041 -0.0035555029948133687 0 0.011272409655472333 -0.0032388843356179102 0 0.011388672516611709 -0.0037762527526290215 0 0.012003014324037041 -0.0035555029948133687 0 0.012003014324037041 -0.0035555029948133687 0 0.011793152610932618 -0.0028315823919318091 0 0.012430315893148655 -0.002801485145407004 0 0.011272409655472333 -0.0032388843356179102 0 0.012003014324037041 -0.0035555029948133687 0 0.011793152610932618 -0.0028315823919318091 0 0.011103321505196663 -0.0026417660444552605 0 0.011793152610932618 -0.0028315823919318091 0 0.011509170538634235 -0.0022310344594067403 0 0.011793152610932618 -0.0028315823919318091 0 0.012430315893148655 -0.002801485145407004 0 0.012164541233954621 -0.0022743718920019708 0 0.013227174610869344 -0.002366159486221645 0 0.013296459194207215 -0.0029698611843559453 0 0.012430315893148655 -0.002801485145407004 0 0.013296459194207215 -0.0029698611843559453 0 0.012879233361192425 -0.0034790483048492736 0 0.012430315893148655 -0.002801485145407004 0 0.013227174610869344 -0.002366159486221645 0 0.012430315893148655 -0.002801485145407004 0 0.012548182150891657 -0.002284263359441048 0 0.013227174610869344 -0.002366159486221645 0 0.013268492898986716 -0.0013605678951090832 0 0.012548182150891657 -0.002284263359441048 0 0.012430315893148655 -0.002801485145407004 0 0.012548182150891657 -0.002284263359441048 0 0.012164541233954621 -0.0022743718920019708 0 0.012548182150891657 -0.002284263359441048 0 0.012271762482084022 -0.0022304985597431438 0 0.012164541233954621 -0.0022743718920019708 0 0.012703400248049078 -0.0022174789696684624 0 0.012271762482084022 -0.0022304985597431438 0 0.011892340089609349 -0.0021419255116526892 0 0.012983724867559139 -0.0017882627212229497 0 0.01260015643734138 -0.0022749390620662238 0 0.012703400248049078 -0.0022174789696684624 0 0.012548182150891657 -0.002284263359441048 0 0.012271762482084022 -0.0022304985597431438 0 0.01196740690179127 -0.0022354228574029689 0 0.011901522609251971 -0.002197232155915275 0 0.011892340089609349 -0.0021419255116526892 0 0.012271762482084022 -0.0022304985597431438 0 0.01196740690179127 -0.0022354228574029689 0 0.011892340089609349 -0.0021419255116526892 0 0.011654724796124928 -0.0018691724091289825 0 0.012105365283096761 -0.0022324386841481355 0 0.012271762482084022 -0.0022304985597431438 0 0.01196740690179127 -0.0022354228574029689 0 0.012164541233954621 -0.0022743718920019708 0 0.011474751288597084 -0.0015384858988468438 0 0.012164541233954621 -0.0022743718920019708 0 0.011509170538634235 -0.0022310344594067403 0 0.011793152610932618 -0.0028315823919318091 0 0.012164541233954621 -0.0022743718920019708 0 0.011509170538634235 -0.0022310344594067403 0 0.011103321505196663 -0.0026417660444552605 0 0.011509170538634235 -0.0022310344594067403 0 0.011051646998077229 -0.0020937180500782832 0 0.011103321505196663 -0.0026417660444552605 0 0.011051646998077229 -0.0020937180500782832 0 0.01048837318982601 -0.0022558607344075978 0 0.011051646998077229 -0.0020937180500782832 0 0.010696284600899856 -0.0017530531639081198 0 0.01048837318982601 -0.0022558607344075978 0 0.011474751288597084 -0.0015384858988468438 0 0.011051646998077229 -0.0020937180500782832 0 0.010696284600899856 -0.0017530531639081198 0 0.011474751288597084 -0.0015384858988468438 0 0.011509170538634235 -0.0022310344594067403 0 0.011051646998077229 -0.0020937180500782832 0 0.0096629623905903142 -0.0024041761656801277 0 0.01048837318982601 -0.0022558607344075978 0 0.010028776070423623 -0.0017695404830613823 0 0.010696284600899856 -0.0017530531639081198 0 0.01048837318982601 -0.0022558607344075978 0 0.010028776070423623 -0.0017695404830613823 0 0.0096629623905903142 -0.0024041761656801277 0 0.010028776070423623 -0.0017695404830613823 0 0.0092936786266971817 -0.0019878718844458126 0 0.010028776070423623 -0.0017695404830613823 0 0.010782853399030476 -0.00089956571106146813 0 0.0092992128264270286 -0.0013794160895111817 0 0.01056887910061848 -0.0048979144954168913 0 0.0072867890704300898 -0.0041985964756862497 0 0.0072250339574071185 -0.0059650551130176538 0 0.010646977805844948 -0.0029140379286992949 0 0.0085598416978294335 -0.0037707859720926638 0 0.011654724796124928 -0.0018691724091289825 0 0.010646977805844948 -0.0029140379286992949 0 0.011474751288597084 -0.0015384858988468438 0 0.010696284600899856 -0.0017530531639081198 0 0.010782853399030476 -0.00089956571106146813 0 0.010696284600899856 -0.0017530531639081198 0 0.010028776070423623 -0.0017695404830613823 0 0.010782853399030476 -0.00089956571106146813 0 0.010202438494816383 -0.0030120200510402179 0 0.010486944689988984 -0.0016534309587534731 0 0.0087004170840681745 -0.001983926382004671 0 0.010646977805844948 -0.0029140379286992949 0 0.011990969437064085 -0.0021324824710853628 0 0.010202438494816383 -0.0030120200510402179 0 0.010486944689988984 -0.0016534309587534731 0 0.011892340089609349 -0.0021419255116526892 0 0.010646977805844948 -0.0029140379286992949 0 0.0085349807801271202 -0.0025324428336320382 0 0.01056887910061848 -0.0048979144954168913 0 0.0084221234188157912 -0.0028747782675278581 0 0.0072867890704300898 -0.0041985964756862497 0 0.0087004170840681745 -0.001983926382004671 0 0.0084799232248782847 -0.00071905051496418614 0 0.0098948744310609835 -0.00052243319324265418 0 0.010486944689988984 -0.0016534309587534731 0 0.0087004170840681745 -0.001983926382004671 0 0.0098948744310609835 -0.00052243319324265418 0 0.010486944689988984 -0.0016534309587534731 0 0.011480975114266743 -0.00076711341837125543 0 0.0098948744310609835 -0.00052243319324265418 0 0.011480975114266743 -0.00076711341837125543 0 0.012453856534069359 -0.0013161148397226833 0 0.011892340089609349 -0.0021419255116526892 0 0.011480975114266743 -0.00076711341837125543 0 0.012453856534069359 -0.0013161148397226833 0 0.013002324218130612 4.1068090535724765e-05 0 0.012703400248049078 -0.0022174789696684624 0 0.012453856534069359 -0.0013161148397226833 0 0.011892340089609349 -0.0021419255116526892 0 0.010486944689988984 -0.0016534309587534731 0 0.011480975114266743 -0.00076711341837125543 0 0.011892340089609349 -0.0021419255116526892 0 0.0034474629391885604 -0.0041768461730809789 0 0.0043354472725076736 -0.0047024401283896917 0 0.004225534432849838 -0.0036287348827120343 0 0.0034474629391885604 -0.0041768461730809789 0 0.0043354472725076736 -0.0047024401283896917 0 0.0030273214752347217 -0.0049080969657238592 0 0.0034474629391885604 -0.0041768461730809789 0 0.0030273214752347217 -0.0049080969657238592 0 0.0024341113162358544 -0.003846604935305171 0 0.0034474629391885604 -0.0041768461730809789 0 0.0030629855351132431 -0.0035492180793332364 0 0.0024341113162358544 -0.003846604935305171 0 0.0030629855351132431 -0.0035492180793332364 0 0.004225534432849838 -0.0036287348827120343 0 0.004073263917383896 -0.0030730388880701202 0 0.0034474629391885604 -0.0041768461730809789 0 0.0030629855351132431 -0.0035492180793332364 0 0.004225534432849838 -0.0036287348827120343 0 0.0067082731368516436 -0.00087581294306979653 0 0.0059374718499101515 -0.0026559397335233987 0 0.0059869758461850286 -0.00010565933328329923 0 0.0056157358713665399 -0.0035097791014524469 0 0.005526386282324997 -0.0011293152032170318 0 0.004225534432849838 -0.0036287348827120343 0 0.0052215330803149296 -0.0040709685023514455 0 0.0049525983123570212 -0.0028082432694108879 0 0.0087004170840681745 -0.001983926382004671 0 0.0084799232248782847 -0.00071905051496418614 0 0.0067082731368516436 -0.00087581294306979653 0 0.0084221234188157912 -0.0028747782675278581 0 0.0067082731368516436 -0.00087581294306979653 0 0.0059374718499101515 -0.0026559397335233987 0 0.0085349807801271202 -0.0025324428336320382 0 0.006788906353104536 -0.00088580248554823789 0 0.0084221234188157912 -0.0028747782675278581 0 0.0072867890704300898 -0.0041985964756862497 0 0.0059374718499101515 -0.0026559397335233987 0 0.0072867890704300898 -0.0041985964756862497 0 0.0059374718499101515 -0.0026559397335233987 0 0.0059093002753350813 -0.0054229111609174607 0 0.0043354472725076736 -0.0047024401283896917 0 0.0052215330803149296 -0.0040709685023514455 0 0.0059093002753350813 -0.0054229111609174607 0 0.0043354472725076736 -0.0047024401283896917 0 0.004225534432849838 -0.0036287348827120343 0 0.0052215330803149296 -0.0040709685023514455 0 0.0056157358713665399 -0.0035097791014524469 0 0.005869840273049304 -0.0052865201028008324 0 0.0043354472725076736 -0.0047024401283896917 0 0.0059093002753350813 -0.0054229111609174607 0 0.0044419421921788006 -0.0065455075091628602 0 0.0085598416978294335 -0.0037707859720926638 0 0.004666563577659104 -0.0029935320154666173 0 0.0059093002753350813 -0.0054229111609174607 0 0.0072250339574071185 -0.0059650551130176538 0 0.0044419421921788006 -0.0065455075091628602 0 0.0072867890704300898 -0.0041985964756862497 0 0.0059093002753350813 -0.0054229111609174607 0 0.0072250339574071185 -0.0059650551130176538 0 0.010028776070423623 -0.0017695404830613823 0 0.0092992128264270286 -0.0013794160895111817 0 0.0092936786266971817 -0.0019878718844458126 0 0.0092992128264270286 -0.0013794160895111817 0 0.0092936786266971817 -0.0019878718844458126 0 0.008736237183704889 -0.0020020501558135288 0 0.0092936786266971817 -0.0019878718844458126 0 0.008736237183704889 -0.0020020501558135288 0 0.009049111053563378 -0.0027391100603387547 0 0.0096629623905903142 -0.0024041761656801277 0 0.0092936786266971817 -0.0019878718844458126 0 0.009049111053563378 -0.0027391100603387547 0 0.0092992128264270286 -0.0013794160895111817 0 0.008736237183704889 -0.0020020501558135288 0 0.007891182356495793 -0.0018449946178955429 0 0.004666563577659104 -0.0029935320154666173 0 0.0065675128394301115 -0.0024354379439061932 0 0.008736237183704889 -0.0020020501558135288 0 0.007891182356495793 -0.0018449946178955429 0 0.009049111053563378 -0.0027391100603387547 0 0.0032486127549900628 -0.0020669453941568774 0 0.0028100562514997273 -0.0023784372503072031 0 0.0030968240132916896 -0.0023851914331502653 0 0.004666563577659104 -0.0029935320154666173 0 0.0022713632500775656 -0.0023825408085916921 0 0.004666563577659104 -0.0029935320154666173 0 0.0027372222442312928 -0.0040124990950297342 0 0.0026272710873377933 -0.0024480709377183089 0 0.002695910259183228 -0.0026360318583264451 0 0.0028100562514997273 -0.0023784372503072031 0 0.0043354472725076736 -0.0047024401283896917 0 0.0044419421921788006 -0.0065455075091628602 0 0.0030273214752347217 -0.0049080969657238592 0 0.002695910259183228 -0.0026360318583264451 0 0.0028100562514997273 -0.0023784372503072031 0 0.0027837203076199872 -0.0025075101268431264 0 0.0028100562514997273 -0.0023784372503072031 0 0.0029156240386863214 -0.0024889281357497258 0 0.002814998261348694 -0.0024763100316147024 0 0.0028100562514997273 -0.0023784372503072031 0 0.0029156240386863214 -0.0024889281357497258 0 0.0030968240132916896 -0.0023851914331502653 0 0.0032486127549900628 -0.0020669453941568774 0 0.0030968240132916896 -0.0023851914331502653 0 0.0033863031382940023 -0.0024145660497354861 0 0.0030968240132916896 -0.0023851914331502653 0 0.0031262718719708318 -0.0025382224804543149 0 0.0033863031382940023 -0.0024145660497354861 0 0.0029156240386863214 -0.0024889281357497258 0 0.0030968240132916896 -0.0023851914331502653 0 0.0031262718719708318 -0.0025382224804543149 0 0.0031262718719708318 -0.0025382224804543149 0 0.0029300267179683199 -0.0026360635061041114 0 0.0033237661813715551 -0.0027296786774731953 0 0.0029156240386863214 -0.0024889281357497258 0 0.0031262718719708318 -0.0025382224804543149 0 0.0029300267179683199 -0.0026360635061041114 0 0.0029156240386863214 -0.0024889281357497258 0 0.002858666984022905 -0.0025517295059759464 0 0.002814998261348694 -0.0024763100316147024 0 0.0029156240386863214 -0.0024889281357497258 0 0.002858666984022905 -0.0025517295059759464 0 0.0029300267179683199 -0.0026360635061041114 0 0.0065245107722670609 -0.0027382364035730255 0 0.0065675128394301115 -0.0024354379439061932 0 0.0032486127549900628 -0.0020669453941568774 0 0.0037501871934785464 -0.002329371133911204 0 0.0033863031382940023 -0.0024145660497354861 0 0.0037501871934785464 -0.002329371133911204 0 0.0033863031382940023 -0.0024145660497354861 0 0.0037562786982212465 -0.0024348519192381075 0 0.0031262718719708318 -0.0025382224804543149 0 0.0033863031382940023 -0.0024145660497354861 0 0.0033237661813715551 -0.0027296786774731953 0 0.0033863031382940023 -0.0024145660497354861 0 0.0033237661813715551 -0.0027296786774731953 0 0.0037562786982212465 -0.0024348519192381075 0 0.0036580870706629342 -0.002572573357569941 0 0.0037712100536530166 -0.0024253189706871132 0 0.004017453516856573 -0.0023519849846058206 0 0.0037562786982212465 -0.0024348519192381075 0 0.0038689446279093816 -0.002351984596650186 0 0.0039083137080055093 -0.0023437572552799488 0 0.0037501871934785464 -0.002329371133911204 0 0.0037562786982212465 -0.0024348519192381075 0 0.0039083137080055093 -0.0023437572552799488 0 0.0037562786982212465 -0.0024348519192381075 0 0.0038494820192298599 -0.0023624783973328822 0 0.0037562786982212465 -0.0024348519192381075 0 0.0038689446279093816 -0.002351984596650186 0 0.0038494820192298599 -0.0023624783973328822 0 0.0038689446279093816 -0.002351984596650186 0 0.0038494820192298599 -0.0023624783973328822 0 0.0038769671627427831 -0.0023248846162683291 0 0.0039067640297240471 -0.0022646915333201421 0 0.0038983348476081306 -0.0022796384282785182 0 0.0039111967804301671 -0.0022429987872015938 0 0.0039067640297240471 -0.0022646915333201421 0 0.0038909308025319384 -0.0022974827658074452 0 0.0039042312327185729 -0.0022929012164009267 0 0.0039067640297240471 -0.0022646915333201421 0 0.0038983348476081306 -0.0022796384282785182 0 0.0038909308025319384 -0.0022974827658074452 0 0.003883293091510101 -0.0023179897712038173 0 0.0038769671627427831 -0.0023248846162683291 0 0.0038909308025319384 -0.0022974827658074452 0 0.003883293091510101 -0.0023179897712038173 0 0.0038983348476081306 -0.0022796384282785182 0 0.0038909308025319384 -0.0022974827658074452 0 0.003883293091510101 -0.0023179897712038173 0 0.0038494820192298599 -0.0023624783973328822 0 0.0038769671627427831 -0.0023248846162683291 0 0.0038769671627427831 -0.0023248846162683291 0 0.0038909308025319384 -0.0022974827658074452 0 0.0039042312327185729 -0.0022929012164009267 0 0.0038689446279093816 -0.002351984596650186 0 0.0038769671627427831 -0.0023248846162683291 0 0.0039042312327185729 -0.0022929012164009267 0 0.0038689446279093816 -0.002351984596650186 0 0.0039042312327185729 -0.0022929012164009267 0 0.0039482308764332927 -0.0022985066967977528 0 0.0039067640297240471 -0.0022646915333201421 0 0.0039042312327185729 -0.0022929012164009267 0 0.0039244125543081466 -0.0022464845831187022 0 0.0039067640297240471 -0.0022646915333201421 0 0.0039244125543081466 -0.0022464845831187022 0 0.0039217052124730601 -0.002226573619988619 0 0.0039042312327185729 -0.0022929012164009267 0 0.0039244125543081466 -0.0022464845831187022 0 0.0039552604936560513 -0.0022399615123164401 0 0.0039042312327185729 -0.0022929012164009267 0 0.0039552604936560513 -0.0022399615123164401 0 0.0039482308764332927 -0.0022985066967977528 0 0.0039552604936560513 -0.0022399615123164401 0 0.0039482308764332927 -0.0022985066967977528 0 0.0040434805454721036 -0.0022281365592913011 0 0.004017453516856573 -0.0023519849846058206 0 0.0038689446279093816 -0.002351984596650186 0 0.0039482308764332927 -0.0022985066967977528 0 0.004017453516856573 -0.0023519849846058206 0 0.0039482308764332927 -0.0022985066967977528 0 0.0040434805454721036 -0.0022281365592913011 0 0.0041054776091327847 -0.0020563676813468751 0 0.0040099356488348089 -0.0021514989180284197 0 0.0039363682705844888 -0.0021509581976060432 0 0.0041054776091327847 -0.0020563676813468751 0 0.0040434805454721036 -0.0022281365592913011 0 0.0040099356488348089 -0.0021514989180284197 0 0.0055262551041650818 0.0041978818274048422 0 0.0069560082043826719 0.0028653775975758886 0 0.0040099356488348089 -0.0021514989180284197 0 0.0039493475681180177 -0.0021782713667056431 0 0.0039363682705844888 -0.0021509581976060432 0 0.0040099356488348089 -0.0021514989180284197 0 0.0039620813733994573 -0.0021918631684824243 0 0.0039493475681180177 -0.0021782713667056431 0 0.0039552604936560513 -0.0022399615123164401 0 0.0040099356488348089 -0.0021514989180284197 0 0.0039620813733994573 -0.0021918631684824243 0 0.0039552604936560513 -0.0022399615123164401 0 0.0040434805454721036 -0.0022281365592913011 0 0.0040099356488348089 -0.0021514989180284197 0 0.0039204231321779475 -0.0022554820566200607 0 0.0039363682705844888 -0.0021509581976060432 0 0.0039265126406892222 -0.0021955690102635228 0 0.0083723544455605869 0.0076752686076408446 0 0.0093430298486892258 0.0082113964687027547 0 0.0093845849268218307 0.0081458902635583585 0 0.0039244125543081466 -0.0022464845831187022 0 0.0039552604936560513 -0.0022399615123164401 0 0.0039390477881574232 -0.002212505244028612 0 0.0039552604936560513 -0.0022399615123164401 0 0.0039620813733994573 -0.0021918631684824243 0 0.0039390477881574232 -0.002212505244028612 0 0.0039244125543081466 -0.0022464845831187022 0 0.0039390477881574232 -0.002212505244028612 0 0.0039217052124730601 -0.002226573619988619 0 0.0039390477881574232 -0.002212505244028612 0 0.0039302107091719095 -0.0021951692498051781 0 0.0039493475681180177 -0.0021782713667056431 0 0.0039390477881574232 -0.002212505244028612 0 0.0039302107091719095 -0.0021951692498051781 0 0.0039217052124730601 -0.002226573619988619 0 0.0039620813733994573 -0.0021918631684824243 0 0.0039390477881574232 -0.002212505244028612 0 0.0039493475681180177 -0.0021782713667056431 0 0.0039302107091719095 -0.0021951692498051781 0 0.0039493475681180177 -0.0021782713667056431 0 0.0039331367721282288 -0.0021792425471273105 0 0.0039363682705844888 -0.0021509581976060432 0 0.0039331367721282288 -0.0021792425471273105 0 0.0039265126406892222 -0.0021955690102635228 0 0.0039493475681180177 -0.0021782713667056431 0 0.0039363682705844888 -0.0021509581976060432 0 0.0039331367721282288 -0.0021792425471273105 0 0.0039302107091719095 -0.0021951692498051781 0 0.0039331367721282288 -0.0021792425471273105 0 0.0039265126406892222 -0.0021955690102635228 0 0.0039193768391650383 -0.0022217969110834403 0 0.0039209564645488748 -0.0022164854807651055 0 0.0039111967804301671 -0.0022429987872015938 0 0.0039193768391650383 -0.0022217969110834403 0 0.0039265126406892222 -0.0021955690102635228 0 0.0039209564645488748 -0.0022164854807651055 0 0.0039302107091719095 -0.0021951692498051781 0 0.0039209564645488748 -0.0022164854807651055 0 0.0039217052124730601 -0.002226573619988619 0 0.0039302107091719095 -0.0021951692498051781 0 0.0039265126406892222 -0.0021955690102635228 0 0.0039209564645488748 -0.0022164854807651055 0 0.0039067640297240471 -0.0022646915333201421 0 0.0039217052124730601 -0.002226573619988619 0 0.0039111967804301671 -0.0022429987872015938 0 0.0039209564645488748 -0.0022164854807651055 0 0.0039217052124730601 -0.002226573619988619 0 0.0039111967804301671 -0.0022429987872015938 0 0.0028977165190523569 -0.0025874891063845653 0 0.002873767369755165 -0.0025654472133372019 0 0.0028660494633739784 -0.0025717201057092972 0 0.002858666984022905 -0.0025517295059759464 0 0.0029300267179683199 -0.0026360635061041114 0 0.0028660494633739784 -0.0025717201057092972 0 0.0029300267179683199 -0.0026360635061041114 0 0.0028977165190523569 -0.0025874891063845653 0 0.0028660494633739784 -0.0025717201057092972 0 0.0030330498086077666 -0.0027339194141724672 0 0.0034930551835515283 -0.002153617501144402 0 0.0029300267179683199 -0.0026360635061041114 0 0.0033237661813715551 -0.0027296786774731953 0 0.0030348888240607206 -0.0029271774468859479 0 0.0036580870706629342 -0.002572573357569941 0 0.0034930551835515283 -0.002153617501144402 0 0.004017453516856573 -0.0023519849846058206 0 0.0040434805454721036 -0.0022281365592913011 0 0.0041565124976500542 -0.0022249598323047007 0 0.0041054776091327847 -0.0020563676813468751 0 0.0040434805454721036 -0.0022281365592913011 0 0.0041565124976500542 -0.0022249598323047007 0 0.003531869543728746 0.0014534643488293244 0 0.0037126330256598518 0.00091237037441162943 0 0.0040309752447122591 0.0012306860047628058 0 0.0055262551041650818 0.0041978818274048422 0 0.0034930551835515283 -0.002153617501144402 0 0.0043419791484134501 0.0015376899437853208 0 0.003531869543728746 0.0014534643488293244 0 0.0040309752447122591 0.0012306860047628058 0 0.0028519384833437544 -0.0025489693719410594 0 0.002873767369755165 -0.0025654472133372019 0 0.0028451277257727429 -0.0025573292284347747 0 0.002873767369755165 -0.0025654472133372019 0 0.0028451277257727429 -0.0025573292284347747 0 0.0028660494633739784 -0.0025717201057092972 0 0.0034930551835515283 -0.002153617501144402 0 0.0033121130636880628 -0.00070475966747808887 0 0.0029925763584537678 0.0025502257300262119 0 0.0033121130636880628 -0.00070475966747808887 0 0.0028403701557711812 -0.0025485414469265965 0 0.0028451277257727429 -0.0025573292284347747 0 0.0028050557759874604 -0.002548925821670745 0 0.0028403701557711812 -0.0025485414469265965 0 0.0028519384833437544 -0.0025489693719410594 0 0.0028451277257727429 -0.0025573292284347747 0 0.00078023618837752909 0.0010305101600726696 0 -0.00051605970081027876 -0.0020888390439251789 0 0.0028451277257727429 -0.0025573292284347747 0 0.0028660494633739784 -0.0025717201057092972 0 0.0028050557759874604 -0.002548925821670745 0 0.0028660494633739784 -0.0025717201057092972 0 0.0028050557759874604 -0.002548925821670745 0 0.0028183833421185464 -0.0025152200452237465 0 -0.00051605970081027876 -0.0020888390439251789 0 -0.00038679480838947194 -0.0018068695676051532 0 -0.0037165141486160871 -0.00076642545144840377 0 -0.0034402379379657485 -0.00091835923318793358 0 -0.0035571812530146999 -0.0012893334246860944 0 -0.0035286728386048449 -0.0002569419974283508 0 -0.0037165141486160871 -0.00076642545144840377 0 -0.0033223670928240667 -0.00057194210653702322 0 -0.0035286728386048449 -0.0002569419974283508 0 -0.0038742140986874293 -0.00030582023928659688 0 -0.0037165141486160871 -0.00076642545144840377 0 -0.0031425605330338106 -0.00018823693851315154 0 -0.0033223670928240667 -0.00057194210653702322 0 -0.0030389818949873521 -0.0006003748713825928 0 -0.0031425605330338106 -0.00018823693851315154 0 -0.0030389818949873521 -0.0006003748713825928 0 -0.0027937429409545323 -0.00041257038368942525 0 -0.0033223670928240667 -0.00057194210653702322 0 -0.0030389818949873521 -0.0006003748713825928 0 -0.0031066476087340763 -0.00091492185423985785 0 -0.0030389818949873521 -0.0006003748713825928 0 -0.0031066476087340763 -0.00091492185423985785 0 -0.0027530715463891259 -0.00081392436412587555 0 -0.0031066476087340763 -0.00091492185423985785 0 -0.0029523383446753539 -0.0012618949872844985 0 -0.0027530715463891259 -0.00081392436412587555 0 -0.0037165141486160871 -0.00076642545144840377 0 -0.0033223670928240667 -0.00057194210653702322 0 -0.0034402379379657485 -0.00091835923318793358 0 -0.0033223670928240667 -0.00057194210653702322 0 -0.0031066476087340763 -0.00091492185423985785 0 -0.0034402379379657485 -0.00091835923318793358 0 -0.0034402379379657485 -0.00091835923318793358 0 -0.0035571812530146999 -0.0012893334246860944 0 -0.0032529629660275877 -0.0014409540273760222 0 -0.0031066476087340763 -0.00091492185423985785 0 -0.0034402379379657485 -0.00091835923318793358 0 -0.0032529629660275877 -0.0014409540273760222 0 -0.0031066476087340763 -0.00091492185423985785 0 -0.0029523383446753539 -0.0012618949872844985 0 -0.0032529629660275877 -0.0014409540273760222 0 -0.0032529629660275877 -0.0014409540273760222 0 -0.0030004266380165693 -0.0016866942570520668 0 -0.0033859210811584637 -0.0018637194413452735 0 -0.0029523383446753539 -0.0012618949872844985 0 -0.0032529629660275877 -0.0014409540273760222 0 -0.0030004266380165693 -0.0016866942570520668 0 -0.0035571812530146999 -0.0012893334246860944 0 -0.0032529629660275877 -0.0014409540273760222 0 -0.0033859210811584637 -0.0018637194413452735 0 0.0027967902961616689 -0.0024817195264895779 0 0.0028154970425235295 -0.002477139273283488 0 0.0028950695450637872 -0.0024865642661188424 0 -0.00038679480838947194 -0.0018068695676051532 0 -0.00022222953686507567 -0.0022233406567238011 0 0.0028154970425235295 -0.002477139273283488 0 0.002814998261348694 -0.0024763100316147024 0 0.0027837203076199872 -0.0025075101268431264 0 0.0028154970425235295 -0.002477139273283488 0 0.002814998261348694 -0.0024763100316147024 0 0.0028183833421185464 -0.0025152200452237465 0 0.002858666984022905 -0.0025517295059759464 0 0.002814998261348694 -0.0024763100316147024 0 0.0028183833421185464 -0.0025152200452237465 0 0.002858666984022905 -0.0025517295059759464 0 0.0028660494633739784 -0.0025717201057092972 0 0.0028183833421185464 -0.0025152200452237465 0 0.0027967902961616689 -0.0024817195264895779 0 0.0028154970425235295 -0.002477139273283488 0 0.0028183833421185464 -0.0025152200452237465 0 0.0028050557759874604 -0.002548925821670745 0 0.0027967902961616689 -0.0024817195264895779 0 0.0028183833421185464 -0.0025152200452237465 0 -0.0012451952131776729 -0.00033463890217244195 0 -0.0015857903396511576 -0.00063709415844530012 0 -0.0019937292540558029 -0.00080565378351223993 0 -0.00090090547238738498 0.002654822365457556 0 -0.0015713162476173863 0.0012396806811764073 0 -0.00052360240771134469 0.0054258727945745164 0 -0.00070842568865526654 0.0054420473816777877 0 -0.00094040053548492754 0.0052236214794852296 0 -0.0012719128066941874 -0.00070608451279090734 0 -0.0014663662313083449 -0.00078690577198281379 0 -0.0015857903396511576 -0.00063709415844530012 0 -0.0012719128066941874 -0.00070608451279090734 0 -0.0014663662313083449 -0.00078690577198281379 0 -0.0014282020846735769 -0.00099197187058445296 0 -0.0014663662313083449 -0.00078690577198281379 0 -0.0015992336620404217 -0.00082607964455677597 0 -0.0015857903396511576 -0.00063709415844530012 0 -0.0014663662313083449 -0.00078690577198281379 0 -0.0015992336620404217 -0.00082607964455677597 0 -0.0014282020846735769 -0.00099197187058445296 0 -0.0015992336620404217 -0.00082607964455677597 0 -0.0017444472649433863 -0.00098133515785396694 0 -0.0014282020846735769 -0.00099197187058445296 0 -0.0017797450350963897 -0.00074050431367108174 0 -0.0015857903396511576 -0.00063709415844530012 0 -0.0019937292540558029 -0.00080565378351223993 0 -0.0015992336620404217 -0.00082607964455677597 0 -0.0017797450350963897 -0.00074050431367108174 0 -0.0017444472649433863 -0.00098133515785396694 0 -0.0015992336620404217 -0.00082607964455677597 0 -0.0017797450350963897 -0.00074050431367108174 0 -0.0015857903396511576 -0.00063709415844530012 0 -0.0012451952131776729 -0.00033463890217244195 0 -0.0012719128066941874 -0.00070608451279090734 0 -0.0015857903396511576 -0.00063709415844530012 0 -0.00052360240771134469 0.0054258727945745164 0 -0.00070842568865526654 0.0054420473816777877 0 -0.00063008402406177877 0.0058290032459525128 0 -0.00070842568865526654 0.0054420473816777877 0 -0.00063008402406177877 0.0058290032459525128 0 -0.0011525135480711054 0.005897374047869058 0 -0.00074597000745363991 0.0054608086052338545 0 -0.0010155014420729365 0.0056805118878739402 0 -0.00070842568865526654 0.0054420473816777877 0 -0.00088423077983520245 0.0053971386049778223 0 -0.00088275968918438664 0.0055041874948889855 0 -0.00088423077983520245 0.0053971386049778223 0 -0.00097112935402702139 0.0054687561051610326 0 -0.0010533982968023556 0.0053689875456264177 0 -0.00088423077983520245 0.0053971386049778223 0 -0.00088275968918438664 0.0055041874948889855 0 -0.00097112935402702139 0.0054687561051610326 0 -0.00088423077983520245 0.0053971386049778223 0 -0.00094040053548492754 0.0052236214794852296 0 -0.0010533982968023556 0.0053689875456264177 0 -0.00070842568865526654 0.0054420473816777877 0 -0.00088423077983520245 0.0053971386049778223 0 -0.00094040053548492754 0.0052236214794852296 0 -0.0020072703096422279 -0.00085427592482484576 0 -0.0020922041431587698 -0.00089865920511229163 0 -0.0024128574615086607 -0.00063860963168662374 0 -0.0019304170794724493 -0.00080031550241460104 0 -0.0019937292540558029 -0.00080565378351223993 0 -0.0019216433284507213 -0.0008560421756123259 0 -0.0019304170794724493 -0.00080031550241460104 0 -0.0018817285439010167 -0.00079335890841749691 0 -0.0019216433284507213 -0.0008560421756123259 0 -0.0019937292540558029 -0.00080565378351223993 0 -0.0020112257316236811 -0.00086374444554615255 0 -0.0019216433284507213 -0.0008560421756123259 0 -0.0017797450350963897 -0.00074050431367108174 0 -0.0019304170794724493 -0.00080031550241460104 0 -0.0019937292540558029 -0.00080565378351223993 0 -0.0017797450350963897 -0.00074050431367108174 0 -0.0019304170794724493 -0.00080031550241460104 0 -0.0018817285439010167 -0.00079335890841749691 0 -0.0017797450350963897 -0.00074050431367108174 0 -0.0018817285439010167 -0.00079335890841749691 0 -0.0018564103712313473 -0.00089067195716940363 0 -0.0017797450350963897 -0.00074050431367108174 0 -0.0018564103712313473 -0.00089067195716940363 0 -0.0017444472649433863 -0.00098133515785396694 0 -0.0018817285439010167 -0.00079335890841749691 0 -0.0018564103712313473 -0.00089067195716940363 0 -0.0019216433284507213 -0.0008560421756123259 0 -0.0020112257316236811 -0.00086374444554615255 0 -0.0019442850559328627 -0.0009233352900470973 0 -0.0020146271634790937 -0.00093430813469364633 0 -0.0020112257316236811 -0.00086374444554615255 0 -0.0019216433284507213 -0.0008560421756123259 0 -0.0019442850559328627 -0.0009233352900470973 0 -0.0018564103712313473 -0.00089067195716940363 0 -0.0019216433284507213 -0.0008560421756123259 0 -0.0019442850559328627 -0.0009233352900470973 0 -0.0018564103712313473 -0.00089067195716940363 0 -0.0019442850559328627 -0.0009233352900470973 0 -0.0019521665112115282 -0.0010181011994631263 0 -0.0019442850559328627 -0.0009233352900470973 0 -0.0020146271634790937 -0.00093430813469364633 0 -0.0019521665112115282 -0.0010181011994631263 0 -0.0020146271634790937 -0.00093430813469364633 0 -0.0020922041431587698 -0.00089865920511229163 0 -0.0021006028637333579 -0.0010207006491256138 0 -0.0020112257316236811 -0.00086374444554615255 0 -0.0020146271634790937 -0.00093430813469364633 0 -0.0020922041431587698 -0.00089865920511229163 0 -0.0020922041431587698 -0.00089865920511229163 0 -0.002228764280792606 -0.0010057943537010894 0 -0.0021006028637333579 -0.0010207006491256138 0 -0.0019937292540558029 -0.00080565378351223993 0 -0.0020112257316236811 -0.00086374444554615255 0 -0.0020922041431587698 -0.00089865920511229163 0 -0.0015713162476173863 0.0012396806811764073 0 -0.0020324907255407382 0.00072864283820427524 0 -0.0015713162476173863 0.0012396806811764073 0 -0.0017591714897193726 0.0024517282800501643 0 -0.0023721647891797241 -0.0009028609719772127 0 -0.0024128574615086607 -0.00063860963168662374 0 -0.0027530715463891259 -0.00081392436412587555 0 -0.0020922041431587698 -0.00089865920511229163 0 -0.0023721647891797241 -0.0009028609719772127 0 -0.002228764280792606 -0.0010057943537010894 0 -0.0023721647891797241 -0.0009028609719772127 0 -0.0023666360458481353 -0.0010917362911566225 0 -0.002228764280792606 -0.0010057943537010894 0 -0.0020922041431587698 -0.00089865920511229163 0 -0.0023721647891797241 -0.0009028609719772127 0 -0.0024128574615086607 -0.00063860963168662374 0 -0.001051348045559249 0.0054763941892765726 0 -0.0010533982968023556 0.0053689875456264177 0 -0.0011322186440321307 0.0054498341407197143 0 -0.001051348045559249 0.0054763941892765726 0 -0.00097112935402702139 0.0054687561051610326 0 -0.0010533982968023556 0.0053689875456264177 0 -0.0024128574615086607 -0.00063860963168662374 0 -0.0027937429409545323 -0.00041257038368942525 0 -0.0027530715463891259 -0.00081392436412587555 0 -0.0017591714897193726 0.0024517282800501643 0 -0.0020737827703042428 0.0024114176052475525 0 -0.0030389818949873521 -0.0006003748713825928 0 -0.0027937429409545323 -0.00041257038368942525 0 -0.0027530715463891259 -0.00081392436412587555 0 -0.0023721647891797241 -0.0009028609719772127 0 -0.0027530715463891259 -0.00081392436412587555 0 -0.002602672008114999 -0.0011671931489616908 0 -0.0029523383446753539 -0.0012618949872844985 0 -0.0027530715463891259 -0.00081392436412587555 0 -0.002602672008114999 -0.0011671931489616908 0 -0.002602672008114999 -0.0011671931489616908 0 -0.002767988219396006 -0.0014894930872106197 0 -0.0025426206837290948 -0.0014339405472906638 0 -0.0029523383446753539 -0.0012618949872844985 0 -0.002602672008114999 -0.0011671931489616908 0 -0.002767988219396006 -0.0014894930872106197 0 -0.0029523383446753539 -0.0012618949872844985 0 -0.0030004266380165693 -0.0016866942570520668 0 -0.002767988219396006 -0.0014894930872106197 0 -0.0030004266380165693 -0.0016866942570520668 0 -0.0027662277178145747 -0.0017547251990445828 0 -0.0028746913498944853 -0.0019526923018404277 0 -0.0030004266380165693 -0.0016866942570520668 0 -0.002767988219396006 -0.0014894930872106197 0 -0.0027662277178145747 -0.0017547251990445828 0 -0.0027662277178145747 -0.0017547251990445828 0 -0.0025494017515721957 -0.001777827516715937 0 -0.0026670072597841615 -0.0020006524632750064 0 -0.0027662277178145747 -0.0017547251990445828 0 -0.002618184377023 -0.0016168327421399987 0 -0.0025494017515721957 -0.001777827516715937 0 -0.002767988219396006 -0.0014894930872106197 0 -0.002618184377023 -0.0016168327421399987 0 -0.0025426206837290948 -0.0014339405472906638 0 -0.002767988219396006 -0.0014894930872106197 0 -0.0027662277178145747 -0.0017547251990445828 0 -0.002618184377023 -0.0016168327421399987 0 -0.0025426206837290948 -0.0014339405472906638 0 -0.0024146913657760618 -0.0015959795531352589 0 -0.0022907799187722269 -0.0014129666903026634 0 -0.002618184377023 -0.0016168327421399987 0 -0.0025426206837290948 -0.0014339405472906638 0 -0.0024146913657760618 -0.0015959795531352589 0 -0.0024146913657760618 -0.0015959795531352589 0 -0.0025494017515721957 -0.001777827516715937 0 -0.0024038690672385315 -0.0018094198557424943 0 -0.002618184377023 -0.0016168327421399987 0 -0.0024146913657760618 -0.0015959795531352589 0 -0.0025494017515721957 -0.001777827516715937 0 -0.0025494017515721957 -0.001777827516715937 0 -0.0024038690672385315 -0.0018094198557424943 0 -0.0024952371387386455 -0.0019422650470698097 0 -0.0024146913657760618 -0.0015959795531352589 0 -0.0024038690672385315 -0.0018094198557424943 0 -0.0021979567924979618 -0.0017753022332208 0 -0.0024146913657760618 -0.0015959795531352589 0 -0.0021249524910471993 -0.0015546932013711086 0 -0.0021979567924979618 -0.0017753022332208 0 -0.0024038690672385315 -0.0018094198557424943 0 -0.0021979567924979618 -0.0017753022332208 0 -0.002328242504710849 -0.0019556200772027736 0 -0.0024146913657760618 -0.0015959795531352589 0 -0.0022907799187722269 -0.0014129666903026634 0 -0.0021249524910471993 -0.0015546932013711086 0 -0.0022907799187722269 -0.0014129666903026634 0 -0.002403780181489477 -0.0012447614791431779 0 -0.0022186694699957848 -0.0011410625825575493 0 -0.0025426206837290948 -0.0014339405472906638 0 -0.0022907799187722269 -0.0014129666903026634 0 -0.002403780181489477 -0.0012447614791431779 0 -0.002602672008114999 -0.0011671931489616908 0 -0.0025426206837290948 -0.0014339405472906638 0 -0.002403780181489477 -0.0012447614791431779 0 -0.0023721647891797241 -0.0009028609719772127 0 -0.002602672008114999 -0.0011671931489616908 0 -0.0023666360458481353 -0.0010917362911566225 0 -0.002602672008114999 -0.0011671931489616908 0 -0.002403780181489477 -0.0012447614791431779 0 -0.0023666360458481353 -0.0010917362911566225 0 -0.0023666360458481353 -0.0010917362911566225 0 -0.002228764280792606 -0.0010057943537010894 0 -0.0022186694699957848 -0.0011410625825575493 0 -0.002403780181489477 -0.0012447614791431779 0 -0.0023666360458481353 -0.0010917362911566225 0 -0.0022186694699957848 -0.0011410625825575493 0 -0.0022186694699957848 -0.0011410625825575493 0 -0.0020434275636290831 -0.0011451653698478289 0 -0.0021006028637333579 -0.0010207006491256138 0 -0.002228764280792606 -0.0010057943537010894 0 -0.0022186694699957848 -0.0011410625825575493 0 -0.0021006028637333579 -0.0010207006491256138 0 -0.0020146271634790937 -0.00093430813469364633 0 -0.0021006028637333579 -0.0010207006491256138 0 -0.0019521665112115282 -0.0010181011994631263 0 -0.0020434275636290831 -0.0011451653698478289 0 -0.0021006028637333579 -0.0010207006491256138 0 -0.0019521665112115282 -0.0010181011994631263 0 -0.0019521665112115282 -0.0010181011994631263 0 -0.0018799940576267873 -0.0011974658453165522 0 -0.0017444472649433863 -0.00098133515785396694 0 -0.0018564103712313473 -0.00089067195716940363 0 -0.0019521665112115282 -0.0010181011994631263 0 -0.0017444472649433863 -0.00098133515785396694 0 -0.0020434275636290831 -0.0011451653698478289 0 -0.0019521665112115282 -0.0010181011994631263 0 -0.0018799940576267873 -0.0011974658453165522 0 -0.0018799940576267873 -0.0011974658453165522 0 -0.0020625814112383268 -0.0013286326006594299 0 -0.00179706826710209 -0.0015186983175314497 0 -0.0020434275636290831 -0.0011451653698478289 0 -0.0018799940576267873 -0.0011974658453165522 0 -0.0020625814112383268 -0.0013286326006594299 0 -0.0022907799187722269 -0.0014129666903026634 0 -0.0022186694699957848 -0.0011410625825575493 0 -0.0020625814112383268 -0.0013286326006594299 0 -0.0022186694699957848 -0.0011410625825575493 0 -0.0020434275636290831 -0.0011451653698478289 0 -0.0020625814112383268 -0.0013286326006594299 0 -0.0022907799187722269 -0.0014129666903026634 0 -0.0020625814112383268 -0.0013286326006594299 0 -0.0021249524910471993 -0.0015546932013711086 0 -0.0021249524910471993 -0.0015546932013711086 0 -0.0021979567924979618 -0.0017753022332208 0 -0.0019244971301774873 -0.0018309750228491777 0 -0.0020625814112383268 -0.0013286326006594299 0 -0.0021249524910471993 -0.0015546932013711086 0 -0.00179706826710209 -0.0015186983175314497 0 -0.0021249524910471993 -0.0015546932013711086 0 -0.0019244971301774873 -0.0018309750228491777 0 -0.00179706826710209 -0.0015186983175314497 0 -0.0012737733629302505 -0.0014690752128529248 0 -0.00179706826710209 -0.0015186983175314497 0 -0.0016009353788146705 -0.0019881623368521438 0 -0.0019244971301774873 -0.0018309750228491777 0 -0.00179706826710209 -0.0015186983175314497 0 -0.0016009353788146705 -0.0019881623368521438 0 -0.0012737733629302505 -0.0014690752128529248 0 -0.00179706826710209 -0.0015186983175314497 0 -0.0016274373258922811 -0.0012322996804991287 0 -0.0012737733629302505 -0.0014690752128529248 0 -0.0016274373258922811 -0.0012322996804991287 0 -0.0014282020846735769 -0.00099197187058445296 0 -0.0018799940576267873 -0.0011974658453165522 0 -0.00179706826710209 -0.0015186983175314497 0 -0.0016274373258922811 -0.0012322996804991287 0 -0.0016274373258922811 -0.0012322996804991287 0 -0.0017444472649433863 -0.00098133515785396694 0 -0.0014282020846735769 -0.00099197187058445296 0 -0.0018799940576267873 -0.0011974658453165522 0 -0.0016274373258922811 -0.0012322996804991287 0 -0.0017444472649433863 -0.00098133515785396694 0 -0.001533021427540721 -0.0025054873275478342 0 -0.0016009353788146705 -0.0019881623368521438 0 -0.0020641665823378399 -0.0021293739755403403 0 -0.0010481340188206391 -0.0018560490907824777 0 -0.001533021427540721 -0.0025054873275478342 0 -0.0016009353788146705 -0.0019881623368521438 0 -0.0019244971301774873 -0.0018309750228491777 0 -0.0016009353788146705 -0.0019881623368521438 0 -0.0020641665823378399 -0.0021293739755403403 0 -0.0021979567924979618 -0.0017753022332208 0 -0.0020641665823378399 -0.0021293739755403403 0 -0.002328242504710849 -0.0019556200772027736 0 -0.0021979567924979618 -0.0017753022332208 0 -0.0019244971301774873 -0.0018309750228491777 0 -0.0020641665823378399 -0.0021293739755403403 0 -0.0020641665823378399 -0.0021293739755403403 0 -0.0021277197912170616 -0.0025554835028782775 0 -0.0024649709290702287 -0.0021678762740754975 0 -0.001533021427540721 -0.0025054873275478342 0 -0.0021277197912170616 -0.0025554835028782775 0 -0.0019913599184585538 -0.0029394690266573696 0 -0.001533021427540721 -0.0025054873275478342 0 -0.0020641665823378399 -0.0021293739755403403 0 -0.0021277197912170616 -0.0025554835028782775 0 -0.0021277197912170616 -0.0025554835028782775 0 -0.0025805368075260504 -0.0025015438274446828 0 -0.0024649709290702287 -0.0021678762740754975 0 -0.0021277197912170616 -0.0025554835028782775 0 -0.0025805368075260504 -0.0025015438274446828 0 -0.0023509764984495662 -0.0027843288778256503 0 -0.0025805368075260504 -0.0025015438274446828 0 -0.0024649709290702287 -0.0021678762740754975 0 -0.0026663093109546726 -0.0022530102727646938 0 -0.0020641665823378399 -0.0021293739755403403 0 -0.002328242504710849 -0.0019556200772027736 0 -0.0024649709290702287 -0.0021678762740754975 0 -0.0024952371387386455 -0.0019422650470698097 0 -0.0024649709290702287 -0.0021678762740754975 0 -0.0026670072597841615 -0.0020006524632750064 0 -0.0025494017515721957 -0.001777827516715937 0 -0.0024952371387386455 -0.0019422650470698097 0 -0.0026670072597841615 -0.0020006524632750064 0 -0.002328242504710849 -0.0019556200772027736 0 -0.0024952371387386455 -0.0019422650470698097 0 -0.0024649709290702287 -0.0021678762740754975 0 -0.0024038690672385315 -0.0018094198557424943 0 -0.002328242504710849 -0.0019556200772027736 0 -0.0024952371387386455 -0.0019422650470698097 0 -0.0024649709290702287 -0.0021678762740754975 0 -0.0026663093109546726 -0.0022530102727646938 0 -0.0026670072597841615 -0.0020006524632750064 0 -0.0026663093109546726 -0.0022530102727646938 0 -0.0026670072597841615 -0.0020006524632750064 0 -0.0028324121332880922 -0.002166565380363277 0 -0.0026663093109546726 -0.0022530102727646938 0 -0.0028324121332880922 -0.002166565380363277 0 -0.0028082410101887231 -0.0023678322052221108 0 -0.0026670072597841615 -0.0020006524632750064 0 -0.0028746913498944853 -0.0019526923018404277 0 -0.0028324121332880922 -0.002166565380363277 0 -0.0027662277178145747 -0.0017547251990445828 0 -0.0026670072597841615 -0.0020006524632750064 0 -0.0028746913498944853 -0.0019526923018404277 0 -0.0028746913498944853 -0.0019526923018404277 0 -0.0028324121332880922 -0.002166565380363277 0 -0.0029848497960485872 -0.0021448108858657397 0 -0.0028324121332880922 -0.002166565380363277 0 -0.0029890343733753981 -0.0023504130594140327 0 -0.0029848497960485872 -0.0021448108858657397 0 -0.0029890343733753981 -0.0023504130594140327 0 -0.0028082410101887231 -0.0023678322052221108 0 -0.0028518834639953599 -0.0026250974512711943 0 -0.0028324121332880922 -0.002166565380363277 0 -0.0029890343733753981 -0.0023504130594140327 0 -0.0028082410101887231 -0.0023678322052221108 0 -0.0025805368075260504 -0.0025015438274446828 0 -0.0026663093109546726 -0.0022530102727646938 0 -0.0028082410101887231 -0.0023678322052221108 0 -0.0025805368075260504 -0.0025015438274446828 0 -0.0028518834639953599 -0.0026250974512711943 0 -0.0026457492991916287 -0.0028947316254515701 0 -0.0025805368075260504 -0.0025015438274446828 0 -0.0028082410101887231 -0.0023678322052221108 0 -0.0028518834639953599 -0.0026250974512711943 0 -0.0029890343733753981 -0.0023504130594140327 0 -0.0028518834639953599 -0.0026250974512711943 0 -0.0030169385776092298 -0.0026062999989360379 0 -0.0028518834639953599 -0.0026250974512711943 0 -0.0029698691915718074 -0.0031386214763176024 0 -0.0026457492991916287 -0.0028947316254515701 0 -0.0028518834639953599 -0.0026250974512711943 0 -0.0030169385776092298 -0.0026062999989360379 0 -0.0029698691915718074 -0.0031386214763176024 0 -0.0029698691915718074 -0.0031386214763176024 0 -0.0027092803898506549 -0.0032399021811988183 0 -0.0026457492991916287 -0.0028947316254515701 0 0.0002662965518770997 -0.0032433364472846302 0 -0.0028255475608767282 -0.0039044941768349795 0 -0.0029698691915718074 -0.0031386214763176024 0 -0.0027092803898506549 -0.0032399021811988183 0 -0.0027336322615836776 -0.003641067654516402 0 -0.002289162634031994 -0.0042763340573079029 0 -0.0023631631335055687 -0.0044102605339396009 0 -0.0023868355449569189 -0.0044483947372761313 0 0.0002662965518770997 -0.0032433364472846302 0 0.00074296957245705226 -0.0040477914901568199 0 0.0034263240428550772 -0.0029592849505378801 0 0.0037528891454543314 -0.0034515529164665113 0 0.0034047597232977128 -0.00334948353400974 0 -0.0027092803898506549 -0.0032399021811988183 0 -0.0024675411491510068 -0.0033809845270241948 0 -0.002399425490876992 -0.0030864608133907329 0 -0.0027092803898506549 -0.0032399021811988183 0 -0.0026052998827897325 -0.0034733169717402227 0 -0.0024675411491510068 -0.0033809845270241948 0 -0.0027092803898506549 -0.0032399021811988183 0 -0.0026052998827897325 -0.0034733169717402227 0 -0.0027336322615836776 -0.003641067654516402 0 -0.0026052998827897325 -0.0034733169717402227 0 -0.0025064038941481508 -0.0036344724711300943 0 -0.0027336322615836776 -0.003641067654516402 0 -0.0026052998827897325 -0.0034733169717402227 0 -0.0024675411491510068 -0.0033809845270241948 0 -0.0025064038941481508 -0.0036344724711300943 0 -0.0024675411491510068 -0.0033809845270241948 0 -0.0022751860414448916 -0.0035300463893936161 0 -0.0025064038941481508 -0.0036344724711300943 0 -0.0024675411491510068 -0.0033809845270241948 0 -0.0022221740726808877 -0.0032835987484150248 0 -0.0022751860414448916 -0.0035300463893936161 0 -0.0024675411491510068 -0.0033809845270241948 0 -0.002399425490876992 -0.0030864608133907329 0 -0.0022221740726808877 -0.0032835987484150248 0 -0.0027092803898506549 -0.0032399021811988183 0 -0.002399425490876992 -0.0030864608133907329 0 -0.0026457492991916287 -0.0028947316254515701 0 -0.002399425490876992 -0.0030864608133907329 0 -0.0026457492991916287 -0.0028947316254515701 0 -0.0023509764984495662 -0.0027843288778256503 0 -0.0025805368075260504 -0.0025015438274446828 0 -0.0026457492991916287 -0.0028947316254515701 0 -0.0023509764984495662 -0.0027843288778256503 0 -0.0021277197912170616 -0.0025554835028782775 0 -0.0023509764984495662 -0.0027843288778256503 0 -0.0019913599184585538 -0.0029394690266573696 0 -0.002399425490876992 -0.0030864608133907329 0 -0.0019913599184585538 -0.0029394690266573696 0 -0.0022221740726808877 -0.0032835987484150248 0 -0.002399425490876992 -0.0030864608133907329 0 -0.0023509764984495662 -0.0027843288778256503 0 -0.0019913599184585538 -0.0029394690266573696 0 -0.0019913599184585538 -0.0029394690266573696 0 -0.0022221740726808877 -0.0032835987484150248 0 -0.0019616315393303795 -0.0034190897517945053 0 -0.0022221740726808877 -0.0032835987484150248 0 -0.0022751860414448916 -0.0035300463893936161 0 -0.0019616315393303795 -0.0034190897517945053 0 -0.0022751860414448916 -0.0035300463893936161 0 -0.0019616315393303795 -0.0034190897517945053 0 -0.0021188320535993743 -0.0037235745771447863 0 -0.0019616315393303795 -0.0034190897517945053 0 -0.0018683935386212985 -0.0037091579294746282 0 -0.0021188320535993743 -0.0037235745771447863 0 -0.0019616315393303795 -0.0034190897517945053 0 -0.0015833431685146175 -0.0035553913518971947 0 -0.0015890403134989301 -0.0030680814841792916 0 -0.0019616315393303795 -0.0034190897517945053 0 -0.0015833431685146175 -0.0035553913518971947 0 -0.0018683935386212985 -0.0037091579294746282 0 -0.0019913599184585538 -0.0029394690266573696 0 -0.0019616315393303795 -0.0034190897517945053 0 -0.0015890403134989301 -0.0030680814841792916 0 -0.0012407094711148117 -0.0028163023990158825 0 -0.001533021427540721 -0.0025054873275478342 0 -0.0015890403134989301 -0.0030680814841792916 0 -0.001533021427540721 -0.0025054873275478342 0 -0.0019913599184585538 -0.0029394690266573696 0 -0.0015890403134989301 -0.0030680814841792916 0 0.0027574583226443457 -0.0026856763509056827 0 0.0028834444181770084 -0.0025958609517719423 0 0.0028485212634648317 -0.0027130024249815807 0 0.0027574583226443457 -0.0026856763509056827 0 0.0027837203076199872 -0.0025075101268431264 0 0.0028834444181770084 -0.0025958609517719423 0 0.002695910259183228 -0.0026360318583264451 0 0.0027574583226443457 -0.0026856763509056827 0 0.0027837203076199872 -0.0025075101268431264 0 0.0028100562514997273 -0.0023784372503072031 0 0.002814998261348694 -0.0024763100316147024 0 0.0027837203076199872 -0.0025075101268431264 0 0.0028154970425235295 -0.002477139273283488 0 0.0027837203076199872 -0.0025075101268431264 0 0.0028834444181770084 -0.0025958609517719423 0 0.0028154970425235295 -0.002477139273283488 0 0.0028950695450637872 -0.0024865642661188424 0 0.0028834444181770084 -0.0025958609517719423 0 0.0028950695450637872 -0.0024865642661188424 0 0.0030717732174408638 -0.0026486685434454591 0 0.0028834444181770084 -0.0025958609517719423 0 -0.0030004266380165693 -0.0016866942570520668 0 -0.0033859210811584637 -0.0018637194413452735 0 -0.0030745088718842723 -0.001981450299642746 0 -0.0033859210811584637 -0.0018637194413452735 0 -0.0031195567287427323 -0.0022095673364730113 0 -0.0031881895223534254 -0.0024918281747788487 0 -0.00022222953686507567 -0.0022233406567238011 0 -0.00012497681808457418 -0.0024869855098213025 0 -0.0030004266380165693 -0.0016866942570520668 0 -0.0028746913498944853 -0.0019526923018404277 0 -0.0030745088718842723 -0.001981450299642746 0 -0.0028746913498944853 -0.0019526923018404277 0 -0.0030745088718842723 -0.001981450299642746 0 -0.0029848497960485872 -0.0021448108858657397 0 -0.0033859210811584637 -0.0018637194413452735 0 -0.0030745088718842723 -0.001981450299642746 0 -0.0031195567287427323 -0.0022095673364730113 0 -0.0030745088718842723 -0.001981450299642746 0 -0.0031195567287427323 -0.0022095673364730113 0 -0.0029848497960485872 -0.0021448108858657397 0 -0.0029890343733753981 -0.0023504130594140327 0 -0.0031195567287427323 -0.0022095673364730113 0 -0.0029848497960485872 -0.0021448108858657397 0 0.003073688177752124 -0.0026554635030496278 0 0.0030717732174408638 -0.0026486685434454591 0 0.0028834444181770084 -0.0025958609517719423 0 -0.0029890343733753981 -0.0023504130594140327 0 -0.0030169385776092298 -0.0026062999989360379 0 -0.0030871362914773682 -0.0024293760033344577 0 -0.0031195567287427323 -0.0022095673364730113 0 -0.0030871362914773682 -0.0024293760033344577 0 -0.0031881895223534254 -0.0024918281747788487 0 -0.0029890343733753981 -0.0023504130594140327 0 -0.0031195567287427323 -0.0022095673364730113 0 -0.0030871362914773682 -0.0024293760033344577 0 -0.0030169385776092298 -0.0026062999989360379 0 -0.0030871362914773682 -0.0024293760033344577 0 -0.0031881895223534254 -0.0024918281747788487 0 0.003073688177752124 -0.0026554635030496278 0 0.0028834444181770084 -0.0025958609517719423 0 0.0029421598566182127 -0.0027341470248167959 0 0.0028834444181770084 -0.0025958609517719423 0 0.0029421598566182127 -0.0027341470248167959 0 0.0028485212634648317 -0.0027130024249815807 0 0.0029421598566182127 -0.0027341470248167959 0 0.0028502012713457923 -0.0028890115029461916 0 0.0028485212634648317 -0.0027130024249815807 0 0.0029421598566182127 -0.0027341470248167959 0 0.0028502012713457923 -0.0028890115029461916 0 0.0030900185352846772 -0.0029009327753867819 0 0.0002662965518770997 -0.0032433364472846302 0 -0.00012497681808457418 -0.0024869855098213025 0 0.0002662965518770997 -0.0032433364472846302 0 0.0037228104639361699 -0.002872007104670548 0 -0.0030169385776092298 -0.0026062999989360379 0 -0.0029698691915718074 -0.0031386214763176024 0 -0.0031881895223534254 -0.0024918281747788487 0 0.0029014329823306246 -0.0026423307322275768 0 0.003073688177752124 -0.0026554635030496278 0 0.0030717732174408638 -0.0026486685434454591 0 0.0034263240428550772 -0.0029592849505378801 0 0.003073688177752124 -0.0026554635030496278 0 0.0030900185352846772 -0.0029009327753867819 0 0.003073688177752124 -0.0026554635030496278 0 0.0029421598566182127 -0.0027341470248167959 0 0.0030900185352846772 -0.0029009327753867819 0 0.0034263240428550772 -0.0029592849505378801 0 0.0030900185352846772 -0.0029009327753867819 0 0.0031329884712059143 -0.0032047770158273405 0 0.0034263240428550772 -0.0029592849505378801 0 0.0031329884712059143 -0.0032047770158273405 0 0.0034047597232977128 -0.00334948353400974 0 0.0028502012713457923 -0.0028890115029461916 0 0.0031329884712059143 -0.0032047770158273405 0 0.0027174420509331978 -0.0035063564190542093 0 0.0028502012713457923 -0.0028890115029461916 0 0.0030900185352846772 -0.0029009327753867819 0 0.0031329884712059143 -0.0032047770158273405 0 0.0028502012713457923 -0.0028890115029461916 0 0.0026262451237838639 -0.002925575199576696 0 0.0027174420509331978 -0.0035063564190542093 0 0.0025846952734692374 -0.0033874340356278626 0 0.0027247174120632735 -0.0035327633415008731 0 0.0027574583226443457 -0.0026856763509056827 0 0.0028502012713457923 -0.0028890115029461916 0 0.0028485212634648317 -0.0027130024249815807 0 0.0027574583226443457 -0.0026856763509056827 0 0.0028502012713457923 -0.0028890115029461916 0 0.0026262451237838639 -0.002925575199576696 0 0.002695910259183228 -0.0026360318583264451 0 0.0027574583226443457 -0.0026856763509056827 0 0.0026262451237838639 -0.002925575199576696 0 0.0027372222442312928 -0.0040124990950297342 0 0.0025846952734692374 -0.0033874340356278626 0 0.0030629855351132431 -0.0035492180793332364 0 0.0024341113162358544 -0.003846604935305171 0 0.002593936299182936 -0.0036343246323216286 0 0.002593936299182936 -0.0036343246323216286 0 0.002497543679898196 -0.0037971334934236213 0 0.0027147156566497961 -0.0036798973338038974 0 0.002497543679898196 -0.0037971334934236213 0 0.0027174420509331978 -0.0035063564190542093 0 0.0026194715777009348 -0.0039878174507073554 0 0.002593936299182936 -0.0036343246323216286 0 0.002497543679898196 -0.0037971334934236213 0 0.0027174420509331978 -0.0035063564190542093 0 0.0024341113162358544 -0.003846604935305171 0 0.002593936299182936 -0.0036343246323216286 0 0.0027174420509331978 -0.0035063564190542093 0 0.0031329884712059143 -0.0032047770158273405 0 0.0027174420509331978 -0.0035063564190542093 0 0.0031898044013632752 -0.0035492813569787704 0 0.0027174420509331978 -0.0035063564190542093 0 0.0031898044013632752 -0.0035492813569787704 0 0.0029471675955450071 -0.0037907862546391821 0 0.0031329884712059143 -0.0032047770158273405 0 0.0031898044013632752 -0.0035492813569787704 0 0.0034047597232977128 -0.00334948353400974 0 0.0031898044013632752 -0.0035492813569787704 0 0.0034047597232977128 -0.00334948353400974 0 0.003523442829095435 -0.0036035859505912284 0 0.0031898044013632752 -0.0035492813569787704 0 0.0034137552344468409 -0.0039968251901138178 0 0.003523442829095435 -0.0036035859505912284 0 0.0031898044013632752 -0.0035492813569787704 0 0.0034137552344468409 -0.0039968251901138178 0 0.0029471675955450071 -0.0037907862546391821 0 0.0027174420509331978 -0.0035063564190542093 0 0.0029471675955450071 -0.0037907862546391821 0 0.0026194715777009348 -0.0039878174507073554 0 0.0028907754599654585 -0.0044299274642146617 0 0.0025503259661329675 -0.0043984498500066593 0 0.0026194715777009348 -0.0039878174507073554 0 0.0029471675955450071 -0.0037907862546391821 0 0.0028907754599654585 -0.0044299274642146617 0 0.0026194715777009348 -0.0039878174507073554 0 0.0034137552344468409 -0.0039968251901138178 0 0.0029471675955450071 -0.0037907862546391821 0 0.0028907754599654585 -0.0044299274642146617 0 0.0034137552344468409 -0.0039968251901138178 0 0.0034196128510253013 -0.0045027512172447484 0 0.0028907754599654585 -0.0044299274642146617 0 0.003243441061755557 -0.0049109424681140334 0 0.0034196128510253013 -0.0045027512172447484 0 0.0028907754599654585 -0.0044299274642146617 0 0.003243441061755557 -0.0049109424681140334 0 0.0034196128510253013 -0.0045027512172447484 0 0.0037699180125562587 -0.0048371075018298921 0 0.003243441061755557 -0.0049109424681140334 0 0.0028907754599654585 -0.0044299274642146617 0 0.0028114140893637641 -0.0053474473310905881 0 0.0028907754599654585 -0.0044299274642146617 0 0.0024248672128981742 -0.004921066020648907 0 0.0028114140893637641 -0.0053474473310905881 0 0.0028907754599654585 -0.0044299274642146617 0 0.0024248672128981742 -0.004921066020648907 0 0.0025503259661329675 -0.0043984498500066593 0 0.0024248672128981742 -0.004921066020648907 0 0.0025503259661329675 -0.0043984498500066593 0 0.0022538646838268367 -0.0042392546806140101 0 0.0024248672128981742 -0.004921066020648907 0 0.0022538646838268367 -0.0042392546806140101 0 0.0019453938786514254 -0.0048386636731282831 0 0.0019453938786514254 -0.0048386636731282831 0 0.0016202062651449393 -0.0044826707244674645 0 0.0014709706932069392 -0.0051303762663350485 0 0.0016202062651449393 -0.0044826707244674645 0 0.0014709706932069392 -0.0051303762663350485 0 0.0010082761109516257 -0.0050556984625394884 0 0.0022538646838268367 -0.0042392546806140101 0 0.0019453938786514254 -0.0048386636731282831 0 0.0016202062651449393 -0.0044826707244674645 0 0.0022538646838268367 -0.0042392546806140101 0 0.0016202062651449393 -0.0044826707244674645 0 0.0010243925404266252 -0.0039862632757255694 0 0.002497543679898196 -0.0037971334934236213 0 0.0022538646838268367 -0.0042392546806140101 0 0.002581796722477265 -0.0037708431111223811 0 0.0024180464178197997 -0.0041700379180539737 0 0.0014598092907439116 -0.0040803641420514795 0 0.0025503259661329675 -0.0043984498500066593 0 0.0022538646838268367 -0.0042392546806140101 0 0.0026194715777009348 -0.0039878174507073554 0 0.002497543679898196 -0.0037971334934236213 0 0.0022538646838268367 -0.0042392546806140101 0 0.0026194715777009348 -0.0039878174507073554 0 -0.0013492110005129605 -0.0045080192876171179 0 -0.0018023776324376376 -0.0047239738394010012 0 -0.0017174968114429944 -0.0042467261849883911 0 -0.0017174968114429944 -0.0042467261849883911 0 -0.0019634465317500236 -0.0039943544548037072 0 -0.0020582394502290735 -0.0043406727676667664 0 -0.0018023776324376376 -0.0047239738394010012 0 -0.0017174968114429944 -0.0042467261849883911 0 -0.0020582394502290735 -0.0043406727676667664 0 -0.0013492110005129605 -0.0045080192876171179 0 -0.0014158083327876958 -0.0040472021606264936 0 -0.0017174968114429944 -0.0042467261849883911 0 -0.0014158083327876958 -0.0040472021606264936 0 -0.0017174968114429944 -0.0042467261849883911 0 -0.0017065728372480863 -0.003898605753905258 0 -0.0014158083327876958 -0.0040472021606264936 0 -0.0015833431685146175 -0.0035553913518971947 0 -0.0017065728372480863 -0.003898605753905258 0 -0.0015833431685146175 -0.0035553913518971947 0 -0.0018683935386212985 -0.0037091579294746282 0 -0.0017065728372480863 -0.003898605753905258 0 -0.0018683935386212985 -0.0037091579294746282 0 -0.0017065728372480863 -0.003898605753905258 0 -0.0019634465317500236 -0.0039943544548037072 0 -0.0017174968114429944 -0.0042467261849883911 0 -0.0017065728372480863 -0.003898605753905258 0 -0.0019634465317500236 -0.0039943544548037072 0 -0.0019634465317500236 -0.0039943544548037072 0 -0.0021188320535993743 -0.0037235745771447863 0 -0.0022438507356189394 -0.0039995592202761946 0 -0.0019634465317500236 -0.0039943544548037072 0 -0.0022438507356189394 -0.0039995592202761946 0 -0.0020582394502290735 -0.0043406727676667664 0 -0.0018683935386212985 -0.0037091579294746282 0 -0.0019634465317500236 -0.0039943544548037072 0 -0.0021188320535993743 -0.0037235745771447863 0 -0.0022751860414448916 -0.0035300463893936161 0 -0.0021188320535993743 -0.0037235745771447863 0 -0.0023656882183395807 -0.0037463243313979253 0 -0.0021188320535993743 -0.0037235745771447863 0 -0.0022438507356189394 -0.0039995592202761946 0 -0.0023656882183395807 -0.0037463243313979253 0 -0.0023696402054441791 -0.0044598115003546294 0 -0.0021817225943523929 -0.0048474072683524503 0 -0.0024157845290904431 -0.0047399093540168519 0 -0.0023544951804614499 -0.0045938069859394063 0 -0.002158593895899002 -0.0049101865895999327 0 -0.0022438507356189394 -0.0039995592202761946 0 -0.0020582394502290735 -0.0043406727676667664 0 -0.0024941068439907799 -0.0042196743429792263 0 -0.0020582394502290735 -0.0043406727676667664 0 -0.0024941068439907799 -0.0042196743429792263 0 -0.002158593895899002 -0.0049101865895999327 0 -0.0018023776324376376 -0.0047239738394010012 0 -0.0020582394502290735 -0.0043406727676667664 0 -0.002158593895899002 -0.0049101865895999327 0 0.0040898474705708433 -0.0040435006086242606 0 0.0037574733643284861 -0.0037399364562978946 0 0.0036718124368067813 -0.0038656600717776038 0 0.0040898474705708433 -0.0040435006086242606 0 0.0036718124368067813 -0.0038656600717776038 0 0.0038164708876280767 -0.0041191877288279935 0 0.0040898474705708433 -0.0040435006086242606 0 0.0037528891454543314 -0.0034515529164665113 0 0.0037574733643284861 -0.0037399364562978946 0 0.00083365378631942999 -0.0044019820810013519 0 0.00074296957245705226 -0.0040477914901568199 0 -0.0024157845290904431 -0.0047399093540168519 0 -0.0023544951804614499 -0.0045938069859394063 0 -0.0023868355449569189 -0.0044483947372761313 0 -0.0024941068439907799 -0.0042196743429792263 0 -0.0024724588390699987 -0.0038470060610068615 0 -0.0027336322615836776 -0.003641067654516402 0 -0.0023544951804614499 -0.0045938069859394063 0 -0.0023631631335055687 -0.0044102605339396009 0 -0.0023868355449569189 -0.0044483947372761313 0 -0.0023696402054441791 -0.0044598115003546294 0 -0.0028255475608767282 -0.0039044941768349795 0 -0.0022438507356189394 -0.0039995592202761946 0 -0.0024941068439907799 -0.0042196743429792263 0 -0.0024724588390699987 -0.0038470060610068615 0 -0.0022438507356189394 -0.0039995592202761946 0 -0.0023656882183395807 -0.0037463243313979253 0 -0.0024724588390699987 -0.0038470060610068615 0 -0.0022751860414448916 -0.0035300463893936161 0 -0.0023656882183395807 -0.0037463243313979253 0 -0.0025064038941481508 -0.0036344724711300943 0 -0.0023656882183395807 -0.0037463243313979253 0 -0.0024724588390699987 -0.0038470060610068615 0 -0.0025064038941481508 -0.0036344724711300943 0 -0.0024724588390699987 -0.0038470060610068615 0 -0.0025064038941481508 -0.0036344724711300943 0 -0.0027336322615836776 -0.003641067654516402 0 0.0037528891454543314 -0.0034515529164665113 0 0.003523442829095435 -0.0036035859505912284 0 0.0037574733643284861 -0.0037399364562978946 0 0.0037528891454543314 -0.0034515529164665113 0 0.0034047597232977128 -0.00334948353400974 0 0.003523442829095435 -0.0036035859505912284 0 0.0034137552344468409 -0.0039968251901138178 0 0.003523442829095435 -0.0036035859505912284 0 0.0036718124368067813 -0.0038656600717776038 0 0.003523442829095435 -0.0036035859505912284 0 0.0037574733643284861 -0.0037399364562978946 0 0.0036718124368067813 -0.0038656600717776038 0 0.0034137552344468409 -0.0039968251901138178 0 0.0036718124368067813 -0.0038656600717776038 0 0.0038164708876280767 -0.0041191877288279935 0 0.0034137552344468409 -0.0039968251901138178 0 0.0034196128510253013 -0.0045027512172447484 0 0.0037664797594502684 -0.0044162799036706023 0 0.0034137552344468409 -0.0039968251901138178 0 0.0038164708876280767 -0.0041191877288279935 0 0.0037664797594502684 -0.0044162799036706023 0 0.0034196128510253013 -0.0045027512172447484 0 0.0037664797594502684 -0.0044162799036706023 0 0.0037699180125562587 -0.0048371075018298921 0 0.0037664797594502684 -0.0044162799036706023 0 0.0037699180125562587 -0.0048371075018298921 0 0.0040078319769359739 -0.0046819832291882689 0 0.0037699180125562587 -0.0048371075018298921 0 0.0040078319769359739 -0.0046819832291882689 0 0.004140657790920493 -0.0049082272969265556 0 0.0035936903116723777 -0.0047805726631658585 0 0.0049629798774402725 -0.0051757404194775775 0 0.0040078319769359739 -0.0046819832291882689 0 0.0043101306814290266 -0.0046320521091800116 0 0.004140657790920493 -0.0049082272969265556 0 0.0040078319769359739 -0.0046819832291882689 0 0.0040091620455524135 -0.0043851892868587393 0 0.0043101306814290266 -0.0046320521091800116 0 0.0040898474705708433 -0.0040435006086242606 0 0.0040091620455524135 -0.0043851892868587393 0 0.0043101306814290266 -0.0046320521091800116 0 0.0037664797594502684 -0.0044162799036706023 0 0.0040078319769359739 -0.0046819832291882689 0 0.0040091620455524135 -0.0043851892868587393 0 0.0040898474705708433 -0.0040435006086242606 0 0.0038164708876280767 -0.0041191877288279935 0 0.0040091620455524135 -0.0043851892868587393 0 0.0038164708876280767 -0.0041191877288279935 0 0.0037664797594502684 -0.0044162799036706023 0 0.0040091620455524135 -0.0043851892868587393 0 0.00083365378631942999 -0.0044019820810013519 0 0.00096601511393873179 -0.0049626324418093866 0 -0.0024157845290904431 -0.0047399093540168519 0 -0.002158593895899002 -0.0049101865895999327 0 -0.0023038640092766412 -0.0054134384789169899 0 -0.0018023776324376376 -0.0047239738394010012 0 -0.002158593895899002 -0.0049101865895999327 0 -0.001949806171027868 -0.0052257453913428205 0 -0.002158593895899002 -0.0049101865895999327 0 -0.0023038640092766412 -0.0054134384789169899 0 -0.001949806171027868 -0.0052257453913428205 0 0.00096601511393873179 -0.0049626324418093866 0 0.0015094403120979084 -0.0059728573404820044 0 -0.0023038640092766412 -0.0054134384789169899 0 -0.0018465415593022156 -0.0057171843219038579 0 -0.001975773730765208 -0.0063321944034752048 0 -0.0023038640092766412 -0.0054134384789169899 0 -0.0018465415593022156 -0.0057171843219038579 0 -0.001949806171027868 -0.0052257453913428205 0 -0.0018465415593022156 -0.0057171843219038579 0 -0.0016204011007545027 -0.0053934522151149545 0 -0.001949806171027868 -0.0052257453913428205 0 -0.0013940497509896635 -0.0060080907140597868 0 -0.0018465415593022156 -0.0057171843219038579 0 -0.0016204011007545027 -0.0053934522151149545 0 -0.0016204011007545027 -0.0053934522151149545 0 -0.001949806171027868 -0.0052257453913428205 0 -0.0014898447510514753 -0.004978235941148294 0 -0.0018023776324376376 -0.0047239738394010012 0 -0.001949806171027868 -0.0052257453913428205 0 -0.0014898447510514753 -0.004978235941148294 0 -0.0013492110005129605 -0.0045080192876171179 0 -0.0018023776324376376 -0.0047239738394010012 0 -0.0014898447510514753 -0.004978235941148294 0 -0.00093714246215429841 -0.0070757478436930315 0 -0.0014417621808499839 -0.0068681619749848223 0 -0.0012207694659293409 -0.0074343811913276363 0 0.0015094403120979084 -0.0059728573404820044 0 0.0023726132552972646 -0.0070563426023616685 0 0.0053750232684780649 -0.0055607981254133486 0 0.0049624070684872066 -0.0063720559133333236 0 0.0058251760146978346 -0.0065344917880306233 0 -0.0011757779882442913 -0.0067621341092279795 0 -0.0013940497509896635 -0.0060080907140597868 0 -0.001975773730765208 -0.0063321944034752048 0 -0.0013940497509896635 -0.0060080907140597868 0 -0.0018465415593022156 -0.0057171843219038579 0 -0.001975773730765208 -0.0063321944034752048 0 -0.0016791654285785314 -0.0068648581764900324 0 0.0015094403120979084 -0.0059728573404820044 0 0.0053750232684780649 -0.0055607981254133486 0 0.0046035859348788422 -0.0058544366984342134 0 0.0046099431755514224 -0.0052189053652000484 0 0.0015094403120979084 -0.0059728573404820044 0 0.0049629798774402725 -0.0051757404194775775 0 0.0043101306814290266 -0.0046320521091800116 0 0.0044535916725461644 -0.005045129404819354 0 0.004140657790920493 -0.0049082272969265556 0 0.0053750232684780649 -0.0055607981254133486 0 0.0049624070684872066 -0.0063720559133333236 0 0.0046035859348788422 -0.0058544366984342134 0 0.0049624070684872066 -0.0063720559133333236 0 0.0046035859348788422 -0.0058544366984342134 0 0.0044040133686306269 -0.0068287818379240382 0 0.0046035859348788422 -0.0058544366984342134 0 0.0040190361007285316 -0.0059395991194019487 0 0.0044040133686306269 -0.0068287818379240382 0 0.0037699180125562587 -0.0048371075018298921 0 0.0046099431755514224 -0.0052189053652000484 0 0.0040790756024007531 -0.0054230752758069739 0 0.0046035859348788422 -0.0058544366984342134 0 0.0046099431755514224 -0.0052189053652000484 0 0.0040790756024007531 -0.0054230752758069739 0 0.0046035859348788422 -0.0058544366984342134 0 0.0040790756024007531 -0.0054230752758069739 0 0.0040190361007285316 -0.0059395991194019487 0 0.0040790756024007531 -0.0054230752758069739 0 0.0040190361007285316 -0.0059395991194019487 0 0.0034484801430878613 -0.0056690373694466044 0 0.0037699180125562587 -0.0048371075018298921 0 0.0040790756024007531 -0.0054230752758069739 0 0.0034484801430878613 -0.0056690373694466044 0 0.0040190361007285316 -0.0059395991194019487 0 0.0037899600490836388 -0.0064703010869882963 0 0.0034484801430878613 -0.0056690373694466044 0 0.0037899600490836388 -0.0064703010869882963 0 0.0035561625099747311 -0.0070198957873340738 0 0.0044040133686306269 -0.0068287818379240382 0 0.0040190361007285316 -0.0059395991194019487 0 0.0037899600490836388 -0.0064703010869882963 0 0.0044040133686306269 -0.0068287818379240382 0 0.0037899600490836388 -0.0064703010869882963 0 0.0035561625099747311 -0.0070198957873340738 0 0.0032526341546682399 -0.0064191497994849286 0 0.0036602212509328088 -0.0078175474840111864 0 0.0035561625099747311 -0.0070198957873340738 0 0.0044040133686306269 -0.0068287818379240382 0 0.0036602212509328088 -0.0078175474840111864 0 0.0044478729563920457 -0.007717303205538993 0 0.0044040133686306269 -0.0068287818379240382 0 0.0044478729563920457 -0.007717303205538993 0 0.0044040133686306269 -0.0068287818379240382 0 0.0051653247997617731 -0.007609115363447984 0 0.0049624070684872066 -0.0063720559133333236 0 0.0044040133686306269 -0.0068287818379240382 0 0.0053234162060097042 -0.0069404560363257005 0 0.0044040133686306269 -0.0068287818379240382 0 0.0053234162060097042 -0.0069404560363257005 0 0.0051653247997617731 -0.007609115363447984 0 0.0062635670451223271 -0.0075238671781647504 0 0.0053234162060097042 -0.0069404560363257005 0 0.0051653247997617731 -0.007609115363447984 0 0.0049624070684872066 -0.0063720559133333236 0 0.0053234162060097042 -0.0069404560363257005 0 0.0058251760146978346 -0.0065344917880306233 0 0.0062635670451223271 -0.0075238671781647504 0 0.0053234162060097042 -0.0069404560363257005 0 0.0058251760146978346 -0.0065344917880306233 0 0.0022496732299484381 -0.0057406040600722187 0 0.0026336895338323228 -0.0061588667827590536 0 0.0019853857073302223 -0.0064338406461391003 0 0.0017956295629971356 -0.0059111605901392174 0 0.0022496732299484381 -0.0057406040600722187 0 0.0019853857073302223 -0.0064338406461391003 0 0.0017956295629971356 -0.0059111605901392174 0 0.0019853857073302223 -0.0064338406461391003 0 0.0014079899738951543 -0.0064907368402447674 0 0.0017956295629971356 -0.0059111605901392174 0 0.0013513802595568987 -0.0059929455126155572 0 0.0014079899738951543 -0.0064907368402447674 0 0.0013513802595568987 -0.0059929455126155572 0 0.0014079899738951543 -0.0064907368402447674 0 0.00087386764452596901 -0.0062030538461002706 0 0.0013513802595568987 -0.0059929455126155572 0 0.0014168576868240702 -0.0056128769521666651 0 0.0010500820093748719 -0.0057890915229005593 0 0.0017956295629971356 -0.0059111605901392174 0 0.0013513802595568987 -0.0059929455126155572 0 0.0014168576868240702 -0.0056128769521666651 0 0.0014168576868240702 -0.0056128769521666651 0 0.0014709706932069392 -0.0051303762663350485 0 0.0018989469363602822 -0.0053755757314186883 0 0.0017956295629971356 -0.0059111605901392174 0 0.0014168576868240702 -0.0056128769521666651 0 0.0018989469363602822 -0.0053755757314186883 0 0.0014168576868240702 -0.0056128769521666651 0 0.0014709706932069392 -0.0051303762663350485 0 0.00088200426656649775 -0.0054599684369202681 0 0.0019453938786514254 -0.0048386636731282831 0 0.0014709706932069392 -0.0051303762663350485 0 0.0018989469363602822 -0.0053755757314186883 0 0.0024248672128981742 -0.004921066020648907 0 0.0019453938786514254 -0.0048386636731282831 0 0.0018989469363602822 -0.0053755757314186883 0 0.0024248672128981742 -0.004921066020648907 0 0.0022496732299484381 -0.0057406040600722187 0 0.0018989469363602822 -0.0053755757314186883 0 0.0017956295629971356 -0.0059111605901392174 0 0.0022496732299484381 -0.0057406040600722187 0 0.0018989469363602822 -0.0053755757314186883 0 0.0024248672128981742 -0.004921066020648907 0 0.0022496732299484381 -0.0057406040600722187 0 0.0028114140893637641 -0.0053474473310905881 0 0.003243441061755557 -0.0049109424681140334 0 0.0037699180125562587 -0.0048371075018298921 0 0.0034484801430878613 -0.0056690373694466044 0 0.003243441061755557 -0.0049109424681140334 0 0.0028114140893637641 -0.0053474473310905881 0 0.0034484801430878613 -0.0056690373694466044 0 0.0037899600490836388 -0.0064703010869882963 0 0.0034484801430878613 -0.0056690373694466044 0 0.0032526341546682399 -0.0064191497994849286 0 0.0034484801430878613 -0.0056690373694466044 0 0.0026336895338323228 -0.0061588667827590536 0 0.0032526341546682399 -0.0064191497994849286 0 0.0028114140893637641 -0.0053474473310905881 0 0.0034484801430878613 -0.0056690373694466044 0 0.0026336895338323228 -0.0061588667827590536 0 0.0022496732299484381 -0.0057406040600722187 0 0.0028114140893637641 -0.0053474473310905881 0 0.0026336895338323228 -0.0061588667827590536 0 0.0026336895338323228 -0.0061588667827590536 0 0.0029015750451739271 -0.0068292396799605791 0 0.0032526341546682399 -0.0064191497994849286 0 0.0026336895338323228 -0.0061588667827590536 0 0.0029015750451739271 -0.0068292396799605791 0 0.0022658655155550398 -0.0069849928053621205 0 0.0035561625099747311 -0.0070198957873340738 0 0.0029015750451739271 -0.0068292396799605791 0 0.0032526341546682399 -0.0064191497994849286 0 0.0035561625099747311 -0.0070198957873340738 0 0.0029015750451739271 -0.0068292396799605791 0 0.0027448491184960907 -0.0075517726417942991 0 0.0036602212509328088 -0.0078175474840111864 0 0.0035561625099747311 -0.0070198957873340738 0 0.0027448491184960907 -0.0075517726417942991 0 0.0027448491184960907 -0.0075517726417942991 0 0.0018470732977676912 -0.0076403881398432356 0 0.0022658655155550398 -0.0069849928053621205 0 0.0029015750451739271 -0.0068292396799605791 0 0.0027448491184960907 -0.0075517726417942991 0 0.0022658655155550398 -0.0069849928053621205 0 0.0018470732977676912 -0.0076403881398432356 0 0.0022658655155550398 -0.0069849928053621205 0 0.0016508053306942467 -0.0070807619669191208 0 0.0026336895338323228 -0.0061588667827590536 0 0.0022658655155550398 -0.0069849928053621205 0 0.0019853857073302223 -0.0064338406461391003 0 0.0022658655155550398 -0.0069849928053621205 0 0.0019853857073302223 -0.0064338406461391003 0 0.0016508053306942467 -0.0070807619669191208 0 0.0019853857073302223 -0.0064338406461391003 0 0.0014079899738951543 -0.0064907368402447674 0 0.0016508053306942467 -0.0070807619669191208 0 0.0014079899738951543 -0.0064907368402447674 0 0.001128573299760833 -0.0071291744559417499 0 0.0016508053306942467 -0.0070807619669191208 0 0.0014079899738951543 -0.0064907368402447674 0 0.001128573299760833 -0.0071291744559417499 0 0.00092895723395470869 -0.0067030173387596682 0 0.001128573299760833 -0.0071291744559417499 0 0.0016508053306942467 -0.0070807619669191208 0 0.0012670359611515567 -0.007703512966397541 0 0.0018470732977676912 -0.0076403881398432356 0 0.0016508053306942467 -0.0070807619669191208 0 0.0012670359611515567 -0.007703512966397541 0 0.001128573299760833 -0.0071291744559417499 0 0.0012670359611515567 -0.007703512966397541 0 0.00088314256775629874 -0.0075786053967747341 0 0.00088314256775629874 -0.0075786053967747341 0 0.00053130581734660981 -0.0077907047547027689 0 0.00063191621312163595 -0.007214185746149457 0 0.00053130581734660981 -0.0077907047547027689 0 0.00063191621312163595 -0.007214185746149457 0 0.00024544705922431738 -0.0074548272391649004 0 0.001128573299760833 -0.0071291744559417499 0 0.00088314256775629874 -0.0075786053967747341 0 0.00063191621312163595 -0.007214185746149457 0 0.0010886815796153327 -0.0080587811300837451 0 0.0024745767824476158 -0.0076828940757317126 0 -0.000136128340886425 -0.0075743184293487016 0 7.0132312990915668e-05 -0.007031357869137226 0 -0.00024014213191404779 -0.0067545720206539008 0 0.00013223209405691241 -0.007900847896257418 0 -0.00018142627229712823 -0.0075900156714341811 0 0.00024544705922431738 -0.0074548272391649004 0 0.00013223209405691241 -0.007900847896257418 0 0.00053130581734660981 -0.0077907047547027689 0 0.00024544705922431738 -0.0074548272391649004 0 -0.00018142627229712823 -0.0075900156714341811 0 0.00024544705922431738 -0.0074548272391649004 0 7.0132312990915668e-05 -0.007031357869137226 0 0.00063191621312163595 -0.007214185746149457 0 0.00024544705922431738 -0.0074548272391649004 0 7.0132312990915668e-05 -0.007031357869137226 0 0.0010886815796153327 -0.0080587811300837451 0 0.00024052711772924246 -0.0072222775431244743 0 7.0132312990915668e-05 -0.007031357869137226 0 0.00013090344988977762 -0.0066732975782056829 0 -0.00024014213191404779 -0.0067545720206539008 0 7.0132312990915668e-05 -0.007031357869137226 0 0.00013090344988977762 -0.0066732975782056829 0 0.0004631059776780163 -0.0068183538697216715 0 0.00013090344988977762 -0.0066732975782056829 0 0.0004631059776780163 -0.0068183538697216715 0 0.00034855588345532209 -0.0063923724712299625 0 0.00013090344988977762 -0.0066732975782056829 0 0.00034855588345532209 -0.0063923724712299625 0 1.3558958184373223e-05 -0.0063610261167740562 0 0.00013090344988977762 -0.0066732975782056829 0 -0.00024014213191404779 -0.0067545720206539008 0 1.3558958184373223e-05 -0.0063610261167740562 0 0.001128573299760833 -0.0071291744559417499 0 0.00063191621312163595 -0.007214185746149457 0 0.00092895723395470869 -0.0067030173387596682 0 0.00063191621312163595 -0.007214185746149457 0 7.0132312990915668e-05 -0.007031357869137226 0 0.0004631059776780163 -0.0068183538697216715 0 0.00063191621312163595 -0.007214185746149457 0 0.0004631059776780163 -0.0068183538697216715 0 0.00092895723395470869 -0.0067030173387596682 0 0.0004631059776780163 -0.0068183538697216715 0 0.00065432234100699135 -0.0065019552542175778 0 0.00092895723395470869 -0.0067030173387596682 0 0.0004631059776780163 -0.0068183538697216715 0 0.00065432234100699135 -0.0065019552542175778 0 0.00034855588345532209 -0.0063923724712299625 0 0.00065432234100699135 -0.0065019552542175778 0 0.00092895723395470869 -0.0067030173387596682 0 0.00087386764452596901 -0.0062030538461002706 0 0.0014079899738951543 -0.0064907368402447674 0 0.00092895723395470869 -0.0067030173387596682 0 0.00087386764452596901 -0.0062030538461002706 0 0.0013513802595568987 -0.0059929455126155572 0 0.00087386764452596901 -0.0062030538461002706 0 0.0010500820093748719 -0.0057890915229005593 0 0.00087386764452596901 -0.0062030538461002706 0 0.0010500820093748719 -0.0057890915229005593 0 0.00069959008660790589 -0.0057222270998356457 0 0.00087386764452596901 -0.0062030538461002706 0 0.00069959008660790589 -0.0057222270998356457 0 0.0005563141605111104 -0.0061891095800450146 0 0.00069959008660790589 -0.0057222270998356457 0 0.0005563141605111104 -0.0061891095800450146 0 0.00021270003030220307 -0.0060994459586093119 0 0.00065432234100699135 -0.0065019552542175778 0 0.00087386764452596901 -0.0062030538461002706 0 0.0005563141605111104 -0.0061891095800450146 0 0.00065432234100699135 -0.0065019552542175778 0 0.0005563141605111104 -0.0061891095800450146 0 0.00034855588345532209 -0.0063923724712299625 0 -0.00013882055707983 -0.0057333820361478117 0 0.0017864326673528131 -0.0062897861197622916 0 -0.00024014213191404779 -0.0067545720206539008 0 1.3558958184373223e-05 -0.0063610261167740562 0 -0.00034707785380980383 -0.0058869288330078194 0 0.00069959008660790589 -0.0057222270998356457 0 0.00032570745405162118 -0.0056541683341949332 0 -0.0001116909112145878 -0.0058452319262635609 0 0.00069959008660790589 -0.0057222270998356457 0 0.00021270003030220307 -0.0060994459586093119 0 -0.00034707785380980383 -0.0058869288330078194 0 0.00034855588345532209 -0.0063923724712299625 0 0.00021270003030220307 -0.0060994459586093119 0 1.3558958184373223e-05 -0.0063610261167740562 0 0.0005563141605111104 -0.0061891095800450146 0 0.00034855588345532209 -0.0063923724712299625 0 0.00021270003030220307 -0.0060994459586093119 0 0.00021270003030220307 -0.0060994459586093119 0 1.3558958184373223e-05 -0.0063610261167740562 0 -0.00034707785380980383 -0.0058869288330078194 0 0.0002463451555924226 -0.0052924302493394726 0 -0.00027881388020240731 -0.0052244933218574593 0 0.00053367703596558357 -0.0048836933037307694 0 0.001736597148585195 -0.004350824741278154 0 0.0004101634707550394 -0.0048948011261329581 0 0.00032570745405162118 -0.0056541683341949332 0 0.00088200426656649775 -0.0054599684369202681 0 -0.00015605460073295761 -0.0055720099680255297 0 0.0002463451555924226 -0.0052924302493394726 0 0.00088200426656649775 -0.0054599684369202681 0 -0.00025073209193293689 -0.0054927257095448529 0 0.00014334179588821683 -0.0055103490545720347 0 0.0014126253214332642 -0.0054227276420157232 0 0.0002463451555924226 -0.0052924302493394726 0 -0.00027881388020240731 -0.0052244933218574593 0 -0.00025073209193293689 -0.0054927257095448529 0 0.00032570745405162118 -0.0056541683341949332 0 -0.00015605460073295761 -0.0055720099680255297 0 -0.0001116909112145878 -0.0058452319262635609 0 0.0002463451555924226 -0.0052924302493394726 0 0.00065916041570153548 -0.0051787048197977324 0 0.00088200426656649775 -0.0054599684369202681 0 0.0002463451555924226 -0.0052924302493394726 0 0.00065916041570153548 -0.0051787048197977324 0 0.00053367703596558357 -0.0048836933037307694 0 0.00065916041570153548 -0.0051787048197977324 0 0.0010082761109516257 -0.0050556984625394884 0 0.00053367703596558357 -0.0048836933037307694 0 0.0014709706932069392 -0.0051303762663350485 0 0.0010082761109516257 -0.0050556984625394884 0 0.00088200426656649775 -0.0054599684369202681 0 0.00065916041570153548 -0.0051787048197977324 0 0.0010082761109516257 -0.0050556984625394884 0 0.00088200426656649775 -0.0054599684369202681 0 0.0010500820093748719 -0.0057890915229005593 0 0.00069959008660790589 -0.0057222270998356457 0 0.00088200426656649775 -0.0054599684369202681 0 0.0014168576868240702 -0.0056128769521666651 0 0.0010500820093748719 -0.0057890915229005593 0 0.00088200426656649775 -0.0054599684369202681 0 0.00069959008660790589 -0.0057222270998356457 0 0.00032570745405162118 -0.0056541683341949332 0 0.00088200426656649775 -0.0054599684369202681 0 0.0079726090602343022 -0.00087592837094415787 0 0.0082217983718778052 -0.00091161624924674918 0 0.0081517883454824205 -0.00078679546823143861 0 0.0061823859801627577 -0.0031604076317301869 0 0.0061750472764598822 -0.0045118848882727139 0 0.0058269238579026555 -0.0043803030159082967 0 0.0057883572993886294 -0.0038923228221136807 0 0.0074189675926589161 -0.0037783823527728164 0 0.0061750472764598822 -0.0045118848882727139 0 0.0074977061630382503 -0.0040015631624171714 0 0.0061823859801627577 -0.0031604076317301869 0 0.0074977061630382503 -0.0040015631624171714 0 0.0082217983718778052 -0.00091161624924674918 0 0.0082037041401013915 -0.0011473861068278918 0 0.0084534791415588235 -0.0011318752691961392 0 0.0079726090602343022 -0.00087592837094415787 0 0.0082217983718778052 -0.00091161624924674918 0 0.0082037041401013915 -0.0011473861068278918 0 0.0061823859801627577 -0.0031604076317301869 0 0.0062342205193155961 -0.0019951200807827294 0 0.0079726090602343022 -0.00087592837094415787 0 0.0082037041401013915 -0.0011473861068278918 0 0.0080149087122634299 -0.0012487685323165825 0 0.004409301515980373 -0.0030784384920765286 0 0.0047962485214335668 -0.0029310953614800129 0 0.0043753666838562749 -0.0026663874706909941 0 0.0061750472764598822 -0.0045118848882727139 0 0.0014126253214332642 -0.0054227276420157232 0 0.005686593954308739 -0.0042109546757617645 0 0.0056482405657173702 -0.0037249428966728269 0 0.001930897387836352 -0.0039902796618494166 0 0.0055432816978380709 -0.0064065612365655257 0 0.0029331569834434024 -0.0065919704778739921 0 0.0041740819665543553 -0.0058337309173750957 0 0.005686593954308739 -0.0042109546757617645 0 0.0021167675839393026 -0.0055637080723676636 0 0.001930897387836352 -0.0039902796618494166 0 0.001736597148585195 -0.004350824741278154 0 0.0014126253214332642 -0.0054227276420157232 0 0.0061823859801627577 -0.0031604076317301869 0 0.001736597148585195 -0.004350824741278154 0 0.0024745767824476158 -0.0076828940757317126 0 0.0017864326673528131 -0.0062897861197622916 0 0.0048796458316683949 -0.0070826656717287795 0 0.0038815733162305792 -0.0072341331491560176 0 0.0044478872141571948 -0.007846383155597542 0 0.0050351072525301804 -0.0082983289687528546 0 0.0048796458316683949 -0.0070826656717287795 0 0.0044478872141571948 -0.007846383155597542 0 0.0041740819665543553 -0.0058337309173750957 0 0.0027880954896695146 -0.0053599399300169916 0 0.0054310685588039691 -0.0049765402692212536 0 0.0055432816978380709 -0.0064065612365655257 0 0.0041740819665543553 -0.0058337309173750957 0 0.0054310685588039691 -0.0049765402692212536 0 0.0017864326673528131 -0.0062897861197622916 0 0.0068241651736251309 -0.0070875206605375283 0 0.0029331569834434024 -0.0065919704778739921 0 0.0041740819665543553 -0.0058337309173750957 0 0.0027880954896695146 -0.0053599399300169916 0 0.0014126253214332642 -0.0054227276420157232 0 0.0017864326673528131 -0.0062897861197622916 0 0.0068241651736251309 -0.0070875206605375283 0 0.0083034504598147752 -0.0070663935359137828 0 0.0076833275235013484 -0.0054780044985356354 0 0.0072157503460342142 -0.0049825720352390298 0 0.0084725221590966609 -0.0047943043839228242 0 0.0091177882023273926 -0.0091073303317805079 0 0.0084747181361352116 -0.0099576600671435044 0 0.0081385686493082518 -0.0092648516010919325 0 0.0072574529193239375 -0.0055095141293423694 0 0.0076833275235013484 -0.0054780044985356354 0 0.0072157503460342142 -0.0049825720352390298 0 0.0061750472764598822 -0.0045118848882727139 0 0.0068241651736251309 -0.0070875206605375283 0 0.0091177882023273926 -0.0091073303317805079 0 0.0084747181361352116 -0.0099576600671435044 0 0.009220917036050845 -0.010298546959999983 0 0.0068241651736251309 -0.0070875206605375283 0 0.0065812208584080534 -0.0098047590495793143 0 0.0038815733162305792 -0.0072341331491560176 0 0.0039908629625067084 -0.0087794908673028294 0 0.0044478872141571948 -0.007846383155597542 0 0.0050351072525301804 -0.0082983289687528546 0 0.0039908629625067084 -0.0087794908673028294 0 0.0044478872141571948 -0.007846383155597542 0 0.0041103786019911622 -0.010364725051306445 0 0.005190578013584436 -0.0095383942387645415 0 0.0039908629625067084 -0.0087794908673028294 0 0.0067532625287087481 -0.010705096012515989 0 0.0065812208584080534 -0.0098047590495793143 0 0.005190578013584436 -0.0095383942387645415 0 0.0050351072525301804 -0.0082983289687528546 0 0.0039908629625067084 -0.0087794908673028294 0 0.0084747181361352116 -0.0099576600671435044 0 0.009220917036050845 -0.010298546959999983 0 0.0083060184474766912 -0.010985854353982624 0 0.0093081258886480635 -0.011503760068305025 0 0.009220917036050845 -0.010298546959999983 0 0.0083060184474766912 -0.010985854353982624 0 0.0084747181361352116 -0.0099576600671435044 0 0.0083060184474766912 -0.010985854353982624 0 0.0075906168869118223 -0.010142366303850752 0 0.0083060184474766912 -0.010985854353982624 0 0.0073315913344124805 -0.011035570640239391 0 0.0075906168869118223 -0.010142366303850752 0 0.0073315913344124805 -0.011035570640239391 0 0.0075906168869118223 -0.010142366303850752 0 0.0067577693231810664 -0.010243167114446129 0 0.0081220300257352305 -0.0098857661326064491 0 0.0096640461691956652 -0.0063763381508728329 0 0.0075906168869118223 -0.010142366303850752 0 0.0081385686493082518 -0.0092648516010919325 0 0.0071582815831018635 -0.0094076318863484457 0 0.0075906168869118223 -0.010142366303850752 0 0.0067577693231810664 -0.010243167114446129 0 0.0071582815831018635 -0.0094076318863484457 0 0.0084747181361352116 -0.0099576600671435044 0 0.0075906168869118223 -0.010142366303850752 0 0.0081385686493082518 -0.0092648516010919325 0 0.01204923601994097 -0.0096214988005202569 0 0.012749971304436511 -0.0087681515528189053 0 0.012248297903704977 -0.0081430858839442333 0 0.012656722693770179 -0.0099609442987188494 0 0.012623937904955747 -0.0075295313376652689 0 0.012616046511326929 -0.010380336380226344 0 0.012688949949235983 -0.010272225091580038 0 0.012730052333026307 -0.010322977797492387 0 0.012656722693770179 -0.0099609442987188494 0 0.011400543349567489 -0.0090386494639857814 0 0.011400543349567489 -0.0090386494639857814 0 0.012623937904955747 -0.0075295313376652689 0 0.0095052805393361396 -0.011337992548851039 0 0.0081220300257352305 -0.0098857661326064491 0 0.0088961326853556882 -0.009554020527292522 0 0.0093230342976837483 -0.010087683307639959 0 0.0099101396153070259 -0.008830652229447112 0 0.0073315913344124805 -0.011035570640239391 0 0.006367456796026569 -0.011079608684504463 0 0.0067577693231810664 -0.010243167114446129 0 0.0088961326853556882 -0.009554020527292522 0 0.0096934561155009973 -0.0085605582977968265 0 0.0099101396153070259 -0.008830652229447112 0 0.011400543349567489 -0.0090386494639857814 0 0.010406525920604605 -0.0078608990879898682 0 0.011400543349567489 -0.0090386494639857814 0 0.0095052805393361396 -0.011337992548851039 0 0.011181578445434192 -0.0070899146549805647 0 0.011280596308299161 -0.0071080260557636575 0 0.011054729198346023 -0.0072213589597818848 0 0.011280596308299161 -0.0071080260557636575 0 0.011387644197999763 -0.0071762427765326934 0 0.011054729198346023 -0.0072213589597818848 0 0.0096934561155009973 -0.0085605582977968265 0 0.0099101396153070259 -0.008830652229447112 0 0.010494745165155433 -0.0075383929179494878 0 0.010406525920604605 -0.0078608990879898682 0 0.0096640461691956652 -0.0063763381508728329 0 0.011302214232357352 -0.0069711008116094889 0 0.011181578445434192 -0.0070899146549805647 0 0.011280596308299161 -0.0071080260557636575 0 0.011302214232357352 -0.0069711008116094889 0 0.011280596308299161 -0.0071080260557636575 0 0.011398860766575938 -0.0070745991974004276 0 0.011280596308299161 -0.0071080260557636575 0 0.011387644197999763 -0.0071762427765326934 0 0.011398860766575938 -0.0070745991974004276 0 0.014503773808911883 -0.0057262082488789591 0 0.012623937904955747 -0.0075295313376652689 0 0.012935226987246621 -0.0059438677681502268 0 0.013257067531750414 -0.0058952906819415033 0 0.013202634209331453 -0.0062863337618171491 0 0.014503773808911883 -0.0057262082488789591 0 0.012583089130015587 -0.0049826959132439931 0 0.012583089130015587 -0.0049826959132439931 0 0.012623937904955747 -0.0075295313376652689 0 0.014149185271763325 -0.0030807296452223638 0 0.013888631373319924 -0.0031163462535520048 0 0.013830304782692744 -0.0035111307733978222 0 0.011942176268114838 -0.0029755500170712021 0 0.011878946584699688 -0.0034175621982896944 0 0.011333391116797613 -0.0034578290558951053 0 0.012583089130015587 -0.0049826959132439931 0 0.012688317947018204 -0.00048214238916995274 0 0.012688317947018204 -0.00048214238916995274 0 0.012006884302966253 -0.00081229643142784343 0 0.011942176268114838 -0.0029755500170712021 0 0.011333391116797613 -0.0034578290558951053 0 0.01097844291964434 -0.0031134364106919646 0 0.012583089130015587 -0.0049826959132439931 0 0.0096640461691956652 -0.0063763381508728329 0 0.012435443666183595 0.0018241162019277102 0 0.012218473956295777 0.0013739630326196389 0 0.012822875894318587 0.0012403527944737393 0 0.01287721897042279 0.0018458648591826786 0 0.012435443666183595 0.0018241162019277102 0 0.012822875894318587 0.0012403527944737393 0 0.013240259116273594 0.0016573138259957587 0 0.012965162327127529 0.0019685143880867409 0 0.012822875894318587 0.0012403527944737393 0 0.012688317947018204 -0.00048214238916995274 0 0.01294484693151356 0.0022592803110498042 0 0.0084725221590966609 -0.0047943043839228242 0 0.008784375043459974 -0.0050373791326034124 0 0.0096140376203366924 -0.0046553336688751551 0 0.0078178990154857044 -0.0053681072143310091 0 0.008784375043459974 -0.0050373791326034124 0 0.0092761230083130402 -0.005301103665057043 0 0.0076833275235013484 -0.0054780044985356354 0 0.0084725221590966609 -0.0047943043839228242 0 0.008784375043459974 -0.0050373791326034124 0 0.0074977061630382503 -0.0040015631624171714 0 0.0086351827319553123 -0.0052117465387220658 0 0.012006884302966253 -0.00081229643142784343 0 0.010346519096695789 -0.0016598824190549827 0 0.0083034504598147752 -0.0070663935359137828 0 0.0096640461691956652 -0.0063763381508728329 0 0.011333391116797613 -0.0034578290558951053 0 0.01097844291964434 -0.0031134364106919646 0 0.01078798917461043 -0.0034916446827080345 0 0.0096640461691956652 -0.0063763381508728329 0 0.0096592994493865676 -0.005047264044907288 0 0.0096640461691956652 -0.0063763381508728329 0 0.010346519096695789 -0.0016598824190549827 0 0.008784375043459974 -0.0050373791326034124 0 0.0091840322232554627 -0.0051453031552775759 0 0.0092761230083130402 -0.005301103665057043 0 0.009601316522025883 -0.0046756863591356215 0 0.0091840322232554627 -0.0051453031552775759 0 0.0092761230083130402 -0.005301103665057043 0 0.008784375043459974 -0.0050373791326034124 0 0.0096140376203366924 -0.0046553336688751551 0 0.0091840322232554627 -0.0051453031552775759 0 0.010346519096695789 -0.0016598824190549827 0 0.0096965865707602811 0.0014813022857790873 0 0.01197095928442444 0.001789044845850537 0 0.011704526962592695 0.0012699262707284937 0 0.012218473956295777 0.0013739630326196389 0 0.012435443666183595 0.0018241162019277102 0 0.01197095928442444 0.001789044845850537 0 0.012218473956295777 0.0013739630326196389 0 0.009065317669342569 -0.00071358036417942469 0 0.0088989409972719362 -0.00080550723816642583 0 0.0087649586193820645 -0.0012714341537737202 0 0.0074977061630382503 -0.0040015631624171714 0 0.010346519096695789 -0.0016598824190549827 0 0.0081517883454824205 -0.00078679546823143861 0 0.009065317669342569 -0.00071358036417942469 0 0.0088989409972719362 -0.00080550723816642583 0 0.0086390764872671076 -0.0010849301863132092 0 0.0090250776447374503 -0.00017124776989734802 0 0.0082217983718778052 -0.00091161624924674918 0 0.0088989409972719362 -0.00080550723816642583 0 0.0085625566697347753 -0.0012128837337815827 0 0.0088989409972719362 -0.00080550723816642583 0 0.0086170695668530105 -0.0011337863571456281 0 0.0087649586193820645 -0.0012714341537737202 0 0.0082217983718778052 -0.00091161624924674918 0 0.0081517883454824205 -0.00078679546823143861 0 0.0088989409972719362 -0.00080550723816642583 0 0.0084489082270313709 -0.00086309801305937267 0 0.0090250776447374503 -0.00017124776989734802 0 0.0095874657046389408 0.0032639028457871208 0 0.010654068039192196 0.0023365862317881831 0 0.0091209790988660347 0.0023186027413313963 0 0.0088753950838055505 0.0021553776770120124 0 0.0089892358864721161 0.002052717515321783 0 0.0088313354258618589 0.0017392427810763575 0 0.0096965865707602811 0.0014813022857790873 0 0.0090484718615486577 0.0021451709715284342 0 0.0090250776447374503 -0.00017124776989734802 0 0.0096965865707602811 0.0014813022857790873 0 0.011704526962592695 0.0012699262707284937 0 0.012218473956295777 0.0013739630326196389 0 0.012170338681040518 0.00086462302370396329 0 0.0096965865707602811 0.0014813022857790873 0 0.01151068440854076 0.0016521590861749633 0 0.010654068039192196 0.0023365862317881831 0 0.009563987825971865 0.0016134755608459711 0 0.0091209790988660347 0.0023186027413313963 0 0.009563987825971865 0.0016134755608459711 0 0.0091209790988660347 0.0023186027413313963 0 0.0086992373703767799 0.0013558227520887257 0 0.0090484718615486577 0.0021451709715284342 0 0.0087025660516992977 0.0013966923496571855 0 0.012218473956295777 0.0013739630326196389 0 0.012170338681040518 0.00086462302370396329 0 0.012822875894318587 0.0012403527944737393 0 0.01151068440854076 0.0016521590861749633 0 0.012230731291545793 0.00085034493715074779 0 0.012170338681040518 0.00086462302370396329 0 0.012822875894318587 0.0012403527944737393 0 0.012638638358518157 0.00044523719328971596 0 0.013269692140039795 0.00071417271378779342 0 0.012822875894318587 0.0012403527944737393 0 0.012638638358518157 0.00044523719328971596 0 0.013269692140039795 0.00071417271378779342 0 0.012638638358518157 0.00044523719328971596 0 0.013002324218130612 4.1068090535724765e-05 0 0.011845413608667331 0.00130225804065771 0 0.011109058714476665 0.00054487080536232428 0 0.013002324218130612 4.1068090535724765e-05 0 0.012230731291545793 0.00085034493715074779 0 0.01295777848868963 0.00011861778012983612 0 0.010654068039192196 0.0023365862317881831 0 0.011845413608667331 0.00130225804065771 0 0.011109058714476665 0.00054487080536232428 0 0.011480975114266743 -0.00076711341837125543 0 0.011109058714476665 0.00054487080536232428 0 0.013002324218130612 4.1068090535724765e-05 0 0.0099155458954858829 0.00077588907542869734 0 0.008401893052942408 0.0012637349416548033 0 0.0086992373703767799 0.0013558227520887257 0 0.009997344193386876 0.00099994329523341702 0 0.0073146752284307748 0.00086446021316259375 0 0.0099155458954858829 0.00077588907542869734 0 0.0078628836065016781 0.00091584879561322529 0 0.0072619588598286699 0.0018569310795626124 0 0.009563987825971865 0.0016134755608459711 0 0.0099155458954858829 0.00077588907542869734 0 0.0086992373703767799 0.0013558227520887257 0 0.010654068039192196 0.0023365862317881831 0 0.011109058714476665 0.00054487080536232428 0 0.0099155458954858829 0.00077588907542869734 0 0.010654068039192196 0.0023365862317881831 0 0.009563987825971865 0.0016134755608459711 0 0.0099155458954858829 0.00077588907542869734 0 0.011109058714476665 0.00054487080536232428 0 0.0099155458954858829 0.00077588907542869734 0 0.0098948744310609835 -0.00052243319324265418 0 0.011480975114266743 -0.00076711341837125543 0 0.011109058714476665 0.00054487080536232428 0 0.0098948744310609835 -0.00052243319324265418 0 0.0099155458954858829 0.00077588907542869734 0 0.0085724791595015101 7.0794834273732644e-05 0 0.0078628836065016781 0.00091584879561322529 0 0.0099155458954858829 0.00077588907542869734 0 0.0098948744310609835 -0.00052243319324265418 0 0.0085724791595015101 7.0794834273732644e-05 0 0.0084799232248782847 -0.00071905051496418614 0 0.0098948744310609835 -0.00052243319324265418 0 0.0085724791595015101 7.0794834273732644e-05 0 0.0084799232248782847 -0.00071905051496418614 0 0.0085724791595015101 7.0794834273732644e-05 0 0.0076165583476891516 -0.00029975648908754166 0 0.0085724791595015101 7.0794834273732644e-05 0 0.0076165583476891516 -0.00029975648908754166 0 0.0073244417466991219 0.00028817721967080181 0 0.0084799232248782847 -0.00071905051496418614 0 0.0067082731368516436 -0.00087581294306979653 0 0.0076165583476891516 -0.00029975648908754166 0 0.0067082731368516436 -0.00087581294306979653 0 0.0076165583476891516 -0.00029975648908754166 0 0.0068364115888724791 -0.00016688454781358633 0 0.0076165583476891516 -0.00029975648908754166 0 0.0068364115888724791 -0.00016688454781358633 0 0.0073244417466991219 0.00028817721967080181 0 0.0073244417466991219 0.00028817721967080181 0 0.0078628836065016781 0.00091584879561322529 0 0.0070022148895635267 0.00090806248316401591 0 0.0068364115888724791 -0.00016688454781358633 0 0.0067076300392394962 0.00039125572610859818 0 0.0073244417466991219 0.00028817721967080181 0 0.0067076300392394962 0.00039125572610859818 0 0.0073244417466991219 0.00028817721967080181 0 0.0070022148895635267 0.00090806248316401591 0 0.0067076300392394962 0.00039125572610859818 0 0.0070022148895635267 0.00090806248316401591 0 0.0064087266985626192 0.0010344158337328155 0 0.0085724791595015101 7.0794834273732644e-05 0 0.0073244417466991219 0.00028817721967080181 0 0.0078628836065016781 0.00091584879561322529 0 0.0078628836065016781 0.00091584879561322529 0 0.0072726765770141956 0.0015130372777188462 0 0.0072619588598286699 0.0018569310795626124 0 0.0078628836065016781 0.00091584879561322529 0 0.0070022148895635267 0.00090806248316401591 0 0.0072726765770141956 0.0015130372777188462 0 0.0070022148895635267 0.00090806248316401591 0 0.006870958969384805 0.0013988989644105913 0 0.0064087266985626192 0.0010344158337328155 0 0.006870958969384805 0.0013988989644105913 0 0.0072726765770141956 0.0015130372777188462 0 0.0072301339892724085 0.001848244194075327 0 0.0070022148895635267 0.00090806248316401591 0 0.006870958969384805 0.0013988989644105913 0 0.0072726765770141956 0.0015130372777188462 0 0.007295345899791225 0.0011208809565443623 0 0.0073146752284307748 0.00086446021316259375 0 0.006870958969384805 0.0013988989644105913 0 0.0072301339892724085 0.001848244194075327 0 0.0064437073648512906 0.0016884909812859617 0 0.0058164932873417986 0.0019992378041662974 0 0.0064087266985626192 0.0010344158337328155 0 0.0059869758461850286 -0.00010565933328329923 0 0.0040170291545732501 -0.0014362144186894786 0 0.005526386282324997 -0.0011293152032170318 0 0.002683072880860574 -0.0036838155517157942 0 0.0026852992552918804 -0.0036760967988023483 0 0.0026566039378022621 -0.0037079022400518863 0 0.0040170291545732501 -0.0014362144186894786 0 0.00319858096506467 -0.0023057211637793622 0 0.00319858096506467 -0.0023057211637793622 0 0.0045411832210429824 -0.001519116023987923 0 0.0072301339892724085 0.001848244194075327 0 0.0059772668978162174 0.0022001938084743136 0 0.0064437073648512906 0.0016884909812859617 0 0.0073146752284307748 0.00086446021316259375 0 0.0045411832210429824 -0.001519116023987923 0 0.0040170291545732501 -0.0014362144186894786 0 0.0045411832210429824 -0.001519116023987923 0 0.0035112735334425988 -0.0016790602340871345 0 0.0035917510673802778 -0.0023643809809337406 0 0.0030767098624582237 -0.002205813264909881 0 0.0058164932873417986 0.0019992378041662974 0 0.0059772668978162174 0.0022001938084743136 0 0.0064437073648512906 0.0016884909812859617 0 0.0058164932873417986 0.0019992378041662974 0 0.0064437073648512906 0.0016884909812859617 0 0.0064087266985626192 0.0010344158337328155 0 0.006870958969384805 0.0013988989644105913 0 0.0064437073648512906 0.0016884909812859617 0 0.0064087266985626192 0.0010344158337328155 0 0.0040170291545732501 -0.0014362144186894786 0 0.0032244160123829873 -0.0031751112587062244 0 0.0047741502574648442 -0.0013256613815431997 0 0.0049525983123570212 -0.0028082432694108879 0 0.0039568234506728341 -0.0023177532904706346 0 0.0067076300392394962 0.00039125572610859818 0 0.0064087266985626192 0.0010344158337328155 0 0.0059869758461850286 -0.00010565933328329923 0 0.0067082731368516436 -0.00087581294306979653 0 0.0068364115888724791 -0.00016688454781358633 0 0.0059869758461850286 -0.00010565933328329923 0 0.0068364115888724791 -0.00016688454781358633 0 0.0067076300392394962 0.00039125572610859818 0 0.0059869758461850286 -0.00010565933328329923 0 0.0049525983123570212 -0.0028082432694108879 0 0.004073263917383896 -0.0030730388880701202 0 0.0039568234506728341 -0.0023177532904706346 0 0.004225534432849838 -0.0036287348827120343 0 0.0049525983123570212 -0.0028082432694108879 0 0.004073263917383896 -0.0030730388880701202 0 0.0030629855351132431 -0.0035492180793332364 0 0.0026967782546119179 -0.0036684323603540419 0 0.0027147156566497961 -0.0036798973338038974 0 0.0030629855351132431 -0.0035492180793332364 0 0.004073263917383896 -0.0030730388880701202 0 0.0039568234506728341 -0.0023177532904706346 0 0.0031036155602562746 -0.0034270420164692773 0 0.0032244160123829873 -0.0031751112587062244 0 0.0030629855351132431 -0.0035492180793332364 0 0.002593936299182936 -0.0036343246323216286 0 0.0027147156566497961 -0.0036798973338038974 0 0.002497543679898196 -0.0037971334934236213 0 0.0027147156566497961 -0.0036798973338038974 0 0.002581796722477265 -0.0037708431111223811 0 0.0027147156566497961 -0.0036798973338038974 0 0.0026566039378022621 -0.0037079022400518863 0 0.002581796722477265 -0.0037708431111223811 0 0.0026967782546119179 -0.0036684323603540419 0 0.0027147156566497961 -0.0036798973338038974 0 0.0026566039378022621 -0.0037079022400518863 0 0.002683072880860574 -0.0036838155517157942 0 0.0026967782546119179 -0.0036684323603540419 0 0.0026566039378022621 -0.0037079022400518863 0 0.0003028220295174402 -0.0037801910682321981 0 0.00064601607360265881 -0.0041989301604139625 0 0.0010243925404266252 -0.0039862632757255694 0 0.00319858096506467 -0.0023057211637793622 0 0.0014598092907439116 -0.0040803641420514795 0 0.0026852992552918804 -0.0036760967988023483 0 0.0026566039378022621 -0.0037079022400518863 0 0.002581796722477265 -0.0037708431111223811 0 0.0016849530355375014 -0.0044427293551131015 0 0.0004101634707550394 -0.0048948011261329581 0 0.0016202062651449393 -0.0044826707244674645 0 0.0010082761109516257 -0.0050556984625394884 0 0.00053367703596558357 -0.0048836933037307694 0 0.0016202062651449393 -0.0044826707244674645 0 0.0010243925404266252 -0.0039862632757255694 0 0.00093727610813111822 -0.0046390607687843066 0 0.00039897565114490864 -0.0048083262953932948 0 0.00093727610813111822 -0.0046390607687843066 0 0.00058950577324238325 -0.0044866224505755413 0 0.00064601607360265881 -0.0041989301604139625 0 0.0010243925404266252 -0.0039862632757255694 0 0.00093727610813111822 -0.0046390607687843066 0 0.00064601607360265881 -0.0041989301604139625 0 0.00058950577324238325 -0.0044866224505755413 0 0.00034072707058952585 -0.0042862351749801859 0 0.00064601607360265881 -0.0041989301604139625 0 0.00093727610813111822 -0.0046390607687843066 0 0.00058950577324238325 -0.0044866224505755413 0 0.0047962485214335668 -0.0029310953614800129 0 0.0047440601914594521 -0.0024187091269691333 0 0.0043753666838562749 -0.0026663874706909941 0 0.001736597148585195 -0.004350824741278154 0 0.0025495468249499141 -0.0033660570037038033 0 0.00039897565114490864 -0.0048083262953932948 0 0.00058950577324238325 -0.0044866224505755413 0 0.00034072707058952585 -0.0042862351749801859 0 0.0047440601914594521 -0.0024187091269691333 0 0.0043753666838562749 -0.0026663874706909941 0 0.0043446391100373308 -0.0022462203884694712 0 0.0090250776447374503 -0.00017124776989734802 0 0.0071213050234958065 -0.00038686549452648597 0 0.0088753950838055505 0.0021553776770120124 0 0.0088313354258618589 0.0017392427810763575 0 0.0084769281734727725 0.001754478741865161 0 0.0082037041401013915 -0.0011473861068278918 0 0.0080149087122634299 -0.0012487685323165825 0 0.008037930443095696 -0.0016049153365848246 0 0.0082037041401013915 -0.0011473861068278918 0 0.0084534791415588235 -0.0011318752691961392 0 0.008037930443095696 -0.0016049153365848246 0 0.0062342205193155961 -0.0019951200807827294 0 0.0071213050234958065 -0.00038686549452648597 0 0.008401893052942408 0.0012637349416548033 0 0.0086992373703767799 0.0013558227520887257 0 0.0084769281734727725 0.001754478741865161 0 0.0073146752284307748 0.00086446021316259375 0 0.0071213050234958065 -0.00038686549452648597 0 0.00656181471837642 -0.00058550492208258545 0 0.006145473848302955 -0.00046533097843696943 0 0.0065191672025096325 -2.3068075576853915e-05 0 0.0088313354258618589 0.0017392427810763575 0 0.0086992373703767799 0.0013558227520887257 0 0.0084769281734727725 0.001754478741865161 0 0.0046857870026896604 -0.0019053405145075357 0 0.0047440601914594521 -0.0024187091269691333 0 0.0043446391100373308 -0.0022462203884694712 0 0.0046857870026896604 -0.0019053405145075357 0 0.0046329033755987828 -0.0018880638609698255 0 0.0043446391100373308 -0.0022462203884694712 0 0.0045411832210429824 -0.001519116023987923 0 0.0071213050234958065 -0.00038686549452648597 0 0.0003028220295174402 -0.0037801910682321981 0 0.00064601607360265881 -0.0041989301604139625 0 0.00034072707058952585 -0.0042862351749801859 0 0.00319858096506467 -0.0023057211637793622 0 0.0025495468249499141 -0.0033660570037038033 0 
</DataArray>
</PointData>
<CellData Scalars="region_id,cross_section_updated," Vectors="" Tensors="stress,">
<DataArray type="Float64" Name="region_id" format="ascii">
5 6 5 5 5 6 5 5 5 5 5 6 5 5 5 6 5 5 5 5 5 6 5 5 6 5 5 5 5 5 5 5 5 5 5 5 5 5 5 5 5 6 5 5 5 5 5 5 5 5 5 5 5 5 5 5 5 5 5 6 5 5 5 5 5 5 5 5 5 5 5 5 6 5 5 5 5 5 6 5 6 5 5 5 5 5 5 6 5 5 5 5 5 5 5 5 5 5 5 5 5 5 5 5 5 5 5 5 5 5 5 5 5 5 5 5 6 5 5 6 5 6 5 5 5 5 5 5 5 5 6 5 5 6 5 5 5 5 5 5 5 6 5 5 6 5 5 5 5 5 5 5 5 6 5 5 5 5 6 5 5 6 5 5 5 5 5 6 5 5 5 5 5 5 5 5 5 6 5 6 5 5 5 5 5 5 5 6 5 5 6 6 5 5 5 5 6 5 5 5 5 5 6 5 5 5 5 5 5 6 5 5 5 6 5 5 5 5 5 5 5 5 5 5 5 5 5 5 5 5 5 5 5 5 5 5 6 5 5 6 5 5 5 5 5 5 5 5 5 5 5 5 5 5 5 5 5 5 6 5 5 5 5 5 5 5 5 5 5 6 5 5 5 5 5 5 5 6 6 6 5 5 5 5 5 5 5 5 5 6 5 5 5 5 5 5 5 6 5 5 5 6 5 5 6 5 5 5 5 5 5 5 5 5 5 5 5 5 5 5 6 5 5 5 6 5 5 5 5 5 5 5 5 5 5 5 5 5 5 5 5 5 5 5 5 5 5 5 5 5 5 5 6 5 5 6 5 5 5 5 5 5 5 5 5 5 6 5 5 5 6 5 5 5 5 5 5 5 6 5 5 5 5 6 5 6 5 5 5 5 5 6 5 5 5 5 5 5 5 5 5 5 5 6 5 6 5 6 6 5 6 5 5 6 5 5 5 5 5 5 5 5 5 5 5 5 5 5 5 6 5 5 5 5 5 5 5 6 6 5 5 5 5 5 5 5 5 5 5 5 5 5 5 5 6 5 5 5 6 5 6 6 5 5 5 5 6 5 6 5 5 5 5 5 5 5 5 5 5 6 5 5 5 6 5 5 5 5 5 5 5 5 5 6 5 6 5 6 5 5 6 6 5 5 5 5 6 5 5 5 5 6 6 5 5 5 5 5 5 6 5 5 5 5 5 5 5 5 5 5 6 5 5 5 6 5 6 5 5 5 6 5 5 6 5 5 6 6 5 5 5 5 5 5 5 5 5 5 5 5 5 5 5 5 5 5 5 6 5 5 5 5 6 6 5 5 6 5 5 5 5 6 5 5 5 6 5 5 5 5 5 5 6 5 5 5 5 5 5 5 6 5 5 6 5 6 5 5 5 5 5 5 5 5 5 5 5 6 6 5 5 5 5 5 5 5 5 5 6 5 5 5 5 5 5 5 5 5 5 5 5 5 5 5 5 5 5 5 5 5 5 5 5 5 5 5 5 5 5 5 5 6 5 5 5 5 6 5 5 5 5 5 5 5 5 5 5 5 6 5 6 5 5 5 5 5 6 5 5 5 5 5 5 5 5 5 5 5 5 5 5 5 5 5 5 5 5 5 5 5 5 5 5 5 5 5 5 5 5 5 5 5 5 5 5 5 5 5 5 5 5 5 5 5 6 5 5 5 5 5 5 5 5 5 5 5 5 5 5 5 5 5 5 5 5 5 5 5 5 5 5 5 5 6 5 5 5 5 5 5 5 5 5 5 5 5 5 5 5 5 5 6 5 5 5 5 5 5 5 5 5 5 5 5 5 5 5 5 5 5 5 5 5 5 5 5 5 5 5 5 5 5 5 5 5 5 5 5 6 5 5 6 5 5 5 5 5 5 5 5 5 5 5 5 5 5 5 5 6 5 5 5 5 6 6 5 5 6 5 5 5 5 5 5 5 5 5 6 6 5 5 5 5 6 5 5 5 5 6 5 5 5 6 5 5 5 5 5 5 5 5 5 6 5 5 5 5 5 5 5 5 5 5 5 5 5 5 5 5 5 5 5 5 5 5 5 5 6 5 5 5 5 5 5 5 5 6 5 5 5 5 6 5 5 5 5 6 6 5 5 5 5 5 5 5 5 5 5 6 5 5 5 5 5 5 5 5 5 6 5 5 6 5 6 5 5 6 5 5 5 6 5 5 5 5 5 5 5 5 5 5 5 6 5 5 5 5 5 6 6 5 5 5 5 6 5 5 5 6 5 5 5 5 5 5 6 5 5 5 5 5 6 5 5 5 5 6 5 5 6 5 6 6 5 6 5 5 5 5 6 5 6 5 5 5 5 5 5 5 5 6 5 5 5 6 5 5 5 5 5 5 6 5 5 5 5 5 5 6 6 5 5 5 5 5 5 6 5 5 5 5 6 5 5 5 5 5 5 5 5 5 6 5 5 5 5 5 5 6 5 6 5 5 5 5 6 5 5 6 5 5 6 5 6 5 5 5 5 5 5 5 5 6 5 6 5 5 5 5 5 5 5 5 5 5 6 5 5 5 5 5 5 5 5 5 6 5 5 5 5 6 6 5 5 6 5 5 5 5 5 5 5 5 5 5 5 5 5 5 6 5 6 5 5 5 5 5 5 5 5 5 6 5 5 5 5 5 5 5 5 5 5 5 5 5 5 5 5 5 5 5 5 5 5 5 5 5 5 5 5 5 5 5 5 5 5 5 5 5 5 5 5 5 5 5 5 5 5 5 5 5 5 5 5 5 6 5 6 5 5 5 6 5 5 6 6 5 5 5 5 5 5 5 5 5 6 5 5 5 5 5 5 5 5 5 5 5 5 5 5 5 5 5 5 5 5 5 5 5 5 5 5 5 5 5 5 5 6 5 5 5 5 6 5 5 5 5 5 5 5 6 5 5 5 5 5 5 5 6 5 5 5 5 5 5 6 5 6 5 6 5 5 5 5 5 5 5 5 6 5 5 5 5 5 5 6 5 5 6 5 5 5 5 5 5 5 5 5 5 5 5 5 6 5 6 5 5 5 5 5 5 6 5 5 5 5 6 5 5 5 5 5 6 6 5 6 5 5 5 6 5 5 5 5 5 5 5 5 5 5 5 5 5 5 5 5 5 6 5 5 5 5 5 5 5 5 5 5 5 5 5 5 5 5 5 6 5 5 5 5 5 5 6 5 6 5 5 6 5 5 5 5 5 6 5 5 6 5 6 6 6 5 5 5 5 5 5 5 5 5 6 5 5 5 6 5 5 5 5 6 5 5 5 5 5 5 5 5 5 5 5 5 5 5 5 5 5 5 5 6 5 5 5 5 6 5 5 5 5 5 5 5 5 6 5 5 5 5 5 6 5 5 5 5 5 5 5 5 5 5 5 5 5 5 5 5 5 5 5 6 5 5 6 6 6 5 5 6 6 5 5 5 5 6 5 5 5 5 5 5 5 5 6 6 5 6 5 6 5 5 5 5 5 5 5 5 6 5 5 5 5 5 5 6 5 5 5 5 5 5 5 6 5 5 5 5 5 5 5 5 5 5 5 6 5 5 5 5 5 5 5 5 5 5 5 5 5 5 5 5 5 5 5 5 5 5 6 5 5 5 5 6 5 5 5 6 5 6 5 5 5 5 5 6 5 5 5 5 5 5 5 5 5 5 5 5 5 5 5 5 5 5 5 5 5 5 5 5 5 5 6 5 5 5 5 5 5 5 5 5 6 6 5 6 5 5 5 6 5 5 6 5 5 6 5 5 5 6 5 5 5 6 5 6 5 5 5 5 5 5 5 5 5 5 5 5 6 5 5 5 5 5 5 5 5 5 5 5 5 5 5 5 5 5 6 5 5 5 6 5 5 5 6 5 5 5 5 5 5 5 6 5 5 5 5 6 5 5 5 5 5 5 5 5 6 5 5 5 5 5 5 5 5 5 5 5 5 5 5 5 5 5 5 5 5 5 5 5 5 5 5 5 5 5 5 5 5 5 6 5 5 5 5 5 5 5 5 5 5 5 5 5 5 6 5 6 5 5 5 6 5 5 5 5 5 6 5 5 5 5 5 5 5 5 6 5 5 6 5 5 5 5 5 5 5 5 5 5 5 5 6 5 5 6 5 6 5 5 5 5 6 5 5 6 5 5 5 5 5 5 5 5 5 5 5 6 5 6 5 5 6 6 5 6 5 5 5 5 6 5 5 5 5 5 5 5 5 5 5 5 6 5 5 6 5 6 5 5 5 5 5 5 5 5 5 5 6 5 5 5 5 5 5 5 5 5 5 5 5 5 5 5 5 5 5 5 5 5 5 5 5 5 5 5 5 5 5 5 5 5 5 5 6 5 5 5 5 5 5 6 5 5 5 5 6 5 5 5 5 6 5 5 5 5 5 5 5 5 5 6 5 5 5 5 5 6 6 5 5 5 6 5 6 5 5 5 5 5 5 5 5 5 6 5 6 5 5 5 5 5 6 5 6 5 5 5 5 5 5 5 6 5 5 5 5 5 5 5 5 5 5 5 5 5 5 5 5 5 5 5 5 5 6 6 6 5 5 5 5 6 5 5 5 5 5 5 5 5 5 5 5 5 5 5 5 5 5 5 5 5 5 5 5 5 5 5 5 5 5 5 5 5 5 5 5 6 5 5 5 5 5 5 5 5 5 5 5 5 5 5 5 5 5 5 6 5 5 5 6 5 5 5 5 5 5 5 5 5 6 5 5 5 5 5 5 5 5 5 5 5 5 5 5 5 5 5 6 5 6 5 5 5 5 5 5 5 5 5 5 5 5 5 6 5 5 5 5 5 5 5 6 5 5 5 5 5 5 6 5 5 5 5 5 5 5 5 5 5 5 6 5 5 5 5 5 6 5 5 5 5 5 5 6 5 5 5 5 5 6 5 6 5 5 5 5 5 5 5 5 5 5 5 5 5 5 5 6 5 5 5 5 5 5 5 5 5 5 6 6 5 5 6 5 5 6 5 6 5 5 5 5 5 5 5 5 5 6 6 5 5 5 5 5 6 5 5 5 5 5 5 5 6 5 5 5 5 5 5 5 5 5 5 5 5 5 5 5 5 5 5 5 5 5 5 5 5 5 5 5 5 5 5 5 5 5 5 5 5 5 5 5 5 5 5 5 5 6 5 5 6 5 5 5 5 5 5 5 6 5 5 5 6 5 5 6 5 5 6 6 5 5 6 5 5 5 5 5 5 5 5 5 5 5 5 5 5 5 6 5 5 5 5 5 5 5 5 5 5 5 5 5 6 5 5 5 5 5 5 5 5 5 5 5 5 5 5 5 5 5 5 5 5 5 5 5 5 5 5 6 5 5 5 5 5 5 5 5 5 5 5 5 6 5 5 5 5 5 5 5 5 5 5 5 6 5 5 5 6 5 5 5 5 5 5 6 5 5 5 5 5 5 5 5 5 5 5 5 5 5 5 5 5 5 5 5 5 5 5 5 5 6 5 6 5 5 5 5 6 5 5 6 5 5 5 5 5 5 5 5 5 5 5 5 5 5 5 5 5 5 5 5 5 5 5 5 5 5 5 5 6 5 5 5 5 5 5 5 5 5 5 5 5 5 5 5 5 5 5 6 5 5 5 5 6 5 6 5 5 5 5 5 5 5 5 5 5 5 5 5 5 5 5 5 5 5 5 5 5 5 5 5 5 5 5 5 6 5 5 5 5 5 5 5 6 5 5 5 5 5 5 5 6 5 5 5 6 5 5 5 5 5 5 5 6 5 5 5 6 6 6 5 5 6 5 5 5 6 5 5 5 5 5 5 5 5 5 6 6 5 5 5 5 5 5 5 5 5 5 5 5 6 5 5 5 5 5 5 6 5 5 5 5 5 5 5 5 5 5 5 5 5 5 5 5 5 6 5 5 5 5 6 5 5 5 5 6 5 5 5 5 5 5 5 5 5 5 5 5 5 5 5 5 5 5 5 5 5 5 5 5 5 6 5 5 5 5 5 5 5 5 6 5 5 5 5 5 5 5 5 5 5 5 6 5 5 5 5 5 5 5 5 5 5 5 5 5 5 5 6 5 5 5 5 5 6 5 5 5 5 5 5 5 5 5 5 5 5 5 6 5 5 5 5 6 5 5 6 5 5 5 5 5 5 5 5 5 5 5 5 5 5 5 5 5 5 5 5 5 5 5 5 5 5 5 5 5 5 5 5 6 5 6 5 5 5 5 5 5 5 5 6 5 5 5 5 5 5 5 5 5 5 5 6 5 6 5 5 5 5 6 5 5 5 5 5 5 5 5 5 5 5 5 6 5 5 5 5 5 5 5 5 5 6 5 5 6 5 5 5 5 6 5 6 5 5 5 5 5 5 5 5 5 5 5 5 5 5 5 5 5 5 5 5 5 6 5 5 5 5 5 5 5 6 5 6 5 5 5 5 6 6 5 5 5 5 5 6 6 5 5 5 5 6 5 5 6 6 5 6 6 6 5 5 5 5 5 5 5 5 6 6 5 5 5 5 6 6 5 5 5 5 5 5 5 5 5 6 5 5 5 5 5 5 6 5 5 5 5 5 5 5 5 6 5 5 5 5 5 5 6 5 5 6 6 5 5 6 5 6 5 6 5 5 5 6 5 6 5 5 6 6 6 5 5 5 5 6 5 6 6 5 6 6 5 5 6 5 5 5 6 5 5 5 5 5 6 5 5 5 6 6 5 5 5 6 5 5 5 5 5 6 5 5 5 5 5 5 5 5 5 5 5 5 5 5 5 5 5 6 5 5 5 5 5 5 6 5 5 5 6 5 5 5 5 5 5 6 5 6 5 5 5 5 5 5 5 5 5 5 5 5 5 5 5 5 5 5 5 5 5 5 5 6 5 5 5 6 5 5 5 5 5 5 5 5 5 5 5 5 5 5 5 5 5 5 6 5 5 5 5 5 5 5 5 5 5 5 5 5 5 5 5 5 5 5 5 5 5 6 5 5 5 5 5 5 5 5 5 5 5 5 6 5 6 5 5 5 5 5 6 5 5 5 6 5 5 6 5 6 5 5 6 6 5 5 5 5 5 5 5 5 5 5 5 5 5 5 5 5 5 6 6 5 5 5 5 5 5 5 5 5 5 5 5 5 5 5 5 5 5 5 5 5 5 6 5 6 5 5 5 6 5 5 5 6 5 5 5 5 5 5 5 5 5 6 5 5 5 6 5 5 5 5 5 5 5 5 5 6 5 5 5 5 5 5 5 5 5 5 5 5 5 5 5 5 5 5 5 5 5 5 5 5 5 5 5 5 5 5 5 5 5 5 5 5 5 5 5 5 5 5 5 5 5 6 5 5 5 5 6 6 5 5 6 6 5 5 5 5 6 5 5 5 5 5 5 5 5 5 6 5 5 5 5 6 5 5 5 5 6 5 5 5 6 6 5 5 5 5 5 5 5 5 6 5 5 5 5 5 5 6 5 5 5 5 5 5 6 5 5 5 5 6 5 6 5 6 5 5 5 6 6 5 5 5 5 6 5 6 5 5 5 5 6 6 5 6 5 5 5 5 5 6 5 5 6 6 6 6 5 5 5 6 5 6 6 5 5 5 5 5 5 5 5 5 5 5 5 5 5 5 5 5 5 5 5 6 5 5 5 5 5 6 5 5 6 5 6 5 5 5 5 5 5 5 5 5 6 5 5 6 5 6 5 5 6 6 5 6 5 5 5 6 5 6 5 5 6 5 5 6 5 5 5 5 5 5 5 5 5 5 5 5 5 5 5 5 5 5 5 5 5 5 5 5 5 5 5 6 5 5 5 6 5 5 6 5 5 5 5 5 5 5 5 5 5 5 5 5 5 5 5 5 5 5 5 5 5 6 5 5 6 5 5 6 5 5 5 6 5 5 5 5 5 5 5 5 5 5 5 5 5 5 6 5 5 6 5 5 5 6 5 5 5 5 5 5 5 5 6 5 5 5 5 6 5 5 5 5 5 5 5 5 5 5 5 5 5 5 5 5 6 5 5 5 6 5 5 5 5 5 5 5 5 5 5 5 5 5 5 5 5 5 5 5 5 5 5 5 5 5 5 5 5 5 5 5 5 5 5 5 5 5 5 5 5 5 5 5 5 5 5 5 5 5 5 5 6 5 5 6 5 5 5 5 5 5 5 5 5 5 5 5 5 5 5 5 5 5 5 6 5 6 6 6 5 5 5 5 5 5 5 5 5 5 5 5 5 5 5 5 5 6 6 5 5 5 6 5 5 5 5 6 6 5 6 5 5 5 6 5 5 5 5 6 5 5 5 5 5 6 5 5 6 6 5 5 6 5 6 5 5 6 5 5 5 5 5 5 5 5 5 6 5 5 5 5 6 5 5 5 5 5 5 5 5 5 5 5 6 5 5 5 5 5 5 5 5 5 6 5 5 5 5 5 5 5 5 6 5 5 6 5 5 5 5 5 5 5 5 5 5 5 5 5 5 5 5 5 5 6 5 5 5 5 5 5 5 5 5 5 5 6 5 5 5 5 5 5 5 6 5 5 6 5 5 5 5 6 5 5 5 5 6 5 5 5 5 6 5 6 5 5 5 5 6 5 5 5 6 5 5 5 5 5 5 5 5 5 5 5 5 5 5 5 5 5 5 5 5 5 5 5 5 5 5 5 5 5 6 5 6 5 6 6 5 5 5 6 5 5 5 5 6 5 6 5 5 5 6 5 5 5 5 5 5 5 5 6 5 5 5 5 5 5 5 5 5 5 5 5 5 5 6 5 6 5 5 5 5 5 6 5 5 5 6 5 5 5 5 6 5 5 5 5 5 5 5 5 6 5 5 6 5 5 5 5 6 5 5 5 5 5 5 6 5 5 5 5 5 6 5 6 6 5 5 5 5 5 5 5 5 5 5 5 6 5 5 5 5 5 5 5 6 5 5 5 5 5 5 5 5 5 5 5 5 5 5 5 5 5 5 5 5 5 5 5 5 5 5 5 5 5 6 5 5 5 5 6 5 5 5 5 6 5 5 5 5 5 5 5 5 5 5 5 5 6 5 5 5 5 5 5 5 5 5 5 5 5 5 5 5 5 5 5 5 5 5 5 5 5 5 5 5 5 5 5 5 5 5 5 5 6 5 5 5 6 5 5 5 5 5 5 5 5 5 5 5 5 5 6 5 5 5 5 5 5 5 5 6 6 5 6 5 5 5 5 5 6 5 5 5 5 5 6 5 5 6 5 5 5 6 5 5 6 5 5 5 5 5 6 6 5 5 5 5 5 5 5 5 5 5 5 5 5 5 6 5 5 5 5 5 6 5 6 5 5 6 5 6 6 6 5 5 5 6 5 5 5 5 5 5 5 5 6 6 5 6 5 6 5 5 5 5 5 5 5 5 5 5 5 5 5 5 5 5 5 5 5 5 5 5 5 5 5 5 5 5 5 5 5 5 5 5 5 6 5 5 5 5 5 5 5 5 5 5 5 5 5 5 5 5 5 5 5 5 5 5 5 5 5 5 6 5 5 5 5 5 5 6 5 5 6 5 6 5 5 5 5 6 5 5 5 6 5 5 5 5 5 5 6 5 5 6 5 5 5 6 5 5 6 5 5 5 5 5 6 5 5 6 6 5 5 6 5 6 5 5 5 6 5 5 6 6 5 6 5 5 6 5 5 5 5 5 5 5 5 5 5 5 5 5 5 5 5 5 5 6 5 5 5 5 5 5 5 5 5 5 6 5 5 5 5 5 5 5 6 5 5 5 5 5 5 5 5 5 5 5 5 5 5 5 5 5 5 5 5 6 6 5 5 5 5 5 5 5 5 5 5 5 6 5 5 5 5 5 5 6 5 5 5 5 6 5 5 5 5 5 5 5 5 5 6 5 5 5 5 5 5 5 5 5 5 5 5 5 5 5 5 6 5 5 5 5 5 5 5 5 5 5 5 5 5 6 5 5 5 5 5 5 5 5 5 5 6 5 5 5 6 5 5 5 5 5 5 6 5 5 5 5 5 5 5 5 5 5 5 6 5 5 5 5 5 5 5 5 6 5 5 6 5 5 6 5 6 6 5 6 5 5 5 5 6 6 5 5 5 5 5 6 5 5 5 5 6 5 5 5 6 5 5 6 5 5 5 5 5 5 5 5 5 5 6 5 6 5 6 6 5 5 5 6 5 5 6 6 5 5 5 5 5 6 5 5 5 5 5 5 5 5 5 5 5 5 5 5 5 5 6 5 5 6 5 5 5 6 5 5 5 6 5 6 5 5 5 5 5 5 5 5 6 5 5 5 6 6 5 5 5 5 5 5 5 5 5 5 5 5 5 6 5 6 5 5 5 5 5 5 5 5 5 5 5 5 5 5 5 5 5 5 5 5 5 5 5 5 5 6 5 5 5 5 6 5 6 5 5 6 5 5 5 5 5 5 5 5 5 5 5 5 5 5 5 5 5 5 5 5 5 5 5 5 5 5 5 5 5 5 5 5 6 5 5 5 5 5 5 5 6 5 5 5 5 5 5 5 5 5 5 5 6 6 5 5 5 5 5 6 5 5 6 5 6 5 5 5 5 5 5 5 5 5 5 5 5 6 5 5 5 5 5 6 6 5 5 5 5 6 5 5 5 5 5 5 5 5 5 5 6 5 5 5 5 5 5 5 5 5 5 5 5 5 5 5 5 5 5 5 5 5 5 5 5 5 5 5 5 5 5 5 5 5 5 5 5 5 5 5 5 5 5 5 5 5 5 5 5 5 5 5 5 5 5 5 5 6 5 5 5 6 5 5 5 5 5 5 5 6 5 5 5 5 5 6 5 5 5 5 6 5 5 5 5 5 5 5 5 5 5 5 5 5 5 5 6 6 5 5 5 6 6 5 5 5 5 5 5 6 5 5 6 5 5 5 5 5 5 5 5 5 5 6 6 5 5 6 5 5 5 5 5 5 5 6 5 5 5 5 5 5 5 5 5 5 5 5 5 6 5 5 5 5 5 5 6 5 5 5 5 5 5 5 5 5 6 5 5 5 5 6 5 5 5 5 5 5 5 5 6 5 5 5 5 5 5 5 5 6 5 5 5 5 5 6 6 5 5 6 5 5 5 6 5 5 5 5 5 5 6 5 5 6 5 5 6 5 5 5 5 5 6 5 5 5 5 6 5 5 5 5 5 5 5 5 5 5 5 5 6 5 5 5 5 5 6 5 5 5 5 5 5 6 5 5 5 5 5 5 5 5 5 5 5 5 5 5 5 5 5 5 5 5 6 5 5 5 5 6 5 5 5 5 5 5 6 5 5 5 5 5 5 5 5 5 6 5 5 5 5 5 5 5 5 5 5 5 5 5 5 5 5 5 5 5 5 5 5 5 5 5 5 5 5 5 5 6 5 5 5 5 5 5 5 5 6 5 5 6 5 5 5 5 5 6 5 5 5 5 6 5 5 5 5 5 5 5 5 6 5 5 5 6 5 6 5 5 5 6 6 6 5 5 5 5 6 5 5 5 5 5 5 5 5 5 5 5 6 5 5 5 5 5 5 5 5 5 5 5 5 5 5 5 5 6 5 5 5 5 5 5 5 5 5 5 5 5 5 5 5 5 5 5 5 5 5 5 5 5 5 5 5 5 5 5 5 5 5 5 5 5 5 5 5 5 5 5 5 5 5 5 5 5 5 5 5 5 5 5 5 6 5 6 5 5 6 5 5 5 5 5 5 5 6 5 5 6 5 6 5 5 5 5 5 5 5 5 5 5 5 6 5 5 6 5 5 6 5 6 5 5 5 5 5 5 5 6 5 5 5 5 5 5 5 5 5 5 5 5 5 5 5 5 5 5 5 5 5 5 6 5 5 5 5 5 5 5 5 5 5 5 5 5 6 5 5 5 5 5 5 6 5 5 5 5 5 5 5 5 5 5 5 5 5 5 5 5 5 5 5 5 5 5 5 5 5 5 5 6 5 5 5 5 5 5 5 6 5 5 5 5 5 5 5 5 5 6 5 5 5 5 6 6 6 5 5 5 5 6 5 5 6 5 5 5 5 5 5 5 5 6 5 5 6 5 5 5 6 5 5 5 6 5 5 5 6 5 5 5 5 5 5 5 5 5 5 5 5 5 5 6 5 5 5 6 5 5 6 5 5 5 5 5 5 5 5 5 5 5 5 5 5 5 5 5 6 5 6 5 5 5 5 5 5 5 5 5 6 5 6 6 5 5 5 5 5 5 5 6 5 5 6 5 6 5 5 5 5 5 5 5 5 5 5 5 5 5 5 5 6 5 5 5 5 6 5 5 5 5 5 6 6 5 5 6 5 5 5 5 6 5 5 5 5 5 5 5 5 5 5 6 5 6 5 5 5 5 6 5 5 5 5 5 5 5 5 5 5 6 5 5 5 5 6 5 5 5 5 6 5 5 5 6 6 5 6 5 5 5 5 5 5 5 6 5 6 5 5 6 6 5 6 5 5 5 5 5 5 6 5 5 5 5 5 6 5 5 5 5 5 5 5 6 5 5 5 5 5 5 5 5 5 5 5 5 5 5 5 5 6 5 5 5 5 5 5 5 5 5 5 5 5 5 5 5 5 5 5 5 6 5 5 5 5 5 5 5 5 5 5 6 5 6 5 5 5 5 5 6 5 5 6 5 5 5 5 5 5 5 5 5 6 5 5 6 5 5 5 5 5 5 6 5 5 6 6 5 5 5 5 5 6 5 5 5 5 6 5 5 5 5 5 5 5 5 5 5 5 5 5 5 5 5 5 5 5 5 5 5 5 5 5 5 5 6 5 5 5 5 5 5 5 5 5 5 5 6 5 5 5 5 5 5 5 5 5 5 5 5 5 5 5 5 5 5 5 5 5 5 5 5 5 6 5 5 5 6 5 5 5 5 5 5 5 5 5 5 5 5 5 5 5 5 5 5 5 5 6 5 5 5 5 5 5 5 5 5 5 5 5 5 5 5 5 5 5 5 5 5 5 5 5 5 5 5 6 5 5 6 5 5 5 5 5 5 5 5 5 5 5 5 6 5 5 5 5 6 6 6 5 5 5 5 5 5 5 6 5 5 5 6 5 5 5 5 5 5 5 5 6 5 5 5 5 6 5 5 6 6 5 5 5 5 6 6 5 5 6 5 6 5 5 5 5 5 5 5 5 6 5 5 5 5 5 6 6 5 6 5 6 5 6 6 6 5 5 5 5 6 5 6 5 6 5 5 5 5 5 5 6 5 5 5 5 5 5 5 6 5 6 6 5 6 5 6 5 6 5 5 5 5 5 6 5 5 6 5 5 5 5 5 6 5 5 5 5 6 6 5 5 5 5 5 5 5 5 5 5 5 5 5 5 5 5 5 5 5 6 5 6 5 5 5 6 5 5 5 6 5 5 5 5 5 6 6 5 5 5 6 5 6 5 5 5 6 6 5 5 6 6 5 6 6 6 5 6 5 5 5 6 6 5 5 5 5 5 5 5 5 5 5 5 6 6 5 5 6 5 5 5 5 5 5 5 5 5 5 5 5 5 6 5 5 5 5 5 5 5 5 6 6 5 5 5 6 5 5 6 5 5 5 5 5 6 6 5 6 5 5 5 5 5 5 5 5 5 5 5 5 5 5 5 5 5 5 5 5 5 5 5 5 5 5 5 5 6 5 5 5 5 5 5 5 5 5 5 5 6 6 5 5 6 5 5 5 5 5 5 5 5 5 6 5 5 6 5 5 5 5 5 6 5 5 5 5 5 5 5 5 5 5 5 6 5 5 5 5 5 6 5 5 5 6 5 5 5 5 5 5 5 5 5 6 6 5 5 5 5 5 6 5 5 5 6 6 5 5 5 5 5 5 5 5 5 5 5 5 5 5 5 5 5 5 5 5 5 5 5 5 5 5 5 5 5 5 5 5 5 5 5 5 5 5 5 5 5 5 5 5 5 5 5 5 5 5 5 5 5 6 5 5 5 5 6 5 5 5 5 5 5 5 5 5 5 5 5 5 5 5 5 5 6 5 6 5 5 5 6 5 5 5 5 5 5 5 5 5 5 5 5 5 6 5 5 5 5 5 5 5 5 5 5 5 5 5 5 5 5 5 5 5 5 5 5 6 5 6 5 5 5 6 5 5 6 5 5 6 6 6 5 5 5 5 5 5 5 6 5 5 6 5 5 5 5 5 5 5 5 5 5 5 6 5 5 5 5 5 6 5 5 5 5 5 5 5 5 5 5 5 5 6 5 5 5 5 5 5 6 5 5 5 5 5 5 5 5 5 5 5 5 5 5 5 5 5 5 5 5 5 5 5 5 5 5 6 5 6 5 5 5 5 5 5 5 5 5 5 5 5 5 5 5 5 6 5 5 5 5 6 5 5 5 5 5 6 5 5 5 6 5 5 6 5 5 5 5 5 5 5 5 6 5 5 5 5 5 5 5 5 5 5 5 5 5 5 5 5 5 5 5 5 5 5 5 5 6 5 5 5 5 5 5 5 5 5 6 5 6 5 5 5 5 5 5 5 5 5 6 5 5 5 5 5 5 5 5 5 5 5 5 5 6 5 5 5 6 5 5 6 5 6 5 6 6 5 5 5 6 6 5 6 5 5 5 6 5 5 5 5 5 5 5 6 5 5 5 5 5 6 5 5 5 6 6 6 5 5 5 5 5 5 6 5 5 5 5 5 5 5 5 5 5 5 6 5 6 5 5 5 6 5 5 6 5 5 5 5 5 5 5 5 5 5 5 5 5 5 5 6 5 5 5 5 5 5 5 5 5 5 5 5 5 5 5 6 5 5 5 5 5 6 5 5 5 5 6 5 5 5 5 5 5 5 5 5 6 5 5 5 6 6 5 5 6 5 5 6 5 5 6 5 5 5 5 6 5 5 6 5 5 5 5 5 5 5 5 5 5 5 6 5 5 5 5 5 5 5 5 5 5 6 5 5 5 5 5 5 5 5 5 5 5 5 5 6 5 5 5 5 5 5 6 6 5 5 5 5 6 5 5 6 5 5 6 5 5 5 5 5 5 6 6 5 5 5 6 5 5 5 5 5 5 5 6 5 5 5 5 6 5 5 5 5 5 5 5 5 5 6 5 5 5 5 6 5 5 5 5 5 5 5 5 6 5 5 5 5 5 5 5 5 5 5 5 5 5 5 5 5 5 5 5 5 5 5 5 5 6 5 5 6 5 6 5 5 5 5 5 5 5 5 5 6 5 6 5 5 5 5 5 5 5 6 5 5 5 6 5 5 6 5 5 5 6 5 6 5 5 5 6 5 5 5 5 5 6 6 5 5 5 5 5 5 5 6 5 5 6 5 5 5 5 5 5 5 5 5 5 5 5 5 5 5 5 5 5 5 5 5 5 5 5 5 5 5 5 5 5 6 6 5 5 5 5 5 6 5 6 5 5 6 5 5 5 5 5 5 5 5 5 5 5 5 5 6 5 5 5 5 6 5 5 5 5 5 5 5 5 5 5 5 5 5 5 5 5 5 5 6 5 6 5 5 6 5 5 5 5 5 5 6 5 5 5 5 5 5 5 5 5 5 5 5 5 5 5 5 5 5 5 6 5 5 5 5 6 5 5 5 5 5 5 6 5 5 5 5 6 5 5 5 5 6 6 5 5 6 5 5 5 5 6 5 6 5 6 5 6 5 5 6 5 5 5 5 6 5 5 5 6 5 5 5 5 5 5 5 6 5 5 5 5 6 5 6 5 6 5 5 5 5 5 6 5 6 5 6 5 5 5 5 5 5 5 5 5 5 5 5 5 5 5 5 5 5 5 5 5 5 5 5 5 5 5 5 6 5 5 5 5 6 5 5 5 5 5 6 5 5 5 5 5 5 6 5 5 5 5 5 5 5 5 5 5 5 5 5 5 6 5 5 5 5 5 5 6 5 5 5 5 5 5 5 6 5 5 6 5 5 6 5 5 5 5 5 5 5 5 5 5 6 5 5 5 5 5 5 5 5 5 5 5 5 5 5 5 5 5 5 5 5 5 5 5 5 5 6 5 5 6 5 5 5 6 5 5 5 5 5 5 5 5 5 5 5 5 5 5 5 5 5 5 5 5 5 6 5 5 5 6 5 5 6 5 5 5 5 5 5 5 5 5 5 5 5 5 5 5 5 5 6 5 5 6 5 5 5 5 6 5 5 5 5 5 5 5 5 5 5 5 5 5 5 6 5 5 5 5 6 5 5 5 5 5 6 5 6 5 5 5 5 5 6 5 5 5 5 6 5 5 5 5 6 5 5 5 5 5 5 5 5 6 5 5 5 5 6 5 5 5 5 6 5 5 5 5 5 5 5 5 5 5 5 5 6 5 5 5 6 5 5 5 5 6 5 5 5 5 6 5 5 5 5 5 5 5 5 5 5 5 5 6 5 5 5 5 5 5 5 5 5 5 5 5 6 5 5 5 5 5 5 5 5 5 5 5 5 5 5 5 5 5 5 5 5 5 5 5 5 5 5 5 5 5 5 5 5 5 5 5 5 5 5 5 6 5 5 5 5 5 5 5 5 6 5 6 5 5 5 5 5 5 5 5 5 5 5 5 5 5 5 5 5 5 5 5 5 5 5 5 5 5 5 5 5 5 5 5 5 5 5 5 5 5 5 5 5 5 5 5 5 5 5 5 5 5 5 5 5 5 5 5 5 5 5 5 5 5 5 5 5 5 5 5 5 5 5 5 5 5 5 5 5 5 5 5 5 5 5 5 6 5 5 5 5 5 5 5 5 5 5 5 5 5 5 5 5 5 5 5 5 5 5 5 5 5 6 5 5 5 5 5 5 5 6 5 5 5 5 6 6 5 5 6 6 5 5 5 6 5 5 6 6 5 5 5 5 5 5 5 6 5 5 6 5 5 5 5 5 6 5 5 5 5 5 5 5 5 5 5 5 5 5 5 5 5 5 5 5 5 5 5 5 5 5 5 5 5 5 5 5 5 5 5 5 5 5 5 5 5 5 5 5 5 5 5 5 5 5 5 5 5 5 5 5 5 5 5 5 5 5 5 5 5 5 5 5 5 5 5 6 5 6 5 5 5 5 5 6 6 5 5 5 5 5 5 5 5 5 5 5 5 5 5 5 5 5 5 6 5 5 6 5 5 6 5 6 5 5 6 6 6 5 5 5 5 5 6 5 5 5 5 6 5 5 5 5 6 5 5 5 5 5 6 5 6 5 5 5 5 5 6 5 5 5 6 5 5 5 5 5 5 5 5 5 5 5 5 5 5 5 5 5 5 5 5 5 6 5 5 5 5 5 5 5 5 5 5 5 5 5 5 5 5 6 5 5 6 5 5 5 5 5 5 5 6 5 5 5 5 5 5 5 5 5 5 5 5 5 5 5 5 5 6 5 5 5 5 5 6 5 5 6 5 5 5 5 5 6 5 5 5 5 5 5 5 5 5 5 6 5 5 6 5 5 5 5 5 6 6 6 6 5 5 5 5 6 5 5 5 5 5 5 6 5 5 5 5 5 5 5 5 5 5 5 5 5 6 5 5 5 5 6 6 5 5 5 5 5 5 5 5 5 5 5 5 5 6 5 5 5 5 6 6 5 5 5 6 6 5 6 5 5 5 5 6 6 5 5 5 5 5 5 5 5 5 6 5 5 5 5 5 5 5 5 5 5 5 5 5 5 5 5 5 5 5 6 5 5 5 5 5 5 5 5 5 5 5 5 5 5 5 5 5 5 5 5 5 5 5 5 5 5 5 6 5 5 5 5 5 5 5 5 5 5 6 5 6 5 5 6 5 5 5 5 5 5 5 5 5 5 5 6 5 5 6 5 6 5 5 5 5 5 5 5 5 5 5 5 6 5 5 5 5 5 5 6 5 5 5 5 6 5 5 5 5 5 5 5 5 5 5 5 6 5 5 5 5 5 5 5 5 5 5 5 5 5 5 5 5 5 6 5 5 5 5 5 5 5 6 5 5 5 5 5 5 5 5 5 6 5 5 5 5 6 6 5 5 5 5 5 5 5 5 5 5 5 5 5 5 5 5 5 5 5 5 5 5 5 5 5 5 5 5 5 5 5 5 5 5 5 5 5 5 5 5 5 5 5 5 5 5 5 5 5 5 5 5 5 5 5 5 5 5 5 5 5 5 5 5 5 5 5 5 5 5 5 5 5 5 5 5 5 5 5 5 5 5 5 5 5 6 5 6 5 5 5 5 5 5 5 5 5 5 5 6 5 5 5 6 5 5 5 5 5 5 5 5 5 5 6 5 5 5 5 5 5 5 5 5 5 5 5 5 5 5 5 5 6 5 5 6 5 5 5 5 5 6 5 6 5 6 5 5 5 5 5 5 5 5 5 5 5 5 5 5 5 5 5 5 5 5 5 5 5 5 5 5 5 5 5 5 5 5 5 5 5 5 5 5 5 5 5 5 5 6 5 5 6 5 5 5 6 5 5 5 5 5 5 5 5 5 5 5 5 5 5 5 5 5 5 5 5 5 5 5 5 5 5 5 5 5 5 5 5 5 5 5 5 5 5 5 5 5 5 5 6 5 5 5 5 6 5 5 5 5 5 5 5 5 6 5 5 5 6 5 5 5 5 5 5 5 6 5 5 5 5 5 6 5 5 5 5 5 5 5 5 5 5 5 5 5 5 5 5 6 6 5 5 5 6 5 6 5 5 5 5 5 5 5 5 5 5 5 5 5 5 6 5 5 6 6 5 5 5 5 5 5 5 5 5 5 6 5 5 6 5 5 5 5 6 5 5 6 5 5 5 5 5 5 6 5 5 5 5 5 5 6 5 5 6 5 6 5 5 5 5 5 5 5 5 5 5 5 5 5 5 5 5 5 5 6 5 5 5 5 5 5 5 5 5 5 5 6 5 5 5 5 5 5 5 5 5 5 5 6 5 5 5 5 5 6 5 5 5 5 5 5 5 5 5 5 5 5 6 5 5 5 5 5 6 5 6 5 5 5 5 5 5 5 5 5 5 5 5 5 5 5 5 5 5 5 5 5 5 6 5 5 5 5 6 5 5 5 5 5 5 5 5 5 5 5 5 5 5 5 5 5 5 5 5 5 5 5 5 5 5 5 5 5 5 5 5 5 5 5 5 5 5 5 5 5 5 5 5 5 5 5 6 5 5 5 5 5 5 5 5 5 5 5 5 5 5 5 5 6 5 5 5 5 5 5 5 5 5 5 5 5 5 5 5 6 5 5 6 5 6 5 5 5 5 5 5 6 6 5 6 5 5 5 5 5 5 5 5 5 6 5 6 5 5 5 5 5 5 5 5 5 6 6 5 6 5 5 5 5 5 5 5 6 5 6 5 5 5 5 5 5 5 5 5 5 5 5 5 5 5 5 6 5 5 6 5 5 5 5 5 6 5 5 5 5 5 5 5 5 5 5 5 5 5 5 5 5 5 5 5 5 5 6 5 5 5 5 5 5 5 5 5 5 5 5 5 5 5 5 5 5 5 6 5 5 5 5 6 5 5 5 6 5 5 5 5 5 5 5 5 5 5 5 5 6 5 5 5 5 5 5 5 5 5 5 5 5 5 5 5 5 5 5 5 5 5 6 5 5 5 5 6 5 5 5 6 5 5 5 5 5 5 5 5 5 5 5 6 5 5 5 5 6 5 5 5 5 5 5 5 6 5 5 5 5 5 5 5 5 5 5 5 5 5 5 5 6 5 5 5 5 5 5 5 6 5 5 6 5 5 6 5 5 5 6 5 5 5 5 5 6 5 5 5 6 5 5 5 5 5 5 5 5 5 5 5 5 5 6 5 5 5 5 5 5 6 5 5 5 5 6 5 5 5 5 6 6 5 6 5 6 5 5 5 5 5 5 6 5 5 5 5 5 6 5 5 5 5 5 5 6 5 5 6 5 5 5 6 6 5 5 5 5 5 5 5 6 5 5 5 5 5 6 5 5 6 5 5 5 5 6 5 6 5 5 5 5 5 6 5 5 5 6 6 5 5 5 5 5 6 5 5 5 5 6 5 6 5 5 5 6 6 5 6 6 5 5 6 5 5 6 5 6 5 5 6 5 5 5 6 5 6 6 5 6 5 5 5 5 6 5 6 5 5 6 5 6 5 5 5 5 5 5 5 5 5 5 5 6 5 5 5 6 5 5 5 5 5 6 5 5 5 5 5 6 5 5 5 5 5 5 5 5 5 6 5 5 5 6 5 5 5 5 5 5 5 5 5 5 5 5 6 5 5 5 5 5 5 5 5 5 5 6 6 5 6 5 5 5 5 6 5 6 6 5 5 5 6 5 5 6 5 6 5 5 6 5 5 6 5 5 5 5 5 6 5 5 5 6 5 6 5 5 5 5 6 5 5 5 5 5 5 6 5 5 5 5 5 5 5 5 5 6 5 5 5 5 5 5 5 5 5 5 6 5 5 5 5 6 5 5 6 5 5 5 6 5 5 5 5 5 5 6 5 5 5 5 5 5 5 5 5 5 5 5 6 5 5 5 5 6 5 5 6 6 5 6 5 5 5 5 6 5 5 5 5 5 5 5 5 5 5 5 5 5 5 5 5 5 5 5 5 5 5 5 5 5 5 5 5 6 5 5 5 5 5 5 5 5 5 6 5 5 5 6 5 5 5 5 5 5 5 5 5 5 5 5 5 5 5 5 5 6 5 5 6 6 5 5 6 5 6 5 6 5 5 5 5 5 5 5 5 5 5 5 5 5 5 5 5 5 5 5 5 5 5 5 5 5 5 5 5 5 5 5 5 5 5 6 5 5 5 5 5 5 5 5 5 5 5 5 5 5 5 5 5 6 5 5 5 5 5 5 5 6 5 5 5 5 5 5 5 5 5 5 5 6 5 5 5 5 5 5 5 5 5 5 5 5 5 5 5 5 5 5 5 5 5 5 5 5 5 5 5 5 5 5 5 5 5 5 5 5 5 5 5 5 5 5 5 5 5 5 5 5 5 5 5 5 5 5 5 5 5 5 5 5 5 5 5 5 5 5 5 5 5 5 5 5 5 5 5 5 5 5 5 6 5 5 5 6 5 6 5 5 5 5 5 5 5 5 5 5 5 6 5 5 5 5 6 5 5 5 6 5 5 5 5 5 5 5 5 5 5 5 5 5 5 5 5 5 5 5 5 5 5 5 5 5 5 5 5 5 5 5 5 5 5 5 5 5 5 5 6 5 5 5 5 5 5 5 5 5 5 5 5 5 5 5 6 6 5 5 5 5 5 5 5 5 5 5 5 5 6 6 5 5 5 5 5 5 5 5 5 5 5 5 5 6 6 5 5 5 5 5 6 5 6 6 5 6 5 6 5 6 5 6 5 5 6 5 6 5 5 5 5 5 5 5 6 6 6 5 5 5 6 5 5 5 6 5 6 6 5 5 6 5 5 5 5 5 5 5 5 5 5 5 5 5 6 5 5 5 5 6 5 6 5 6 5 5 5 6 5 5 5 5 5 5 6 5 5 5 5 6 5 5 5 6 5 5 5 5 5 5 5 5 5 5 5 5 5 5 5 6 5 5 6 5 5 5 5 5 5 5 5 5 5 6 5 5 5 6 5 6 5 5 5 5 6 5 6 5 6 6 6 5 5 5 5 6 5 5 5 6 6 6 5 6 5 5 5 5 5 5 5 5 5 5 5 5 6 5 5 5 5 5 5 6 5 5 5 5 5 5 6 5 5 5 5 5 6 5 6 5 5 5 5 5 6 6 5 5 5 6 5 5 5 6 6 5 6 5 5 6 5 5 5 5 5 5 5 5 6 5 5 5 5 5 5 6 5 5 5 5 5 5 5 5 5 5 5 5 5 5 6 6 5 5 5 5 5 5 5 5 5 5 5 5 5 5 5 5 5 5 5 5 6 5 5 5 5 6 5 6 5 5 5 6 6 5 5 6 5 5 5 5 5 5 5 5 5 5 5 5 5 5 6 5 5 5 6 5 5 5 5 5 5 5 5 5 5 5 5 5 5 5 5 5 5 5 5 5 5 5 5 5 5 5 5 5 5 5 5 5 5 5 5 5 5 5 5 5 5 5 5 5 5 5 5 6 5 5 5 5 5 5 5 5 6 5 5 5 5 5 5 5 5 6 5 5 5 6 5 5 5 6 5 6 6 5 5 5 6 5 5 5 6 5 5 5 6 5 5 6 5 6 5 6 5 5 6 5 6 5 6 5 5 5 6 5 5 6 5 5 5 5 5 5 5 5 5 5 5 5 5 5 5 5 5 5 6 5 5 5 6 5 5 5 5 5 6 5 5 6 5 5 5 5 5 5 5 5 6 5 5 6 5 6 5 5 6 5 5 5 5 5 5 5 5 5 5 5 5 5 5 5 5 5 5 5 5 5 6 5 5 5 5 5 5 5 5 5 5 5 5 5 5 5 5 5 5 5 5 5 5 5 5 5 5 5 5 6 5 5 5 5 5 5 5 6 5 5 5 5 5 5 5 5 5 5 5 6 5 5 5 6 5 5 5 5 6 5 5 5 6 5 5 5 5 6 5 5 6 5 5 5 5 5 6 5 5 5 5 5 5 5 5 5 5 5 5 6 5 5 5 5 5 6 5 5 5 5 5 5 5 5 5 5 5 5 5 5 5 5 6 5 5 5 5 5 5 5 5 5 5 5 5 5 5 5 5 5 5 5 6 5 6 6 5 5 5 5 5 5 5 5 5 5 5 6 5 6 5 5 5 5 5 5 5 5 5 5 5 5 5 5 5 5 5 6 5 5 5 5 6 5 5 5 5 5 5 5 5 5 5 6 5 5 5 5 5 5 5 6 5 5 6 5 5 5 5 6 5 6 5 5 5 5 5 5 5 5 5 5 5 5 5 5 6 5 5 5 6 5 5 6 5 5 5 5 5 5 5 6 5 5 5 5 5 5 5 5 5 5 5 5 5 5 5 5 5 5 5 5 5 5 5 5 5 5 5 5 5 5 5 5 5 5 5 5 5 5 6 6 5 5 5 5 5 5 5 5 6 5 5 5 5 5 5 5 5 5 5 5 5 5 5 5 5 5 5 5 5 5 5 5 5 5 5 5 5 5 5 5 6 5 5 6 5 5 5 6 5 6 5 6 5 5 5 5 5 5 6 5 6 5 6 5 6 5 6 5 6 5 5 5 6 5 5 6 6 5 5 6 6 6 5 6 5 5 5 6 5 6 6 5 5 6 5 5 5 5 5 5 5 6 5 6 5 6 5 5 5 5 5 5 5 5 5 5 6 5 5 5 5 5 6 6 5 5 5 5 5 5 5 5 5 5 5 5 5 5 5 5 5 5 5 5 5 5 5 5 5 5 5 5 5 5 5 5 5 5 5 5 5 6 5 5 5 6 5 5 5 5 5 5 5 5 5 5 5 5 5 5 5 6 5 5 5 6 5 5 5 5 5 5 5 5 5 5 5 5 5 6 6 5 5 5 6 5 6 5 5 5 5 5 5 5 5 5 5 5 5 5 5 5 6 5 5 5 6 5 5 5 5 6 5 6 5 5 5 5 5 5 5 6 5 5 6 6 5 5 5 5 5 5 5 5 5 5 5 5 6 5 5 5 5 6 5 5 5 5 5 5 5 5 5 5 5 5 5 5 5 5 5 5 5 5 5 5 5 6 5 5 5 5 5 5 5 5 5 5 5 5 5 5 5 5 5 5 5 5 5 5 5 5 5 6 5 6 5 5 5 6 5 5 5 6 6 5 5 6 5 5 6 5 5 5 5 5 5 5 5 5 5 5 5 5 5 5 5 5 6 5 5 5 5 5 5 5 6 5 5 5 5 5 5 5 5 5 5 5 5 6 5 5 5 5 5 5 5 5 5 5 5 5 5 5 5 5 5 5 5 5 5 5 5 6 6 5 5 5 5 5 5 5 6 5 5 5 5 5 5 5 5 5 5 5 5 5 5 5 5 5 5 5 5 5 5 5 5 5 5 5 5 5 5 5 5 5 5 5 5 5 5 5 5 5 5 5 5 5 5 5 5 5 5 5 5 5 5 5 5 5 5 5 5 5 5 5 5 5 5 5 5 5 5 5 5 5 5 5 5 5 5 5 5 5 5 6 5 5 6 5 5 5 5 5 5 5 5 5 5 5 5 5 5 5 5 5 5 5 5 5 5 5 5 5 5 5 5 5 5 5 5 5 6 5 5 5 5 5 5 5 5 5 5 5 5 5 5 6 6 5 5 5 5 5 5 5 5 5 6 5 5 5 6 5 5 5 5 5 5 5 5 5 5 5 5 5 5 5 5 5 5 5 5 5 5 5 5 5 5 5 5 6 5 5 5 5 5 5 5 5 5 5 5 5 5 5 5 5 6 5 5 5 5 5 5 5 6 5 5 5 6 5 5 5 5 5 5 5 5 5 5 5 5 5 5 5 6 5 5 5 5 5 5 6 5 5 5 6 5 5 5 5 5 5 5 5 6 5 5 5 6 5 6 5 5 5 5 5 5 5 5 5 5 5 5 5 5 5 5 5 5 5 5 5 5 5 5 5 5 5 5 5 5 5 5 5 5 5 5 5 5 5 5 5 5 5 5 5 5 5 5 5 5 5 5 5 5 5 5 5 5 5 5 5 6 5 5 5 5 5 6 5 5 5 5 5 5 5 5 5 5 5 5 5 5 5 5 5 5 6 5 5 5 5 5 5 5 6 5 5 6 5 5 5 5 5 5 5 5 5 5 5 6 5 6 6 5 5 6 5 5 6 5 5 5 6 6 6 5 5 5 5 6 5 6 6 5 5 5 6 5 6 5 5 5 6 5 5 5 5 5 5 6 5 5 5 5 6 5 6 6 6 5 5 5 6 6 5 5 5 6 5 5 5 6 5 6 6 5 5 6 6 5 6 5 5 5 6 5 5 5 6 6 6 5 6 6 5 5 5 6 5 5 5 6 5 6 5 5 5 6 5 5 6 6 5 6 5 5 6 5 6 5 5 5 5 6 5 5 5 6 5 5 5 5 5 5 5 5 5 5 5 5 5 5 5 5 5 5 5 5 5 5 5 5 6 5 5 6 5 6 6 5 6 6 5 5 5 5 6 5 5 5 5 5 5 5 5 6 5 5 5 5 5 5 6 5 6 5 5 5 5 5 5 5 6 5 5 6 5 5 5 6 5 6 5 5 5 5 6 5 6 
</DataArray>
<DataArray type="Float64" Name="stress" NumberOfComponents="9" format="ascii">
-1.0840180560917361 -1489.5593331888958 0 -1489.5593331888958 -7.7370685201095171 0 0 0 0 -0.28126704542054881 -2.5374074756353444 0 -2.5374074756353444 2.7748975877485265 0 0 0 0 165.80552109077871 -1206.7289230248289 0 -1206.7289230248289 409.15635693685181 0 0 0 0 -313.19778983447395 -164.71419698777754 0 -164.71419698777754 -0.40922443549425225 0 0 0 0 -436.91519530640653 -494.74256160452069 0 -494.74256160452069 -129.21698672455386 0 0 0 0 3.6796281417649794 -3.7276216687774379 0 -3.7276216687774379 2.6966554696505796 0 0 0 0 -236.4156513996204 32.014473249913863 0 32.014473249913863 -369.13869470748614 0 0 0 0 -0.28245051542398869 -117.37788233940591 0 -117.37788233940591 -232.62494510723627 0 0 0 0 -79.966150203290454 -167.11438460335739 0 -167.11438460335739 -258.18500476323243 0 0 0 0 -116.33386466626689 -200.74726878966794 0 -200.74726878966794 -274.17406147543079 0 0 0 0 -117.63568669602893 -287.2247444531954 0 -287.2247444531954 -386.17245563724646 0 0 0 0 11.570757506444721 -12.118112955817292 0 -12.118112955817292 10.237116301638792 0 0 0 0 -111.50922590050322 -178.40536297027211 0 -178.40536297027211 -352.5088868073417 0 0 0 0 0.082173619044624502 -165.87496139275572 0 -165.87496139275572 -318.96301504192888 0 0 0 0 -26.456626259365294 -191.3355025008168 0 -191.3355025008168 -325.13327220358769 0 0 0 0 18.998998871985663 -19.290834283259052 0 -19.290834283259052 15.567496161312079 0 0 0 0 -468.89373001991771 -917.36661634868506 0 -917.36661634868506 -32.201572427724386 0 0 0 0 -310.16375873985817 -297.58801049951398 0 -297.58801049951398 -319.49760110434727 0 0 0 0 -375.37532145314617 -390.13532520809531 0 -390.13532520809531 -193.41018633967906 0 0 0 0 -242.99253607916762 -301.78588434964331 0 -301.78588434964331 -425.22936422413659 0 0 0 0 -360.0492063845013 -716.74096758881205 0 -716.74096758881205 -350.00699284423172 0 0 0 0 -0.78987889949445389 -1.9594682932467506 0 -1.9594682932467506 2.2607463144738489 0 0 0 0 -378.68732581887161 -24.067167803830671 0 -24.067167803830671 -433.75928820318222 0 0 0 0 -243.33875740952135 -366.57056220407048 0 -366.57056220407048 78.759234606048267 0 0 0 0 -0.49385628191677711 -4.0250179527384091 0 -4.0250179527384091 5.38281264997633 0 0 0 0 -491.33866126697831 -399.24856864832691 0 -399.24856864832691 -180.74271964559739 0 0 0 0 -467.8460064342944 -210.68149519084545 0 -210.68149519084545 -63.637713600364805 0 0 0 0 -333.39390518999426 -227.46092933411273 0 -227.46092933411273 -149.9465332298023 0 0 0 0 -350.92613393695319 -250.15680691008765 0 -250.15680691008765 0.2933377382796607 0 0 0 0 -157.91487208821491 -251.82900981927378 0 -251.82900981927378 -115.05968178450348 0 0 0 0 -1.4478315723099513 -177.66512995989979 0 -177.66512995989979 213.98057864776274 0 0 0 0 410.5360104223837 -211.3260819017014 0 -211.3260819017014 -0.15385700248589274 0 0 0 0 560.72720319368091 -163.35669094403966 0 -163.35669094403966 -20.582132681582152 0 0 0 0 1092.691762859431 -293.43209049028883 0 -293.43209049028883 -7.3809779446287394 0 0 0 0 420.82228589123406 110.89958121642121 0 110.89958121642121 102.53835006101144 0 0 0 0 -33.181807552902683 -73.006039813546522 0 -73.006039813546522 -60.224661468280829 0 0 0 0 152.47400075507539 -271.93211675036582 0 -271.93211675036582 294.21920939091797 0 0 0 0 679.09625509979378 -234.4011681910597 0 -234.4011681910597 -0.13251928303454028 0 0 0 0 505.81619974537534 -607.69776213013392 0 -607.69776213013392 574.38789259493933 0 0 0 0 -102.34124754996083 196.40810759773012 0 196.40810759773012 161.73624778255908 0 0 0 0 476.89919679064405 492.72956645755403 0 492.72956645755403 -636.28597860017362 0 0 0 0 10.013716822036557 -0.72675260707799794 0 -0.72675260707799794 -0.59019278308381828 0 0 0 0 895.29831805552749 31.872742803694564 0 31.872742803694564 -272.05548629787518 0 0 0 0 468.05055152503337 -186.94349523233905 0 -186.94349523233905 -339.30213282302157 0 0 0 0 778.69779472631853 -382.99190856998757 0 -382.99190856998757 3.1308358825554023 0 0 0 0 758.38787795739336 -390.96779761291691 0 -390.96779761291691 118.67571629269128 0 0 0 0 -388.46961281688073 -456.78606442561272 0 -456.78606442561272 41.36043580603291 0 0 0 0 55.896524621151912 -329.87125934951109 0 -329.87125934951109 -197.81054270761524 0 0 0 0 518.56241260744719 -507.73282215019935 0 -507.73282215019935 -61.474823705946619 0 0 0 0 3.6065632032768917 -269.14554535349089 0 -269.14554535349089 343.74413797454872 0 0 0 0 40.220857195155986 -410.77125150500069 0 -410.77125150500069 -291.94874586122023 0 0 0 0 -666.31484878432821 -245.26794823747332 0 -245.26794823747332 -197.56892505247743 0 0 0 0 -72.850777209685475 -177.55673783269231 0 -177.55673783269231 -203.26233217848494 0 0 0 0 -106.36732313245739 -469.64039624377619 0 -469.64039624377619 -107.80018110671517 0 0 0 0 -98.17885150625807 -177.88727884539367 0 -177.88727884539367 -674.99339914736629 0 0 0 0 -114.50317825319053 -653.36502930613733 0 -653.36502930613733 -671.06289146652125 0 0 0 0 398.8010008442543 -99.968777701516956 0 -99.968777701516956 -421.26104905876127 0 0 0 0 -201.10735243298132 -370.03157768369601 0 -370.03157768369601 -274.78725738041976 0 0 0 0 -327.19651677275033 -709.44746538849904 0 -709.44746538849904 -291.86778923249494 0 0 0 0 19.104496805265526 -18.538190040424521 0 -18.538190040424521 14.322892590656124 0 0 0 0 1046.0875593477904 -453.00767813673156 0 -453.00767813673156 -376.59985160792439 0 0 0 0 533.22405735588472 -97.170273365365574 0 -97.170273365365574 -247.36005327456587 0 0 0 0 410.5647511236275 -51.569792506968952 0 -51.569792506968952 -400.49020329473569 0 0 0 0 900.34935182789923 -570.38359294062229 0 -570.38359294062229 -105.02204751269892 0 0 0 0 738.84938423468338 -587.47600818610408 0 -587.47600818610408 -103.20754945161025 0 0 0 0 986.48043936017348 -948.40282388687319 0 -948.40282388687319 390.11231684507584 0 0 0 0 1382.7916044250451 -327.88933585744962 0 -327.88933585744962 -408.71312359558254 0 0 0 0 1295.0553712385372 -430.54248417262261 0 -430.54248417262261 343.76584333107894 0 0 0 0 701.63108770970575 -1105.5959475266973 0 -1105.5959475266973 260.78934689186281 0 0 0 0 754.77181083630421 -55.040447020450301 0 -55.040447020450301 557.21179362016437 0 0 0 0 -499.41128003574704 -163.46343270828584 0 -163.46343270828584 -5.7537164308196225 0 0 0 0 -388.28791663860193 -345.34824624452312 0 -345.34824624452312 290.0303450515712 0 0 0 0 8.6797234605080007 -7.5151385164795315 0 -7.5151385164795315 5.8160308339164288 0 0 0 0 -180.14463495353993 -640.11589038492457 0 -640.11589038492457 861.70461401244393 0 0 0 0 -474.93526349064814 -69.584082641993518 0 -69.584082641993518 354.08591360516584 0 0 0 0 491.4070351108312 -499.6968045244721 0 -499.6968045244721 482.60153293853 0 0 0 0 -235.78755721556081 -858.6006758124422 0 -858.6006758124422 439.23302424570284 0 0 0 0 -268.95478176353936 -66.630755970629252 0 -66.630755970629252 327.81937632774861 0 0 0 0 -3.0038658369560096 -1.7965558936946593 0 -1.7965558936946593 -0.76023777591182551 0 0 0 0 -99.806224392996228 -81.672745297735673 0 -81.672745297735673 -35.715981344612374 0 0 0 0 -9.3164789201199483 -6.1039869897018519 0 -6.1039869897018519 2.0206870938864085 0 0 0 0 -36.188837127916486 80.374532211270889 0 80.374532211270889 326.8272534787684 0 0 0 0 49.937568966783147 38.313341864189169 0 38.313341864189169 47.341414520524268 0 0 0 0 -359.22646720387638 -207.11700417285647 0 -207.11700417285647 665.71161149418185 0 0 0 0 103.4657185449978 61.439040200773889 0 61.439040200773889 278.54275192163186 0 0 0 0 18.943261265121691 -291.51811154789903 0 -291.51811154789903 610.27615006142878 0 0 0 0 351.49905919651792 -422.08935400889277 0 -422.08935400889277 389.53697400171222 0 0 0 0 -0.56971789543146656 1.4791800018443979 0 1.4791800018443979 8.0239303811521978 0 0 0 0 206.46571108348144 -213.2279899398527 0 -213.2279899398527 281.54775670273375 0 0 0 0 -20.277018933484214 -191.40895781197469 0 -191.40895781197469 361.44977548875977 0 0 0 0 65.55366349846372 -271.28724325149415 0 -271.28724325149415 401.82645217723621 0 0 0 0 13.805142614313809 -137.72184936944541 0 -137.72184936944541 327.8126467259799 0 0 0 0 37.688412237752345 -172.84761048688961 0 -172.84761048688961 338.2508370598589 0 0 0 0 5.8874127644653527 -67.329671599242488 0 -67.329671599242488 92.958436083234119 0 0 0 0 -0.11391794008886791 -187.72003372881773 0 -187.72003372881773 275.65752109124332 0 0 0 0 18.841394921531901 -178.84473533279015 0 -178.84473533279015 212.8976563186261 0 0 0 0 5.3570428387656648 -107.79012601595946 0 -107.79012601595946 341.23430222448951 0 0 0 0 9.3886787654073487 -164.86847966858613 0 -164.86847966858613 -175.71687523012952 0 0 0 0 13.689123925338208 -8.294621012861171 0 -8.294621012861171 85.959807436820483 0 0 0 0 -24.157275292971462 -79.016911117498239 0 -79.016911117498239 90.36367322301885 0 0 0 0 7.6519598793747718 -104.55106429549778 0 -104.55106429549778 -237.03770918238661 0 0 0 0 0.05984990772412857 -177.99414336507107 0 -177.99414336507107 -169.53525608594646 0 0 0 0 -30.02758019468456 -219.26416205036003 0 -219.26416205036003 -348.5914607337545 0 0 0 0 -46.148818999776267 -112.55229953602611 0 -112.55229953602611 -204.05624002352488 0 0 0 0 -98.659182945622888 -159.49364538211557 0 -159.49364538211557 -168.15004886657698 0 0 0 0 -1.8003359630492923 -246.17910210109949 0 -246.17910210109949 -409.03037213487551 0 0 0 0 -235.53522425592564 -567.62328976503522 0 -567.62328976503522 -544.00482242913131 0 0 0 0 18.905185507108399 -282.35241422589752 0 -282.35241422589752 -586.5105901199463 0 0 0 0 -416.05612367258163 -295.89464968069115 0 -295.89464968069115 -85.537058901740238 0 0 0 0 292.79068451376952 -540.4717560677509 0 -540.4717560677509 -51.053962722544384 0 0 0 0 64.362089270883189 -214.8818513875558 0 -214.8818513875558 -150.34092850400339 0 0 0 0 506.49523632621549 -690.24240297991855 0 -690.24240297991855 -191.79729907569708 0 0 0 0 -182.28130178429274 306.35561654800404 0 306.35561654800404 -90.906179426929157 0 0 0 0 -12.85483274996659 -4.4143048280820949 0 -4.4143048280820949 99.834511941153323 0 0 0 0 -7.7721874520502752 -29.291972969775088 0 -29.291972969775088 129.73240617816191 0 0 0 0 14.925672264093009 -5.8653433540093829 0 -5.8653433540093829 87.301386223101872 0 0 0 0 3.2354902712520612 -2.0714146499747983 0 -2.0714146499747983 -1.6911521973447634 0 0 0 0 -512.03726474057476 136.78879755690286 0 136.78879755690286 1646.7486773910059 0 0 0 0 -21.515258933766745 16.446616671084485 0 16.446616671084485 6.8115300972467594 0 0 0 0 12.276824383010648 -1.1986431164857549 0 -1.1986431164857549 -1.0080449870480948 0 0 0 0 8.6753120306930214 10.033908957226231 0 10.033908957226231 68.309437786963827 0 0 0 0 0.57030439065204064 -0.39052851106944786 0 -0.39052851106944786 -0.23976561904994398 0 0 0 0 56.891354235765903 32.776543188341748 0 32.776543188341748 77.515847974296776 0 0 0 0 -99.91925151106625 4.6473188375712198 0 4.6473188375712198 95.890330288890254 0 0 0 0 -18.478014597923902 28.209979787949123 0 28.209979787949123 102.1348015261392 0 0 0 0 13.684351520882046 -3.8896991970468662 0 -3.8896991970468662 51.74580421961582 0 0 0 0 -26.296405209479417 -45.657841648080648 0 -45.657841648080648 24.032156029614271 0 0 0 0 -11.621045008931105 -28.821122933499282 0 -28.821122933499282 70.3697374236217 0 0 0 0 -51.648911413689348 -1.9283032885505236 0 -1.9283032885505236 101.11916222311265 0 0 0 0 -15.894880799805833 -60.178333050072979 0 -60.178333050072979 32.020726507184008 0 0 0 0 1.4372552574630078 -2.9215397635386608 0 -2.9215397635386608 1.6829846442441507 0 0 0 0 40.703463723972163 -75.551949454578789 0 -75.551949454578789 9.9181469296017895 0 0 0 0 60.768453942722772 -57.992324609764182 0 -57.992324609764182 0.63101985144385253 0 0 0 0 0.73507861274865149 -2.0557424537548172 0 -2.0557424537548172 1.2383030951363807 0 0 0 0 459.91748609020215 -169.66484065226905 0 -169.66484065226905 -67.328789232969939 0 0 0 0 451.60093169439642 -485.67050502850543 0 -485.67050502850543 435.55420388710809 0 0 0 0 714.08735083149804 -319.69597476608214 0 -319.69597476608214 -0.3945629329282383 0 0 0 0 844.0333725672499 -609.04187446263677 0 -609.04187446263677 360.05678811721373 0 0 0 0 1078.0725978083601 -436.84750379763227 0 -436.84750379763227 147.64322624578926 0 0 0 0 508.51407365801424 -350.12128601956647 0 -350.12128601956647 465.51596779817555 0 0 0 0 138.06769293690377 -316.32237495123263 0 -316.32237495123263 404.22895905912264 0 0 0 0 1.6531893831390221 -2.2698672946339968 0 -2.2698672946339968 2.96705291271482 0 0 0 0 97.702484009889304 139.64456799495383 0 139.64456799495383 46.708644921036466 0 0 0 0 -38.949347337074869 94.38320342256884 0 94.38320342256884 179.95965077647998 0 0 0 0 7.4983181009811375 -4.5940387159891323 0 -4.5940387159891323 3.2692544880860481 0 0 0 0 69.570583195134532 -57.473053950445319 0 -57.473053950445319 0.14651998318004189 0 0 0 0 64.361276170398924 42.584252686159743 0 42.584252686159743 -74.998109927721089 0 0 0 0 815.27754037226623 143.99594845562387 0 143.99594845562387 -23.355988614282978 0 0 0 0 -198.73977225727867 -288.45090001070457 0 -288.45090001070457 128.93079904593833 0 0 0 0 506.53441490965452 -595.57003639675258 0 -595.57003639675258 205.02337885094312 0 0 0 0 -91.077273606697418 -328.87020351393221 0 -328.87020351393221 1082.6538628867784 0 0 0 0 546.33936289580015 -224.01506151182184 0 -224.01506151182184 423.28295652526867 0 0 0 0 409.59466330563009 -689.3342728445532 0 -689.3342728445532 1327.7200344492594 0 0 0 0 6.4540691451050662 -3.4715958935480273 0 -3.4715958935480273 -0.47893338109639316 0 0 0 0 1046.950400441538 -672.51465653850755 0 -672.51465653850755 825.03786752177984 0 0 0 0 431.51197399805642 13.952282706792175 0 13.952282706792175 -524.74273402911058 0 0 0 0 -12.556919347258372 -152.86924670338885 0 -152.86924670338885 -0.11073817459327984 0 0 0 0 -123.97543795647539 -635.66763316488834 0 -635.66763316488834 266.42525701586783 0 0 0 0 17.244285835774946 -5.506100261701306 0 -5.506100261701306 -1.8029131658196249 0 0 0 0 31.10160205156717 -127.89073643174925 0 -127.89073643174925 -167.68143898830749 0 0 0 0 53.590043117334062 -66.418212804515861 0 -66.418212804515861 0.2706549918075325 0 0 0 0 20.972014809387076 -3.2901849378298635 0 -3.2901849378298635 -2.2079120956911318 0 0 0 0 187.82546499082855 -159.39240943728782 0 -159.39240943728782 19.755344168537704 0 0 0 0 180.23656190812926 -576.6330051040768 0 -576.6330051040768 666.70819625353761 0 0 0 0 811.49621869487601 191.76206166610064 0 191.76206166610064 -992.52017304536093 0 0 0 0 104.35139803785933 -849.87997302222357 0 -849.87997302222357 466.42358746414175 0 0 0 0 1866.5882553530382 -66.96391118958536 0 -66.96391118958536 -230.04018514462223 0 0 0 0 7.3919846368059297 -9.2261741517483955 0 -9.2261741517483955 8.7927217508012916 0 0 0 0 -1079.8377341224805 -909.49850189827339 0 -909.49850189827339 472.0069616768169 0 0 0 0 1491.5861530599141 -860.74218422032936 0 -860.74218422032936 77.953547573146352 0 0 0 0 1094.0055753609486 -92.02033447449503 0 -92.02033447449503 -152.09058807770089 0 0 0 0 897.45343440537545 -561.55173479191217 0 -561.55173479191217 -121.15808443311653 0 0 0 0 205.46790328141651 -275.88097972922696 0 -275.88097972922696 29.703076690471789 0 0 0 0 245.02229831994191 -195.76208438711183 0 -195.76208438711183 10.629790457645868 0 0 0 0 74.822021473206405 -216.25079777232168 0 -216.25079777232168 655.0768931544917 0 0 0 0 760.6963111522964 -498.84336849201782 0 -498.84336849201782 179.8518186762667 0 0 0 0 195.85541155032115 -12.795280856782483 0 -12.795280856782483 -442.37552044097356 0 0 0 0 -0.89224940956208343 -0.46690405199285578 0 -0.46690405199285578 0.38180885025479938 0 0 0 0 382.98727674237307 -463.3957781599338 0 -463.3957781599338 573.72424667638552 0 0 0 0 -5.5771038286389114 -0.47818098747104898 0 -0.47818098747104898 0.56391693535024956 0 0 0 0 -101.54881007136282 -258.7183302397134 0 -258.7183302397134 352.21682249863079 0 0 0 0 74.756400049802323 -167.88483540705784 0 -167.88483540705784 -427.24687382281445 0 0 0 0 101.89348112225116 -12.822491760025287 0 -12.822491760025287 71.30206662130513 0 0 0 0 -23.252764031160041 56.360920186409203 0 56.360920186409203 47.583131859254081 0 0 0 0 -213.58070375714306 -34.178582218116389 0 -34.178582218116389 111.26885279471026 0 0 0 0 -42.147011932553141 31.269443212087936 0 31.269443212087936 150.62068038844154 0 0 0 0 -4.2193828933086479 10.561788864488335 0 10.561788864488335 101.51773964631775 0 0 0 0 -16.271132666950365 -1.2256121967579645 0 -1.2256121967579645 1.7224505383026951 0 0 0 0 83.064223613051581 -193.39466799303773 0 -193.39466799303773 -263.38180518734589 0 0 0 0 -58.288217051682295 10.714879116618249 0 10.714879116618249 30.717263026950604 0 0 0 0 -9.124180601791096 -8.3128482200272309 0 -8.3128482200272309 8.8706009565652053 0 0 0 0 20.716368069450596 -11.79983984734001 0 -11.79983984734001 -11.095238447863267 0 0 0 0 30.978614548279438 -26.105761756101856 0 -26.105761756101856 4.9163724830868887 0 0 0 0 -73.45456078753341 -82.39871514562401 0 -82.39871514562401 -110.39798825053731 0 0 0 0 -109.16518061152601 -110.18992315273863 0 -110.18992315273863 32.310130487960123 0 0 0 0 -161.77044350334108 -116.40771114264135 0 -116.40771114264135 82.890662838035496 0 0 0 0 23.066128134681605 -28.085956354257547 0 -28.085956354257547 22.178152592802803 0 0 0 0 -288.04434392064286 -430.7022234852775 0 -430.7022234852775 -407.25313370107324 0 0 0 0 -232.44998726260383 -370.28161679963523 0 -370.28161679963523 -475.17261582234642 0 0 0 0 -85.412859143285459 -358.02448647901838 0 -358.02448647901838 -809.23254915064899 0 0 0 0 -106.34667641113538 -703.49830767999083 0 -703.49830767999083 10.967591308315605 0 0 0 0 -717.14117115145564 -967.10806831651644 0 -967.10806831651644 -143.32093142385565 0 0 0 0 18.373387377896805 -22.819674437643293 0 -22.819674437643293 20.033096791042666 0 0 0 0 -512.45514426724912 -162.46926722408534 0 -162.46926722408534 -325.77895013625221 0 0 0 0 -160.12426564431735 -387.25070108156069 0 -387.25070108156069 -690.06460607375629 0 0 0 0 350.25458653346686 -114.3151045377781 0 -114.3151045377781 -103.75912228467496 0 0 0 0 193.65695106162821 -26.106057579972912 0 -26.106057579972912 -62.613729639726444 0 0 0 0 180.47544510103944 -45.521868777644158 0 -45.521868777644158 10.779866497236071 0 0 0 0 -14.578465776721714 -49.257363080239884 0 -49.257363080239884 -66.534526880341218 0 0 0 0 6.0540812061606601 -2.3150148193713278 0 -2.3150148193713278 -2.2795360901551192 0 0 0 0 -22.590057030805838 66.982116601408052 0 66.982116601408052 -152.48770603393496 0 0 0 0 37.966126854196773 78.837202598742806 0 78.837202598742806 -480.34714530565543 0 0 0 0 33.844202656800917 3.1674343300837791 0 3.1674343300837791 -858.70950164109672 0 0 0 0 1.6651363586708499 -0.98748981793427504 0 -0.98748981793427504 -2.1815637917237609 0 0 0 0 -7.9440149623696925 -212.66890430274725 0 -212.66890430274725 -538.19398317716696 0 0 0 0 -75.71056016410148 -313.35102701879077 0 -313.35102701879077 -497.32816828120303 0 0 0 0 -41.752548785403633 -196.88849805262726 0 -196.88849805262726 -514.32929596734903 0 0 0 0 -230.87280548640047 -343.69654574917695 0 -343.69654574917695 -285.97405201757647 0 0 0 0 -171.78845631943841 -241.92678791582148 0 -241.92678791582148 -202.7745110797041 0 0 0 0 -119.52622897623223 -168.64898977037228 0 -168.64898977037228 -208.25357681558808 0 0 0 0 -50.61144460025389 -248.65676800974688 0 -248.65676800974688 -356.4602913012277 0 0 0 0 -87.493975051271264 -264.80898825155236 0 -264.80898825155236 -351.51773951109499 0 0 0 0 -98.640092910187377 -220.73859072993946 0 -220.73859072993946 -322.37020466987087 0 0 0 0 -75.095620345069619 -246.08509588411471 0 -246.08509588411471 -330.01712421698176 0 0 0 0 -27.930974798873649 -199.84478355854662 0 -199.84478355854662 -342.44224741037033 0 0 0 0 3.019921449245885 -121.59004039496176 0 -121.59004039496176 -330.9979140016585 0 0 0 0 -53.533808789143222 -235.59058762650602 0 -235.59058762650602 -391.0187829342176 0 0 0 0 37.587021962754079 -126.65241283269279 0 -126.65241283269279 -379.68383749743816 0 0 0 0 -15.925462566174247 -60.635763808768388 0 -60.635763808768388 -175.47512565471698 0 0 0 0 26.368771615074365 -84.132458110991138 0 -84.132458110991138 -305.93517720243381 0 0 0 0 -67.487399433855899 -168.92788996557647 0 -168.92788996557647 -277.00130563649873 0 0 0 0 -19.913458384547994 -137.25361881005483 0 -137.25361881005483 -311.45408821339515 0 0 0 0 14.307805573367659 -87.256779260198527 0 -87.256779260198527 -249.50836674199672 0 0 0 0 -42.930908224241648 -131.17399566638596 0 -131.17399566638596 -238.21999176254758 0 0 0 0 16.386970392606599 -70.229718233164022 0 -70.229718233164022 -247.54605662958056 0 0 0 0 -10.353200752426346 -62.846873865702946 0 -62.846873865702946 -170.41488432922779 0 0 0 0 5.5866363905984571 -2.4256030896268044 0 -2.4256030896268044 0.18669162663690031 0 0 0 0 23.297724683363413 -31.83352970804026 0 -31.83352970804026 -164.09865037351847 0 0 0 0 9.5674788806604738 -85.145275531902371 0 -85.145275531902371 -159.53822833097365 0 0 0 0 8.8829584621737609 -4.1876461193901733 0 -4.1876461193901733 0.83145509132909012 0 0 0 0 7.7409653049653571 36.796906751336792 0 36.796906751336792 -57.193508067693983 0 0 0 0 -2.4056618195827468 -206.82672755343083 0 -206.82672755343083 -61.806385322015558 0 0 0 0 350.01095754911512 -288.5302534792645 0 -288.5302534792645 -20.625237345928326 0 0 0 0 307.80523008424052 -0.71853130534236698 0 -0.71853130534236698 -141.78576982962841 0 0 0 0 121.73471731491736 39.761084143852713 0 39.761084143852713 -149.54927924311778 0 0 0 0 -32.95014874217668 -142.6669015889056 0 -142.6669015889056 -61.096288171625929 0 0 0 0 201.00989432318238 -146.76994048513734 0 -146.76994048513734 86.378563144942746 0 0 0 0 -4.1294081448868383 -31.160063097402599 0 -31.160063097402599 31.013000732447836 0 0 0 0 63.061579700281072 -203.31655954300459 0 -203.31655954300459 31.576924094566493 0 0 0 0 103.82914413738763 -78.644184013850463 0 -78.644184013850463 -72.820617331788526 0 0 0 0 -97.582336823783407 -82.657956968727376 0 -82.657956968727376 67.581041749544966 0 0 0 0 -95.089677886186109 -145.11490586779109 0 -145.11490586779109 385.01141112606638 0 0 0 0 10.04788534859108 -99.899867554813682 0 -99.899867554813682 -115.10316001822503 0 0 0 0 -86.674950587155763 -130.77431465882546 0 -130.77431465882546 168.31720412536379 0 0 0 0 174.05294578789471 -234.312159654688 0 -234.312159654688 201.98481573138633 0 0 0 0 -167.23270426933959 -399.58928701390141 0 -399.58928701390141 394.7562404594355 0 0 0 0 45.547221113401974 -64.655116353524136 0 -64.655116353524136 321.12064604603074 0 0 0 0 344.81406420945859 -396.98026984131866 0 -396.98026984131866 559.88237132786162 0 0 0 0 2.4972080849405245 -4.1212667025801935 0 -4.1212667025801935 3.5841921904170704 0 0 0 0 78.923272699117661 -380.33997565153186 0 -380.33997565153186 -578.31154984125897 0 0 0 0 -19.379583897703924 256.59148614938294 0 256.59148614938294 1298.3045558809972 0 0 0 0 -3.3573576231246989 -210.2178634155116 0 -210.2178634155116 -226.45487692682946 0 0 0 0 -55.41827617988929 -108.48770954148495 0 -108.48770954148495 -420.08611923750868 0 0 0 0 -120.33856984048907 -275.12854343195977 0 -275.12854343195977 -383.23454375061556 0 0 0 0 -174.01367963592202 -192.22660267610263 0 -192.22660267610263 -287.11249764632703 0 0 0 0 219.6666294806073 178.10671420229119 0 178.10671420229119 192.739924520145 0 0 0 0 -255.40385938359395 54.982415171820321 0 54.982415171820321 761.88422839938721 0 0 0 0 -7.9212052805378335 24.219128537311917 0 24.219128537311917 617.50413959238722 0 0 0 0 -197.95386040782068 -80.035801458099741 0 -80.035801458099741 565.0899089976956 0 0 0 0 9.7219866609871133 -11.707860887013439 0 -11.707860887013439 8.770629170551743 0 0 0 0 -70.910097026957374 -267.07635058287269 0 -267.07635058287269 -450.23047247539944 0 0 0 0 -147.852080065677 180.62485704806022 0 180.62485704806022 759.60491961184744 0 0 0 0 89.569940565372235 150.89314897343866 0 150.89314897343866 546.24181779414721 0 0 0 0 95.450173588546022 81.742018791510873 0 81.742018791510873 399.77127804823976 0 0 0 0 -62.591996353399736 -199.38467128167395 0 -199.38467128167395 -365.45774122138391 0 0 0 0 29.474027949327137 -95.985122074082028 0 -95.985122074082028 107.54345991640002 0 0 0 0 8.1404658517276403 4.0302462089457549 0 4.0302462089457549 1.5104929615336005 0 0 0 0 17.336736597803906 -20.610753054984201 0 -20.610753054984201 13.41902935870467 0 0 0 0 -3.8651969645215019 -0.43563564126457166 0 -0.43563564126457166 1.1543838088414446 0 0 0 0 -2.5740524612193241 -3.6854836131018587 0 -3.6854836131018587 0.4299201031073423 0 0 0 0 74.477326226406149 -133.19446703860376 0 -133.19446703860376 186.79694172753807 0 0 0 0 36.450364352320321 -84.006051818127162 0 -84.006051818127162 103.90023405372267 0 0 0 0 18.824580727306966 -29.627678625639419 0 -29.627678625639419 351.1266247691965 0 0 0 0 -59.30349846262834 -70.038586877839407 0 -70.038586877839407 475.95078897385611 0 0 0 0 -5.5190013386454666 -113.33795865596767 0 -113.33795865596767 393.68393141106571 0 0 0 0 -14.206706346407373 -83.38693017024525 0 -83.38693017024525 428.56346792174736 0 0 0 0 -5.8386981859221123 -92.189355615759268 0 -92.189355615759268 491.50400388879461 0 0 0 0 -62.888350043998798 -91.775935400979506 0 -91.775935400979506 509.03037485410096 0 0 0 0 54.921876439111657 6.5026391732499178 0 6.5026391732499178 548.66803311592957 0 0 0 0 -7.6764899771432056 0.78740518325849962 0 0.78740518325849962 0.46603037097287014 0 0 0 0 -61.959103226872685 -68.37632299514371 0 -68.37632299514371 482.99733032334188 0 0 0 0 -212.12510226044037 113.13841821864753 0 113.13841821864753 269.84448814336065 0 0 0 0 402.45566530775977 -38.499289745843271 0 -38.499289745843271 -264.49307301074896 0 0 0 0 102.02643197275029 -352.22968633233177 0 -352.22968633233177 406.86481091940186 0 0 0 0 -406.0643782379957 -137.97706120927978 0 -137.97706120927978 335.3256348855648 0 0 0 0 -218.00503874253627 111.9418057196599 0 111.9418057196599 187.54741818893672 0 0 0 0 53.473760769556975 76.617932461078453 0 76.617932461078453 191.24153469995326 0 0 0 0 0.86988182578364359 -1.1614608716105543 0 -1.1614608716105543 6.0995310818096868 0 0 0 0 77.126798416022211 -120.82054973613413 0 -120.82054973613413 551.4393782709376 0 0 0 0 -151.96169988638576 -205.92494520907348 0 -205.92494520907348 351.94345208461891 0 0 0 0 -113.81797214780454 294.89564824052286 0 294.89564824052286 -102.8297279277831 0 0 0 0 0.67487226231394004 -1.1549811521756368 0 -1.1549811521756368 1.7720975671617794 0 0 0 0 379.95273408395951 29.217848911221154 0 29.217848911221154 -56.970576842759328 0 0 0 0 23.196469264876214 -27.717066011919087 0 -27.717066011919087 2.3199332487711217 0 0 0 0 10.711868627766314 -25.512376758775794 0 -25.512376758775794 24.948152984490733 0 0 0 0 -73.459183453029254 -46.54638013267504 0 -46.54638013267504 -79.855844940371753 0 0 0 0 -243.16112918324143 -194.77803623138971 0 -194.77803623138971 117.74990245655863 0 0 0 0 -27.6927685700648 -63.512532974604255 0 -63.512532974604255 28.382303543658963 0 0 0 0 -40.261247110269323 -26.081648960205712 0 -26.081648960205712 -6.7032833963676239 0 0 0 0 -93.593585953607544 -43.161030368927641 0 -43.161030368927641 30.78184379148297 0 0 0 0 -90.334419349403106 -34.215063941525841 0 -34.215063941525841 -35.068060545439948 0 0 0 0 -51.653558395773871 -22.344767041820887 0 -22.344767041820887 -8.7944338590241387 0 0 0 0 -46.868915830287733 -5.9524281756603159 0 -5.9524281756603159 46.40897528516507 0 0 0 0 -115.77674141808725 22.701949407461715 0 22.701949407461715 -7.1264780256460654 0 0 0 0 -179.05468866028968 8.8935201346794202 0 8.8935201346794202 38.136199342261534 0 0 0 0 -115.70378848267137 -26.702351383784844 0 -26.702351383784844 28.877428293111734 0 0 0 0 -171.43703623626789 -14.097233967702778 0 -14.097233967702778 46.113043760542496 0 0 0 0 -113.75147058932635 -41.908207897555258 0 -41.908207897555258 20.810188112489413 0 0 0 0 -11.208765756306093 -70.651321245499275 0 -70.651321245499275 6.0131129352084827 0 0 0 0 -73.31325463851681 -3.2575269155277056 0 -3.2575269155277056 22.162657466826204 0 0 0 0 9.3682863935379785 -25.885382344173081 0 -25.885382344173081 27.020440594681318 0 0 0 0 52.569569802835758 3.2667543404386379 0 3.2667543404386379 -8.8783357874308422 0 0 0 0 -303.76369799171516 3.4607297215334256 0 3.4607297215334256 227.35466924911452 0 0 0 0 -210.79492911779766 124.84534140986079 0 124.84534140986079 -91.512525724370789 0 0 0 0 -20.126046675163721 -1.5868709976864466 0 -1.5868709976864466 7.9259619907691654 0 0 0 0 -128.68298244917241 -97.498373379443365 0 -97.498373379443365 979.37834110224503 0 0 0 0 61.325171713790041 -27.168581575431745 0 -27.168581575431745 492.51842096177279 0 0 0 0 -65.748258208208426 69.593081881925173 0 69.593081881925173 796.10532268304087 0 0 0 0 -50.919197958617588 79.556571187611553 0 79.556571187611553 720.09076699258003 0 0 0 0 -94.315940963686444 -90.282228976378974 0 -90.282228976378974 688.02386764305083 0 0 0 0 -67.044708387897117 -125.06026230777206 0 -125.06026230777206 489.45650875625142 0 0 0 0 -16.198165014822735 -44.041187922663084 0 -44.041187922663084 481.76869560230989 0 0 0 0 -43.280836552366964 -165.29317753152282 0 -165.29317753152282 319.70914872831781 0 0 0 0 -164.05616057077714 -104.31632811235613 0 -104.31632811235613 479.54032366568572 0 0 0 0 -78.906010890379548 -100.55383276043722 0 -100.55383276043722 490.51697772918715 0 0 0 0 -19.076598858177022 -48.149947517289547 0 -48.149947517289547 228.55636109803163 0 0 0 0 -32.426793486156384 -110.59692994764191 0 -110.59692994764191 230.36718906732631 0 0 0 0 20.318189428639016 -60.019945105723309 0 -60.019945105723309 -38.747533708607079 0 0 0 0 -80.272663645766443 83.786244851569791 0 83.786244851569791 -94.738979645146173 0 0 0 0 -252.74214733054396 -83.40421709522343 0 -83.40421709522343 297.37788415856812 0 0 0 0 -181.71412686578697 -0.29338457919357097 0 -0.29338457919357097 284.68867364948528 0 0 0 0 -133.02162710671109 -242.29327767462746 0 -242.29327767462746 62.985003318550298 0 0 0 0 -27.940087390510598 -268.73161875166988 0 -268.73161875166988 -88.748021774197696 0 0 0 0 -115.91032548376097 -119.18291405091077 0 -119.18291405091077 316.69519116597075 0 0 0 0 -89.670020309684332 -89.425674798745604 0 -89.425674798745604 558.12911880959291 0 0 0 0 22.709027347551455 11.114650284947857 0 11.114650284947857 339.61666064796736 0 0 0 0 70.02065878317444 -15.745449074493081 0 -15.745449074493081 265.94011631676403 0 0 0 0 -6.6341336350160418 -142.59039920896976 0 -142.59039920896976 747.60932602175308 0 0 0 0 232.20790971452152 124.51405685635291 0 124.51405685635291 591.14781318099267 0 0 0 0 -6.1480918908855529 180.05276965771645 0 180.05276965771645 1039.923475935866 0 0 0 0 -87.330708406982012 -108.95572985926265 0 -108.95572985926265 851.4863652670665 0 0 0 0 2.720244557451224 -24.482321130344644 0 -24.482321130344644 575.91281729393813 0 0 0 0 18.767374512693493 -13.477995168552553 0 -13.477995168552553 4.6090495507324256 0 0 0 0 -97.187410706697847 -64.712902669492905 0 -64.712902669492905 47.702743160378304 0 0 0 0 -164.10213581780408 4.0407853015094588 0 4.0407853015094588 -49.32520864844264 0 0 0 0 13.478238471171153 -6.667096987862088 0 -6.667096987862088 1.9505167547175954 0 0 0 0 182.9172126322519 -46.97819695749422 0 -46.97819695749422 -114.51487993459887 0 0 0 0 -128.27710471780665 158.35146233788328 0 158.35146233788328 927.61807764611876 0 0 0 0 -174.81920271266426 25.361630478451843 0 25.361630478451843 598.19603872094012 0 0 0 0 43.710332982722321 127.8865258008118 0 127.8865258008118 379.47675047357916 0 0 0 0 -34.556656105731236 -49.944653403126722 0 -49.944653403126722 734.40715056607587 0 0 0 0 155.43679913295455 89.947921054112157 0 89.947921054112157 468.11170986067737 0 0 0 0 17.774592002708232 -182.76929235556963 0 -182.76929235556963 -50.157839407544088 0 0 0 0 -43.257383057266452 -50.983833208509964 0 -50.983833208509964 115.12983492651256 0 0 0 0 -99.972501011121494 -93.144245595270149 0 -93.144245595270149 99.225177526201151 0 0 0 0 -44.081759435609456 -61.319418834034877 0 -61.319418834034877 26.47001867761719 0 0 0 0 0.066930981774236731 -1.1587558648664213 0 -1.1587558648664213 0.85680721855891306 0 0 0 0 -194.80556387823162 -10.78593535440632 0 -10.78593535440632 41.918073945504148 0 0 0 0 267.42314611228358 -21.543960271508695 0 -21.543960271508695 -51.490856084026746 0 0 0 0 175.256571204387 -109.79690206724263 0 -109.79690206724263 -17.754256199365045 0 0 0 0 -0.12104318764784838 -1.1445875640580994 0 -1.1445875640580994 2.9134968317216163 0 0 0 0 107.81703764334816 -57.556277279396454 0 -57.556277279396454 -21.046921207042033 0 0 0 0 -122.5471492338329 -36.500513065499035 0 -36.500513065499035 21.620428329639253 0 0 0 0 93.691148994850664 -32.410509322400685 0 -32.410509322400685 21.014555334098986 0 0 0 0 88.588313656262471 -80.441562434323714 0 -80.441562434323714 -16.079913981109712 0 0 0 0 26.208060936172842 -4.7877045608547633 0 -4.7877045608547633 114.13401689700549 0 0 0 0 27.357189387446851 -0.60929386376301409 0 -0.60929386376301409 -78.413267440057098 0 0 0 0 -22.762620723151485 5.4867584449693823 0 5.4867584449693823 67.418215171674092 0 0 0 0 -0.7391352422249895 0.93512660493092881 0 0.93512660493092881 0.30248426201494638 0 0 0 0 33.960406242680619 -56.130017575611419 0 -56.130017575611419 87.741802633401676 0 0 0 0 -3.3437856736954927 -41.379143791617253 0 -41.379143791617253 14.612301174151071 0 0 0 0 -8.3260928201780189 -21.594311742491755 0 -21.594311742491755 59.621871884890425 0 0 0 0 51.543262718740152 -1.024572577298386 0 -1.024572577298386 -1.6734907828540599 0 0 0 0 17.457278580615281 -17.836260905010693 0 -17.836260905010693 11.702695665671051 0 0 0 0 -22.473365300276782 -78.461571554915281 0 -78.461571554915281 -0.72506808757316321 0 0 0 0 2.1490609906555695 -6.6924811184959907 0 -6.6924811184959907 5.0971659408986341 0 0 0 0 25.727292063762434 -37.093872956196719 0 -37.093872956196719 -17.016068673395239 0 0 0 0 -7.9823262685385998 -18.50862997573131 0 -18.50862997573131 -12.554488554681484 0 0 0 0 -37.28761795948958 -57.761404882805437 0 -57.761404882805437 9.3034470726852305 0 0 0 0 -0.78956878113240236 -62.408437163167036 0 -62.408437163167036 9.817546436424891 0 0 0 0 -27.921272640400275 -66.467844725091709 0 -66.467844725091709 35.378413459930016 0 0 0 0 -24.217881347084671 -18.541709416889006 0 -18.541709416889006 -4.4623660437362318 0 0 0 0 -24.136947091228649 35.204253384835283 0 35.204253384835283 -368.74228421658336 0 0 0 0 51.443481712070934 -26.005949352982498 0 -26.005949352982498 -374.22920386899614 0 0 0 0 24.586840801759536 -20.25042940525509 0 -20.25042940525509 -369.09083660856777 0 0 0 0 55.718170761880174 -69.959241363518231 0 -69.959241363518231 -357.35804122408808 0 0 0 0 62.623324595951999 2.9466856799881498 0 2.9466856799881498 -363.70065776327192 0 0 0 0 37.805589577510545 -31.735843717537136 0 -31.735843717537136 -390.70110608794494 0 0 0 0 21.937007832777454 -25.214348907691601 0 -25.214348907691601 -377.57893320317089 0 0 0 0 72.789508703404863 -59.365687072217042 0 -59.365687072217042 -413.02110193027693 0 0 0 0 -43.579373805427167 -111.51208236295406 0 -111.51208236295406 -420.8397866670748 0 0 0 0 -6.2198634585220134 -55.834959753266958 0 -55.834959753266958 -338.9932004689972 0 0 0 0 65.996941118691325 15.449518186042297 0 15.449518186042297 -353.58206396202149 0 0 0 0 -4.3900787428633921 -10.898798493550501 0 -10.898798493550501 -0.5268233088949188 0 0 0 0 -54.541426320764003 -118.06785019399103 0 -118.06785019399103 -417.27408689496406 0 0 0 0 -2.6298033308194277 -27.964034211158896 0 -27.964034211158896 -0.53558926557548148 0 0 0 0 -1.6310717334085894 -25.294239466573401 0 -25.294239466573401 -12.421843265037751 0 0 0 0 3.8127550716909822 -31.89757659885926 0 -31.89757659885926 -6.4104479033028809 0 0 0 0 -3.0567223816908893 -23.269719685437011 0 -23.269719685437011 0.28350745727600923 0 0 0 0 -51.004371025643195 -95.100604269031464 0 -95.100604269031464 3.3975105039044138 0 0 0 0 -14.790440495555686 -27.3174729127999 0 -27.3174729127999 -1.3926044038570886 0 0 0 0 6.7087633332266705 -53.014022131235834 0 -53.014022131235834 -25.859737565446267 0 0 0 0 -6.7795725953474175 -107.70372902566669 0 -107.70372902566669 -339.81507064346988 0 0 0 0 8.3347878530659329 -11.322644626976594 0 -11.322644626976594 -5.473655582825625 0 0 0 0 -38.728374606056605 -96.07546740048565 0 -96.07546740048565 -343.94671932279743 0 0 0 0 8.624632089806255 -127.46186135897733 0 -127.46186135897733 -429.80683856641372 0 0 0 0 -160.78597183921374 -200.94947662876439 0 -200.94947662876439 -395.20472509160027 0 0 0 0 60.987334429206385 -127.8866748855562 0 -127.8866748855562 -448.16255974051819 0 0 0 0 36.74960604912485 -92.332396398400306 0 -92.332396398400306 -500.00442819373711 0 0 0 0 65.814649265768821 -43.082057836332751 0 -43.082057836332751 -365.06485369153597 0 0 0 0 108.41372521487938 -82.888652567951794 0 -82.888652567951794 -849.46729696286639 0 0 0 0 2551.457139954422 -1701.6901350523403 0 -1701.6901350523403 -513.80210809886194 0 0 0 0 -149.4521481206757 -58.754503047203798 0 -58.754503047203798 -565.30819338226138 0 0 0 0 -47.678527680785919 -264.17939403982837 0 -264.17939403982837 -536.73416313771304 0 0 0 0 28.296178632576812 -257.7564431227471 0 -257.7564431227471 -665.59444178716512 0 0 0 0 18.26484036144393 -86.228608754896413 0 -86.228608754896413 -436.95070289048454 0 0 0 0 129.99083246312512 -194.27920852448369 0 -194.27920852448369 -717.21051489990714 0 0 0 0 -214.84393037642803 -340.40770320205866 0 -340.40770320205866 -491.05174879069818 0 0 0 0 -37.997765588283073 -491.16225211320125 0 -491.16225211320125 -878.78210209151439 0 0 0 0 3.5575891546831571 -2.3520366201852916 0 -2.3520366201852916 0.59914244187066856 0 0 0 0 -53.344658820104087 -91.941395852634741 0 -91.941395852634741 9.6384892549285723 0 0 0 0 -71.956761081180957 -22.862681879573302 0 -22.862681879573302 27.129131452038564 0 0 0 0 -470.84149938554037 599.90667956092511 0 599.90667956092511 -823.07068164920202 0 0 0 0 2.6766150670810021 -66.152588206567088 0 -66.152588206567088 20.909044132493364 0 0 0 0 -19.659804625720426 -60.826107940540169 0 -60.826107940540169 39.680616059096792 0 0 0 0 -10.021160447895454 -45.404229735590889 0 -45.404229735590889 -0.042276937871065456 0 0 0 0 -5.9123736022229423 -50.162373723222117 0 -50.162373723222117 4.7251712696779578 0 0 0 0 -7.9411113931033128 -31.284442290157109 0 -31.284442290157109 -1.7847526305531325 0 0 0 0 11.756554482359036 -32.264086381196712 0 -32.264086381196712 17.632613780716824 0 0 0 0 -23.459648473435664 -41.990912599379953 0 -41.990912599379953 30.2436667871807 0 0 0 0 -40.554775136110379 -35.85637999851528 0 -35.85637999851528 19.017138185139629 0 0 0 0 -8.4428358596978796 -40.139744727596735 0 -40.139744727596735 13.427354453859152 0 0 0 0 -3.0874546016857494 -23.750917910005228 0 -23.750917910005228 17.419747923264367 0 0 0 0 -25.600954512185126 -36.040022810706432 0 -36.040022810706432 -2.8113256233409629 0 0 0 0 -30.438935356301954 -42.752574749756604 0 -42.752574749756604 13.587793618389696 0 0 0 0 -97.005345276418666 -14.70506591328558 0 -14.70506591328558 15.460090422238864 0 0 0 0 -18.833486180090404 -55.29932045847454 0 -55.29932045847454 16.680098959441239 0 0 0 0 63.17674602639454 -21.092252366749562 0 -21.092252366749562 15.995662329725747 0 0 0 0 -11.143559136591648 -104.79353081253794 0 -104.79353081253794 -44.065699325139576 0 0 0 0 100.41727128772982 -68.481664497432575 0 -68.481664497432575 -71.536540999382851 0 0 0 0 62.789455328547774 -23.476278994264931 0 -23.476278994264931 -62.744066113751614 0 0 0 0 59.624891590392508 -56.205406064735143 0 -56.205406064735143 -41.984275278075074 0 0 0 0 30.398104707057428 -51.887986132333026 0 -51.887986132333026 19.10634380501142 0 0 0 0 17.158973741585214 -41.870634600152698 0 -41.870634600152698 -46.091211911831124 0 0 0 0 11.502546551032225 -24.212572844866962 0 -24.212572844866962 -15.508268344581806 0 0 0 0 44.943088585005171 -13.127843916723577 0 -13.127843916723577 -68.668162179325009 0 0 0 0 12.840052781808481 -16.857598365277227 0 -16.857598365277227 5.2048632147962053 0 0 0 0 22.692737418226898 -24.842098407141748 0 -24.842098407141748 -19.346667973812146 0 0 0 0 15.146114047280236 -27.422006670933762 0 -27.422006670933762 -4.9386320600044051 0 0 0 0 33.871104757405192 -63.378569296459318 0 -63.378569296459318 -21.923053021280793 0 0 0 0 11.53085490072489 -12.576967083695834 0 -12.576967083695834 -21.643094063457717 0 0 0 0 8.1003188234599079 -24.359473360288121 0 -24.359473360288121 15.18425118021932 0 0 0 0 4.6609156440172228 -40.133412620050876 0 -40.133412620050876 21.756088942885981 0 0 0 0 15.972760056523839 -42.633720063155124 0 -42.633720063155124 -3.2049586169505346 0 0 0 0 11.599684141350735 -44.51831629863409 0 -44.51831629863409 19.408485447456769 0 0 0 0 -165.80001455460297 -288.51425013416338 0 -288.51425013416338 -633.68497189362824 0 0 0 0 3.1980571758005851 -3.6327831600853386 0 -3.6327831600853386 -2.6659241442098107 0 0 0 0 272.38014413772908 4.3288030674884794 0 4.3288030674884794 -1354.6637477807672 0 0 0 0 0.67246814949986344 -5.4249461471135163 0 -5.4249461471135163 -1.1390721368533292 0 0 0 0 150.23101169695838 94.830840263359278 0 94.830840263359278 -70.169910377051565 0 0 0 0 -19.998497035514447 -265.34901107068617 0 -265.34901107068617 -320.46257202393281 0 0 0 0 0.52674890942580532 -307.55585931145106 0 -307.55585931145106 -644.98077604979517 0 0 0 0 -57.69308245490538 -243.11945867292161 0 -243.11945867292161 -433.19300716272119 0 0 0 0 68.660919854548411 -184.00895369690807 0 -184.00895369690807 -394.28357892408349 0 0 0 0 49.137986242065381 -79.15000135290029 0 -79.15000135290029 -141.98086878215145 0 0 0 0 84.171322548027092 -106.34427458966729 0 -106.34427458966729 -123.89562047483014 0 0 0 0 10.103608680743491 -32.284765154866818 0 -32.284765154866818 39.246920434145068 0 0 0 0 36.816639991702687 -164.39690961872657 0 -164.39690961872657 -15.79804075768152 0 0 0 0 -37.870333105114696 -35.30459974649284 0 -35.30459974649284 -1.9580999904646887 0 0 0 0 12.243138523736746 -27.42323610940683 0 -27.42323610940683 16.669302744429686 0 0 0 0 7.8658101417386206 -76.056143414960388 0 -76.056143414960388 17.789156374450158 0 0 0 0 5.4464095229704981 -70.208401520925236 0 -70.208401520925236 -110.99197238936904 0 0 0 0 -54.998648770131695 -135.58948384289943 0 -135.58948384289943 -115.86663328806867 0 0 0 0 6.7881644089751916 -9.9390198733374433 0 -9.9390198733374433 18.207608832969221 0 0 0 0 21.869240554566204 -42.792621996901289 0 -42.792621996901289 13.339397790152361 0 0 0 0 -50.369025217785747 -63.350553924703036 0 -63.350553924703036 -61.44798484515195 0 0 0 0 -67.364686930030075 -91.290504222519303 0 -91.290504222519303 -43.835556189984345 0 0 0 0 -4.5155980700073997 -28.429862352892087 0 -28.429862352892087 6.3329300760342448 0 0 0 0 -10.645908412530844 -37.023739321608446 0 -37.023739321608446 -19.321792883412854 0 0 0 0 -9.7256213317305082 -25.50296444110063 0 -25.50296444110063 8.5065043221402448 0 0 0 0 4.1319512959744316 -20.934361597588577 0 -20.934361597588577 0.91167899424544885 0 0 0 0 -10.411367337994307 -39.963550964728938 0 -39.963550964728938 -27.535043613304879 0 0 0 0 -4.5484543162529008 -34.742561961635147 0 -34.742561961635147 -29.700108398865268 0 0 0 0 -0.88676959341746908 -19.700673430412579 0 -19.700673430412579 -7.3570893354122617 0 0 0 0 0.11973215047783015 -30.681070481122333 0 -30.681070481122333 -26.318283057589724 0 0 0 0 0.46426945909068706 -25.532345626841689 0 -25.532345626841689 -0.68830212242278321 0 0 0 0 1.8996381925608148 -118.04326797330032 0 -118.04326797330032 61.291616737120194 0 0 0 0 5.8628250081680591 -24.047240138889173 0 -24.047240138889173 -15.422026559624818 0 0 0 0 -8.992216743179597 -26.770827442873269 0 -26.770827442873269 -37.493234022054821 0 0 0 0 -16.233122043442563 -15.771530219513807 0 -15.771530219513807 -35.637349385779089 0 0 0 0 -4.0506196849629248 -49.460989111846658 0 -49.460989111846658 10.466029354492164 0 0 0 0 7.7029478296969955 -15.750019635140458 0 -15.750019635140458 -2.9284353727435075 0 0 0 0 -52.073819139055558 -140.88207103709647 0 -140.88207103709647 -25.527893717793631 0 0 0 0 -11.675125297497289 -28.203893982821683 0 -28.203893982821683 -21.914293114910834 0 0 0 0 14.058080924254682 -9.2487333580138511 0 -9.2487333580138511 -27.169785926889745 0 0 0 0 113.00163175545458 -175.26060893198155 0 -175.26060893198155 -57.1314205822855 0 0 0 0 3.6816602750904508 -5.1937714209951409 0 -5.1937714209951409 -2.1095835650097428 0 0 0 0 19.392895375931403 -117.30730765935732 0 -117.30730765935732 -118.83423846581263 0 0 0 0 -7.9052370629578945 -17.01174850424286 0 -17.01174850424286 -271.49035832644586 0 0 0 0 -1.2368614435035852 -158.26618353647791 0 -158.26618353647791 -119.40120236620351 0 0 0 0 3.9505241566766927 -19.534279808911378 0 -19.534279808911378 29.348604347222135 0 0 0 0 -0.29783098336285718 -2.9125805260422482 0 -2.9125805260422482 5.5525766522172688 0 0 0 0 3.3617657544230752 -31.169850632045446 0 -31.169850632045446 -12.748521626684692 0 0 0 0 642.58932561746224 -458.90517275178172 0 -458.90517275178172 319.7969465012975 0 0 0 0 411.8304664948846 -740.3836641647631 0 -740.3836641647631 694.79454914036251 0 0 0 0 197.95049711492175 -530.82124168050177 0 -530.82124168050177 585.36066555960133 0 0 0 0 155.52982186288864 -466.40161827506017 0 -466.40161827506017 1033.5658321628543 0 0 0 0 704.29368108176277 -574.98557268498553 0 -574.98557268498553 1199.2889037059795 0 0 0 0 924.44612063231034 -898.29932266184915 0 -898.29932266184915 952.85244017516925 0 0 0 0 -1.6247285983300372 -2.0241815726694483 0 -2.0241815726694483 6.3394069936795319 0 0 0 0 -766.56604888174479 27.580323913819484 0 27.580323913819484 435.27305746911952 0 0 0 0 -1.4573747514295974 -478.17119755320346 0 -478.17119755320346 451.66384857108187 0 0 0 0 -462.03861005649014 -511.54094431862177 0 -511.54094431862177 1389.6998321713363 0 0 0 0 0.37828358384285821 -357.01646208902821 0 -357.01646208902821 -102.02544876654429 0 0 0 0 -204.84152159866062 -220.15059828483572 0 -220.15059828483572 315.80447866918621 0 0 0 0 -197.47929796904327 -126.4385740720769 0 -126.4385740720769 -89.271475234523677 0 0 0 0 -3.2506187222024892 -116.16688394502307 0 -116.16688394502307 -100.27392680255252 0 0 0 0 -92.227484635386645 -52.586522728483033 0 -52.586522728483033 -3.4476591246093449 0 0 0 0 4.1059772107764729 -169.42696369269288 0 -169.42696369269288 -409.66213107899966 0 0 0 0 40.803904268461338 -150.99652053730097 0 -150.99652053730097 66.82281012153544 0 0 0 0 -1.6861222254758275 0.30976171175130673 0 0.30976171175130673 0.0097479576042118765 0 0 0 0 31.426459268550389 16.334047354757786 0 16.334047354757786 67.042334065136856 0 0 0 0 0.13002594711842527 -108.58517137959865 0 -108.58517137959865 291.50499789102469 0 0 0 0 25.226496584982669 -187.52528172705115 0 -187.52528172705115 375.30494167061988 0 0 0 0 -0.36098365138630584 0.56130523283852085 0 0.56130523283852085 0.6581911940565206 0 0 0 0 12.483656938435161 -187.34654089013384 0 -187.34654089013384 421.8101347973643 0 0 0 0 -2.4370117343958668 -2.5303237937570486 0 -2.5303237937570486 2.9730635961698191 0 0 0 0 -10.692767528609693 -34.631388225711817 0 -34.631388225711817 33.043372190601076 0 0 0 0 21.819418711267645 -154.48013502696995 0 -154.48013502696995 393.90703429903078 0 0 0 0 68.360636390883883 -188.49329274575939 0 -188.49329274575939 360.82639022116018 0 0 0 0 0.83271465234861353 -1.2093071089469589 0 -1.2093071089469589 3.4878896533511892 0 0 0 0 5.9775731864065165 -9.6145281846256694 0 -9.6145281846256694 28.926503107733879 0 0 0 0 113.44170697533627 -162.45307138780936 0 -162.45307138780936 254.29321640796115 0 0 0 0 -8.8199834978822125 -5.7863849405411827 0 -5.7863849405411827 13.199812212305289 0 0 0 0 11.129679961541115 -14.699654438340076 0 -14.699654438340076 11.785356985026738 0 0 0 0 230.86581242232933 -161.11254286631811 0 -161.11254286631811 113.10676465912547 0 0 0 0 1.0044685499165666 -2.8914034287993076 0 -2.8914034287993076 4.1574585349007407 0 0 0 0 -4.2874671794380532 -2.9390803521390154 0 -2.9390803521390154 13.2502938480811 0 0 0 0 332.05108606865178 -310.19316244606307 0 -310.19316244606307 324.05618812099419 0 0 0 0 320.19482230518042 -298.37696156639868 0 -298.37696156639868 351.05638477816046 0 0 0 0 397.99728310081809 -491.02762686976803 0 -491.02762686976803 424.40195296973252 0 0 0 0 165.51165708704502 -352.51797281209292 0 -352.51797281209292 387.22229926114778 0 0 0 0 188.08851965252688 -376.01020685378899 0 -376.01020685378899 309.53580951993354 0 0 0 0 188.05363972108898 -355.07437023710008 0 -355.07437023710008 337.64222581023932 0 0 0 0 89.063010075420607 -110.69895588986401 0 -110.69895588986401 107.69134376015791 0 0 0 0 162.24769283187197 -376.14761069173619 0 -376.14761069173619 353.61876541391393 0 0 0 0 -14.007692309802223 -118.19153632131383 0 -118.19153632131383 239.02439854658587 0 0 0 0 86.496659401655052 -304.59088897512993 0 -304.59088897512993 467.55021961615421 0 0 0 0 102.87480771021364 -347.33042265181211 0 -347.33042265181211 423.60206832830954 0 0 0 0 35.543889356049476 -669.5923396726248 0 -669.5923396726248 582.91970098923048 0 0 0 0 463.8328609059281 -593.01067123522807 0 -593.01067123522807 524.98027404503955 0 0 0 0 411.02476190536981 -633.16489594812811 0 -633.16489594812811 609.43660920904586 0 0 0 0 154.31941289675888 -617.96867018180455 0 -617.96867018180455 690.73174750593171 0 0 0 0 208.10868940613727 -526.07034954497067 0 -526.07034954497067 533.4159991679935 0 0 0 0 119.56879642004787 -459.02403560227685 0 -459.02403560227685 586.21828746257961 0 0 0 0 868.82430244550051 -613.64025229603067 0 -613.64025229603067 304.68512819910575 0 0 0 0 528.8954109348997 -455.45875795263055 0 -455.45875795263055 714.37324095886288 0 0 0 0 5.1214666733254148 -2.3840756838424468 0 -2.3840756838424468 1.0432142577154391 0 0 0 0 558.25429848526255 -450.25612696291864 0 -450.25612696291864 1191.4713555551607 0 0 0 0 118.04222245412529 -30.945731986772444 0 -30.945731986772444 -274.83665450878834 0 0 0 0 615.09701878055785 -540.66982167180868 0 -540.66982167180868 247.36654280942457 0 0 0 0 -1.4966356923596322 -6.9123054946667253 0 -6.9123054946667253 239.96660548490036 0 0 0 0 4.5050554591714018 -1.0520661599065413 0 -1.0520661599065413 -0.95029730169902393 0 0 0 0 18.362765213357676 -6.6726153068017595 0 -6.6726153068017595 0.23564603330389744 0 0 0 0 364.03903311361501 -61.957069630312617 0 -61.957069630312617 4.2539817591059546 0 0 0 0 33.775000254652696 -8.8036935417258064 0 -8.8036935417258064 -5.7984263894395554 0 0 0 0 -0.62230583393244387 -2.8862733855037987 0 -2.8862733855037987 3.2350339286369945 0 0 0 0 362.48898819682654 -551.9083330610847 0 -551.9083330610847 672.54703417047494 0 0 0 0 158.54513911431422 -495.70884800244494 0 -495.70884800244494 667.45464753821807 0 0 0 0 183.59912301359509 -492.69237653727123 0 -492.69237653727123 610.72467776780104 0 0 0 0 51.012377281412 -13.767551819685139 0 -13.767551819685139 -288.10314969302635 0 0 0 0 15.092405833347385 -3.9608679731538956 0 -3.9608679731538956 -1.5757848596951618 0 0 0 0 43.201961417087205 -97.862886496433248 0 -97.862886496433248 -76.896400281591923 0 0 0 0 2.3564103557982889 -179.10304066959361 0 -179.10304066959361 -38.509569364718118 0 0 0 0 6.1821874627930811 -67.870973535789744 0 -67.870973535789744 -47.238323841791498 0 0 0 0 21.752046011137963 -15.588711912384408 0 -15.588711912384408 10.139601840025769 0 0 0 0 16.271189849969232 -35.753633955071564 0 -35.753633955071564 -80.893550684544607 0 0 0 0 54.459113730423269 -53.638326517168025 0 -53.638326517168025 -146.83704434714218 0 0 0 0 7.0129225520213367 -79.271077474479171 0 -79.271077474479171 -4.0477247159869876 0 0 0 0 31.297217321574863 -62.635769034612167 0 -62.635769034612167 0.90229476806462117 0 0 0 0 19.187724378207349 -37.887335631923634 0 -37.887335631923634 -34.097824970294823 0 0 0 0 11.908642226830125 -95.361272747063595 0 -95.361272747063595 32.376555913166158 0 0 0 0 -18.697980574309781 -13.997547652011789 0 -13.997547652011789 -5.137099679615968 0 0 0 0 -19.479674714777502 -56.127053257975604 0 -56.127053257975604 132.14693989184343 0 0 0 0 -25.064837950551009 -17.637251080761416 0 -17.637251080761416 -380.10512739074875 0 0 0 0 22.902820862349472 40.603863386553712 0 40.603863386553712 -506.43721028997061 0 0 0 0 -62.940970177651252 33.668079406955712 0 33.668079406955712 -471.91201962698324 0 0 0 0 26.286136561531748 -149.97714477849149 0 -149.97714477849149 318.82713492505718 0 0 0 0 30.672906869158396 -29.538777321848102 0 -29.538777321848102 78.789397108052071 0 0 0 0 -22.966944881045492 -104.79077898523428 0 -104.79077898523428 197.39304739525687 0 0 0 0 -12.682100820132092 -11.275680462448086 0 -11.275680462448086 -4.1083452092850585 0 0 0 0 -1.6128882487937517 48.684926967580395 0 48.684926967580395 -565.73106628283813 0 0 0 0 32.369199663859035 14.466516457787293 0 14.466516457787293 -832.75374164788036 0 0 0 0 -7.0508934734121453 -7.3676971288763227 0 -7.3676971288763227 -2.971273934201788 0 0 0 0 104.56100513297133 -24.505162304483747 0 -24.505162304483747 -1373.1352558260683 0 0 0 0 -2.3457841466170066 -2.0596339318388246 0 -2.0596339318388246 -1.067742670067819 0 0 0 0 118.72111751408374 -489.29023578984379 0 -489.29023578984379 687.26683217671052 0 0 0 0 156.10411559788918 -158.10138996973546 0 -158.10138996973546 424.87211693063364 0 0 0 0 352.38869364099082 -306.10697967286251 0 -306.10697967286251 98.107632987426769 0 0 0 0 277.28640183663811 -139.8245713398901 0 -139.8245713398901 11.914599161333172 0 0 0 0 121.45248884629473 -54.692364413586802 0 -54.692364413586802 153.03898737800773 0 0 0 0 282.34870142232103 -166.37431750864744 0 -166.37431750864744 65.96136810063399 0 0 0 0 -9.3711846031255845 52.947496843049521 0 52.947496843049521 -79.081734012886955 0 0 0 0 437.51073163389083 -149.6906691511158 0 -149.6906691511158 -168.26219076444977 0 0 0 0 736.4524629195439 -294.36781428760878 0 -294.36781428760878 -169.40572010005417 0 0 0 0 450.35440122162254 67.697488794684432 0 67.697488794684432 -605.62228810929446 0 0 0 0 377.21911929564885 -815.81360299143944 0 -815.81360299143944 1500.2673310709652 0 0 0 0 5.9467085522980483 -1.2502204313021323 0 -1.2502204313021323 0.33391568006490502 0 0 0 0 1.0803594406031465 -2.6149363051954921 0 -2.6149363051954921 2.1026191703403043 0 0 0 0 -592.63121730173589 -245.54989387753994 0 -245.54989387753994 980.08468446074221 0 0 0 0 -104.69811539332295 -651.31951319329164 0 -651.31951319329164 1278.0148278032193 0 0 0 0 357.81185474366066 -461.71160729849726 0 -461.71160729849726 729.60466001192526 0 0 0 0 79.09354692568013 -126.40007872478236 0 -126.40007872478236 882.55902815944137 0 0 0 0 506.7911573722231 -355.54561595638006 0 -355.54561595638006 -402.03515886036621 0 0 0 0 27.259852725761448 118.47097742866026 0 118.47097742866026 -159.23009490315962 0 0 0 0 -0.14716795050117071 -53.583801426348145 0 -53.583801426348145 -126.36963998305146 0 0 0 0 -0.35706126931472681 -295.82432972200149 0 -295.82432972200149 -151.78399598577016 0 0 0 0 -310.59447213926342 -403.20373428371727 0 -403.20373428371727 -33.340466088582616 0 0 0 0 1.8167970221905065 -3.2162344116130726 0 -3.2162344116130726 1.4728383985255391 0 0 0 0 -231.7138739580987 -104.67331142261537 0 -104.67331142261537 -131.01856522238995 0 0 0 0 343.20171433562064 -493.31507020647223 0 -493.31507020647223 -130.53481806476339 0 0 0 0 354.78539556136047 -326.13199812759672 0 -326.13199812759672 -110.86911569808581 0 0 0 0 534.8120304172844 -259.4918477379706 0 -259.4918477379706 -86.700878931340412 0 0 0 0 334.05363979304821 -472.56613480614214 0 -472.56613480614214 177.15347902625945 0 0 0 0 122.5583518511412 -611.2554703015594 0 -611.2554703015594 96.977875496522756 0 0 0 0 451.14638889909838 -309.06010425205932 0 -309.06010425205932 -608.07534208735524 0 0 0 0 -78.867845487306113 -363.45705552129857 0 -363.45705552129857 -121.100077985393 0 0 0 0 -20.581774358419352 -492.19598747478085 0 -492.19598747478085 -28.979975512695091 0 0 0 0 113.04795989553531 -461.51114644716472 0 -461.51114644716472 -217.76159748244754 0 0 0 0 187.56757207034389 -583.13533492038368 0 -583.13533492038368 -141.71914548437962 0 0 0 0 0.32878548562803189 -307.4459203205206 0 -307.4459203205206 -346.70429489864364 0 0 0 0 -6.8918076393310912 -303.09191289657247 0 -303.09191289657247 -420.05291718533408 0 0 0 0 92.477734451000288 -154.59463932579456 0 -154.59463932579456 -524.89798459716712 0 0 0 0 60.327015282106004 -123.0735817009554 0 -123.0735817009554 -288.63393079095931 0 0 0 0 89.598507546961628 -227.16912672925309 0 -227.16912672925309 -300.95339046575464 0 0 0 0 -10.325493462602026 -65.794079908228923 0 -65.794079908228923 -621.63632482392495 0 0 0 0 -107.63287830224363 -41.762104481287224 0 -41.762104481287224 -606.91393426227296 0 0 0 0 -7.8173489028595782 -379.36698566428259 0 -379.36698566428259 -640.47001071918567 0 0 0 0 85.355466972418071 -221.72497282189909 0 -221.72497282189909 -664.32994815061465 0 0 0 0 -103.06249019155803 -70.861976085450806 0 -70.861976085450806 -286.82609973010676 0 0 0 0 -44.5679064193464 -219.74840934394888 0 -219.74840934394888 -369.65152790502725 0 0 0 0 -112.67343891564451 -161.89885088096253 0 -161.89885088096253 -87.779990791064847 0 0 0 0 -21.217791803297587 -221.09145792589879 0 -221.09145792589879 -107.69866160573656 0 0 0 0 49.331615262250125 -187.44292015821338 0 -187.44292015821338 -106.93493605536915 0 0 0 0 -67.766507028532942 -66.638506933777535 0 -66.638506933777535 157.62507626232218 0 0 0 0 -10.494048710646894 -163.95912530554665 0 -163.95912530554665 -87.87314884834268 0 0 0 0 -0.13063512791632093 -215.08379451846122 0 -215.08379451846122 -58.331513738037756 0 0 0 0 75.088943920076417 -96.548833221151654 0 -96.548833221151654 -71.460352050757606 0 0 0 0 -51.216441931208465 -135.49172557605766 0 -135.49172557605766 -71.525495522888377 0 0 0 0 -50.328679641108465 -88.31966222417077 0 -88.31966222417077 178.75164348911858 0 0 0 0 0.41124600754847052 -238.22715772504307 0 -238.22715772504307 222.58991072397225 0 0 0 0 0.65126812581374338 -0.91732016009491879 0 -0.91732016009491879 0.38801798422005263 0 0 0 0 39.369725310432841 -101.42284590375948 0 -101.42284590375948 -569.74708134865818 0 0 0 0 -28.595824268893921 43.401352535919614 0 43.401352535919614 736.60913419786357 0 0 0 0 -29.912923005937444 -172.73830537895128 0 -172.73830537895128 204.60548827435923 0 0 0 0 -42.634013517933568 -146.97987735725775 0 -146.97987735725775 207.09573088065736 0 0 0 0 1.8859939745280769 -4.4429976184060163 0 -4.4429976184060163 1.2802859621526004 0 0 0 0 -44.592027701241022 18.48654165204789 0 18.48654165204789 515.77156406424729 0 0 0 0 12.891039369456848 -119.56963581859054 0 -119.56963581859054 -402.72559333868901 0 0 0 0 -40.125175901219336 -103.95436419973657 0 -103.95436419973657 -183.3623831543664 0 0 0 0 4.128514218798955 -135.38497165574699 0 -135.38497165574699 -188.63083395011097 0 0 0 0 -17.087577199024963 -171.06810978687645 0 -171.06810978687645 -211.6952529383675 0 0 0 0 11.766689747979399 -141.41996326220124 0 -141.41996326220124 -196.10403283686219 0 0 0 0 0.035455195324175293 -175.38126028086344 0 -175.38126028086344 -178.69429955529404 0 0 0 0 -26.657055400231911 -80.451049297367717 0 -80.451049297367717 -287.04347927238359 0 0 0 0 -0.10743377568253858 -161.03662148015619 0 -161.03662148015619 -362.84269415402014 0 0 0 0 -37.089901511997596 -85.510715258886194 0 -85.510715258886194 -295.82698976527718 0 0 0 0 -9.1528741768233886 -99.724848644809754 0 -99.724848644809754 -133.77711319542595 0 0 0 0 7.4332772435047332 -9.1053298447233324 0 -9.1053298447233324 2.2408293875076701 0 0 0 0 -7.608911240065936 -74.546816235324286 0 -74.546816235324286 -21.259854749008809 0 0 0 0 10.952767161351176 -9.3359126742766918 0 -9.3359126742766918 1.8734203224645452 0 0 0 0 -19.256001921330608 -57.179382871784355 0 -57.179382871784355 -4.6513806552902679 0 0 0 0 -25.198554780406994 -165.72914170081185 0 -165.72914170081185 -66.033507841150367 0 0 0 0 10.210859009068372 -112.76615750477504 0 -112.76615750477504 -294.23391405239272 0 0 0 0 -21.601477417076239 -80.436814471236175 0 -80.436814471236175 -131.50401874584941 0 0 0 0 18.505406141573985 -66.634276535520712 0 -66.634276535520712 110.53786432620473 0 0 0 0 4.1460679665301541 -7.276496905821638 0 -7.276496905821638 1.961207015354189 0 0 0 0 -82.394100725672615 -42.817503136628147 0 -42.817503136628147 373.76061709664555 0 0 0 0 -5.1697561654218589 -89.524907949330554 0 -89.524907949330554 114.35722915878978 0 0 0 0 -102.66000473480381 -185.28537398990738 0 -185.28537398990738 112.62420036061613 0 0 0 0 -83.709848748818331 -159.64475387688844 0 -159.64475387688844 42.484762250700442 0 0 0 0 -69.456589480476396 -125.40792012520888 0 -125.40792012520888 76.202569993286943 0 0 0 0 24.579455695995421 -284.98609633865544 0 -284.98609633865544 -364.62226130924137 0 0 0 0 -62.08497980532411 -101.27307792913371 0 -101.27307792913371 -67.91757498467814 0 0 0 0 -122.36061263883312 -243.26638519700009 0 -243.26638519700009 36.360941993819324 0 0 0 0 -103.00886391159293 -175.95598472225174 0 -175.95598472225174 86.891841149024003 0 0 0 0 -93.987042105211003 -158.91699849690667 0 -158.91699849690667 60.057337004753208 0 0 0 0 -81.556471230500392 -138.84272120218839 0 -138.84272120218839 73.522397379812901 0 0 0 0 -103.10141767279492 -171.66565024370175 0 -171.66565024370175 41.09382610481407 0 0 0 0 -78.430972619840759 -155.4629307083278 0 -155.4629307083278 -73.742929943222407 0 0 0 0 -50.475203765403421 -68.039107728955059 0 -68.039107728955059 -114.44482681416412 0 0 0 0 -49.363165691648078 -104.60074081112265 0 -104.60074081112265 -68.689459157409146 0 0 0 0 -14.588341315924481 -79.640793422338902 0 -79.640793422338902 -52.078580621189758 0 0 0 0 -103.58781438389269 -184.07415305831364 0 -184.07415305831364 80.46816929433362 0 0 0 0 -92.304165746936633 -175.86948637320711 0 -175.86948637320711 -115.15535689623994 0 0 0 0 -44.877160363019357 -160.82509051059378 0 -160.82509051059378 -111.33932381996601 0 0 0 0 -11.12741849737904 -145.21850541663616 0 -145.21850541663616 -435.64207101076136 0 0 0 0 -76.983454620713019 -117.08289261404752 0 -117.08289261404752 -316.99491263913842 0 0 0 0 -45.19227789348588 -170.59186011163456 0 -170.59186011163456 -322.20980959095687 0 0 0 0 -40.468899336385221 -61.616630557884491 0 -61.616630557884491 -310.17527818535928 0 0 0 0 1.6942024842064711 -12.599089361530787 0 -12.599089361530787 -160.12435707344957 0 0 0 0 -58.57326191878019 -103.92234927176378 0 -103.92234927176378 -155.27083055216553 0 0 0 0 10.019219873491238 -87.003264286857302 0 -87.003264286857302 -296.11211853262284 0 0 0 0 -14.498659116805356 25.857892820007692 0 25.857892820007692 -324.50529515506059 0 0 0 0 20.847098273665324 -35.761018067994883 0 -35.761018067994883 -264.70656964700902 0 0 0 0 8.6264789597244089 -74.151677852139983 0 -74.151677852139983 -104.69851866860154 0 0 0 0 84.262309459591052 14.592306417739564 0 14.592306417739564 -237.15856001621614 0 0 0 0 84.257283727658034 -79.652983211023397 0 -79.652983211023397 -183.74203673354714 0 0 0 0 114.80458650534274 1.0959240551455878 0 1.0959240551455878 -311.17812183142996 0 0 0 0 43.764104129557381 -60.450332979338782 0 -60.450332979338782 -323.62236751614182 0 0 0 0 92.03885450490634 2.3382820982842532 0 2.3382820982842532 -346.76684815664885 0 0 0 0 174.30640273394238 -5.2208174051611422 0 -5.2208174051611422 -199.28856472514781 0 0 0 0 71.267308746959316 -70.159116477672796 0 -70.159116477672796 -228.70591618014078 0 0 0 0 358.90710838520317 -325.26706220337837 0 -325.26706220337837 -341.34816103868798 0 0 0 0 16.705502571800025 -199.61320085359694 0 -199.61320085359694 -382.40353216032236 0 0 0 0 7.3971207265858538 -275.58874509838643 0 -275.58874509838643 -456.85980384180948 0 0 0 0 86.130928462114525 -169.1866491834547 0 -169.1866491834547 -377.67301498192319 0 0 0 0 147.5455821433352 -6.4896050020888651 0 -6.4896050020888651 -214.04709271423962 0 0 0 0 141.18044677965372 -175.82228757039411 0 -175.82228757039411 -90.468850233382909 0 0 0 0 378.52076766655227 -17.109088062247793 0 -17.109088062247793 11.963923407545735 0 0 0 0 145.14260598945111 -171.30079625839107 0 -171.30079625839107 223.93084069761244 0 0 0 0 48.064961166171997 -27.689026039527562 0 -27.689026039527562 -44.46214068934205 0 0 0 0 223.18080917342741 -95.558291361348893 0 -95.558291361348893 -59.94527061519716 0 0 0 0 427.84838724458677 -325.96953782887522 0 -325.96953782887522 133.00107688223943 0 0 0 0 -2.1429369081242982 -1.9081207531511524 0 -1.9081207531511524 4.6018993563743678 0 0 0 0 368.05321903875301 -259.72286667477056 0 -259.72286667477056 123.83561760181101 0 0 0 0 241.41676879103034 -196.23133957303253 0 -196.23133957303253 105.13926015278776 0 0 0 0 89.330345570939244 -101.24970521921387 0 -101.24970521921387 110.08846210083175 0 0 0 0 405.6190018128691 -38.697136588802096 0 -38.697136588802096 112.02806868289463 0 0 0 0 -78.24382950674044 -101.93055321935935 0 -101.93055321935935 174.16009222336197 0 0 0 0 98.983025003239163 -74.650926924827218 0 -74.650926924827218 45.050793077229173 0 0 0 0 -18.992971843851592 -92.193950859906408 0 -92.193950859906408 52.082087282571592 0 0 0 0 104.72003002690326 -33.390497902044444 0 -33.390497902044444 -87.477129361916013 0 0 0 0 289.57207809004467 -152.59359641356605 0 -152.59359641356605 35.220316470851685 0 0 0 0 72.825967327386024 -92.379955606311341 0 -92.379955606311341 64.236411578212937 0 0 0 0 -42.774637903698022 -186.30860310431308 0 -186.30860310431308 -146.59014776359618 0 0 0 0 -42.476134879525489 -269.02783739192819 0 -269.02783739192819 -301.888165362976 0 0 0 0 -33.053395260409161 -230.8554091977694 0 -230.8554091977694 -175.45076853081991 0 0 0 0 -104.07168512559292 -165.2330195945533 0 -165.2330195945533 -105.06809922895991 0 0 0 0 -50.829192646409865 -211.04212363484339 0 -211.04212363484339 -220.06115149576726 0 0 0 0 -31.459500583136105 -110.84286742779113 0 -110.84286742779113 -174.75587090037152 0 0 0 0 -114.51184830041166 -205.83671356004015 0 -205.83671356004015 -167.44887426783953 0 0 0 0 -120.99729854448015 -222.12716567979714 0 -222.12716567979714 -192.04295968485349 0 0 0 0 -54.446996026381385 -220.16590082846596 0 -220.16590082846596 -258.70461654156861 0 0 0 0 16.261778375992435 -247.68292841808761 0 -247.68292841808761 -328.27656561074036 0 0 0 0 -412.96184742216428 -357.48056946483484 0 -357.48056946483484 -229.60865149520032 0 0 0 0 38.167360794876004 -514.02768505364656 0 -514.02768505364656 -82.747264951496618 0 0 0 0 -41.04502466761187 -245.13802128246698 0 -245.13802128246698 -267.76661529132252 0 0 0 0 -117.6993983535358 -385.26978658227745 0 -385.26978658227745 -92.795100218550942 0 0 0 0 71.457403054984752 -414.77603092575737 0 -414.77603092575737 -335.08712529196055 0 0 0 0 -567.54209636001724 -127.7310455696238 0 -127.7310455696238 -13.43413050320305 0 0 0 0 -430.23303113891234 -75.8932531031096 0 -75.8932531031096 -23.180145997048385 0 0 0 0 759.38154203732847 -491.22235411176371 0 -491.22235411176371 -200.27070167414058 0 0 0 0 -0.15158391386830772 -0.87100452851926491 0 -0.87100452851926491 0.080081088231125364 0 0 0 0 -126.54585022535321 -6.1234927572295419 0 -6.1234927572295419 -10.246128945771943 0 0 0 0 -72.333225952485009 -8.4366691423442717 0 -8.4366691423442717 -33.089237814379885 0 0 0 0 -67.865464947521104 -18.039953555440661 0 -18.039953555440661 33.487957366656701 0 0 0 0 -81.647212728825252 2.081949513662039 0 2.081949513662039 8.0238864023231145 0 0 0 0 -60.479878377554996 19.993131851064391 0 19.993131851064391 14.261749346124816 0 0 0 0 -101.61350566858164 5.2340044676311663 0 5.2340044676311663 20.781622277285351 0 0 0 0 -49.396525213485802 -67.90392203942838 0 -67.90392203942838 -52.868475204075366 0 0 0 0 -208.31847634266887 -139.93204298095225 0 -139.93204298095225 -64.893192055045802 0 0 0 0 -42.317457728924637 -172.96717706518029 0 -172.96717706518029 -154.43873856046048 0 0 0 0 -50.692909859981228 -198.53205697653357 0 -198.53205697653357 -220.34554123680937 0 0 0 0 -55.744661847558746 -56.393706984306846 0 -56.393706984306846 -9.8166159814609273 0 0 0 0 26.809943960444798 -129.08560725777443 0 -129.08560725777443 -154.30229701906501 0 0 0 0 -53.649721664754907 -133.20742563504609 0 -133.20742563504609 -41.865467886656916 0 0 0 0 -36.657800752793264 -141.20188073063946 0 -141.20188073063946 -147.02227117978236 0 0 0 0 -20.944254001802619 -140.71888247561265 0 -140.71888247561265 -292.32391431084034 0 0 0 0 316.66035558694421 -116.8032614495587 0 -116.8032614495587 17.557596742328315 0 0 0 0 200.24365987659257 -66.286227975107977 0 -66.286227975107977 -1.0592378465844376 0 0 0 0 -0.45770908428202617 0.97079700369976507 0 0.97079700369976507 2.6281367779949392 0 0 0 0 -49.801168458908251 -10.144954012274411 0 -10.144954012274411 87.414340752202406 0 0 0 0 175.77870556079142 -120.20948434548154 0 -120.20948434548154 -51.234362207882441 0 0 0 0 -45.349700233702606 -234.92131246564441 0 -234.92131246564441 130.72316473182582 0 0 0 0 20.964251417710329 4.5003434685650063 0 4.5003434685650063 103.98254337605249 0 0 0 0 38.579633057277533 -37.322078678214893 0 -37.322078678214893 -8.2076276727830191 0 0 0 0 25.510011434365879 -106.59529783813559 0 -106.59529783813559 196.8261401064301 0 0 0 0 0.84106459789654764 -27.297141822514732 0 -27.297141822514732 75.611384712981817 0 0 0 0 200.70254022965673 -184.03469614059213 0 -184.03469614059213 122.68246829547934 0 0 0 0 66.6593330767937 -123.70939926337633 0 -123.70939926337633 98.528431482885935 0 0 0 0 61.153179277265735 -96.82614712261784 0 -96.82614712261784 48.428712588363851 0 0 0 0 -15.929611976462184 -57.376669707500696 0 -57.376669707500696 62.270997976833314 0 0 0 0 -23.974280529255338 -37.804025316374464 0 -37.804025316374464 49.504459677140403 0 0 0 0 -23.36202684622549 -37.509332389425253 0 -37.509332389425253 48.03444098323962 0 0 0 0 -4.380435898572614 -80.504035688103613 0 -80.504035688103613 111.99618596686196 0 0 0 0 -56.715087703363679 -47.477652470213798 0 -47.477652470213798 73.431167018978158 0 0 0 0 -50.441910197912421 -2.2724565082201025 0 -2.2724565082201025 46.102908019176539 0 0 0 0 -53.241877401844249 -25.677633500112279 0 -25.677633500112279 65.321526324016304 0 0 0 0 -61.248321496143035 -8.0004255435796949 0 -8.0004255435796949 32.031695337405836 0 0 0 0 -63.585953244899429 -11.272516001175063 0 -11.272516001175063 49.568730519313249 0 0 0 0 -47.725120770701324 -30.242970498173236 0 -30.242970498173236 41.577947727371793 0 0 0 0 -45.519321194675285 -25.523350949282758 0 -25.523350949282758 43.921464452607324 0 0 0 0 -11.938355658843648 -38.663950637474045 0 -38.663950637474045 19.907197567790718 0 0 0 0 -59.379842346119403 -17.547863568444882 0 -17.547863568444882 28.204689739744936 0 0 0 0 -62.015334923054979 -29.3804958830342 0 -29.3804958830342 26.877638959180331 0 0 0 0 17.74189035181189 -119.05894551149868 0 -119.05894551149868 -80.364425943038896 0 0 0 0 -68.244479095519637 -3.811503545519372 0 -3.811503545519372 -23.484523761639139 0 0 0 0 -71.881913632209034 -19.206816550693475 0 -19.206816550693475 16.763902859573136 0 0 0 0 -15.570338476216421 -44.798168165150855 0 -44.798168165150855 -16.424496642721351 0 0 0 0 -57.282772549617221 -26.712991820633761 0 -26.712991820633761 23.068337162476382 0 0 0 0 -30.91809368392569 -23.503878097868437 0 -23.503878097868437 -25.159216475527501 0 0 0 0 -31.30909684271046 -32.525394825883836 0 -32.525394825883836 18.283414821336919 0 0 0 0 14.34375434742833 -58.683045705809491 0 -58.683045705809491 -25.945921972923315 0 0 0 0 -0.61725011533417273 -48.43898587487638 0 -48.43898587487638 -81.89706485363422 0 0 0 0 13.550607884433703 -84.425852305044828 0 -84.425852305044828 -14.949531408768962 0 0 0 0 -28.94196512097551 -10.998845807245743 0 -10.998845807245743 -101.68192004036973 0 0 0 0 62.479874787935842 -356.94564427507112 0 -356.94564427507112 829.01991028460179 0 0 0 0 26.698517877244356 -28.779915235538333 0 -28.779915235538333 29.987110743923125 0 0 0 0 245.35499564348356 -1106.64279390722 0 -1106.64279390722 1055.928431590688 0 0 0 0 127.96929320806885 -273.82743269411185 0 -273.82743269411185 -147.85380111011364 0 0 0 0 -0.21417236203407697 -1.4239792199841403 0 -1.4239792199841403 0.84461765078932061 0 0 0 0 24.408711088326527 -148.67883239057846 0 -148.67883239057846 -25.553141543749007 0 0 0 0 30.226639224987593 -165.7533349700534 0 -165.7533349700534 17.389003622476594 0 0 0 0 -327.07670761273585 213.92042221677275 0 213.92042221677275 125.10371741612835 0 0 0 0 18.62839603735847 -148.06213634868254 0 -148.06213634868254 191.91515292212353 0 0 0 0 15.443102841090877 -332.40038136008661 0 -332.40038136008661 253.62456239631865 0 0 0 0 32.03222764848033 -176.64779919464308 0 -176.64779919464308 79.871328123932471 0 0 0 0 35.441263333443203 -87.791618405208283 0 -87.791618405208283 56.944071801466634 0 0 0 0 31.608963793078146 -103.72077458363128 0 -103.72077458363128 17.885406956811494 0 0 0 0 13.834743365267059 -82.854875418212032 0 -82.854875418212032 -6.5513269226648845 0 0 0 0 41.908367848591297 -78.374537457697443 0 -78.374537457697443 25.184527387926209 0 0 0 0 8.0861638230708195 -61.849679590554842 0 -61.849679590554842 19.636194819446246 0 0 0 0 35.696368535744114 -90.263598123116026 0 -90.263598123116026 49.503797483350354 0 0 0 0 74.525486737824394 -83.819609990998288 0 -83.819609990998288 94.163982279776974 0 0 0 0 66.245268984692302 -42.710424834242986 0 -42.710424834242986 21.752783228308544 0 0 0 0 74.126169864310214 -108.49849070066375 0 -108.49849070066375 40.634965857214411 0 0 0 0 38.867379703799088 -38.144497533099639 0 -38.144497533099639 -174.10416885831 0 0 0 0 2.1695196558165151 0.29316052861839381 0 0.29316052861839381 0.14573297826190412 0 0 0 0 44.562825060187606 -2.2917033172379888 0 -2.2917033172379888 -85.999022140291345 0 0 0 0 55.291973770232289 -46.976107383157796 0 -46.976107383157796 29.511163667111759 0 0 0 0 26.489647496928228 -8.2284730356695945 0 -8.2284730356695945 -6.4014594339441828 0 0 0 0 35.241252001869725 -2.5968906418256665 0 -2.5968906418256665 -11.220338371560501 0 0 0 0 6.2780951334465982 -20.166008966245407 0 -20.166008966245407 -2.3442567518961681 0 0 0 0 8.8761514768223861 -3.078516943370154 0 -3.078516943370154 -1.0845539129252373 0 0 0 0 19.243158832789049 -7.3828136643023754 0 -7.3828136643023754 -5.8641568891980569 0 0 0 0 45.364526504337846 -43.284116374163204 0 -43.284116374163204 28.53407692957262 0 0 0 0 -3.4174359804072196 -1.7313324163490194 0 -1.7313324163490194 5.571028860515753 0 0 0 0 55.922475256971666 -38.395835130348132 0 -38.395835130348132 20.451445778562629 0 0 0 0 -99.903448192020733 -102.15482990522924 0 -102.15482990522924 34.180389702512912 0 0 0 0 151.80842560315796 -315.86693324829866 0 -315.86693324829866 -136.68477233028352 0 0 0 0 -282.82757800427498 -126.67354007097674 0 -126.67354007097674 -195.4095072548389 0 0 0 0 -152.97990920177199 -141.6292278704052 0 -141.6292278704052 149.23149865693995 0 0 0 0 15.531412737822393 -153.91753961432551 0 -153.91753961432551 118.50596182039408 0 0 0 0 4.2092336586320016 -37.850446372174702 0 -37.850446372174702 420.29074755600232 0 0 0 0 701.39300317014568 -422.11532290557989 0 -422.11532290557989 161.79036376231306 0 0 0 0 117.50049057965225 -186.83592280462653 0 -186.83592280462653 314.44093804816112 0 0 0 0 1.3111994810822836 -1.1288967744828327 0 -1.1288967744828327 4.6329688670938225 0 0 0 0 -0.64878309747017937 -1.5836906348853574 0 -1.5836906348853574 12.111035807476711 0 0 0 0 -35.466265574170393 -1.007202225853689 0 -1.007202225853689 31.885418559239042 0 0 0 0 -25.246704366152699 -21.628210525388567 0 -21.628210525388567 20.516943304017332 0 0 0 0 -60.707205704635271 -34.117069149404415 0 -34.117069149404415 19.806918824135209 0 0 0 0 -48.699980277156101 -30.797432592089649 0 -30.797432592089649 16.964525748287997 0 0 0 0 17.491920585728877 -18.892138455384895 0 -18.892138455384895 19.579782028639116 0 0 0 0 -49.777428023007815 -16.052327905519633 0 -16.052327905519633 37.511876848300744 0 0 0 0 627.24226283574535 -47.400331258158985 0 -47.400331258158985 -302.17486670067592 0 0 0 0 99.792401481419802 -89.354730958817527 0 -89.354730958817527 37.618560961436742 0 0 0 0 459.42275073287965 211.27822166627448 0 211.27822166627448 -29.09398522630363 0 0 0 0 0.68978700106768542 -4.0471788257685262 0 -4.0471788257685262 4.2000799086905545 0 0 0 0 -206.81651208356561 -302.47696543215898 0 -302.47696543215898 -20.103991002986731 0 0 0 0 33.819228586944519 -397.56301953566162 0 -397.56301953566162 -333.40352596340745 0 0 0 0 140.51881821799543 116.98381156559799 0 116.98381156559799 -920.38548613662715 0 0 0 0 5.0714090620515435 -1.6256534099054516 0 -1.6256534099054516 0.17330765076555732 0 0 0 0 -104.55212258356914 71.521055626777525 0 71.521055626777525 -900.88328251674284 0 0 0 0 -57.394076586992014 -168.02304482150794 0 -168.02304482150794 -798.46261949743348 0 0 0 0 41.976205500846845 -329.81974745433217 0 -329.81974745433217 861.01091399222287 0 0 0 0 -914.67953862049762 748.01936475770708 0 748.01936475770708 -1449.4942392483972 0 0 0 0 309.34006477653747 -375.15255957265254 0 -375.15255957265254 -1143.5023340043481 0 0 0 0 132.69414324291574 -376.58405016817414 0 -376.58405016817414 8.0054788807774457 0 0 0 0 17.482317815869465 -118.99127353380845 0 -118.99127353380845 593.88298533031229 0 0 0 0 32.099567317518449 -93.494942251785233 0 -93.494942251785233 167.82939656180133 0 0 0 0 48.708907524087408 -95.696693448559927 0 -95.696693448559927 102.9647931631589 0 0 0 0 11.184798368896736 -6.7532014181062969 0 -6.7532014181062969 0.87747646892157771 0 0 0 0 386.19315186045424 -222.21759263588865 0 -222.21759263588865 -955.37015780890943 0 0 0 0 3.3900462441597483 -66.831867866870198 0 -66.831867866870198 144.76932076316348 0 0 0 0 -5.3779825966703356 -32.702711810522487 0 -32.702711810522487 53.444385783961479 0 0 0 0 1.5006267613280215 -118.7465162872877 0 -118.7465162872877 35.448427552803651 0 0 0 0 3.1887934929764015 -90.36539439461967 0 -90.36539439461967 119.37786501519804 0 0 0 0 -17.042834250372835 -118.40105818408847 0 -118.40105818408847 105.61314898907585 0 0 0 0 26.473982830597379 -142.71985430885888 0 -142.71985430885888 91.685148889237098 0 0 0 0 82.852127264632145 -149.14392128725967 0 -149.14392128725967 102.2585314505543 0 0 0 0 97.29121180580114 -128.3776906315934 0 -128.3776906315934 93.550434104969099 0 0 0 0 48.756764989702788 -129.0051485505187 0 -129.0051485505187 87.7700871444531 0 0 0 0 46.234650773847534 -128.14869037331528 0 -128.14869037331528 113.04617641222649 0 0 0 0 96.83604795744759 -171.16340141188175 0 -171.16340141188175 142.31408869086317 0 0 0 0 156.38575414678053 -142.67777174961293 0 -142.67777174961293 82.518845252050596 0 0 0 0 133.64544707002642 -68.4984630055651 0 -68.4984630055651 -151.65226354246033 0 0 0 0 -31.673696818041208 -2.0220357517273442 0 -2.0220357517273442 143.65306241028338 0 0 0 0 65.123334658957901 -124.37969776886985 0 -124.37969776886985 118.58944690635508 0 0 0 0 112.8107001381868 -203.71025004911189 0 -203.71025004911189 233.05991363304656 0 0 0 0 96.753996197752713 -150.46347210756358 0 -150.46347210756358 125.17375848363486 0 0 0 0 96.33719698569621 -124.57150542512863 0 -124.57150542512863 80.318943793681683 0 0 0 0 82.604575163866684 -136.63299925382921 0 -136.63299925382921 146.2707695376248 0 0 0 0 147.12349873768107 -121.63170814259183 0 -121.63170814259183 98.375768270931076 0 0 0 0 34.126352415543806 -62.647712186246281 0 -62.647712186246281 109.69374069896548 0 0 0 0 92.532185312677029 -130.77242957618182 0 -130.77242957618182 145.56664049575193 0 0 0 0 80.40193717393413 -126.66001767541002 0 -126.66001767541002 194.42493276849473 0 0 0 0 7.3981813860903571 2.5174670691294381 0 2.5174670691294381 0.37895976712179902 0 0 0 0 5.7835130348612438 -244.38290329788697 0 -244.38290329788697 395.77313744669118 0 0 0 0 69.403597811164218 -107.28141832765141 0 -107.28141832765141 232.53743050589128 0 0 0 0 19.536928561632521 -239.81830378912036 0 -239.81830378912036 121.14155527207004 0 0 0 0 15.488645755252946 -110.75645706773798 0 -110.75645706773798 90.619906180830185 0 0 0 0 -58.033515178423841 -112.94171412208016 0 -112.94171412208016 125.43113959164748 0 0 0 0 54.930589928237168 -115.66838330024575 0 -115.66838330024575 110.93479231329002 0 0 0 0 62.930306427191681 -174.22890164313367 0 -174.22890164313367 139.04728399776468 0 0 0 0 0.25147565027145902 -48.953945696201117 0 -48.953945696201117 -11.355121013027201 0 0 0 0 -2.5560472480662213 -21.23241557458816 0 -21.23241557458816 24.80089931024601 0 0 0 0 -7.0270323812146671 -9.3791389078032807 0 -9.3791389078032807 301.1930814969528 0 0 0 0 -12.913459437467282 194.71248575642687 0 194.71248575642687 234.69467723542039 0 0 0 0 -168.51820884446352 150.31835039083126 0 150.31835039083126 375.22504527312049 0 0 0 0 -63.258613276833785 -161.01703044380702 0 -161.01703044380702 155.67652346217255 0 0 0 0 -3.4151670453052674 -4.3386500794616225 0 -4.3386500794616225 -2.4784862443775957 0 0 0 0 25.949507951783744 0.24175035240750731 0 0.24175035240750731 -11.00341979341465 0 0 0 0 19.492208625160856 -48.509001792277559 0 -48.509001792277559 -34.74401655075053 0 0 0 0 3.1816194025886944 -48.85050988904004 0 -48.85050988904004 -11.528141101647634 0 0 0 0 -255.91183890748653 -251.50647359478353 0 -251.50647359478353 -32.851979117916926 0 0 0 0 27.425016966609093 -33.186052720000376 0 -33.186052720000376 29.81947555786974 0 0 0 0 -24.170602066313535 1.9417494785255798 0 1.9417494785255798 9.1096745198950764 0 0 0 0 33.871669206651859 -194.19402181039732 0 -194.19402181039732 60.103696286154445 0 0 0 0 -0.35924577688274439 -106.59295212247162 0 -106.59295212247162 -132.54046449698944 0 0 0 0 -22.768380992172752 -87.522203519502 0 -87.522203519502 -49.079816319089332 0 0 0 0 -211.32998515908548 -187.40044957413193 0 -187.40044957413193 14.29320955379626 0 0 0 0 -250.13065674717654 -209.9170962764274 0 -209.9170962764274 83.645506617602223 0 0 0 0 -238.44359814432937 -172.79212618728957 0 -172.79212618728957 49.814016523672763 0 0 0 0 -158.45152610493096 -176.84746262311455 0 -176.84746262311455 -12.111156783466868 0 0 0 0 -133.85748218082881 -43.566140074373834 0 -43.566140074373834 105.34954260578525 0 0 0 0 -152.99056954175467 -127.74559864110233 0 -127.74559864110233 34.173808214660312 0 0 0 0 -326.50237126884167 -211.41498059210153 0 -211.41498059210153 42.735273007695241 0 0 0 0 -7.6578151462174162 -1.3293507467240424 0 -1.3293507467240424 2.26061133183007 0 0 0 0 -381.68628320717835 384.2558105336484 0 384.2558105336484 -93.030795601039586 0 0 0 0 -137.01627708179876 -627.70847435994983 0 -627.70847435994983 -662.14321678783563 0 0 0 0 -281.47908922401075 -48.962702245598621 0 -48.962702245598621 21.545024365750578 0 0 0 0 -357.57575763649947 -877.26935075108486 0 -877.26935075108486 1146.0971127897574 0 0 0 0 1.5253700725879753 778.0796569900649 0 778.0796569900649 -384.48340466995796 0 0 0 0 51.278321519032033 -240.66769978079788 0 -240.66769978079788 500.16046112693584 0 0 0 0 -20.633077605234575 35.891454182596135 0 35.891454182596135 -273.52156708408074 0 0 0 0 499.4360835840489 -260.58506960439672 0 -260.58506960439672 100.84157427200171 0 0 0 0 262.42101709863346 -119.08105489571108 0 -119.08105489571108 53.030887709522176 0 0 0 0 0.14092322798251189 -0.89441949908868423 0 -0.89441949908868423 9.9912102061302335 0 0 0 0 82.845177769442671 -53.615698372473162 0 -53.615698372473162 44.784848324068093 0 0 0 0 61.677904129035596 -53.038596075052283 0 -53.038596075052283 75.904883820327996 0 0 0 0 2.2811468837197566 -5.7559632432964491 0 -5.7559632432964491 29.185681759829347 0 0 0 0 76.736679070781975 -38.28584805666469 0 -38.28584805666469 54.262319097379077 0 0 0 0 17.73271241366993 0.05017395100814781 0 0.05017395100814781 8.1262542908196131 0 0 0 0 24.744290718779666 -14.425179373933133 0 -14.425179373933133 97.60140336217728 0 0 0 0 66.174575686358367 -8.1571676711965893 0 -8.1571676711965893 -3.4195487678571226 0 0 0 0 9.6352976255772589 -27.627268366246696 0 -27.627268366246696 44.843747770589729 0 0 0 0 165.79657741065603 -129.02611930767307 0 -129.02611930767307 91.534131610389522 0 0 0 0 30.582818440161645 -11.655943989981097 0 -11.655943989981097 -2.5867484641057672 0 0 0 0 -121.80674565623485 38.32902549415121 0 38.32902549415121 29.050575000866957 0 0 0 0 -7.6053786523157214 -13.49759060599775 0 -13.49759060599775 8.7107504189931291 0 0 0 0 -55.184533760082559 -23.070495961605047 0 -23.070495961605047 105.91885085100876 0 0 0 0 18.591707841958851 -5.5872625165675345 0 -5.5872625165675345 19.495380420998117 0 0 0 0 1.9645591021107975 21.900246478136978 0 21.900246478136978 38.132216824840725 0 0 0 0 -31.032893595693167 -43.632838805595384 0 -43.632838805595384 57.17651025763189 0 0 0 0 -68.23085297740181 -139.15332021940776 0 -139.15332021940776 3.6242927250204957 0 0 0 0 -14.244279997721605 -57.96824011816625 0 -57.96824011816625 -77.630504892353201 0 0 0 0 -297.97598538656894 -300.30590830167785 0 -300.30590830167785 66.893432203076372 0 0 0 0 -164.46055210872873 -300.87022862875165 0 -300.87022862875165 -207.80685669634113 0 0 0 0 -445.86286795482738 -502.1064737011111 0 -502.1064737011111 -205.26175237922143 0 0 0 0 -84.121661074852454 -258.36623291911746 0 -258.36623291911746 -467.93154956645594 0 0 0 0 -687.19924453311251 -130.75364202236597 0 -130.75364202236597 256.95368679189869 0 0 0 0 -4.0614567100336103 -3.5332131818478132 0 -3.5332131818478132 -1.2189173189482965 0 0 0 0 33.274816632692819 -68.016849854742759 0 -68.016849854742759 -170.94098410499782 0 0 0 0 -773.11054499888996 -20.952059076589649 0 -20.952059076589649 131.44570811807353 0 0 0 0 -112.41729850762931 588.85762468250323 0 588.85762468250323 36.788632395270724 0 0 0 0 -167.19231769533326 -42.816927444077464 0 -42.816927444077464 42.543158808035514 0 0 0 0 -182.6615662245822 -105.0222344607464 0 -105.0222344607464 -58.164046760259225 0 0 0 0 -5.9902093513557588 -3.2672376975193753 0 -3.2672376975193753 3.1130827322545791 0 0 0 0 -0.09212289171705379 0.63274371750532055 0 0.63274371750532055 1.5378401707710907 0 0 0 0 -356.29833490123929 -253.5123259105485 0 -253.5123259105485 -159.93180087877772 0 0 0 0 -714.2419762162026 97.700853383888898 0 97.700853383888898 484.42412676787353 0 0 0 0 349.51862950202485 -11.717693253165635 0 -11.717693253165635 -237.03266668128708 0 0 0 0 224.64072703660349 212.71058029421874 0 212.71058029421874 -446.10103821556913 0 0 0 0 -3.5086524416668396 -8.0837252022678001 0 -8.0837252022678001 17.277601277787639 0 0 0 0 -824.06188530784129 77.770697328813185 0 77.770697328813185 124.60070920735598 0 0 0 0 -497.07091250033591 34.417710621731658 0 34.417710621731658 132.97039159938504 0 0 0 0 314.70517593289333 -385.52165046184155 0 -385.52165046184155 173.21086669821307 0 0 0 0 0.82228764585654446 1.8845651810596991 0 1.8845651810596991 -0.065154556275274444 0 0 0 0 9.21019094757321 -47.634231146905677 0 -47.634231146905677 163.72767529547855 0 0 0 0 -260.37946453775658 9.0962638325727312 0 9.0962638325727312 80.869603889502287 0 0 0 0 -302.82811640789078 -56.659006378938102 0 -56.659006378938102 43.377053818290733 0 0 0 0 -249.8489342901521 -112.98872563453642 0 -112.98872563453642 138.93498962600097 0 0 0 0 3.5787630001723301 -93.187965797826394 0 -93.187965797826394 18.666333372747204 0 0 0 0 -71.469898386480054 -4.4023079733542545 0 -4.4023079733542545 48.567468369722519 0 0 0 0 10.752242491803216 -32.868185153856032 0 -32.868185153856032 73.110835630142034 0 0 0 0 -181.48198912165753 -80.608984218134538 0 -80.608984218134538 96.908706907357555 0 0 0 0 53.308668150184531 -69.159987364092046 0 -69.159987364092046 -131.13491043860813 0 0 0 0 55.277267470373772 -49.470962460306168 0 -49.470962460306168 55.133629796510832 0 0 0 0 6.3809457875922817 -92.210911838937022 0 -92.210911838937022 217.86178397707999 0 0 0 0 30.078707256237976 -124.9272726401208 0 -124.9272726401208 42.880990916594328 0 0 0 0 -41.475998044087333 -3.8610361067603876 0 -3.8610361067603876 9.0452162658133322 0 0 0 0 -21.8990027976688 -112.48310868231533 0 -112.48310868231533 180.50784453465212 0 0 0 0 -103.41567000147188 37.061455982106054 0 37.061455982106054 132.25669944739138 0 0 0 0 -34.61038841685513 -96.342452567951341 0 -96.342452567951341 220.79097493276845 0 0 0 0 -115.94511736187997 -71.789329866246646 0 -71.789329866246646 101.65843169311563 0 0 0 0 -6.6347310881474186 -2.6810936684705382 0 -2.6810936684705382 5.520446541310104 0 0 0 0 8.4216327107860707 -6.9140512243902776 0 -6.9140512243902776 85.645106918418605 0 0 0 0 -20.728509196283994 -42.833041106079691 0 -42.833041106079691 12.111760546678852 0 0 0 0 5.8186933209331499 -30.036874802023533 0 -30.036874802023533 7.627659528370387 0 0 0 0 14.742120355425868 -43.183349294737127 0 -43.183349294737127 14.396368851408624 0 0 0 0 -25.596192926000256 -23.185798845317777 0 -23.185798845317777 40.209389869659027 0 0 0 0 -44.913006608429214 -15.326971840962322 0 -15.326971840962322 73.646300106241696 0 0 0 0 10.259107871304877 -27.078311894708122 0 -27.078311894708122 51.533820618056779 0 0 0 0 2.7697326413286021 -42.535340278501508 0 -42.535340278501508 100.34337953119541 0 0 0 0 -116.56966735402966 -18.284218372015346 0 -18.284218372015346 283.02476517602918 0 0 0 0 -36.825435860482685 -130.25818102848643 0 -130.25818102848643 123.30772884501766 0 0 0 0 -65.000191691286091 -101.94333800286859 0 -101.94333800286859 96.804487641733431 0 0 0 0 -21.544058660907467 -79.185835772221253 0 -79.185835772221253 80.201386707678466 0 0 0 0 5.0030838567536762 -43.552325135697984 0 -43.552325135697984 23.47091806079861 0 0 0 0 -8.6739911869226489 -30.05527813669687 0 -30.05527813669687 44.557866932946354 0 0 0 0 4.6672750987167149 -41.290540554117236 0 -41.290540554117236 -6.4212159812534573 0 0 0 0 -0.62390697389855632 -96.05255695744745 0 -96.05255695744745 57.74337863940309 0 0 0 0 25.147573201375053 -94.58893913110478 0 -94.58893913110478 -22.740534240198031 0 0 0 0 8.7071138891624287 -75.277678161131917 0 -75.277678161131917 -10.846789342314878 0 0 0 0 27.938054069192731 -103.60527873706451 0 -103.60527873706451 -8.6051736799381615 0 0 0 0 -13.86410078874178 -133.15849203518155 0 -133.15849203518155 60.851408315298613 0 0 0 0 76.640383290789032 -157.56328432982264 0 -157.56328432982264 4.072900088118331 0 0 0 0 -7.1374751637704321 -150.43411269327771 0 -150.43411269327771 73.865852270700998 0 0 0 0 41.336652922072972 -237.6512129542607 0 -237.6512129542607 184.50927921292532 0 0 0 0 -7.1053118882431647 -4.0716517757249262 0 -4.0716517757249262 0.5945526786434453 0 0 0 0 124.06166653734545 -193.63450938911319 0 -193.63450938911319 -757.64784062753438 0 0 0 0 -101.41700660734205 -240.53812966949863 0 -240.53812966949863 -53.746686232352658 0 0 0 0 -112.82047640706878 -66.776141449710167 0 -66.776141449710167 -414.80794874479216 0 0 0 0 1.6611519161677393 0.69277219249599398 0 0.69277219249599398 0.61106437492717447 0 0 0 0 -17.674747603465221 -243.71201221702904 0 -243.71201221702904 -277.62416560482279 0 0 0 0 -35.983915640660825 129.46769079499072 0 129.46769079499072 -203.80541719211033 0 0 0 0 -4.3814826224697754 47.335716253174724 0 47.335716253174724 26.197017613631488 0 0 0 0 -36.995869913866045 -77.760690437305129 0 -77.760690437305129 61.226571877725064 0 0 0 0 -46.094946556375362 -93.325468546041293 0 -93.325468546041293 16.128615122069505 0 0 0 0 -177.86055597416998 -359.16974177052157 0 -359.16974177052157 -358.97971857441826 0 0 0 0 -1.7299493796120089 0.034036543779841999 0 0.034036543779841999 -0.20003988119072802 0 0 0 0 130.82640735716996 -180.87099727860777 0 -180.87099727860777 -1171.0994797937003 0 0 0 0 -64.280765414881898 -45.586892936760023 0 -45.586892936760023 903.39961816831885 0 0 0 0 -53.819950420434907 -190.57790422687879 0 -190.57790422687879 382.69471404017349 0 0 0 0 40.5813239611889 -141.62881542861834 0 -141.62881542861834 -11.775798588612389 0 0 0 0 -83.449012433828102 -52.189352599571464 0 -52.189352599571464 547.49988836425223 0 0 0 0 -175.05574588611489 -312.69201600870838 0 -312.69201600870838 -383.54137560802644 0 0 0 0 -26.077840854357163 -3.8418615418640751 0 -3.8418615418640751 -0.69303255011405529 0 0 0 0 -8.4616946854717412 -0.76346126581084484 0 -0.76346126581084484 -0.058954860859189551 0 0 0 0 -49.940905511649362 -38.025029666175612 0 -38.025029666175612 662.33524956423571 0 0 0 0 -229.46042434965784 -141.36041256413137 0 -141.36041256413137 717.08689095491707 0 0 0 0 244.24085418945469 -449.21896364035206 0 -449.21896364035206 -269.44748655538683 0 0 0 0 401.66077668013168 -338.57431949880402 0 -338.57431949880402 -353.20870697664031 0 0 0 0 447.48820686996442 -146.94892509353554 0 -146.94892509353554 -182.11996372114936 0 0 0 0 579.50757551546849 265.26672062814578 0 265.26672062814578 121.99408576903625 0 0 0 0 0.43422439736049512 -5.9397538470007873 0 -5.9397538470007873 -0.22564324365770005 0 0 0 0 873.69873160155839 38.025318172924926 0 38.025318172924926 -211.81863092028698 0 0 0 0 300.61889077058004 -88.726763593918122 0 -88.726763593918122 -3.5462200322135686 0 0 0 0 250.14746414858382 -148.0490536501411 0 -148.0490536501411 -60.594215923839329 0 0 0 0 383.58599411255273 186.89420011948096 0 186.89420011948096 -132.99452442209895 0 0 0 0 -1.5076071349881772 -2.2542359162079961 0 -2.2542359162079961 0.16379995720272156 0 0 0 0 111.19924590622372 -60.235293884273467 0 -60.235293884273467 -39.419012874001055 0 0 0 0 147.87922732965671 -131.90538154681599 0 -131.90538154681599 -63.126444226261583 0 0 0 0 160.21675299613707 -108.01009207154084 0 -108.01009207154084 -28.298841165228623 0 0 0 0 207.69926988636144 -214.89107011658018 0 -214.89107011658018 19.511955405626395 0 0 0 0 51.613871718167502 -137.62083352936764 0 -137.62083352936764 20.914981685329103 0 0 0 0 91.009739083441673 -84.211212538553696 0 -84.211212538553696 -3.2252005591012676 0 0 0 0 67.094854935690819 -56.861919112909888 0 -56.861919112909888 -34.477758461441383 0 0 0 0 -142.96769550579756 -455.2844654212268 0 -455.2844654212268 58.588470234178203 0 0 0 0 197.46069781717961 -266.51749519120085 0 -266.51749519120085 -88.679886251952439 0 0 0 0 -13.6359960316274 -6.4172042992642186 0 -6.4172042992642186 1.083417811342315 0 0 0 0 -23.585678571311291 -204.09167218217226 0 -204.09167218217226 -441.66400550091066 0 0 0 0 -2.3012159862446424 -210.70050987564139 0 -210.70050987564139 398.14945903663681 0 0 0 0 -71.070846410788363 -135.70545611320995 0 -135.70545611320995 -98.078679262472633 0 0 0 0 -84.670041613146623 -129.31003313211494 0 -129.31003313211494 -75.098440946352639 0 0 0 0 -86.379517860407304 -116.3499091765533 0 -116.3499091765533 -88.073086210907604 0 0 0 0 -66.5153164696967 -153.34731781487426 0 -153.34731781487426 -69.111836699695004 0 0 0 0 -1.6042480424840164 -5.6354985797150619 0 -5.6354985797150619 -0.48903045103948628 0 0 0 0 184.36347432855837 -124.62929956846165 0 -124.62929956846165 16.799395437570865 0 0 0 0 0.83869169198254667 -1.1549769372402778 0 -1.1549769372402778 0.60834401632855872 0 0 0 0 -75.355526867999288 -85.05206723018 0 -85.05206723018 -30.038794838920907 0 0 0 0 -92.658703087181493 -109.85821978135345 0 -109.85821978135345 -29.286817881088808 0 0 0 0 2.5947157698428782 -58.004576002604232 0 -58.004576002604232 25.374713780171902 0 0 0 0 -0.87230177275705501 -17.523063586404078 0 -17.523063586404078 -30.973271321992797 0 0 0 0 -21.003085764232821 -9.2592206989982984 0 -9.2592206989982984 1.1567163120761201 0 0 0 0 -51.808171634984319 -105.69702671819505 0 -105.69702671819505 -162.56118093300483 0 0 0 0 -61.260124223510502 -26.279544658752911 0 -26.279544658752911 11.085156944297523 0 0 0 0 9.3104533525379054 -10.181413228406427 0 -10.181413228406427 -13.804894292043768 0 0 0 0 -11.2031571828702 -33.127375369776473 0 -33.127375369776473 -45.017366723541727 0 0 0 0 -15.092764002944023 -11.738321475088696 0 -11.738321475088696 -1.6843121073252405 0 0 0 0 -1.6542268601773742 -3.8034613709485923 0 -3.8034613709485923 -1.2344765271639977 0 0 0 0 -9.979776679771021 -27.458878687308243 0 -27.458878687308243 -40.971012655444156 0 0 0 0 -8.8471247165616944 -12.46295505083582 0 -12.46295505083582 5.6263149715636489 0 0 0 0 -17.417627913553588 -27.025776222500554 0 -27.025776222500554 -27.404326423753446 0 0 0 0 -30.820912461989792 -40.033558860267931 0 -40.033558860267931 -31.263963675766149 0 0 0 0 -17.594306554012292 -28.094220612736649 0 -28.094220612736649 -23.346290004912134 0 0 0 0 -6.6312418755260296 -20.264771755556467 0 -20.264771755556467 -45.889846478818527 0 0 0 0 -25.860731381137157 -29.931582154607895 0 -29.931582154607895 -31.92026207571962 0 0 0 0 -10.974022732654703 -30.033753336758764 0 -30.033753336758764 -37.145868402898031 0 0 0 0 75.861666469756528 -26.664392913508152 0 -26.664392913508152 -64.771033527323198 0 0 0 0 111.36062930989056 -72.86278652896118 0 -72.86278652896118 -27.255830068844261 0 0 0 0 11.85594971533618 -7.0641199650933117 0 -7.0641199650933117 -18.733485251834651 0 0 0 0 12.60967018926749 -38.542676978618147 0 -38.542676978618147 -89.689560500258267 0 0 0 0 -10.800062282145689 -12.335591053277476 0 -12.335591053277476 8.2035856379768113 0 0 0 0 6.8207662602799246 -5.0694035915685163 0 -5.0694035915685163 -24.843143753041659 0 0 0 0 4.1101094983314397 -39.889851785635074 0 -39.889851785635074 -31.391054211878327 0 0 0 0 -28.827292840258451 -7.3301275419771628 0 -7.3301275419771628 35.131935902011719 0 0 0 0 8.5733161913522054 -4.9015122685814276 0 -4.9015122685814276 -75.255795815031888 0 0 0 0 -24.423622711765347 9.4122585499162597 0 9.4122585499162597 -26.003489651956443 0 0 0 0 -12.714615510383737 -7.0538530869253009 0 -7.0538530869253009 -32.858270689788242 0 0 0 0 -25.031802178717044 -28.054691778912456 0 -28.054691778912456 -39.998720990845868 0 0 0 0 -14.61072310275631 -11.76884374154497 0 -11.76884374154497 -19.558942608575308 0 0 0 0 -10.353688143666659 -8.8891715495033168 0 -8.8891715495033168 -21.286885331846861 0 0 0 0 -9.9972839678739547 -22.741343202936605 0 -22.741343202936605 -24.66204286018467 0 0 0 0 -5.7703923754986874 -10.517522231030028 0 -10.517522231030028 -18.757726845091014 0 0 0 0 0.0016707859031157568 -11.154563394781235 0 -11.154563394781235 -27.168837497986715 0 0 0 0 -5.4965845365150017 -15.132189643208136 0 -15.132189643208136 -11.531158165193482 0 0 0 0 -7.530275462915597 -13.195554393378387 0 -13.195554393378387 -8.4325838854962569 0 0 0 0 -3.92081331773079 -15.989497130722356 0 -15.989497130722356 -11.566660924706213 0 0 0 0 -6.4216883155968389 -12.436827781131797 0 -12.436827781131797 -16.541411602890093 0 0 0 0 -12.173739651479991 -16.29664282561248 0 -16.29664282561248 -11.684930656121139 0 0 0 0 -9.4488696555417846 -26.180355049788375 0 -26.180355049788375 -29.349131820746607 0 0 0 0 -23.073684660994331 -13.574141637097227 0 -13.574141637097227 -16.507025248369978 0 0 0 0 -6.1057020091247978 -4.4469805207710351 0 -4.4469805207710351 -42.76461128765186 0 0 0 0 3.1493290235443112 -2.5734950932093099 0 -2.5734950932093099 -3.2809438150969328 0 0 0 0 -33.133848230281728 -1.7582512956701066 0 -1.7582512956701066 -17.360043617534814 0 0 0 0 19.178704228193965 -14.364110228357276 0 -14.364110228357276 -39.45072255797686 0 0 0 0 -24.56635205281782 -44.542614299944034 0 -44.542614299944034 -42.058468826890248 0 0 0 0 27.910095787869068 -31.28363323988151 0 -31.28363323988151 -49.765147847003391 0 0 0 0 -3.9929337412381614 -3.3492104741954876 0 -3.3492104741954876 4.5101185226086287 0 0 0 0 -6.559076939818766 -14.603151210336442 0 -14.603151210336442 -18.830285303377885 0 0 0 0 2.1183329703417257 -18.092972413653229 0 -18.092972413653229 -24.686904864088092 0 0 0 0 13.20925989470561 -33.864723555273827 0 -33.864723555273827 33.350552252273474 0 0 0 0 0.99697833216706044 1.2043081829788633 0 1.2043081829788633 -0.50506343558643862 0 0 0 0 0.060598895652219653 -30.338713876068866 0 -30.338713876068866 36.419593732876137 0 0 0 0 9.7120274495391641 -16.327342444609826 0 -16.327342444609826 -40.362131781165033 0 0 0 0 15.289821689530072 -25.539079099927235 0 -25.539079099927235 -25.537547440491039 0 0 0 0 1.4712729511629732 -10.346505930742865 0 -10.346505930742865 -11.192271411320007 0 0 0 0 36.421401190236793 -40.35871418357101 0 -40.35871418357101 -66.413009147274806 0 0 0 0 10.494984443452267 -31.006316840563613 0 -31.006316840563613 -0.28013573019370597 0 0 0 0 51.409251910343301 -61.305059466810235 0 -61.305059466810235 -37.208476541648452 0 0 0 0 43.129160578901065 -91.806352453896125 0 -91.806352453896125 33.897147327046241 0 0 0 0 9.0911945593361452 -45.297753024538451 0 -45.297753024538451 12.128577018283977 0 0 0 0 -9.7449453741719481 -119.2020019169787 0 -119.2020019169787 343.7131071586391 0 0 0 0 0.041687953766086139 -79.729926275031858 0 -79.729926275031858 130.72114294996163 0 0 0 0 42.459546685182431 -86.189899934116511 0 -86.189899934116511 14.958781029958118 0 0 0 0 -2.8073212639374105 -136.82875053512123 0 -136.82875053512123 13.519585495490901 0 0 0 0 -108.31608708708518 63.605607356234941 0 63.605607356234941 3.168024215962987 0 0 0 0 1.8350293988274018 0.62306967506021849 0 0.62306967506021849 -0.39740405955209068 0 0 0 0 206.69352240623266 -134.99523833837839 0 -134.99523833837839 -289.17285948877998 0 0 0 0 0.60164568001215457 -0.18568753963365592 0 -0.18568753963365592 0.18567415888739602 0 0 0 0 40.798553650609392 -214.47304701794428 0 -214.47304701794428 469.79333569186747 0 0 0 0 -45.207711591290717 -128.43199720150687 0 -128.43199720150687 605.58119216670639 0 0 0 0 -4.9874988155788742 -73.442481549820059 0 -73.442481549820059 478.31709455368582 0 0 0 0 62.233067180262879 -180.62001532088061 0 -180.62001532088061 283.78776987860965 0 0 0 0 120.02572289513773 -125.91933091649025 0 -125.91933091649025 272.27543071373566 0 0 0 0 -14.085750651509443 -32.966002257977152 0 -32.966002257977152 -36.112608375784475 0 0 0 0 2.4329938490409404 -26.051843310301592 0 -26.051843310301592 -33.584618451908682 0 0 0 0 9.0311443580285413 -97.09065115785279 0 -97.09065115785279 -34.835442052742565 0 0 0 0 13.058865753686405 -35.434081455822025 0 -35.434081455822025 -138.02872463723816 0 0 0 0 0.51072858608199567 -1.1647040392631225 0 -1.1647040392631225 0.38485020298781203 0 0 0 0 20.520812221140659 -103.05730584865205 0 -103.05730584865205 173.24957648679231 0 0 0 0 2.4390083085891092 -73.752445203444609 0 -73.752445203444609 267.34632484229041 0 0 0 0 13.771309814306733 -87.163649488542433 0 -87.163649488542433 138.92997712626311 0 0 0 0 96.589270499294798 -221.38343166355753 0 -221.38343166355753 214.95061278677076 0 0 0 0 55.569078874788829 21.176733374368268 0 21.176733374368268 3.8626475852443036 0 0 0 0 85.827132110440289 -117.6270918104442 0 -117.6270918104442 174.81343538744659 0 0 0 0 -5.4211967219962389 -184.43475973328225 0 -184.43475973328225 292.77906703991539 0 0 0 0 3.6394944580624724 -164.23647545851577 0 -164.23647545851577 203.26940281694715 0 0 0 0 5.5664381738824886 -193.07984650604294 0 -193.07984650604294 268.12019273868702 0 0 0 0 -3.8965169422590407 -181.17360731564713 0 -181.17360731564713 199.40606051381337 0 0 0 0 34.910659166445839 -158.48639932340166 0 -158.48639932340166 81.242000954902323 0 0 0 0 9.679076838250694 -199.89472159717616 0 -199.89472159717616 120.13135388405499 0 0 0 0 0.73278216853941558 -167.13984643863432 0 -167.13984643863432 81.709869233864083 0 0 0 0 0.041305478727736045 -156.85842221490611 0 -156.85842221490611 278.67830506231121 0 0 0 0 14.5999163026936 -139.87666869769492 0 -139.87666869769492 260.1583435284374 0 0 0 0 20.921537544825696 -187.16520845203559 0 -187.16520845203559 187.2565383176734 0 0 0 0 29.345015352395421 -149.83262442560249 0 -149.83262442560249 85.97422853574335 0 0 0 0 31.008829170441004 -113.78701741173418 0 -113.78701741173418 141.59102905513737 0 0 0 0 27.290356436014918 -138.97386826424008 0 -138.97386826424008 -41.056501881736949 0 0 0 0 -0.028849641268607229 -181.83726313193119 0 -181.83726313193119 83.330348504227004 0 0 0 0 -25.507718229317106 -168.90741491757035 0 -168.90741491757035 85.05775390788267 0 0 0 0 -42.606824268828859 -123.74407294858906 0 -123.74407294858906 -41.82435923295634 0 0 0 0 14.067070813405735 -197.5511127781549 0 -197.5511127781549 18.508988571080408 0 0 0 0 -31.087181320501259 -158.53066855608722 0 -158.53066855608722 -3.3451833990611703 0 0 0 0 -13.734266944942647 -170.25292187220566 0 -170.25292187220566 81.987216417038098 0 0 0 0 24.761593821356655 -180.85298984826431 0 -180.85298984826431 -32.211337977172661 0 0 0 0 -34.107358483004646 -144.1345125681803 0 -144.1345125681803 -43.988920165366835 0 0 0 0 -6.8225049478205619 -192.77596948613473 0 -192.77596948613473 -84.120914531536982 0 0 0 0 -12.894780969851126 -204.57814473336964 0 -204.57814473336964 -15.138139247465006 0 0 0 0 -38.460974078654544 -153.80742129101736 0 -153.80742129101736 -42.397930941571758 0 0 0 0 -54.153329944274446 -187.68697021422986 0 -187.68697021422986 40.579736908049199 0 0 0 0 -54.224567905126605 -200.24750111196909 0 -200.24750111196909 63.766211171460327 0 0 0 0 -94.962081119401773 -183.07168724960843 0 -183.07168724960843 91.376912956045089 0 0 0 0 -51.629033983332192 -146.67355691620901 0 -146.67355691620901 27.304752914600613 0 0 0 0 -41.138647425061208 -146.59757287085085 0 -146.59757287085085 -15.576614779089084 0 0 0 0 -35.774642314419907 -115.84968055430454 0 -115.84968055430454 85.473708306985827 0 0 0 0 -20.011694356500811 -128.56728703627994 0 -128.56728703627994 71.498692567492981 0 0 0 0 -82.760302419563232 -164.38956446175496 0 -164.38956446175496 99.71279236247301 0 0 0 0 -82.692905812233221 -163.85283936184487 0 -163.85283936184487 97.435977750432357 0 0 0 0 -97.752538003664995 -218.21543210507406 0 -218.21543210507406 29.85259778971249 0 0 0 0 -71.616419145422697 -118.42844187005358 0 -118.42844187005358 -29.477127640557455 0 0 0 0 -126.66567754346033 -158.26324457534292 0 -158.26324457534292 100.35818343972824 0 0 0 0 -109.90599419859609 -195.91957667771396 0 -195.91957667771396 108.32955314383798 0 0 0 0 -105.11674512444006 -112.25381457433286 0 -112.25381457433286 59.065310813707583 0 0 0 0 -159.39022626922088 -107.77049683239761 0 -107.77049683239761 237.63602069850367 0 0 0 0 46.578942093110527 -277.16067936152194 0 -277.16067936152194 156.51813097313288 0 0 0 0 -80.290239783978905 -216.07056683933524 0 -216.07056683933524 136.74371576187332 0 0 0 0 9.7323431924055512 -235.98564868837741 0 -235.98564868837741 75.203760298507405 0 0 0 0 -83.813075782141823 -192.97923372895366 0 -192.97923372895366 98.586320538339351 0 0 0 0 -41.223870603746036 -96.346330550561106 0 -96.346330550561106 -96.080826570436329 0 0 0 0 -172.3612656227524 -107.76053296141981 0 -107.76053296141981 -50.832160793316689 0 0 0 0 -33.520131824832788 -149.7245838440831 0 -149.7245838440831 -168.7534850459997 0 0 0 0 -26.845941771654907 -13.443038028035517 0 -13.443038028035517 26.682021128719498 0 0 0 0 -1.007857222759668 -1.180468705872439 0 -1.180468705872439 1.8178981812476351 0 0 0 0 -67.911180849474476 -46.563650313764811 0 -46.563650313764811 17.109932979707082 0 0 0 0 -36.002488217693795 -25.346609138372109 0 -25.346609138372109 5.8826102204173383 0 0 0 0 -22.906821874967136 -79.617620577562775 0 -79.617620577562775 -90.182427145634392 0 0 0 0 -76.803023300228233 39.119943439489361 0 39.119943439489361 17.773880557164375 0 0 0 0 -10.890144540906476 -36.578436537965899 0 -36.578436537965899 -37.788230888234466 0 0 0 0 -34.113542524919247 -27.47497189164158 0 -27.47497189164158 3.5759244804513504 0 0 0 0 -28.97567615168191 -45.671192497333323 0 -45.671192497333323 -24.842859299511019 0 0 0 0 -44.888673963770998 -3.9273675396034378 0 -3.9273675396034378 68.753084295640292 0 0 0 0 -6.7942707194360707 -5.5735818573771496 0 -5.5735818573771496 6.2574843786119345 0 0 0 0 -0.94904280138655395 -21.199890762329034 0 -21.199890762329034 -0.78757293418095919 0 0 0 0 10.636501365665026 -41.030273655971541 0 -41.030273655971541 -5.7829095430679445 0 0 0 0 -10.683314807107308 -30.860581765862662 0 -30.860581765862662 3.31793244270375 0 0 0 0 -12.632668273156014 -29.632077489387484 0 -29.632077489387484 12.576645011475193 0 0 0 0 0.34151868580374867 -33.951084003763754 0 -33.951084003763754 -36.380629735067487 0 0 0 0 0.075725391173364187 -34.352052846632205 0 -34.352052846632205 -7.1162978877036949 0 0 0 0 -15.001130119504523 -7.8900175626913551 0 -7.8900175626913551 2.2847444798462675 0 0 0 0 -197.75853193065177 -14.464504882966594 0 -14.464504882966594 24.311117847275455 0 0 0 0 29.013976757436467 -12.11246710715568 0 -12.11246710715568 -93.338594885579369 0 0 0 0 -36.39084077548614 -100.98105710926029 0 -100.98105710926029 -120.73314885601212 0 0 0 0 2.3378743640633743 -0.25098823394505132 0 -0.25098823394505132 -3.8286347878973004 0 0 0 0 -178.42618155962555 -130.85099471759895 0 -130.85099471759895 -33.384420956510439 0 0 0 0 -40.600407658019321 -89.18049059229088 0 -89.18049059229088 -27.82782518696331 0 0 0 0 -60.706344011290639 -63.88462620730752 0 -63.88462620730752 3.8302443408974796 0 0 0 0 -79.901360978714365 -77.376135846861871 0 -77.376135846861871 20.278763347028871 0 0 0 0 -13.863545105392404 -65.842662094396019 0 -65.842662094396019 26.614647915968817 0 0 0 0 -12.144155628939188 -63.465079068368141 0 -63.465079068368141 -5.1447009612129477 0 0 0 0 12.629070446735568 -39.178253338815921 0 -39.178253338815921 -45.228819770054542 0 0 0 0 -55.446288420251221 -79.107668022177677 0 -79.107668022177677 56.331574316112892 0 0 0 0 -55.276479972253583 -49.776335015629229 0 -49.776335015629229 42.471605676841136 0 0 0 0 -65.454917183204998 -61.061465946359021 0 -61.061465946359021 44.888059865057585 0 0 0 0 -44.003332184987812 -33.712558075108973 0 -33.712558075108973 14.344008274323642 0 0 0 0 -41.062911647029978 -44.405218113473893 0 -44.405218113473893 16.47627854626171 0 0 0 0 -93.605629308391599 -8.9574395245613232 0 -8.9574395245613232 7.9432101048369077 0 0 0 0 -26.136062843783748 -42.31291593108017 0 -42.31291593108017 11.510937302169623 0 0 0 0 -20.159608121444762 -20.332883439124998 0 -20.332883439124998 1.7120733929677954 0 0 0 0 -210.16700762565597 48.627987741927882 0 48.627987741927882 10.160919304988056 0 0 0 0 -36.872575171836615 -29.822122830993976 0 -29.822122830993976 4.1244253514050797 0 0 0 0 -26.300775989775502 -36.312027192469941 0 -36.312027192469941 2.7417561381989799 0 0 0 0 -36.525235068187612 -43.262696811250862 0 -43.262696811250862 -1.9399531102517358 0 0 0 0 -27.75367141650986 -42.181207749911664 0 -42.181207749911664 -15.59461079997709 0 0 0 0 -33.363806482979271 -38.58483458630144 0 -38.58483458630144 -17.876997362327529 0 0 0 0 -39.152553249801713 -47.670386168318146 0 -47.670386168318146 -22.187420118938917 0 0 0 0 -31.858298830456079 -38.618588488824116 0 -38.618588488824116 -20.595437683874479 0 0 0 0 -26.325932848097182 -30.898610259055204 0 -30.898610259055204 -10.802432279782806 0 0 0 0 -33.954463149435469 -37.01879388663292 0 -37.01879388663292 -3.3813774636182643 0 0 0 0 -24.029450760353711 -23.643388806561006 0 -23.643388806561006 -4.1916622980206739 0 0 0 0 0.80668708920302379 -25.964308047718077 0 -25.964308047718077 -41.440996491477563 0 0 0 0 3.8908616360968153 -16.726758538980903 0 -16.726758538980903 -15.857105375227547 0 0 0 0 -26.332174126274985 -37.144471826173131 0 -37.144471826173131 -13.941848297290562 0 0 0 0 -3.5155046402126544 -42.800052698673312 0 -42.800052698673312 -6.4033773803857912 0 0 0 0 -99.663708439802804 -7.9370739908081305 0 -7.9370739908081305 2.4592606173100648 0 0 0 0 -14.96798639495519 -16.999955738794601 0 -16.999955738794601 -20.11198151398699 0 0 0 0 -3.7156588524667313 -29.807159705298545 0 -29.807159705298545 -14.578209321934992 0 0 0 0 -25.050710139797957 -27.103534685837076 0 -27.103534685837076 -4.1068759429290367 0 0 0 0 -18.230699166420152 -59.30797218582029 0 -59.30797218582029 -40.778751148378433 0 0 0 0 -24.57954231509575 -48.558419000670256 0 -48.558419000670256 -19.752741773205344 0 0 0 0 -23.708113534966074 -26.657891754808887 0 -26.657891754808887 -23.94310785792154 0 0 0 0 -28.214765466680547 -40.20494919039993 0 -40.20494919039993 -6.3677252709039749 0 0 0 0 -25.205735865211494 -50.924829535284971 0 -50.924829535284971 16.197573900375573 0 0 0 0 -32.41286528170167 -31.402554948857869 0 -31.402554948857869 -15.881853838212152 0 0 0 0 -32.018016588106548 -34.591925073787934 0 -34.591925073787934 -15.859080826467107 0 0 0 0 -33.365176572204291 -32.747737307621719 0 -32.747737307621719 -9.5658101936242019 0 0 0 0 -26.224840847924042 -34.534197302426719 0 -34.534197302426719 -16.718634010423557 0 0 0 0 -32.544831051774963 -38.02773441048339 0 -38.02773441048339 -13.940921683933993 0 0 0 0 -4.2400889491625833 -9.5943541613476455 0 -9.5943541613476455 -7.2442030084823301 0 0 0 0 -30.728776132058556 -54.03148026461713 0 -54.03148026461713 -39.474397610092836 0 0 0 0 -29.22426714913945 -36.54902352586214 0 -36.54902352586214 -39.608800829395477 0 0 0 0 -28.637090780742028 -44.733093527435358 0 -44.733093527435358 -30.860253849561559 0 0 0 0 -23.048294663772595 -28.669545181386638 0 -28.669545181386638 -45.947454526438378 0 0 0 0 -37.033769179237424 -49.225890490390157 0 -49.225890490390157 -25.177142503231153 0 0 0 0 -57.896087423268 -62.982729660619952 0 -62.982729660619952 -36.733757282858278 0 0 0 0 -23.027245996257989 -81.316152624112874 0 -81.316152624112874 -105.66843392340525 0 0 0 0 -0.21934158051265484 -1.8086059101891081 0 -1.8086059101891081 3.5175904468328696 0 0 0 0 2.7562761916933596 -68.98298394782978 0 -68.98298394782978 -29.747929968390963 0 0 0 0 -44.716910347036219 13.543945887377049 0 13.543945887377049 33.863547438086243 0 0 0 0 -144.96594221432036 25.460035966347277 0 25.460035966347277 90.12718952247269 0 0 0 0 -62.915560205066413 -108.43443092063171 0 -108.43443092063171 -46.325977424054145 0 0 0 0 -139.87389377506793 -19.055363396671055 0 -19.055363396671055 43.573477822399582 0 0 0 0 73.73501961054626 -125.2778494833583 0 -125.2778494833583 132.85259415114706 0 0 0 0 -36.609762453233991 -25.119145289474098 0 -25.119145289474098 6.5394463038394521 0 0 0 0 66.057647777898637 -4.4928640585567337 0 -4.4928640585567337 -10.695170999708353 0 0 0 0 -1.0639811930972316 0.0043898541771092425 0 0.0043898541771092425 5.9964998265719913 0 0 0 0 -168.2926932992541 7.6706115704382682 0 7.6706115704382682 53.732794656276383 0 0 0 0 -38.29182274544695 -51.907736655374464 0 -51.907736655374464 -34.011841659330486 0 0 0 0 -57.414363969931628 -235.77431815176351 0 -235.77431815176351 225.22705379473337 0 0 0 0 19.934315089568855 -82.000869073902777 0 -82.000869073902777 20.958944641512062 0 0 0 0 -22.225193024835789 -189.13060937418049 0 -189.13060937418049 91.276586900850816 0 0 0 0 14.874885144985001 -107.02522085826786 0 -107.02522085826786 -149.28373297063808 0 0 0 0 -76.491886556133977 -105.94095289389952 0 -105.94095289389952 12.288920116912777 0 0 0 0 -177.15373531009254 110.99059954888435 0 110.99059954888435 -272.97168099433839 0 0 0 0 -441.40778366558152 -77.780553464494005 0 -77.780553464494005 365.20054524163425 0 0 0 0 -76.933183893682326 -98.185797703499702 0 -98.185797703499702 -48.345158301919582 0 0 0 0 -1.1061463982850661 0.1143196316513837 0 0.1143196316513837 1.7130327836714798 0 0 0 0 -581.91868109020015 178.77787438718224 0 178.77787438718224 256.32281452309689 0 0 0 0 -68.235918874411254 -233.83527193158443 0 -233.83527193158443 105.45416529524664 0 0 0 0 -198.87610825763113 -57.387570571296237 0 -57.387570571296237 18.677886206438416 0 0 0 0 27.357935835774242 -10.352421585666889 0 -10.352421585666889 -8.7850280324455525 0 0 0 0 -150.77071639211408 -123.37276855557229 0 -123.37276855557229 -29.697921771406982 0 0 0 0 0.68253006163206464 -59.300410874671798 0 -59.300410874671798 237.69822290425691 0 0 0 0 5.2540460588615208 -5.1024844251484822 0 -5.1024844251484822 -3.5685263590754701 0 0 0 0 101.08864103991283 -33.927709498767399 0 -33.927709498767399 215.59734900491458 0 0 0 0 45.410407297003303 -118.07960381500379 0 -118.07960381500379 157.94635729942092 0 0 0 0 -2.437022928211972 -4.3285010300816076 0 -4.3285010300816076 -5.038891726160692 0 0 0 0 58.56183415091914 15.582050082182832 0 15.582050082182832 319.38348249289265 0 0 0 0 25.209857925876577 -104.05115543860666 0 -104.05115543860666 249.84488641864118 0 0 0 0 71.007985912455979 -147.23892633144897 0 -147.23892633144897 71.810873217400513 0 0 0 0 -29.875507262211386 -131.48911063424748 0 -131.48911063424748 -4.9916682841012516 0 0 0 0 62.260339062666276 -85.81895520969374 0 -85.81895520969374 -133.70567254196794 0 0 0 0 -30.887933473482008 -81.545217896571558 0 -81.545217896571558 36.96941776048061 0 0 0 0 110.13065622052272 -58.481752060959479 0 -58.481752060959479 40.658283577820839 0 0 0 0 4.8288396369875386 -83.013204462889917 0 -83.013204462889917 61.561303025646339 0 0 0 0 29.973713213203695 2.6533894867257004 0 2.6533894867257004 10.288551799505512 0 0 0 0 -63.475554029654575 -130.19941371908408 0 -130.19941371908408 -96.747186492772016 0 0 0 0 53.87245936538045 -53.034783134195095 0 -53.034783134195095 -314.97797385725244 0 0 0 0 -81.935295065868445 -53.030246208725657 0 -53.030246208725657 -136.29798300188452 0 0 0 0 -11.823222083863584 -30.663354012369382 0 -30.663354012369382 24.250817489307337 0 0 0 0 -13.041643997302787 -3.3534368212526786 0 -3.3534368212526786 -0.82145884080180132 0 0 0 0 -6.8444616437250261 24.068087135499809 0 24.068087135499809 73.893482227103959 0 0 0 0 0.63335768343522325 -6.533372208062989 0 -6.533372208062989 0.30669078296516972 0 0 0 0 22.712739174400962 -34.721923425878956 0 -34.721923425878956 -17.797602994938643 0 0 0 0 -20.675749336262015 -11.319256319595297 0 -11.319256319595297 -17.81361473699144 0 0 0 0 -4.3810103479643203 -7.9144668384560646 0 -7.9144668384560646 -15.141734836026444 0 0 0 0 -13.832644699279626 -6.8569928293654812 0 -6.8569928293654812 -8.988577346324746 0 0 0 0 -20.82761681254383 -11.300363026676678 0 -11.300363026676678 -10.729935626470251 0 0 0 0 -13.407244225027171 -13.010269899365085 0 -13.010269899365085 -17.429420975751782 0 0 0 0 -3.7903012025370351 -0.75468997165948437 0 -0.75468997165948437 -3.489148872655683 0 0 0 0 -57.072437341961404 -181.18330453523595 0 -181.18330453523595 -218.9581330988417 0 0 0 0 -20.816948042262432 -12.305543866049099 0 -12.305543866049099 -18.607445764024305 0 0 0 0 -94.050270308693257 -159.32569771458839 0 -159.32569771458839 -130.69926502465978 0 0 0 0 -18.804646849085202 -9.7305899121456605 0 -9.7305899121456605 -21.281443994896108 0 0 0 0 -14.617255333207275 -12.932213670382339 0 -12.932213670382339 -2.9240603929952682 0 0 0 0 -3.9674082030323916 1.2704604134514739 0 1.2704604134514739 50.665379664216744 0 0 0 0 -38.396364614384311 -13.176195540935623 0 -13.176195540935623 64.843452913844885 0 0 0 0 -10.910420042761871 -9.6333811012882506 0 -9.6333811012882506 30.443442317027802 0 0 0 0 -25.453916593043687 -30.604249205998713 0 -30.604249205998713 47.137655710766012 0 0 0 0 -14.468118075018083 -17.601228962107598 0 -17.601228962107598 -18.785472319985274 0 0 0 0 -24.181851742270027 -11.942567151830797 0 -11.942567151830797 7.7333251325784715 0 0 0 0 -18.906021126301216 -25.004654029908941 0 -25.004654029908941 22.936279551356332 0 0 0 0 -28.36429701974447 -24.596405230949131 0 -24.596405230949131 3.0021645073575201 0 0 0 0 -32.756558977236345 -22.309313661099647 0 -22.309313661099647 6.9873158567388165 0 0 0 0 -62.803919112553558 -45.612693683075236 0 -45.612693683075236 59.494229781484904 0 0 0 0 -105.92588541188707 -29.606879713475792 0 -29.606879713475792 0.44435071708721807 0 0 0 0 -44.165474813536093 -40.15567189326066 0 -40.15567189326066 -1.8076735936811019 0 0 0 0 -22.529242130885468 -12.55700514973319 0 -12.55700514973319 11.814771445028811 0 0 0 0 -22.984944042525967 -19.5307739159216 0 -19.5307739159216 -15.36062997744375 0 0 0 0 -35.791379519755992 -48.847928380509984 0 -48.847928380509984 -3.3405712348176166 0 0 0 0 4.5200044600296678 -29.390770546153362 0 -29.390770546153362 -13.140223580783641 0 0 0 0 54.118896016817416 -51.852361232135081 0 -51.852361232135081 -5.591410711491335 0 0 0 0 -0.18508473659767333 -29.436899366675789 0 -29.436899366675789 -12.32393301272532 0 0 0 0 12.567228095768769 -84.710926571009622 0 -84.710926571009622 36.859408312364394 0 0 0 0 8.5009845364702414 -65.437189084363354 0 -65.437189084363354 9.5687253660180431 0 0 0 0 -30.181391069256279 -44.097980868500599 0 -44.097980868500599 -1.2373921351081663 0 0 0 0 -31.717921158882177 -57.483440087774056 0 -57.483440087774056 9.3332606421390665 0 0 0 0 -70.823213223071434 -56.32060660375646 0 -56.32060660375646 26.770277767111111 0 0 0 0 -44.366733005212154 -62.242421699218539 0 -62.242421699218539 28.061940936153405 0 0 0 0 -36.118660401043144 -68.61732848713109 0 -68.61732848713109 29.801367772484809 0 0 0 0 -26.895180837283988 -53.466183784154055 0 -53.466183784154055 16.054619919344077 0 0 0 0 -42.375836406909457 -39.602010600907306 0 -39.602010600907306 26.378424567057664 0 0 0 0 -38.565909288336115 -38.674507635965711 0 -38.674507635965711 -13.277900339358894 0 0 0 0 -35.590841640825147 -52.5018555390443 0 -52.5018555390443 47.873975069393055 0 0 0 0 -11.228967652496976 -59.560682076569719 0 -59.560682076569719 44.449690293196909 0 0 0 0 -23.658703818759605 -24.409149194799319 0 -24.409149194799319 -15.12112226596836 0 0 0 0 -37.359855946955662 -20.447181667557032 0 -20.447181667557032 -55.817335356114199 0 0 0 0 -8.9516772060660514 -74.095151847755005 0 -74.095151847755005 -71.384188020831061 0 0 0 0 -38.155894847612558 -43.487678101032571 0 -43.487678101032571 -17.875017634298274 0 0 0 0 -31.876338574635156 -63.564587707081955 0 -63.564587707081955 14.521907350506808 0 0 0 0 -27.193120325426207 -55.555282957002419 0 -55.555282957002419 -28.479039458259649 0 0 0 0 -46.992712189108715 -68.650167333144054 0 -68.650167333144054 12.821331368264509 0 0 0 0 -21.11672913127768 -83.382990332927875 0 -83.382990332927875 20.761661552263831 0 0 0 0 1.441789196771424 -104.08378921289841 0 -104.08378921289841 44.363343850585807 0 0 0 0 -64.992712845435562 -83.302938530845495 0 -83.302938530845495 39.760855576467293 0 0 0 0 -15.249449800845468 -57.382717885411694 0 -57.382717885411694 36.48821599402072 0 0 0 0 -32.118997358831621 -66.825675170187424 0 -66.825675170187424 34.901010103611043 0 0 0 0 -15.88639929218516 -54.59656811781224 0 -54.59656811781224 43.8703223131306 0 0 0 0 -56.633346234542842 -82.546075993530394 0 -82.546075993530394 63.062308686858159 0 0 0 0 -43.882390889797534 -47.542543795796519 0 -47.542543795796519 72.283025940849257 0 0 0 0 -27.678092124200703 -70.078369230976023 0 -70.078369230976023 12.703415322386718 0 0 0 0 -30.350481942008628 -76.039576226970894 0 -76.039576226970894 10.27247658815395 0 0 0 0 -52.359190081681845 -66.931699563169786 0 -66.931699563169786 107.59693538006468 0 0 0 0 -5.0645937472086615 -6.4982407122477168 0 -6.4982407122477168 -1.6974261906130863 0 0 0 0 -40.773093905629139 -43.645876964720628 0 -43.645876964720628 64.848562950952328 0 0 0 0 -30.376252626626865 -22.209864725161083 0 -22.209864725161083 73.602672378172429 0 0 0 0 -45.078053413455564 -35.737609199546569 0 -35.737609199546569 102.88777073791425 0 0 0 0 -30.084322341535881 -25.895506172028036 0 -25.895506172028036 58.945117790004133 0 0 0 0 -41.324964577075662 -49.243750234672916 0 -49.243750234672916 64.01762550418789 0 0 0 0 -38.511754815330278 -45.573760194904025 0 -45.573760194904025 55.527958300328464 0 0 0 0 -16.432361110673554 -22.299035006790618 0 -22.299035006790618 -17.89075031094518 0 0 0 0 -23.494698771894036 -25.095167053957994 0 -25.095167053957994 28.7708157557297 0 0 0 0 -5.1327013874791803 0.42964013888104091 0 0.42964013888104091 4.6399318322412526 0 0 0 0 22.125777919474785 -86.921348388386832 0 -86.921348388386832 51.26788261010006 0 0 0 0 17.031497976144237 -56.483406670363365 0 -56.483406670363365 160.2633155756339 0 0 0 0 -2.217074209477822 -1.7873540244966044 0 -1.7873540244966044 -0.15159488060449178 0 0 0 0 -40.048469788013335 -57.857382173358019 0 -57.857382173358019 53.935265480322414 0 0 0 0 13.745380741806002 -112.96406200269121 0 -112.96406200269121 43.48161529347999 0 0 0 0 24.827864353359473 -72.422682246853583 0 -72.422682246853583 49.093595318016014 0 0 0 0 -17.856093499813142 -45.877129347863956 0 -45.877129347863956 51.321855799108562 0 0 0 0 -21.93340831754432 -36.67125834776084 0 -36.67125834776084 5.49681088089892 0 0 0 0 -39.448993343372294 -35.097214334145924 0 -35.097214334145924 0.015435983602254622 0 0 0 0 -11.521964151890643 -43.62183266610009 0 -43.62183266610009 6.8661952803968234 0 0 0 0 -11.501735561982059 -1.0880117844390043 0 -1.0880117844390043 -3.3937747552954534 0 0 0 0 -20.742712508501313 -53.272434275663443 0 -53.272434275663443 -15.935324053432659 0 0 0 0 2.2640358680246209 -39.213071015469723 0 -39.213071015469723 -5.7683200095689244 0 0 0 0 12.095636651047418 -37.66640682284276 0 -37.66640682284276 -24.278951640954389 0 0 0 0 -4.0483439034490409 -40.223734249489006 0 -40.223734249489006 -9.5218674619249164 0 0 0 0 0.53844910831391246 -34.092626172075938 0 -34.092626172075938 -12.083293355156282 0 0 0 0 18.868511271715761 -62.681808819841535 0 -62.681808819841535 -22.045407428580802 0 0 0 0 47.891998425224301 -68.357616884855815 0 -68.357616884855815 -28.26909894308119 0 0 0 0 134.74846136977794 -23.124252096602504 0 -23.124252096602504 -47.789021499618684 0 0 0 0 148.79831259900311 -108.33061604933027 0 -108.33061604933027 -72.477060836579767 0 0 0 0 -24.69328869646688 -142.78546302549239 0 -142.78546302549239 -2.8719497467791371 0 0 0 0 43.635123694792128 -61.666380902795936 0 -61.666380902795936 -23.946238692613406 0 0 0 0 84.621454425870979 -179.40252076449269 0 -179.40252076449269 -46.108826010571647 0 0 0 0 -26.14458976599235 -246.3708888280571 0 -246.3708888280571 -34.112164380472677 0 0 0 0 -56.620182548811499 -67.032724675113059 0 -67.032724675113059 2.1813386273524884 0 0 0 0 -18.730819124239002 -26.421521302508417 0 -26.421521302508417 -21.360260635493873 0 0 0 0 -42.749127168124687 -42.734989485275946 0 -42.734989485275946 -7.930471023307291 0 0 0 0 0.18409948345197336 -50.60818797128195 0 -50.60818797128195 -6.4921967311893241 0 0 0 0 -12.889728279438714 -67.608663450573658 0 -67.608663450573658 0.75125622203449893 0 0 0 0 2.440708797120827 -39.4572802444304 0 -39.4572802444304 -17.634322184007829 0 0 0 0 49.667073704076756 16.121666244409425 0 16.121666244409425 -1.0226875983858008 0 0 0 0 -205.85513320846076 -240.71269163345278 0 -240.71269163345278 63.993267913603631 0 0 0 0 -63.426685445541807 -266.16531165083143 0 -266.16531165083143 -106.67836759098282 0 0 0 0 -107.53141195579155 -208.55407853234465 0 -208.55407853234465 56.104818777435867 0 0 0 0 7.5611722452843395 -3.8043860487756547 0 -3.8043860487756547 -0.73352824950964646 0 0 0 0 -124.66755750193261 -127.12670541421903 0 -127.12670541421903 -95.347949951341434 0 0 0 0 -89.055437727685785 -158.63295391372958 0 -158.63295391372958 -67.727635303730494 0 0 0 0 81.539541914971778 -332.82599580144597 0 -332.82599580144597 -81.070516972953556 0 0 0 0 -86.261750225050491 -147.68461311552892 0 -147.68461311552892 -129.32189895298507 0 0 0 0 433.57618762686616 -134.27899493985751 0 -134.27899493985751 -478.31694564821373 0 0 0 0 -26.310955455519434 -215.83104086774256 0 -215.83104086774256 -51.920278460733243 0 0 0 0 -102.79085443124495 -170.44646597603423 0 -170.44646597603423 -44.351487893505691 0 0 0 0 -103.92943669707893 -171.46709857902897 0 -171.46709857902897 -7.2460764865718374 0 0 0 0 -168.13783936972322 -145.95960553902842 0 -145.95960553902842 -50.828558248929767 0 0 0 0 -165.03690517180166 -109.6402503753709 0 -109.6402503753709 -43.588962300120329 0 0 0 0 -226.49778373893969 -210.30156652763708 0 -210.30156652763708 -52.085990391693485 0 0 0 0 -276.57025433535819 -113.22564133373817 0 -113.22564133373817 13.988473753939616 0 0 0 0 -75.864474010115373 -156.14092086336677 0 -156.14092086336677 -141.31652220539399 0 0 0 0 -79.975121798131113 -138.87265384356215 0 -138.87265384356215 -36.057411857138504 0 0 0 0 -272.67182690581103 -394.53011598392186 0 -394.53011598392186 -395.94500483603406 0 0 0 0 228.85303307388313 60.45979737525704 0 60.45979737525704 -134.37682715250958 0 0 0 0 -38.955256746667146 -284.58117756774845 0 -284.58117756774845 -133.5661362385581 0 0 0 0 -118.65146789318533 -103.88650466891704 0 -103.88650466891704 -468.71672438347014 0 0 0 0 192.28621254985774 -89.286097710310059 0 -89.286097710310059 -310.84888719257287 0 0 0 0 -1.8455079026202661 -7.5470367783300532 0 -7.5470367783300532 10.384203750929444 0 0 0 0 -41.104983758683375 -150.59693521931331 0 -150.59693521931331 -86.606372171085241 0 0 0 0 -36.670786055576173 -54.322575732097903 0 -54.322575732097903 129.71586420688436 0 0 0 0 -15.415667452783964 26.7945035110547 0 26.7945035110547 -36.715037024529011 0 0 0 0 -409.63504677961646 -21.14888253632671 0 -21.14888253632671 448.7525876216605 0 0 0 0 -0.038257333536833471 1.1129450067549627 0 1.1129450067549627 -2.667473943254592 0 0 0 0 -167.01629804691402 308.49823624531655 0 308.49823624531655 -201.99214477882197 0 0 0 0 -157.39281058563211 240.01957406085057 0 240.01957406085057 77.586458163429597 0 0 0 0 29.430387327674907 42.792284195233606 0 42.792284195233606 -651.45643792476767 0 0 0 0 47.833762774935167 -62.766757767996751 0 -62.766757767996751 -51.561104856424208 0 0 0 0 -256.34160235764648 77.511073210132963 0 77.511073210132963 444.72040457207186 0 0 0 0 -173.19632950609957 140.60499617996902 0 140.60499617996902 191.92570405778315 0 0 0 0 -150.32564241314321 8.0248982210159738 0 8.0248982210159738 -161.61203455225768 0 0 0 0 -160.36045728427507 -40.682824613270441 0 -40.682824613270441 -77.455081472297024 0 0 0 0 1.5193220450376543 -2.7250140440573851 0 -2.7250140440573851 7.6877013291588838 0 0 0 0 -123.56982661944858 -46.986785304048681 0 -46.986785304048681 -50.169170174391184 0 0 0 0 -3.561416158634529 -8.21937965869256 0 -8.21937965869256 -12.800201905803988 0 0 0 0 13.967493106087204 3.763299388854648 0 3.763299388854648 -5.3806387716222162 0 0 0 0 30.213291749276323 -10.96532498417946 0 -10.96532498417946 -26.984443587916758 0 0 0 0 6.31186771335706 -35.69819207773071 0 -35.69819207773071 -1.3423959838137307 0 0 0 0 -22.412026606444183 -21.98162353720457 0 -21.98162353720457 -22.194876136027879 0 0 0 0 103.58533338483539 -59.858511668335268 0 -59.858511668335268 -8.4525245543172787 0 0 0 0 -31.567691392312554 -120.68768740528867 0 -120.68768740528867 31.66393434474594 0 0 0 0 55.033112585985691 140.84535929344429 0 140.84535929344429 62.025208958773874 0 0 0 0 10.829387123587367 -6.7685924537872779 0 -6.7685924537872779 -0.47946472242438176 0 0 0 0 88.597048483215985 30.412775227743623 0 30.412775227743623 -21.375611704723269 0 0 0 0 18.012016142958601 -30.472777440438222 0 -30.472777440438222 88.65765127119812 0 0 0 0 6.7902689071343048 -91.289655152540945 0 -91.289655152540945 -222.82046364383314 0 0 0 0 101.03555480919022 -166.93776995359804 0 -166.93776995359804 -7.7980568036909972 0 0 0 0 109.00743729667738 -192.9118521276614 0 -192.9118521276614 -68.697619117014256 0 0 0 0 58.81106060685488 -191.01996526845323 0 -191.01996526845323 100.62780643887527 0 0 0 0 88.207848679165181 -127.65670226456314 0 -127.65670226456314 -70.710887096633087 0 0 0 0 60.063173392063618 -77.358956406578727 0 -77.358956406578727 -113.97835383858182 0 0 0 0 37.454948460042942 -75.699438011128223 0 -75.699438011128223 -82.025847412447547 0 0 0 0 52.182370621580048 -111.99300146011228 0 -111.99300146011228 -37.466875986188825 0 0 0 0 53.371830973032047 -146.464148826155 0 -146.464148826155 5.7880948294405243 0 0 0 0 63.036974930291763 -115.13835298098275 0 -115.13835298098275 -53.810181743654539 0 0 0 0 32.799593846313655 -68.5060638112991 0 -68.5060638112991 -55.864123953360831 0 0 0 0 40.691612856186111 -70.559009904874983 0 -70.559009904874983 -60.397325066442136 0 0 0 0 15.285662225433043 -20.436447192812921 0 -20.436447192812921 -86.178982786019333 0 0 0 0 5.7208998577848291 -4.8048137162638938 0 -4.8048137162638938 -17.91735701065798 0 0 0 0 -11.943791872428847 -50.735841779023758 0 -50.735841779023758 -35.272987302822003 0 0 0 0 2.5685137374530314 -11.019845888673444 0 -11.019845888673444 -4.3092883016943233 0 0 0 0 3.3178839431311644 -27.090053355384043 0 -27.090053355384043 2.1010705878324245 0 0 0 0 -0.89424393686994108 -25.179616718216423 0 -25.179616718216423 -27.900239092269167 0 0 0 0 2.8133031108006747 -38.040303220546093 0 -38.040303220546093 12.02745819516727 0 0 0 0 2.5611603953875601 -35.46475648730484 0 -35.46475648730484 9.6564334712720665 0 0 0 0 2.2380251832000795 -20.779378794204604 0 -20.779378794204604 1.5424771817524743 0 0 0 0 -2.4890798720787046 -25.951390266042353 0 -25.951390266042353 -3.7213873440732286 0 0 0 0 -0.84883687585924861 -21.420326076780398 0 -21.420326076780398 9.5623811232881657 0 0 0 0 -3.0842054176609963 -24.7175009118655 0 -24.7175009118655 -1.1493238625407685 0 0 0 0 -3.0842054176318925 -24.71750091182912 0 -24.71750091182912 -1.1493238625225786 0 0 0 0 -3.0842054176130205 -24.717500911824573 0 -24.717500911824573 -1.1493238625553204 0 0 0 0 2.8305185361932672 -32.95464616035315 0 -32.95464616035315 -47.143161211337429 0 0 0 0 0.84320848941661097 -4.878772412525187 0 -4.878772412525187 -6.6468466966384909 0 0 0 0 -11.101566075056326 6.0461801196506713 0 6.0461801196506713 -61.95629311731318 0 0 0 0 15.557952073781053 -81.701893021592696 0 -81.701893021592696 -76.343027249269653 0 0 0 0 39.289814188330638 -58.773740139822621 0 -58.773740139822621 -120.09589232281724 0 0 0 0 -19.53347474882321 -14.930157755286928 0 -14.930157755286928 -126.49984743644018 0 0 0 0 15.016543245477237 -18.922202376710771 0 -18.922202376710771 -139.69904301878705 0 0 0 0 7.7913449666848464 -14.298664206506146 0 -14.298664206506146 18.120354775788655 0 0 0 0 -4.9053531667595962 -15.482597666356014 0 -15.482597666356014 20.203544917232648 0 0 0 0 -6.1717887187624001 1.3727320549260185 0 1.3727320549260185 -108.11525624432397 0 0 0 0 -8.2852448130257983 -13.511744186888173 0 -13.511744186888173 -3.8927900504740762 0 0 0 0 -13.110926081285605 -11.468010642309167 0 -11.468010642309167 10.097435100876226 0 0 0 0 -5.0043811282412207 -19.534621307013367 0 -19.534621307013367 6.8378736798949831 0 0 0 0 -14.800097839677839 -23.692003036315846 0 -23.692003036315846 -4.2994519446288564 0 0 0 0 -5.5835911705598846 -18.452084521813504 0 -18.452084521813504 15.910993097488245 0 0 0 0 -4.182223221456276 -1.6179661208851854 0 -1.6179661208851854 3.4536179242182214 0 0 0 0 -64.326423866492405 153.64497901963114 0 153.64497901963114 -361.2122519324621 0 0 0 0 63.304506148182554 -70.314901653986453 0 -70.314901653986453 -102.41840446370406 0 0 0 0 -12.556815296178684 27.231633739211247 0 27.231633739211247 -117.60870264886398 0 0 0 0 50.46011400075804 -10.751352231029159 0 -10.751352231029159 -276.68124470487965 0 0 0 0 63.796204044461774 -129.94778784606024 0 -129.94778784606024 -85.309488543916814 0 0 0 0 50.974672833035584 -160.79419307897842 0 -160.79419307897842 -127.46581300065736 0 0 0 0 -92.716846600149438 -65.694352707849248 0 -65.694352707849248 -172.77043030068307 0 0 0 0 69.781249480896804 -118.68111334895366 0 -118.68111334895366 -401.37900038563293 0 0 0 0 -11.82633497756369 -10.265889006289328 0 -10.265889006289328 -6.0432475116882003 0 0 0 0 -24.511321538491757 -73.867583732922867 0 -73.867583732922867 -243.854135322199 0 0 0 0 -22.77668557355355 11.607420758933586 0 11.607420758933586 -459.58420220387779 0 0 0 0 42.42159220083704 -72.772506323246489 0 -72.772506323246489 32.934335146412195 0 0 0 0 53.641057925655332 -11.253530638165103 0 -11.253530638165103 -464.09610852212791 0 0 0 0 77.966377169359475 -56.473804244234998 0 -56.473804244234998 -25.676111223780026 0 0 0 0 31.846813546857447 -38.804879734372662 0 -38.804879734372662 26.931045605269901 0 0 0 0 -10.915363578444783 -3.622668299753343 0 -3.622668299753343 5.7619445921336787 0 0 0 0 30.004390390648041 -14.113774313656904 0 -14.113774313656904 16.377983343795677 0 0 0 0 19.793592511879979 12.975554449367337 0 12.975554449367337 -18.415864308699383 0 0 0 0 16.987571492918505 23.694469938183829 0 23.694469938183829 -58.658088153533754 0 0 0 0 -0.53885316984087694 -22.978557091213588 0 -22.978557091213588 -43.793210698349867 0 0 0 0 19.695065233878267 -7.3037733183227829 0 -7.3037733183227829 -33.258715148702322 0 0 0 0 53.484172233096615 -35.215881012769387 0 -35.215881012769387 -11.998067847554921 0 0 0 0 -76.660270198975923 -76.049077009993198 0 -76.049077009993198 -126.47058123670467 0 0 0 0 -3.915822468594385 1.0826376858613003 0 1.0826376858613003 -0.45181154492612885 0 0 0 0 -129.97902153484756 -17.45413097373239 0 -17.45413097373239 -4.1431404112518067 0 0 0 0 -15.1480964612565 3.9440011567639885 0 3.9440011567639885 -42.264449310627242 0 0 0 0 2.5751018322844175 -0.10961322059301892 0 -0.10961322059301892 -97.889618270390201 0 0 0 0 -41.245431328687118 -24.745573640495422 0 -24.745573640495422 -110.44798646334675 0 0 0 0 -90.534447212514351 -24.669124255655333 0 -24.669124255655333 -52.242681370553328 0 0 0 0 -89.375251778178153 -39.331286971158761 0 -39.331286971158761 -55.626306823498453 0 0 0 0 -119.77998863073299 -75.807116021351248 0 -75.807116021351248 -87.266260593387415 0 0 0 0 -119.22619430125633 -80.202898748771986 0 -80.202898748771986 -57.896552765283559 0 0 0 0 -137.70691624678147 -52.28300998499617 0 -52.28300998499617 -20.626647171076911 0 0 0 0 -158.15761937128264 -82.355203557166533 0 -82.355203557166533 -9.3654529259583796 0 0 0 0 -158.92929037525028 -63.345011955378141 0 -63.345011955378141 -24.129254741470504 0 0 0 0 -4.2448589249212745 -2.8787780431842975 0 -2.8787780431842975 -2.457760226680918 0 0 0 0 161.69955068478885 270.7910850014996 0 270.7910850014996 -836.76961969646982 0 0 0 0 -207.90022798501013 -48.677143197972327 0 -48.677143197972327 54.387583000410814 0 0 0 0 -236.68996904985397 -35.178872902473813 0 -35.178872902473813 88.043375462117183 0 0 0 0 8.3488852828959352 38.97767528053464 0 38.97767528053464 -4.0520402725087479 0 0 0 0 -372.53476587749174 -187.3371043725565 0 -187.3371043725565 -14.918630901271172 0 0 0 0 -488.15037274368842 -243.30654153027854 0 -243.30654153027854 -142.56089234212413 0 0 0 0 388.00393916773828 158.65946107213131 0 158.65946107213131 39.426921230087828 0 0 0 0 -146.69991862650932 -193.1694191120132 0 -193.1694191120132 1320.1826782034768 0 0 0 0 173.24159395446713 -556.63640963245325 0 -556.63640963245325 573.84799601043051 0 0 0 0 -18.614559300855035 -119.30013471101483 0 -119.30013471101483 595.14666517888952 0 0 0 0 -6.7230645582312718 -367.91435714817089 0 -367.91435714817089 578.42148998654011 0 0 0 0 230.85415539296082 -371.49523899581618 0 -371.49523899581618 -104.24537160472391 0 0 0 0 150.8177337803354 -222.77790298578839 0 -222.77790298578839 -188.37985090442317 0 0 0 0 38.752095175128488 -28.653319752160314 0 -28.653319752160314 -211.67120479449295 0 0 0 0 38.588727048678265 -183.95362712973292 0 -183.95362712973292 113.97735073188596 0 0 0 0 119.02326707747488 -284.79577467421586 0 -284.79577467421586 -12.452869986896985 0 0 0 0 42.163180180134077 -315.62406964178444 0 -315.62406964178444 155.58283548621148 0 0 0 0 -28.239768716513936 -154.26332610779355 0 -154.26332610779355 468.68853396012855 0 0 0 0 73.31400153645518 -156.42140860819563 0 -156.42140860819563 461.30342401486996 0 0 0 0 60.859952838698518 -253.86189069024113 0 -253.86189069024113 472.14200068207174 0 0 0 0 222.20167543317439 -294.63109309559059 0 -294.63109309559059 201.08135262742144 0 0 0 0 15.327662392606726 -107.53865148192563 0 -107.53865148192563 104.9441529503365 0 0 0 0 2.8870099416182029 -0.71220564629216909 0 -0.71220564629216909 1.4563347941915907 0 0 0 0 -30.410942385606177 29.418990464077069 0 29.418990464077069 233.75299728776736 0 0 0 0 156.95792744807841 -237.44630481310014 0 -237.44630481310014 195.11055396674783 0 0 0 0 70.448635395128804 -247.31527839220144 0 -247.31527839220144 187.41493580890165 0 0 0 0 125.85771864622438 -293.37280797542371 0 -293.37280797542371 101.92825172577432 0 0 0 0 7.3366111118782875 -14.023682849508035 0 -14.023682849508035 9.2786287570314272 0 0 0 0 1.7268857758463128 -14.356693875353812 0 -14.356693875353812 0.40586949756834656 0 0 0 0 47.104322048951872 -19.215283485133114 0 -19.215283485133114 -43.473298052776954 0 0 0 0 -9.4501063679163053 -15.529951135164083 0 -15.529951135164083 16.018371715275862 0 0 0 0 -0.26044096543418505 -8.9042611362205086 0 -8.9042611362205086 7.7727703261790317 0 0 0 0 164.91179155275222 -217.16790742291141 0 -217.16790742291141 294.56391787104803 0 0 0 0 14.651056837140018 -9.8725423636806013 0 -9.8725423636806013 4.0887655289643945 0 0 0 0 -58.093627680820646 -131.60535659038578 0 -131.60535659038578 -101.64833150597769 0 0 0 0 -96.173663835128536 -76.091857354327658 0 -76.091857354327658 -1.7376176002635475 0 0 0 0 -93.076044379631639 -84.743805645658085 0 -84.743805645658085 4.9268473653501133 0 0 0 0 -96.059473537206941 -88.45970725134066 0 -88.45970725134066 102.43451287989228 0 0 0 0 5.4445646301501256 -92.075721668674305 0 -92.075721668674305 19.496128752147342 0 0 0 0 5.4036453815157302 -3.2355900989478172 0 -3.2355900989478172 1.7532642829370992 0 0 0 0 312.37645434835213 -133.5278977956782 0 -133.5278977956782 -330.65897262357976 0 0 0 0 -82.549234160294873 -113.6850870903545 0 -113.6850870903545 33.072235193856613 0 0 0 0 454.40481538148379 -420.11633454324874 0 -420.11633454324874 16.815359142266971 0 0 0 0 350.30456841231717 -469.53760074885577 0 -469.53760074885577 130.1276588503315 0 0 0 0 344.47949096012599 -334.9157768115856 0 -334.9157768115856 -21.943990727259916 0 0 0 0 103.35595471262241 -260.58943098823465 0 -260.58943098823465 244.61451286783631 0 0 0 0 -31.672548780155921 -65.713361040363452 0 -65.713361040363452 238.44543311434245 0 0 0 0 144.22354791780526 -60.506253376210225 0 -60.506253376210225 129.23947581663379 0 0 0 0 -124.62538427532854 -28.955103601374503 0 -28.955103601374503 72.683953683901564 0 0 0 0 -88.306580599404697 -100.5338418859792 0 -100.5338418859792 136.8265116189159 0 0 0 0 -102.84292715784977 24.335415113993804 0 24.335415113993804 40.546563670493924 0 0 0 0 -92.473078513648943 38.936075551195245 0 38.936075551195245 49.894530780300556 0 0 0 0 -94.304367146967707 -0.8861696697131265 0 -0.8861696697131265 119.29031660550027 0 0 0 0 -3.6056797289984388 -65.493573343654134 0 -65.493573343654134 92.795374457149592 0 0 0 0 -130.10110472562519 -24.947376928181257 0 -24.947376928181257 41.94931108354649 0 0 0 0 -77.493178691343928 -16.436913266952615 0 -16.436913266952615 84.54738192068362 0 0 0 0 -108.48120154886419 -46.598379687169654 0 -46.598379687169654 59.296825840887323 0 0 0 0 -90.237060010673304 13.903883458104247 0 13.903883458104247 46.818094062544333 0 0 0 0 -89.098775332669902 53.65954058648822 0 53.65954058648822 6.8679884952380235 0 0 0 0 -81.935814907907115 15.660058737398685 0 15.660058737398685 28.443826721537334 0 0 0 0 -79.260966343499604 25.37702879448625 0 25.37702879448625 35.062936903941591 0 0 0 0 -83.60173323872732 10.894918478887121 0 10.894918478887121 -6.0378640297349193 0 0 0 0 -102.97779003825417 -3.5572866763541242 0 -3.5572866763541242 23.55479606139852 0 0 0 0 -78.110182163519312 21.636013000311323 0 21.636013000311323 11.527027627904317 0 0 0 0 31.399700964182557 -31.152684520207913 0 -31.152684520207913 -17.502278183113958 0 0 0 0 -69.720410648005782 -51.115605891252926 0 -51.115605891252926 -9.9252897257683799 0 0 0 0 7.9927479036129299 -21.478512777410621 0 -21.478512777410621 -2.9136472050006716 0 0 0 0 -99.692841727250197 -14.852640231769328 0 -14.852640231769328 -5.4857006434904179 0 0 0 0 -102.07482090816484 -7.3611489827217156 0 -7.3611489827217156 8.5205273587198462 0 0 0 0 -71.74221701452916 -3.7022574736838578 0 -3.7022574736838578 5.1090361922433658 0 0 0 0 -87.609460136252892 -18.082745241332304 0 -18.082745241332304 -1.1164191001953441 0 0 0 0 -90.156107742528548 -18.959356132978428 0 -18.959356132978428 3.8828055945050437 0 0 0 0 -207.95540672086645 -32.43016521941172 0 -32.43016521941172 -1.6450309106978693 0 0 0 0 -91.399091447899991 -21.526990638714778 0 -21.526990638714778 -1.4210139353526756 0 0 0 0 -8.3377272476209328 -23.007248216850712 0 -23.007248216850712 29.369269153045025 0 0 0 0 -154.53621660280987 -55.912550853940047 0 -55.912550853940047 22.415996175528562 0 0 0 0 8.5355837775010137 -17.704859547046937 0 -17.704859547046937 -8.4523609128209074 0 0 0 0 1.0386370970896905 -14.191795702026951 0 -14.191795702026951 8.4158373391795465 0 0 0 0 -12.02217001227109 -37.092588068830082 0 -37.092588068830082 -5.6230867443482566 0 0 0 0 4.9919851330728022 0.15196532916644401 0 0.15196532916644401 -0.32378945898071265 0 0 0 0 -111.34593284824223 -11.265327976794651 0 -11.265327976794651 -2.914946667937329 0 0 0 0 -11.439428450568812 -24.214832096520695 0 -24.214832096520695 49.387544390105177 0 0 0 0 -9.7993686705649452 -13.52408697633291 0 -13.52408697633291 4.9501969448756427 0 0 0 0 -4.9721228915813214 -3.3868025209807939 0 -3.3868025209807939 4.9571743711472891 0 0 0 0 -24.143409931944916 -44.125587761047427 0 -44.125587761047427 -3.3720523881220288 0 0 0 0 -51.063415527234611 -30.198940984564615 0 -30.198940984564615 19.46887599371621 0 0 0 0 -1.1521320189144113 -0.58864041391062472 0 -0.58864041391062472 15.78443460827468 0 0 0 0 2.7804587865830399 -33.655731020493477 0 -33.655731020493477 -9.5372229316271842 0 0 0 0 2.9691211852368724 -32.279452982165822 0 -32.279452982165822 0.14218486387835583 0 0 0 0 -0.76710258102119155 -16.494737159379348 0 -16.494737159379348 4.4814815748971508 0 0 0 0 -25.219903860052 -16.33711145442885 0 -16.33711145442885 23.974140046680986 0 0 0 0 17.023179902058473 -18.150654559356553 0 -18.150654559356553 -30.733594165221803 0 0 0 0 -32.576928600341489 -17.895925337632434 0 -17.895925337632434 -42.414064984903234 0 0 0 0 0.86467373423707272 -3.1991767191723142 0 -3.1991767191723142 -6.9786266154849841 0 0 0 0 -110.19865448633936 -10.95163126447369 0 -10.95163126447369 26.842320135590853 0 0 0 0 -123.06797142365031 -63.441788654855827 0 -63.441788654855827 -65.007880824436143 0 0 0 0 -90.618502198820352 44.344981944817846 0 44.344981944817846 -24.239314983619806 0 0 0 0 -0.65229545160273972 -2.7288251441189928 0 -2.7288251441189928 2.2276583881962289 0 0 0 0 295.22345368282186 -405.96976697896389 0 -405.96976697896389 80.018502604531022 0 0 0 0 0.40755766815313876 -1.582000408996997 0 -1.582000408996997 3.4867333155959699 0 0 0 0 -157.70126239979436 -108.6366917196865 0 -108.6366917196865 214.21857510083282 0 0 0 0 29.516576579066168 -103.38889214003848 0 -103.38889214003848 154.92711021596006 0 0 0 0 351.4334599249778 -255.53293228621624 0 -255.53293228621624 161.52304816663309 0 0 0 0 4.2169860868807518 -132.77225297626956 0 -132.77225297626956 121.47339458292117 0 0 0 0 89.596673938111053 -341.84630319294047 0 -341.84630319294047 356.32371967151994 0 0 0 0 235.00900321429344 -354.87966429622384 0 -354.87966429622384 185.14103969135249 0 0 0 0 45.387173639985122 -226.11606491583007 0 -226.11606491583007 106.66406252016532 0 0 0 0 -24.96395407777527 -267.27762465180604 0 -267.27762465180604 87.806861328263039 0 0 0 0 120.52509722330433 -387.38342182277393 0 -387.38342182277393 249.81215295696165 0 0 0 0 131.17466003300433 -174.56391068483754 0 -174.56391068483754 90.374076053569297 0 0 0 0 612.89590553482958 -461.51977390924458 0 -461.51977390924458 133.81539108140714 0 0 0 0 -139.09870631409285 16.763252122062113 0 16.763252122062113 81.303837407869651 0 0 0 0 0.7263412949540502 1.0678851022134523 0 1.0678851022134523 5.1576759763333371 0 0 0 0 -0.33342263273152639 -34.69275160178222 0 -34.69275160178222 -7.3539684399784164 0 0 0 0 4.845051895830693 -49.295808610557287 0 -49.295808610557287 -3.0158957125531742 0 0 0 0 -57.636023071333511 -108.01305175174684 0 -108.01305175174684 263.29956754228624 0 0 0 0 -20.939174702947639 -31.589686634388272 0 -31.589686634388272 60.809040444324637 0 0 0 0 -20.546185167908334 -143.21897518577225 0 -143.21897518577225 129.90887142518477 0 0 0 0 77.14847927759547 -230.29441056183532 0 -230.29441056183532 152.33119594344316 0 0 0 0 74.470910485935747 -284.26846717846183 0 -284.26846717846183 304.81611516161138 0 0 0 0 173.39715799822079 -218.97405712801083 0 -218.97405712801083 55.733198963916948 0 0 0 0 152.84852998238239 -180.94289723188558 0 -180.94289723188558 16.542588739834173 0 0 0 0 69.47601706626665 -168.90861906207101 0 -168.90861906207101 48.116402982566797 0 0 0 0 423.00302725545043 -317.97395821447208 0 -317.97395821447208 83.396676156540707 0 0 0 0 262.53311146167198 8.2555178148163577 0 8.2555178148163577 129.7201523877593 0 0 0 0 194.79230198201913 -391.60333461767004 0 -391.60333461767004 416.20661411870969 0 0 0 0 -63.603778728698671 76.674856947953231 0 76.674856947953231 -83.850697032481094 0 0 0 0 -83.076023093044569 -82.614596953684668 0 -82.614596953684668 -31.787184821092524 0 0 0 0 32.557178898903658 -261.69146622485459 0 -261.69146622485459 13.94232831251793 0 0 0 0 29.598439048098953 62.155788439446951 0 62.155788439446951 -541.08816293016571 0 0 0 0 0.97667033677413428 -1.7805077080698553 0 -1.7805077080698553 -1.7521690370651228 0 0 0 0 191.88683482569468 14.850625331493575 0 14.850625331493575 -190.69080395767469 0 0 0 0 108.4602074076538 -156.41570096415035 0 -156.41570096415035 -36.102218283525872 0 0 0 0 248.39459219524542 -29.288639439593226 0 -29.288639439593226 -266.16365481680259 0 0 0 0 2.655727194717727 -3.1405485645379585 0 -3.1405485645379585 -3.3844479042689741 0 0 0 0 269.42582754711839 6.7266869572331416 0 6.7266869572331416 -224.21030322457773 0 0 0 0 -101.99707579352616 186.57866452139115 0 186.57866452139115 -43.874351502232457 0 0 0 0 -31.370766511173429 5.5820145394003191 0 5.5820145394003191 -83.926316005396075 0 0 0 0 0.91210622012631859 -0.29616868676906449 0 -0.29616868676906449 -1.2549208385610484 0 0 0 0 -30.650551757776441 -36.59751904808688 0 -36.59751904808688 -176.58009800038417 0 0 0 0 358.43387304468342 -262.38764260688731 0 -262.38764260688731 -105.63858184255105 0 0 0 0 292.09914445817412 -70.060442174366472 0 -70.060442174366472 38.463322748157225 0 0 0 0 350.68323969178164 -192.07205381800486 0 -192.07205381800486 -504.05691238231702 0 0 0 0 -32.203129736819392 81.559002094478274 0 81.559002094478274 -286.92437266059096 0 0 0 0 8.3798157770215767 107.40465964732539 0 107.40465964732539 -623.51197766745281 0 0 0 0 -28.344733978052773 71.494815388256711 0 71.494815388256711 -595.18473672777145 0 0 0 0 2.3114664114279151 -1.994589827954556 0 -1.994589827954556 -2.2789085412878549 0 0 0 0 119.54389373417871 -253.0187336292347 0 -253.0187336292347 66.086555209728431 0 0 0 0 96.770587916988006 -227.9767151199103 0 -227.9767151199103 168.28930538890017 0 0 0 0 -3.0763317524060767 -7.1926452935258567 0 -7.1926452935258567 -8.0328866378586099 0 0 0 0 -38.078920772564743 -25.799236361722251 0 -25.799236361722251 -0.76973633119996521 0 0 0 0 -20.733035417945715 -9.4530637894356957 0 -9.4530637894356957 -0.86123270505792959 0 0 0 0 -48.867421665003349 -14.220146111960275 0 -14.220146111960275 7.9288025040805223 0 0 0 0 -39.394221955888497 -13.953245893489566 0 -13.953245893489566 3.6291450188145973 0 0 0 0 -60.702928226273798 4.8697740807292575 0 4.8697740807292575 -7.4780665065463836 0 0 0 0 -59.019502135182847 -23.531406671638251 0 -23.531406671638251 -0.08578121526807081 0 0 0 0 -16.010849680709725 30.176033152331001 0 30.176033152331001 -64.802887554251356 0 0 0 0 -33.376266861461772 -10.327099662738874 0 -10.327099662738874 -0.1720136008625559 0 0 0 0 -17.519592623626522 -4.2053375946434244 0 -4.2053375946434244 -31.040964122059449 0 0 0 0 -40.238596915107337 62.469695819771005 0 62.469695819771005 -59.283663103171421 0 0 0 0 -7.5731129317700265 -2.6946775717562943 0 -2.6946775717562943 -1.5912564913718406 0 0 0 0 -106.93263045161802 87.951216650903007 0 87.951216650903007 -66.807924976990762 0 0 0 0 -93.537493871473998 -209.98099598363115 0 -209.98099598363115 -474.82995335195119 0 0 0 0 -138.2518006233513 72.51148829068552 0 72.51148829068552 -23.98727394243906 0 0 0 0 -331.95384414761065 67.928884063236183 0 67.928884063236183 -11.530081914852417 0 0 0 0 -435.34398997433891 -100.3794714595424 0 -100.3794714595424 33.421109463359244 0 0 0 0 -173.97821371235841 -284.73068737491121 0 -284.73068737491121 -275.52631091021067 0 0 0 0 -227.83735105776941 -106.35813047658394 0 -106.35813047658394 18.022696453255776 0 0 0 0 -611.3412525962849 -645.70209177517972 0 -645.70209177517972 45.458196313584267 0 0 0 0 -453.64658258472855 -352.54822726689872 0 -352.54822726689872 -222.92034576038714 0 0 0 0 -527.76171217955198 -2.0581004153464164 0 -2.0581004153464164 -16.967165647121874 0 0 0 0 -191.38471865746851 -208.84165823280046 0 -208.84165823280046 -83.231611517523561 0 0 0 0 -244.32254211446343 -67.912177494961725 0 -67.912177494961725 -90.206369257857659 0 0 0 0 -183.13004575269588 -196.7185326900435 0 -196.7185326900435 -67.480698758303333 0 0 0 0 -142.4985998954362 -255.38807973994335 0 -255.38807973994335 -81.270856715671925 0 0 0 0 -193.21428156328602 -277.79650624500914 0 -277.79650624500914 -186.99986331278706 0 0 0 0 -209.6834505083898 -178.81247417610939 0 -178.81247417610939 -104.73316616047669 0 0 0 0 -6.3789358354188153 -61.106938810913562 0 -61.106938810913562 -251.71317164608263 0 0 0 0 -105.50366092871718 -163.99287156410492 0 -163.99287156410492 -2.9874964016744343 0 0 0 0 -103.32749305173638 -190.73341243826326 0 -190.73341243826326 -103.87592571436471 0 0 0 0 -126.36509518943058 -220.52561197991236 0 -220.52561197991236 -44.319196909604216 0 0 0 0 -120.58264230566056 -225.88070358302593 0 -225.88070358302593 -42.160955220020696 0 0 0 0 -85.325539613666479 -162.00424169968665 0 -162.00424169968665 -2.1868348957723356 0 0 0 0 -38.3222395841658 -48.570438540620671 0 -48.570438540620671 -2.853166601707926 0 0 0 0 -31.279001887807681 -75.092817802751597 0 -75.092817802751597 -104.91222060707696 0 0 0 0 -109.4484810782742 -170.34509777568928 0 -170.34509777568928 -160.85465915837631 0 0 0 0 -191.45125170679967 -30.035965552839116 0 -30.035965552839116 -397.69598829251481 0 0 0 0 -25.08195417456227 -143.69485188497629 0 -143.69485188497629 -156.44753852693248 0 0 0 0 -158.25776051284265 -232.44969222984219 0 -232.44969222984219 -22.724524886085419 0 0 0 0 -160.68391524945037 -244.06656674607711 0 -244.06656674607711 -43.483364996278397 0 0 0 0 -135.52763861578569 -235.96417562984607 0 -235.96417562984607 -111.8482324170327 0 0 0 0 -307.3604562073815 -197.86244630023612 0 -197.86244630023612 -110.85186968198747 0 0 0 0 -157.39615440500711 -274.6413195872351 0 -274.6413195872351 -226.12832816770242 0 0 0 0 203.69002086898399 -48.151434374380187 0 -48.151434374380187 -24.084163052999429 0 0 0 0 -0.54408209611680647 2.056985336805738 0 2.056985336805738 1.2802426839567715 0 0 0 0 -104.44328214246343 -177.38766593846049 0 -177.38766593846049 -73.948288848348511 0 0 0 0 -152.55820495808803 -133.06565279956226 0 -133.06565279956226 -114.77590383417555 0 0 0 0 -52.260676650148525 -213.04701870327472 0 -213.04701870327472 -68.498165347969916 0 0 0 0 -133.11780851500953 -260.08649624793179 0 -260.08649624793179 -63.341431372122315 0 0 0 0 -137.09017453022898 -124.5328372521235 0 -124.5328372521235 -60.311955620700246 0 0 0 0 -133.51655226325784 -96.120552146304817 0 -96.120552146304817 0.90934707536143833 0 0 0 0 43.073361249196751 -137.08553493150612 0 -137.08553493150612 10.154414281982099 0 0 0 0 -68.3454822045951 -36.584676211621627 0 -36.584676211621627 44.344840441135602 0 0 0 0 35.243996470354887 -63.927206722731626 0 -63.927206722731626 34.910640475940454 0 0 0 0 37.110586164834785 -16.877529437387693 0 -16.877529437387693 19.784289357499802 0 0 0 0 23.725442809136439 -34.529275810843501 0 -34.529275810843501 -12.835128077015725 0 0 0 0 17.821777557084715 -14.42597879589448 0 -14.42597879589448 -9.4255667195066053 0 0 0 0 -17.770217087944729 -29.590881529664557 0 -29.590881529664557 20.103300206323183 0 0 0 0 47.013068163993012 -28.296702238085345 0 -28.296702238085345 -4.4261637637464446 0 0 0 0 -0.094660778562818848 -2.4697569546456464 0 -2.4697569546456464 1.8981772104134365 0 0 0 0 -181.94345008188975 45.611456186692521 0 45.611456186692521 -89.196973759535467 0 0 0 0 -5.9541360153064318 -12.383897970353118 0 -12.383897970353118 -5.1344075883195899 0 0 0 0 -30.005072958156234 1.8233894242530369 0 1.8233894242530369 -11.159187892933005 0 0 0 0 23.244818399463838 -108.02802755165021 0 -108.02802755165021 -298.26013251762561 0 0 0 0 -176.63891435217374 736.01053325974681 0 736.01053325974681 71.490256549099968 0 0 0 0 -3.0803853411573954 -2.4973409970979219 0 -2.4973409970979219 -2.7649150571323275 0 0 0 0 -220.80917167810549 -31.710807784590543 0 -31.710807784590543 31.799783859554736 0 0 0 0 42.709927711995988 -306.25938947861323 0 -306.25938947861323 -27.629683888615546 0 0 0 0 269.77168777273255 14.770680697851731 0 14.770680697851731 -60.994766226973297 0 0 0 0 -167.16980458345279 -52.641645137757223 0 -52.641645137757223 269.9672673770815 0 0 0 0 -121.83774490392898 -182.85468174709058 0 -182.85468174709058 -70.151120186393655 0 0 0 0 3.0594041751730643 -3.9853940616632926 0 -3.9853940616632926 4.8266982366295679 0 0 0 0 -68.658141739371786 -305.73962933875919 0 -305.73962933875919 -78.179991489429085 0 0 0 0 -350.4785281961158 -582.90801719968113 0 -582.90801719968113 51.332740918005584 0 0 0 0 -76.408006098161422 -402.90469245121722 0 -402.90469245121722 -656.96195772201827 0 0 0 0 198.89470004582472 -288.07634338187017 0 -288.07634338187017 321.069918221222 0 0 0 0 205.59944606322824 -249.36040957129262 0 -249.36040957129262 340.57930647384364 0 0 0 0 141.39551198048866 -211.71816311680595 0 -211.71816311680595 252.40067123882636 0 0 0 0 235.92144659228779 -201.34648181109128 0 -201.34648181109128 153.41751896245842 0 0 0 0 136.5980938308021 -155.11183232295286 0 -155.11183232295286 154.78057889581032 0 0 0 0 0.39632907683161989 -2.0424238274384265 0 -2.0424238274384265 -4.0983827509932311 0 0 0 0 107.2130986406446 -347.76031417620106 0 -347.76031417620106 86.32229850857766 0 0 0 0 295.07154438202087 -223.43728890977934 0 -223.43728890977934 166.80751381894515 0 0 0 0 0.10032258291977314 -0.20737897833176788 0 -0.20737897833176788 0.6697376975494933 0 0 0 0 273.74538363804982 -465.0332443480271 0 -465.0332443480271 236.87213799771416 0 0 0 0 -204.77488638497289 22.968652563076375 0 22.968652563076375 4.6931070874998113 0 0 0 0 -39.164579563344887 -1.0080577109210935 0 -1.0080577109210935 4.2547964109762688 0 0 0 0 -10.363557690834568 -15.13683956013665 0 -15.13683956013665 22.291025553936379 0 0 0 0 -45.098368862847565 1.3630695775887034 0 1.3630695775887034 15.859933903653655 0 0 0 0 -13.141158301106771 -11.348367964737918 0 -11.348367964737918 17.245428333975724 0 0 0 0 1.839298387618328 -12.770327152604295 0 -12.770327152604295 17.380345986490283 0 0 0 0 -11.647045488491131 -19.934364267447563 0 -19.934364267447563 17.520838089664721 0 0 0 0 -12.952241134566066 -28.021675698382296 0 -28.021675698382296 16.11395091835584 0 0 0 0 -8.5903235567602678 -8.3323518642846466 0 -8.3323518642846466 18.078431938576614 0 0 0 0 8.0549118932867714 -23.347699669351641 0 -23.347699669351641 -11.839016663923758 0 0 0 0 -6.3494315059942892 -21.862174150596729 0 -21.862174150596729 8.1405764204464504 0 0 0 0 4.0392433631667757 -11.921887233140644 0 -11.921887233140644 10.996909471826125 0 0 0 0 -3.5145190831972286 -12.159939919962198 0 -12.159939919962198 7.5545125735243346 0 0 0 0 -12.226570552532849 -3.3918807140594254 0 -3.3918807140594254 18.336025399672508 0 0 0 0 -0.2219991987719041 0.81526913180053384 0 0.81526913180053384 6.0184598205130726 0 0 0 0 -7.1685718543194525 -3.7856140565090755 0 -3.7856140565090755 17.972398330675787 0 0 0 0 1.0279875780827865 -10.342386061986479 0 -10.342386061986479 9.6068086179878236 0 0 0 0 377.97824341986052 -163.3038685088577 0 -163.3038685088577 70.109996827160103 0 0 0 0 402.90035568970779 -228.30712709026557 0 -228.30712709026557 239.18043052952999 0 0 0 0 257.69157962537065 -273.37121199663761 0 -273.37121199663761 225.96974970768497 0 0 0 0 196.43229568154857 -300.99849218613235 0 -300.99849218613235 479.53116253237386 0 0 0 0 -0.82667238589439762 -1.1929177001516464 0 -1.1929177001516464 1.8913743570289512 0 0 0 0 -0.10280526064161677 -20.901125645425054 0 -20.901125645425054 -13.815668018726683 0 0 0 0 6.1209987873089631 -22.935475815590962 0 -22.935475815590962 -13.421700119091838 0 0 0 0 0.095485319723444206 -4.1629983515785156 0 -4.1629983515785156 -3.0494563713076559 0 0 0 0 172.23152342094545 -195.96567795664487 0 -195.96567795664487 174.32945898908235 0 0 0 0 84.213636640230106 -272.06071543947473 0 -272.06071543947473 179.49336731194501 0 0 0 0 112.44751986475057 -244.53853836718281 0 -244.53853836718281 191.08268712427525 0 0 0 0 138.41558050078311 -250.3364152927461 0 -250.3364152927461 142.42031281580148 0 0 0 0 143.55419825677382 -258.999835786326 0 -258.999835786326 81.921398194175708 0 0 0 0 128.92553333943943 -233.07627700580997 0 -233.07627700580997 139.63394182874299 0 0 0 0 133.1543929105992 -221.13888302813393 0 -221.13888302813393 147.32296325686912 0 0 0 0 120.72737969673835 -198.08431528281108 0 -198.08431528281108 163.89767834839222 0 0 0 0 118.20729970016328 -194.35997829887128 0 -194.35997829887128 209.6230810144416 0 0 0 0 158.86395518453355 -204.96582993891479 0 -204.96582993891479 193.31706710303843 0 0 0 0 159.31067917396285 -173.41091441013123 0 -173.41091441013123 285.99575447180541 0 0 0 0 -9.1624969427716874 -14.308471051215808 0 -14.308471051215808 -11.451809988535629 0 0 0 0 1.0286396514093212 -28.42437072822031 0 -28.42437072822031 -4.7068565073403761 0 0 0 0 3.7655510297988251 -4.0186321184440637 0 -4.0186321184440637 -4.7843101136821105 0 0 0 0 8.0499494061950827 -9.7023833527491661 0 -9.7023833527491661 -4.4765614097523212 0 0 0 0 164.22972228121944 -203.7252166718099 0 -203.7252166718099 157.03126777690341 0 0 0 0 -5.1442560780668529 -19.066352136170188 0 -19.066352136170188 -6.5486123043339468 0 0 0 0 -0.66672658077265723 -11.11420424450921 0 -11.11420424450921 -0.2246419634697574 0 0 0 0 5.3910924256633734 -8.4886808239243692 0 -8.4886808239243692 0.8074323905093479 0 0 0 0 -2.2191098746617328 -2.5506059947632771 0 -2.5506059947632771 -0.42361477791203583 0 0 0 0 65.014039464876987 -221.93076205609395 0 -221.93076205609395 223.06786329397437 0 0 0 0 229.92326408806548 -190.83240931793625 0 -190.83240931793625 75.920515751873609 0 0 0 0 210.10319242325204 -127.08049195518106 0 -127.08049195518106 73.241563761833277 0 0 0 0 67.966927674435397 -57.171347527235412 0 -57.171347527235412 68.442591388971778 0 0 0 0 -3.1622752017505888 -15.073002824372431 0 -15.073002824372431 -5.6762696584501242 0 0 0 0 272.02940542655779 -161.23184079455132 0 -161.23184079455132 42.193721437870408 0 0 0 0 254.47221920900847 -183.72113099278249 0 -183.72113099278249 33.543603398786217 0 0 0 0 228.40955345248221 -185.42131528244863 0 -185.42131528244863 70.309234302927507 0 0 0 0 202.66718805327855 -186.44153632579173 0 -186.44153632579173 80.769925657179556 0 0 0 0 226.52784440093092 -192.94371266055532 0 -192.94371266055532 61.597578293301922 0 0 0 0 221.29348430462414 -243.31857648256664 0 -243.31857648256664 22.749293140273949 0 0 0 0 239.79968454087066 -207.67671681374486 0 -207.67671681374486 51.954346001051817 0 0 0 0 183.48434208196704 -213.10403294299613 0 -213.10403294299613 119.48449748760686 0 0 0 0 181.85015451304935 -204.97732219019963 0 -204.97732219019963 98.053318893813412 0 0 0 0 207.43032381957528 -164.57482429535048 0 -164.57482429535048 152.61466321107582 0 0 0 0 255.19574511678366 -180.72571697634703 0 -180.72571697634703 151.68252616623067 0 0 0 0 -4.7008224267744154 -11.750152101049295 0 -11.750152101049295 -13.387962720473908 0 0 0 0 -0.78157143035036825 -20.039059663685293 0 -20.039059663685293 -40.219729161253781 0 0 0 0 8.7835386476108397 -21.187860336940957 0 -21.187860336940957 -44.142825660987 0 0 0 0 1.3376026888141226 -3.4666667153941901 0 -3.4666667153941901 2.0861554731416163 0 0 0 0 1.9850180182256736 -4.9434252397550154 0 -4.9434252397550154 15.744793303460028 0 0 0 0 10.978558500084503 -9.7936000094454752 0 -9.7936000094454752 3.3455383550190447 0 0 0 0 1.2566438337853469 -31.313420469907214 0 -31.313420469907214 -15.28888907036071 0 0 0 0 6.0155233564346418 -17.258126801662002 0 -17.258126801662002 -45.450074212736581 0 0 0 0 11.650965925926357 -17.250458465011434 0 -17.250458465011434 -68.728679999676388 0 0 0 0 13.881028990153936 -24.783285156397142 0 -24.783285156397142 -50.745757531356503 0 0 0 0 3.3568251375381806 -14.11600526858183 0 -14.11600526858183 -51.668711304368117 0 0 0 0 3.0689744933583825 -14.121916085430826 0 -14.121916085430826 -36.084102841221465 0 0 0 0 23.634668224050984 -31.98456606941545 0 -31.98456606941545 -104.37033704686655 0 0 0 0 23.920098631962901 -40.389493976164886 0 -40.389493976164886 -64.326528168481218 0 0 0 0 7.5137599076933839 -49.47755171978315 0 -49.47755171978315 -63.213866218362455 0 0 0 0 152.92969884007834 -103.74055716072507 0 -103.74055716072507 204.58105133626873 0 0 0 0 -2.6094726547741232 -6.0994714826986751 0 -6.0994714826986751 -9.0612997327611424 0 0 0 0 -4.2830260197195003 39.098855190673476 0 39.098855190673476 -149.07167272084007 0 0 0 0 -1.3468964939202124 18.041086605915552 0 18.041086605915552 -84.418081491945486 0 0 0 0 19.96858025036272 -32.029836874369721 0 -32.029836874369721 -99.877096678415 0 0 0 0 21.314490277087316 -14.446123341307612 0 -14.446123341307612 -165.1584340824902 0 0 0 0 27.033621310464468 -33.843218603979267 0 -33.843218603979267 -144.67533191000621 0 0 0 0 123.55941203483098 -241.88666939175459 0 -241.88666939175459 15.411021533596795 0 0 0 0 79.013677940511116 -163.35991159016157 0 -163.35991159016157 -123.00012654175862 0 0 0 0 37.672324004814072 -55.603871124716534 0 -55.603871124716534 -181.56067089969474 0 0 0 0 49.284906866169877 -87.997636170799069 0 -87.997636170799069 -95.862585481134374 0 0 0 0 8.5526567362849164 -80.233539001897043 0 -80.233539001897043 -28.999861110711208 0 0 0 0 3.7079293708584373 -83.089980207520057 0 -83.089980207520057 -27.051428408631182 0 0 0 0 -1.3188965868575906 -125.85513375154733 0 -125.85513375154733 -31.326737669885006 0 0 0 0 11.998336698108687 -89.789722028046526 0 -89.789722028046526 -54.037987672743839 0 0 0 0 -19.298196892843862 -99.609433665730648 0 -99.609433665730648 12.921607234013209 0 0 0 0 -14.737627343898566 -92.002631174405906 0 -92.002631174405906 -9.4405592128823628 0 0 0 0 -21.532773335816273 -81.43051124876456 0 -81.43051124876456 -25.769064451440499 0 0 0 0 -25.273495093251768 -71.840978535597969 0 -71.840978535597969 10.917415211795742 0 0 0 0 -24.320125582908076 -63.186842797693316 0 -63.186842797693316 -14.462418808099756 0 0 0 0 -36.589043594567556 -82.65049180290498 0 -82.65049180290498 3.8015332303366449 0 0 0 0 -47.20380566433596 -71.917814646341867 0 -71.917814646341867 36.178534198903435 0 0 0 0 -28.602463970069948 -103.30828495280912 0 -103.30828495280912 57.153720138187055 0 0 0 0 -29.523096434659237 -88.2411427709485 0 -88.2411427709485 44.160437438946246 0 0 0 0 -13.166151456651278 -132.59023965796951 0 -132.59023965796951 142.84635147113477 0 0 0 0 -39.56982438707746 -85.97384453930681 0 -85.97384453930681 83.052433563607337 0 0 0 0 -7.2009410658611159 -148.54813185965213 0 -148.54813185965213 88.841290782065698 0 0 0 0 17.498512102871246 -141.56064375000096 0 -141.56064375000096 47.752224114752607 0 0 0 0 -21.587821415104372 -114.02511227320429 0 -114.02511227320429 19.442687271126488 0 0 0 0 1.1294703363073495 -142.35277277331443 0 -142.35277277331443 35.635929508658592 0 0 0 0 4.1804787906025922 -46.544674244667931 0 -46.544674244667931 -62.444984841402402 0 0 0 0 -11.608408806056104 -24.330688832999385 0 -24.330688832999385 -61.602091562384885 0 0 0 0 36.128553445732905 -33.740768656565706 0 -33.740768656565706 -68.462085753400061 0 0 0 0 -3.6015478273729968 -36.671187320243916 0 -36.671187320243916 -50.195735293187681 0 0 0 0 -7.4879212318314785 -45.618607107107437 0 -45.618607107107437 -70.331119309867063 0 0 0 0 -22.59927203002303 -59.326523489077545 0 -59.326523489077545 -42.872841596254148 0 0 0 0 -21.00506130584472 -82.305894624911161 0 -82.305894624911161 -29.283077470284297 0 0 0 0 0.37717467554796968 -2.2449843144421706 0 -2.2449843144421706 -0.55185369891190028 0 0 0 0 0.60978946238083154 -65.923786632062729 0 -65.923786632062729 -186.98014340126065 0 0 0 0 -7.4663663756819005 -72.161684812020212 0 -72.161684812020212 106.67371186110881 0 0 0 0 0.67481836173192278 -79.624183692812494 0 -79.624183692812494 -25.708440916219843 0 0 0 0 7.4624458507797158 -49.281202707713163 0 -49.281202707713163 -8.0039838327429607 0 0 0 0 10.650377932950505 -48.054755279395977 0 -48.054755279395977 -3.8574628296992159 0 0 0 0 5.7354179455193162 -67.875931483971954 0 -67.875931483971954 9.9777276494733087 0 0 0 0 0.36338118386162677 -2.9714474055919027 0 -2.9714474055919027 -0.73056141388328832 0 0 0 0 3.7583541863969003 -75.810309302224596 0 -75.810309302224596 -3.3875710556203558 0 0 0 0 -19.098259783806498 -51.213731252636535 0 -51.213731252636535 3.1866829439732101 0 0 0 0 -3.0155923561887903 -54.848656804396796 0 -54.848656804396796 -16.919265576048019 0 0 0 0 -41.159072295131409 -73.647091659442594 0 -73.647091659442594 -82.395046128911417 0 0 0 0 5.0125294811519865 -5.0879484921077989 0 -5.0879484921077989 3.4065423595150754 0 0 0 0 -66.206785723261191 -35.948919188719174 0 -35.948919188719174 -12.110947599867359 0 0 0 0 14.04565048226732 -32.903377338609516 0 -32.903377338609516 -50.488112154139344 0 0 0 0 4.828506382258638 -37.5150679135877 0 -37.5150679135877 -52.450576685799206 0 0 0 0 -8.1119141878334631 -48.37220005310337 0 -48.37220005310337 -3.3743799553501503 0 0 0 0 8.8098626571906919 -6.5704337363806715 0 -6.5704337363806715 4.477675507783978 0 0 0 0 -17.594707301225753 -51.434444591018291 0 -51.434444591018291 -38.109127045413516 0 0 0 0 -13.017317236529834 -56.907049682336037 0 -56.907049682336037 -6.8089830599346897 0 0 0 0 -21.849284137117138 -39.524134873617186 0 -39.524134873617186 -27.528312387368715 0 0 0 0 -14.553969613042682 -24.112988700853748 0 -24.112988700853748 0.72764878356611007 0 0 0 0 3.0581928750179941 -13.330028997928821 0 -13.330028997928821 6.2843422043133614 0 0 0 0 -20.144003320083357 -29.804378107116463 0 -29.804378107116463 -33.417928649014357 0 0 0 0 -18.801470720748597 -32.478901937852839 0 -32.478901937852839 -40.356749902453885 0 0 0 0 -16.299395949838527 -32.398539922450254 0 -32.398539922450254 -6.9103489291683218 0 0 0 0 -19.702490878281424 -46.38847720922513 0 -46.38847720922513 -25.419466938263213 0 0 0 0 0.074633623295571994 -15.734757021768147 0 -15.734757021768147 20.618168419305054 0 0 0 0 -23.887417930013498 -20.098188290360667 0 -20.098188290360667 -24.856260329810539 0 0 0 0 -14.049155665403305 -1.5379493341743 0 -1.5379493341743 2.8741059201747703 0 0 0 0 -63.880459345085683 -44.629008703846921 0 -44.629008703846921 13.977650923614419 0 0 0 0 0.68822599886425451 -21.115347158723125 0 -21.115347158723125 14.040098353980284 0 0 0 0 0.39870898656772624 -35.877776100980554 0 -35.877776100980554 -6.7947771149569576 0 0 0 0 -2.8432840360111165 -13.289698180369898 0 -13.289698180369898 19.519240443426192 0 0 0 0 -7.6897614985386724 -4.1049688564210314 0 -4.1049688564210314 -0.5677100003224087 0 0 0 0 -53.14152997238125 -86.001719896516079 0 -86.001719896516079 -109.18331085294994 0 0 0 0 -4.5604142507193046 -32.298884843741234 0 -32.298884843741234 61.251905186349177 0 0 0 0 -112.63934597841899 18.603206094225243 0 18.603206094225243 90.690714372776711 0 0 0 0 -2.6416886071174304 -2.6812783816637165 0 -2.6812783816637165 -0.31400247138471737 0 0 0 0 4.0821650194047834 -20.714563099381849 0 -20.714563099381849 3.0180392213292038 0 0 0 0 -3.1834680713300223 -2.6300341981688149 0 -2.6300341981688149 2.8246016621150183 0 0 0 0 -206.43909337171772 -345.99260852659063 0 -345.99260852659063 -326.30828144875409 0 0 0 0 -92.964357503518571 -100.84760595207558 0 -100.84760595207558 -139.8239441005735 0 0 0 0 -95.379021580427434 -73.113017889530965 0 -73.113017889530965 -100.57754306297102 0 0 0 0 -53.069301323030231 -55.734446777033554 0 -55.734446777033554 -122.60794804739271 0 0 0 0 -42.26561429476169 -137.91176281433218 0 -137.91176281433218 192.64837429499858 0 0 0 0 -19.647621724190685 -44.395209956124745 0 -44.395209956124745 -121.58777572378267 0 0 0 0 -32.512934333446537 -154.44257723494593 0 -154.44257723494593 -157.81807458732692 0 0 0 0 -50.11377836218162 -242.08593916387053 0 -242.08593916387053 243.12023138589757 0 0 0 0 -144.98531685432863 -48.62745306542638 0 -48.62745306542638 -4.9815171991831448 0 0 0 0 1.6083299322244784 1.8759836479445227 0 1.8759836479445227 1.1205726549275639 0 0 0 0 -51.191614412247873 -218.42922342501788 0 -218.42922342501788 -201.79433724052706 0 0 0 0 -2.2358627759188678 -2.3991136361006298 0 -2.3991136361006298 2.5804473112819437 0 0 0 0 -3.1812904643502407 -63.150063663082619 0 -63.150063663082619 -128.95843456188959 0 0 0 0 -32.687243155507531 -29.46132509533345 0 -29.46132509533345 5.2962307686029817 0 0 0 0 -30.402129017656989 -28.69099903359438 0 -28.69099903359438 -1.5436597952793818 0 0 0 0 -29.108817267317136 -33.051210857956903 0 -33.051210857956903 2.6737003333237226 0 0 0 0 -33.692457533506968 -31.231745819233765 0 -31.231745819233765 8.0393856334449083 0 0 0 0 -12.006365421179815 -2.953806452476762 0 -2.953806452476762 4.0576206813266618 0 0 0 0 -165.3398600176024 54.590062399873204 0 54.590062399873204 -65.541098880454228 0 0 0 0 -7.169513841932833 -13.740989645054357 0 -13.740989645054357 15.44932566758991 0 0 0 0 95.040617194594233 -110.8400759517499 0 -110.8400759517499 -75.722272531267663 0 0 0 0 85.282732783049141 -22.313026128122146 0 -22.313026128122146 -152.24428502192268 0 0 0 0 -6.8841039217350044 -4.6614926107067731 0 -4.6614926107067731 16.656763053058967 0 0 0 0 -3.7192302640814887 -20.01338712607685 0 -20.01338712607685 27.645834525945475 0 0 0 0 -74.521622213283308 -103.77407849207975 0 -103.77407849207975 22.355848463717848 0 0 0 0 12.490531933870443 -59.383242208688898 0 -59.383242208688898 -7.220227152991356 0 0 0 0 -94.946698193018165 -12.49038518075497 0 -12.49038518075497 20.512185848347144 0 0 0 0 -0.060255535733666932 -0.64944962204256385 0 -0.64944962204256385 -1.4789531394582269 0 0 0 0 6.6559689090663596 57.276336847828134 0 57.276336847828134 -136.48762787096348 0 0 0 0 47.41529022841496 -5.2195890085477004 0 -5.2195890085477004 -29.997095762777462 0 0 0 0 272.03842768619506 -161.42799557448598 0 -161.42799557448598 17.145178725855658 0 0 0 0 -9.377336951713005 -30.852083450151667 0 -30.852083450151667 17.962460074642877 0 0 0 0 253.22803555999417 -202.15421817516108 0 -202.15421817516108 4.6279406976027531 0 0 0 0 289.11966068273614 -163.65435238570899 0 -163.65435238570899 -9.8776213855962851 0 0 0 0 324.39495403692126 -201.46335749500213 0 -201.46335749500213 3.9023081892000846 0 0 0 0 304.85118680106825 -210.06379448812004 0 -210.06379448812004 -13.319810821027204 0 0 0 0 248.3791375403016 -249.0618737591667 0 -249.0618737591667 4.9124093693244504 0 0 0 0 328.76204293021874 -247.13484122107184 0 -247.13484122107184 43.819846967351623 0 0 0 0 434.33608078293764 -166.6765958250362 0 -166.6765958250362 -12.809972110925628 0 0 0 0 323.58994815860933 -204.22150571898601 0 -204.22150571898601 52.706930029800787 0 0 0 0 427.38436069570162 -348.53723182942122 0 -348.53723182942122 248.0747224702136 0 0 0 0 277.59540680888313 -255.34809130180656 0 -255.34809130180656 109.26933003138402 0 0 0 0 190.43181741385342 -190.63130588303829 0 -190.63130588303829 66.316277583828196 0 0 0 0 161.92399799543637 -126.1206501091001 0 -126.1206501091001 172.58859271632537 0 0 0 0 298.40273557909677 -179.10554280601809 0 -179.10554280601809 146.03159491316183 0 0 0 0 344.77907455486275 -79.817014776053838 0 -79.817014776053838 292.45436214894335 0 0 0 0 54.586940627521471 -60.822370699064777 0 -60.822370699064777 -56.390318357051001 0 0 0 0 494.9985109110421 -418.50881473815207 0 -418.50881473815207 314.2254614096878 0 0 0 0 324.34530015610289 -63.152540084168322 0 -63.152540084168322 19.132132542676118 0 0 0 0 1.8860867196506987 -6.7808444551527955 0 -6.7808444551527955 -1.9753037097356581 0 0 0 0 -8.3287654708174159 -16.583863145879405 0 -16.583863145879405 -16.037606045305665 0 0 0 0 -20.803332323564796 -21.714137745389774 0 -21.714137745389774 3.5711938630267861 0 0 0 0 18.910526009363821 -99.104225599643541 0 -99.104225599643541 99.585396707908785 0 0 0 0 48.439445680862264 -65.157053916280347 0 -65.157053916280347 21.422826044079557 0 0 0 0 692.85307365475819 3.2965941598185964 0 3.2965941598185964 -89.897085058342782 0 0 0 0 27.678997736646124 9.4796082459415629 0 9.4796082459415629 -159.69970435537834 0 0 0 0 0.44589131766718282 -0.9288161521635061 0 -0.9288161521635061 -2.5203574676716372 0 0 0 0 210.60514757294368 -250.22740572282055 0 -250.22740572282055 -124.72430456945949 0 0 0 0 64.103154474461917 -80.35202829552145 0 -80.35202829552145 -73.708564702118565 0 0 0 0 119.12612130043635 -326.96844190014781 0 -326.96844190014781 23.186489940169849 0 0 0 0 208.99269279032887 -228.25109602903649 0 -228.25109602903649 28.777059182139965 0 0 0 0 189.78968482641358 -195.60458882456896 0 -195.60458882456896 28.168307894993632 0 0 0 0 143.77274307180051 -161.70255188684678 0 -161.70255188684678 119.18644011209835 0 0 0 0 42.938099230545049 -85.683968789147912 0 -85.683968789147912 86.035189546816582 0 0 0 0 29.788422078763688 -124.39130409792415 0 -124.39130409792415 33.125240757151914 0 0 0 0 -67.171746943415201 -116.99154247208116 0 -116.99154247208116 63.332480947115982 0 0 0 0 -55.167727092276891 -160.19902082655335 0 -160.19902082655335 -37.324560741169989 0 0 0 0 -49.604843535620603 -69.293908133362493 0 -69.293908133362493 14.664836041509261 0 0 0 0 -47.899499136367012 -34.7123133537998 0 -34.7123133537998 -18.834607346310804 0 0 0 0 -43.992517646642227 -76.332917200728843 0 -76.332917200728843 23.267685269471258 0 0 0 0 -33.814800561224729 -27.255391459123075 0 -27.255391459123075 -0.11853060866997112 0 0 0 0 -50.575052080384921 -32.603869541977474 0 -32.603869541977474 35.724038580470733 0 0 0 0 -37.184814873216965 -30.570174392836634 0 -30.570174392836634 73.298987565176503 0 0 0 0 17.20616130057897 -50.744862286417629 0 -50.744862286417629 49.620275717717959 0 0 0 0 -39.108406521045254 -58.644744483605336 0 -58.644744483605336 86.712204914787435 0 0 0 0 29.221368967925628 -97.090860201719806 0 -97.090860201719806 114.4564330134308 0 0 0 0 120.52523305091017 -58.918787487909867 0 -58.918787487909867 101.84604904014714 0 0 0 0 71.948635947199364 -7.9122066507516138 0 -7.9122066507516138 70.524645208786751 0 0 0 0 1.0803258169771652 -50.452851028939449 0 -50.452851028939449 48.494188675591431 0 0 0 0 11.483881008294702 36.436940095838509 0 36.436940095838509 -15.340320685656479 0 0 0 0 -8.2825294063695765 -27.369896865095143 0 -27.369896865095143 -109.66305337051017 0 0 0 0 -26.709188721462851 29.540034290073891 0 29.540034290073891 -63.237473909079199 0 0 0 0 -20.631013430960593 -20.160422665196165 0 -20.160422665196165 -33.301130734511389 0 0 0 0 -8.4153226838079718 6.7417349349479991 0 6.7417349349479991 9.1061676360332058 0 0 0 0 -41.935764712761738 -0.87825766306559672 0 -0.87825766306559672 -1.3175090055010514 0 0 0 0 -12.185356619580489 -1.5949378148025062 0 -1.5949378148025062 -128.23685154862687 0 0 0 0 -41.891788221844763 5.2118567556826747 0 5.2118567556826747 -59.590605591230997 0 0 0 0 -20.997543850702641 -3.7549625616684352 0 -3.7549625616684352 -114.60513409251871 0 0 0 0 -42.151341949756898 -15.897608391233007 0 -15.897608391233007 -16.981227358817705 0 0 0 0 -33.735035871643049 -8.2829321605313453 0 -8.2829321605313453 -63.627673554905414 0 0 0 0 424.7631998234101 -235.90525590622929 0 -235.90525590622929 98.012130286064348 0 0 0 0 417.10170901946185 -282.26659111464323 0 -282.26659111464323 184.05823333400804 0 0 0 0 -3.7360886581222843 -0.5506527509795589 0 -0.5506527509795589 8.7596731820765115 0 0 0 0 -51.904316409363673 1.4448166550482711 0 1.4448166550482711 34.837038696362015 0 0 0 0 411.93762535325914 -296.89657334496587 0 -296.89657334496587 169.93024121986673 0 0 0 0 646.83092865915387 -210.9822340174951 0 -210.9822340174951 117.24856045359775 0 0 0 0 300.97956080878794 -210.73718772918801 0 -210.73718772918801 144.13242795170299 0 0 0 0 149.18865187382471 -130.66607910237508 0 -130.66607910237508 185.06251584211714 0 0 0 0 79.640572245800286 -111.05970593929123 0 -111.05970593929123 143.70565718684884 0 0 0 0 290.95161307494709 -102.63697747765218 0 -102.63697747765218 106.61782257611048 0 0 0 0 164.19769443273208 -193.76201016793766 0 -193.76201016793766 195.07527819165625 0 0 0 0 113.90283978345542 -18.494864814885659 0 -18.494864814885659 51.073966929288872 0 0 0 0 52.235347658972387 -71.460451507653488 0 -71.460451507653488 5.6195493571722182 0 0 0 0 44.357480034290347 -6.8855765490643535 0 -6.8855765490643535 107.13703099458326 0 0 0 0 338.74663993450304 -392.29750610785595 0 -392.29750610785595 290.68570765060667 0 0 0 0 171.42539676895831 -44.74261377689254 0 -44.74261377689254 17.647628700400674 0 0 0 0 834.15505845980624 -437.31228512876532 0 -437.31228512876532 108.86758682012078 0 0 0 0 244.00741972403557 39.516603450669209 0 39.516603450669209 -405.03469683579897 0 0 0 0 203.25670032265225 -214.3605589413728 0 -214.3605589413728 -204.67466639568556 0 0 0 0 -50.905506737602991 -112.40297918633405 0 -112.40297918633405 0.37690026934251364 0 0 0 0 -71.426407191247563 91.481290048388473 0 91.481290048388473 -68.697894517059012 0 0 0 0 0.92246637054838487 -1.4635639506142724 0 -1.4635639506142724 -1.4272397478741254 0 0 0 0 62.007681173015044 -90.995117507924078 0 -90.995117507924078 126.41298044645373 0 0 0 0 -18.734301574264464 -71.061638589453651 0 -71.061638589453651 134.92890053902374 0 0 0 0 78.14697567606072 -81.183124838080403 0 -81.183124838080403 113.19373226281459 0 0 0 0 30.732894822783578 -65.431983294028839 0 -65.431983294028839 -25.769395541274697 0 0 0 0 -7.891614193766145 2.3119408045604359 0 2.3119408045604359 -138.37577312174471 0 0 0 0 23.867403321979509 -67.953094624303048 0 -67.953094624303048 139.41458122223048 0 0 0 0 84.757897310656745 -49.368183601166947 0 -49.368183601166947 84.663883133849595 0 0 0 0 -30.312196737855629 10.851327471512377 0 10.851327471512377 -112.75283180186671 0 0 0 0 -61.21593659483915 -34.634842422832662 0 -34.634842422832662 -134.37008937804785 0 0 0 0 78.169483700599812 -144.1355512272421 0 -144.1355512272421 69.046904317292501 0 0 0 0 -73.949651614275353 -132.06511085176317 0 -132.06511085176317 132.44796474317991 0 0 0 0 65.777908996475162 36.126604229808436 0 36.126604229808436 -352.77912502048184 0 0 0 0 21.239615454549494 121.58938455669795 0 121.58938455669795 -221.91841325780479 0 0 0 0 27.943291789397037 -63.550672641620231 0 -63.550672641620231 -24.592958196550349 0 0 0 0 -38.710643887581682 -100.5525961146559 0 -100.5525961146559 98.964677384239621 0 0 0 0 -16.918476706316142 -95.205967499670805 0 -95.205967499670805 97.695095731527545 0 0 0 0 -22.378827716578598 -125.66050650609759 0 -125.66050650609759 78.695293215481797 0 0 0 0 18.110964204017364 -112.87043021219142 0 -112.87043021219142 80.940520128839125 0 0 0 0 33.370233722282137 -72.325463363144081 0 -72.325463363144081 49.834991458796139 0 0 0 0 24.113624674955645 -82.662121475179447 0 -82.662121475179447 69.395890115760267 0 0 0 0 -21.605620637606194 -15.516962131454079 0 -15.516962131454079 24.56248418148607 0 0 0 0 -8.7142222349611984 -59.901192299552349 0 -59.901192299552349 60.577533021103591 0 0 0 0 6.1708065970942698 -60.032260195916024 0 -60.032260195916024 47.401696454791818 0 0 0 0 -20.340811513593508 -50.739613892830675 0 -50.739613892830675 60.083873559502535 0 0 0 0 -0.46662906691744865 -56.936863080289186 0 -56.936863080289186 90.513411699140306 0 0 0 0 -2.5099722585127893 -57.501590282539837 0 -57.501590282539837 97.689173490027315 0 0 0 0 8.1812036046258072 -32.768831821016647 0 -32.768831821016647 73.340759392027394 0 0 0 0 13.753382203888577 -32.56448543465558 0 -32.56448543465558 47.904058058171358 0 0 0 0 15.496217598058138 -17.706549563299632 0 -17.706549563299632 55.929104745504446 0 0 0 0 -63.018290997535587 2.6828508046419302 0 2.6828508046419302 7.9982398921929416 0 0 0 0 18.777051505201598 -42.546494313843141 0 -42.546494313843141 48.779387875063549 0 0 0 0 1.3864347733588218 0.46996223618523914 0 0.46996223618523914 -1.4996171546485186 0 0 0 0 28.683848280889151 -86.112026635946677 0 -86.112026635946677 161.55406218330609 0 0 0 0 0.34972604533900409 -1.9419164435394549 0 -1.9419164435394549 -1.5446948523839552 0 0 0 0 15.884661518637586 -35.824368228379171 0 -35.824368228379171 123.2337942049744 0 0 0 0 16.951224465599807 -48.185889896019944 0 -48.185889896019944 109.05871030221897 0 0 0 0 13.015566211435726 -28.8409304839588 0 -28.8409304839588 75.540177331437008 0 0 0 0 54.523002565343177 -51.163650109065202 0 -51.163650109065202 101.53792009773315 0 0 0 0 12.244844162189111 -22.364562625771214 0 -22.364562625771214 84.693577857062337 0 0 0 0 21.948871292621334 -22.314698736028731 0 -22.314698736028731 43.627679405813979 0 0 0 0 21.103033011964726 -19.284220386951347 0 -19.284220386951347 85.733368658056861 0 0 0 0 15.314034694623388 -59.010450657045112 0 -59.010450657045112 116.16652575971239 0 0 0 0 70.276137477403381 -90.013386883092608 0 -90.013386883092608 148.31321977504558 0 0 0 0 -28.931650369229828 -15.303876853387919 0 -15.303876853387919 172.26859071542367 0 0 0 0 30.486023569710596 -35.325925602795905 0 -35.325925602795905 139.58987590284232 0 0 0 0 -6.8010941692532469 -111.50591707189596 0 -111.50591707189596 202.6460420796011 0 0 0 0 -27.754210339174733 -69.764746294822544 0 -69.764746294822544 195.58125851183286 0 0 0 0 0.83962678090358267 -1.5002771043699141 0 -1.5002771043699141 -1.3107956844893636 0 0 0 0 5.8461092571972131 -109.4564502683279 0 -109.4564502683279 245.46162668964098 0 0 0 0 2.9510993846852216 -13.235753237160679 0 -13.235753237160679 214.97917037749357 0 0 0 0 52.580842250134083 121.55892898481397 0 121.55892898481397 351.4520443461879 0 0 0 0 54.292186164992472 -188.42567103224428 0 -188.42567103224428 323.15541966963065 0 0 0 0 -38.693178779175923 -144.43100524530018 0 -144.43100524530018 445.61824621967389 0 0 0 0 -36.312254067794584 -95.849791431533959 0 -95.849791431533959 338.09914907902566 0 0 0 0 -93.066539575377647 14.367424735399254 0 14.367424735399254 744.17230743609616 0 0 0 0 0.9921454456971226 -3.2699266555310942 0 -3.2699266555310942 2.0819058364011767 0 0 0 0 48.667451321155113 -109.31109718826337 0 -109.31109718826337 289.7367027657674 0 0 0 0 115.35945703038686 -356.92924731913081 0 -356.92924731913081 546.50479597993035 0 0 0 0 30.70745031475019 -184.56456982784584 0 -184.56456982784584 243.6221298063756 0 0 0 0 78.820331678941272 -125.72307593136065 0 -125.72307593136065 54.727859856655414 0 0 0 0 -6.0125053709866734 -107.50384844214932 0 -107.50384844214932 206.30805252325081 0 0 0 0 42.474169112727395 -117.04848385548758 0 -117.04848385548758 200.71481789832615 0 0 0 0 22.318521717735372 -68.126298146656339 0 -68.126298146656339 -25.692482770455563 0 0 0 0 -32.768424837149723 -170.98595840678263 0 -170.98595840678263 197.86180926636598 0 0 0 0 41.013974564640421 -118.12704565268905 0 -118.12704565268905 71.317386216391242 0 0 0 0 -64.841466155165108 -68.746076560764777 0 -68.746076560764777 55.846713970036944 0 0 0 0 -87.904772149992823 -79.348136780678487 0 -79.348136780678487 142.24157198983448 0 0 0 0 11.377372234679569 -151.73340457637278 0 -151.73340457637278 118.25161244590709 0 0 0 0 101.96797555770991 -225.32719691614329 0 -225.32719691614329 -71.276523562408329 0 0 0 0 25.116649277484612 -203.06744421155781 0 -203.06744421155781 168.21083641144287 0 0 0 0 -50.221292438603996 -156.2728309942886 0 -156.2728309942886 21.559575339911589 0 0 0 0 384.31662589857751 -299.02874082126255 0 -299.02874082126255 62.06972571606093 0 0 0 0 23.931179893423177 -134.93648615289931 0 -134.93648615289931 177.42251349529397 0 0 0 0 55.646506767846859 -83.107916979886795 0 -83.107916979886795 117.28726985462345 0 0 0 0 27.998416296519046 -67.131125785203139 0 -67.131125785203139 -25.922660020056576 0 0 0 0 14.867938982177293 -62.693851326002914 0 -62.693851326002914 -53.23741515473921 0 0 0 0 7.6058001244491606 -36.038532108304935 0 -36.038532108304935 -117.72690364344453 0 0 0 0 -34.541920276522433 -134.92480446438822 0 -134.92480446438822 -147.00167009260622 0 0 0 0 68.587562732333026 27.080293461953261 0 27.080293461953261 -165.22224637284944 0 0 0 0 68.199172575659759 -2.3922469302851823 0 -2.3922469302851823 -125.59066003059888 0 0 0 0 15.22227874065004 -31.385019447395322 0 -31.385019447395322 -22.810328369054375 0 0 0 0 43.722342350629333 -15.502259687807964 0 -15.502259687807964 -111.88996845579823 0 0 0 0 0.63838080270943465 -6.090436838725509 0 -6.090436838725509 -66.347033516292868 0 0 0 0 27.607149334249698 3.1529591289981909 0 3.1529591289981909 -35.200078841124196 0 0 0 0 9.8945683934434783 -7.2285106406052364 0 -7.2285106406052364 -5.1791899735544575 0 0 0 0 32.9090614171364 -0.96487107024586294 0 -0.96487107024586294 -83.424681984124618 0 0 0 0 -33.46444037296169 -30.766386281029554 0 -30.766386281029554 -90.16524655052126 0 0 0 0 5.9221082856991902 -29.736382888508473 0 -29.736382888508473 -8.2751214952228906 0 0 0 0 3.2336124617359019 -17.824610021380067 0 -17.824610021380067 -49.361837006694259 0 0 0 0 -75.52608620684623 -34.062144574723789 0 -34.062144574723789 -37.24392920516766 0 0 0 0 50.508954106437159 -77.395917490088323 0 -77.395917490088323 -36.254207946949464 0 0 0 0 65.058478183796979 -71.94958103747922 0 -71.94958103747922 -34.922741283211508 0 0 0 0 30.433426845928807 14.732530835303578 0 14.732530835303578 -15.652979967708234 0 0 0 0 2.8529423139178647 -33.013286311240904 0 -33.013286311240904 -3.8833298406779981 0 0 0 0 2.3318793919170275 -21.135884527846429 0 -21.135884527846429 -52.829716999274751 0 0 0 0 8.5786041629638987 -7.3597182590524302 0 -7.3597182590524302 -10.602676119872299 0 0 0 0 2.0150198562687365 -37.148131368258873 0 -37.148131368258873 -42.412267191335559 0 0 0 0 3.637799434014596 -20.253841843215923 0 -20.253841843215923 -38.511356541764144 0 0 0 0 -22.127932000395958 -8.1001527880416688 0 -8.1001527880416688 17.864708101602446 0 0 0 0 18.445984900703479 -68.076115425208627 0 -68.076115425208627 18.919322590270895 0 0 0 0 -0.42666715937957633 -57.7636602933635 0 -57.7636602933635 44.265575163517497 0 0 0 0 45.961516314695473 -71.057450843769402 0 -71.057450843769402 -12.251734687067255 0 0 0 0 16.16205264799828 -58.547660179092418 0 -58.547660179092418 15.008394694927119 0 0 0 0 -125.68058452451805 -114.52670842935186 0 -114.52670842935186 17.705716253212358 0 0 0 0 44.200787476573169 -55.590308100017182 0 -55.590308100017182 -10.689297967517632 0 0 0 0 10.010077157261549 -56.788992592762952 0 -56.788992592762952 -6.9578701467053179 0 0 0 0 72.098915390721231 242.50833207192227 0 242.50833207192227 -0.4240364894940285 0 0 0 0 261.49117556087731 -47.78703599137225 0 -47.78703599137225 -44.797070448534214 0 0 0 0 64.719849397788494 -128.02282281107546 0 -128.02282281107546 78.989263646726613 0 0 0 0 157.51410180806124 31.044522745978611 0 31.044522745978611 -20.196724202891346 0 0 0 0 -10.871493560336603 -55.534450281179943 0 -55.534450281179943 88.532275904653943 0 0 0 0 3.2732576127709763 -0.97995430368523806 0 -0.97995430368523806 0.049078404088064076 0 0 0 0 282.09910676858999 -122.72798545817204 0 -122.72798545817204 -85.071833219524706 0 0 0 0 190.72781273808869 -317.0514244117503 0 -317.0514244117503 -44.085641480218328 0 0 0 0 -5.4350130170023476 -266.59989852557828 0 -266.59989852557828 12.393160946296121 0 0 0 0 22.253716673292729 -35.463506263890849 0 -35.463506263890849 -21.414961565031263 0 0 0 0 11.181195800090791 -8.5263288033620483 0 -8.5263288033620483 -24.64813743213017 0 0 0 0 31.711609519510603 -57.871955228516072 0 -57.871955228516072 34.147959060574067 0 0 0 0 38.878034163244592 -32.215702910583786 0 -32.215702910583786 -14.326306579436277 0 0 0 0 -138.48810777589824 164.11334610619815 0 164.11334610619815 82.069449026566872 0 0 0 0 11.01611907249935 -27.303515496628279 0 -27.303515496628279 45.838405721508025 0 0 0 0 -206.11392945029547 19.556658636538486 0 19.556658636538486 84.322798103370587 0 0 0 0 2.8232959968981142 -18.639039399803565 0 -18.639039399803565 3.2073254643542981 0 0 0 0 13.813246863895586 -8.7017443099752469 0 -8.7017443099752469 -13.793073236645206 0 0 0 0 30.561466759594623 0.87946603864565986 0 0.87946603864565986 -15.32966230045713 0 0 0 0 -96.449760346462426 -49.186115154519939 0 -49.186115154519939 -29.597279565476128 0 0 0 0 8.1299829061089497 -13.647646238985519 0 -13.647646238985519 8.149747770091647 0 0 0 0 8.6915705843130127 -9.3249537206993409 0 -9.3249537206993409 9.9252517671429814 0 0 0 0 13.182516165870766 -28.635480658540473 0 -28.635480658540473 88.228662366454955 0 0 0 0 1.4399608918699442 0.34776958496789057 0 0.34776958496789057 -3.5222517900407411 0 0 0 0 14.670821279448774 -34.365586883478045 0 -34.365586883478045 26.324779026374017 0 0 0 0 1.6554525615783717 -2.5221555719219708 0 -2.5221555719219708 1.0907785436228679 0 0 0 0 24.755914418223256 -21.381445947032262 0 -21.381445947032262 -17.345811910225166 0 0 0 0 16.727309254363263 -47.138317386750487 0 -47.138317386750487 22.649103641932015 0 0 0 0 20.764787738044106 -28.454903597792509 0 -28.454903597792509 -11.420819894348824 0 0 0 0 -11.698307094211486 -46.67584878114485 0 -46.67584878114485 -57.543474998510646 0 0 0 0 23.444441891704628 -45.66804410527584 0 -45.66804410527584 -60.583640640837984 0 0 0 0 11.222920222244284 -21.374024979173555 0 -21.374024979173555 -33.589382857904639 0 0 0 0 -17.695239522010525 -27.451349076051883 0 -27.451349076051883 -34.647603666142459 0 0 0 0 -98.808473114753724 -149.62585184573072 0 -149.62585184573072 21.103601230344793 0 0 0 0 0.94987996191775892 -38.236798414936857 0 -38.236798414936857 -61.116353804321989 0 0 0 0 6.172092849209502 -21.67285999102198 0 -21.67285999102198 -17.109102691122473 0 0 0 0 -11.988633286555668 -48.872060682714462 0 -48.872060682714462 -14.512955475590106 0 0 0 0 2.6671659696985444 -34.912454433811035 0 -34.912454433811035 -67.065725276788726 0 0 0 0 -92.385053139390948 -60.473474463753519 0 -60.473474463753519 68.316909468619997 0 0 0 0 1.8866259891801747 -18.950266017738613 0 -18.950266017738613 9.7839425256679533 0 0 0 0 55.009667965889093 -21.541259006145083 0 -21.541259006145083 -14.930452636290283 0 0 0 0 -19.729133516200818 -57.414137942138041 0 -57.414137942138041 -45.26721224549965 0 0 0 0 -15.833536115046414 -46.928041458442067 0 -46.928041458442067 -18.661183602896745 0 0 0 0 -10.400651210444266 -41.607531043687686 0 -41.607531043687686 -37.487270613484725 0 0 0 0 -29.693407083886996 -37.329827921879769 0 -37.329827921879769 -57.088921599084642 0 0 0 0 -12.409432590648066 -51.167003117738204 0 -51.167003117738204 -47.55884602158585 0 0 0 0 -7.0388828814675435 -57.804974351111014 0 -57.804974351111014 -48.691868292575236 0 0 0 0 -41.404301679620403 -69.195295475015882 0 -69.195295475015882 -49.531835745217904 0 0 0 0 -56.026192992179858 -31.191490042543592 0 -31.191490042543592 16.157109671239596 0 0 0 0 28.365274022758967 -55.338814171662307 0 -55.338814171662307 -85.133145356947352 0 0 0 0 0.69473850820961047 -0.36348632663886349 0 -0.36348632663886349 -1.0432441781881678 0 0 0 0 -15.050500491499406 -28.70545896782096 0 -28.70545896782096 6.9911240873134375 0 0 0 0 8.7460349246157421 -6.8378008606332514 0 -6.8378008606332514 -3.1951390942194848 0 0 0 0 -1.1990435512470867 -33.045362850710262 0 -33.045362850710262 -25.162436154729221 0 0 0 0 -19.050132633783505 -52.223165785128003 0 -52.223165785128003 -19.977297553850804 0 0 0 0 -5.7160459657461615 -51.118747692366014 0 -51.118747692366014 -79.569995357398511 0 0 0 0 -0.81707105379246059 -55.262845564499003 0 -55.262845564499003 -57.727159405806105 0 0 0 0 -28.338096390341889 -72.584270193562588 0 -72.584270193562588 -55.857106778734305 0 0 0 0 -8.6140986740283552 -51.999774424084535 0 -51.999774424084535 -56.673706334273447 0 0 0 0 -0.094452069883118384 -59.137430141236109 0 -59.137430141236109 -54.692995558827533 0 0 0 0 -14.798076670958835 -60.007944923618197 0 -60.007944923618197 -53.947914909746032 0 0 0 0 -3.1766648916727718 -58.993714570210614 0 -58.993714570210614 -52.150293769016571 0 0 0 0 7.9746047990829538 -27.463989034847145 0 -27.463989034847145 -55.378869521049637 0 0 0 0 -9.8524295879069541 -29.619104901612445 0 -29.619104901612445 -7.2956525348517971 0 0 0 0 -0.25542780836622114 -120.40732399209446 0 -120.40732399209446 -155.98854965993701 0 0 0 0 4.2326474771466565 -81.122385221283594 0 -81.122385221283594 -55.354398894454789 0 0 0 0 -38.362307879513537 -80.66154896410626 0 -80.66154896410626 -49.302382130099431 0 0 0 0 -50.048909915978584 -75.175912933222207 0 -75.175912933222207 -8.0780258918275649 0 0 0 0 -46.49732994781516 -40.507093615458871 0 -40.507093615458871 -5.8128398588285108 0 0 0 0 -36.977884057720075 -40.376070728159903 0 -40.376070728159903 -37.686019629745715 0 0 0 0 -30.039559865872434 -48.698976741703518 0 -48.698976741703518 -38.120278571752124 0 0 0 0 -18.068493615235639 -62.159268918820089 0 -62.159268918820089 -37.556513988853112 0 0 0 0 -7.2799850329884066 -54.007396011231322 0 -54.007396011231322 -54.254941861057887 0 0 0 0 -13.409550919677713 -48.481606960995123 0 -48.481606960995123 -54.712208838328934 0 0 0 0 -15.826746339371311 -42.607888396802537 0 -42.607888396802537 -48.426577073099907 0 0 0 0 -16.872870544102625 -63.536639191179347 0 -63.536639191179347 -18.478169572524166 0 0 0 0 -8.6849854132124165 -44.428153911669142 0 -44.428153911669142 -51.244311177215423 0 0 0 0 -9.7187023422793573 -42.573236895613263 0 -42.573236895613263 -61.94091653804935 0 0 0 0 -19.476967196700571 -40.601319126164526 0 -40.601319126164526 -48.927494499508612 0 0 0 0 -11.944303605741879 -48.894844776641548 0 -48.894844776641548 -40.458334807648498 0 0 0 0 11.831152254831977 -67.395894017419778 0 -67.395894017419778 -46.479353968810756 0 0 0 0 -0.7851049750825041 -72.625970384036918 0 -72.625970384036918 -47.120666146178337 0 0 0 0 -9.4615477599436417 -53.891051069025707 0 -53.891051069025707 -57.963933193888806 0 0 0 0 3.9930759429407772 -54.592826687068737 0 -54.592826687068737 -99.212803760470706 0 0 0 0 9.829722003050847 -66.33791595067305 0 -66.33791595067305 -81.831168310651265 0 0 0 0 -12.687375675595831 -44.932200835086405 0 -44.932200835086405 -82.519299509569464 0 0 0 0 -1.3600730860489421 -62.146533168634051 0 -62.146533168634051 -89.637578071869939 0 0 0 0 -0.10002960111160064 -56.31438531475942 0 -56.31438531475942 -101.1820319890976 0 0 0 0 -15.366254280634166 -46.613346273374191 0 -46.613346273374191 -75.75661373132607 0 0 0 0 -8.6439288710389519 -37.672857879417279 0 -37.672857879417279 -91.1312838212325 0 0 0 0 -22.629008540654468 -10.654975304629261 0 -10.654975304629261 -75.005363876072806 0 0 0 0 -8.8498251230194001 -31.163650136943033 0 -31.163650136943033 -125.10378600865806 0 0 0 0 -32.912212147475657 -22.181332896174354 0 -22.181332896174354 -70.586788194301334 0 0 0 0 -32.120383584329829 -29.815467826066197 0 -29.815467826066197 -39.383356307858776 0 0 0 0 -22.972509122293559 -31.171408027450525 0 -31.171408027450525 -72.066584765613698 0 0 0 0 23.569602441917318 -64.558962912391578 0 -64.558962912391578 -27.109625740645114 0 0 0 0 10.023501214178395 -25.295093553249899 0 -25.295093553249899 -161.24225732660852 0 0 0 0 15.234622326588578 -69.710125799698289 0 -69.710125799698289 140.33234988317781 0 0 0 0 -13.131988376230101 -28.856481211624178 0 -28.856481211624178 39.952565474032497 0 0 0 0 3.95860631436517 -72.000009526302165 0 -72.000009526302165 142.56422499105975 0 0 0 0 13.381219594739377 -73.689408196281875 0 -73.689408196281875 140.64726920152316 0 0 0 0 2.0871390732936561 -77.231273089011665 0 -77.231273089011665 -128.12746073580638 0 0 0 0 0.46414406091207638 -53.226980757081037 0 -53.226980757081037 -134.50662196856865 0 0 0 0 -8.8406905012961943 -87.789529756264528 0 -87.789529756264528 -114.70019179079827 0 0 0 0 2.0801101989054587 -64.156868651800323 0 -64.156868651800323 -118.72835324742482 0 0 0 0 -26.262838380345784 -66.032229078562523 0 -66.032229078562523 31.692712097683398 0 0 0 0 -16.210542691857469 -52.36915227983927 0 -52.36915227983927 -7.0445006751312533 0 0 0 0 -9.6372265246754978 -57.062281432001328 0 -57.062281432001328 -86.910918418958317 0 0 0 0 1.3526285875632311 -64.367761083867663 0 -64.367761083867663 -38.218407516407751 0 0 0 0 -34.183754808967933 -88.156273085449357 0 -88.156273085449357 -78.71564619343917 0 0 0 0 -5.242978210189424 -17.982819902932604 0 -17.982819902932604 7.8969110636700961 0 0 0 0 -5.8072869913630711 -39.412344644104451 0 -39.412344644104451 -6.2239116002601804 0 0 0 0 -15.464608366317407 -30.586459275500602 0 -30.586459275500602 62.630632323685859 0 0 0 0 -7.8714439637707585 -6.7748050485710394 0 -6.7748050485710394 9.1553510539240683 0 0 0 0 -28.372310714072228 -18.262723835250654 0 -18.262723835250654 53.374921661597909 0 0 0 0 -7.0614299115532049 -38.796760582292336 0 -38.796760582292336 38.621331130612816 0 0 0 0 -9.4773643519840824 -20.507138305243345 0 -20.507138305243345 25.048342712756664 0 0 0 0 -1.22175093357977 -13.291081894505766 0 -13.291081894505766 8.8207282962033986 0 0 0 0 30.858499064437638 -47.008426662359852 0 -47.008426662359852 1.2422051374305738 0 0 0 0 9.9906125929983318 -45.611292098055856 0 -45.611292098055856 26.797457523265621 0 0 0 0 -11.079992430491648 -22.585815264388742 0 -22.585815264388742 16.562930141295396 0 0 0 0 -36.892608254971492 -21.33787079371541 0 -21.33787079371541 25.11010165301559 0 0 0 0 14.737273573819039 -53.933906634243613 0 -53.933906634243613 26.03448410967394 0 0 0 0 10.863510058632528 -53.455352389015388 0 -53.455352389015388 35.585936855371983 0 0 0 0 2.4905323069797305 -62.68289509269016 0 -62.68289509269016 27.169546240809723 0 0 0 0 -5.5708676768699661 -35.140221590056171 0 -35.140221590056171 25.756158153977594 0 0 0 0 -2.538640158745693 -46.721037539953613 0 -46.721037539953613 68.086691940014134 0 0 0 0 -2.5774445985771308 -60.080204995987515 0 -60.080204995987515 81.544006672411342 0 0 0 0 0.82762736446238705 -53.442017932407907 0 -53.442017932407907 47.984891412867 0 0 0 0 -1.7278638388088439 -64.375486175053084 0 -64.375486175053084 50.777338354179847 0 0 0 0 5.332129669663118 -66.36061150642854 0 -66.36061150642854 30.614723740582122 0 0 0 0 10.387160495540229 -64.502549870088842 0 -64.502549870088842 34.474695846976829 0 0 0 0 -5.051456112320011 -63.415876601211494 0 -63.415876601211494 61.076801390211585 0 0 0 0 -3.4330395448123454 -56.071034993383364 0 -56.071034993383364 104.16998157779744 0 0 0 0 10.902122555788083 -54.339538013973652 0 -54.339538013973652 59.274553503193602 0 0 0 0 13.926048046858341 -28.707184169359607 0 -28.707184169359607 103.43706394243054 0 0 0 0 -4.1153003095864875 -0.4576603690660761 0 -0.4576603690660761 -0.61036459532997878 0 0 0 0 -6.3519164619156072 -39.979972735975025 0 -39.979972735975025 139.98629222914315 0 0 0 0 -0.81048600619396893 -21.699143521262158 0 -21.699143521262158 89.065565625530326 0 0 0 0 -0.80868862532952335 -27.061187744613562 0 -27.061187744613562 51.65308256859862 0 0 0 0 14.571174193122715 -54.427622421000706 0 -54.427622421000706 -138.18432862104964 0 0 0 0 -14.553842930170504 -78.736023997615121 0 -78.736023997615121 7.258502343276632 0 0 0 0 -58.819428958202479 -73.55120209366396 0 -73.55120209366396 34.031764961750923 0 0 0 0 -69.042515031054791 -143.76767693647707 0 -143.76767693647707 -233.62107070349884 0 0 0 0 8.0993693385134975 2.1450077094377775 0 2.1450077094377775 -54.885744650870038 0 0 0 0 -67.937996897482662 1.5594496947633161 0 1.5594496947633161 27.106384933616937 0 0 0 0 -6.6916316517526866 -7.5544051036267774 0 -7.5544051036267774 9.9706802865448481 0 0 0 0 -83.514183009236149 -171.3724172850325 0 -171.3724172850325 80.909513738763053 0 0 0 0 -2.3252388952278125 -6.7244155334919924 0 -6.7244155334919924 -38.050276729132747 0 0 0 0 -55.525728194392286 -20.240603905906028 0 -20.240603905906028 244.93534221130722 0 0 0 0 -1.3829664023863018 -0.89169226304986182 0 -0.89169226304986182 0.13796210128355302 0 0 0 0 -109.50466149833301 -96.727144265107199 0 -96.727144265107199 137.69884497740713 0 0 0 0 -12.915925872646767 -76.166523635976773 0 -76.166523635976773 131.01224253793771 0 0 0 0 0.63938704481370223 -65.020990299130062 0 -65.020990299130062 65.98338776127639 0 0 0 0 6.260333142708987 -67.259656190817623 0 -67.259656190817623 66.271757589944173 0 0 0 0 69.107003886430903 -100.94801091035697 0 -100.94801091035697 -25.159335899490543 0 0 0 0 49.458432206258294 -168.91131048184252 0 -168.91131048184252 40.537207912970189 0 0 0 0 -44.411674221453723 -133.06496428198443 0 -133.06496428198443 115.57857299731404 0 0 0 0 -46.861731626617257 -135.04453500304589 0 -135.04453500304589 116.85716772667547 0 0 0 0 1.9756854299776023 -255.05613921793702 0 -255.05613921793702 107.48235052199016 0 0 0 0 -38.678983371257345 -178.60584627962089 0 -178.60584627962089 266.08887321962538 0 0 0 0 71.473560109404389 -230.09312895236144 0 -230.09312895236144 80.942307584919035 0 0 0 0 77.812549324618885 -166.96633756395022 0 -166.96633756395022 -234.5829895460065 0 0 0 0 151.00882589019602 -278.87872186439563 0 -278.87872186439563 -120.26891950039862 0 0 0 0 113.75152061819244 -539.70923923377995 0 -539.70923923377995 -86.762718150979708 0 0 0 0 -20.006172940415127 -273.08810473531048 0 -273.08810473531048 624.8988378660797 0 0 0 0 46.020324304998212 -63.665491301057045 0 -63.665491301057045 231.68763054902956 0 0 0 0 247.96078861813294 52.335265035853354 0 52.335265035853354 292.72594716005551 0 0 0 0 25.789830306439399 4.2148758493567584 0 4.2148758493567584 133.55608387739994 0 0 0 0 6.8091795759528395 -39.849130241096645 0 -39.849130241096645 61.356754683809413 0 0 0 0 11.239348981034709 36.003114979917882 0 36.003114979917882 34.3801579355586 0 0 0 0 -9.4282896640415856 7.1176226033376224 0 7.1176226033376224 -5.2121782659523888 0 0 0 0 63.822756126370223 24.854581844068889 0 24.854581844068889 -32.404200163844507 0 0 0 0 55.577278696822759 30.975337579548068 0 30.975337579548068 -38.393862942095438 0 0 0 0 52.712841160450807 -13.133774820001236 0 -13.133774820001236 5.2702993858838454 0 0 0 0 -74.99091391222828 -92.202426728084902 0 -92.202426728084902 -3.748040653008502 0 0 0 0 101.81655231721379 68.95942713977638 0 68.95942713977638 76.089831523149769 0 0 0 0 10.296095049035543 -4.3439029249491767 0 -4.3439029249491767 1.7010591879783732 0 0 0 0 56.859716106948326 107.38880077626527 0 107.38880077626527 -137.51678196219291 0 0 0 0 194.36389569999301 78.548037721717265 0 78.548037721717265 -169.07266043851268 0 0 0 0 -27.898485305762733 25.315155382064404 0 25.315155382064404 -50.809218117967248 0 0 0 0 71.395327572055976 -10.473059131039918 0 -10.473059131039918 -41.347722120659455 0 0 0 0 160.3791355818903 84.504781068990269 0 84.504781068990269 -115.76182910192802 0 0 0 0 170.64643001338482 54.988630280986399 0 54.988630280986399 -119.90572077446996 0 0 0 0 -31.421593396295066 -88.469025390135357 0 -88.469025390135357 -201.57162070022605 0 0 0 0 -2.1534653803610126 -197.75290850228248 0 -197.75290850228248 -200.93801567265473 0 0 0 0 61.971178834315651 -130.11291655410605 0 -130.11291655410605 -144.67493177480355 0 0 0 0 57.309435933122586 -145.05119740227747 0 -145.05119740227747 -187.59712813858096 0 0 0 0 221.26960556090944 -46.901175932613342 0 -46.901175932613342 -13.372539272852009 0 0 0 0 202.11252741152566 -186.35712982391487 0 -186.35712982391487 -207.78840128608135 0 0 0 0 2.2965148527509598 -0.60958652623360976 0 -0.60958652623360976 -0.4492727861409378 0 0 0 0 234.13256376974778 -113.0260217681207 0 -113.0260217681207 -71.228948809606663 0 0 0 0 297.76514768265042 215.16692966132177 0 215.16692966132177 82.080457199424927 0 0 0 0 63.521006455550832 -73.989661621471669 0 -73.989661621471669 -18.792810328028281 0 0 0 0 61.305096901392972 -59.543496356305695 0 -59.543496356305695 53.57209036092172 0 0 0 0 3.7972676625213353 -57.637210826171213 0 -57.637210826171213 31.271725838832936 0 0 0 0 50.788287044162644 -62.903243410211871 0 -62.903243410211871 28.687526013898605 0 0 0 0 14.821895997444699 -78.529371865145549 0 -78.529371865145549 -3.3359782495754189 0 0 0 0 5.6064394450368127 -49.713886725687189 0 -49.713886725687189 -27.49779684470559 0 0 0 0 -9.854456470588957 -110.99438528952123 0 -110.99438528952123 -66.541946265402657 0 0 0 0 26.862356527681186 -139.70787755692254 0 -139.70787755692254 -216.91305609001574 0 0 0 0 -34.203926092570327 -131.34694848584695 0 -131.34694848584695 -76.464392942838458 0 0 0 0 42.990036006858823 -15.149597135698436 0 -15.149597135698436 4.5083946803252388 0 0 0 0 51.267180634520628 -3.8111143199821527 0 -3.8111143199821527 -125.22243031705511 0 0 0 0 94.892437632632209 -175.80355522925674 0 -175.80355522925674 -78.120931296449271 0 0 0 0 121.36055498188944 -144.68814014609052 0 -144.68814014609052 -302.98923913750332 0 0 0 0 29.380326906916167 -10.945031229266775 0 -10.945031229266775 3.4136484859917715 0 0 0 0 224.49742632755988 66.34512253797584 0 66.34512253797584 -85.32515264837275 0 0 0 0 -98.938040394652489 147.31414221969317 0 147.31414221969317 105.31015508805285 0 0 0 0 14.917531921344562 -175.96101687016198 0 -175.96101687016198 -236.40514067097683 0 0 0 0 217.00889337463923 98.501166815112811 0 98.501166815112811 22.435728075801308 0 0 0 0 152.04333234422302 -31.569116562255658 0 -31.569116562255658 -3.8730174002703279 0 0 0 0 410.74781480098864 -30.986123495262291 0 -30.986123495262291 -324.16397835290991 0 0 0 0 50.843145165180267 -15.786316034439018 0 -15.786316034439018 4.9045968031430576 0 0 0 0 32.694778829631105 -81.176538206491387 0 -81.176538206491387 -110.90339987781044 0 0 0 0 1.0233646881788445 -87.646662046874553 0 -87.646662046874553 -84.555184923650813 0 0 0 0 -11.168760981618107 -75.61025157991935 0 -75.61025157991935 -71.534765396354487 0 0 0 0 6.7119456279906444 -54.297425027871213 0 -54.297425027871213 -121.35746270923846 0 0 0 0 -7.8672093881250476 -64.713958208121767 0 -64.713958208121767 -10.006620581832976 0 0 0 0 3.9016115838021506 -65.970425384330156 0 -65.970425384330156 -66.515275608602678 0 0 0 0 -0.29142089775086788 -92.264831915160357 0 -92.264831915160357 -45.705908377000014 0 0 0 0 -7.7108898769110965 -66.008560515252611 0 -66.008560515252611 35.436119646226871 0 0 0 0 3.4819850534513535 -77.866599123861306 0 -77.866599123861306 3.2332953903169255 0 0 0 0 6.6988697165579651 -73.204503488563205 0 -73.204503488563205 4.2397636768582743 0 0 0 0 -3.8714429905594443 -68.853478788871143 0 -68.853478788871143 31.218407388041669 0 0 0 0 -1.0935509118717164 -67.481983350779046 0 -67.481983350779046 -1.0975850931499735 0 0 0 0 13.506065905407013 -60.750682760673953 0 -60.750682760673953 1.9133288388838992 0 0 0 0 9.1201802763480373 -80.617185700935806 0 -80.617185700935806 -35.477069672379002 0 0 0 0 18.130684537423804 -79.629694735802332 0 -79.629694735802332 -84.247829914223985 0 0 0 0 17.080784523423063 -60.926872971678677 0 -60.926872971678677 -39.081143585921382 0 0 0 0 31.011665871730656 -40.036487743294856 0 -40.036487743294856 -23.657396455801063 0 0 0 0 33.314661249245546 -51.179859958592715 0 -51.179859958592715 -95.635962978099997 0 0 0 0 43.016824913021992 -47.619928930653259 0 -47.619928930653259 -28.519855020465911 0 0 0 0 18.624916849880719 -71.036678818077235 0 -71.036678818077235 -15.839880090519728 0 0 0 0 33.103559771247092 -52.150347746319312 0 -52.150347746319312 3.976783174335651 0 0 0 0 15.407815248727275 -65.28004836938635 0 -65.28004836938635 11.367492203047732 0 0 0 0 7.8553121676304727 -64.514560262810846 0 -64.514560262810846 27.50954087561604 0 0 0 0 66.846450325745536 -49.982133509061896 0 -49.982133509061896 -14.903901526224217 0 0 0 0 22.063353236508192 -52.248308760868895 0 -52.248308760868895 26.33033926794451 0 0 0 0 -3.8982965949398913 -25.598236550151498 0 -25.598236550151498 7.9540343212034372 0 0 0 0 35.160962388159533 -40.855257925715705 0 -40.855257925715705 17.234459151331976 0 0 0 0 51.011723869675478 -19.748936252564988 0 -19.748936252564988 3.4210517581142952 0 0 0 0 40.964798142515065 -49.306937067543913 0 -49.306937067543913 -15.490778926017811 0 0 0 0 46.914395705426614 -56.385177930279497 0 -56.385177930279497 -16.443240888511355 0 0 0 0 8.9827611992732272 -4.0358569831078057 0 -4.0358569831078057 -9.0912354166648583 0 0 0 0 94.230365982019066 32.641040596490711 0 32.641040596490711 -116.40683007198095 0 0 0 0 8.0674633916523675 -3.351460585910246 0 -3.351460585910246 -0.3198211377938307 0 0 0 0 17.147081342014644 -0.21926708193859668 0 -0.21926708193859668 -30.213837955063354 0 0 0 0 -128.17719326227234 0.70686888142518001 0 0.70686888142518001 120.6357820428675 0 0 0 0 2.0535339772934407 -1.5780802944262433 0 -1.5780802944262433 1.0058885236170454 0 0 0 0 44.480511423818825 -53.245099150080932 0 -53.245099150080932 -2.7764446773871896 0 0 0 0 -11.975110550381942 3.1110253503356944 0 3.1110253503356944 26.798900162481004 0 0 0 0 34.259418184863534 -24.328546680466388 0 -24.328546680466388 21.998827795565376 0 0 0 0 6.3891353273920686 8.7011187298339792 0 8.7011187298339792 7.8232114166166866 0 0 0 0 14.204040571506994 -9.8631296584771917 0 -9.8631296584771917 6.5235031796619296 0 0 0 0 11.484914462598681 11.748739715003467 0 11.748739715003467 -21.578555196709203 0 0 0 0 9.7145625813691368 -7.1228561428051762 0 -7.1228561428051762 32.960879251651932 0 0 0 0 17.668854557723535 -32.532586088014796 0 -32.532586088014796 30.094632768722022 0 0 0 0 76.897890207097589 -32.33431825331354 0 -32.33431825331354 28.27831956713635 0 0 0 0 37.285223770893026 -16.037301742913769 0 -16.037301742913769 44.678577831778966 0 0 0 0 30.048013957898547 -18.993460226842217 0 -18.993460226842217 40.325659392758098 0 0 0 0 54.947938701590829 -51.287852631730857 0 -51.287852631730857 16.605935981104267 0 0 0 0 31.610257138423094 -33.190151774573678 0 -33.190151774573678 2.593577526469744 0 0 0 0 38.774315491842572 -81.387256805028301 0 -81.387256805028301 -15.515630119360139 0 0 0 0 -19.791933648004488 -61.203244686612379 0 -61.203244686612379 -0.019768410529650282 0 0 0 0 71.269278266488982 -48.658420169980673 0 -48.658420169980673 -0.0061227863479871303 0 0 0 0 58.066364965417961 -41.409422960055963 0 -41.409422960055963 46.927258049854572 0 0 0 0 111.31336762268984 -56.746566468355013 0 -56.746566468355013 -0.085271122141421074 0 0 0 0 95.980679211641473 -61.774623348606838 0 -61.774623348606838 0.7493490715205553 0 0 0 0 111.29765582591517 -49.211720823115684 0 -49.211720823115684 -0.02853403280096245 0 0 0 0 134.92333536565485 -39.884014310463101 0 -39.884014310463101 0.035706144968571607 0 0 0 0 135.50312877426768 -83.652506583701324 0 -83.652506583701324 29.727975568726833 0 0 0 0 47.037203075626167 -22.434864061862754 0 -22.434864061862754 69.837310005029394 0 0 0 0 81.165797014858981 -69.515646722426027 0 -69.515646722426027 81.104027107390721 0 0 0 0 89.94655671799228 9.3071581401827643 0 9.3071581401827643 92.957272223924519 0 0 0 0 59.570662536938471 71.011614119204751 0 71.011614119204751 22.562874154613382 0 0 0 0 71.830946865769874 -96.718024192578014 0 -96.718024192578014 243.34959615682601 0 0 0 0 8.2295826450008462 79.079488595192743 0 79.079488595192743 202.53505482913897 0 0 0 0 2.9905655984388488 -2.0829514449232249 0 -2.0829514449232249 0.0071977543814760736 0 0 0 0 85.499889166672801 37.096581959176547 0 37.096581959176547 -76.560422389345149 0 0 0 0 -55.822764114571328 -139.86486297575357 0 -139.86486297575357 427.72888777378103 0 0 0 0 54.439924144850011 -39.792012670710392 0 -39.792012670710392 61.888325489635463 0 0 0 0 -50.321363658038536 13.023085652050213 0 13.023085652050213 63.351013961742865 0 0 0 0 273.55777117733669 -109.53608280379558 0 -109.53608280379558 25.400910566328093 0 0 0 0 98.217205111632211 -35.753009817515704 0 -35.753009817515704 25.009744574539098 0 0 0 0 94.439994730711987 -44.901127937577257 0 -44.901127937577257 5.3867216633698263 0 0 0 0 61.948570935182033 -50.017997593467953 0 -50.017997593467953 0.03822407467305311 0 0 0 0 89.934168138522182 -29.717095754509046 0 -29.717095754509046 -4.6131437121439376 0 0 0 0 85.367303536040708 -53.30981286477072 0 -53.30981286477072 5.8792967150511686 0 0 0 0 37.683826411110203 -75.474172070542409 0 -75.474172070542409 -10.391166849910405 0 0 0 0 18.538661477588903 -20.148576055067679 0 -20.148576055067679 -3.4252369880241531 0 0 0 0 14.970440001665793 -43.228533345195956 0 -43.228533345195956 3.2242665393132484 0 0 0 0 2.6276717993532657 -50.373966014791222 0 -50.373966014791222 -0.13438913684740084 0 0 0 0 -17.154922973404609 -13.679248904216365 0 -13.679248904216365 -19.680045641398465 0 0 0 0 13.492204122822159 -23.219863474240128 0 -23.219863474240128 87.716771158477059 0 0 0 0 7.7026811839314178 -2.122493130453222 0 -2.122493130453222 80.080032058191136 0 0 0 0 0.21857091489528102 9.747045309421992 0 9.747045309421992 125.0102743289317 0 0 0 0 0.014231930983015673 -1.854197812578704 0 -1.854197812578704 1.1979004560839215 0 0 0 0 103.50203187575971 -136.35475632047201 0 -136.35475632047201 60.814700971124694 0 0 0 0 34.977711407655079 -49.470335565920323 0 -49.470335565920323 -90.084104166904581 0 0 0 0 -55.17352554135141 -4.9162055620909086 0 -4.9162055620909086 196.3215812210874 0 0 0 0 -83.65788933326985 -66.918750988257671 0 -66.918750988257671 326.0858885960115 0 0 0 0 8.8107857417243878 -3.5736005493949392 0 -3.5736005493949392 -0.15586400214262142 0 0 0 0 41.228727654601244 -10.85948837633623 0 -10.85948837633623 -39.318911256006686 0 0 0 0 13.775720395299714 -2.3497739004509839 0 -2.3497739004509839 -0.73542163568224339 0 0 0 0 7.9227270489936927 -41.65762809419175 0 -41.65762809419175 61.883531529056199 0 0 0 0 -85.446623038078542 -55.177846823149594 0 -55.177846823149594 284.12196241751371 0 0 0 0 16.863549042780505 5.8714801593669108 0 5.8714801593669108 47.643469143964467 0 0 0 0 -21.754421477184223 -46.072293671830266 0 -46.072293671830266 125.92220695609137 0 0 0 0 -97.916159867356555 -128.63055557681582 0 -128.63055557681582 -66.106478206747852 0 0 0 0 -85.628820619416729 -130.83119952548441 0 -130.83119952548441 -74.544649254072283 0 0 0 0 -85.246926263273963 -125.75328936042206 0 -125.75328936042206 -61.743112754098547 0 0 0 0 -94.913071780496466 -139.32698416427957 0 -139.32698416427957 -75.620638475615124 0 0 0 0 -86.572485229004997 -109.94417563366005 0 -109.94417563366005 -94.534090387296601 0 0 0 0 -86.362557380148246 -118.61441897010445 0 -118.61441897010445 -64.893829888060282 0 0 0 0 -79.433779159806363 -113.46334204099912 0 -113.46334204099912 -67.271245088893238 0 0 0 0 -79.2708958884391 -109.37577095479173 0 -109.37577095479173 -81.93579783878522 0 0 0 0 15.863175376879354 -146.94653961930089 0 -146.94653961930089 -70.355156015320972 0 0 0 0 -67.50569527043308 -88.869030477790147 0 -88.869030477790147 -46.981242314606789 0 0 0 0 -78.395381638629942 -130.88917003382085 0 -130.88917003382085 -35.177394762533368 0 0 0 0 -81.550722431186955 -118.64103559345313 0 -118.64103559345313 -73.471343881479697 0 0 0 0 -110.34760317374867 -116.44576336496539 0 -116.44576336496539 -70.581022373346059 0 0 0 0 -110.14603397473775 -167.21754143303042 0 -167.21754143303042 -117.18369435537898 0 0 0 0 -62.999755085421498 -129.05220043518784 0 -129.05220043518784 -159.15126024426718 0 0 0 0 83.57667689218664 -230.45466647906142 0 -230.45466647906142 -164.5407206886739 0 0 0 0 -17.800229016453159 -200.90013231002013 0 -200.90013231002013 -16.768491781309422 0 0 0 0 8.2900329638967492 -70.848815630311947 0 -70.848815630311947 -30.560543666142621 0 0 0 0 -75.60181212174848 -110.60318327139248 0 -110.60318327139248 -121.25203329979558 0 0 0 0 31.753793224889343 -378.4941287965994 0 -378.4941287965994 -408.04357136439285 0 0 0 0 -3.2932830310218568 -101.353937656786 0 -101.353937656786 -318.25121362897335 0 0 0 0 82.187828964993912 -217.03454056146438 0 -217.03454056146438 -214.49785327061181 0 0 0 0 -148.16912631861942 -142.28300328062596 0 -142.28300328062596 -132.62419852759922 0 0 0 0 -138.86260414668504 -105.17167773823166 0 -105.17167773823166 -158.93583574288994 0 0 0 0 8.6470040683989282 -58.82697849249962 0 -58.82697849249962 179.52633803976278 0 0 0 0 4.2602271803284921 -6.9651282514217598 0 -6.9651282514217598 3.9477618806414014 0 0 0 0 -83.74005132693469 -181.21557461685734 0 -181.21557461685734 -230.35682322251523 0 0 0 0 -52.943600118633185 -105.99917511828244 0 -105.99917511828244 -152.39829487950192 0 0 0 0 -105.71767888926672 -143.93503406147875 0 -143.93503406147875 -81.128565282058844 0 0 0 0 -51.741897141065238 -82.010638439944159 0 -82.010638439944159 -65.731775678515987 0 0 0 0 -53.659435134848536 -82.157136693793291 0 -82.157136693793291 -62.597852682003577 0 0 0 0 -67.588788981587527 -111.80328148375565 0 -111.80328148375565 -83.932638167520054 0 0 0 0 28.543896204447265 11.778063617162843 0 11.778063617162843 72.987477835427853 0 0 0 0 7.5157697140064741 -8.6521694174347061 0 -8.6521694174347061 4.8907294668614014 0 0 0 0 29.494358139647375 -27.440305713382259 0 -27.440305713382259 30.637932988232933 0 0 0 0 -13.376990711838516 -33.039333127861028 0 -33.039333127861028 30.040479942813363 0 0 0 0 24.190007758315915 23.018817009840859 0 23.018817009840859 -0.93919769394415198 0 0 0 0 -0.47644598397164373 9.9501552629881189 0 9.9501552629881189 62.93447520484915 0 0 0 0 33.827911731053973 -0.5385446110740304 0 -0.5385446110740304 28.984020129078999 0 0 0 0 19.400848856546872 -21.48154472301394 0 -21.48154472301394 21.190695698562195 0 0 0 0 33.765065309355165 -6.9128421226833723 0 -6.9128421226833723 35.152111307281302 0 0 0 0 -0.091014399974895355 -0.57478002707068754 0 -0.57478002707068754 -0.64911572185918232 0 0 0 0 -10.10201080151819 -4.0281852316184086 0 -4.0281852316184086 -10.960549458905007 0 0 0 0 -8.7864762270191932 -3.8911513271214062 0 -3.8911513271214062 10.014433398733672 0 0 0 0 55.397067153673561 -21.985388195487758 0 -21.985388195487758 -33.440304208128509 0 0 0 0 10.701136283807323 -9.720371560515531 0 -9.720371560515531 4.0395269581866344 0 0 0 0 1.8619878360277653 -4.2736281706384034 0 -4.2736281706384034 -15.581116305053911 0 0 0 0 -23.64156432330492 -74.170917159455712 0 -74.170917159455712 -62.946918561778148 0 0 0 0 -73.719796624979836 -88.698627130005661 0 -88.698627130005661 -30.693333903502207 0 0 0 0 -21.57564393013854 -3.8954962725838413 0 -3.8954962725838413 6.0147678582143271 0 0 0 0 -24.981540727112588 -5.3286861145097646 0 -5.3286861145097646 6.4735729842723231 0 0 0 0 -15.692610087349749 -5.4165274018523633 0 -5.4165274018523633 4.2244178869877942 0 0 0 0 -14.271565048271896 -8.4835926921405189 0 -8.4835926921405189 2.1659234197650221 0 0 0 0 3.1788354691414007 -0.78838307286328302 0 -0.78838307286328302 -1.0302418400099782 0 0 0 0 20.898692357006439 -21.143011490938079 0 -21.143011490938079 24.502671787362488 0 0 0 0 5.7960546900249028 -2.8742639863521617 0 -2.8742639863521617 25.037673231045346 0 0 0 0 5.6764755769063413 -11.615403685755155 0 -11.615403685755155 -0.99237794806685997 0 0 0 0 9.8570093411612696 -8.886417012461834 0 -8.886417012461834 2.4250773042148381 0 0 0 0 7.8668050200154056 -5.3041993003585048 0 -5.3041993003585048 -2.5302904865402809 0 0 0 0 -1.0259513175296746 -8.1196014118249877 0 -8.1196014118249877 3.5929083015163599 0 0 0 0 -18.304418241026724 -8.7347357178259699 0 -8.7347357178259699 2.35018347724872 0 0 0 0 10.6859825517422 -14.283921206697414 0 -14.283921206697414 0.3134376257439726 0 0 0 0 22.462065683834393 -9.4263404642847917 0 -9.4263404642847917 -6.6675639223278438 0 0 0 0 -23.044051758453861 -7.456924414880632 0 -7.456924414880632 3.9228742649647756 0 0 0 0 9.8250712945136911 -1.2846604635433323 0 -1.2846604635433323 -11.752992183683091 0 0 0 0 18.325119184595678 -11.045467835177988 0 -11.045467835177988 -6.1001265524246264 0 0 0 0 3.6199373788313736 -1.0844730388229493 0 -1.0844730388229493 -3.3415883117658893 0 0 0 0 16.627550522170168 -18.793285364477924 0 -18.793285364477924 -3.0622812586589134 0 0 0 0 3.1492293889350549 -4.6294036123508704 0 -4.6294036123508704 4.2579961012015701 0 0 0 0 -5.2499310213706849 1.815724081989174 0 1.815724081989174 -9.6154418449768855 0 0 0 0 -189.89565326284082 -57.220060067800659 0 -57.220060067800659 7.8696384215397757 0 0 0 0 -97.146843258675062 -110.67138708830066 0 -110.67138708830066 -41.566272327996558 0 0 0 0 -72.172903163208503 -100.35972148267319 0 -100.35972148267319 -51.672768478012586 0 0 0 0 -100.5228017716654 -52.215851528737403 0 -52.215851528737403 -9.0790644219841852 0 0 0 0 -24.890690689208895 6.0706827984031406 0 6.0706827984031406 10.954782379601966 0 0 0 0 24.576707918253305 -28.931839769473299 0 -28.931839769473299 -7.7663713560214092 0 0 0 0 2.9412144526764781 -3.0662548332864574 0 -3.0662548332864574 -0.88384703789344599 0 0 0 0 0.67879980466613432 -0.10685028046873413 0 -0.10685028046873413 -1.7270131610723638 0 0 0 0 19.371408215266456 -82.564697657138822 0 -82.564697657138822 -132.86718545960321 0 0 0 0 -29.743468618650695 -20.805514017232781 0 -20.805514017232781 0.45561534332591691 0 0 0 0 -83.636310962133393 -110.90152341398425 0 -110.90152341398425 -134.16027736467549 0 0 0 0 -134.66881981177085 -161.42764380485096 0 -161.42764380485096 -106.4464938960009 0 0 0 0 -110.99360176538539 -102.33051154864006 0 -102.33051154864006 -51.946319167363981 0 0 0 0 -133.83726411926 -74.877916549808106 0 -74.877916549808106 -70.934853203645616 0 0 0 0 -113.2361994222365 -121.86189074568392 0 -121.86189074568392 -37.862433646283534 0 0 0 0 -151.79642386388105 -111.64528197924847 0 -111.64528197924847 -29.275009962249896 0 0 0 0 -99.206222050775978 -109.13003360349649 0 -109.13003360349649 -34.094886570572271 0 0 0 0 -126.49848215470138 -97.804341748389561 0 -97.804341748389561 -37.108410142181128 0 0 0 0 -129.16969807155147 -112.27124759778235 0 -112.27124759778235 -23.359245640815061 0 0 0 0 -109.44720620963108 -106.94417409120069 0 -106.94417409120069 -23.833670151833758 0 0 0 0 -0.04026343938421828 0.42471470306126236 0 0.42471470306126236 -2.7455426567973973 0 0 0 0 15.836764491124086 -15.259879441753583 0 -15.259879441753583 18.219109308258339 0 0 0 0 -127.89040020317702 -39.494600115706817 0 -39.494600115706817 13.195063592473161 0 0 0 0 -21.481119286013381 -45.906466475073103 0 -45.906466475073103 -38.66962929264082 0 0 0 0 -239.93328156561438 -83.993203621408611 0 -83.993203621408611 -0.74930800882066251 0 0 0 0 53.522790227528276 -26.634442177744859 0 -26.634442177744859 -7.0734269733111432 0 0 0 0 16.345787893044417 -26.811508894343206 0 -26.811508894343206 5.4627377819779213 0 0 0 0 0.29817864432554941 0.68855633111004977 0 0.68855633111004977 -1.2861573518968044 0 0 0 0 5.6294579814521057 -83.391648657666337 0 -83.391648657666337 -49.688588668876037 0 0 0 0 -151.30891643796895 -125.05946259593838 0 -125.05946259593838 -56.416184236884874 0 0 0 0 -126.14574320726774 -63.965981658545843 0 -63.965981658545843 -41.423194032227912 0 0 0 0 -112.08138653403694 -108.69653915257004 0 -108.69653915257004 -4.6333639761523955 0 0 0 0 -121.31789156533432 -108.69474909141718 0 -108.69474909141718 -15.115054681406036 0 0 0 0 -134.53385965502457 -84.639894111605827 0 -84.639894111605827 0.0065365857080905698 0 0 0 0 -111.59517896220223 -96.638724213757087 0 -96.638724213757087 -0.022220008406293346 0 0 0 0 -128.13370948493684 -77.56273543638963 0 -77.56273543638963 -21.850993384945923 0 0 0 0 -89.221706647868359 -73.89662090089405 0 -73.89662090089405 2.9626081211536075 0 0 0 0 -65.542546116459448 -95.098706862477229 0 -95.098706862477229 0.055376775129843736 0 0 0 0 -84.186930180028583 -78.871110025231246 0 -78.871110025231246 20.50730681650748 0 0 0 0 -95.380251207454876 -107.45593033054683 0 -107.45593033054683 -9.4189894228657067 0 0 0 0 -108.85118063107612 -94.045688381843092 0 -94.045688381843092 -22.5673096873943 0 0 0 0 -70.686435444832114 -112.35904297890738 0 -112.35904297890738 -19.745475146180979 0 0 0 0 -90.729587086337915 -113.92035056000532 0 -113.92035056000532 -17.126310600666329 0 0 0 0 -86.107601768211225 -104.99736571055291 0 -104.99736571055291 -66.577454144084186 0 0 0 0 -107.70669301104681 -112.54967573751492 0 -112.54967573751492 -20.199823123394253 0 0 0 0 0.51172329369823299 0.3607472184335343 0 0.3607472184335343 -1.2199566209438331 0 0 0 0 148.49204463762754 -100.75289491749572 0 -100.75289491749572 -73.967681271067704 0 0 0 0 -87.825609301788518 -130.57458754192703 0 -130.57458754192703 -73.89539372922809 0 0 0 0 -154.83519263898535 -99.848086257559771 0 -99.848086257559771 10.496590162780194 0 0 0 0 -58.651173566553098 -39.708561460211058 0 -39.708561460211058 30.363720438548626 0 0 0 0 0.40264077736704251 -0.0078407924036802967 0 -0.0078407924036802967 -1.6944528944788999 0 0 0 0 61.673418992870552 -76.358883628422518 0 -76.358883628422518 6.3869272786614602 0 0 0 0 -13.694709025150814 -75.981882995602064 0 -75.981882995602064 -10.546836492751027 0 0 0 0 -7.6987457482894115 -39.242666045956867 0 -39.242666045956867 35.451895403375602 0 0 0 0 112.16589604033871 -80.667035486743771 0 -80.667035486743771 -0.023128027849452337 0 0 0 0 0.54841294158118303 0.49793068138513519 0 0.49793068138513519 -1.1591752874467716 0 0 0 0 -186.03227631834238 -74.337085598441263 0 -74.337085598441263 29.362012760422658 0 0 0 0 -73.12642048406201 -164.59030015546523 0 -164.59030015546523 0.015530874468822731 0 0 0 0 -49.136174375079008 -132.52283148214701 0 -132.52283148214701 8.859903523716639 0 0 0 0 -3.5825907297978574 -142.67038149302425 0 -142.67038149302425 -12.207920333567017 0 0 0 0 6.4777723945148864 -53.532755770476797 0 -53.532755770476797 25.237546336600644 0 0 0 0 33.766803566275485 -166.96339500135036 0 -166.96339500135036 -0.054458136888570152 0 0 0 0 -6.6477598731225953 -149.96488704767216 0 -149.96488704767216 6.4760031244259153 0 0 0 0 33.657598330531528 -147.92710235573759 0 -147.92710235573759 -13.565179594821529 0 0 0 0 28.790643468602354 -96.235420798362043 0 -96.235420798362043 -43.707514079749672 0 0 0 0 15.665802615540542 -126.31957473227885 0 -126.31957473227885 -20.878137645796414 0 0 0 0 -44.377201619882726 -156.07950604557118 0 -156.07950604557118 -12.26673565967576 0 0 0 0 6.9435481654500109 -128.25982678307628 0 -128.25982678307628 -0.31644188407517504 0 0 0 0 61.864908164392318 -83.037388429123894 0 -83.037388429123894 16.996350445660937 0 0 0 0 24.322322291988826 -69.00603271779255 0 -69.00603271779255 39.994027224962338 0 0 0 0 33.157866575397748 -93.524752268735028 0 -93.524752268735028 20.451603899598922 0 0 0 0 11.897948093876323 -121.21142601282645 0 -121.21142601282645 -15.362148489144602 0 0 0 0 94.500151240470331 -43.443564964018151 0 -43.443564964018151 -9.0219114333631296 0 0 0 0 68.306764077542653 -80.383957602838564 0 -80.383957602838564 -51.051016693119891 0 0 0 0 54.079602178567029 -79.086957248284307 0 -79.086957248284307 -41.584195984061807 0 0 0 0 65.819941175569681 -125.16247801155259 0 -125.16247801155259 -55.217630693305182 0 0 0 0 101.95925716232409 -97.778143838404503 0 -97.778143838404503 -23.029033423111287 0 0 0 0 70.678060696232137 -95.437797705712001 0 -95.437797705712001 -19.326912197904676 0 0 0 0 45.097718637748585 -107.43807331178323 0 -107.43807331178323 -19.312907759001973 0 0 0 0 47.837648348525079 -139.45922815971142 0 -139.45922815971142 -59.351688238144561 0 0 0 0 30.220061438396442 -104.14337089322544 0 -104.14337089322544 -19.890245257814968 0 0 0 0 0.50589439421842108 -3.5715132001553798 0 -3.5715132001553798 -2.0322867332283181 0 0 0 0 57.940458363961284 -137.0501570883207 0 -137.0501570883207 19.020412505073182 0 0 0 0 112.64780537017373 -102.94634327558379 0 -102.94634327558379 34.375243609807512 0 0 0 0 50.819500200776019 -122.0833689036881 0 -122.0833689036881 29.495412109932658 0 0 0 0 67.458832936069712 -161.07143792000625 0 -161.07143792000625 85.805187231395394 0 0 0 0 28.542853066006501 -100.67658022128307 0 -100.67658022128307 20.745453292656748 0 0 0 0 49.148810238319129 -29.247286720055854 0 -29.247286720055854 -215.81247993775469 0 0 0 0 -3.4124890003704422 -30.557220104929002 0 -30.557220104929002 -40.247011789266253 0 0 0 0 162.07196456747133 -132.12886229427022 0 -132.12886229427022 -457.62215415891114 0 0 0 0 0.71334056011226998 -2.1675030680948453 0 -2.1675030680948453 -1.3548718913235405 0 0 0 0 48.251405161503584 -296.62642981861427 0 -296.62642981861427 259.99817037547837 0 0 0 0 18.714138293722119 -452.86191609704838 0 -452.86191609704838 -121.4105373826751 0 0 0 0 68.573275684683324 -81.41830104228211 0 -81.41830104228211 84.589450295781717 0 0 0 0 -27.457841640815332 -185.12143878903953 0 -185.12143878903953 -38.65902712629395 0 0 0 0 -13.595351086389655 -46.790415487128485 0 -46.790415487128485 -36.480253445290145 0 0 0 0 22.60166793468693 -162.86487601692443 0 -162.86487601692443 -70.293743374604674 0 0 0 0 -139.07219861846716 -65.908776662581658 0 -65.908776662581658 -76.028663702620179 0 0 0 0 -59.142797798616812 -108.22860229364233 0 -108.22860229364233 -97.568138223261485 0 0 0 0 -63.525357357867847 -168.37251626246166 0 -168.37251626246166 -21.114702857063094 0 0 0 0 -34.385276674550369 -74.462362983056664 0 -74.462362983056664 -164.99824689324305 0 0 0 0 -64.250887908315235 -90.978380149103032 0 -90.978380149103032 71.771411361778974 0 0 0 0 0.37633166619750824 -2.2331303386059318 0 -2.2331303386059318 -1.2170330017683781 0 0 0 0 -51.828406220133274 -190.99254522671072 0 -190.99254522671072 393.58347068332296 0 0 0 0 -5.0650375864006492 -263.11163811332517 0 -263.11163811332517 61.640480717294622 0 0 0 0 -15.028300008817496 -192.10002465133221 0 -192.10002465133221 -38.777022843425584 0 0 0 0 -79.424874588647072 -220.26500802252122 0 -220.26500802252122 -3.1195323646024917 0 0 0 0 35.555159171817195 -132.20345439907396 0 -132.20345439907396 -305.70173497132055 0 0 0 0 47.484817043376097 -151.86566091263376 0 -151.86566091263376 -7.5992863010587826 0 0 0 0 44.729040703267856 -158.7730712780085 0 -158.7730712780085 30.116495550588297 0 0 0 0 37.595873760215909 -123.30506776456605 0 -123.30506776456605 -47.992721033848738 0 0 0 0 122.53726872371408 -36.281292610678975 0 -36.281292610678975 -10.353966924310953 0 0 0 0 134.6532997391032 -105.01140740879055 0 -105.01140740879055 13.856449765914476 0 0 0 0 127.72419458468448 -93.318905791911675 0 -93.318905791911675 95.080594720384397 0 0 0 0 15.71829245294748 -136.27205109723764 0 -136.27205109723764 85.443974461417383 0 0 0 0 111.80994034728974 -90.448841733228619 0 -90.448841733228619 83.201076934466414 0 0 0 0 150.90590728023108 -124.61832943276022 0 -124.61832943276022 25.518696134276979 0 0 0 0 -44.651112054427728 -160.6735964422644 0 -160.6735964422644 54.516524445913092 0 0 0 0 -0.62182801475795912 0.36301551683474997 0 0.36301551683474997 1.2082976869576783 0 0 0 0 108.4762060903563 -125.78697581521828 0 -125.78697581521828 -9.4172292783950979 0 0 0 0 -60.801294675287863 -79.958087546547176 0 -79.958087546547176 -19.185078266589699 0 0 0 0 -107.25874736144488 -115.73339192153799 0 -115.73339192153799 48.269735787233003 0 0 0 0 57.922331834241959 -14.367921471575755 0 -14.367921471575755 -18.874742555437251 0 0 0 0 -74.703739364306784 -100.23870711484869 0 -100.23870711484869 0.021182662618230097 0 0 0 0 -0.67751104203753698 0.44383604026786827 0 0.44383604026786827 1.2826693291497691 0 0 0 0 149.80281809101143 -125.59463320958093 0 -125.59463320958093 -40.633483146764775 0 0 0 0 187.48392672723003 -61.268553897367383 0 -61.268553897367383 9.9842566786860516 0 0 0 0 122.06379025472688 -110.37594607172105 0 -110.37594607172105 -0.042989180241420399 0 0 0 0 214.38345515840774 -111.82518850501219 0 -111.82518850501219 2.6157109032792505 0 0 0 0 189.64109795771867 -96.235623171740599 0 -96.235623171740599 3.4674700781033607 0 0 0 0 186.04566606753451 -136.75292434232142 0 -136.75292434232142 -4.8094593801070005 0 0 0 0 253.40972758351018 -130.88465080612878 0 -130.88465080612878 -8.5892375200455717 0 0 0 0 191.41622646763426 -103.61274313864851 0 -103.61274313864851 -0.0071826355415396392 0 0 0 0 183.34143687064443 -107.26397539458412 0 -107.26397539458412 38.728861744537426 0 0 0 0 160.36853058590168 -135.94328502425924 0 -135.94328502425924 32.455334154139564 0 0 0 0 158.40632871545313 -74.051332717295736 0 -74.051332717295736 0.033461582297604764 0 0 0 0 4.1364126072221552 -77.833401437648718 0 -77.833401437648718 44.837015604487533 0 0 0 0 -83.399221473529906 -32.117810832645773 0 -32.117810832645773 25.089436279833535 0 0 0 0 -0.69197743040606952 0.33204142817081106 0 0.33204142817081106 1.4941199813513322 0 0 0 0 189.3531655239467 -84.845188033529666 0 -84.845188033529666 23.584849347622367 0 0 0 0 31.665265990384796 7.5206839335223776 0 7.5206839335223776 -26.106150718984281 0 0 0 0 -29.596069649322089 -34.937152418075129 0 -34.937152418075129 -4.8035878161826986 0 0 0 0 -57.072419433482537 -34.89871271345055 0 -34.89871271345055 -14.142565382942848 0 0 0 0 -0.53710820121954228 -0.12272393412517602 0 -0.12272393412517602 2.176807774204832 0 0 0 0 -49.837204240233405 -23.349788216793968 0 -23.349788216793968 -8.8324187717098539 0 0 0 0 -140.33886272830023 -101.45732471213341 0 -101.45732471213341 20.456349033410334 0 0 0 0 0.42002413345283074 -0.65745812764260592 0 -0.65745812764260592 1.9552520309923977 0 0 0 0 544.1002360444445 78.566800995983613 0 78.566800995983613 10.29195910620183 0 0 0 0 366.57714430397209 -146.91761071807196 0 -146.91761071807196 70.610876562888734 0 0 0 0 175.25718411665775 -73.402220786972975 0 -73.402220786972975 131.4718868035925 0 0 0 0 266.21257912412148 -69.975881804140954 0 -69.975881804140954 12.124609560321915 0 0 0 0 95.808962407674244 -179.94061373977502 0 -179.94061373977502 40.357000770651211 0 0 0 0 41.839976928527904 -49.956071440105006 0 -49.956071440105006 -33.873090030810999 0 0 0 0 -5.4516352067971638 -75.695896374987569 0 -75.695896374987569 -47.339231658930657 0 0 0 0 -14.383340928543475 -31.007020020957498 0 -31.007020020957498 -0.059940661096334225 0 0 0 0 -14.337239816347846 -37.535608599409443 0 -37.535608599409443 -15.066230120712135 0 0 0 0 11.257361651214524 -35.967197301213673 0 -35.967197301213673 -22.351539713099555 0 0 0 0 -22.157318692322406 -21.493579623489495 0 -21.493579623489495 -11.306554906474048 0 0 0 0 -32.589624060055939 -24.808332372421319 0 -24.808332372421319 0.061178638894489268 0 0 0 0 -22.770908651687932 -22.382196161297543 0 -22.382196161297543 -2.4203545859163569 0 0 0 0 -20.278104518298278 -17.279554121801993 0 -17.279554121801993 -13.259296307212935 0 0 0 0 -20.792638275361242 -14.14557483588942 0 -14.14557483588942 -16.854586964534974 0 0 0 0 4.4308561186899169 -15.536857486134977 0 -15.536857486134977 -15.907920065117651 0 0 0 0 -20.788985132539437 -15.108320884155091 0 -15.108320884155091 -2.6892979574549827 0 0 0 0 24.85572675534786 -14.254387361339468 0 -14.254387361339468 -15.902790329764684 0 0 0 0 27.932568033880671 -32.657989140338032 0 -32.657989140338032 15.770534993207548 0 0 0 0 74.694473217949053 -34.258604566810391 0 -34.258604566810391 -14.930670448797173 0 0 0 0 13.206575703470662 -31.149715310428292 0 -31.149715310428292 -12.414675042069575 0 0 0 0 101.00119424507648 -73.68519271191326 0 -73.68519271191326 19.09824139473676 0 0 0 0 70.063755142286027 -46.824688858183436 0 -46.824688858183436 12.665104798288667 0 0 0 0 72.441780003555323 -37.930592857672309 0 -37.930592857672309 29.135249226841552 0 0 0 0 83.546816626590953 -44.937847135941411 0 -44.937847135941411 1.8082603697184823 0 0 0 0 93.401196458009508 -32.627936826107543 0 -32.627936826107543 10.841512283586781 0 0 0 0 60.83011716123292 -52.966353682153567 0 -52.966353682153567 15.959113258439174 0 0 0 0 66.472144828370801 -56.263232158038591 0 -56.263232158038591 -8.333201871700112 0 0 0 0 34.468579255055374 -18.681284643254912 0 -18.681284643254912 -1.3432510870916303 0 0 0 0 -46.76483610885407 -41.872983242537885 0 -41.872983242537885 10.589910018978117 0 0 0 0 1.2726043667444173 -37.603106269165437 0 -37.603106269165437 10.294194201695063 0 0 0 0 -13.806339758293689 -11.161882009531837 0 -11.161882009531837 -21.441934768132342 0 0 0 0 -0.45862799367409224 -0.24931948599032694 0 -0.24931948599032694 2.1761796879408166 0 0 0 0 -61.935220215606023 -38.898600435491971 0 -38.898600435491971 -3.529468350832758 0 0 0 0 -0.51354211883077028 -0.17346816422667644 0 -0.17346816422667644 2.0363081146537354 0 0 0 0 -71.086117726392331 -51.218487659556558 0 -51.218487659556558 -30.857268891981221 0 0 0 0 -76.855236657642308 -35.990481677605203 0 -35.990481677605203 -19.651189926706138 0 0 0 0 -56.907045637761257 -45.078139969951735 0 -45.078139969951735 -35.736313999012054 0 0 0 0 -64.114650315413201 -54.679790362508356 0 -54.679790362508356 7.6681310872372705 0 0 0 0 -66.560142610463117 -52.240895092274513 0 -52.240895092274513 7.0118744095670991 0 0 0 0 -61.488930807146971 -49.016812587273307 0 -49.016812587273307 8.5342050850231317 0 0 0 0 -106.92950421989735 -69.563720457757881 0 -69.563720457757881 15.454827268929876 0 0 0 0 -42.90680022968445 -90.124484521697013 0 -90.124484521697013 20.754557739146549 0 0 0 0 -0.71554476843443737 0.29334472914261767 0 0.29334472914261767 1.388222335461478 0 0 0 0 33.544246548319279 -10.357338265093858 0 -10.357338265093858 -29.920686648787523 0 0 0 0 101.94413770611936 -47.368267095935153 0 -47.368267095935153 -10.2727618131903 0 0 0 0 54.134382698037371 -60.977563504457066 0 -60.977563504457066 7.0197211074118968 0 0 0 0 56.497851959857144 -54.310707374270351 0 -54.310707374270351 12.828694284675294 0 0 0 0 59.528389319064445 -65.025729991953995 0 -65.025729991953995 -3.6190947445356869 0 0 0 0 37.076521920007508 -73.679177155616344 0 -73.679177155616344 24.137446298962459 0 0 0 0 81.746720905799521 -78.970064713494139 0 -78.970064713494139 4.7647310530592222 0 0 0 0 27.078516512490751 -37.114622565939499 0 -37.114622565939499 -1.7508723960854695 0 0 0 0 21.465755861112484 -0.2643233411545225 0 -0.2643233411545225 -33.594134922284866 0 0 0 0 38.170551486677141 -35.671840595958201 0 -35.671840595958201 -24.781591461141943 0 0 0 0 15.403455281477363 -28.534267608923983 0 -28.534267608923983 5.6648670381255215 0 0 0 0 2.1967162413450474 1.9657999131008257 0 1.9657999131008257 -1.3587784413069244 0 0 0 0 45.620961790217734 -15.883628164482616 0 -15.883628164482616 9.0089798839035211 0 0 0 0 -0.97891991525799238 0.055010397921662957 0 0.055010397921662957 0.27488410596839685 0 0 0 0 144.43429156103048 -44.408225278835744 0 -44.408225278835744 -11.2514878922957 0 0 0 0 97.758247567478065 -17.035997060909722 0 -17.035997060909722 5.6752980725868838 0 0 0 0 56.97988841123879 -56.787831484478374 0 -56.787831484478374 7.8839602595107863 0 0 0 0 82.067279419992701 -62.281065652881807 0 -62.281065652881807 6.8569175703596557 0 0 0 0 2.4582044691192273 -3.1313643918059171 0 -3.1313643918059171 3.913159010408009 0 0 0 0 228.25567634691743 60.007065923233313 0 60.007065923233313 9.3634900570214086 0 0 0 0 120.13551741500851 32.438162101563648 0 32.438162101563648 23.01329475392231 0 0 0 0 203.11383821865684 54.129230177350109 0 54.129230177350109 49.987242753340979 0 0 0 0 274.61338430453725 -74.086174608779402 0 -74.086174608779402 -14.747374184931687 0 0 0 0 -22.217894763845834 -45.390592393536281 0 -45.390592393536281 -54.03622889759572 0 0 0 0 -87.147778434615248 -73.830835884080443 0 -73.830835884080443 -42.652398011207879 0 0 0 0 -48.58787421193756 -29.225908106593124 0 -29.225908106593124 -29.056661504975636 0 0 0 0 -62.136239615145314 -42.853857019123097 0 -42.853857019123097 -23.312337736952031 0 0 0 0 -64.433314658039308 -44.61947056317149 0 -44.61947056317149 -29.756029947840943 0 0 0 0 -57.99401659371415 -45.667461787284992 0 -45.667461787284992 -29.717503508625668 0 0 0 0 -67.482550889486447 -45.276617739415087 0 -45.276617739415087 -27.979286176567257 0 0 0 0 144.73705731388281 22.497356818815206 0 22.497356818815206 -4.4354738003239618 0 0 0 0 2.4503502623464009 -5.2272798909902178 0 -5.2272798909902178 6.5481980301228191 0 0 0 0 -60.725775029030046 -50.560264905383519 0 -50.560264905383519 -26.087345970445313 0 0 0 0 -60.331053398396762 -44.465528025419189 0 -44.465528025419189 -28.492996979010059 0 0 0 0 -59.855588328882732 -42.688770739870961 0 -42.688770739870961 -29.678947962151142 0 0 0 0 -53.146949249749014 -36.255162362387637 0 -36.255162362387637 -29.857612065505236 0 0 0 0 -68.040382009296991 -40.910142061067745 0 -40.910142061067745 -26.998517116677249 0 0 0 0 -52.908033506260836 -48.918043929043051 0 -48.918043929043051 -26.549333411785483 0 0 0 0 -27.174705770674336 -70.99509555179975 0 -70.99509555179975 -2.5753284996608272 0 0 0 0 -57.038597304241193 -42.926719598292038 0 -42.926719598292038 -18.018142079759855 0 0 0 0 -39.117951795000408 -25.858656199910911 0 -25.858656199910911 -15.516834702522829 0 0 0 0 0.99282047479361069 -0.94541405870423745 0 -0.94541405870423745 0.43596504020592874 0 0 0 0 -113.91130041438009 -23.991289489917108 0 -23.991289489917108 -14.765373620466562 0 0 0 0 -21.440824368713947 -59.340746920359379 0 -59.340746920359379 27.027999281752273 0 0 0 0 -2.8080231034947829 1.3093634598403767 0 1.3093634598403767 2.052410586238949 0 0 0 0 -12.097513833180528 0.14166912536347809 0 0.14166912536347809 -11.17323570746521 0 0 0 0 -65.644451591194411 -56.720789631144726 0 -56.720789631144726 28.448120166925946 0 0 0 0 134.59852302559193 17.582014570823958 0 17.582014570823958 14.959001259412616 0 0 0 0 152.02192626152828 2.9255150539393071 0 2.9255150539393071 19.704434159866651 0 0 0 0 -1.4174192014879807 -6.7362488548978217 0 -6.7362488548978217 8.9081973979649831 0 0 0 0 -22.073977607004053 1.257984947777004 0 1.257984947777004 21.230544807514889 0 0 0 0 -5.3869403738444852 -1.2621870978185399 0 -1.2621870978185399 3.0100433090591565 0 0 0 0 171.19675192324576 -4.6163894891251402 0 -4.6163894891251402 1.6826470802188851 0 0 0 0 132.36131635324637 -42.419073888566345 0 -42.419073888566345 -9.7546482065372402 0 0 0 0 131.9361487474489 -34.605023585441813 0 -34.605023585441813 -54.761314420309645 0 0 0 0 111.96027459126958 -20.68929358344576 0 -20.68929358344576 -96.654031335383479 0 0 0 0 130.18395734853038 0.34216229808953358 0 0.34216229808953358 -42.976113987402641 0 0 0 0 110.49675354303554 -20.678224846129524 0 -20.678224846129524 -21.529456866555847 0 0 0 0 123.73967034387715 21.599468069711293 0 21.599468069711293 -9.2928162345051533 0 0 0 0 121.28222517432096 -12.650164052063019 0 -12.650164052063019 -62.217187761227251 0 0 0 0 142.10178946912038 15.676753696448031 0 15.676753696448031 -7.3843673480732832 0 0 0 0 144.63110497233356 31.325319626896089 0 31.325319626896089 -22.660482257124386 0 0 0 0 108.52909962609738 -78.923305391246686 0 -78.923305391246686 -37.643685689199629 0 0 0 0 60.013324730565728 -75.60894678096156 0 -75.60894678096156 -87.830368624214316 0 0 0 0 59.208921976520287 -11.543649785468006 0 -11.543649785468006 -50.563129687106994 0 0 0 0 33.624979403899488 -216.75839309951698 0 -216.75839309951698 -179.62441187196237 0 0 0 0 50.897673685278278 -31.986582687432019 0 -31.986582687432019 -173.41880387970014 0 0 0 0 65.766930233849052 -123.17170236324455 0 -123.17170236324455 -61.444132984228418 0 0 0 0 -10.892631707381952 -208.1884920372031 0 -208.1884920372031 -25.070001504103857 0 0 0 0 70.664753318829753 -149.26429767979425 0 -149.26429767979425 17.196646367490757 0 0 0 0 -9.1780452156126557 -147.93973524856847 0 -147.93973524856847 42.391077536653029 0 0 0 0 -35.526003218146798 -131.84315112364857 0 -131.84315112364857 72.028847657260485 0 0 0 0 -60.436536953659015 -147.92371491640006 0 -147.92371491640006 75.805120108678238 0 0 0 0 1.2192560533090813 -3.6305435755873816 0 -3.6305435755873816 -9.7968784848347852 0 0 0 0 29.473435669475293 -131.83480040033828 0 -131.83480040033828 137.22149993285711 0 0 0 0 58.717764972225268 -188.06054426787159 0 -188.06054426787159 12.139293799138613 0 0 0 0 66.864597082851105 -105.42661625766777 0 -105.42661625766777 33.297240619189324 0 0 0 0 122.91838550735156 -52.479783521092031 0 -52.479783521092031 -32.930792409199057 0 0 0 0 89.177562098075214 -107.41109164001682 0 -107.41109164001682 -26.520849132240983 0 0 0 0 101.1375577919116 -61.584198315747926 0 -61.584198315747926 -35.827790815619664 0 0 0 0 88.245924913868294 -88.644238899600168 0 -88.644238899600168 -88.364197217194942 0 0 0 0 -4.2154931152379245 -9.9591342343834732 0 -9.9591342343834732 -6.1347073083569512 0 0 0 0 114.37127514328131 -46.75731517812892 0 -46.75731517812892 -27.077676673885435 0 0 0 0 -0.68422892709752858 -7.7802139843716276 0 -7.7802139843716276 12.356336699592191 0 0 0 0 -3.0122344578267075 -32.371023583953502 0 -32.371023583953502 39.445376971270889 0 0 0 0 -6.7417589364972628 -20.245850658931886 0 -20.245850658931886 -4.9967997696585371 0 0 0 0 -6.2843994828008363 -22.194060690342667 0 -22.194060690342667 19.763088252933812 0 0 0 0 -66.290081423605443 -42.957847847457742 0 -42.957847847457742 16.168381833027524 0 0 0 0 -0.48429705513369115 -2.6892566698749576 0 -2.6892566698749576 -1.5616951676528004 0 0 0 0 0.75966064833440328 -23.271084562026175 0 -23.271084562026175 -4.4828724313016206 0 0 0 0 -3.0551684386355191 -27.052112993411356 0 -27.052112993411356 -27.231354231284058 0 0 0 0 -2.368305573338148 -20.272230940725422 0 -20.272230940725422 -5.0357783943877621 0 0 0 0 13.099036780353345 -18.360427562165569 0 -18.360427562165569 26.906668663290475 0 0 0 0 -176.46057229993312 -113.73694224610517 0 -113.73694224610517 14.565252975415206 0 0 0 0 9.5635508382820262 -24.285256879657027 0 -24.285256879657027 -20.214062851438939 0 0 0 0 -5.8417376198468887 -15.032525144010178 0 -15.032525144010178 -14.708271483793965 0 0 0 0 1.2725294754000487 -23.524324000046498 0 -23.524324000046498 -20.188126406411854 0 0 0 0 64.727459415589692 -66.740154018676549 0 -66.740154018676549 27.248009334427479 0 0 0 0 55.581002768107282 -1.5071311651081487 0 -1.5071311651081487 -104.2669830530067 0 0 0 0 3.6648032214325212 -27.684039798201411 0 -27.684039798201411 -177.26621605386026 0 0 0 0 -66.909759365975333 -60.129859638083872 0 -60.129859638083872 -24.191206727642566 0 0 0 0 -0.3019620087287862 -1.3708537691062475 0 -1.3708537691062475 0.93564897790508539 0 0 0 0 -5.147168272662384 -18.865328162901278 0 -18.865328162901278 66.766216766005527 0 0 0 0 43.505079130774902 -48.987945734503228 0 -48.987945734503228 -24.837922783044633 0 0 0 0 -0.073150318141177451 -39.879347493738535 0 -39.879347493738535 -56.829769929909389 0 0 0 0 1.1916928015355097 -2.6633939575112393 0 -2.6633939575112393 2.192055234387027 0 0 0 0 -9.2996719070215477 -5.5103658160187479 0 -5.5103658160187479 25.976309050678537 0 0 0 0 11.760345119966772 -27.693517040136626 0 -27.693517040136626 -26.493102216660908 0 0 0 0 -35.078924803158813 -32.863155227270987 0 -32.863155227270987 59.087725800029702 0 0 0 0 -13.18916944800408 -18.323304668083424 0 -18.323304668083424 35.780512356074098 0 0 0 0 -4.6994106711936183 -38.024000331031857 0 -38.024000331031857 37.161504475807305 0 0 0 0 16.851949660907849 -47.678877315408499 0 -47.678877315408499 2.4270104965216888 0 0 0 0 109.14463320965115 -2.3743632884070394 0 -2.3743632884070394 -98.157667367966496 0 0 0 0 -22.595184371162759 -97.256664479133178 0 -97.256664479133178 -57.176160305523808 0 0 0 0 -10.075179877750202 -55.373846629133027 0 -55.373846629133027 8.7644760428593145 0 0 0 0 3.9996149526996305 -21.982802474304663 0 -21.982802474304663 46.341351129543909 0 0 0 0 -5.1312964414414637 -29.295866472547004 0 -29.295866472547004 54.014804910766543 0 0 0 0 3.4676403390112682 -23.971535892953398 0 -23.971535892953398 42.16815110844982 0 0 0 0 -5.8899736876832272 -4.3607804473653999 0 -4.3607804473653999 33.486999947667712 0 0 0 0 -5.9419096571571828 -10.152382390836266 0 -10.152382390836266 6.9917041473781865 0 0 0 0 -42.943038965007872 -8.2370749208021152 0 -8.2370749208021152 114.90479453734588 0 0 0 0 -23.24217366362609 -10.028952297445358 0 -10.028952297445358 35.135550275052083 0 0 0 0 -33.559821664137417 13.510213314793873 0 13.510213314793873 37.487945047188987 0 0 0 0 5.5592053962700447 -49.2303587643637 0 -49.2303587643637 70.269649284198749 0 0 0 0 -4.0493123995562925 -3.8717665349562989 0 -3.8717665349562989 -4.3394365554480885 0 0 0 0 1.9939493662689287 -58.261945094518836 0 -58.261945094518836 11.967590466146717 0 0 0 0 -25.565785602051619 -111.35459186960361 0 -111.35459186960361 81.661337270335935 0 0 0 0 -40.930745520423443 -49.843724104917783 0 -49.843724104917783 113.62948132995007 0 0 0 0 -2.769783136784099 -111.52931903654098 0 -111.52931903654098 74.517285858964897 0 0 0 0 -23.429040790874751 -125.25167716119904 0 -125.25167716119904 72.23079865235195 0 0 0 0 27.023273254285868 -124.74115463130238 0 -124.74115463130238 -154.71058836580778 0 0 0 0 20.654250307092298 -127.995468639092 0 -127.995468639092 52.964520627108868 0 0 0 0 29.691931467437826 -88.095108382956823 0 -88.095108382956823 -198.51970870050718 0 0 0 0 3.5226816287104157 -41.225248629636098 0 -41.225248629636098 93.293031263187004 0 0 0 0 -7.5855629132784088 -67.38563490503293 0 -67.38563490503293 -120.92806561343605 0 0 0 0 -0.83132574800173842 -59.253822061069926 0 -59.253822061069926 5.4854855374734512 0 0 0 0 -3.3067321447942959 -28.527781168859292 0 -28.527781168859292 88.083209565809739 0 0 0 0 29.761380764015485 -51.389915772291715 0 -51.389915772291715 -214.49088025284073 0 0 0 0 0.67685021676879842 -35.782678509436664 0 -35.782678509436664 -151.78286347574613 0 0 0 0 -3.6434206839840044 -40.166928122245736 0 -40.166928122245736 -4.2871654523551115 0 0 0 0 -0.9564365176102001 -38.59908527787411 0 -38.59908527787411 -4.0319249115345883 0 0 0 0 11.671604603650849 -20.3859062448646 0 -20.3859062448646 -59.799390778724046 0 0 0 0 -5.6833057537222516 -31.170490652928848 0 -31.170490652928848 -7.5509719403022899 0 0 0 0 -17.567965772002935 -27.532274806249916 0 -27.532274806249916 -18.838504330880824 0 0 0 0 -5.5599868631834397 -31.978280238301522 0 -31.978280238301522 -41.374014463282947 0 0 0 0 -7.7896098712881212 -7.4162648230012564 0 -7.4162648230012564 2.4813527892110869 0 0 0 0 11.466211284347082 -12.989725909828849 0 -12.989725909828849 -23.196210737332876 0 0 0 0 -8.2726495113965939 -10.871166228309448 0 -10.871166228309448 -16.27915132218186 0 0 0 0 -20.941950922722754 -25.855049491190584 0 -25.855049491190584 -24.531919155723699 0 0 0 0 20.658096248059337 -45.240216298352607 0 -45.240216298352607 -21.956756784536992 0 0 0 0 22.68280342331127 -26.711870374179853 0 -26.711870374179853 4.5530990071201813 0 0 0 0 -8.6418041600372888 -30.86492156952248 0 -30.86492156952248 -0.15892854477080576 0 0 0 0 -2.0255473512115714 -31.124469765058166 0 -31.124469765058166 -15.603361449829663 0 0 0 0 13.460727697849507 -53.692337975820919 0 -53.692337975820919 -32.838419730578607 0 0 0 0 44.663942715520989 -75.042138165622418 0 -75.042138165622418 -16.578755830647424 0 0 0 0 -22.795443012240867 -61.011409768361773 0 -61.011409768361773 -19.421199330994568 0 0 0 0 -62.550781021660441 -41.865583698405317 0 -41.865583698405317 -0.68396790070983116 0 0 0 0 -22.732359947734949 -59.996398749139189 0 -59.996398749139189 -8.9724474102076783 0 0 0 0 -1.3120679889088223 -17.783617443124456 0 -17.783617443124456 13.08843382692163 0 0 0 0 -33.898728892410873 -35.317425268698571 0 -35.317425268698571 -18.405741067085728 0 0 0 0 -13.744078470615932 -34.642433728637116 0 -34.642433728637116 -12.054956605352345 0 0 0 0 7.2628103859133368 -18.157374520223222 0 -18.157374520223222 -11.434129987484141 0 0 0 0 -16.15727350803391 -23.96128992037962 0 -23.96128992037962 12.843833322633074 0 0 0 0 -9.8532972439461446 -51.453278387841237 0 -51.453278387841237 -7.9753887388433213 0 0 0 0 1.078792493887704 -37.557962815345491 0 -37.557962815345491 -2.8472855016261747 0 0 0 0 7.4975811867718338 -24.673172857937502 0 -24.673172857937502 -2.1538803837804323 0 0 0 0 -24.755793793598059 -2.0224057303230438 0 -2.0224057303230438 106.07217362349093 0 0 0 0 -14.160013077215801 -18.818546576837537 0 -18.818546576837537 -9.770813357757465 0 0 0 0 -5.1629280919296434 -63.756588734215256 0 -63.756588734215256 -32.62168583103994 0 0 0 0 -1.1481359479404034 -19.465547472661541 0 -19.465547472661541 -6.5128097111067369 0 0 0 0 -15.161198628884449 -28.507545807340648 0 -28.507545807340648 -14.394600907842687 0 0 0 0 -45.517312242511252 -60.663983995300441 0 -60.663983995300441 -7.7283659329841612 0 0 0 0 0.61871084044105373 -29.224631856719498 0 -29.224631856719498 -19.990570325040608 0 0 0 0 1.4503465143611862 -10.797360116229626 0 -10.797360116229626 0.55573562204253335 0 0 0 0 34.462284331984847 -22.319879669079455 0 -22.319879669079455 -27.432040122783292 0 0 0 0 -3.3537397685455232 -7.1471484385989683 0 -7.1471484385989683 -0.087599710091630811 0 0 0 0 -12.580831780891458 -11.608169479975913 0 -11.608169479975913 -9.8266485814237967 0 0 0 0 -1.011202972389583 -60.7531498630633 0 -60.7531498630633 -13.050238076772075 0 0 0 0 6.0870594128923798 -19.795847504912857 0 -19.795847504912857 3.440522964043609 0 0 0 0 -7.2919239019849726 -12.667596300967837 0 -12.667596300967837 -2.08780770797987 0 0 0 0 -8.6931366646225783 -17.381559970890315 0 -17.381559970890315 10.965433309823069 0 0 0 0 10.776189893898845 -34.182319393203215 0 -34.182319393203215 -30.062602851168776 0 0 0 0 1.5779321927548153 -9.5207967262540478 0 -9.5207967262540478 -0.40152539708651602 0 0 0 0 7.4980781417325488 -12.296337459014467 0 -12.296337459014467 -26.232728866342313 0 0 0 0 -41.59516822801379 -39.217591093442024 0 -39.217591093442024 -21.947009105511825 0 0 0 0 -8.3794817255080574 -20.687666933341163 0 -20.687666933341163 -6.7062186152450796 0 0 0 0 13.466701400157035 -22.413655713207845 0 -22.413655713207845 -25.469800825518632 0 0 0 0 0.34765356008973924 -1.9508349928410524 0 -1.9508349928410524 -5.5512624510758535 0 0 0 0 -0.99520935012630218 -7.7932815036063374 0 -7.7932815036063374 -7.2655115399270187 0 0 0 0 -8.4392659759214439 -36.279832803089448 0 -36.279832803089448 7.4623446016412345 0 0 0 0 2.975658999574236 -14.917558618054855 0 -14.917558618054855 -3.0208871563390645 0 0 0 0 -0.28396961754324934 -23.142717960513956 0 -23.142717960513956 -7.7607839465926745 0 0 0 0 1.1459974018653156 -12.563503744024274 0 -12.563503744024274 -7.0121490456040192 0 0 0 0 -4.701650430666632 -19.69476768390814 0 -19.69476768390814 -13.270365677468362 0 0 0 0 -6.8570144025045607 -20.354413935077936 0 -20.354413935077936 -23.270332028435021 0 0 0 0 1.1029636552557349 -15.584019242649447 0 -15.584019242649447 -33.995651310902758 0 0 0 0 -19.68259295453754 -27.484868905543408 0 -27.484868905543408 -21.579840458375202 0 0 0 0 -12.194717146816402 -22.218162190301882 0 -22.218162190301882 -27.516069355913714 0 0 0 0 -0.4362984661153817 -4.1723839071481166 0 -4.1723839071481166 -7.822649932933686 0 0 0 0 -13.501053552881785 -18.394330551069288 0 -18.394330551069288 -2.9321684822789393 0 0 0 0 14.830888880373095 -12.625831716606626 0 -12.625831716606626 -35.47621802566573 0 0 0 0 8.3218722500996591 -19.642895584991493 0 -19.642895584991493 -10.288777123740147 0 0 0 0 15.350362837340072 -9.365757615818211 0 -9.365757615818211 -19.554638522124151 0 0 0 0 6.6361920654671849 -25.029284758691574 0 -25.029284758691574 -27.474023424651023 0 0 0 0 -11.32314519489907 -27.026809292123097 0 -27.026809292123097 -17.77559477528667 0 0 0 0 -19.413829287237604 -46.980694172612857 0 -46.980694172612857 -23.970956144141383 0 0 0 0 -1.0233852417877642 -16.690670573252646 0 -16.690670573252646 -23.605306535609998 0 0 0 0 13.419219016919669 -6.0798863453292142 0 -6.0798863453292142 -3.4232489091109528 0 0 0 0 3.4124043334465242 -2.7593461510275858 0 -2.7593461510275858 -0.78902910915485336 0 0 0 0 3.2907340915221148 3.0697936640150267 0 3.0697936640150267 -9.435928673418374 0 0 0 0 28.320770965141492 -21.184925133029537 0 -21.184925133029537 -12.198590985139163 0 0 0 0 4.3555182627842441 -6.7974616105702808 0 -6.7974616105702808 -3.4799348024316714 0 0 0 0 -1.1708408654412779 -15.017686343473542 0 -15.017686343473542 -3.8344193379066382 0 0 0 0 2.9566897293064329 -3.5173092794050618 0 -3.5173092794050618 3.5083217946344263 0 0 0 0 -87.361087137651339 -54.816048928968485 0 -54.816048928968485 111.4108404603794 0 0 0 0 34.427792201910052 98.580325275168434 0 98.580325275168434 46.09767180423205 0 0 0 0 96.039986002995647 19.487765026980014 0 19.487765026980014 -50.999451797375514 0 0 0 0 49.528281694319048 90.57533596725807 0 90.57533596725807 121.22074014805185 0 0 0 0 86.929539476837817 -7.5058380574482726 0 -7.5058380574482726 -32.299494748000143 0 0 0 0 -1.2121874018095156 0.95668702515077086 0 0.95668702515077086 2.3338538945522771 0 0 0 0 -9.478904300598515 19.460129048435192 0 19.460129048435192 41.077194297475216 0 0 0 0 -44.638382027660555 -7.9782302359785717 0 -7.9782302359785717 40.862428514941712 0 0 0 0 -59.801346900108911 16.656770624535056 0 16.656770624535056 165.63676079952347 0 0 0 0 -3.831463017076203 42.999720894322763 0 42.999720894322763 -198.80532344380481 0 0 0 0 -189.56780677182724 47.665449831602018 0 47.665449831602018 20.732995868022044 0 0 0 0 -81.410351664311747 -18.133601767993241 0 -18.133601767993241 -173.05730901187871 0 0 0 0 -0.45124830267559446 20.698524440422261 0 20.698524440422261 -227.32312545018794 0 0 0 0 54.900278568900831 8.9142555097296281 0 8.9142555097296281 -177.97593565156785 0 0 0 0 1.5412995938022505 -1.8705631449192879 0 -1.8705631449192879 -142.24905778611355 0 0 0 0 52.790833822669811 33.761037987793316 0 33.761037987793316 -154.85239013970568 0 0 0 0 -17.220643070760161 46.511682197267419 0 46.511682197267419 -57.427707461549289 0 0 0 0 47.876943424089404 53.921010763688173 0 53.921010763688173 -61.216084283654709 0 0 0 0 7.2823152832656888 31.224271703519207 0 31.224271703519207 -7.4798726737717516 0 0 0 0 10.432582801906392 43.857936199001415 0 43.857936199001415 -41.438933902041754 0 0 0 0 52.870551407326275 10.124037777473859 0 10.124037777473859 -135.05211099931876 0 0 0 0 68.477955266713252 19.499572389071545 0 19.499572389071545 -143.81650987189641 0 0 0 0 70.663779469802648 6.2363899885117462 0 6.2363899885117462 -126.22676643222076 0 0 0 0 -0.45460996250198704 2.3671689511531824 0 2.3671689511531824 -2.1025843618874518 0 0 0 0 -92.79749878336952 12.835345618312203 0 12.835345618312203 23.587706226484443 0 0 0 0 -75.385312863418221 -100.76697822762344 0 -100.76697822762344 -142.04858824876646 0 0 0 0 87.049594307558436 48.748039594531292 0 48.748039594531292 -201.97170848869064 0 0 0 0 75.929779572670668 -4.6320591344374407 0 -4.6320591344374407 -158.81906710667317 0 0 0 0 122.78396716040697 -54.391807382456136 0 -54.391807382456136 -329.11759145055839 0 0 0 0 18.010117778667336 24.494111575589159 0 24.494111575589159 -18.879560084402328 0 0 0 0 1.7398038801135343 1.7324761438337113 0 1.7324761438337113 -1.3865013550072547 0 0 0 0 60.080175451053947 -38.397310185944661 0 -38.397310185944661 -45.20358869327174 0 0 0 0 200.36116195497107 -158.70173303127876 0 -158.70173303127876 24.875802980364824 0 0 0 0 -98.330886080146229 -221.79955606806652 0 -221.79955606806652 23.222567961290224 0 0 0 0 3.5701755326455817 -0.86875802379866407 0 -0.86875802379866407 1.0504039350568348 0 0 0 0 -15.481333183555762 -136.11963719339838 0 -136.11963719339838 -36.553909135438516 0 0 0 0 -120.22897645922239 -84.868749850802487 0 -84.868749850802487 -58.035849192352543 0 0 0 0 -22.822657273842935 -172.88131458198006 0 -172.88131458198006 94.697590115454659 0 0 0 0 30.147340178176819 8.3968719358435919 0 8.3968719358435919 -7.448782135554211 0 0 0 0 -139.81947534223582 -31.664710623084829 0 -31.664710623084829 7.0656494817521889 0 0 0 0 -35.993456637711461 38.037852967121808 0 38.037852967121808 -29.821802111066063 0 0 0 0 2.5568446025266311 -4.4125302378596629 0 -4.4125302378596629 2.377231332353638 0 0 0 0 -38.839310826386281 -79.784993350542209 0 -79.784993350542209 148.95166370448078 0 0 0 0 4.1851626750256798 -10.924172278683525 0 -10.924172278683525 -6.0969026495943517 0 0 0 0 -33.003937300920825 -92.566445240715439 0 -92.566445240715439 86.895517593267869 0 0 0 0 -73.177156841613396 13.245219162978174 0 13.245219162978174 111.27130438386303 0 0 0 0 -115.59804696380161 -9.8242978299585957 0 -9.8242978299585957 45.562419986655186 0 0 0 0 -130.48619463340765 -81.123098822316024 0 -81.123098822316024 -56.791539348327206 0 0 0 0 -464.01459303814772 29.314308990802601 0 29.314308990802601 -91.388488260635313 0 0 0 0 -87.098028364900529 64.589706081040276 0 64.589706081040276 -464.85891662732683 0 0 0 0 -131.89078952540285 -294.52932781431764 0 -294.52932781431764 -307.14374113504891 0 0 0 0 47.730285234627445 -128.02490092880998 0 -128.02490092880998 -153.71923495653573 0 0 0 0 49.102691182437241 -173.35169463954028 0 -173.35169463954028 -124.26549218344007 0 0 0 0 31.573620365303213 -62.824934526044672 0 -62.824934526044672 -207.48996444134991 0 0 0 0 33.491493203210666 -134.21214224954019 0 -134.21214224954019 -191.75192807924032 0 0 0 0 -66.687753235013588 -74.76021147649044 0 -74.76021147649044 -107.52559169745984 0 0 0 0 -2.7428353525792772 -55.543332488767192 0 -55.543332488767192 -108.30837201200552 0 0 0 0 -23.691843020679244 -33.111997564270496 0 -33.111997564270496 -84.434507341618882 0 0 0 0 -17.122151273779991 -125.66990390088154 0 -125.66990390088154 -102.9738827230176 0 0 0 0 -10.648393543451675 -125.85173348968601 0 -125.85173348968601 -103.02030639412624 0 0 0 0 78.756192073555212 -132.86285603422766 0 -132.86285603422766 -145.37877470871626 0 0 0 0 -147.10135054914463 -178.85195875717181 0 -178.85195875717181 -108.08253254484043 0 0 0 0 -181.89705579267809 20.057990848671352 0 20.057990848671352 -87.389371099368873 0 0 0 0 26.832293891666268 -45.144553421896489 0 -45.144553421896489 -219.1748186444056 0 0 0 0 -260.60580333866852 -230.69692057972048 0 -230.69692057972048 1.2282959727199341 0 0 0 0 11.243206220451611 -164.38192681639703 0 -164.38192681639703 11.028526613345093 0 0 0 0 -31.398572455029353 -6.0396032697644841 0 -6.0396032697644841 -3.2548362642678512 0 0 0 0 -0.88777614891386847 -1.7447227077728229 0 -1.7447227077728229 -2.0376952706303229 0 0 0 0 -236.80579360987787 87.862683367326326 0 87.862683367326326 -21.103141728515766 0 0 0 0 -97.460213695390848 -7.9057009769539945 0 -7.9057009769539945 18.05142197751411 0 0 0 0 386.5508897054151 -235.73747198530327 0 -235.73747198530327 -39.538863098342517 0 0 0 0 0.96181263773261927 3.8357613526520038 0 3.8357613526520038 0.68136661554685674 0 0 0 0 50.774094410076827 -145.56628781434688 0 -145.56628781434688 58.486055348643276 0 0 0 0 41.363467920908988 8.4344385316690023 0 8.4344385316690023 -56.094876242827013 0 0 0 0 184.64971680883309 -98.811480926648073 0 -98.811480926648073 -118.55267526132957 0 0 0 0 86.291618753922876 -72.228945146614024 0 -72.228945146614024 -125.6732089162615 0 0 0 0 -1.2201319630348735 -42.361327302482096 0 -42.361327302482096 -89.248994502395362 0 0 0 0 23.585240947051716 -31.93623498847046 0 -31.93623498847046 -118.08633681608626 0 0 0 0 -1.6310545316901539 -109.91589381388326 0 -109.91589381388326 -136.05961662381742 0 0 0 0 -9.5908635876372728 -104.00029032402927 0 -104.00029032402927 -58.997634964374811 0 0 0 0 91.89369227053885 -116.8658032239 0 -116.8658032239 -102.78981258738713 0 0 0 0 -158.06164917745082 -66.118424582884472 0 -66.118424582884472 46.941440078859159 0 0 0 0 -76.209918286556331 -147.38642893707765 0 -147.38642893707765 -45.856283775421616 0 0 0 0 -33.324289019063599 -91.894276612942122 0 -91.894276612942122 -16.252058459140244 0 0 0 0 -4.6212358211273568 34.974251079009264 0 34.974251079009264 26.832333001280858 0 0 0 0 -8.7028832880729965 -99.026273438800445 0 -99.026273438800445 -47.496345716022915 0 0 0 0 -238.4893958736011 -115.35520080394963 0 -115.35520080394963 22.048032405124104 0 0 0 0 151.47340175499721 25.94203720695441 0 25.94203720695441 -394.89209952386045 0 0 0 0 -175.00461496120897 -204.1510344092203 0 -204.1510344092203 -73.783180565784278 0 0 0 0 -97.169947894544748 -65.262965110367077 0 -65.262965110367077 -65.458357138475549 0 0 0 0 -2.5701853250469631 -1.4828462184524724 0 -1.4828462184524724 1.8186021622084141 0 0 0 0 -17.700854240472836 -118.0647904091511 0 -118.0647904091511 -238.68130613028734 0 0 0 0 -44.353187940979751 -18.641158386024472 0 -18.641158386024472 4.6861609554580355 0 0 0 0 -52.733880285470605 -74.935967841098318 0 -74.935967841098318 25.863757805618661 0 0 0 0 -108.62538933828546 -110.73889468943526 0 -110.73889468943526 -66.741659207793418 0 0 0 0 -36.60659268474501 -45.124664909470084 0 -45.124664909470084 -62.206452797149268 0 0 0 0 -32.642688270893814 -107.72279111260104 0 -107.72279111260104 -80.351862111439914 0 0 0 0 74.75832526314997 -148.68608079132537 0 -148.68608079132537 10.673491505020138 0 0 0 0 -5.5346919882886141 -55.228481903415741 0 -55.228481903415741 -93.251101796555304 0 0 0 0 -77.653978719649444 -102.33608735592679 0 -102.33608735592679 -46.272322076709315 0 0 0 0 6.2992114557891341 -42.234089390880399 0 -42.234089390880399 -75.401017844138551 0 0 0 0 -22.312769646170551 -40.942442261607994 0 -40.942442261607994 1.9384598760152585 0 0 0 0 -29.667881855133601 -49.405106867187897 0 -49.405106867187897 -0.25644012356963231 0 0 0 0 -23.292775630404321 -36.314661796531254 0 -36.314661796531254 77.633060972060775 0 0 0 0 9.1967529729993203 -40.373852588420959 0 -40.373852588420959 1.7110249756212852 0 0 0 0 -20.387893508805405 -49.597552741736308 0 -49.597552741736308 88.009673027479948 0 0 0 0 23.507219178783544 -65.996770735740029 0 -65.996770735740029 69.377134499217846 0 0 0 0 1.5469388114679532 -90.914673498666161 0 -90.914673498666161 27.730723541371844 0 0 0 0 12.578703233947181 -34.986104423262077 0 -34.986104423262077 6.6200211291798041 0 0 0 0 -14.130936642715142 -124.93111377764399 0 -124.93111377764399 228.64773921324922 0 0 0 0 23.119241389015087 -44.490831599757257 0 -44.490831599757257 88.078617085737733 0 0 0 0 -22.893285283587716 -39.373177463019601 0 -39.373177463019601 131.23946383815564 0 0 0 0 28.23074897699497 -24.447659330636725 0 -24.447659330636725 131.8845246029523 0 0 0 0 16.10817694552432 -68.206335935826445 0 -68.206335935826445 -27.092322137145231 0 0 0 0 32.00011404767497 -90.434774508408736 0 -90.434774508408736 -16.5672632924543 0 0 0 0 -52.7100623769511 -160.63740643591154 0 -160.63740643591154 149.89347965399793 0 0 0 0 -49.38256014206263 -157.00915986511245 0 -157.00915986511245 98.316576608092873 0 0 0 0 86.354066974638044 -62.19141166312329 0 -62.19141166312329 75.413617951566266 0 0 0 0 2.4748331481487185 -171.74692429407605 0 -171.74692429407605 -60.945538334504818 0 0 0 0 -16.384833169850424 -121.94150770664237 0 -121.94150770664237 120.80969085708784 0 0 0 0 -32.448061952505896 -130.91134870213136 0 -130.91134870213136 126.03231364886597 0 0 0 0 -29.709986664794769 -268.09725947133848 0 -268.09725947133848 -91.584616586216725 0 0 0 0 -9.6021189572538788 -183.15547964389407 0 -183.15547964389407 191.01999909480946 0 0 0 0 164.65634176440395 -141.59393525643827 0 -141.59393525643827 147.00389722993714 0 0 0 0 -18.669276120681843 -166.92552042708849 0 -166.92552042708849 185.22607138138119 0 0 0 0 -17.695647665386105 -76.212609596917446 0 -76.212609596917446 171.35224992780331 0 0 0 0 1.4232752005288525 -4.1363482683399297 0 -4.1363482683399297 -20.98201972805046 0 0 0 0 91.549342975216405 -37.942501003468351 0 -37.942501003468351 -174.90906150740557 0 0 0 0 9.392557500781118 -69.74093571449842 0 -69.74093571449842 -16.490753410633495 0 0 0 0 43.282956840582131 -132.83573530031117 0 -132.83573530031117 97.876101715984987 0 0 0 0 71.862620388791129 -168.27601384489753 0 -168.27601384489753 10.614458600626676 0 0 0 0 12.699136733778232 -54.406115567660891 0 -54.406115567660891 -35.530453102466709 0 0 0 0 0.75715857140312437 17.340645429987489 0 17.340645429987489 -80.508166957246431 0 0 0 0 75.725492069446318 -97.752005349415413 0 -97.752005349415413 -131.48725307381392 0 0 0 0 4.95556233503976 -48.415859316972643 0 -48.415859316972643 10.783200809410268 0 0 0 0 37.029275288893587 -35.68390010411531 0 -35.68390010411531 -28.661449767452723 0 0 0 0 -8.4170254040857344 -31.351927564765901 0 -31.351927564765901 79.685103846173661 0 0 0 0 -2.7097847330069271 -40.217800580488984 0 -40.217800580488984 5.2618092637312657 0 0 0 0 0.87407398024829774 -26.235522051963216 0 -26.235522051963216 4.5151883239906461 0 0 0 0 16.334136670834596 -55.298580851158476 0 -55.298580851158476 119.3208322464925 0 0 0 0 13.866809160876073 -51.996622410682903 0 -51.996622410682903 128.21720988718153 0 0 0 0 -5.1588852952204043 -5.216715552935824 0 -5.216715552935824 2.5961713714202261 0 0 0 0 24.74345391793031 -60.125685365739628 0 -60.125685365739628 126.40351610644575 0 0 0 0 -3.1746796772415502 -32.867498776149226 0 -32.867498776149226 50.339906489806467 0 0 0 0 -0.18914781238527212 -53.203080018683977 0 -53.203080018683977 129.68300360185094 0 0 0 0 -44.314735990244571 -88.010575118554698 0 -88.010575118554698 -129.53621873982775 0 0 0 0 0.78267985715648525 -3.8350481228621192 0 -3.8350481228621192 0.60897743988016373 0 0 0 0 -2.0125724960729272 -1.1896954415558696 0 -1.1896954415558696 -0.6610431629406861 0 0 0 0 19.52903169569322 -72.801481365118889 0 -72.801481365118889 -460.79571666147967 0 0 0 0 17.310016164383342 -69.444118629766308 0 -69.444118629766308 -167.03097711840019 0 0 0 0 -104.12223002445171 -225.42223391950392 0 -225.42223391950392 -214.70409305804787 0 0 0 0 -124.44224125093751 -77.085649972163083 0 -77.085649972163083 199.72115578155717 0 0 0 0 -156.57444889348517 -244.58354596443678 0 -244.58354596443678 30.219175312842708 0 0 0 0 -43.388493202949576 -42.723818827591458 0 -42.723818827591458 137.6782312667201 0 0 0 0 -89.19850098129973 -98.343753751280019 0 -98.343753751280019 113.2027412384632 0 0 0 0 -51.193775429062953 -137.38570656413503 0 -137.38570656413503 85.925165404274594 0 0 0 0 -63.695464698088472 -134.5916799624174 0 -134.5916799624174 85.909462560754037 0 0 0 0 -43.938368097700732 -117.81441159496899 0 -117.81441159496899 98.798267186488374 0 0 0 0 12.128487042367851 -45.394939991027059 0 -45.394939991027059 124.52432666288223 0 0 0 0 20.533727118301613 -50.644831983649055 0 -50.644831983649055 124.44846874171344 0 0 0 0 18.669064631267247 -54.819320391437941 0 -54.819320391437941 132.29667506102123 0 0 0 0 21.512432650895789 -63.525753996487765 0 -63.525753996487765 137.54124668794975 0 0 0 0 -2.0254018434043246 -38.793104935859446 0 -38.793104935859446 169.99640585006273 0 0 0 0 -32.613497750642637 -93.517492305698397 0 -93.517492305698397 231.93529957866485 0 0 0 0 159.601700248204 -59.496776333966409 0 -59.496776333966409 -312.06806960257381 0 0 0 0 3.4400205167831643 -57.519707812495923 0 -57.519707812495923 26.87810509123813 0 0 0 0 2.616190749886222 -2.6905261214286824 0 -2.6905261214286824 -15.149385300946641 0 0 0 0 -12.291183424615156 -81.024371623450861 0 -81.024371623450861 189.56340405828814 0 0 0 0 -54.052421591713937 -105.90197226421151 0 -105.90197226421151 88.327413880344466 0 0 0 0 -27.739321862263751 -106.5114242478594 0 -106.5114242478594 84.915396498894552 0 0 0 0 -0.76942610853075166 -15.386766117873776 0 -15.386766117873776 130.04843338688624 0 0 0 0 13.468324059696897 -64.560700414724124 0 -64.560700414724124 108.29017167944949 0 0 0 0 126.56401423998977 -115.79444424533176 0 -115.79444424533176 150.91059066187518 0 0 0 0 18.055080646005081 50.090899243830791 0 50.090899243830791 219.16699145943858 0 0 0 0 -242.19939865189372 -132.93853385388502 0 -132.93853385388502 331.28146579004897 0 0 0 0 -36.046093021363049 -13.238338228911743 0 -13.238338228911743 121.68776356091666 0 0 0 0 -63.615269180500036 -40.504685973501182 0 -40.504685973501182 118.84970841644827 0 0 0 0 -25.579594734248985 -73.066227012898935 0 -73.066227012898935 111.2877826340482 0 0 0 0 -7.0851713331073825 10.018133435679829 0 10.018133435679829 57.373453823820455 0 0 0 0 -41.708039967224977 -21.101861376500892 0 -21.101861376500892 44.647944609176193 0 0 0 0 -8.7883219456361985 -134.58699381825181 0 -134.58699381825181 135.48904118330393 0 0 0 0 -4.733087538908876 -128.1122791010057 0 -128.1122791010057 105.3636202642374 0 0 0 0 -27.02509424332311 -56.563383355089172 0 -56.563383355089172 128.09803922501305 0 0 0 0 -16.885647037883246 -144.97709390729869 0 -144.97709390729869 145.54915632903976 0 0 0 0 -127.29427323164612 -157.73825167698607 0 -157.73825167698607 101.45517592955002 0 0 0 0 -134.70742346925908 -8.7218954425225093 0 -8.7218954425225093 73.501168004611827 0 0 0 0 61.579136580930253 -93.505966818266643 0 -93.505966818266643 85.031587172567015 0 0 0 0 10.118801958082258 -142.35435781757769 0 -142.35435781757769 100.20380998657583 0 0 0 0 -4.6828460469846505 -30.505180678712804 0 -30.505180678712804 3.4548211824367172 0 0 0 0 1.9196485389604518 -9.0491775428608072 0 -9.0491775428608072 9.9695322888449383 0 0 0 0 -23.863867315105381 -42.59082945222508 0 -42.59082945222508 71.574176552712743 0 0 0 0 8.5203815408484402 -59.80580454941191 0 -59.80580454941191 32.398372743541323 0 0 0 0 4.4545053536639898 -86.173185664229095 0 -86.173185664229095 56.223705983466061 0 0 0 0 65.745560990009835 -142.31462878249022 0 -142.31462878249022 82.657212286369031 0 0 0 0 150.39749915373977 -86.753729535510956 0 -86.753729535510956 5.8300219695665874 0 0 0 0 -1.1010187520155768 -3.5440353594892535 0 -3.5440353594892535 18.754975986401483 0 0 0 0 34.578199792413216 -78.094734671041806 0 -78.094734671041806 -36.121516552381308 0 0 0 0 -1.797857877624665 -85.995561670205461 0 -85.995561670205461 115.95004794566921 0 0 0 0 31.946539059368661 -128.8594694481726 0 -128.8594694481726 -73.042911833908875 0 0 0 0 0.57301420324657926 -3.8139828233246362 0 -3.8139828233246362 6.7733800627850798 0 0 0 0 -5.5050087944764527 -4.3074667142554972 0 -4.3074667142554972 10.72167331064702 0 0 0 0 -127.57152925776609 228.49385494957096 0 228.49385494957096 -505.46229572932498 0 0 0 0 -51.826979379926343 124.69406455101853 0 124.69406455101853 -298.44089957423421 0 0 0 0 -24.339372609509155 87.927447431531618 0 87.927447431531618 -319.0647272269598 0 0 0 0 -52.377329183806069 111.94477152902982 0 111.94477152902982 -248.58420703321462 0 0 0 0 -6.1869244831905235 60.229602732397325 0 60.229602732397325 -278.96974274306558 0 0 0 0 15.496672233974095 -17.314240503870678 0 -17.314240503870678 -272.48380859604913 0 0 0 0 -6.1997665313247126 -6.7589679437696759 0 -6.7589679437696759 2.3773552846378152 0 0 0 0 -0.015853500888624694 -6.7678219931112835 0 -6.7678219931112835 0.89314985445525963 0 0 0 0 1.5812664333663733 -2.5423850667052506 0 -2.5423850667052506 2.5627877037333207 0 0 0 0 -6.9994545566369197 -172.68014400724496 0 -172.68014400724496 68.478768324886914 0 0 0 0 0.69073438564555545 -144.68215470563155 0 -144.68215470563155 27.653002588798699 0 0 0 0 -429.24064444205578 -203.66083187807453 0 -203.66083187807453 854.38759011307411 0 0 0 0 -3.9331834330933759 -3.688205649599162 0 -3.688205649599162 2.0033483449972778 0 0 0 0 -281.09034676311421 122.25021872405341 0 122.25021872405341 136.92089683935046 0 0 0 0 -86.621635424962733 143.05288042580651 0 143.05288042580651 -233.37634379786323 0 0 0 0 -360.88997269923129 62.201852667545609 0 62.201852667545609 220.63460205377487 0 0 0 0 -79.845688694098499 126.34862906849594 0 126.34862906849594 -219.61594975636103 0 0 0 0 -30.379008346761111 87.089809299475746 0 87.089809299475746 -220.51212235737717 0 0 0 0 -29.982167392852716 -126.15565370146214 0 -126.15565370146214 50.318687490653247 0 0 0 0 -97.919517539183289 17.147914689860954 0 17.147914689860954 -44.960255627782317 0 0 0 0 -73.924731728300685 -115.13163795165019 0 -115.13163795165019 186.90224778112497 0 0 0 0 70.990803857217543 -71.431133850521292 0 -71.431133850521292 -2.4137766807689331 0 0 0 0 -15.412499697359181 -17.222772474882643 0 -17.222772474882643 -5.5324225005174483 0 0 0 0 -33.118614335704478 37.488858208802412 0 37.488858208802412 -123.42500508637386 0 0 0 0 -130.71151578746503 112.27190584337222 0 112.27190584337222 -146.97407542238943 0 0 0 0 -131.8409001652617 91.09603160568804 0 91.09603160568804 -141.44468166091247 0 0 0 0 -131.84090016520349 91.096031605819007 0 91.096031605819007 -141.44468166070874 0 0 0 0 -131.84090016534901 91.096031605658936 0 91.096031605658936 -141.44468166062143 0 0 0 0 -92.756946197710931 72.696202450126293 0 72.696202450126293 -139.23020247575187 0 0 0 0 -72.305266756447963 57.424604936735705 0 57.424604936735705 -139.17149737071986 0 0 0 0 -17.60869082908539 47.451052342707044 0 47.451052342707044 -161.42673590502818 0 0 0 0 8.7256643557702773 14.949832244776189 0 14.949832244776189 -147.26566409099905 0 0 0 0 -21.174505591967318 37.82878681936927 0 37.82878681936927 -146.14464439592848 0 0 0 0 11.941215572645888 13.462713975008228 0 13.462713975008228 -153.95842325559352 0 0 0 0 -11.683724394970341 42.561136328396969 0 42.561136328396969 -174.03824867519143 0 0 0 0 -10.239453578891698 43.168642161122989 0 43.168642161122989 -174.44792080132174 0 0 0 0 -116.91232124122325 132.97211214259733 0 132.97211214259733 -175.83221480593784 0 0 0 0 -3.5353081178618595 43.246131425650674 0 43.246131425650674 -194.89309015050458 0 0 0 0 -49.760626074450556 77.661987020692322 0 77.661987020692322 -200.95182931576346 0 0 0 0 -69.334532487773686 85.876140467749792 0 85.876140467749792 -179.61402088066097 0 0 0 0 -63.01787123484246 98.319771675145603 0 98.319771675145603 -185.0159241646179 0 0 0 0 -107.99737119022757 120.11141289936495 0 120.11141289936495 -179.17194702547567 0 0 0 0 -90.963848088431405 86.28613880967896 0 86.28613880967896 -153.6468636104255 0 0 0 0 -57.807518353249179 65.975640973701957 0 65.975640973701957 -168.09423173025425 0 0 0 0 -88.286176285299007 88.055423076832085 0 88.055423076832085 -155.11202323791804 0 0 0 0 -51.589120040938724 75.306671160564292 0 75.306671160564292 -176.00768001218967 0 0 0 0 -2.3087614160976955 26.087512257494382 0 26.087512257494382 -139.21522704094969 0 0 0 0 -21.340689948105137 -14.565463685372379 0 -14.565463685372379 -103.16430412506452 0 0 0 0 -22.707066889386624 19.347462646925123 0 19.347462646925123 -128.90254208742954 0 0 0 0 21.852575530792819 -7.1628841176934657 0 -7.1628841176934657 -125.43957874398893 0 0 0 0 6.7260175903466006 -29.258851455950207 0 -29.258851455950207 -106.51338850180036 0 0 0 0 14.326393164083129 -51.468227013303476 0 -51.468227013303476 -58.434043843393738 0 0 0 0 40.033566544603673 -20.635580519079667 0 -20.635580519079667 -57.125507498993102 0 0 0 0 -0.79467017413116992 -12.673212028442322 0 -12.673212028442322 -104.90203463991929 0 0 0 0 38.035957180152764 -10.855565402132015 0 -10.855565402132015 -113.14063900950714 0 0 0 0 26.276122066527023 -46.339197694935137 0 -46.339197694935137 -82.56453934858655 0 0 0 0 13.443413852219237 -19.485136475923355 0 -19.485136475923355 -114.03651184478076 0 0 0 0 15.401821995706996 11.29157141984615 0 11.29157141984615 -238.84273858417873 0 0 0 0 -36.517387301129929 78.668458047573949 0 78.668458047573949 -229.00181796365359 0 0 0 0 -6.6039250963005998 31.759580453954754 0 31.759580453954754 -205.54223193977668 0 0 0 0 -12.514398049770534 25.124458911453985 0 25.124458911453985 -160.58023069048068 0 0 0 0 25.374677748579415 -23.585940532058885 0 -23.585940532058885 -122.96952519229308 0 0 0 0 26.810765276110033 14.209224118254497 0 14.209224118254497 -180.15601064625662 0 0 0 0 -3.6182201201736461 -71.91444933011735 0 -71.91444933011735 -0.58777586339783738 0 0 0 0 40.794351454955176 -69.585356885392684 0 -69.585356885392684 -173.34128417301326 0 0 0 0 34.766331758917659 -92.998080725388718 0 -92.998080725388718 -133.5275628628624 0 0 0 0 8.3729628456567298 13.799553812572412 0 13.799553812572412 49.037294877187378 0 0 0 0 -75.885959949388052 -90.760155287433008 0 -90.760155287433008 144.2382591509886 0 0 0 0 -6.4504210521207028 -2.5988217535836355 0 -2.5988217535836355 2.3987615225669625 0 0 0 0 -9.2904477944175596 -15.846298902542912 0 -15.846298902542912 37.961940109158604 0 0 0 0 -17.306950594556838 -6.7967715497993595 0 -6.7967715497993595 73.71489390811621 0 0 0 0 0.016789742487162584 -23.549483660392525 0 -23.549483660392525 20.884521951753413 0 0 0 0 -9.4655274425385869 -15.9288345644527 0 -15.9288345644527 -16.252254354616298 0 0 0 0 -7.3505086127093762 -15.293816086876348 0 -15.293816086876348 0.78688772142113894 0 0 0 0 -6.1744680623292538 -4.5666408213696457 0 -4.5666408213696457 -0.073994849943634255 0 0 0 0 -14.578347419861529 -21.985643127700314 0 -21.985643127700314 16.962866199388031 0 0 0 0 -246.12936281349539 -327.59353741503219 0 -327.59353741503219 -406.64152049360075 0 0 0 0 -0.13387671001081713 -12.309446461559745 0 -12.309446461559745 8.7785111002906717 0 0 0 0 -0.42415699838616661 -0.42390069027626964 0 -0.42390069027626964 3.0476368242101408 0 0 0 0 -11.697491844919568 -8.7083507988099882 0 -8.7083507988099882 19.648657167366764 0 0 0 0 19.040691034188058 -25.331422783601738 0 -25.331422783601738 -36.479671144730673 0 0 0 0 -13.354336620752292 -12.977229011088639 0 -12.977229011088639 9.8952162790446891 0 0 0 0 0.0030818044106126763 -25.071755838087483 0 -25.071755838087483 -26.045160801026213 0 0 0 0 -2.4723122359102661 -0.19795041991179829 0 -0.19795041991179829 -1.0084180941834771 0 0 0 0 61.162039082533738 -370.86227038528523 0 -370.86227038528523 -1246.5413081428173 0 0 0 0 -48.497422334359726 -38.878207020561604 0 -38.878207020561604 92.105181565399107 0 0 0 0 -0.050393790152156726 -963.55067824091566 0 -963.55067824091566 -700.38905976322712 0 0 0 0 -278.57720652829448 -702.63154466840206 0 -702.63154466840206 -747.36845250521583 0 0 0 0 -312.53162640372648 -781.82458600210475 0 -781.82458600210475 -463.24212852590426 0 0 0 0 -418.8682555014384 -1207.9528156028373 0 -1207.9528156028373 -356.69752042518667 0 0 0 0 -1001.5294965077119 -1112.939728387295 0 -1112.939728387295 0.058174891200906131 0 0 0 0 -484.09560249958486 -1026.7321811090278 0 -1026.7321811090278 -429.99885027839628 0 0 0 0 -1581.9153461288734 -869.1102574538163 0 -869.1102574538163 -102.09241607002696 0 0 0 0 -1.2770947034705742 -0.99322690117901402 0 -0.99322690117901402 -2.6152079416649769 0 0 0 0 109.2690173158353 1.099338676309344 0 1.099338676309344 -27.921159655961674 0 0 0 0 -1926.3993867381796 -627.0805786008641 0 -627.0805786008641 -227.940549275183 0 0 0 0 -1762.2450151421581 -959.97459655737111 0 -959.97459655737111 -25.282079575748867 0 0 0 0 21.729956005387066 -30.342365570544644 0 -30.342365570544644 -19.921379836749111 0 0 0 0 2.7071431011726688 -3.3023758946254702 0 -3.3023758946254702 -9.9515481192358379 0 0 0 0 38.583276119072252 -18.363934383542073 0 -18.363934383542073 -12.56806434840837 0 0 0 0 12.461664606053091 -36.627343304659007 0 -36.627343304659007 1.9611922763069742 0 0 0 0 -3.1466364543211967 -16.819211812355206 0 -16.819211812355206 -6.0495626664051088 0 0 0 0 -6.4660787663087831 -15.780992053350928 0 -15.780992053350928 4.9687291461159475 0 0 0 0 -4.0163857698493928 -11.167045553765874 0 -11.167045553765874 -8.9285751383725795 0 0 0 0 -979.61452973881387 -754.76322203193558 0 -754.76322203193558 -258.54753413216531 0 0 0 0 -1053.5146267947475 -569.52172060227076 0 -569.52172060227076 -485.47695821241359 0 0 0 0 -993.04318603702268 -858.29210098109252 0 -858.29210098109252 -413.12449536104396 0 0 0 0 0.71530286726821402 -8.1257965728787838 0 -8.1257965728787838 0.12053145778148178 0 0 0 0 3.1536555333978811 -7.4926772681020424 0 -7.4926772681020424 -6.0220547216719069 0 0 0 0 -855.5578668857197 -515.29403777324114 0 -515.29403777324114 -228.86874826965504 0 0 0 0 -257.13750791376879 -329.82962503238377 0 -329.82962503238377 -381.75923139457882 0 0 0 0 -7.5966085094041773 -10.138346409705264 0 -10.138346409705264 -6.0052980531254434 0 0 0 0 -6.3452383064013702 -19.037697338646922 0 -19.037697338646922 -12.499356655775046 0 0 0 0 7.1989744598686229 -8.0731282605011074 0 -8.0731282605011074 -4.7935229951399378 0 0 0 0 9.9908174111114931 -19.181867312796385 0 -19.181867312796385 -26.777266896589936 0 0 0 0 -5.4002681608253624 -31.182938009384088 0 -31.182938009384088 -21.764445032638832 0 0 0 0 -31.904353355734202 -33.92536749433566 0 -33.92536749433566 31.993252829567609 0 0 0 0 -8.7839766245408839 -13.243287796978152 0 -13.243287796978152 -9.7866826003249656 0 0 0 0 -43.27436964714434 -32.522783147389418 0 -32.522783147389418 -20.313169076529448 0 0 0 0 -20.467827749285789 6.8861448513889627 0 6.8861448513889627 19.597714895860008 0 0 0 0 -85.569795791347133 15.05016343389434 0 15.05016343389434 -2.3427587048790883 0 0 0 0 4.0566015763433825 -50.945093185855512 0 -50.945093185855512 -22.402493000990944 0 0 0 0 -14.138822815144522 -64.29542098926504 0 -64.29542098926504 -41.174362208250386 0 0 0 0 16.149350125568162 -25.585655870610935 0 -25.585655870610935 -14.614244482561844 0 0 0 0 0.62908238663104754 0.31282522960303538 0 0.31282522960303538 -1.1754065950484573 0 0 0 0 -102.32234136652914 -31.427912614406523 0 -31.427912614406523 17.989293130180158 0 0 0 0 -64.35558893484631 -37.99597432093924 0 -37.99597432093924 0.037085980442498112 0 0 0 0 -42.202321411483354 -3.8651128136598345 0 -3.8651128136598345 -21.242493715704768 0 0 0 0 15.951865776602062 -49.333288194182387 0 -49.333288194182387 0.0010416962958795023 0 0 0 0 30.628395649815502 -25.330064240264619 0 -25.330064240264619 0.0084937158462707885 0 0 0 0 55.428746574936667 -18.761575186726986 0 -18.761575186726986 -5.6905712905281689 0 0 0 0 0.71568936996046162 1.2508681972566151 0 1.2508681972566151 -0.80456309441771623 0 0 0 0 -53.515320260423323 -35.345967708270109 0 -35.345967708270109 -15.755252440067125 0 0 0 0 7.8509996059729019 -9.3320690759755962 0 -9.3320690759755962 -7.334225462388531 0 0 0 0 36.175877357680292 -22.752944926338387 0 -22.752944926338387 5.2771817765788001 0 0 0 0 12.803204751446174 -21.681500208127545 0 -21.681500208127545 13.110002507492027 0 0 0 0 0.86305473968278434 0.17643444567842437 0 0.17643444567842437 -0.22358622069819489 0 0 0 0 33.387679877414485 -46.959601724433014 0 -46.959601724433014 34.83847545344986 0 0 0 0 -2.6716582510614018 -5.4565944584966388 0 -5.4565944584966388 -0.31336570167163202 0 0 0 0 -5.6965253415837651 -4.2217913507793128 0 -4.2217913507793128 5.8791190063857357 0 0 0 0 0.14905335230824335 -0.85934051219992114 0 -0.85934051219992114 0.20567237319606413 0 0 0 0 16.010597517029964 10.445540206586884 0 10.445540206586884 -11.900281956104664 0 0 0 0 -4.3368245223318809 -3.3113235116834403 0 -3.3113235116834403 10.199049279446626 0 0 0 0 -4.0186316684521444 -7.1443923327733501 0 -7.1443923327733501 4.1119572863826761 0 0 0 0 1.3156511918270155 -0.70891172248521528 0 -0.70891172248521528 -1.1785887215708186 0 0 0 0 -2.9105426997794694 -0.85101740092856204 0 -0.85101740092856204 8.6337779841835243 0 0 0 0 11.898442898578651 -8.8124148073329707 0 -8.8124148073329707 15.617931025036341 0 0 0 0 -11.69042641226406 -36.51338300549105 0 -36.51338300549105 -46.336338172404794 0 0 0 0 14.702078857251763 -16.417490235109653 0 -16.417490235109653 -19.996507682022639 0 0 0 0 -1.7016501257385244 -2.0543283302395139 0 -2.0543283302395139 2.934705218700401 0 0 0 0 0.66203295195654732 -1.3053501313860281 0 -1.3053501313860281 -0.90090228308201148 0 0 0 0 -3.4371088393236278 -3.1397731326251233 0 -3.1397731326251233 3.1558086669247132 0 0 0 0 -4.1079333749432365 -9.4466353127835134 0 -9.4466353127835134 -7.2012636479149421 0 0 0 0 5.1061721938604023 -18.408872873045766 0 -18.408872873045766 -8.7609968128381297 0 0 0 0 1.5544136696844362 -10.560434583927417 0 -10.560434583927417 -9.5895079136292907 0 0 0 0 -80.485582779190736 -54.151443320406543 0 -54.151443320406543 53.86467640218325 0 0 0 0 35.260473411603016 -36.907613055111142 0 -36.907613055111142 -34.959817221679259 0 0 0 0 1.8724282702067825 -8.7420474591715873 0 -8.7420474591715873 -12.249425701650306 0 0 0 0 -5.1139597002971655 -13.81041803176943 0 -13.81041803176943 -19.166740958055598 0 0 0 0 6.0795629615713551 -16.226279949095442 0 -16.226279949095442 -20.164620041119633 0 0 0 0 -2.2735439612843322 -9.1140175817702485 0 -9.1140175817702485 -12.590255458072676 0 0 0 0 -7.1543561827056692 -20.371786232990416 0 -20.371786232990416 -15.537711373810453 0 0 0 0 25.420595288815093 -118.39521348144262 0 -118.39521348144262 -60.018981747734301 0 0 0 0 -34.579897690928192 -34.344747635206659 0 -34.344747635206659 59.719306998078537 0 0 0 0 15.819286922240281 -2.2896075346216094 0 -2.2896075346216094 -47.336915860658337 0 0 0 0 -10.107835301911109 -11.62493836953945 0 -11.62493836953945 26.730175967788227 0 0 0 0 -8.7450928966639481 -14.882231821114502 0 -14.882231821114502 -2.8227157613180207 0 0 0 0 -6.6749939767105388 -12.683451500649426 0 -12.683451500649426 11.962667181636789 0 0 0 0 1.6796654241334181 -17.420904101178166 0 -17.420904101178166 7.3782699725825296 0 0 0 0 6.4569616641503131 -12.388596091732552 0 -12.388596091732552 -21.482381894453312 0 0 0 0 -8.2838346764016322 -11.442103303626752 0 -11.442103303626752 -9.008484040719253 0 0 0 0 -6.1266647451288208 -11.815552178382628 0 -11.815552178382628 -7.2896763076920763 0 0 0 0 -11.654434803938479 -8.5864023290561633 0 -8.5864023290561633 9.8191212253010463 0 0 0 0 -32.591097655298654 -11.815995449182083 0 -11.815995449182083 12.326452590001281 0 0 0 0 13.483510298472538 -21.772818908961199 0 -21.772818908961199 26.678622566074409 0 0 0 0 1.4475849928057869 -22.788077938937931 0 -22.788077938937931 -11.480653018777957 0 0 0 0 -7.9028917438339761 -13.830475709829514 0 -13.830475709829514 -0.17368969203419726 0 0 0 0 -17.723272354494839 -31.522468757830211 0 -31.522468757830211 -13.083304455342386 0 0 0 0 -4.5620970757674399 -1.4349968413297844 0 -1.4349968413297844 -0.38812123458192715 0 0 0 0 -1.5607979088093487 -0.88851336441059914 0 -0.88851336441059914 -0.13987371562398465 0 0 0 0 14.29094041074859 -66.102716900568339 0 -66.102716900568339 -197.97469695754489 0 0 0 0 -12.467559921769862 12.520129184360485 0 12.520129184360485 71.226356342885992 0 0 0 0 -37.60546378523577 -13.014720850715094 0 -13.014720850715094 103.8048137826454 0 0 0 0 -36.991590898964205 -46.45762281982752 0 -46.45762281982752 -76.302728384824377 0 0 0 0 -13.60402758231794 -22.871119835750505 0 -22.871119835750505 -77.890877816615102 0 0 0 0 -45.933289072341722 -58.694306427594711 0 -58.694306427594711 -10.793372409207223 0 0 0 0 -9.9779181123030867 -32.325211419768493 0 -32.325211419768493 -73.707779087642848 0 0 0 0 -12.131594216392841 -26.533668801504973 0 -26.533668801504973 -68.236934257709436 0 0 0 0 8.0043056004033133 -3.7609103930553829 0 -3.7609103930553829 -137.05706441557777 0 0 0 0 -17.514189854176948 -5.3560805507368059 0 -5.3560805507368059 -96.115036143433827 0 0 0 0 7.4186144170162152 14.579543366897269 0 14.579543366897269 -86.644285852265966 0 0 0 0 -90.670090124476701 2.3450693634840718 0 2.3450693634840718 -14.368073666139026 0 0 0 0 -35.509241096980986 26.698237391346993 0 26.698237391346993 -67.874414763107779 0 0 0 0 7.8208074123467668 48.072556268678454 0 48.072556268678454 -65.249491381889584 0 0 0 0 -223.96861252975941 20.489649599599943 0 20.489649599599943 37.639159831307552 0 0 0 0 143.43281118218874 -216.91727480774898 0 -216.91727480774898 -330.84791423882416 0 0 0 0 65.013577204590547 -57.352917470074317 0 -57.352917470074317 -27.89399180550754 0 0 0 0 -46.547840501123574 -64.854011125760735 0 -64.854011125760735 57.708944754631375 0 0 0 0 18.762335226449068 -135.62811996568053 0 -135.62811996568053 -27.896638777419867 0 0 0 0 -31.118153568902926 -13.761625443577941 0 -13.761625443577941 20.020645512739065 0 0 0 0 0.043800466296602281 -3.6002184161872179 0 -3.6002184161872179 -3.1556235664745884 0 0 0 0 -9.7884700532304123 1.6774583629376139 0 1.6774583629376139 -61.638054618451861 0 0 0 0 8.2512791577028111 -14.594501822684833 0 -14.594501822684833 -255.03203680988918 0 0 0 0 -7.4522220621256565 -38.04838120470049 0 -38.04838120470049 -88.994157808454474 0 0 0 0 -3.2958155458036344 -3.5570634737669025 0 -3.5570634737669025 -68.796876655469532 0 0 0 0 -9.9016536674025701 -30.270174439487164 0 -30.270174439487164 -48.572467543941457 0 0 0 0 -2.3833500659446614 -3.946453177546168 0 -3.946453177546168 3.1449579764242515 0 0 0 0 26.251991966695641 -43.995388796553016 0 -43.995388796553016 -48.487198193495004 0 0 0 0 17.881439593664254 -20.066725065407809 0 -20.066725065407809 -58.04568823097361 0 0 0 0 -5.2731417395639681 -11.062729075781085 0 -11.062729075781085 -19.926785919672568 0 0 0 0 -1.8725263946107589 -21.095241542869189 0 -21.095241542869189 -18.565446182954474 0 0 0 0 2.6193235902599383 -1.7060980602631055 0 -1.7060980602631055 -5.1252135858621131 0 0 0 0 51.049218949025089 13.026505901916607 0 13.026505901916607 -26.111431550445559 0 0 0 0 -25.977275341647328 63.441588909081474 0 63.441588909081474 -48.327654229602786 0 0 0 0 54.634947596983693 -8.8987286711271736 0 -8.8987286711271736 -17.831624340171402 0 0 0 0 -53.662898145397776 -138.78909468268103 0 -138.78909468268103 -53.524384638760239 0 0 0 0 -17.50297071298337 -27.192302550858585 0 -27.192302550858585 -23.90549373630347 0 0 0 0 -10.901889015953202 -32.006878545445943 0 -32.006878545445943 -79.969461128021067 0 0 0 0 -5.1356871858333761 -11.60646885360984 0 -11.60646885360984 -16.29304169385432 0 0 0 0 -44.502762957294181 -40.953475216258084 0 -40.953475216258084 -49.96213575679576 0 0 0 0 -18.351451833183091 -35.418698917786969 0 -35.418698917786969 -22.917853139453655 0 0 0 0 6.5280939933446405 -3.060806808904772 0 -3.060806808904772 -25.14127350040684 0 0 0 0 -18.200323515309719 -44.164891684769827 0 -44.164891684769827 -85.911308033548266 0 0 0 0 -95.707023722934537 -78.586054761792184 0 -78.586054761792184 -81.41341381095117 0 0 0 0 3.672712059108818 -0.68790409557609422 0 -0.68790409557609422 -4.6776522942999748 0 0 0 0 -32.96706840157276 -55.128281275261543 0 -55.128281275261543 -76.252397660879069 0 0 0 0 -5.2016117571043878 -14.34514513388504 0 -14.34514513388504 -14.253392591548234 0 0 0 0 -9.5554885175661184 -16.998106444778387 0 -16.998106444778387 -16.484400352503144 0 0 0 0 -0.89419947786154808 -11.706305714269547 0 -11.706305714269547 -8.7336883482385019 0 0 0 0 -7.0161355057569779 -12.05336662405 0 -12.05336662405 -6.8778418618695198 0 0 0 0 -5.2780620525897959 -10.789259527346303 0 -10.789259527346303 -12.676049264895852 0 0 0 0 -3.8003866765902785 -17.518284239999048 0 -17.518284239999048 -19.668325264952728 0 0 0 0 -0.6070897477183621 -6.6911647747316891 0 -6.6911647747316891 -14.186596171569818 0 0 0 0 0.9419574162675417 8.3085161265917122 0 8.3085161265917122 -37.075884759382461 0 0 0 0 16.061708695226116 36.12837906095956 0 36.12837906095956 -139.39362997474382 0 0 0 0 -40.75904168390116 -23.381266440723266 0 -23.381266440723266 -7.5526528710033745 0 0 0 0 0.50661402340735151 0.77324717442159852 0 0.77324717442159852 -0.90810139545999391 0 0 0 0 -36.299976625974523 -10.164234411954567 0 -10.164234411954567 -148.60215783980675 0 0 0 0 -4.8373562577654212 -6.6764356536616418 0 -6.6764356536616418 -6.4322343901722547 0 0 0 0 25.329800939187407 -134.20982688835647 0 -134.20982688835647 -87.10008507972816 0 0 0 0 -28.511134484622744 -46.920855672311518 0 -46.920855672311518 -16.476212471985491 0 0 0 0 -8.818924509227358 -19.523686043235823 0 -19.523686043235823 -19.042588001587816 0 0 0 0 -23.440422393599874 -29.960412088228622 0 -29.960412088228622 -25.024276534219098 0 0 0 0 1.3762549938765005 -73.173459728393937 0 -73.173459728393937 -120.28979914243973 0 0 0 0 -23.881221450600989 -31.791655054699461 0 -31.791655054699461 -21.467606389362395 0 0 0 0 -25.752420386437734 -45.430491005274234 0 -45.430491005274234 -48.923394430341432 0 0 0 0 -34.028661058782745 -65.190545187031603 0 -65.190545187031603 -42.867438576427958 0 0 0 0 -13.387945476832101 -20.764015506410942 0 -20.764015506410942 -26.961995578691131 0 0 0 0 -11.323560664553952 -32.391959803382633 0 -32.391959803382633 -40.227517270774115 0 0 0 0 -8.932417467891355 -36.823687067306309 0 -36.823687067306309 -59.61133429180336 0 0 0 0 -9.6819793846207176 -22.763043099468632 0 -22.763043099468632 -45.027665666275425 0 0 0 0 -6.5128742765955394 -42.252662720846274 0 -42.252662720846274 -22.353731502807932 0 0 0 0 -15.058049940918863 -41.823247558319053 0 -41.823247558319053 -2.1923474714240001 0 0 0 0 -8.7536135941481916 -38.8745636081876 0 -38.8745636081876 -32.192706910245761 0 0 0 0 1.1631058931598091 -39.941804687950935 0 -39.941804687950935 -44.655075995688094 0 0 0 0 -6.7429322611133102 -50.521961984260997 0 -50.521961984260997 -26.933125997093157 0 0 0 0 2.2238263354483934 -45.591863267978624 0 -45.591863267978624 -33.39022346920683 0 0 0 0 1.2283603312462219 -40.06393810595182 0 -40.06393810595182 -49.909763719828334 0 0 0 0 -1.2799554844677914 -33.818957540453994 0 -33.818957540453994 -56.336295909452019 0 0 0 0 -4.1075801980259712 -41.429981493434752 0 -41.429981493434752 -55.012365282163955 0 0 0 0 -10.770221137907356 -46.881180441065226 0 -46.881180441065226 -61.210975587338453 0 0 0 0 9.3843544998089783 -47.43315439439175 0 -47.43315439439175 -48.353175516926058 0 0 0 0 -1.0046281946124509 -35.233808911762026 0 -35.233808911762026 -61.463094408260076 0 0 0 0 7.8295630407374119 -39.053702013072325 0 -39.053702013072325 -61.667129166598897 0 0 0 0 15.841276518745872 -52.011843146508909 0 -52.011843146508909 -62.702658399590291 0 0 0 0 -23.018678131185879 -39.828543421579525 0 -39.828543421579525 -55.304019217364839 0 0 0 0 -16.977483223425224 -38.414061897361535 0 -38.414061897361535 -71.386091106896856 0 0 0 0 -12.373087718224269 -37.225705478776945 0 -37.225705478776945 -54.840130012467853 0 0 0 0 -41.293293021284626 -54.120190567904501 0 -54.120190567904501 -61.448933099823989 0 0 0 0 -12.215640244001406 -48.317912917154899 0 -48.317912917154899 -65.82337647688837 0 0 0 0 -19.590402507732506 -45.477875629956543 0 -45.477875629956543 -64.436816355286282 0 0 0 0 -34.357796065763978 -62.348480258064228 0 -62.348480258064228 -71.94525792033528 0 0 0 0 1.8193592091670752 -1.9144551171621345 0 -1.9144551171621345 -7.1316251325013837 0 0 0 0 -29.217190771916648 -58.339299409359228 0 -58.339299409359228 -73.781384916044772 0 0 0 0 -20.617340208082169 -36.517898905491165 0 -36.517898905491165 -68.77111401266302 0 0 0 0 -17.791786565896473 -59.430691299014143 0 -59.430691299014143 -87.926362289872486 0 0 0 0 -1.1763548808048085 -1.078536280271166 0 -1.078536280271166 0.26566175841608697 0 0 0 0 -2.5348755312879803 -7.6663184439603356 0 -7.6663184439603356 -5.8969070154198562 0 0 0 0 -15.491291146397998 -0.16605729654474999 0 -0.16605729654474999 68.858707471765229 0 0 0 0 -0.39660065747824547 -1.3152186799998447 0 -1.3152186799998447 0.64780102659750582 0 0 0 0 -12.7943387401574 -15.21040871684454 0 -15.21040871684454 5.3877193006919697 0 0 0 0 44.314679028146202 -64.962315800439683 0 -64.962315800439683 -58.056372732997261 0 0 0 0 19.302309964790766 -75.110015294074401 0 -75.110015294074401 -44.669384352106135 0 0 0 0 24.885334875980334 -33.930598941293283 0 -33.930598941293283 -69.049424799632106 0 0 0 0 -8.2458296540080482 -38.011178470407685 0 -38.011178470407685 -56.103253224151558 0 0 0 0 93.791253576207964 -43.600471625497448 0 -43.600471625497448 -59.992430777130721 0 0 0 0 65.700950007701977 -118.59582463765582 0 -118.59582463765582 9.7058554183458909 0 0 0 0 31.238230840157485 -75.211525511909713 0 -75.211525511909713 -44.670431662918418 0 0 0 0 7.2064101110227057 -21.381802526775573 0 -21.381802526775573 93.313673048731289 0 0 0 0 135.62285844330108 -40.14496641506048 0 -40.14496641506048 -65.852337431511842 0 0 0 0 -22.056999625441676 -37.627663803592441 0 -37.627663803592441 26.654585642230813 0 0 0 0 -18.052472744537226 -74.051870221126592 0 -74.051870221126592 61.829350894656727 0 0 0 0 -8.2697832373742131 -58.779563273521489 0 -58.779563273521489 -25.846761398468516 0 0 0 0 -7.6338258501491509 -43.842307456441631 0 -43.842307456441631 -33.357947105952917 0 0 0 0 -13.629388948902488 -31.704298429169285 0 -31.704298429169285 -20.551745981669228 0 0 0 0 -13.909588025024277 -34.81928562484245 0 -34.81928562484245 -19.493124855631322 0 0 0 0 -11.993478317628615 -29.460314912415924 0 -29.460314912415924 -12.701137934345752 0 0 0 0 -13.288659206073135 -31.578542914890932 0 -31.578542914890932 -11.956966764613753 0 0 0 0 -20.361477120881318 -38.318069506094616 0 -38.318069506094616 -15.085298829544627 0 0 0 0 -16.08951617285129 -27.669310728590062 0 -27.669310728590062 1.7601910321318428 0 0 0 0 -11.14976520757773 -20.558614579793357 0 -20.558614579793357 -7.0783661036293779 0 0 0 0 -14.234259635406488 -20.715055513555853 0 -20.715055513555853 -6.9761872447197675 0 0 0 0 -4.0530648225772836 -6.2243258830327193 0 -6.2243258830327193 0.12392090200199846 0 0 0 0 -9.5435053614783101 -28.442488630200387 0 -28.442488630200387 -11.368433107052624 0 0 0 0 -10.431259303213665 -22.893637783759004 0 -22.893637783759004 -10.106689684456796 0 0 0 0 -6.0672225603480712 -12.05649472321862 0 -12.05649472321862 -14.095443514553565 0 0 0 0 -7.3297364118188852 -21.202212111686094 0 -21.202212111686094 -18.898966137407115 0 0 0 0 -1.0159413845249219 -28.454586066000047 0 -28.454586066000047 -15.816320589961833 0 0 0 0 -4.1684365106575711 -10.054020381179903 0 -10.054020381179903 -14.294671150414359 0 0 0 0 -0.84552656448067864 -22.587948406071519 0 -22.587948406071519 -0.68498009712493513 0 0 0 0 1.8346215059573296 -32.29760045285002 0 -32.29760045285002 -13.38698173033481 0 0 0 0 3.7678514889485086 -19.889535256334057 0 -19.889535256334057 -22.237440137658268 0 0 0 0 0.10621230170083606 -4.0945884090576925 0 -4.0945884090576925 -1.8975363620409322 0 0 0 0 -1.6458520446176408 -26.339644576670253 0 -26.339644576670253 -14.330286423130019 0 0 0 0 -9.0485611278563738 -31.054306779537001 0 -31.054306779537001 -8.7874490681133466 0 0 0 0 -3.8374311934549041 -27.240080359499188 0 -27.240080359499188 -14.33589278247382 0 0 0 0 -5.045744074821414 -31.152276541353785 0 -31.152276541353785 -22.521590168325929 0 0 0 0 -0.74381439157878049 -18.979673889203696 0 -18.979673889203696 -14.338220238207512 0 0 0 0 -0.77286239591194317 -21.964971943401906 0 -21.964971943401906 -21.244901524412853 0 0 0 0 1.4330510966246948 -32.038593133445829 0 -32.038593133445829 24.791775328510766 0 0 0 0 2.204712563965586 -18.752871446442441 0 -18.752871446442441 -19.528723425268254 0 0 0 0 12.279695543802518 -20.180217468947376 0 -20.180217468947376 -25.833411491941661 0 0 0 0 -4.6570604889711831 -51.143195103701146 0 -51.143195103701146 -53.335250705909857 0 0 0 0 -1.0392721994394378 -2.4568585470642574 0 -2.4568585470642574 -80.772880298667587 0 0 0 0 -6.4473069152663811 -8.4033508481443278 0 -8.4033508481443278 -31.836855450537769 0 0 0 0 -2.6147299755903077 -29.981799247227173 0 -29.981799247227173 -39.253458890292677 0 0 0 0 -3.2567219302254671 -9.1693798555461399 0 -9.1693798555461399 27.818900668644346 0 0 0 0 7.8747856504807601 -3.4091830889000505 0 -3.4091830889000505 -1.1901066142276662 0 0 0 0 45.085853578581009 -22.677617419394664 0 -22.677617419394664 34.149333181856491 0 0 0 0 -13.312968412130431 -32.557348892682057 0 -32.557348892682057 32.652132845962115 0 0 0 0 -0.75981946232544573 0.88758838310751287 0 0.88758838310751287 1.0106720893511181 0 0 0 0 63.611771566747848 -25.18835125977057 0 -25.18835125977057 -6.1536342260442325 0 0 0 0 38.559170575314965 -11.603539039036605 0 -11.603539039036605 -13.482617576875782 0 0 0 0 54.537150650568947 -38.783475989926956 0 -38.783475989926956 -7.7433868497282674 0 0 0 0 -0.81102149497385767 0.96595239279886869 0 0.96595239279886869 1.0742085084770565 0 0 0 0 86.999926656410025 -48.756569379612301 0 -48.756569379612301 -4.9321252955633099 0 0 0 0 -7.8477682714274124 -24.763120282880664 0 -24.763120282880664 -0.0029340073233470321 0 0 0 0 21.359033578693925 -1.2111451079108519 0 -1.2111451079108519 -1.3489436352901976 0 0 0 0 54.394152096601829 -60.272899931984284 0 -60.272899931984284 7.7064073004185047 0 0 0 0 60.152675437224389 -59.063935616497474 0 -59.063935616497474 0.0074825783090503254 0 0 0 0 54.367754894468817 -55.25845778582152 0 -55.25845778582152 12.423555527078861 0 0 0 0 31.073079120866169 -65.082522202283144 0 -65.082522202283144 21.820373927310357 0 0 0 0 18.841768811533257 -53.796158791723428 0 -53.796158791723428 92.028485331000411 0 0 0 0 5.4598701226952784 -2.18338799669894 0 -2.18338799669894 -0.44604147938953886 0 0 0 0 30.412305420912162 -34.953444294977089 0 -34.953444294977089 -139.78054423667345 0 0 0 0 9.898653286993067 -82.051911567225034 0 -82.051911567225034 -92.899062595006399 0 0 0 0 -46.906171301241557 -3.2370133443218947 0 -3.2370133443218947 -58.576115858484627 0 0 0 0 47.890457408953807 -116.45719114680742 0 -116.45719114680742 0.97698432512333966 0 0 0 0 2.2579512061766565 -1.5086077605366768 0 -1.5086077605366768 -0.36382613638587813 0 0 0 0 90.032285595214489 22.449438593293962 0 22.449438593293962 -242.00535182044041 0 0 0 0 4.0005140766952536 -28.849995058375498 0 -28.849995058375498 -124.96003598422249 0 0 0 0 -117.55143740026688 -202.77588861282129 0 -202.77588861282129 59.125720600147361 0 0 0 0 19.733135815612513 -85.986338626419638 0 -85.986338626419638 184.61556655632376 0 0 0 0 -61.907814912720823 -51.779412647693789 0 -51.779412647693789 0.047023611412441824 0 0 0 0 -25.825432926343638 -7.8442870418693929 0 -7.8442870418693929 -21.280235295230341 0 0 0 0 52.421652438662022 -64.444606110238965 0 -64.444606110238965 -0.057001520621270174 0 0 0 0 -93.175729050177324 -61.851488317541225 0 -61.851488317541225 0.0058117598491662648 0 0 0 0 -84.264218869908291 -47.203010769302637 0 -47.203010769302637 15.060609733311139 0 0 0 0 -227.89166592551192 -36.43458150063816 0 -36.43458150063816 14.254164113130628 0 0 0 0 -35.698097001353744 -170.62998970984881 0 -170.62998970984881 -74.366676144192752 0 0 0 0 206.71528475860759 -81.649772656346613 0 -81.649772656346613 -43.52075020733173 0 0 0 0 -225.46247275284259 -28.570630105848977 0 -28.570630105848977 -15.347533693578953 0 0 0 0 -340.55157229870747 -81.004152073288424 0 -81.004152073288424 78.860268168486073 0 0 0 0 -471.12281911617902 61.46227776710839 0 61.46227776710839 53.137019332993077 0 0 0 0 71.803212490447549 -30.525861786521091 0 -30.525861786521091 38.352364978338301 0 0 0 0 -0.13901927130002889 -0.2087990463848115 0 -0.2087990463848115 -1.9883747879172802 0 0 0 0 114.44626784788124 -73.26768880295549 0 -73.26768880295549 20.050120737796533 0 0 0 0 -242.3904510043285 12.628637008739133 0 12.628637008739133 6.7431731817414402 0 0 0 0 144.08464992915833 -54.387639776639844 0 -54.387639776639844 4.5914150470052846 0 0 0 0 -1.1783323715362286 -2.5309851323649077 0 -2.5309851323649077 -5.0186657760609705 0 0 0 0 -21.504118063317947 -36.686473902500438 0 -36.686473902500438 8.406838648050325 0 0 0 0 -105.69936595646141 -17.86391477198049 0 -17.86391477198049 -2.8354950720386114 0 0 0 0 -97.868452339600481 -17.517918733690749 0 -17.517918733690749 -7.8922685316574643 0 0 0 0 -108.09105840115808 -67.491261148257763 0 -67.491261148257763 -11.10097563972522 0 0 0 0 -71.491978871170431 -56.661315611345344 0 -56.661315611345344 -12.608597298152745 0 0 0 0 -122.10994396420574 -28.093378698293236 0 -28.093378698293236 -2.2786313854448963 0 0 0 0 -92.302277107522968 -62.353126312100358 0 -62.353126312100358 -20.52192125502188 0 0 0 0 -183.80352262112137 -69.71413629457129 0 -69.71413629457129 18.785061395559751 0 0 0 0 66.908516745526867 -119.25376917891117 0 -119.25376917891117 -45.722970444381644 0 0 0 0 -33.328974034811836 -106.76473491197248 0 -106.76473491197248 -46.806823976419764 0 0 0 0 44.103681273525581 -66.055975664148718 0 -66.055975664148718 -101.43503319550655 0 0 0 0 11.379407136919326 -24.186763797151798 0 -24.186763797151798 -45.817728663387243 0 0 0 0 7.2593577926018042 -79.152928083589359 0 -79.152928083589359 7.7892000381107209 0 0 0 0 10.483478127098351 -73.133462960049656 0 -73.133462960049656 -41.017627482433454 0 0 0 0 -12.165407334076008 -91.52478906995384 0 -91.52478906995384 -31.255235137363343 0 0 0 0 18.053445412926521 -74.306527151275077 0 -74.306527151275077 -44.748548584771925 0 0 0 0 -96.171809110757749 -86.708458185599738 0 -86.708458185599738 -18.914883355879283 0 0 0 0 -39.945190965532674 -84.147731335324352 0 -84.147731335324352 -23.135357643644966 0 0 0 0 -35.335984881165132 -75.45675037251749 0 -75.45675037251749 -27.537750315459562 0 0 0 0 -51.32388212087244 -70.335123026721703 0 -70.335123026721703 -14.681161520362366 0 0 0 0 -74.480467062494427 -69.590617422807554 0 -69.590617422807554 -14.569623361574486 0 0 0 0 -33.18387341665948 -62.376865041886049 0 -62.376865041886049 -17.875649474168313 0 0 0 0 -35.657179252282731 -70.005902025439354 0 -70.005902025439354 -25.494913980452111 0 0 0 0 -38.162962531915582 -63.256465071821367 0 -63.256465071821367 -17.949379377896548 0 0 0 0 19.388604845207738 -62.039210807299241 0 -62.039210807299241 -46.825818620127393 0 0 0 0 3.3287024441997346 -71.31695953308008 0 -71.31695953308008 -44.516352645194274 0 0 0 0 -12.427703600325913 -75.747612755811133 0 -75.747612755811133 -28.886066452152591 0 0 0 0 -10.515029355083243 -67.325687336742703 0 -67.325687336742703 -37.743985850116587 0 0 0 0 -15.519018462226086 -63.611803724445053 0 -63.611803724445053 -23.507865334864618 0 0 0 0 -16.019629183618235 -58.225498551706551 0 -58.225498551706551 -30.984510914808197 0 0 0 0 -0.71576649632334011 -61.077106984921556 0 -61.077106984921556 -34.374847539140319 0 0 0 0 -1.3121625969943125 -56.142104872793425 0 -56.142104872793425 -48.465454215503996 0 0 0 0 -6.7451451092201751 -50.548370402837463 0 -50.548370402837463 -25.234826574618637 0 0 0 0 -25.232128944768192 -56.058827506127272 0 -56.058827506127272 -16.399883732388844 0 0 0 0 -21.816435823304346 -50.08438088119874 0 -50.08438088119874 -15.219065230950946 0 0 0 0 -45.522917079676631 -60.162779497334895 0 -60.162779497334895 -11.716753522327053 0 0 0 0 -33.452561604877701 -59.554471753472171 0 -59.554471753472171 -17.474991987357498 0 0 0 0 -34.053120388365642 -52.5871060025529 0 -52.5871060025529 -5.8553159314615186 0 0 0 0 -44.853526756065548 -58.476142286075628 0 -58.476142286075628 -1.7364591827135882 0 0 0 0 -40.070954101378447 -59.023272752019693 0 -59.023272752019693 -11.516388289433962 0 0 0 0 -42.056871909349866 -65.671813713554002 0 -65.671813713554002 -15.250472075276775 0 0 0 0 -38.405524313173373 -60.84723077226954 0 -60.84723077226954 -9.6488717369065853 0 0 0 0 -39.639966222981457 -53.516782552949735 0 -53.516782552949735 -11.421238424161857 0 0 0 0 -38.318946500789025 -53.028635176007811 0 -53.028635176007811 -11.584010679318453 0 0 0 0 -45.651477629925864 -52.396511009007497 0 -52.396511009007497 -11.570114897622261 0 0 0 0 -61.464114255526511 -33.997939591150498 0 -33.997939591150498 -9.2623636286698456 0 0 0 0 -36.738830677979422 -32.42728798400276 0 -32.42728798400276 -9.6675964738242328 0 0 0 0 -46.345385095073652 -38.858771161232653 0 -38.858771161232653 -8.7177742938220035 0 0 0 0 -28.719868632259022 -39.549256621408858 0 -39.549256621408858 -9.3433315394249803 0 0 0 0 -39.218683230799797 -31.303905411536107 0 -31.303905411536107 -9.8840448061237112 0 0 0 0 -39.153831164014264 -12.340138490893878 0 -12.340138490893878 -12.80862175844959 0 0 0 0 -0.89927143641117091 -3.0739278091547604 0 -3.0739278091547604 -10.716427018808105 0 0 0 0 -39.894571201934014 -11.505990808240313 0 -11.505990808240313 -10.203538447545725 0 0 0 0 -53.770647850550176 -29.19805924890079 0 -29.19805924890079 -11.229411252163118 0 0 0 0 -0.41032864709747585 -3.7982649314391619 0 -3.7982649314391619 -8.7235191467050299 0 0 0 0 -74.141096989849757 -22.011760561865231 0 -22.011760561865231 -13.764589456579415 0 0 0 0 -102.13613582472681 -7.0443029159287107 0 -7.0443029159287107 -6.1898748915409669 0 0 0 0 -86.119537847102038 -0.19015510677127168 0 -0.19015510677127168 -12.735958907807799 0 0 0 0 -56.218965310622025 -3.4935205652800505 0 -3.4935205652800505 -15.363717898464529 0 0 0 0 -80.416083489792072 -22.547350232802273 0 -22.547350232802273 -8.533594164357055 0 0 0 0 -96.30883182866819 -17.323580794887675 0 -17.323580794887675 -10.228198685799725 0 0 0 0 -90.5923876387169 -34.826414988114266 0 -34.826414988114266 -4.1382305134029593 0 0 0 0 -82.563212023873348 -35.348463742382592 0 -35.348463742382592 -10.136602121106989 0 0 0 0 -75.264136125973891 -57.364799383743957 0 -57.364799383743957 -11.252694337825233 0 0 0 0 -57.650936101883417 -55.210789820514037 0 -55.210789820514037 -10.004740838681755 0 0 0 0 -61.883198155434002 -52.128524937183101 0 -52.128524937183101 -11.68188595311949 0 0 0 0 -71.247222684673034 -38.995165006002935 0 -38.995165006002935 -9.2875245767936576 0 0 0 0 -54.661068337552933 -36.01378260958063 0 -36.01378260958063 -11.156316518507083 0 0 0 0 -11.660973436593849 -24.526783504084392 0 -24.526783504084392 -15.873583880795195 0 0 0 0 -11.06182326103999 -30.767908111210659 0 -30.767908111210659 0.6571597153415496 0 0 0 0 -32.450120202400285 236.2650295944477 0 236.2650295944477 -48.113710574667493 0 0 0 0 -16.388508266893041 -268.16982895054389 0 -268.16982895054389 -36.9057494073204 0 0 0 0 292.30512262937191 -88.802796760386627 0 -88.802796760386627 -246.60619959010364 0 0 0 0 -11.134474697064434 -40.444926178573951 0 -40.444926178573951 -10.628933059826522 0 0 0 0 -9.2674553363643071 -26.047259303192462 0 -26.047259303192462 -8.251038183157906 0 0 0 0 -32.598836687466246 -177.17776297152159 0 -177.17776297152159 122.51241705769644 0 0 0 0 -10.500110095481588 -29.006383215736662 0 -29.006383215736662 -20.703885987142989 0 0 0 0 -8.3468569078603227 -27.138791003686478 0 -27.138791003686478 -5.1192105465665918 0 0 0 0 -1.0554340712018524 -10.588882881835126 0 -10.588882881835126 -14.449802314547554 0 0 0 0 -19.255276569558191 -28.337085107486928 0 -28.337085107486928 15.318131666595946 0 0 0 0 -6.2115165292088932 -22.727901686586847 0 -22.727901686586847 -3.6391305275901686 0 0 0 0 -17.490752528843586 -13.642215347521415 0 -13.642215347521415 -10.716158394192462 0 0 0 0 -25.721069488337889 -31.2805479990202 0 -31.2805479990202 -3.020419704465894 0 0 0 0 -27.972694739735743 -26.727914407878416 0 -26.727914407878416 -8.206332754009054 0 0 0 0 -25.697840464796172 -36.435549373258254 0 -36.435549373258254 -6.360900926971226 0 0 0 0 -18.250001506021363 -20.836547694801993 0 -20.836547694801993 4.68286032769538 0 0 0 0 -4.5451336780279235 -33.694773162940692 0 -33.694773162940692 -10.679840652781422 0 0 0 0 -12.246746145476209 -47.879424242673849 0 -47.879424242673849 -10.399627724458696 0 0 0 0 -25.441810395532173 -51.762323583946568 0 -51.762323583946568 -13.410598357993877 0 0 0 0 -25.07979373550188 -57.809809231563122 0 -57.809809231563122 -20.189473431033548 0 0 0 0 -28.918569236164331 -50.937838222962455 0 -50.937838222962455 -9.4507449937373167 0 0 0 0 -30.945197626882873 -41.688099529375904 0 -41.688099529375904 8.4084682069969858 0 0 0 0 -34.555915766017279 -71.821291711770755 0 -71.821291711770755 -40.570091123401653 0 0 0 0 -56.251357994318823 -70.048490083201614 0 -70.048490083201614 -10.458368709863862 0 0 0 0 -15.794711263055433 -19.545753950680592 0 -19.545753950680592 -41.200000313197961 0 0 0 0 -47.933704551868686 -90.571051803050068 0 -90.571051803050068 -96.703066480309644 0 0 0 0 -22.284970378832782 -27.706393528253386 0 -27.706393528253386 -17.741601899012579 0 0 0 0 -21.98405559067767 -28.879448447959874 0 -28.879448447959874 -5.9213398158413924 0 0 0 0 -34.39835854699777 -23.352298033430998 0 -23.352298033430998 -0.37443459108908428 0 0 0 0 -7.7138221448731201 -33.767345871554426 0 -33.767345871554426 -4.5665665813867236 0 0 0 0 -43.751760092083714 -40.079973290652561 0 -40.079973290652561 47.01249564113823 0 0 0 0 -0.87074816874148553 -4.5795415828171002 0 -4.5795415828171002 -15.458810459295837 0 0 0 0 -104.3737025353621 -128.81398682836516 0 -128.81398682836516 375.4824793856933 0 0 0 0 -42.384066191378224 29.604597825862584 0 29.604597825862584 89.532283046435623 0 0 0 0 -66.935081092779001 -82.981658849927953 0 -82.981658849927953 73.13815082993824 0 0 0 0 -94.53129065631947 -271.42874471459436 0 -271.42874471459436 271.54235095958575 0 0 0 0 -19.927868246686685 -27.711391707922154 0 -27.711391707922154 -7.9786440788174602 0 0 0 0 -15.941552240178552 -28.270532036474833 0 -28.270532036474833 -18.248695498062617 0 0 0 0 59.595743674182813 -241.87051131795261 0 -241.87051131795261 -71.537754047763883 0 0 0 0 1.5975122317073556 1.1851362949207669 0 1.1851362949207669 -6.9228070083352193 0 0 0 0 13.228802034594992 -298.19129067861286 0 -298.19129067861286 -240.34295445861972 0 0 0 0 -85.637673580786213 -220.50956054593735 0 -220.50956054593735 -603.96795173284772 0 0 0 0 -128.71576910341537 -170.98575211004209 0 -170.98575211004209 -95.090000905183842 0 0 0 0 0.85702081045141654 -9.3931508276515032 0 -9.3931508276515032 6.3369800453435463 0 0 0 0 -196.76377511658211 -268.6531722483378 0 -268.6531722483378 -217.16181262317559 0 0 0 0 -87.825544647006609 -289.84148109193302 0 -289.84148109193302 -283.07510795561848 0 0 0 0 -41.036398865546289 -97.330376019045616 0 -97.330376019045616 -231.03677187860012 0 0 0 0 -244.29305863905756 -165.04709464529878 0 -165.04709464529878 12.037509863048399 0 0 0 0 29.907098359506108 -31.424035446123447 0 -31.424035446123447 23.02252542842249 0 0 0 0 44.642927760836756 -20.567692125578105 0 -20.567692125578105 -93.465398719442419 0 0 0 0 47.236712939862173 -58.935508631977541 0 -58.935508631977541 -119.21168685108751 0 0 0 0 42.172686580567643 -36.760970065426136 0 -36.760970065426136 -46.815483088110341 0 0 0 0 38.030386124952201 -31.574519269538541 0 -31.574519269538541 -30.924607205165557 0 0 0 0 89.681714197482506 1.2874199784109805 0 1.2874199784109805 -79.408374369375451 0 0 0 0 34.421182171386874 -29.399891432704635 0 -29.399891432704635 -3.6467349184682076 0 0 0 0 -2.944769483525306 -92.721364851495309 0 -92.721364851495309 -174.81472688961367 0 0 0 0 58.633953457814641 -26.000804323753982 0 -26.000804323753982 -59.307998868691357 0 0 0 0 22.041916403901709 -12.894062561022238 0 -12.894062561022238 -8.1639295225653665 0 0 0 0 -3.5557602054942752 -13.030497854223967 0 -13.030497854223967 -1.3282044509200261 0 0 0 0 213.73162451026246 19.086893077716013 0 19.086893077716013 -41.340112226047495 0 0 0 0 41.661086075502681 -30.965030669616681 0 -30.965030669616681 -50.447817671367375 0 0 0 0 6.7654722112687082 -9.0070322704440713 0 -9.0070322704440713 5.1755446358531429 0 0 0 0 -18.13387945809518 67.418025513030443 0 67.418025513030443 -104.4755704123927 0 0 0 0 7.7250494449236733 -9.5116405900766239 0 -9.5116405900766239 -24.383970438356243 0 0 0 0 52.922234591283996 -36.736482565668666 0 -36.736482565668666 -36.289940275662957 0 0 0 0 34.801460522176058 -21.112528029878376 0 -21.112528029878376 -23.43267401337539 0 0 0 0 1.7537468285252515 -0.284047308864114 0 -0.284047308864114 -18.765780389087155 0 0 0 0 56.318411830923651 -13.615782471708371 0 -13.615782471708371 -29.305969914232264 0 0 0 0 43.9076222642434 6.6036410166925634 0 6.6036410166925634 -53.248103895111853 0 0 0 0 37.835814119272982 -18.741145857035917 0 -18.741145857035917 -24.552313403684821 0 0 0 0 19.839783289980915 9.5889787917212743 0 9.5889787917212743 -39.043296720246872 0 0 0 0 34.499734182518296 14.721608071824448 0 14.721608071824448 -56.77587746464269 0 0 0 0 33.933957507280866 17.535444655650281 0 17.535444655650281 -33.285460363457105 0 0 0 0 -17.910489725065418 28.391251133460173 0 28.391251133460173 -15.976981298662395 0 0 0 0 34.212323238731187 91.727440591105733 0 91.727440591105733 1.5843750925923814 0 0 0 0 95.543346351354558 37.816288268829794 0 37.816288268829794 -57.500301407104416 0 0 0 0 3.1986787675611055 -0.602202789774271 0 -0.602202789774271 -4.3975240440420293 0 0 0 0 119.42396354721859 -134.27573625069999 0 -134.27573625069999 82.816883905060195 0 0 0 0 138.25357691343743 -136.38845845631113 0 -136.38845845631113 82.969907499461328 0 0 0 0 149.93162940749971 -325.16166310990047 0 -325.16166310990047 -216.40195736501664 0 0 0 0 -49.679119694206747 76.469446014334608 0 76.469446014334608 39.992271683684521 0 0 0 0 0.73953801037373168 -0.32831634806985477 0 -0.32831634806985477 4.5554129165403197 0 0 0 0 107.85452567100947 -33.850935834877419 0 -33.850935834877419 24.069938721811923 0 0 0 0 368.93478554770991 19.648269191435247 0 19.648269191435247 -13.912546067243966 0 0 0 0 272.88629985208536 -148.72584628619552 0 -148.72584628619552 48.071250425040489 0 0 0 0 154.41409324014239 13.395515157877526 0 13.395515157877526 2.6959918715638196 0 0 0 0 249.31303392415066 -61.075716563862443 0 -61.075716563862443 -7.5177339126021252 0 0 0 0 270.88216326493421 -140.82895160012413 0 -140.82895160012413 28.286676354105566 0 0 0 0 191.34000927282614 -120.56502170415115 0 -120.56502170415115 32.492037667211662 0 0 0 0 164.81361695688042 -102.43828632638213 0 -102.43828632638213 20.105584660537716 0 0 0 0 167.54578668184445 -133.99649121859227 0 -133.99649121859227 40.230073295468173 0 0 0 0 294.01305572970887 -224.23174076764735 0 -224.23174076764735 150.53044303089882 0 0 0 0 139.6838238648379 -149.96882392246334 0 -149.96882392246334 125.34652016493601 0 0 0 0 -0.44867286412865326 0.96614277677640104 0 0.96614277677640104 2.4654581135192331 0 0 0 0 14.988739159589386 61.241064413048207 0 61.241064413048207 27.740864652776509 0 0 0 0 -19.469527230343374 -158.31790179077962 0 -158.31790179077962 212.51901109506434 0 0 0 0 538.82411711665191 -41.801729646014792 0 -41.801729646014792 -11.499917855137028 0 0 0 0 484.6219916330374 -161.72982373492414 0 -161.72982373492414 48.719204468766293 0 0 0 0 184.48375572097575 -196.09396193305292 0 -196.09396193305292 38.487710636676638 0 0 0 0 76.738165578826738 -192.46119647381784 0 -192.46119647381784 55.089034288503171 0 0 0 0 239.32278720274189 -306.34331872689654 0 -306.34331872689654 205.44836518549005 0 0 0 0 363.52526844749082 -163.2397686002987 0 -163.2397686002987 -50.72607201943174 0 0 0 0 258.76515390455461 -115.81846627913183 0 -115.81846627913183 -61.655220507756894 0 0 0 0 2.7081730456632016 -0.017836914381508251 0 -0.017836914381508251 -2.7717082590920157 0 0 0 0 286.71056943783697 -93.109228866711419 0 -93.109228866711419 183.99886947335335 0 0 0 0 -2.8104959487154701 66.805840603548631 0 66.805840603548631 -102.63399018023301 0 0 0 0 73.808334462315543 9.1094947254150611 0 9.1094947254150611 -72.354281403697314 0 0 0 0 35.477438793266629 -3.3896018698733315 0 -3.3896018698733315 -69.816771604008864 0 0 0 0 110.36600552799609 -46.747146372013958 0 -46.747146372013958 -83.575361942592281 0 0 0 0 59.382892122601334 -74.543509102158168 0 -74.543509102158168 -62.278209115182108 0 0 0 0 -35.904470363348082 -87.746603911676175 0 -87.746603911676175 -33.022753129194825 0 0 0 0 59.785072840422799 -228.14985989573142 0 -228.14985989573142 -36.038574354997763 0 0 0 0 25.586870954949916 -28.12652912063399 0 -28.12652912063399 25.144808224724667 0 0 0 0 94.921151594593539 -137.57433446399955 0 -137.57433446399955 -14.045379039060208 0 0 0 0 -79.899607646137156 68.388023813169639 0 68.388023813169639 119.06802868422301 0 0 0 0 -2.0674285082528598 -1.3486914769733573 0 -1.3486914769733573 2.9664049146161346 0 0 0 0 -40.449538157627103 -270.61269918703147 0 -270.61269918703147 84.658140083680337 0 0 0 0 -22.639368571428349 -251.03143202637875 0 -251.03143202637875 -13.848651278945908 0 0 0 0 31.573098355067486 -238.35389042083443 0 -238.35389042083443 -123.09500274647144 0 0 0 0 -40.012219505471876 -208.95364851825798 0 -208.95364851825798 22.592953565577773 0 0 0 0 47.003572522677132 -278.88103049393249 0 -278.88103049393249 -125.14945919477395 0 0 0 0 119.03351396786456 -505.64091778501461 0 -505.64091778501461 99.613409276527818 0 0 0 0 186.93326282811176 -229.59742101279699 0 -229.59742101279699 -470.09943521305468 0 0 0 0 486.53775388697977 -661.98393139515974 0 -661.98393139515974 -112.36835864637396 0 0 0 0 83.730181913866545 -210.30326128251909 0 -210.30326128251909 33.39988453989281 0 0 0 0 -57.724468885877286 -165.18553327452537 0 -165.18553327452537 21.862705856176035 0 0 0 0 -61.414827647764469 -236.04896766346792 0 -236.04896766346792 34.911827244570304 0 0 0 0 -37.839619814425532 -209.22283401953973 0 -209.22283401953973 20.152194044552743 0 0 0 0 -34.278104705706937 -142.89155732274958 0 -142.89155732274958 23.637324215831995 0 0 0 0 -30.576923249933316 -186.69674772975668 0 -186.69674772975668 89.768941736554552 0 0 0 0 -0.31106110058317427 -150.25360449525033 0 -150.25360449525033 59.606159534741892 0 0 0 0 65.948844418475346 -256.05705985169698 0 -256.05705985169698 202.50741923936584 0 0 0 0 -44.392230043235031 -38.891438406687172 0 -38.891438406687172 14.249024246717454 0 0 0 0 -44.682303181150928 -91.648664647236728 0 -91.648664647236728 145.63342761792228 0 0 0 0 -1.2929569338753026 2.3300959998366437 0 2.3300959998366437 1.5886130790967883 0 0 0 0 -37.898001090448815 -4.219203645196103 0 -4.219203645196103 -17.748564288831403 0 0 0 0 -74.426188008030294 -36.863774017645483 0 -36.863774017645483 61.292259443493094 0 0 0 0 -25.613958391853885 -17.894715590695341 0 -17.894715590695341 -30.592265620471153 0 0 0 0 -22.928350409201812 -30.285557808063459 0 -30.285557808063459 17.696781495338655 0 0 0 0 -15.631231841063709 -91.376720959393424 0 -91.376720959393424 -65.135948243063467 0 0 0 0 -33.333791830329574 -77.77153134809123 0 -77.77153134809123 81.938841675517324 0 0 0 0 -18.570847034527105 -166.35947192431195 0 -166.35947192431195 56.301229288808827 0 0 0 0 -16.370722907333402 -142.87326482396384 0 -142.87326482396384 0.81579851776041323 0 0 0 0 -297.24083252706623 74.538010266172932 0 74.538010266172932 1.0493575883251651 0 0 0 0 -13.30949166850769 -140.29326265363125 0 -140.29326265363125 -83.414697121255813 0 0 0 0 78.717262935118924 177.17255166201176 0 177.17255166201176 -541.32911016636353 0 0 0 0 -2.5619754445907148 -3.1384125869968535 0 -3.1384125869968535 -4.9135104060001993 0 0 0 0 41.93625249859906 -151.07948518153898 0 -151.07948518153898 -251.70350105567923 0 0 0 0 599.04892432490306 -273.31770834906638 0 -273.31770834906638 -841.42833913729555 0 0 0 0 -48.756498815804662 -24.805800055317377 0 -24.805800055317377 -12.539941734572494 0 0 0 0 -74.092231612768956 30.660402930116106 0 30.660402930116106 -127.90452143065158 0 0 0 0 -106.14912647291203 2.7238431454243255 0 2.7238431454243255 16.116169857970817 0 0 0 0 -40.065377925588109 -32.284892002422566 0 -32.284892002422566 -0.54404769867323921 0 0 0 0 -15.340052899784496 -14.708809884863513 0 -14.708809884863513 4.9065765898267273 0 0 0 0 -5.4911389094381633 -11.172721407680463 0 -11.172721407680463 -12.780370653663276 0 0 0 0 -8.4913404136095778 -34.059064178884 0 -34.059064178884 -14.742784078584009 0 0 0 0 -38.779623865115809 -25.319424217450887 0 -25.319424217450887 -10.577421464848157 0 0 0 0 -2.4517336896985356 -1.3063891170689317 0 -1.3063891170689317 1.1266556410547253 0 0 0 0 55.146044047465693 -46.468335451763778 0 -46.468335451763778 -71.855651839283382 0 0 0 0 0.76541955787979532 -21.799767823438742 0 -21.799767823438742 -22.829186643562934 0 0 0 0 -17.500910014830879 -12.676102048702887 0 -12.676102048702887 -27.020474844619457 0 0 0 0 -21.553404797959956 -30.920281176520803 0 -30.920281176520803 -11.184181890170294 0 0 0 0 6.0676897649805355 -8.5230378871581962 0 -8.5230378871581962 -6.7167899129840265 0 0 0 0 -78.400414871563953 -35.582037558375532 0 -35.582037558375532 142.73309674935081 0 0 0 0 75.540924011191237 -64.551670805990398 0 -64.551670805990398 15.63527687406895 0 0 0 0 -193.7038633842385 -70.465155071171466 0 -70.465155071171466 62.017459954769038 0 0 0 0 -116.33015015006822 -125.01533020476745 0 -125.01533020476745 69.075285261857061 0 0 0 0 1.8568849385067807 -6.7877621333142386 0 -6.7877621333142386 4.1020014132749196 0 0 0 0 -448.61702644609613 348.69714796418702 0 348.69714796418702 -424.76927395541861 0 0 0 0 -301.86994590594259 -69.704620416889156 0 -69.704620416889156 64.425451361374712 0 0 0 0 -160.20649187631716 -176.88406238128482 0 -176.88406238128482 15.30165382722771 0 0 0 0 2.7350159172456188 -20.818685845512391 0 -20.818685845512391 -5.7289751256394084 0 0 0 0 8.7640952236697167 -10.681258096554089 0 -10.681258096554089 1.871284983663017 0 0 0 0 -153.29929994778649 -241.26404982073655 0 -241.26404982073655 -221.2653327291082 0 0 0 0 5.0152385141186215 -10.717492320413839 0 -10.717492320413839 10.74744068969872 0 0 0 0 -0.49365040851989761 -54.581790491438369 0 -54.581790491438369 10.455369402319775 0 0 0 0 -4.7998538960500809 -18.023283970944476 0 -18.023283970944476 23.964783912948405 0 0 0 0 800.61980502842925 -632.65449275351421 0 -632.65449275351421 -652.0291808851689 0 0 0 0 -33.200162788496527 -244.44227188492732 0 -244.44227188492732 -364.66801622459911 0 0 0 0 18.795461718646649 -23.768136923188578 0 -23.768136923188578 21.491010077388914 0 0 0 0 34.891207190252317 -45.844814059793862 0 -45.844814059793862 -353.47200253724441 0 0 0 0 -336.27572668638459 -342.68115846463616 0 -342.68115846463616 -276.59902191394212 0 0 0 0 -66.894009716241271 -202.37951176744355 0 -202.37951176744355 -435.65522523221807 0 0 0 0 4.5753583554383113 -4.3632761081991589 0 -4.3632761081991589 -4.2438533394324907 0 0 0 0 -156.08704964564458 -86.023562148089695 0 -86.023562148089695 -127.3678911697898 0 0 0 0 -118.933393203999 -76.306026204234513 0 -76.306026204234513 -261.66912833828428 0 0 0 0 -54.188499807565677 -47.547110962941588 0 -47.547110962941588 309.9863179753811 0 0 0 0 -20.218524624080601 -11.417392604874294 0 -11.417392604874294 282.3592515712553 0 0 0 0 12.023103632680431 -49.955877689635599 0 -49.955877689635599 67.833436211520166 0 0 0 0 -13.57080587100063 -115.21089604430381 0 -115.21089604430381 195.16535333432694 0 0 0 0 -127.40022185395355 -161.62532400804957 0 -161.62532400804957 73.158757632631023 0 0 0 0 -153.17319272818077 -290.92235559363712 0 -290.92235559363712 -137.0607950619451 0 0 0 0 -42.490567255454152 -322.4610420850122 0 -322.4610420850122 -328.93265440022878 0 0 0 0 -100.04362223234057 -246.17854795823041 0 -246.17854795823041 -201.69560319087759 0 0 0 0 -76.607098821994441 -219.73718960987026 0 -219.73718960987026 -59.580165031242359 0 0 0 0 -17.899261784768896 -241.56363399537076 0 -241.56363399537076 -207.89771543476672 0 0 0 0 -9.276034493901534 -179.01327824656983 0 -179.01327824656983 -317.15820090548254 0 0 0 0 -126.26283854823123 -131.71648483506124 0 -131.71648483506124 -148.36071302391792 0 0 0 0 -161.3058717648164 -193.7823315947735 0 -193.7823315947735 -122.88098237509985 0 0 0 0 -23.44158664499264 -129.67562625057417 0 -129.67562625057417 -152.72007678628142 0 0 0 0 -76.539189770483063 -208.09946059537106 0 -208.09946059537106 -135.99171117176229 0 0 0 0 -13.857524108883808 -66.010961496176606 0 -66.010961496176606 -50.934219011085588 0 0 0 0 -8.1209839587681927 -110.25869774279272 0 -110.25869774279272 -56.963004906831657 0 0 0 0 -75.17565950689459 -145.56799526072791 0 -145.56799526072791 55.477950701490045 0 0 0 0 -81.667904265304969 -153.04098659350439 0 -153.04098659350439 176.89965846870837 0 0 0 0 10.59521004385897 22.571019041577529 0 22.571019041577529 190.92488199433046 0 0 0 0 -59.130504103923158 -58.410750068544985 0 -58.410750068544985 229.48936332269659 0 0 0 0 16.502502380943042 -22.156774655704794 0 -22.156774655704794 230.57816317043819 0 0 0 0 -87.412748904942418 -35.683775044952199 0 -35.683775044952199 386.92474477119686 0 0 0 0 -22.784469387894205 -21.466531013717031 0 -21.466531013717031 75.394445987372819 0 0 0 0 -67.04256995490141 -81.919716186172082 0 -81.919716186172082 155.7385329362005 0 0 0 0 27.27344283273851 -21.441085568874769 0 -21.441085568874769 93.013416707447504 0 0 0 0 -31.764732359471964 46.56033271373235 0 46.56033271373235 250.30487523147167 0 0 0 0 -15.223828107505383 -11.081548478917867 0 -11.081548478917867 -14.668332803256817 0 0 0 0 -28.396272164442053 -27.893514463961765 0 -27.893514463961765 -68.877603453274787 0 0 0 0 -15.951471649142704 -27.214294492694989 0 -27.214294492694989 -17.512092085595377 0 0 0 0 -9.8302525804392644 -20.53241417191748 0 -20.53241417191748 -25.475061320496025 0 0 0 0 -19.199779505727875 -21.555544492451464 0 -21.555544492451464 2.5637996142016526 0 0 0 0 -12.305653943742101 -23.352134450304519 0 -23.352134450304519 -2.3584584899025476 0 0 0 0 -75.453880745400966 80.21053378524357 0 80.21053378524357 178.96334209766064 0 0 0 0 -0.36038149661726493 19.1514688189136 0 19.1514688189136 -69.085939308788511 0 0 0 0 -49.068987981008831 -28.032883449079236 0 -28.032883449079236 133.82534448028491 0 0 0 0 -17.767409041262681 -4.4701448768918013 0 -4.4701448768918013 4.649360991621684 0 0 0 0 -27.32115116037312 -7.1364742906807805 0 -7.1364742906807805 -39.911014678676565 0 0 0 0 -0.79499709147785325 -3.3718606346737943 0 -3.3718606346737943 -94.673651336954208 0 0 0 0 -25.971032502347953 -28.618392865791975 0 -28.618392865791975 -61.664971696962311 0 0 0 0 -35.70537602622062 41.569376942796225 0 41.569376942796225 114.95329389712788 0 0 0 0 -8.9341175574961937 -4.5172075845138977 0 -4.5172075845138977 -1.4078800589405009 0 0 0 0 50.763924624574429 1.4337334768806613 0 1.4337334768806613 96.413574118603719 0 0 0 0 -14.586342322587257 -20.517334583026397 0 -20.517334583026397 -0.65939883945808475 0 0 0 0 -27.345821542388649 -1.9181236391536913 0 -1.9181236391536913 -152.49073681586742 0 0 0 0 -44.052137480408419 -47.11531960470893 0 -47.11531960470893 140.93393508432928 0 0 0 0 -1.3967289207066642 -21.053718386243418 0 -21.053718386243418 -188.06642141130578 0 0 0 0 0.13957659259409638 1.1449601231913427 0 1.1449601231913427 6.228496743605497 0 0 0 0 -15.731297983642435 -43.478538368348381 0 -43.478538368348381 399.30388866386784 0 0 0 0 15.717810026108054 -5.4046851677194354 0 -5.4046851677194354 356.65155046656582 0 0 0 0 21.051273945049616 -44.993351125922345 0 -44.993351125922345 350.16612521834031 0 0 0 0 3.9783329762576614 -33.516332626450094 0 -33.516332626450094 294.20666796479054 0 0 0 0 -17.041935854693293 -22.227164389711106 0 -22.227164389711106 346.82455542417938 0 0 0 0 2.6369314419716829 -49.782099204303449 0 -49.782099204303449 307.19974485065177 0 0 0 0 -62.242847411063849 -109.94374025520665 0 -109.94374025520665 504.41251893577828 0 0 0 0 -21.372153380594682 8.413058959900809 0 8.413058959900809 305.76321693509817 0 0 0 0 0.67709538888709631 -0.99451886489139341 0 -0.99451886489139341 -0.10989046814059122 0 0 0 0 57.127287182753207 -100.09856572554418 0 -100.09856572554418 369.6071519016914 0 0 0 0 75.324913616874255 -34.186052862398356 0 -34.186052862398356 -8.0395107978838496 0 0 0 0 -75.914280005672481 -43.580114997545024 0 -43.580114997545024 468.11805585428374 0 0 0 0 -9.4809577399864793 -12.834613975112006 0 -12.834613975112006 257.43361977620953 0 0 0 0 12.010997070363373 -34.889523316360282 0 -34.889523316360282 213.03389957109903 0 0 0 0 -39.744772575715615 16.251718883324429 0 16.251718883324429 167.60123208334517 0 0 0 0 -50.698088829456537 -0.48892877149773994 0 -0.48892877149773994 282.42240396747002 0 0 0 0 -22.083272357427632 5.4932751017076953 0 5.4932751017076953 303.56349489180866 0 0 0 0 -36.231349993497133 -27.328529057260312 0 -27.328529057260312 416.20539781065509 0 0 0 0 -28.017532807993121 -27.372881208088074 0 -27.372881208088074 342.43877136612628 0 0 0 0 14.112959874077205 -7.1338204520498039 0 -7.1338204520498039 344.67877607570699 0 0 0 0 -5.8455333262572822 -74.980258226497426 0 -74.980258226497426 343.06519468990882 0 0 0 0 0.070593640717561357 -72.865568496588821 0 -72.865568496588821 -16.929190065227885 0 0 0 0 -0.47985937925113831 -15.309632215321471 0 -15.309632215321471 161.53915956637866 0 0 0 0 -15.928912235107759 -18.906568009506124 0 -18.906568009506124 -2.223860697198571 0 0 0 0 374.92456882740953 51.4722946861948 0 51.4722946861948 -452.67636067816784 0 0 0 0 0.092589701265154645 -2.7578971596849797 0 -2.7578971596849797 -3.5308475730704174 0 0 0 0 -573.50152817135677 28.739455507835373 0 28.739455507835373 -130.73643218172947 0 0 0 0 -28.814997942914488 47.265468616802536 0 47.265468616802536 -167.19856822748261 0 0 0 0 10.732673246209743 60.74587535563478 0 60.74587535563478 -241.77221667523372 0 0 0 0 170.71520351849904 -47.884364246339828 0 -47.884364246339828 -462.75697357030367 0 0 0 0 18.74677466826688 12.554628090045298 0 12.554628090045298 149.30829041316247 0 0 0 0 -2.3374216465522863 -1.7929081982853532 0 -1.7929081982853532 -0.49039112172462751 0 0 0 0 -30.019163040997228 -52.50580348546282 0 -52.50580348546282 226.96795439744164 0 0 0 0 -12.474404641288857 -50.996314103867917 0 -50.996314103867917 182.16314366133702 0 0 0 0 -65.282778485641757 109.12625784481679 0 109.12625784481679 -100.45540335650003 0 0 0 0 -16.244964656328818 -19.457639410221304 0 -19.457639410221304 -7.5688547038343721 0 0 0 0 7.4096978981542634 -35.121392643122817 0 -35.121392643122817 194.83472804747362 0 0 0 0 -100.17048430891009 -198.85563454087969 0 -198.85563454087969 -68.406826175370952 0 0 0 0 -63.241785570840875 -66.156300208136599 0 -66.156300208136599 168.62211253793066 0 0 0 0 -33.176364285362069 3.7514485527790384 0 3.7514485527790384 86.866398812733678 0 0 0 0 -16.289041285894029 -18.815752491567924 0 -18.815752491567924 -7.0483158429707728 0 0 0 0 -19.367663752811495 0.14650578273358406 0 0.14650578273358406 -37.184642789234204 0 0 0 0 -115.39549875394005 -19.432016902490432 0 -19.432016902490432 90.724927918530739 0 0 0 0 12.504057867023221 -50.739379783425647 0 -50.739379783425647 89.187936857550085 0 0 0 0 -9.89203532618194 56.022910874990885 0 56.022910874990885 214.37615037846263 0 0 0 0 1.8822579025654704 61.853074166589067 0 61.853074166589067 111.69345538839843 0 0 0 0 -118.20423655791819 107.93161254970801 0 107.93161254970801 207.72771964930143 0 0 0 0 -61.398773173074005 236.13152703677497 0 236.13152703677497 465.98181410139659 0 0 0 0 218.39669345061702 -328.91952318239964 0 -328.91952318239964 439.24347094427117 0 0 0 0 0.98635146452343747 2.1456766253813697 0 2.1456766253813697 4.6286087470568447 0 0 0 0 1.0880812096420414 244.6955665842288 0 244.6955665842288 30.830420872985997 0 0 0 0 -168.92786671921203 -236.67022048538638 0 -236.67022048538638 579.55857426697685 0 0 0 0 1.5405925493453765 -2.3277794096374294 0 -2.3277794096374294 1.4057502412474108 0 0 0 0 -107.24354830698576 -249.90390213299543 0 -249.90390213299543 -14.254666038733376 0 0 0 0 -61.606133091027004 61.979865950397652 0 61.979865950397652 212.1121934446528 0 0 0 0 -87.27077273906616 48.852113653920242 0 48.852113653920242 266.71574155822623 0 0 0 0 -48.508166155872459 -17.406265039091522 0 -17.406265039091522 283.3672102956898 0 0 0 0 -0.15418187525202143 -1.3198548513093016 0 -1.3198548513093016 1.1683020947530594 0 0 0 0 -17.736601534883448 -127.1954797248477 0 -127.1954797248477 -245.09632446036994 0 0 0 0 -91.9311519805633 -221.34352613247393 0 -221.34352613247393 -238.27770806670196 0 0 0 0 -96.185171740438818 -91.515492972051106 0 -91.515492972051106 -34.066153953954199 0 0 0 0 -146.87173504571547 -236.02798094402533 0 -236.02798094402533 -208.32420355078011 0 0 0 0 -57.784339703481237 -186.97486488370851 0 -186.97486488370851 -261.26212233139086 0 0 0 0 -153.521610107382 -204.1366780664448 0 -204.1366780664448 -274.16866611565638 0 0 0 0 10.605200916361227 -12.838657429605945 0 -12.838657429605945 6.9186897948108737 0 0 0 0 -140.89340938507667 -310.17567780319405 0 -310.17567780319405 -340.69290257143257 0 0 0 0 3.4833171027494245 -21.188586759870304 0 -21.188586759870304 -3.1288934456115385 0 0 0 0 2.1366089423900121 -19.653632031844609 0 -19.653632031844609 -4.0626641278186071 0 0 0 0 -76.020726094284328 -252.08810697442914 0 -252.08810697442914 -400.09216389042194 0 0 0 0 -183.07653474573453 -251.82817956598592 0 -251.82817956598592 -227.36700274834766 0 0 0 0 2.8287086138171773 -13.991304883517181 0 -13.991304883517181 -1.8606312774606977 0 0 0 0 1.304175860095711 -22.324816946623741 0 -22.324816946623741 -0.42417884563838015 0 0 0 0 5.2569147710820232 -13.517786627141689 0 -13.517786627141689 14.531612918018112 0 0 0 0 6.36048402682367 -8.9652023904813802 0 -8.9652023904813802 1.9535530166491384 0 0 0 0 1.7325806440640008 -12.760320818776563 0 -12.760320818776563 -9.6975683592190762 0 0 0 0 2.9201043906650739 -68.363730889137514 0 -68.363730889137514 -401.95445046714713 0 0 0 0 40.461880811730225 -192.30193333661919 0 -192.30193333661919 -377.8932917899856 0 0 0 0 0.89079946942365495 -22.531300808113883 0 -22.531300808113883 -0.42461919011091709 0 0 0 0 -67.248793316914089 -303.09910738768758 0 -303.09910738768758 -213.87121848369861 0 0 0 0 -35.701007546745132 -168.03549060043702 0 -168.03549060043702 -300.10181900952011 0 0 0 0 112.18493645849594 -304.59988126155804 0 -304.59988126155804 -192.36850954895817 0 0 0 0 -46.771926494050604 -110.54869056134135 0 -110.54869056134135 159.32921920292938 0 0 0 0 -111.90542749510496 -123.80209651581754 0 -123.80209651581754 -216.51931090667495 0 0 0 0 -26.760628558447934 -160.15780911080037 0 -160.15780911080037 -211.12291024234037 0 0 0 0 328.59860249320627 -30.333103762433439 0 -30.333103762433439 -354.1279596683944 0 0 0 0 1.6386926488213192 -1.0434203354806328 0 -1.0434203354806328 0.36587503914096686 0 0 0 0 83.12447116409021 -69.913157776363732 0 -69.913157776363732 118.44822739369738 0 0 0 0 12.129917065376503 -165.21742278782403 0 -165.21742278782403 29.035170491253666 0 0 0 0 -8.637196365150885 -20.237211300308445 0 -20.237211300308445 -35.788302676508465 0 0 0 0 68.081407192381448 -169.85943362822582 0 -169.85943362822582 -324.20703026411684 0 0 0 0 199.14545480596462 -138.10674210438492 0 -138.10674210438492 -316.76506677420912 0 0 0 0 -162.77715320946299 -214.39564037394211 0 -214.39564037394211 -242.73658355720181 0 0 0 0 82.72151572346047 -175.57773242941585 0 -175.57773242941585 -577.98562372273591 0 0 0 0 -0.18202950095826864 -0.47267427393779826 0 -0.47267427393779826 -3.7865900275355386 0 0 0 0 30.76977707597689 160.76958841530177 0 160.76958841530177 -334.7092778575352 0 0 0 0 148.29863030600245 -20.836414518915262 0 -20.836414518915262 -619.28443786309435 0 0 0 0 30.731929949484766 -154.01660700932553 0 -154.01660700932553 -367.0773912067998 0 0 0 0 -16.206248174014036 -68.812536827440454 0 -68.812536827440454 -417.93304237836855 0 0 0 0 95.651616010378348 -23.867811611744401 0 -23.867811611744401 -420.74249262366538 0 0 0 0 5.9045567462599138 -85.520322489561295 0 -85.520322489561295 -332.93594153285994 0 0 0 0 0.02921251604493591 -106.24542306009243 0 -106.24542306009243 -359.49982939062465 0 0 0 0 -318.3166638732655 -328.77567581033873 0 -328.77567581033873 -296.70655190062644 0 0 0 0 6.2396575352104264 -85.293248315501842 0 -85.293248315501842 -644.0732872042845 0 0 0 0 -117.57936877571046 46.438782330140384 0 46.438782330140384 -294.25662267724692 0 0 0 0 0.13113856355994358 -102.22794686151246 0 -102.22794686151246 -312.30285538059434 0 0 0 0 -0.55608648512861691 -59.0113416000695 0 -59.0113416000695 -79.56179477675289 0 0 0 0 -128.30175056504231 -28.278461776941185 0 -28.278461776941185 -80.460400334748556 0 0 0 0 -101.22284252220925 -90.453175981017921 0 -90.453175981017921 184.93633533085085 0 0 0 0 -0.20437347158076591 -160.43052125268514 0 -160.43052125268514 124.7789414200015 0 0 0 0 0.035917746066843392 -184.19258256309149 0 -184.19258256309149 300.71318399082156 0 0 0 0 -42.879115924606594 -88.785817168628455 0 -88.785817168628455 167.17042795820817 0 0 0 0 -106.37946213524265 -143.28098207805306 0 -143.28098207805306 468.86654621635171 0 0 0 0 -61.425554037865368 -82.847939087329905 0 -82.847939087329905 304.90641226697335 0 0 0 0 -109.66311743523511 -114.75247497186774 0 -114.75247497186774 327.68182488586172 0 0 0 0 -46.85857983866299 -108.35682149416789 0 -108.35682149416789 182.98667877752246 0 0 0 0 -83.357488954939981 -125.97778396241483 0 -125.97778396241483 327.08897625995814 0 0 0 0 -55.10713311740983 -80.347155885217035 0 -80.347155885217035 349.48920630550492 0 0 0 0 80.951081540999439 -36.872927655586864 0 -36.872927655586864 400.25409939585006 0 0 0 0 65.917619164814823 -128.48383324410315 0 -128.48383324410315 246.33769407118234 0 0 0 0 -0.029644258007465396 -159.78883949206102 0 -159.78883949206102 326.02407358007895 0 0 0 0 53.66513810077231 -47.925347855188193 0 -47.925347855188193 120.52875362472332 0 0 0 0 128.38471082587057 -151.11048103622124 0 -151.11048103622124 242.94207147960788 0 0 0 0 -134.59903855447737 103.61010312835811 0 103.61010312835811 9.4665094860320096 0 0 0 0 3.1615455307707521 6.41432811278316 0 6.41432811278316 11.861068765903028 0 0 0 0 16.087495474945172 -16.649592572315669 0 -16.649592572315669 6.338149999904374 0 0 0 0 35.763837646438333 -85.607345092306787 0 -85.607345092306787 124.01644118655895 0 0 0 0 -69.889942152352887 15.945279916815707 0 15.945279916815707 95.623700452084449 0 0 0 0 88.757647457125131 -114.88245847292274 0 -114.88245847292274 62.726882678471156 0 0 0 0 2.8283912362546175 9.4244730869096216 0 9.4244730869096216 19.882234130978603 0 0 0 0 18.455383153555886 -110.90693032656054 0 -110.90693032656054 -27.833255405996169 0 0 0 0 -19.779751385038253 -116.88577793395234 0 -116.88577793395234 33.228927627285884 0 0 0 0 38.46925139888117 -73.71602420581803 0 -73.71602420581803 41.200389631529106 0 0 0 0 -3.9497059133827861 -4.6164877927385533 0 -4.6164877927385533 1.0169674341887003 0 0 0 0 0.94890304882960663 -1.5465109590685699 0 -1.5465109590685699 0.98138211160289757 0 0 0 0 0.0013801616005366668 -3.571602522437388 0 -3.571602522437388 1.0950006136044976 0 0 0 0 -118.15520225691216 57.041538867550116 0 57.041538867550116 385.68438951143526 0 0 0 0 -50.813546717352438 41.055641032326093 0 41.055641032326093 53.235088813933544 0 0 0 0 -28.393404161994113 -39.013966366101158 0 -39.013966366101158 300.82217717529147 0 0 0 0 -203.43879692212067 154.76279869871178 0 154.76279869871178 -388.19432397627952 0 0 0 0 62.338756337645464 92.567528041850892 0 92.567528041850892 32.196041099685317 0 0 0 0 33.224429070833139 -101.04115190424454 0 -101.04115190424454 -180.69492551131771 0 0 0 0 0.18969055693014525 -109.02590608823084 0 -109.02590608823084 -280.56498833086334 0 0 0 0 -96.077376240737067 62.111732515449376 0 62.111732515449376 45.724770808801622 0 0 0 0 -59.608179059818212 -216.9639089807215 0 -216.9639089807215 -420.14905162262721 0 0 0 0 54.071395624319848 -60.086147698867535 0 -60.086147698867535 -373.71795845988527 0 0 0 0 -343.07641059408343 -437.62353765737225 0 -437.62353765737225 -445.40014171666007 0 0 0 0 -0.1904201933718852 0.31808936603772509 0 0.31808936603772509 -4.8611039212459701 0 0 0 0 41.508916510812924 -166.30211020228307 0 -166.30211020228307 -778.53092373445543 0 0 0 0 48.942700380684983 41.405756611224206 0 41.405756611224206 -656.73189593448637 0 0 0 0 25.911311078314611 -36.498928874302692 0 -36.498928874302692 -112.24473955435315 0 0 0 0 -39.880905076344789 167.58857515810178 0 167.58857515810178 -123.22342123435374 0 0 0 0 54.375382290687412 -349.94150882702706 0 -349.94150882702706 -665.62804870094828 0 0 0 0 -1.285710634838324 -135.56531016104054 0 -135.56531016104054 -367.24158135144899 0 0 0 0 10.193200886125851 -186.94657786788139 0 -186.94657786788139 -289.9566974015147 0 0 0 0 95.404490757086023 -254.13004950157847 0 -254.13004950157847 -265.34524071320629 0 0 0 0 -20.085154398919258 -213.18374644876531 0 -213.18374644876531 -125.55796190990259 0 0 0 0 -14.137700796403806 -340.42723335461778 0 -340.42723335461778 58.480415388959955 0 0 0 0 -24.026562030961941 -252.32102084550968 0 -252.32102084550968 -67.879942222411046 0 0 0 0 -310.34687205040609 -348.4664900250134 0 -348.4664900250134 -246.67312953529108 0 0 0 0 83.027055546637712 -208.49874127205021 0 -208.49874127205021 -356.28904043780858 0 0 0 0 -14.835114087880356 -297.64313926473733 0 -297.64313926473733 137.01094736254527 0 0 0 0 73.994968388018606 -382.75154074148668 0 -382.75154074148668 -137.95798965291215 0 0 0 0 16.731674190465128 -113.05260391174943 0 -113.05260391174943 -82.400733203312484 0 0 0 0 543.78412471759657 -35.867634646959232 0 -35.867634646959232 214.76402980914645 0 0 0 0 -10.10036783592659 -249.31772229621129 0 -249.31772229621129 141.55703909568911 0 0 0 0 65.269808829187241 -298.57570487781322 0 -298.57570487781322 136.2808331350825 0 0 0 0 -38.36691300678649 -303.70760254449669 0 -303.70760254449669 372.02076329536794 0 0 0 0 -133.70632057456532 -82.975306692174854 0 -82.975306692174854 423.79180124143022 0 0 0 0 -111.80225924502884 -172.04565710483621 0 -172.04565710483621 757.4935087918584 0 0 0 0 118.09731649493915 -439.02110592870304 0 -439.02110592870304 509.23008088812639 0 0 0 0 -102.59818011394646 -203.03396012659221 0 -203.03396012659221 138.06661286519375 0 0 0 0 -90.057753663706535 -146.69123100128854 0 -146.69123100128854 6.4121768120858178 0 0 0 0 -103.436644409172 -192.69300447925343 0 -192.69300447925343 241.80385396214479 0 0 0 0 -54.860830684163375 -234.166038616484 0 -234.166038616484 80.407582435487257 0 0 0 0 -93.336317102381145 -84.685612577615757 0 -84.685612577615757 239.52270569837867 0 0 0 0 -114.55533521913458 -94.28315396736707 0 -94.28315396736707 284.27532614803204 0 0 0 0 -92.870226269671548 -95.641480034827168 0 -95.641480034827168 147.92746964280741 0 0 0 0 -66.97828639684667 25.891838470947278 0 25.891838470947278 306.81959841285789 0 0 0 0 1.1423345853982028 52.886243027602177 0 52.886243027602177 154.96383470454748 0 0 0 0 -64.591724064899608 93.556039590828732 0 93.556039590828732 153.35367369542291 0 0 0 0 -1.8225103941549605 -19.168333975063433 0 -19.168333975063433 166.57086535101189 0 0 0 0 -82.307193327633286 -20.648792526449597 0 -20.648792526449597 166.76713166504487 0 0 0 0 0.077895075425203686 0.068520605304371429 0 0.068520605304371429 7.5282197098526993 0 0 0 0 172.75845186582592 -305.59889016652414 0 -305.59889016652414 298.62298642113456 0 0 0 0 -70.525317017240013 140.73255908566762 0 140.73255908566762 199.42690259598749 0 0 0 0 -91.646144135534996 73.34157112248613 0 73.34157112248613 493.21521521533214 0 0 0 0 -1.7014679242289503 -0.43788791207481381 0 -0.43788791207481381 2.0666649193928706 0 0 0 0 115.69872146722628 -360.65431852712209 0 -360.65431852712209 525.82312923096038 0 0 0 0 42.748192708386341 -235.61479364360639 0 -235.61479364360639 528.35610575932878 0 0 0 0 17.572941105405334 -240.25310189077936 0 -240.25310189077936 547.23002778927867 0 0 0 0 89.305391559377313 -352.94362007925065 0 -352.94362007925065 706.92246729003091 0 0 0 0 -16.170025620391243 -62.083681490006711 0 -62.083681490006711 806.43899746673196 0 0 0 0 3.0633384260690946 -24.051294999496349 0 -24.051294999496349 382.81599153386196 0 0 0 0 -64.852999074289983 -57.725177450969568 0 -57.725177450969568 366.50355927631608 0 0 0 0 -0.25024861575366231 -132.92607133852925 0 -132.92607133852925 286.75617898659311 0 0 0 0 35.933273235918023 24.106792715976553 0 24.106792715976553 44.748520152122239 0 0 0 0 -39.725426848342977 -83.1911104333808 0 -83.1911104333808 387.77075326337581 0 0 0 0 121.14838951014826 -219.19176021714156 0 -219.19176021714156 375.65310335155152 0 0 0 0 0.16202752069252302 -105.22551598654506 0 -105.22551598654506 278.00085935659808 0 0 0 0 70.678255228485796 -128.11166581819998 0 -128.11166581819998 229.18958845751695 0 0 0 0 -2.5292051545298477 -0.72231362720327041 0 -0.72231362720327041 3.0532979811181775 0 0 0 0 30.568362059374522 -10.160941512814361 0 -10.160941512814361 -1.6810695190361002 0 0 0 0 120.39706614808529 -35.833612596835337 0 -35.833612596835337 3.5033203993843927 0 0 0 0 27.879945591450905 12.351841288493006 0 12.351841288493006 -17.971782289772818 0 0 0 0 -21.068420728479396 10.351323129566481 0 10.351323129566481 10.950986988329532 0 0 0 0 8.1983441796197951 21.262333385309947 0 21.262333385309947 -7.8859044208147679 0 0 0 0 -7.7780562793341232 -46.602006198792878 0 -46.602006198792878 -76.047577504501533 0 0 0 0 -16.412200966195087 -26.56139014933251 0 -26.56139014933251 -13.104365014634823 0 0 0 0 0.00028523046057671309 -2.4144096313175396 0 -2.4144096313175396 1.6178465681405214 0 0 0 0 -0.84489335346630412 -0.82604342875827541 0 -0.82604342875827541 2.1060899606301859 0 0 0 0 0.7990145155286541 0.40583810056456571 0 0.40583810056456571 -0.30164775666426635 0 0 0 0 8.0710876707478576 0.083197032954245742 0 0.083197032954245742 5.5684533426901908 0 0 0 0 3.3534360085190826 -0.95673439260328053 0 -0.95673439260328053 -0.24882157719613218 0 0 0 0 -0.54897866439932841 -62.72185122517385 0 -62.72185122517385 -116.47690861144474 0 0 0 0 -0.12429789969246485 -51.001003321556709 0 -51.001003321556709 -76.712018459864339 0 0 0 0 -43.091256378946127 -69.868628550620997 0 -69.868628550620997 -61.462782608141424 0 0 0 0 -33.350098156758577 -4.7438125730166121 0 -4.7438125730166121 -5.3968138061718491 0 0 0 0 -34.977201041583612 -66.428478499989069 0 -66.428478499989069 -74.061901750439574 0 0 0 0 2.2857969257183015 -0.77411516611587672 0 -0.77411516611587672 2.4335897594760283 0 0 0 0 -83.081153444514712 -61.738050649974525 0 -61.738050649974525 -60.515502198853937 0 0 0 0 -99.500988968167803 -179.74339640471135 0 -179.74339640471135 -178.50312339139418 0 0 0 0 4.8281508051877609 -39.203027398723862 0 -39.203027398723862 -35.068072498934043 0 0 0 0 4.544441066813306 0.34745463577928604 0 0.34745463577928604 -185.56776077889845 0 0 0 0 -67.631707897824526 32.91725328344728 0 32.91725328344728 13.927299253446108 0 0 0 0 2.4864811552081676 -18.018169076290349 0 -18.018169076290349 18.321288162870072 0 0 0 0 -80.218506914759928 -198.73100486427029 0 -198.73100486427029 -78.639793729787925 0 0 0 0 -22.710749908568687 -48.113399399606351 0 -48.113399399606351 -0.94966992197078071 0 0 0 0 1.2703895601242357 -5.971883614294768 0 -5.971883614294768 -9.4852405832092899 0 0 0 0 -18.413935666598263 -81.008141789834553 0 -81.008141789834553 -93.482082239034071 0 0 0 0 -0.02150714275194332 86.924574534659769 0 86.924574534659769 -56.678454795486459 0 0 0 0 31.494297427970196 -48.549299205945715 0 -48.549299205945715 -14.052766172408155 0 0 0 0 2.3484654813562713 -16.384492781559914 0 -16.384492781559914 20.989603695605666 0 0 0 0 31.849267046349269 0.17253624296859016 0 0.17253624296859016 -26.649665832559549 0 0 0 0 15.39606508567158 -18.304771712915226 0 -18.304771712915226 7.238568888199552 0 0 0 0 2.2448390618330905 -3.2151418465032151 0 -3.2151418465032151 1.7510672998228749 0 0 0 0 -25.33279269581908 3.855545411386629 0 3.855545411386629 229.04335510865531 0 0 0 0 -6.5060666563294944 -0.12780807139279204 0 -0.12780807139279204 67.782995500430843 0 0 0 0 11.367809089941147 -97.857557596677907 0 -97.857557596677907 25.823200272530812 0 0 0 0 14.256655364959443 -55.572543422993476 0 -55.572543422993476 70.199395948387973 0 0 0 0 18.971133097729762 -68.832863953815831 0 -68.832863953815831 99.08374541158264 0 0 0 0 -0.44863495833166489 -2.9230061073782565 0 -2.9230061073782565 19.818166282927535 0 0 0 0 1.0024409366070586 -0.75961428655456587 0 -0.75961428655456587 0.73937377598812759 0 0 0 0 -138.2385530394713 -37.291738453762264 0 -37.291738453762264 309.53567868770551 0 0 0 0 -48.955162707570707 -130.0405776405205 0 -130.0405776405205 197.85413255298181 0 0 0 0 -43.068384320562473 -194.06414890803126 0 -194.06414890803126 4.4806344262105995 0 0 0 0 55.56756840505841 -89.451716235374988 0 -89.451716235374988 -167.29885585380362 0 0 0 0 16.504830486184801 101.64086499359746 0 101.64086499359746 -87.79747212753864 0 0 0 0 28.780204960639821 -39.310228029738028 0 -39.310228029738028 79.301214718772826 0 0 0 0 46.0808774374309 -51.153002338252918 0 -51.153002338252918 29.03856536687374 0 0 0 0 29.156167802677373 -45.255595193291811 0 -45.255595193291811 45.560888210551639 0 0 0 0 -8.7362878199201077 17.660482506731569 0 17.660482506731569 53.881700608955725 0 0 0 0 65.709662091314385 -77.654823623970515 0 -77.654823623970515 81.390475307433007 0 0 0 0 17.649323117315362 -50.166547130666004 0 -50.166547130666004 128.79116280355993 0 0 0 0 18.128833890499664 -46.528402858968548 0 -46.528402858968548 90.657719191206525 0 0 0 0 -119.43403641917939 3.0093282621455728 0 3.0093282621455728 13.517675646988209 0 0 0 0 -77.139723240496096 -35.181461825040515 0 -35.181461825040515 -30.478220734941715 0 0 0 0 -0.95755004997381832 -0.63068735119676234 0 -0.63068735119676234 2.5711220222797024 0 0 0 0 -35.087553147379367 -12.762225055835188 0 -12.762225055835188 9.2469476329333702 0 0 0 0 -49.19966837263928 -23.12645268459346 0 -23.12645268459346 27.915748987579263 0 0 0 0 2.2098973739775829 -6.3297856667095402 0 -6.3297856667095402 30.477284318839338 0 0 0 0 38.407505428836885 -34.723590254616738 0 -34.723590254616738 17.373144379840596 0 0 0 0 -35.999593980293866 -14.152004241427676 0 -14.152004241427676 16.809066510708362 0 0 0 0 -0.26868691689097801 -1.9867628975975364 0 -1.9867628975975364 5.192706832019077 0 0 0 0 -20.537134571590286 -24.284356239950284 0 -24.284356239950284 6.3263374724388086 0 0 0 0 3.858341987582719 -13.162372130257069 0 -13.162372130257069 12.588412533148134 0 0 0 0 1.4288628735612292 -21.568016959925444 0 -21.568016959925444 0.75667969405731128 0 0 0 0 -18.795822359309568 -30.94641885189526 0 -30.94641885189526 14.998093791689826 0 0 0 0 7.9587425822559936 -14.474456350719237 0 -14.474456350719237 11.776746419875636 0 0 0 0 -0.60930902819382027 -25.464683449248696 0 -25.464683449248696 0.77757948407816002 0 0 0 0 -0.46429965242990079 -7.8462581784232697 0 -7.8462581784232697 4.7745583012964374 0 0 0 0 1.4182471564998593 -16.064434146601187 0 -16.064434146601187 -6.3080028529835772 0 0 0 0 2.189936983204305 -10.372661965002571 0 -10.372661965002571 -18.740311734689055 0 0 0 0 14.272356236313499 -9.3878244566876674 0 -9.3878244566876674 -13.634623084770283 0 0 0 0 11.460111511692958 -10.876985014482216 0 -10.876985014482216 -10.600302021004609 0 0 0 0 20.464475347958796 -43.840684896754965 0 -43.840684896754965 0.67971059202318429 0 0 0 0 9.3541134824167358 -16.991042532973722 0 -16.991042532973722 11.881714846704337 0 0 0 0 23.567333650731598 -44.799373829245269 0 -44.799373829245269 -19.633918255062781 0 0 0 0 7.2659890976101451 -59.145066865984859 0 -59.145066865984859 24.350486077131791 0 0 0 0 64.391066792522906 -31.888590775638477 0 -31.888590775638477 -5.110368363019461 0 0 0 0 4.3157059360237326 -43.109030569557035 0 -43.109030569557035 20.407811976048833 0 0 0 0 28.379507539590122 -46.7156286974041 0 -46.7156286974041 18.802878576945659 0 0 0 0 42.306136812949262 -78.841019227694233 0 -78.841019227694233 36.862397076667548 0 0 0 0 92.929333183958079 -50.418257585197352 0 -50.418257585197352 12.303831430324863 0 0 0 0 -258.21903226287395 144.34152890713085 0 144.34152890713085 -973.97395046442398 0 0 0 0 2.1037014280677333 -8.3808302462654609 0 -8.3808302462654609 -12.366767311517158 0 0 0 0 1.5210720296872609 -1.3879241597905789 0 -1.3879241597905789 -14.805718000936171 0 0 0 0 87.963358760684059 -67.241436871690439 0 -67.241436871690439 0.64463889038052002 0 0 0 0 0.60224528907381014 -4.4229189751530669 0 -4.4229189751530669 -2.0187611952359603 0 0 0 0 207.90677973775382 -103.82533429000023 0 -103.82533429000023 20.074886702714139 0 0 0 0 -2.0004267776647424 -8.6315687911554946 0 -8.6315687911554946 -16.009647427476658 0 0 0 0 206.67498832647834 -106.88628530318783 0 -106.88628530318783 39.896473253342265 0 0 0 0 103.88843746850034 -44.771323382043192 0 -44.771323382043192 27.054097010160149 0 0 0 0 98.087407451848776 -66.555232325450788 0 -66.555232325450788 20.045949973773531 0 0 0 0 76.586223512029392 -58.252818985507474 0 -58.252818985507474 -12.722898917287239 0 0 0 0 7.7914987823387492 -81.836802253066708 0 -81.836802253066708 40.792207831440464 0 0 0 0 184.314145573102 -130.47607033921986 0 -130.47607033921986 15.654378640361756 0 0 0 0 84.050717617677947 -101.42442081702825 0 -101.42442081702825 65.864208081275137 0 0 0 0 -17.91683678177651 -64.2224293399413 0 -64.2224293399413 36.760921445087661 0 0 0 0 5.6837386665115446 -41.864541993824901 0 -41.864541993824901 9.0174633333881502 0 0 0 0 -93.501164129993413 -53.110605573151588 0 -53.110605573151588 13.413133081659907 0 0 0 0 8.0047536726597173 -79.801307601391727 0 -79.801307601391727 -79.699607080183341 0 0 0 0 25.506060766711016 -102.9529979113031 0 -102.9529979113031 -75.577436129754915 0 0 0 0 115.90863461426125 -10.23437676932781 0 -10.23437676932781 6.9781435556724318 0 0 0 0 10.749771043309011 -65.728893319756025 0 -65.728893319756025 -7.8289147504037828 0 0 0 0 24.605071865429636 -155.00918198128056 0 -155.00918198128056 -195.97580559304788 0 0 0 0 106.58651098050177 -46.834055869734584 0 -46.834055869734584 -132.33949765046782 0 0 0 0 198.6826731103065 4.6907109608500832 0 4.6907109608500832 -211.65944752975702 0 0 0 0 175.23159550225319 -223.7881349059553 0 -223.7881349059553 -380.92466983718259 0 0 0 0 163.1881876289699 -213.18039987229031 0 -213.18039987229031 -190.81493777919968 0 0 0 0 122.91499159510568 -241.72049925466035 0 -241.72049925466035 -207.96832357323729 0 0 0 0 10.404298362751433 -384.30432189050407 0 -384.30432189050407 338.86277310980222 0 0 0 0 306.51722216748385 -442.42949728470626 0 -442.42949728470626 -4.1219768428054522 0 0 0 0 -91.598229836381506 -232.67429920162249 0 -232.67429920162249 -46.130188494307731 0 0 0 0 -383.77418255909288 -318.09959158346101 0 -318.09959158346101 32.738101242604898 0 0 0 0 -16.066545669033076 -62.566458244262321 0 -62.566458244262321 113.64637189365112 0 0 0 0 -187.80837248403986 -273.70161312973869 0 -273.70161312973869 102.3131817801351 0 0 0 0 -92.305437383707613 -284.21368695077945 0 -284.21368695077945 -1.8764713801720063 0 0 0 0 -70.060441772046033 -226.11615652018827 0 -226.11615652018827 35.171646027432871 0 0 0 0 -353.12759632866073 -356.73023419585979 0 -356.73023419585979 34.723654509154585 0 0 0 0 -170.8922869211965 -294.04189469849916 0 -294.04189469849916 -23.247958574429504 0 0 0 0 -280.33235674108801 -201.57022813872663 0 -201.57022813872663 42.354921682584973 0 0 0 0 -51.452426321004168 -205.09205670387746 0 -205.09205670387746 -90.125669978133374 0 0 0 0 28.547019041674503 -334.7350858566133 0 -334.7350858566133 -33.026141599412767 0 0 0 0 -172.07352095337592 -194.4006862750129 0 -194.4006862750129 -73.574317908714875 0 0 0 0 -185.38097893797385 7.8504380549502457 0 7.8504380549502457 -47.548744169099336 0 0 0 0 -0.19738451653562805 -0.18126861894185708 0 -0.18126861894185708 0.64688289709068414 0 0 0 0 240.98660952471255 -124.82981246898817 0 -124.82981246898817 71.639140114748443 0 0 0 0 -618.07823801700579 -44.515221589905195 0 -44.515221589905195 83.882761696131638 0 0 0 0 292.02648956426856 -383.1840139646456 0 -383.1840139646456 69.498325017535535 0 0 0 0 97.095666843510116 -60.819634543684515 0 -60.819634543684515 127.49315501321689 0 0 0 0 -48.034057077544276 -88.142120242835517 0 -88.142120242835517 159.65420490844917 0 0 0 0 24.519797296281467 -189.93479782277336 0 -189.93479782277336 101.35848873982468 0 0 0 0 -26.851897640648531 -79.101206118493792 0 -79.101206118493792 146.34486458646825 0 0 0 0 -51.420236441510497 -46.308000986529805 0 -46.308000986529805 188.05891546734711 0 0 0 0 -107.63199678127421 -87.609675297009744 0 -87.609675297009744 186.44027524514149 0 0 0 0 -100.39871871730429 -136.74582369012569 0 -136.74582369012569 101.27757060963086 0 0 0 0 -53.683515854150755 -123.61051597557253 0 -123.61051597557253 89.809508779762837 0 0 0 0 -46.088418594445102 -156.62101419526698 0 -156.62101419526698 4.6260069003983517 0 0 0 0 -64.990993527804676 -222.82005299429147 0 -222.82005299429147 -29.873377681520651 0 0 0 0 -66.793377456982853 -224.7312666331527 0 -224.7312666331527 -81.115335860868072 0 0 0 0 -115.8238705501717 -201.75736722909642 0 -201.75736722909642 31.289692415621175 0 0 0 0 -202.55185231279756 -354.58838579553776 0 -354.58838579553776 250.72347088993774 0 0 0 0 25.554005826801585 -207.87158729035582 0 -207.87158729035582 -76.850571077651693 0 0 0 0 -33.353214493385167 -138.67923451187198 0 -138.67923451187198 71.074975462612201 0 0 0 0 -93.228787548330729 -285.72144830723664 0 -285.72144830723664 -83.523317961182329 0 0 0 0 -40.284190233214758 -213.1604979150361 0 -213.1604979150361 -77.479921332436788 0 0 0 0 -74.226063578040339 -234.54552619030437 0 -234.54552619030437 -293.60423112580975 0 0 0 0 -230.08442971072509 -353.0800099039152 0 -353.0800099039152 -146.76389729377115 0 0 0 0 -108.49615855387674 -321.61841100041966 0 -321.61841100041966 -494.55440453311894 0 0 0 0 -425.98576758317358 -21.879797238278115 0 -21.879797238278115 -64.532944965067145 0 0 0 0 -336.58284239182831 -500.19132586078922 0 -500.19132586078922 -331.60893205805041 0 0 0 0 -128.89105064505566 3.0064217436565741 0 3.0064217436565741 -37.276585934821924 0 0 0 0 0.98728664844639979 -1.2048790369796194 0 -1.2048790369796194 0.44399029584930361 0 0 0 0 -414.17311062624503 -319.64381278938845 0 -319.64381278938845 319.85657994692156 0 0 0 0 -152.30962495247513 -361.45282997347385 0 -361.45282997347385 -147.49796617788348 0 0 0 0 -190.52856415684073 -335.60889939348726 0 -335.60889939348726 -118.46863355013966 0 0 0 0 -219.699418672928 -221.98921080589207 0 -221.98921080589207 -53.108062164372313 0 0 0 0 -108.52924075321789 -126.88565181309423 0 -126.88565181309423 -246.87019791694183 0 0 0 0 -22.348563269257284 -19.60437464772167 0 -19.60437464772167 -13.452548658127853 0 0 0 0 3.3704973161166834 -2.120872551473127 0 -2.120872551473127 1.0488874339201146 0 0 0 0 -29.528912277066411 -30.433234640853698 0 -30.433234640853698 -27.529686694024349 0 0 0 0 -49.478960448344878 -21.40455669545554 0 -21.40455669545554 -4.4914562819763244 0 0 0 0 1.2453949311709209 -9.3404180269689761 0 -9.3404180269689761 11.756162920019975 0 0 0 0 -1.2672814703837503 -43.299240994933825 0 -43.299240994933825 20.077036597074766 0 0 0 0 -0.22368586303308291 -4.2527010319859286 0 -4.2527010319859286 -7.8949625455318397 0 0 0 0 -77.727650610933779 -231.21767425303551 0 -231.21767425303551 -3.4781733903824943 0 0 0 0 132.39064821690408 -32.440482610350045 0 -32.440482610350045 -85.498633761902965 0 0 0 0 -43.810105915581516 25.16455121951185 0 25.16455121951185 365.10782239594215 0 0 0 0 382.10880648171951 -115.24959368659302 0 -115.24959368659302 -131.13389598061985 0 0 0 0 1.7756940096271876 -2.5960650599751176 0 -2.5960650599751176 4.9587755957244255 0 0 0 0 142.14967984321629 -119.46224878912471 0 -119.46224878912471 -13.59145097721921 0 0 0 0 34.663623244661721 -11.893335263226618 0 -11.893335263226618 17.590218961172241 0 0 0 0 -47.490077755413949 -21.955566169121994 0 -21.955566169121994 61.558516917564702 0 0 0 0 0.19901246325328259 0.097690234573974521 0 0.097690234573974521 -3.3962826923996161 0 0 0 0 39.951534637857549 -125.62791173585811 0 -125.62791173585811 65.222624016550981 0 0 0 0 -10.975826114830852 -63.235125953000534 0 -63.235125953000534 33.240994534377933 0 0 0 0 300.45142803339695 -278.61828815855188 0 -278.61828815855188 86.40123694488102 0 0 0 0 88.689096337271621 -107.64191716890082 0 -107.64191716890082 -47.185749335217224 0 0 0 0 192.84451555616033 -99.387658086945976 0 -99.387658086945976 -68.40896666727258 0 0 0 0 15.735651135360968 -48.53458317077866 0 -48.53458317077866 8.6174428871290729 0 0 0 0 9.4246826536890183 -12.65725660524037 0 -12.65725660524037 11.587475724757965 0 0 0 0 17.018692887817451 -22.252415778684281 0 -22.252415778684281 0.13657218925800407 0 0 0 0 18.511932037678889 -16.200939968847251 0 -16.200939968847251 -15.70922722985415 0 0 0 0 -2.5015491753743788 -9.8357665134564272 0 -9.8357665134564272 -13.919470175988472 0 0 0 0 31.079834753603791 -19.923198252863585 0 -19.923198252863585 -6.3821027196790965 0 0 0 0 12.726315438572783 -43.406266219331428 0 -43.406266219331428 43.860568874697492 0 0 0 0 11.559104257245963 -12.490039181406132 0 -12.490039181406132 -12.313386566542249 0 0 0 0 3.4928317770616104 -12.836185258353929 0 -12.836185258353929 -16.779086530576009 0 0 0 0 20.535330855819666 -24.443484379892652 0 -24.443484379892652 -9.6568860976112774 0 0 0 0 10.324476590307313 -19.760158498934288 0 -19.760158498934288 -7.9377883022207243 0 0 0 0 12.254253203562513 -16.295093437521579 0 -16.295093437521579 -4.120494490881967 0 0 0 0 -95.64621606899891 34.308797360810786 0 34.308797360810786 38.588116939418796 0 0 0 0 20.057051902101193 -38.487751847722166 0 -38.487751847722166 -14.915227142766526 0 0 0 0 78.828586569408799 70.874735919303021 0 70.874735919303021 -31.111616395584861 0 0 0 0 -7.6879170706724835 -41.143778133945034 0 -41.143778133945034 -12.901656898666261 0 0 0 0 -23.161446405378229 -38.139850364579615 0 -38.139850364579615 -10.876135650053584 0 0 0 0 4.4552821027862421 -1.3971826332747597 0 -1.3971826332747597 1.9373021100777663 0 0 0 0 126.17018432799523 -161.04839705660288 0 -161.04839705660288 -151.44899859165162 0 0 0 0 3.6455803425196791 -26.805200791774951 0 -26.805200791774951 -13.412411769470054 0 0 0 0 -9.0410223699725663 -19.184742294598454 0 -19.184742294598454 -16.582879843277098 0 0 0 0 1.4036133064990821 -19.04559700213548 0 -19.04559700213548 -4.9551614927717296 0 0 0 0 -9.869597183453152 -36.307004289672477 0 -36.307004289672477 -2.8650169433531119 0 0 0 0 -62.613469122310562 -6.6902633355939543 0 -6.6902633355939543 173.92256263548916 0 0 0 0 2.1868688314547171 -4.2832488030743292 0 -4.2832488030743292 3.4500499559179616 0 0 0 0 4.0422329599559816 -23.347345599505616 0 -23.347345599505616 -11.31115583142855 0 0 0 0 -4.894610323429049 -21.320702901835674 0 -21.320702901835674 -18.783766600379877 0 0 0 0 9.5844958209745528 -32.480696386714044 0 -32.480696386714044 -92.880952765249972 0 0 0 0 17.967198565136641 -19.891612149018329 0 -19.891612149018329 38.024316454888321 0 0 0 0 1.748168872698443 -4.5680707836072543 0 -4.5680707836072543 -24.724626122551854 0 0 0 0 -6.661649455775347 -11.302222976340289 0 -11.302222976340289 -13.585147609215397 0 0 0 0 329.15628425973409 44.001112613986152 0 44.001112613986152 -92.809914150744589 0 0 0 0 19.778804147994379 19.621768786624671 0 19.621768786624671 29.964858519724658 0 0 0 0 -4.6295551701593531 -5.0659350908787388 0 -5.0659350908787388 -1.2322027279543804 0 0 0 0 -17.466131931079723 -26.078177678925023 0 -26.078177678925023 -6.4289123162400159 0 0 0 0 -10.506782864613342 -15.6192542751769 0 -15.6192542751769 -16.013869539434381 0 0 0 0 6.2982298659063076 -2.8636542711661264 0 -2.8636542711661264 -9.3042854839143345 0 0 0 0 -37.581657722921591 212.96970497946631 0 212.96970497946631 -136.49672431360887 0 0 0 0 -72.733935034775641 163.21820000610933 0 163.21820000610933 -33.068046251852138 0 0 0 0 -0.24834188290421366 1.1641040244650327 0 1.1641040244650327 0.88293840365128062 0 0 0 0 299.14097550207953 -164.59141201330931 0 -164.59141201330931 -39.213958263429959 0 0 0 0 132.42177179110877 10.385055273225589 0 10.385055273225589 -321.10392654506177 0 0 0 0 -139.65522193894867 -38.136929846421481 0 -38.136929846421481 69.585747363693372 0 0 0 0 -19.415890608579502 120.82525767479819 0 120.82525767479819 -83.054107493207994 0 0 0 0 -111.88125976300671 -58.641003681410098 0 -58.641003681410098 96.507452532252501 0 0 0 0 445.78475018887184 -9.383195818363447 0 -9.383195818363447 -60.438202090695995 0 0 0 0 -33.132855370815378 145.90998705454695 0 145.90998705454695 345.34284806305084 0 0 0 0 -0.39891396176972194 -216.77359618505943 0 -216.77359618505943 365.16588751382915 0 0 0 0 -49.930619738224777 40.845322732109707 0 40.845322732109707 141.95153602254504 0 0 0 0 17.385567883742624 -37.229211990831573 0 -37.229211990831573 -129.50156960364984 0 0 0 0 -153.1637348059885 -259.65391632011233 0 -259.65391632011233 -147.90217553895855 0 0 0 0 -158.9402234293666 198.26640859661347 0 198.26640859661347 83.512082760836165 0 0 0 0 -84.9849642283516 114.5084353109014 0 114.5084353109014 -208.7353455907687 0 0 0 0 -267.34774241790728 445.35663606949856 0 445.35663606949856 -647.45142298692372 0 0 0 0 89.056787339737639 -127.4088342838586 0 -127.4088342838586 -278.98596680377159 0 0 0 0 -712.60967752468423 -118.28879518130452 0 -118.28879518130452 -125.94579469051405 0 0 0 0 -181.65636085415463 -462.74749484304903 0 -462.74749484304903 -507.08626124814327 0 0 0 0 -25.809615111866151 -278.75561788080267 0 -278.75561788080267 -149.86654300109876 0 0 0 0 -1.7923604208518995 -3.0064740192092358 0 -3.0064740192092358 -5.2472531678560372 0 0 0 0 215.29301542168105 -119.98967655307479 0 -119.98967655307479 -387.75553359552168 0 0 0 0 -961.36764826492072 -78.741274668041115 0 -78.741274668041115 93.002828667398717 0 0 0 0 -302.90017168754639 -83.117402863586904 0 -83.117402863586904 -17.307840283701807 0 0 0 0 -538.51734016729461 -543.62932376225399 0 -543.62932376225399 -678.96843959984085 0 0 0 0 -490.33933797520149 -370.1791592292268 0 -370.1791592292268 -22.290757659393421 0 0 0 0 -611.14277603550909 77.314406608501258 0 77.314406608501258 2.5712818138308648 0 0 0 0 -91.869550317525864 -382.97829114616161 0 -382.97829114616161 218.93430937182666 0 0 0 0 232.34500448866311 128.75809844947798 0 128.75809844947798 -200.51652458960234 0 0 0 0 -141.24422089262225 -128.60844851506226 0 -128.60844851506226 -199.23169230900385 0 0 0 0 33.960869081245619 86.965080580404901 0 86.965080580404901 55.054431492069853 0 0 0 0 -7.3809362796142182 -8.1671165585522942 0 -8.1671165585522942 -8.6511341640989627 0 0 0 0 -30.335180762805976 1.319442505695406 0 1.319442505695406 -20.817847984028049 0 0 0 0 -21.112386296707882 5.5929433137985143 0 5.5929433137985143 -19.211310739479813 0 0 0 0 -35.354855838450021 18.952855932253442 0 18.952855932253442 -31.238815874643478 0 0 0 0 -5.9682370957634703 10.125075103891504 0 10.125075103891504 -57.880047711776569 0 0 0 0 -226.61800260040582 -68.552911384369054 0 -68.552911384369054 159.14352909366426 0 0 0 0 -192.1284307301612 82.183751257281983 0 82.183751257281983 -79.870510023396491 0 0 0 0 -36.741401623061392 94.313417851350096 0 94.313417851350096 -409.09429684995121 0 0 0 0 -3.7085826229724717 -2.9244512075511935 0 -2.9244512075511935 -2.6141193270465806 0 0 0 0 -728.18919230377469 277.49232934746442 0 277.49232934746442 562.67441837492152 0 0 0 0 16.108761103081633 -180.59972984884007 0 -180.59972984884007 -537.60156825907507 0 0 0 0 -3.6539568998196046 -132.84162085299977 0 -132.84162085299977 -183.20550313771673 0 0 0 0 -41.633949762329394 72.923960915120915 0 72.923960915120915 -155.24221285168824 0 0 0 0 -18.032260177136777 32.24614360050964 0 32.24614360050964 -74.918576118994679 0 0 0 0 0.71193915729963919 -48.146033723643995 0 -48.146033723643995 -114.56612932817734 0 0 0 0 11.08812410558312 -59.26817378090891 0 -59.26817378090891 -102.6832923782822 0 0 0 0 5.8199597072816687 -99.12435872347487 0 -99.12435872347487 -271.70858221027447 0 0 0 0 -50.086637658248947 -169.98753677266541 0 -169.98753677266541 -4.2849571008628118 0 0 0 0 -41.998914205396431 -128.82923508876229 0 -128.82923508876229 -123.31083335848234 0 0 0 0 -27.078589340555482 -88.60446713649344 0 -88.60446713649344 -16.087383763511752 0 0 0 0 -99.425053071179718 -114.87813067554998 0 -114.87813067554998 68.075775483280722 0 0 0 0 -94.716231800630339 -90.299892027338501 0 -90.299892027338501 -16.122050025325734 0 0 0 0 -118.2501958869907 -152.68675865093428 0 -152.68675865093428 -4.9163656797136355 0 0 0 0 -171.01154932036297 -136.80237856531676 0 -136.80237856531676 221.80335206930431 0 0 0 0 -159.4516895085635 -398.26960794462548 0 -398.26960794462548 -204.18659042444779 0 0 0 0 -177.92300376589992 -299.41089182684664 0 -299.41089182684664 114.28242883609528 0 0 0 0 -57.30672926112311 -227.25069689174688 0 -227.25069689174688 -219.76762943450012 0 0 0 0 25.637400014486047 -18.960116781761826 0 -18.960116781761826 -31.546175946397852 0 0 0 0 71.297627087573346 17.010765054238618 0 17.010765054238618 -4.5185800520648627 0 0 0 0 3.9502509900740961 -10.597068966082119 0 -10.597068966082119 -17.639660404338628 0 0 0 0 15.579542991678323 -0.49952745089903949 0 -0.49952745089903949 -10.476342550162528 0 0 0 0 -3.8500974291018792 -16.240981157588976 0 -16.240981157588976 -9.4493061345747265 0 0 0 0 -29.249467008088686 -49.15852308358717 0 -49.15852308358717 -26.118315439758589 0 0 0 0 -57.719704559072852 -39.60985203029486 0 -39.60985203029486 -3.1055628379272093 0 0 0 0 -28.173732416238636 -73.015438093811099 0 -73.015438093811099 -56.605718552487815 0 0 0 0 -7.4378709540469572 -37.115503901339252 0 -37.115503901339252 -23.053997200959202 0 0 0 0 14.850577270499343 -41.227128999395063 0 -41.227128999395063 -40.427797097225266 0 0 0 0 14.190492193360114 -16.489215574936679 0 -16.489215574936679 -36.467517212528037 0 0 0 0 8.4715823921869742 -26.820487409488123 0 -26.820487409488123 -59.224832488616812 0 0 0 0 28.377074683521641 12.635626464958477 0 12.635626464958477 -13.828705309828365 0 0 0 0 0.46292905039445031 -25.334608219734946 0 -25.334608219734946 -31.968014544567268 0 0 0 0 29.291128908647806 -9.6566503295507573 0 -9.6566503295507573 -58.384858955014352 0 0 0 0 0.89489338682819053 1.2932342644030399 0 1.2932342644030399 -0.66171144501360857 0 0 0 0 12.376516514981631 7.0778512810902612 0 7.0778512810902612 0.15908313453837764 0 0 0 0 87.255005966915633 -4.8321172841606312 0 -4.8321172841606312 18.242438385976129 0 0 0 0 12.093034326800989 -35.650396911751159 0 -35.650396911751159 -22.564669271007006 0 0 0 0 9.6129902328320895 -16.414043109591148 0 -16.414043109591148 0.82517560172709636 0 0 0 0 -16.432752824133786 1.564115454626517 0 1.564115454626517 11.853049763107265 0 0 0 0 5.0322162232623668 11.445101240042277 0 11.445101240042277 0.59590486487650196 0 0 0 0 -0.67922436455533841 1.0368848332931506 0 1.0368848332931506 0.19147383338514601 0 0 0 0 131.14837821617402 15.948254352078948 0 15.948254352078948 115.84427906760538 0 0 0 0 -38.648727363117359 -31.991935925421785 0 -31.991935925421785 -31.828600722099509 0 0 0 0 56.396139578006114 9.9200399116307381 0 9.9200399116307381 -45.198375603700697 0 0 0 0 130.63538391658221 61.363951861597343 0 61.363951861597343 -63.892658480843238 0 0 0 0 5.2466542790477533 -7.6520980055338654 0 -7.6520980055338654 -23.943205197917393 0 0 0 0 -38.029709878781659 -64.570458243653206 0 -64.570458243653206 -78.0393057501351 0 0 0 0 -9.7711866195254515 -46.640911666845795 0 -46.640911666845795 -84.213058725465089 0 0 0 0 0.68247635595253087 -4.8547743451608767 0 -4.8547743451608767 -24.477782529669639 0 0 0 0 18.454269198569818 10.027384945187805 0 10.027384945187805 -47.707752539452486 0 0 0 0 41.926521819677873 -13.387225330841829 0 -13.387225330841829 -30.205726487278298 0 0 0 0 10.689364893325546 3.5745632581583777 0 3.5745632581583777 -4.2339351149930735 0 0 0 0 10.215350858568854 8.8312218322025728 0 8.8312218322025728 -31.11494852434862 0 0 0 0 28.520321542277088 11.279285665294083 0 11.279285665294083 -27.531786414321687 0 0 0 0 130.83500991229084 2.7863330291147577 0 2.7863330291147577 -340.50038394099101 0 0 0 0 3.6634317707286073 -8.4022118976801607 0 -8.4022118976801607 -30.763124683479205 0 0 0 0 -18.747404662057306 -0.74588475794689657 0 -0.74588475794689657 -17.725266988632939 0 0 0 0 31.705047865048982 115.00844937440706 0 115.00844937440706 -402.32126368005993 0 0 0 0 17.773787707606971 -7.2646214927772235 0 -7.2646214927772235 -24.061933744756971 0 0 0 0 15.695400182543381 2.6396260510809952 0 2.6396260510809952 -22.452992979844566 0 0 0 0 2.5425864747958258 -41.563568210647645 0 -41.563568210647645 -99.480723570180999 0 0 0 0 6.3799361421188223 -38.043577942647062 0 -38.043577942647062 -99.614528016718396 0 0 0 0 1.6621726273733657 -46.380480983258167 0 -46.380480983258167 -106.50420048769593 0 0 0 0 18.373661552643171 -55.212041917300667 0 -55.212041917300667 -126.76685974281281 0 0 0 0 17.593299667350948 -30.268253813876072 0 -30.268253813876072 -92.878526878463163 0 0 0 0 9.6678139734285651 -37.186502831427788 0 -37.186502831427788 -96.669102931002271 0 0 0 0 29.685975113592576 -47.716365647152998 0 -47.716365647152998 -131.22886673577887 0 0 0 0 66.890888302994426 -22.587839842497488 0 -22.587839842497488 -118.12277529716084 0 0 0 0 7.1985462266384275 -41.83527000174945 0 -41.83527000174945 -91.582683433790862 0 0 0 0 -9.0292082049709279 -39.751402429028531 0 -39.751402429028531 -76.899631924993173 0 0 0 0 4.5850519044797693 -47.029528531027609 0 -47.029528531027609 -101.90607147624542 0 0 0 0 -38.935326642664222 -65.86393130655847 0 -65.86393130655847 -87.048882895251154 0 0 0 0 7.6175306112883803 -6.621901672617696 0 -6.621901672617696 6.4074906909886238 0 0 0 0 -23.072108860751769 -182.29156233422088 0 -182.29156233422088 -177.4593695549338 0 0 0 0 100.17108505218312 -98.960649074247641 0 -98.960649074247641 -186.29778034310584 0 0 0 0 103.52332909969846 33.716992648704036 0 33.716992648704036 -53.012831697356887 0 0 0 0 21.35413780538147 -39.419721823238433 0 -39.419721823238433 -107.86675966087932 0 0 0 0 -10.27676711488175 -38.336558610013753 0 -38.336558610013753 -72.691701871328405 0 0 0 0 11.035025866171054 -29.812425845131656 0 -29.812425845131656 -85.683324196623289 0 0 0 0 32.749294153880328 -15.432244909894507 0 -15.432244909894507 -82.817816406804923 0 0 0 0 26.483694156617275 -48.139141844176265 0 -48.139141844176265 -132.76248605900764 0 0 0 0 2.7280742665861908 -11.052910121374225 0 -11.052910121374225 -28.511431982227805 0 0 0 0 -2.1058208817848936 -14.701457311053673 0 -14.701457311053673 -25.903881957385238 0 0 0 0 4.5022487574246952 -3.6263852812106734 0 -3.6263852812106734 3.5093870503042126 0 0 0 0 4.7684354742013966 0.36386162969392899 0 0.36386162969392899 -4.5193937791264034 0 0 0 0 -0.57806229953166621 0.25888979922456201 0 0.25888979922456201 4.2315068522730144 0 0 0 0 2.1358716458710205 0.50384733505877577 0 0.50384733505877577 -0.97516439869350791 0 0 0 0 157.25928900465442 -94.695024057709816 0 -94.695024057709816 26.384402358413354 0 0 0 0 108.53000321818035 -80.204569738401915 0 -80.204569738401915 62.798445255451952 0 0 0 0 157.81638159093927 -116.84366943487294 0 -116.84366943487294 52.359687571130053 0 0 0 0 153.17077845671884 -98.827002385041851 0 -98.827002385041851 14.759931281409081 0 0 0 0 117.04342116475891 -118.32459301154631 0 -118.32459301154631 17.492398151785892 0 0 0 0 155.50876278110445 -102.58986748610914 0 -102.58986748610914 20.678618986607034 0 0 0 0 177.45129375866964 -81.407447568104544 0 -81.407447568104544 5.2640858231752645 0 0 0 0 137.7797862021107 -57.117995325475931 0 -57.117995325475931 0.75412610416060488 0 0 0 0 154.66414179328422 -35.645394735041918 0 -35.645394735041918 0.77222693355361116 0 0 0 0 105.68950323146419 -19.349193498455861 0 -19.349193498455861 5.1089922181417933 0 0 0 0 4.6073651236735742 1.1241170032523282 0 1.1241170032523282 -0.61196997711605405 0 0 0 0 9.9039543699400383 -1.3462444082929323 0 -1.3462444082929323 4.2155208716358175 0 0 0 0 116.0197346427085 -77.289790878076019 0 -77.289790878076019 26.256041628876119 0 0 0 0 170.71355683774618 -23.965014397575487 0 -23.965014397575487 -173.60564611329028 0 0 0 0 2.6165657966718641 -0.96150443611743341 0 -0.96150443611743341 -4.3985675629852778 0 0 0 0 410.65698029712803 -157.14429401229427 0 -157.14429401229427 -168.79743446113696 0 0 0 0 130.02193191403057 -150.08919182880709 0 -150.08919182880709 2.7694557710819936 0 0 0 0 134.74399344034737 -125.03761282112237 0 -125.03761282112237 37.605697611390497 0 0 0 0 106.278613043527 -114.59655554051642 0 -114.59655554051642 34.818073501619438 0 0 0 0 11.228142653519171 -198.15863827541398 0 -198.15863827541398 16.069045434209329 0 0 0 0 -133.93064119573319 -297.95847368856266 0 -297.95847368856266 56.733439294501295 0 0 0 0 2.1997125168612541 -2.5446945054734371 0 -2.5446945054734371 2.9015640556956583 0 0 0 0 186.66905685763413 -353.040618841369 0 -353.040618841369 66.131339740706608 0 0 0 0 -183.06531893116335 -49.872752320519794 0 -49.872752320519794 63.231761768194701 0 0 0 0 65.81351076125793 -96.950794363336172 0 -96.950794363336172 57.903141850223619 0 0 0 0 409.68327970244354 -236.58471221257923 0 -236.58471221257923 -89.43861914549052 0 0 0 0 -16.413076048107541 -25.367043697970985 0 -25.367043697970985 479.21044466137755 0 0 0 0 534.899685230248 141.96369022951535 0 141.96369022951535 29.707162161506858 0 0 0 0 99.489171552748303 -19.325521492701228 0 -19.325521492701228 14.098683271686241 0 0 0 0 138.10907023795698 59.18741250461062 0 59.18741250461062 12.220459038384433 0 0 0 0 226.49192669353943 -69.86953371265372 0 -69.86953371265372 -61.719493917018553 0 0 0 0 69.199047156609595 -97.780424256772676 0 -97.780424256772676 -57.300193281969769 0 0 0 0 91.114559443371945 -70.651678454017656 0 -70.651678454017656 -156.834508291362 0 0 0 0 -1.5897230881734714 -1.210014935510948 0 -1.210014935510948 -0.77506363012570034 0 0 0 0 28.022622123287874 -222.97915348141032 0 -222.97915348141032 -17.860464611569114 0 0 0 0 -0.1969123080598365 2.1703151700730814 0 2.1703151700730814 119.95969133189283 0 0 0 0 85.521028111201304 -80.126640848742682 0 -80.126640848742682 -177.29342549660942 0 0 0 0 2.0865791162768801 54.316719939942004 0 54.316719939942004 -61.126560932498251 0 0 0 0 34.760419357917272 -140.03465990986842 0 -140.03465990986842 -106.8092896315211 0 0 0 0 72.041939470631405 -0.067456033189955633 0 -0.067456033189955633 -34.946769337839214 0 0 0 0 60.00327621856195 -7.2107473204960115 0 -7.2107473204960115 3.7914009346109196 0 0 0 0 64.725983692209411 2.4582548194885021 0 2.4582548194885021 4.1628640175622422 0 0 0 0 8.4982861012607103 -13.070086904558551 0 -13.070086904558551 6.1169061641165285 0 0 0 0 9.8645816070347792 -19.197701363509623 0 -19.197701363509623 -75.619702939612807 0 0 0 0 11.501423733534466 -29.809617162814902 0 -29.809617162814902 -90.328204729228673 0 0 0 0 -9.5484694287707583 -14.67281299902127 0 -14.67281299902127 -5.8510260935576355 0 0 0 0 36.132749844080536 -58.86701844655181 0 -58.86701844655181 41.471951528325008 0 0 0 0 4.0243536396474155 -47.892931128101736 0 -47.892931128101736 27.541453414796706 0 0 0 0 15.35178211246452 -22.175542648505814 0 -22.175542648505814 -47.192810712124654 0 0 0 0 -15.638013051211601 -31.047105370089412 0 -31.047105370089412 -6.0502856430321117 0 0 0 0 0.042349739659286456 -12.135886758020948 0 -12.135886758020948 -7.7497372740873729 0 0 0 0 -2.0898709096285941 -0.91591122628340571 0 -0.91591122628340571 3.1687174617343743 0 0 0 0 9.4871994757340872 -39.250129253069645 0 -39.250129253069645 -12.876270069758903 0 0 0 0 -0.27938789884150594 -1.5275338018799971 0 -1.5275338018799971 -2.4917034213171547 0 0 0 0 11.569165260269074 -200.98271585061775 0 -200.98271585061775 98.910971994773718 0 0 0 0 83.855564454623163 -31.091316748389545 0 -31.091316748389545 69.714265425278427 0 0 0 0 156.54219071388798 -36.026576201336866 0 -36.026576201336866 -19.925678839703323 0 0 0 0 1.1992848147347104 -118.81614056041758 0 -118.81614056041758 37.127280344062456 0 0 0 0 -8.9490045442004202 -8.9612299234097836 0 -8.9612299234097836 -11.408833677060912 0 0 0 0 -6.6854045240170876 -8.3787015761011361 0 -8.3787015761011361 -8.1477283396751972 0 0 0 0 25.009747726613568 -3.507080750008754 0 -3.507080750008754 -40.472778356102936 0 0 0 0 40.693411036216276 -53.429740321761528 0 -53.429740321761528 37.060498648497742 0 0 0 0 46.016308940859744 -61.865403522118868 0 -61.865403522118868 27.727906283253105 0 0 0 0 46.097933555614873 -9.4122641618814669 0 -9.4122641618814669 -30.553617791922079 0 0 0 0 -16.942269767980179 -15.275113615352893 0 -15.275113615352893 50.054536086901862 0 0 0 0 -1.9108002684730252 -8.3067309158578375 0 -8.3067309158578375 -7.5436732209799118 0 0 0 0 -12.135543598331424 -6.403458968796258 0 -6.403458968796258 11.973935527094 0 0 0 0 6.9866681426865398 17.959683167584444 0 17.959683167584444 -1.0961121405925951 0 0 0 0 34.72196688330223 -29.067849762788683 0 -29.067849762788683 -8.4447938460079968 0 0 0 0 -138.4148355177058 -75.648475908591536 0 -75.648475908591536 64.218154856372621 0 0 0 0 -2.0120576024635568 -1.8037243950501143 0 -1.8037243950501143 -2.8743250420278912 0 0 0 0 -98.656523360801657 29.685684504767778 0 29.685684504767778 4.9585492810147116 0 0 0 0 37.184068010072224 -64.532012556108384 0 -64.532012556108384 31.252773020390123 0 0 0 0 53.838097022824513 -50.90336901145929 0 -50.90336901145929 38.668939094568486 0 0 0 0 -6.9832782427404254 -9.4345458801616431 0 -9.4345458801616431 -13.644290331913552 0 0 0 0 47.409386924478895 14.006249737485632 0 14.006249737485632 -106.67405067669824 0 0 0 0 -35.78889400389744 -81.4842749444324 0 -81.4842749444324 24.655589569840231 0 0 0 0 -0.75881244814335957 -0.48290691925789275 0 -0.48290691925789275 -0.010968278862058867 0 0 0 0 7.6607903749325033 -96.250324686066108 0 -96.250324686066108 178.66688671652446 0 0 0 0 -13.489921575201151 -43.73729555934915 0 -43.73729555934915 15.914662027651502 0 0 0 0 -11.262300646272706 -1.1309251528557525 0 -1.1309251528557525 66.960003982061608 0 0 0 0 -31.634561882437993 42.583227432341118 0 42.583227432341118 8.2098537675667558 0 0 0 0 -37.368238003728038 -30.17127616187463 0 -30.17127616187463 37.16544383209748 0 0 0 0 26.600822913548654 -124.04994193228606 0 -124.04994193228606 17.765668765792725 0 0 0 0 -51.16605664803501 19.04342356824236 0 19.04342356824236 8.5591538453522844 0 0 0 0 13.810343920460582 -74.879701407905486 0 -74.879701407905486 15.844293216458027 0 0 0 0 51.598283607749181 -4.3128372675237188 0 -4.3128372675237188 44.632010211324086 0 0 0 0 0.44946499393336126 -74.496267900851308 0 -74.496267900851308 25.968825226573244 0 0 0 0 -7.1462194646829147 -16.416429563939758 0 -16.416429563939758 -7.2627314064100403 0 0 0 0 44.254485590747208 -55.842752678907345 0 -55.842752678907345 39.063275429718487 0 0 0 0 15.634120724203925 -21.302185989979542 0 -21.302185989979542 -16.376339442510236 0 0 0 0 84.280515721588017 1.6923162875136768 0 1.6923162875136768 22.155016932882063 0 0 0 0 -5.0082708672213982 -10.869277997338102 0 -10.869277997338102 -3.5823792026834695 0 0 0 0 8.651155780994614 -14.964111631275427 0 -14.964111631275427 -5.1705352359490186 0 0 0 0 -13.259766916162334 -15.512200262533042 0 -15.512200262533042 89.458096940974883 0 0 0 0 411.94789726116869 -167.03314166347991 0 -167.03314166347991 -501.0320995031434 0 0 0 0 -32.003774747052375 3.9729507487663795 0 3.9729507487663795 46.817851585161634 0 0 0 0 -3.2635981383076142 -15.736471172925349 0 -15.736471172925349 -4.8960539391319031 0 0 0 0 -356.27328207139362 -265.02270249706089 0 -265.02270249706089 -12.809233657932054 0 0 0 0 61.088102933119444 -101.18649357324807 0 -101.18649357324807 140.09346662329881 0 0 0 0 2.6670312938797451 2.677216369363034 0 2.677216369363034 5.1051165139924741 0 0 0 0 0.5040848305954313 -2.0180785979331084 0 -2.0180785979331084 -1.4509869778001283 0 0 0 0 37.141642285841954 -54.532828724340106 0 -54.532828724340106 93.041265698790085 0 0 0 0 57.764985131347203 -67.930642539769906 0 -67.930642539769906 135.42141659000117 0 0 0 0 24.743775972096955 -79.918120193437971 0 -79.918120193437971 157.0315684898851 0 0 0 0 17.403515230482299 -27.979914980166541 0 -27.979914980166541 27.758542884928829 0 0 0 0 138.67477170855091 -228.53067459249246 0 -228.53067459249246 228.63452403693009 0 0 0 0 3.1820815171992223 1.4248487823867286 0 1.4248487823867286 -0.80201661722333029 0 0 0 0 -44.426446317189402 -87.527692605525317 0 -87.527692605525317 231.11647812853698 0 0 0 0 -10.913005631766282 -25.624403198918117 0 -25.624403198918117 106.06305398671248 0 0 0 0 24.893591221934912 -87.848516501150698 0 -87.848516501150698 128.8645071775336 0 0 0 0 48.297196025359881 -61.065734819167119 0 -61.065734819167119 38.198600116269517 0 0 0 0 23.949715750793985 -41.235273038109881 0 -41.235273038109881 -76.567015774013271 0 0 0 0 -37.161562407884048 -31.0237785604495 0 -31.0237785604495 30.095815995667181 0 0 0 0 -6.3569882592055365 -15.8170829042283 0 -15.8170829042283 -7.0321882252028445 0 0 0 0 -10.506996043241088 -9.0939837427686143 0 -9.0939837427686143 95.616728107517702 0 0 0 0 30.272744291632989 -86.917138119413721 0 -86.917138119413721 -95.824042138547156 0 0 0 0 -153.36227631661313 -121.95841486800964 0 -121.95841486800964 -78.156876041951364 0 0 0 0 112.5776040683204 -197.75197838573331 0 -197.75197838573331 -71.032707800302887 0 0 0 0 -120.99708024837309 -91.124682721259887 0 -91.124682721259887 170.87014807784089 0 0 0 0 -98.725147534018106 -150.53167479183139 0 -150.53167479183139 -7.6167425401526998 0 0 0 0 -109.47264552396518 -100.87438661886154 0 -100.87438661886154 41.527982168794551 0 0 0 0 -152.71852048457731 -72.214365535781326 0 -72.214365535781326 -89.870577377070731 0 0 0 0 -101.6094525173171 -308.83338031922665 0 -308.83338031922665 -195.93998531284524 0 0 0 0 14.89750278334801 -12.904833738173835 0 -12.904833738173835 10.371827238683338 0 0 0 0 45.479567427944858 -153.73063207191262 0 -153.73063207191262 -86.927596852407987 0 0 0 0 1.0328273455961607 -190.39113090112096 0 -190.39113090112096 -261.08561112039206 0 0 0 0 19.867170518676446 -19.069941827337153 0 -19.069941827337153 15.754743388887025 0 0 0 0 -81.180085950231842 -59.531407569605108 0 -59.531407569605108 42.478751798123994 0 0 0 0 -62.0784933752293 -82.806809292304479 0 -82.806809292304479 5.7666304484828288 0 0 0 0 -48.974416047743034 28.963550396126493 0 28.963550396126493 159.1045844700493 0 0 0 0 3.0265166514751414 -0.90187577701026811 0 -0.90187577701026811 -0.16276915388492341 0 0 0 0 62.614429494439719 -112.11214793751242 0 -112.11214793751242 -231.56399302651334 0 0 0 0 137.19517353949414 15.233120854340086 0 15.233120854340086 -27.652362254898435 0 0 0 0 -35.678033643979688 -32.097066741292338 0 -32.097066741292338 14.13982491159004 0 0 0 0 -5.8885239801098095 -9.5666229072965265 0 -9.5666229072965265 4.308941356481526 0 0 0 0 -46.424090069151134 -2.7089608822943774 0 -2.7089608822943774 79.130194008684157 0 0 0 0 -37.461060562175845 -41.948562744294854 0 -41.948562744294854 -22.596160857860827 0 0 0 0 -45.81602095512153 -89.201549701914246 0 -89.201549701914246 7.1364723618622747 0 0 0 0 -46.639127546068266 -84.862480798961116 0 -84.862480798961116 -15.711132752299136 0 0 0 0 -53.637010453341645 -67.798510311962218 0 -67.798510311962218 -5.8376657496610278 0 0 0 0 -54.342571112807491 -70.907138362825322 0 -70.907138362825322 21.000289724393724 0 0 0 0 102.21177122283189 -130.2449580081875 0 -130.2449580081875 -66.244570228843486 0 0 0 0 -14.333816879159713 -66.511119232744932 0 -66.511119232744932 17.810872366396325 0 0 0 0 -18.862054773053387 -47.304080138201243 0 -47.304080138201243 25.030920060806238 0 0 0 0 -59.228475666168379 -43.658841614040284 0 -43.658841614040284 74.066229874856617 0 0 0 0 -19.998806496200572 -32.00153555305981 0 -32.00153555305981 25.002451652424739 0 0 0 0 -5.4540737273673585 -14.488793987951794 0 -14.488793987951794 50.106786883487075 0 0 0 0 -52.568052277580136 -62.1136967090913 0 -62.1136967090913 -16.282226566428491 0 0 0 0 -54.341616163379513 -55.696198797103762 0 -55.696198797103762 -6.3849104638088647 0 0 0 0 -25.691051370907573 -31.445251639496011 0 -31.445251639496011 40.616737191870349 0 0 0 0 -18.601435424689605 -11.29054326951179 0 -11.29054326951179 22.982309615182558 0 0 0 0 -10.743528430451988 -15.773916120437207 0 -15.773916120437207 54.643419660533255 0 0 0 0 -73.08920202760055 -40.213791416819731 0 -40.213791416819731 52.50284124621794 0 0 0 0 -51.064631790133717 -75.315308853116221 0 -75.315308853116221 6.4177436640511587 0 0 0 0 -78.66532249712327 -100.1175843894971 0 -100.1175843894971 11.676974293226522 0 0 0 0 -21.50871917517361 -101.20457892696686 0 -101.20457892696686 -49.785839408843458 0 0 0 0 -30.976463525781583 -112.01897388343241 0 -112.01897388343241 -51.460072629117349 0 0 0 0 -162.71138593972137 -116.05776880355188 0 -116.05776880355188 50.082421287850593 0 0 0 0 -56.83468865209943 -164.79572542071855 0 -164.79572542071855 -159.13677122992885 0 0 0 0 4.1065477701413329 -54.755440276636364 0 -54.755440276636364 -259.01203699146026 0 0 0 0 -82.515913484613066 -156.34044935265661 0 -156.34044935265661 -152.78332964293077 0 0 0 0 6.0932840004970785 -82.497014647913602 0 -82.497014647913602 -141.98917837977569 0 0 0 0 -89.870751148846466 -206.6018429636697 0 -206.6018429636697 -254.17344051586224 0 0 0 0 -444.28233225278382 -105.82481699986965 0 -105.82481699986965 -3.2742308636779853 0 0 0 0 5.4755047662710368 -3.4421175018226933 0 -3.4421175018226933 0.6568004617133667 0 0 0 0 -240.9822456586553 -10.371954134265252 0 -10.371954134265252 16.782202737449552 0 0 0 0 -9.3755434274511913 -2.1966302270589537 0 -2.1966302270589537 8.1250999391359358 0 0 0 0 -203.63528645967017 -203.37345262774397 0 -203.37345262774397 -99.7036679014127 0 0 0 0 -386.65600857976824 -291.77701744552542 0 -291.77701744552542 -113.62151421792714 0 0 0 0 -224.80032877137273 -7.2919573896961083 0 -7.2919573896961083 -267.92008279998481 0 0 0 0 -102.37101349251316 -261.94286389188892 0 -261.94286389188892 -445.79183379463211 0 0 0 0 -88.290113719841429 -212.07488914465466 0 -212.07488914465466 -438.4055460043819 0 0 0 0 -114.14033807385931 -106.21857733289016 0 -106.21857733289016 -75.404093901415763 0 0 0 0 26.153129034944868 -23.242685548887493 0 -23.242685548887493 -161.02381535845416 0 0 0 0 -128.16812556852528 -109.95856661280777 0 -109.95856661280777 -169.19979130442152 0 0 0 0 -22.794367697591952 -48.856534972166628 0 -48.856534972166628 -162.6235661649996 0 0 0 0 -49.310834277497634 -55.840444675518484 0 -55.840444675518484 -71.458194126713352 0 0 0 0 24.731690958367835 -41.471283477900215 0 -41.471283477900215 -80.666079911744418 0 0 0 0 53.818506278512359 -37.983925591961452 0 -37.983925591961452 -83.629935561833918 0 0 0 0 56.646818221364811 -64.010825226099769 0 -64.010825226099769 -132.43152978696162 0 0 0 0 58.441668320578174 -41.871485466661397 0 -41.871485466661397 -93.128071373888815 0 0 0 0 76.062869476147171 -54.735276368437553 0 -54.735276368437553 -83.742802382435912 0 0 0 0 83.848407627603592 -30.4248266069701 0 -30.4248266069701 -98.918287622869684 0 0 0 0 57.250926568776777 -31.285410308220889 0 -31.285410308220889 -95.73536112130023 0 0 0 0 68.275211006475729 -40.90593183508463 0 -40.90593183508463 -97.394122258279822 0 0 0 0 30.764358436641487 -65.924907982223885 0 -65.924907982223885 -79.467399828232374 0 0 0 0 35.249805929001013 -56.188347130633701 0 -56.188347130633701 -128.48966972753624 0 0 0 0 15.26231451152853 -109.13717641778203 0 -109.13717641778203 -132.96741415498423 0 0 0 0 -17.140995985722839 -88.240674665120423 0 -88.240674665120423 -18.936429577574017 0 0 0 0 33.843166877635667 -74.106331292022332 0 -74.106331292022332 -69.683661690378358 0 0 0 0 34.451383586736483 -42.699437466483687 0 -42.699437466483687 -36.484497734723845 0 0 0 0 1.8196363622737408 -71.603907792959944 0 -71.603907792959944 -10.837443694774265 0 0 0 0 -7.0221403529959048 -25.591968645831237 0 -25.591968645831237 -28.222960048805295 0 0 0 0 -19.662736426416245 -78.329046073489437 0 -78.329046073489437 -18.014692220396682 0 0 0 0 -2.0102640685618098 -59.037586829952488 0 -59.037586829952488 3.0322724463276245 0 0 0 0 -0.11404010629485128 -29.480413105819025 0 -29.480413105819025 -16.418435492992103 0 0 0 0 13.809573267316864 -31.399289540327402 0 -31.399289540327402 -31.506143457907456 0 0 0 0 -6.7649829404228541 -18.223886339279005 0 -18.223886339279005 -32.671289294230021 0 0 0 0 34.970757761966524 -42.41324648158502 0 -42.41324648158502 -49.582070531731006 0 0 0 0 -8.7570630981821012 -20.910123890872924 0 -20.910123890872924 -20.720156446705303 0 0 0 0 14.138957294358988 -36.211589792820632 0 -36.211589792820632 -9.642344598294585 0 0 0 0 18.899393134830461 -43.912374900296982 0 -43.912374900296982 -10.612328625443297 0 0 0 0 2.2982561952916143 -16.583517512873986 0 -16.583517512873986 -33.595599100427648 0 0 0 0 41.722710677458963 -41.915128870978151 0 -41.915128870978151 -8.4911006482525409 0 0 0 0 12.452390816197294 10.697870930693057 0 10.697870930693057 -85.733125047645444 0 0 0 0 15.358736791611591 -12.216349233471192 0 -12.216349233471192 -62.661219163928763 0 0 0 0 64.728750002155721 -16.862224141108527 0 -16.862224141108527 -85.014851240455755 0 0 0 0 103.21393993072707 -53.558955109703675 0 -53.558955109703675 -78.077310666360063 0 0 0 0 21.343675994947262 -1.4240911946444612 0 -1.4240911946444612 -89.108996907825713 0 0 0 0 20.102215611057545 -5.0236454374007735 0 -5.0236454374007735 -86.534951753663336 0 0 0 0 121.13306306206505 -8.9315991769171887 0 -8.9315991769171887 -62.535101498595395 0 0 0 0 83.042448354508451 97.418769789792577 0 97.418769789792577 -122.77319598292524 0 0 0 0 87.230436256984831 -80.459276036260235 0 -80.459276036260235 21.977710771840066 0 0 0 0 160.6699769158713 -75.008446341240415 0 -75.008446341240415 -73.51665862979462 0 0 0 0 93.023669418736972 -4.8466405927065352 0 -4.8466405927065352 -118.3538211130417 0 0 0 0 70.829502918109938 -47.277203991985516 0 -47.277203991985516 -23.025708337478136 0 0 0 0 73.001730589545332 -35.853568453117987 0 -35.853568453117987 -70.868820399547076 0 0 0 0 53.41838181388448 -56.714451873092003 0 -56.714451873092003 -22.073369432557229 0 0 0 0 26.314868258872593 -29.379399967469908 0 -29.379399967469908 8.7661776192808247 0 0 0 0 36.80255602527177 -54.884773974186828 0 -54.884773974186828 12.362286135949034 0 0 0 0 -2.6316433161446184 -66.335075252965453 0 -66.335075252965453 141.06944603112788 0 0 0 0 10.162107954871317 -59.45030333453542 0 -59.45030333453542 91.377709719597988 0 0 0 0 39.175599864458491 -86.518373043805695 0 -86.518373043805695 65.892209758761965 0 0 0 0 93.80973564296437 -79.879762239868796 0 -79.879762239868796 -17.183589626518369 0 0 0 0 18.179486354078108 -74.879619874592208 0 -74.879619874592208 120.28915200760639 0 0 0 0 44.888505661501767 -100.62861397102188 0 -100.62861397102188 96.588727587459289 0 0 0 0 -4.8227285754583136 -92.772704321335368 0 -92.772704321335368 137.79626064084323 0 0 0 0 13.529083180346788 -154.07175382857145 0 -154.07175382857145 293.6838367440505 0 0 0 0 25.777000247206161 -81.073563255805766 0 -81.073563255805766 135.56796516050599 0 0 0 0 -5.2652254004465249 -73.928346204452851 0 -73.928346204452851 174.97480832085057 0 0 0 0 -4.0553862005835981 -67.047789151500183 0 -67.047789151500183 143.94033484359898 0 0 0 0 25.410620374845166 -68.722621469025398 0 -68.722621469025398 139.28819452734388 0 0 0 0 23.534525481925812 -32.29702008867207 0 -32.29702008867207 47.535049077683652 0 0 0 0 15.071207372162462 -8.4225896505558921 0 -8.4225896505558921 25.830515626705164 0 0 0 0 5.2391193073926843 -16.385606557845676 0 -16.385606557845676 152.49149979786034 0 0 0 0 3.0425533570719807 -3.8126246895039984 0 -3.8126246895039984 5.8410435808110819 0 0 0 0 -20.151594491275318 21.529009452217906 0 21.529009452217906 177.70816140413626 0 0 0 0 -10.306386771211692 -62.567454974618158 0 -62.567454974618158 421.89602693373854 0 0 0 0 591.63030743459967 -112.56654612524653 0 -112.56654612524653 -69.97454587872835 0 0 0 0 560.73199920235675 45.481136965304358 0 45.481136965304358 -120.10835816145664 0 0 0 0 -24.975420909111563 202.50994052150554 0 202.50994052150554 547.0019033828994 0 0 0 0 324.26290042894288 -356.51529422987778 0 -356.51529422987778 276.03806779214392 0 0 0 0 156.5368208958389 -147.45749448775587 0 -147.45749448775587 34.962827902200161 0 0 0 0 -11.763986404926783 -11.418160757225827 0 -11.418160757225827 -2.2724448602312464 0 0 0 0 -13.277176675772353 -10.335925110225162 0 -10.335925110225162 0.8534892755369583 0 0 0 0 -17.465991535354988 -10.615257323774131 0 -10.615257323774131 4.058676587035734 0 0 0 0 -16.535447001777356 -7.4764261697309848 0 -7.4764261697309848 -1.6217042004245741 0 0 0 0 -148.67465849759901 -50.160680781161318 0 -50.160680781161318 60.881163066324916 0 0 0 0 -641.57188802365999 119.79042782281977 0 119.79042782281977 161.84738613294394 0 0 0 0 -281.584366723313 144.54077198417508 0 144.54077198417508 134.56842074336055 0 0 0 0 -278.47529095393111 220.49953155861658 0 220.49953155861658 -78.30981934308511 0 0 0 0 17.625464084463601 -364.65504784348741 0 -364.65504784348741 286.83955942020839 0 0 0 0 -124.28795144671312 -76.463142351741226 0 -76.463142351741226 11.686501302194301 0 0 0 0 -22.693636737481938 -12.058846994867281 0 -12.058846994867281 -3.2727382401772047 0 0 0 0 -435.19143750666444 -96.327651634235053 0 -96.327651634235053 188.76122352433413 0 0 0 0 -4.2160662490583753 -11.550662195401088 0 -11.550662195401088 1.7301835650653317 0 0 0 0 -5.4460702308750228 -0.39202556429424362 0 -0.39202556429424362 3.9940877338107086 0 0 0 0 -28.275506182832032 -20.436597243941605 0 -20.436597243941605 -5.8172884352388792 0 0 0 0 -23.119033841474447 -10.47604566364862 0 -10.47604566364862 -4.4692359269046271 0 0 0 0 -22.429236122668499 -26.572091735644179 0 -26.572091735644179 -19.204899329237378 0 0 0 0 -13.053026552490337 -15.402761084502345 0 -15.402761084502345 -12.226943413053959 0 0 0 0 -22.243020081416034 -15.641272551051316 0 -15.641272551051316 1.9043353935903724 0 0 0 0 -16.814415898756721 -12.788401191843892 0 -12.788401191843892 -4.6266183891772226 0 0 0 0 -20.366152929149393 -8.7318510588293066 0 -8.7318510588293066 2.8721077817426703 0 0 0 0 -16.109067726138164 -14.824525376832753 0 -14.824525376832753 -3.9230293833716132 0 0 0 0 -4.6481618142340295 -3.2260926527628726 0 -3.2260926527628726 3.9741684850606944 0 0 0 0 -20.064847572801227 -13.139804525274485 0 -13.139804525274485 -3.418106008884024 0 0 0 0 -18.140786743922575 -4.4014762804909218 0 -4.4014762804909218 4.6206992489994834 0 0 0 0 -18.207629629243456 -15.610544283236777 0 -15.610544283236777 3.6551933059569137 0 0 0 0 -20.432812008082692 -19.942610499758302 0 -19.942610499758302 15.034638152088519 0 0 0 0 -20.401032500101337 -20.015348382839861 0 -20.015348382839861 -4.5612936829593309 0 0 0 0 -18.309377132041845 -16.34987643079694 0 -16.34987643079694 6.5272925115195903 0 0 0 0 -24.677752758605493 -30.0760430041787 0 -30.0760430041787 32.679932704659223 0 0 0 0 -24.471026493822137 -34.136202677331767 0 -34.136202677331767 7.9630369354063077 0 0 0 0 -20.401959875744069 -37.360910661039043 0 -37.360910661039043 9.4648492600690588 0 0 0 0 -18.199822395712545 -37.146052829159544 0 -37.146052829159544 -2.4280185866128363 0 0 0 0 -16.231710923082574 -34.756381896130279 0 -34.756381896130279 -14.592712923786166 0 0 0 0 -19.817246437596623 -22.931595254033482 0 -22.931595254033482 -11.030909512308426 0 0 0 0 -12.789090132515412 -29.455746501927024 0 -29.455746501927024 -19.612867956829632 0 0 0 0 -18.076939981263422 -22.748654862985859 0 -22.748654862985859 -14.766861254272953 0 0 0 0 -17.008030461505314 -9.9332412527446152 0 -9.9332412527446152 -3.6636693068956454 0 0 0 0 -265.63405261494336 193.74796612246973 0 193.74796612246973 -54.203319013433429 0 0 0 0 5.9704855096279061 259.0345310208304 0 259.0345310208304 -66.172369090880238 0 0 0 0 -125.59615220464912 96.543671728533809 0 96.543671728533809 -181.46676265638416 0 0 0 0 -444.05130980984541 -38.971815126650654 0 -38.971815126650654 -9.2329694833242684 0 0 0 0 -68.200471196447324 -8.4792891406004856 0 -8.4792891406004856 -89.201677157989252 0 0 0 0 -7.8260544784941217 -22.099615027843704 0 -22.099615027843704 -27.072843625533764 0 0 0 0 -8.3185064589807212 -26.161769103343303 0 -26.161769103343303 -38.201085762840435 0 0 0 0 -79.382766384012939 47.881629788990722 0 47.881629788990722 -67.812600176268916 0 0 0 0 8.7748894002570523 -64.008940435054342 0 -64.008940435054342 -65.293591897992883 0 0 0 0 4.7934712950018366 -26.897708920721271 0 -26.897708920721271 -29.10573074929016 0 0 0 0 -40.597245842189295 -49.377520124431157 0 -49.377520124431157 -8.2940097464343125 0 0 0 0 17.559832384603268 -0.90125614949445776 0 -0.90125614949445776 -14.364513406702917 0 0 0 0 -3.1657688211889763 -50.464823948144044 0 -50.464823948144044 -12.503396210553547 0 0 0 0 -2.200884374899033 -46.352574697038563 0 -46.352574697038563 -57.154295563331289 0 0 0 0 -12.436565430194605 -83.249865949148898 0 -83.249865949148898 -41.397563138820715 0 0 0 0 -7.2783644386872766 -74.536574633946202 0 -74.536574633946202 -10.293235641066531 0 0 0 0 -5.302894348053087 -74.588778253898909 0 -74.588778253898909 -14.025920414954726 0 0 0 0 1.2241974388307426 -65.903579173485014 0 -65.903579173485014 -26.203646591456163 0 0 0 0 22.423946120572509 -56.093962066679069 0 -56.093962066679069 -14.928364456813142 0 0 0 0 8.2037625274533639 -80.828122365893591 0 -80.828122365893591 -22.330953911183769 0 0 0 0 -7.3332121730491053 -78.549729238359305 0 -78.549729238359305 -16.49549863461209 0 0 0 0 28.527439547706308 -53.340141755055811 0 -53.340141755055811 -18.729549777724515 0 0 0 0 -11.688537498146431 -23.546436368774252 0 -23.546436368774252 -11.190320020503403 0 0 0 0 -4.0799672766734147 -67.108145248227856 0 -67.108145248227856 -19.238436927875682 0 0 0 0 17.892817120664404 -40.77178546357618 0 -40.77178546357618 -16.715861254810306 0 0 0 0 16.6311191016066 -54.257031617113626 0 -54.257031617113626 -11.180411349764654 0 0 0 0 34.367623573758465 -46.350628274909582 0 -46.350628274909582 -11.116121061133168 0 0 0 0 39.879561497699797 -70.625505131953872 0 -70.625505131953872 -20.029896270135851 0 0 0 0 81.866125860164175 -99.250065795467606 0 -99.250065795467606 -37.07243966896462 0 0 0 0 56.497442126783426 -61.202418090511387 0 -61.202418090511387 -46.137829019621449 0 0 0 0 56.366082554739478 -43.571931675824601 0 -43.571931675824601 -34.149913326799265 0 0 0 0 85.295790448042681 -35.201179688964075 0 -35.201179688964075 -32.305390995804046 0 0 0 0 -14.270337317018857 -129.95686576172392 0 -129.95686576172392 -46.276594527985068 0 0 0 0 -87.205892769903585 -94.368883550843321 0 -94.368883550843321 -6.2540106817903611 0 0 0 0 6.3408916048138053 -91.355159185838318 0 -91.355159185838318 -25.90918723907464 0 0 0 0 -22.231292168180516 -89.944487885256649 0 -89.944487885256649 -6.4693038472596527 0 0 0 0 -23.192932991099951 -86.013553254992303 0 -86.013553254992303 -0.13732447501843126 0 0 0 0 8.9042185672587948 -94.999133379732484 0 -94.999133379732484 -27.961370272862609 0 0 0 0 -31.945309754544724 -94.813966140989123 0 -94.813966140989123 -6.2928594492462935 0 0 0 0 -57.519430984728388 -89.001993800103833 0 -89.001993800103833 9.6213947537188602 0 0 0 0 -32.921095254270767 -82.838238783941961 0 -82.838238783941961 10.228699803098152 0 0 0 0 -31.266184047861316 -79.607022676736051 0 -79.607022676736051 16.016259563773019 0 0 0 0 -27.409318395915761 -84.976345886785225 0 -84.976345886785225 -0.22286005563910294 0 0 0 0 -28.745666329137748 -72.626607672969385 0 -72.626607672969385 13.631722474660592 0 0 0 0 -5.5886829399496492 -84.337666886725515 0 -84.337666886725515 -5.4951680102826685 0 0 0 0 -18.966764658282045 -77.836888582898609 0 -77.836888582898609 5.250949688017954 0 0 0 0 -17.808317988266936 -77.17839396089721 0 -77.17839396089721 -9.6735830139896279 0 0 0 0 -14.284649071734748 -58.318887801911387 0 -58.318887801911387 -17.385400058183222 0 0 0 0 -24.555248310833122 -68.745881888889471 0 -68.745881888889471 -0.43666850824138237 0 0 0 0 -15.276819471520867 -59.804190071891185 0 -59.804190071891185 7.3106723641376448 0 0 0 0 -23.044256919427426 -54.410164404322586 0 -54.410164404322586 3.5806851400891446 0 0 0 0 -30.228608902412816 -54.986856599550492 0 -54.986856599550492 33.834912927754885 0 0 0 0 -34.777674383592966 -69.806560406906556 0 -69.806560406906556 34.449705012585582 0 0 0 0 -26.224751920060953 -68.304205605266361 0 -68.304205605266361 20.481947414294154 0 0 0 0 -24.218716441384458 -55.322395896119815 0 -55.322395896119815 17.259405041654645 0 0 0 0 -22.204713237551914 -53.966288489625185 0 -53.966288489625185 58.717868868213827 0 0 0 0 -30.727710579685663 -48.842399815025459 0 -48.842399815025459 55.984815334332779 0 0 0 0 -32.261396130357753 -72.122083266046047 0 -72.122083266046047 48.519131538559918 0 0 0 0 -29.524329202809895 -55.253076197300288 0 -55.253076197300288 32.345565335112951 0 0 0 0 16.242999578709714 -102.13223807935674 0 -102.13223807935674 175.66119923152019 0 0 0 0 -17.496640685385501 -43.660418699083039 0 -43.660418699083039 75.054323183311453 0 0 0 0 1.4195477801258676 -85.641684827296558 0 -85.641684827296558 65.912162255510282 0 0 0 0 51.304553066373046 -31.067715535883849 0 -31.067715535883849 0.059650733484431839 0 0 0 0 -13.403772597957868 -61.073921365994011 0 -61.073921365994011 25.258113115019569 0 0 0 0 -4.6046843281219481 -45.22689608287294 0 -45.22689608287294 4.9898342427723037 0 0 0 0 -36.901727687494713 -63.162620869579996 0 -63.162620869579996 25.072767206907031 0 0 0 0 -25.536528704069497 -15.894172484566297 0 -15.894172484566297 2.5809486559337529 0 0 0 0 -29.1479705292586 -69.292032015640416 0 -69.292032015640416 24.786699007909192 0 0 0 0 -29.671134964970406 -68.994582393300334 0 -68.994582393300334 11.322678089154579 0 0 0 0 -44.941114624336478 -73.864573654059313 0 -73.864573654059313 25.458227217773583 0 0 0 0 -60.25675276022821 -62.494081231623525 0 -62.494081231623525 9.94599912829608 0 0 0 0 -45.767356194119202 -60.890389069604225 0 -60.890389069604225 -4.2959258118507933 0 0 0 0 -37.366160892852349 -15.834232491224896 0 -15.834232491224896 -1.4904797574556596 0 0 0 0 -64.511612327944022 -42.754034810108237 0 -42.754034810108237 5.488542835222475 0 0 0 0 -77.052184689295245 -28.496970420411742 0 -28.496970420411742 -4.8347396878471045 0 0 0 0 -64.959508207288309 -29.411445913720076 0 -29.411445913720076 -30.449533409682005 0 0 0 0 -96.883077567043074 -57.69828642288833 0 -57.69828642288833 -4.4948605592455975 0 0 0 0 -67.298112581334863 -76.62553692981902 0 -76.62553692981902 -28.960151515988031 0 0 0 0 -0.012954177109349985 -29.685919558401594 0 -29.685919558401594 -2.0695274703844007 0 0 0 0 0.39811194453092291 -2.240970318272332 0 -2.240970318272332 0.2572466337592092 0 0 0 0 -62.848491392083815 -25.254081060184234 0 -25.254081060184234 -22.896244272776528 0 0 0 0 27.918726322022849 -31.58780475529295 0 -31.58780475529295 -13.08250792318222 0 0 0 0 -32.240790197480237 -20.170736908271692 0 -20.170736908271692 2.1621186371778549 0 0 0 0 0.35394996164201231 -2.3539052031860308 0 -2.3539052031860308 1.1870939887420331 0 0 0 0 -14.945280619453115 -28.364394460155609 0 -28.364394460155609 -15.976073145251462 0 0 0 0 14.803638261630113 -23.793966396416408 0 -23.793966396416408 -15.289078602021618 0 0 0 0 0.043701893922843738 -31.16965277719919 0 -31.16965277719919 -36.400161852101064 0 0 0 0 28.693020770981093 37.73559862734146 0 37.73559862734146 -137.07693454455239 0 0 0 0 -68.959164826141205 -79.999934763931378 0 -79.999934763931378 -28.276958540074702 0 0 0 0 -224.42980123165762 -49.508814654797106 0 -49.508814654797106 318.59201518867394 0 0 0 0 108.08242939441698 -77.300385136175009 0 -77.300385136175009 35.23686220309537 0 0 0 0 0.20242284024895163 -1.5340372228864823 0 -1.5340372228864823 0.77375531089874983 0 0 0 0 -5.916091928134847 44.766188805369893 0 44.766188805369893 153.11066711948388 0 0 0 0 1.689795872560353 -63.531946751386386 0 -63.531946751386386 201.70921475005457 0 0 0 0 53.147672182913084 -33.66944453189808 0 -33.66944453189808 1.9267879873241327 0 0 0 0 -0.047404516946699005 -34.343678151986069 0 -34.343678151986069 111.44598486719133 0 0 0 0 -5.2195850486386917 1.3278033059295922 0 1.3278033059295922 3.5568705801269971 0 0 0 0 0.26340659660209553 -3.8320294720899 0 -3.8320294720899 4.0639712704314874 0 0 0 0 -8.8444428237926331 -1.9913207305608012 0 -1.9913207305608012 1.5433606403012163 0 0 0 0 -42.686688714085903 -43.174146791736803 0 -43.174146791736803 -7.2130021257808039 0 0 0 0 18.958356226838077 -22.768223272174509 0 -22.768223272174509 -78.562926421170687 0 0 0 0 5.4493685066554463 65.896323436668808 0 65.896323436668808 -4.7710616985073102 0 0 0 0 0.38780644995778246 -1.2452395801687572 0 -1.2452395801687572 1.7791398317678144 0 0 0 0 53.291339540392073 -65.018552455603185 0 -65.018552455603185 74.139774955091525 0 0 0 0 -104.34017832973404 -40.573507323857143 0 -40.573507323857143 134.72901061917219 0 0 0 0 -24.522551231701073 62.399151985433946 0 62.399151985433946 166.42150836080418 0 0 0 0 -3.8244273576347041 -2.5437329075562047 0 -2.5437329075562047 26.722362731171415 0 0 0 0 -4.8092414534912677 -4.8594606637261677 0 -4.8594606637261677 37.123372432709402 0 0 0 0 -25.566240230014955 -26.564298100875931 0 -26.564298100875931 24.746957624723109 0 0 0 0 -22.646439648407977 -12.157846326099843 0 -12.157846326099843 79.507374545880339 0 0 0 0 -6.9233632145369484 -16.595700365266111 0 -16.595700365266111 3.778867977873233 0 0 0 0 -17.165584818088973 -10.163501444220856 0 -10.163501444220856 27.269579484871713 0 0 0 0 14.402201325385249 10.317489188399122 0 10.317489188399122 23.443082816466813 0 0 0 0 -1.4216440510572284 -3.8154364411930146 0 -3.8154364411930146 26.750466066204481 0 0 0 0 2.7410315694796736 -13.666869582165646 0 -13.666869582165646 -15.803610009299518 0 0 0 0 -16.4763127501501 -32.305412291239008 0 -32.305412291239008 -0.94905590121879868 0 0 0 0 -6.0435590025408601 -16.529690100576545 0 -16.529690100576545 3.6355860452649722 0 0 0 0 -11.269356017917744 -17.941527043138194 0 -17.941527043138194 15.686627084212887 0 0 0 0 2.2503609380102887 -2.5794439228102846 0 -2.5794439228102846 -7.7131610828008483 0 0 0 0 -11.797805390439436 -12.068412690554645 0 -12.068412690554645 -2.9974897035083217 0 0 0 0 -15.097570965583145 -19.472590468117232 0 -19.472590468117232 -13.355391664934814 0 0 0 0 2.4973963490811002 -72.746793731446814 0 -72.746793731446814 -40.983001940618124 0 0 0 0 -33.766290490799292 23.832485717532109 0 23.832485717532109 -93.623734140659508 0 0 0 0 3.9767378165553282 -4.7416068132469178 0 -4.7416068132469178 -1.9430972713396812 0 0 0 0 1.0673265689634945 -1.5314059377535898 0 -1.5314059377535898 -13.722538908994807 0 0 0 0 2.7560798286140198 -38.671831542228574 0 -38.671831542228574 -151.16373208166056 0 0 0 0 -110.10747245718085 -144.98606473831933 0 -144.98606473831933 -110.36091577574371 0 0 0 0 0.032995140586437016 -105.34187183064623 0 -105.34187183064623 -251.21434165557002 0 0 0 0 -71.612219360031304 -110.79297323344736 0 -110.79297323344736 -217.09616090041891 0 0 0 0 0.069788366196007701 0.47137451589696866 0 0.47137451589696866 -1.5189483590656891 0 0 0 0 -2.8652986426604912 -1.9466422131608851 0 -1.9466422131608851 -2.5874764119753308 0 0 0 0 -0.78848491412944099 0.84292938373958215 0 0.84292938373958215 -0.54521942938557011 0 0 0 0 46.015242175250023 -20.548725705895777 0 -20.548725705895777 -19.091484359491005 0 0 0 0 -15.547864432090137 -7.2679417871730152 0 -7.2679417871730152 4.8095485315025144 0 0 0 0 0.23717224993285413 -11.264615819630105 0 -11.264615819630105 -8.1680879585547022 0 0 0 0 1.9674666463033645 -14.61133299562789 0 -14.61133299562789 -25.355723512824625 0 0 0 0 96.639785634354666 -43.58224875173255 0 -43.58224875173255 -29.797772655576409 0 0 0 0 39.162691176228918 -22.866493759029254 0 -22.866493759029254 -27.502625294486279 0 0 0 0 81.816431628491273 -59.686132410023674 0 -59.686132410023674 -21.965834082453512 0 0 0 0 127.66871077647284 -76.347260286222081 0 -76.347260286222081 -30.13239774912654 0 0 0 0 136.67596857982835 -23.471131932348726 0 -23.471131932348726 -49.003609117342421 0 0 0 0 17.687397342109989 -4.5939171158661338 0 -4.5939171158661338 -11.181599662944791 0 0 0 0 5.0244234907161172 14.171939984033088 0 14.171939984033088 -4.9859579785534152 0 0 0 0 45.748843830699229 8.9241752908292256 0 8.9241752908292256 -7.3965722938792169 0 0 0 0 0.76504266298468337 -1.7656238508661772 0 -1.7656238508661772 -11.648533271032647 0 0 0 0 1.0001829935431941 -1.4911469068033973 0 -1.4911469068033973 -4.4436013233844776 0 0 0 0 9.8991024670038357 -24.402295877551296 0 -24.402295877551296 18.152837126937676 0 0 0 0 17.265392306381671 -52.024160774595657 0 -52.024160774595657 -29.702536037895698 0 0 0 0 88.087927193768877 17.335727700083225 0 17.335727700083225 -101.17497772860588 0 0 0 0 17.402180565348626 -24.290424117966822 0 -24.290424117966822 4.6633346844498949 0 0 0 0 99.851451362872467 -46.100750485078606 0 -46.100750485078606 -216.40903831022661 0 0 0 0 7.608869261586733 -152.86586530864952 0 -152.86586530864952 92.618540748548185 0 0 0 0 65.44905770470541 -159.84684182367346 0 -159.84684182367346 52.574372763021529 0 0 0 0 29.176511861946892 -129.69924412611545 0 -129.69924412611545 54.460060489429452 0 0 0 0 74.292069000352967 -83.480108310384821 0 -83.480108310384821 53.32999777328223 0 0 0 0 -14.967140738477383 -97.565081741403446 0 -97.565081741403446 61.756870050070575 0 0 0 0 42.280652071513941 -31.142103070656958 0 -31.142103070656958 -216.75805871386183 0 0 0 0 0.79697076413770063 -1.5973192603788249 0 -1.5973192603788249 1.2298081067659936 0 0 0 0 145.75604665822539 -150.48030485880372 0 -150.48030485880372 53.390485359614104 0 0 0 0 -73.176700109417652 -178.12640974354144 0 -178.12640974354144 76.786095151193877 0 0 0 0 -54.511733565299892 112.22346654077228 0 112.22346654077228 214.71977522072848 0 0 0 0 -8.6027714239962734 -247.43332917006046 0 -247.43332917006046 -143.31723063580284 0 0 0 0 -192.39475554332421 -266.65173702772881 0 -266.65173702772881 12.768728886061581 0 0 0 0 93.466457173646631 -146.98772182344692 0 -146.98772182344692 -46.582491728179775 0 0 0 0 66.707390350849892 -189.006721579226 0 -189.006721579226 -34.095461445453111 0 0 0 0 56.490779666562503 -117.78740267751527 0 -117.78740267751527 -7.3794675384197035 0 0 0 0 92.14317192958606 -138.11176199013426 0 -138.11176199013426 -22.361476782103637 0 0 0 0 131.46172020085851 -73.870835923524282 0 -73.870835923524282 -35.253431471592194 0 0 0 0 116.48571571002049 -107.41038233592371 0 -107.41038233592371 -76.935221115581953 0 0 0 0 121.8684670635007 -36.334537794268726 0 -36.334537794268726 19.943368140280654 0 0 0 0 143.40814435264156 -45.526211384438284 0 -45.526211384438284 -42.698501357726855 0 0 0 0 -5.4519220160648132 -4.4515276400298589 0 -4.4515276400298589 -3.8988105150484245 0 0 0 0 125.80267490885444 -101.85435355765003 0 -101.85435355765003 -139.86635208948493 0 0 0 0 -340.62624798990782 266.02840519243364 0 266.02840519243364 57.620264787896303 0 0 0 0 -70.113389801135781 79.139160560531309 0 79.139160560531309 -83.480702884123275 0 0 0 0 -99.938545728540703 -64.872659146142723 0 -64.872659146142723 31.997043822508203 0 0 0 0 -82.032781374912702 19.417583126491991 0 19.417583126491991 6.0794423788538552 0 0 0 0 259.18045728587049 -77.56888522326517 0 -77.56888522326517 -42.534192822477053 0 0 0 0 -16.338628442474246 -13.883475395626638 0 -13.883475395626638 -10.862229197029848 0 0 0 0 279.39583342227297 -244.70641416509716 0 -244.70641416509716 60.946062213181335 0 0 0 0 161.33550587922957 -53.249205918737061 0 -53.249205918737061 -24.068910247129679 0 0 0 0 123.0174547089166 -82.726899476623657 0 -82.726899476623657 76.618138458965404 0 0 0 0 109.30144424796654 23.519558201090149 0 23.519558201090149 -67.905300461188745 0 0 0 0 33.755139792221485 87.432639019330963 0 87.432639019330963 -119.41244256288155 0 0 0 0 15.634812330596105 -289.02119489009783 0 -289.02119489009783 18.830863896781011 0 0 0 0 253.93261781605395 -150.06235269950776 0 -150.06235269950776 -221.57667782748103 0 0 0 0 -111.56540960996085 -230.32631285059142 0 -230.32631285059142 -282.03237129372064 0 0 0 0 -9.4954574428832075 -59.905709955131897 0 -59.905709955131897 -120.96139265289639 0 0 0 0 -2.1356862762512701 -2.8825112125638022 0 -2.8825112125638022 -4.6443269067170192 0 0 0 0 -369.49058940576288 60.10106931272594 0 60.10106931272594 -81.886479191358376 0 0 0 0 -221.24326100282133 -322.91908792355753 0 -322.91908792355753 -275.18023401672338 0 0 0 0 -417.85053635661825 -131.5033574681438 0 -131.5033574681438 113.91809110084068 0 0 0 0 -1.849502246946372 23.724168449992703 0 23.724168449992703 -7.4786548670272168 0 0 0 0 -1.3615795340314023 1.3117347922316043 0 1.3117347922316043 -0.73168223031927937 0 0 0 0 85.221413708047749 66.501556796281875 0 66.501556796281875 -513.0054256933854 0 0 0 0 3.4905338688754455 8.3675284266028029 0 8.3675284266028029 -47.375561733902941 0 0 0 0 1.3490623907209738 31.208425848033585 0 31.208425848033585 -290.96704030794552 0 0 0 0 -41.712639178427139 -121.44441813073536 0 -121.44441813073536 -76.046135583732394 0 0 0 0 -62.825922910019017 -125.16261803247653 0 -125.16261803247653 96.653315814977759 0 0 0 0 39.904600240102013 -15.982648918588552 0 -15.982648918588552 -99.089467896752467 0 0 0 0 -0.87872302804777291 -33.488666675917102 0 -33.488666675917102 -86.966121104840568 0 0 0 0 34.572608141512319 -94.356342198931088 0 -94.356342198931088 -258.2740112504116 0 0 0 0 0.34200404709919141 -2.2677204364796992 0 -2.2677204364796992 -0.60129269227201476 0 0 0 0 -111.66870707802332 -47.703251283169266 0 -47.703251283169266 -29.961358330965595 0 0 0 0 -167.13391787640376 -163.49116631942707 0 -163.49116631942707 16.604125164022662 0 0 0 0 46.259642595873629 -88.605856135151043 0 -88.605856135151043 -87.06970378717233 0 0 0 0 -82.725916555915774 -133.96293843547119 0 -133.96293843547119 -92.099323924139753 0 0 0 0 -14.835464556646912 -180.3728824748523 0 -180.3728824748523 45.346174918286124 0 0 0 0 7.8464923542817928 5.0586588605856377 0 5.0586588605856377 5.8095951765062637 0 0 0 0 12.403567770433085 7.530043630930777 0 7.530043630930777 -3.9835206273419317 0 0 0 0 6.8436318836252212 2.6329148227450787 0 2.6329148227450787 3.9972224982248008 0 0 0 0 -2.2388171227075948 2.0993726616173944 0 2.0993726616173944 -1.1383714512207206 0 0 0 0 -189.6875367143632 -111.52706512696022 0 -111.52706512696022 -37.443348141478054 0 0 0 0 -189.74593134118436 53.277823039421492 0 53.277823039421492 144.42772550688483 0 0 0 0 -1.961155616940232 -1.2277990451111691 0 -1.2277990451111691 -1.9968375571363595 0 0 0 0 10.663625848924056 -8.0149832389342919 0 -8.0149832389342919 -28.060951370269322 0 0 0 0 -6.9148180770895351 -25.443520142019452 0 -25.443520142019452 46.136763917886128 0 0 0 0 1.6592269098402646 -5.2000248342232638 0 -5.2000248342232638 5.7145976746613414 0 0 0 0 6.3059660881351043 -19.700455267363722 0 -19.700455267363722 17.636221697847709 0 0 0 0 4.7774453024010199 0.032785131215860019 0 0.032785131215860019 -10.257942096564875 0 0 0 0 -46.135400553944237 8.3142538178508403 0 8.3142538178508403 90.516223497161263 0 0 0 0 0.0093818306748687519 -4.0779908808101517 0 -4.0779908808101517 1.4312446155294207 0 0 0 0 -31.899864036866347 10.243204543574393 0 10.243204543574393 84.931589828800497 0 0 0 0 24.642560024308068 22.94635644545815 0 22.94635644545815 -12.053798394932528 0 0 0 0 -61.056005083746271 -130.67472200950351 0 -130.67472200950351 -75.397189668645296 0 0 0 0 4.9463641543790295 -19.161733775859084 0 -19.161733775859084 23.530571806079983 0 0 0 0 -48.918792033409773 -94.894207019206078 0 -94.894207019206078 11.171199546318348 0 0 0 0 -109.27860021953893 -80.907280856070429 0 -80.907280856070429 119.46112277944849 0 0 0 0 -35.453685692907129 -8.0410093639002298 0 -8.0410093639002298 63.941550961855683 0 0 0 0 -27.572422584559263 -5.7452780648309272 0 -5.7452780648309272 -18.270564504186041 0 0 0 0 -11.130545535104602 -31.800797487356249 0 -31.800797487356249 -15.028548538255563 0 0 0 0 15.060953984890148 -92.57405545437723 0 -92.57405545437723 -164.92223883824727 0 0 0 0 1.1286198617670919 -2.411189492047594 0 -2.411189492047594 1.9218615353225879 0 0 0 0 -36.466046046958468 -40.356577983766556 0 -40.356577983766556 182.0526185195049 0 0 0 0 -165.69378170052778 -47.770472420112128 0 -47.770472420112128 326.34357409663789 0 0 0 0 -1.3461986843918714 1.0008823960882722 0 1.0008823960882722 -1.0691628590907314 0 0 0 0 -29.039441183114377 -231.14346976580237 0 -231.14346976580237 -521.66796308122866 0 0 0 0 -74.218209517845025 -23.654474099628715 0 -23.654474099628715 -6.199081779921471 0 0 0 0 -0.49347538402935953 -0.74714365440294728 0 -0.74714365440294728 0.15572613705746008 0 0 0 0 51.288931226563363 33.217305390098772 0 33.217305390098772 90.936909048923553 0 0 0 0 41.68238502270151 92.423646466926584 0 92.423646466926584 174.66632543840387 0 0 0 0 -69.443982059907285 -4.0423966065500281 0 -4.0423966065500281 122.45397827869965 0 0 0 0 -97.049943408611853 20.16637436519693 0 20.16637436519693 194.69946977985819 0 0 0 0 107.01515038638627 113.28034753435259 0 113.28034753435259 121.35883851916878 0 0 0 0 -0.84749735142580551 -0.69367108988113202 0 -0.69367108988113202 1.2875751586856836 0 0 0 0 -40.235625656019693 -11.573212244486058 0 -11.573212244486058 -8.1425013143689284 0 0 0 0 46.5156025821816 -211.62184483992678 0 -211.62184483992678 -146.11345613068806 0 0 0 0 -1.1008737872834899 -1.3174316199038003 0 -1.3174316199038003 -25.850510507071704 0 0 0 0 89.373289760023908 -97.08024158635908 0 -97.08024158635908 -80.781264076100342 0 0 0 0 3.5099813783133227 -17.919265032508214 0 -17.919265032508214 21.804746487573883 0 0 0 0 -67.844603790053839 -109.50757651707681 0 -109.50757651707681 -35.567500694880437 0 0 0 0 -63.445422127999336 -81.789838615623012 0 -81.789838615623012 -19.251763021476108 0 0 0 0 -39.071387884628393 -79.636602132053667 0 -79.636602132053667 -32.678689655596827 0 0 0 0 -55.568353613779436 -49.694001469364594 0 -49.694001469364594 9.267056667842553 0 0 0 0 57.561689827000691 14.076148367353881 0 14.076148367353881 25.733104577782797 0 0 0 0 53.302831487628737 -90.253365637490788 0 -90.253365637490788 -88.566809319063395 0 0 0 0 -37.48890642989852 -48.211845024772629 0 -48.211845024772629 -47.564897062356977 0 0 0 0 74.190004764466721 -86.669181859786477 0 -86.669181859786477 -37.342928346461122 0 0 0 0 90.650569055885171 -75.947808764409274 0 -75.947808764409274 -54.958809418097189 0 0 0 0 -42.592264810718007 -70.689580827531699 0 -70.689580827531699 -7.3830205474296235 0 0 0 0 276.03590772191887 54.238578621363558 0 54.238578621363558 -40.877461030268023 0 0 0 0 -122.56485519511534 -146.08551810147583 0 -146.08551810147583 -116.87991254970711 0 0 0 0 -0.73371032371662626 0.47792167764995952 0 0.47792167764995952 0.99329147063583889 0 0 0 0 -60.307163712953752 -65.893525422429775 0 -65.893525422429775 -85.355931285444967 0 0 0 0 -3.8419957440464714 -46.124516630043217 0 -46.124516630043217 -125.41489513767556 0 0 0 0 -24.922470655475081 -38.621337479080466 0 -38.621337479080466 -70.873263601282815 0 0 0 0 -74.076090253453003 -49.28276114306027 0 -49.28276114306027 -53.940444453957753 0 0 0 0 76.662533135621743 -48.99154578872367 0 -48.99154578872367 -9.9328339758776565 0 0 0 0 -0.35489980289570067 0.01573204919766269 0 0.01573204919766269 1.8232025765515942 0 0 0 0 134.53036533636828 41.176961247632789 0 41.176961247632789 -44.588908275793074 0 0 0 0 9.8280080974859629 -22.934241609211313 0 -22.934241609211313 16.342402551834311 0 0 0 0 -21.086271566685355 -5.2727986283844075 0 -5.2727986283844075 -34.527720143905754 0 0 0 0 38.925860034059497 -8.0013135511499058 0 -8.0013135511499058 -38.725299836081831 0 0 0 0 19.74579030505447 -41.743793649762665 0 -41.743793649762665 -23.42449737071729 0 0 0 0 -118.09096804683577 -19.737538638470141 0 -19.737538638470141 96.025941967774997 0 0 0 0 2.6357957529018448 -3.5755750574980887 0 -3.5755750574980887 -0.28325662314313149 0 0 0 0 45.30644494504304 -67.162505299113036 0 -67.162505299113036 -94.100941253751444 0 0 0 0 -21.866067528289932 -30.663992987050733 0 -30.663992987050733 123.1210349951798 0 0 0 0 5.268261327262735 -38.663449708350527 0 -38.663449708350527 35.943463305669866 0 0 0 0 1.3437394001266512 -57.328273075636389 0 -57.328273075636389 27.152875553654667 0 0 0 0 4.6645205208697007 -9.0645586468517649 0 -9.0645586468517649 47.16128554433817 0 0 0 0 2.5495151732975501 -81.183566140753101 0 -81.183566140753101 82.834149876176525 0 0 0 0 36.004175801523161 -64.091809455927432 0 -64.091809455927432 -15.368358854015241 0 0 0 0 25.544432295958359 -86.470144435408656 0 -86.470144435408656 31.738445885472174 0 0 0 0 2.6936725731975457 -31.333173676550359 0 -31.333173676550359 -20.694065519309788 0 0 0 0 7.6610363152599348 -47.348426126427057 0 -47.348426126427057 -63.884532660991681 0 0 0 0 4.2726760660661967 -38.21330721385857 0 -38.21330721385857 -0.12260988124762662 0 0 0 0 5.1079927470580628 -62.483614283291786 0 -62.483614283291786 -25.614130131878483 0 0 0 0 -24.784852125559155 -37.436979562511624 0 -37.436979562511624 -63.581989856365226 0 0 0 0 17.747878371736078 -39.910903844296627 0 -39.910903844296627 -111.97862655426434 0 0 0 0 11.185339495302287 -50.980230818351629 0 -50.980230818351629 -113.06422908930108 0 0 0 0 33.320768119057902 -10.90929982657326 0 -10.90929982657326 -138.15638159975242 0 0 0 0 21.768717605162237 -31.087014639690096 0 -31.087014639690096 -71.617957694003053 0 0 0 0 -0.5190893874532776 -53.296703602778507 0 -53.296703602778507 -85.698974218219519 0 0 0 0 43.393728561901298 -39.355673000474781 0 -39.355673000474781 -78.820873776039662 0 0 0 0 26.844932174823498 -24.530765470710548 0 -24.530765470710548 -84.322356090040557 0 0 0 0 -0.49259483857915853 -1.3199014215902789 0 -1.3199014215902789 -5.7317948134445516 0 0 0 0 79.877622102339956 50.617933635236113 0 50.617933635236113 -416.06369694468185 0 0 0 0 -524.81662201576546 -115.90595402357212 0 -115.90595402357212 -14.751227341825143 0 0 0 0 -206.49782088287793 -280.02751643474494 0 -280.02751643474494 -377.63299993658438 0 0 0 0 -131.3155245498383 -35.978102942133773 0 -35.978102942133773 -21.533304364957758 0 0 0 0 -1.7728463211330698 -5.0025402094206139 0 -5.0025402094206139 -14.496975299077775 0 0 0 0 -121.10662582201439 -46.021263626505061 0 -46.021263626505061 -29.239936961614148 0 0 0 0 -204.50287116241088 -79.119792427960419 0 -79.119792427960419 -12.696251622033742 0 0 0 0 -88.316772562440747 -61.742047636339521 0 -61.742047636339521 -24.340841685381747 0 0 0 0 -93.334035250187299 -53.548773860741676 0 -53.548773860741676 -37.159480436246668 0 0 0 0 -30.58895090095757 6.5851146434542898 0 6.5851146434542898 -9.9661846266426437 0 0 0 0 3.3146855809609406 -31.894876666308846 0 -31.894876666308846 -4.9332336710904201 0 0 0 0 -3.6198243588608285 -8.5270944930596446 0 -8.5270944930596446 -20.815023128713449 0 0 0 0 -5.2882027708601527 -23.386949562038353 0 -23.386949562038353 -38.633478021110932 0 0 0 0 4.5816557496509631 -31.078547942710429 0 -31.078547942710429 -4.5409480354355765 0 0 0 0 2.7790729680491495 -28.885201207507635 0 -28.885201207507635 -1.9677979369789682 0 0 0 0 -1.301753457140876 -30.171260645773145 0 -30.171260645773145 -2.3374145956640859 0 0 0 0 -0.9568395920250623 -26.535149076313246 0 -26.535149076313246 11.253637584239186 0 0 0 0 1.5008092683428913 -21.893168801976572 0 -21.893168801976572 -0.63128894994588336 0 0 0 0 0.17806182390813774 -42.427317272922664 0 -42.427317272922664 7.4138659944874234 0 0 0 0 2.8794505940713861 -41.857885796653136 0 -41.857885796653136 -11.412145404967305 0 0 0 0 16.203659348700057 -26.151400689812363 0 -26.151400689812363 -23.351428763624426 0 0 0 0 1.1580466028204341 -0.38439278420283607 0 -0.38439278420283607 -1.9107867300997157 0 0 0 0 41.298766017491289 136.16886656986389 0 136.16886656986389 -120.53619904804873 0 0 0 0 65.946925057465705 -151.27139445668035 0 -151.27139445668035 180.2905499776025 0 0 0 0 18.101667536517198 103.9303784871754 0 103.9303784871754 102.39008337655468 0 0 0 0 74.690029409077397 225.98293659553747 0 225.98293659553747 -207.75377453406873 0 0 0 0 71.665494938590314 -78.175246725017359 0 -78.175246725017359 -63.066776913303329 0 0 0 0 67.568516392821039 45.489631583875962 0 45.489631583875962 -67.680779795624403 0 0 0 0 39.819329844618551 -42.911858275922896 0 -42.911858275922896 -96.238311898661777 0 0 0 0 -73.437221703385148 -97.426281194182593 0 -97.426281194182593 -34.19323847790929 0 0 0 0 -20.303394255744934 -60.204237918649596 0 -60.204237918649596 -91.396601444321277 0 0 0 0 -26.651337777283061 -111.48828003918072 0 -111.48828003918072 -253.07517633359384 0 0 0 0 -134.01780182760194 -133.71355219848192 0 -133.71355219848192 -110.0838735794805 0 0 0 0 -82.121522920977441 -132.21413345927795 0 -132.21413345927795 -114.90151876612981 0 0 0 0 -120.5593881199311 -131.42381453625967 0 -131.42381453625967 -37.013004538644964 0 0 0 0 -186.9804872701834 -157.71857139390181 0 -157.71857139390181 -45.1247479262056 0 0 0 0 -132.74743350757126 -114.1137162664445 0 -114.1137162664445 -59.096511101968645 0 0 0 0 -39.598078218186856 -124.60644769535793 0 -124.60644769535793 -69.012571843433761 0 0 0 0 -119.14206789520244 -123.40280097698201 0 -123.40280097698201 -21.854344470502838 0 0 0 0 -23.89754384554908 -95.406294566830184 0 -95.406294566830184 -6.8689733059545688 0 0 0 0 -41.414573786707479 -124.05493577235029 0 -124.05493577235029 -53.140371574356323 0 0 0 0 -5.0968319095918559 -174.7706198326905 0 -174.7706198326905 -26.061480706919156 0 0 0 0 55.921144635012752 -120.04727496517989 0 -120.04727496517989 -52.943039325557038 0 0 0 0 95.923132513244127 -172.07394455669873 0 -172.07394455669873 -15.657283165674016 0 0 0 0 20.408414123699913 -201.05753795242526 0 -201.05753795242526 62.974030669982312 0 0 0 0 188.72304266262472 -99.253795789429205 0 -99.253795789429205 1.6349242692231201 0 0 0 0 88.189158156124449 -72.723159431167915 0 -72.723159431167915 -78.777011922193196 0 0 0 0 42.235276074898138 -137.73998614453922 0 -137.73998614453922 95.033353649339915 0 0 0 0 108.62739529329519 -118.09182502424119 0 -118.09182502424119 -96.812923341669375 0 0 0 0 77.607198087505822 -155.54496059784105 0 -155.54496059784105 -73.082006777858624 0 0 0 0 -25.3633457298547 -90.21495882977797 0 -90.21495882977797 -23.318870197123033 0 0 0 0 54.604809943642977 -123.21561934973215 0 -123.21561934973215 -47.568554953339117 0 0 0 0 -1.5530446155926256 -1.0617058536221293 0 -1.0617058536221293 0.34922374744128959 0 0 0 0 -113.08819897177818 -33.11785092734317 0 -33.11785092734317 317.20607407572243 0 0 0 0 -123.26692297147747 -194.6777499990676 0 -194.6777499990676 -47.819552310722884 0 0 0 0 -63.027115207605675 -163.20863324739912 0 -163.20863324739912 -286.92578635205427 0 0 0 0 -53.839497837539966 -100.9859827442906 0 -100.9859827442906 -58.473853420840896 0 0 0 0 -139.17109750003146 -4.6940272377851215 0 -4.6940272377851215 329.88483581217588 0 0 0 0 3.0649506704621672 -9.6419291841289123 0 -9.6419291841289123 90.227572036696074 0 0 0 0 38.688598571665352 119.57614250964252 0 119.57614250964252 214.40950677807632 0 0 0 0 -2.1621335486452153 -5.4952714723694953 0 -5.4952714723694953 88.101549849956427 0 0 0 0 2.4471861986590469 -9.3712143622512514 0 -9.3712143622512514 17.132318067355357 0 0 0 0 1.3852737754205009 -0.26865701255519525 0 -0.26865701255519525 82.275123935034571 0 0 0 0 6.6309233591100565 -4.2455442633886378 0 -4.2455442633886378 83.8612546180957 0 0 0 0 -7.3044695001599536 -8.0360933151148792 0 -8.0360933151148792 1.2128519953443302 0 0 0 0 22.195922574406723 -34.665944075790321 0 -34.665944075790321 30.391754265787313 0 0 0 0 -13.185492989614431 -28.230372039106442 0 -28.230372039106442 214.55958294808079 0 0 0 0 -75.715085868774622 -66.237628497001424 0 -66.237628497001424 228.49570128806226 0 0 0 0 -84.795049915514483 -109.58583760474789 0 -109.58583760474789 200.65571362188348 0 0 0 0 -32.233187328833992 -74.554598758425072 0 -74.554598758425072 182.16013482291237 0 0 0 0 -7.4246169249731366 -4.3484375618789315 0 -4.3484375618789315 -2.8498654655202955 0 0 0 0 24.260156618071051 -59.092683488368493 0 -59.092683488368493 68.960571286035702 0 0 0 0 45.417884530219453 -46.396037448218522 0 -46.396037448218522 21.55950663827025 0 0 0 0 22.270283014691813 -11.68167846155302 0 -11.68167846155302 23.057569828202759 0 0 0 0 -37.654332545203374 -35.297111731981374 0 -35.297111731981374 30.790628232360177 0 0 0 0 -4.8263432346166724 -3.3248376787227691 0 -3.3248376787227691 -1.7648197809322852 0 0 0 0 7.6371709187374108 -98.738458158626941 0 -98.738458158626941 86.928136865568376 0 0 0 0 -88.943644342314656 -8.2506390655544237 0 -8.2506390655544237 85.519242997903348 0 0 0 0 -85.004839215136599 101.99896146035098 0 101.99896146035098 -157.74341905818073 0 0 0 0 -39.793970291166261 -26.711755605129838 0 -26.711755605129838 9.0680964501661947 0 0 0 0 -55.165630219598825 3.8077089531761885 0 3.8077089531761885 -42.855396901126369 0 0 0 0 -242.22311045655078 65.179880537389181 0 65.179880537389181 283.06896750285523 0 0 0 0 -131.02395402471302 57.996847722861276 0 57.996847722861276 -17.899751674989602 0 0 0 0 321.68878679789123 -203.13062968814484 0 -203.13062968814484 -3.2420093115206328 0 0 0 0 -22.91339035132966 -30.459178185073014 0 -30.459178185073014 15.026043060002237 0 0 0 0 97.30366928066087 279.68387284037453 0 279.68387284037453 -676.93078706035885 0 0 0 0 -387.80551255032333 13.774601020616501 0 13.774601020616501 229.18112464889418 0 0 0 0 -193.46766370540172 164.49594211571639 0 164.49594211571639 214.09547317570468 0 0 0 0 1.6837444838323989 -6.4629422918472059 0 -6.4629422918472059 -5.4181495544379956 0 0 0 0 -42.664915911163007 -55.275025514875779 0 -55.275025514875779 -84.864083880551334 0 0 0 0 16.974620980265804 -30.023612372365228 0 -30.023612372365228 6.9047546034517069 0 0 0 0 3.2444445873770746 -40.383389555936446 0 -40.383389555936446 -110.01123488315716 0 0 0 0 4.4802123539757304 -26.538391540612793 0 -26.538391540612793 -6.0364236895838985 0 0 0 0 19.844725725578428 -25.292093502521766 0 -25.292093502521766 -33.626083108745661 0 0 0 0 -6.7734916140453691 -5.5687917833006111 0 -5.5687917833006111 1.3838290276641949 0 0 0 0 -6.6279831945256404 -30.311175567168156 0 -30.311175567168156 -14.798739962045772 0 0 0 0 -11.85182082915027 -2.7261882998853864 0 -2.7261882998853864 -4.0598880627493728 0 0 0 0 -13.772233291008888 -15.806654712458112 0 -15.806654712458112 -33.76205960605148 0 0 0 0 -27.594691139871429 -12.645350635080831 0 -12.645350635080831 -19.807768480663071 0 0 0 0 -332.53821125728427 64.710949586406059 0 64.710949586406059 -36.899825276266711 0 0 0 0 -71.782246495466097 -76.06886373645375 0 -76.06886373645375 -93.067196491567302 0 0 0 0 -5.1152718721770469 -0.21234599489085326 0 -0.21234599489085326 0.71085462058858084 0 0 0 0 451.42540473024565 -292.47590226851571 0 -292.47590226851571 19.053306602734665 0 0 0 0 -73.930431476668673 99.587248150373853 0 99.587248150373853 452.67182173036053 0 0 0 0 -318.16539927464328 219.68054496651166 0 219.68054496651166 12.482819477361772 0 0 0 0 -471.49459394738733 76.157200367206315 0 76.157200367206315 694.15028813189565 0 0 0 0 199.47764324555646 200.0734883614623 0 200.0734883614623 -265.93661919240549 0 0 0 0 -79.340702732049976 -400.17845736788877 0 -400.17845736788877 535.81606759953502 0 0 0 0 -214.43913849095406 -190.66577541956212 0 -190.66577541956212 211.49751688543256 0 0 0 0 54.77536582070752 -157.45102003123793 0 -157.45102003123793 -42.422450437114094 0 0 0 0 -44.273750484710035 -266.39417624825001 0 -266.39417624825001 184.249703866044 0 0 0 0 -71.354505425399111 -192.83133787347469 0 -192.83133787347469 34.706997721202242 0 0 0 0 183.29906168199977 -296.10968542964383 0 -296.10968542964383 70.467093403847684 0 0 0 0 2.3413284546374022 -3.3888502793183974 0 -3.3888502793183974 5.6720027780826143 0 0 0 0 90.029809005351126 221.34453599665176 0 221.34453599665176 342.07962189066529 0 0 0 0 -185.55719824089192 -91.617667630010146 0 -91.617667630010146 -14.326140804339957 0 0 0 0 -211.19063369815558 -138.63826869841432 0 -138.63826869841432 -27.313283473777119 0 0 0 0 -92.009636496644816 -90.740995108091738 0 -90.740995108091738 -26.760865448214645 0 0 0 0 -7.5645079130699742 -159.52416028202788 0 -159.52416028202788 44.05590675817075 0 0 0 0 6.4251523698530946 -181.03476670731925 0 -181.03476670731925 -80.07038066221503 0 0 0 0 -43.52125287790841 -132.07589188304701 0 -132.07589188304701 -54.077337028338661 0 0 0 0 30.835019853293488 -107.86880015217685 0 -107.86880015217685 24.510540171703724 0 0 0 0 5.3992450777841441 -147.92908824358256 0 -147.92908824358256 -37.770752758297022 0 0 0 0 -66.831403354626673 -59.826779018069828 0 -59.826779018069828 56.016356063231797 0 0 0 0 -49.558425256591363 -151.23254180586082 0 -151.23254180586082 114.06289736764302 0 0 0 0 -46.899993801431265 -138.46028845650926 0 -138.46028845650926 34.647821988510259 0 0 0 0 -130.73567952482699 -110.92798350443445 0 -110.92798350443445 121.29891906432749 0 0 0 0 -154.59263464783726 -121.55487286378775 0 -121.55487286378775 218.05254552710358 0 0 0 0 31.207165214491397 -108.41034124172347 0 -108.41034124172347 29.967279384982248 0 0 0 0 170.57769573380301 -250.83898063443121 0 -250.83898063443121 82.161310678953669 0 0 0 0 -25.237890075450196 -32.797458170252142 0 -32.797458170252142 7.0165130931092534 0 0 0 0 -553.96051379486971 -131.06272166716781 0 -131.06272166716781 387.20288704536142 0 0 0 0 19.109995775957941 -86.385385908235548 0 -86.385385908235548 58.915076290542856 0 0 0 0 31.856640488509584 -84.668567844088102 0 -84.668567844088102 54.516351610345737 0 0 0 0 64.929981183075142 -59.868663113826187 0 -59.868663113826187 28.414329513176199 0 0 0 0 122.92573511828232 -99.607910764791995 0 -99.607910764791995 -21.841126591658394 0 0 0 0 72.181886849986768 -72.269466484342047 0 -72.269466484342047 -40.699809036792431 0 0 0 0 77.810973746702075 -21.421718182353288 0 -21.421718182353288 -24.521038417264208 0 0 0 0 68.743066554896359 -11.243527575976259 0 -11.243527575976259 -35.27858013326113 0 0 0 0 64.67582753332681 -33.609775741502744 0 -33.609775741502744 -76.682585685193999 0 0 0 0 64.697923345775052 -40.636558083374439 0 -40.636558083374439 -52.552820277334831 0 0 0 0 31.678842073633859 -84.275021032593941 0 -84.275021032593941 -72.097735286923125 0 0 0 0 15.398175178124802 -110.07833831432072 0 -110.07833831432072 -14.375210155010791 0 0 0 0 67.603861443245478 -61.663709942652076 0 -61.663709942652076 -60.947014511260932 0 0 0 0 13.904945823768685 -122.40640185305392 0 -122.40640185305392 -95.560477856681246 0 0 0 0 -48.074352190886202 -150.4376566287583 0 -150.4376566287583 -119.11811796459369 0 0 0 0 -54.141371755486034 -98.819255414320196 0 -98.819255414320196 -111.92325212369178 0 0 0 0 -35.469829870897229 -129.4338891053103 0 -129.4338891053103 -89.511886157059052 0 0 0 0 31.084966991395049 -77.451442016979854 0 -77.451442016979854 -123.61128020394972 0 0 0 0 -443.37053088618995 -187.5323495838602 0 -187.5323495838602 -13.475778737934888 0 0 0 0 -123.07311413456409 -155.5571465530993 0 -155.5571465530993 -151.81481816069572 0 0 0 0 -152.0742173117178 -81.786694736949357 0 -81.786694736949357 -264.77262046368924 0 0 0 0 -412.45414554413583 -160.27399080081523 0 -160.27399080081523 -118.94405169689708 0 0 0 0 -191.09065707544141 -150.56886894742638 0 -150.56886894742638 -155.92819103897273 0 0 0 0 -202.5479663138176 -158.46860635082339 0 -158.46860635082339 -119.08945763612064 0 0 0 0 -100.0317611584469 -61.783501106599942 0 -61.783501106599942 -150.74807763003878 0 0 0 0 -66.010850173610379 -104.19351642683796 0 -104.19351642683796 -180.73728535479677 0 0 0 0 -119.34540292540623 -105.71627668446308 0 -105.71627668446308 -137.61267950280126 0 0 0 0 -163.25671363723814 -148.27521816964145 0 -148.27521816964145 -168.86538788677717 0 0 0 0 -169.55355257562769 -172.76408361436188 0 -172.76408361436188 -188.56663506458426 0 0 0 0 -8.7329684293508762 -57.845175479327736 0 -57.845175479327736 -94.667202575696138 0 0 0 0 -32.19476017163106 -100.8628815837892 0 -100.8628815837892 -151.64329019446086 0 0 0 0 -54.460877181991236 -42.221293728392993 0 -42.221293728392993 -116.51407395077877 0 0 0 0 38.229637956173974 -66.387015167261779 0 -66.387015167261779 -106.94768714827842 0 0 0 0 13.652058919680485 -20.295187593725586 0 -20.295187593725586 -70.482512692993623 0 0 0 0 -14.998867381036689 -0.42704355951536854 0 -0.42704355951536854 -86.094622364127645 0 0 0 0 9.1039641464983561 -60.048904138509215 0 -60.048904138509215 -125.03277241363685 0 0 0 0 -19.512308784986089 -20.077046048183547 0 -20.077046048183547 -63.795159605404478 0 0 0 0 14.703860045941838 -11.836353905659053 0 -11.836353905659053 -81.972061887392556 0 0 0 0 6.9245822295188191 -3.3797726218826938 0 -3.3797726218826938 -16.571746070450899 0 0 0 0 -76.487277644198912 -102.46958667468562 0 -102.46958667468562 -208.07806276949486 0 0 0 0 -89.167910887523249 -74.884908982809975 0 -74.884908982809975 -117.22492827642782 0 0 0 0 -19.949379265814059 -41.389128856808384 0 -41.389128856808384 -159.84751505544409 0 0 0 0 -35.181799936563039 -13.075793835881086 0 -13.075793835881086 -65.338605821467354 0 0 0 0 -62.200999835000403 -47.632852163951611 0 -47.632852163951611 -114.06614993127369 0 0 0 0 -41.518100992092513 4.6011893719069121 0 4.6011893719069121 -25.300809173639209 0 0 0 0 106.95340791912895 14.41613467676143 0 14.41613467676143 -24.713245163177817 0 0 0 0 12.675781600388291 30.633170290928319 0 30.633170290928319 -108.71817876888963 0 0 0 0 -15.449906127305439 50.220703838947884 0 50.220703838947884 12.053310410685299 0 0 0 0 -23.05517314599274 49.41207584536005 0 49.41207584536005 13.629935874374496 0 0 0 0 -6.236824186926242 31.32292186099221 0 31.32292186099221 17.576980084142633 0 0 0 0 6.6910832248540828 8.2205765508260811 0 8.2205765508260811 -21.899938351951278 0 0 0 0 21.424200916400878 22.525753879464901 0 22.525753879464901 -59.606233324656159 0 0 0 0 -46.762774422320945 19.22406361440153 0 19.22406361440153 80.636298044770683 0 0 0 0 162.07443236494146 -25.380743251982494 0 -25.380743251982494 -75.810218759213967 0 0 0 0 43.409118020186725 -51.318887901610651 0 -51.318887901610651 60.232845288677709 0 0 0 0 12.455441815751442 -16.64792150793086 0 -16.64792150793086 -4.3156774823372288 0 0 0 0 -12.331442457485537 -14.554615864601146 0 -14.554615864601146 20.375026271173738 0 0 0 0 0.72505634610907066 -1.0775046731400479 0 -1.0775046731400479 -0.53855344787437076 0 0 0 0 107.01902005669399 47.289541518791339 0 47.289541518791339 17.664849883740317 0 0 0 0 34.69676757666457 -6.5001972106329049 0 -6.5001972106329049 -15.413060002943894 0 0 0 0 4.0995947059343827 -2.3087508770933312 0 -2.3087508770933312 -0.17251073287909691 0 0 0 0 85.559882174638915 0.065696913772626431 0 0.065696913772626431 -28.355404487159831 0 0 0 0 98.951231828870732 -15.289942417523434 0 -15.289942417523434 -60.954937201320718 0 0 0 0 153.59847081366388 -25.665419085499252 0 -25.665419085499252 -36.303848944986385 0 0 0 0 57.11027156745331 -11.731759207135838 0 -11.731759207135838 -32.45572640186947 0 0 0 0 70.029179165161622 -30.575995249293555 0 -30.575995249293555 -73.40650060698681 0 0 0 0 -233.34987242855277 -90.240131394530181 0 -90.240131394530181 153.50705325570016 0 0 0 0 -84.342664171315846 -152.3094037294768 0 -152.3094037294768 11.733486796263605 0 0 0 0 3.1769379257329859 -5.1977579353670365 0 -5.1977579353670365 1.5287055540441443 0 0 0 0 -62.563020210995091 -111.55862363628012 0 -111.55862363628012 -63.783228147440241 0 0 0 0 -216.44352717783158 -389.53206101823844 0 -389.53206101823844 -53.655324277697218 0 0 0 0 1.7889426380368292 -4.8380854837386309 0 -4.8380854837386309 8.8304001335844262 0 0 0 0 19.707742983047865 -27.252315516969247 0 -27.252315516969247 9.2906316318840254 0 0 0 0 9.0150452977889302 -27.145578389382162 0 -27.145578389382162 -8.3276379849089555 0 0 0 0 5.6037341622529766 -30.758502492793923 0 -30.758502492793923 31.194609379279427 0 0 0 0 13.568180002239387 -22.28659853753561 0 -22.28659853753561 28.665750502483661 0 0 0 0 19.54634394486402 -42.907286774001477 0 -42.907286774001477 24.290412735539576 0 0 0 0 29.880367013740397 -38.933753445972343 0 -38.933753445972343 -126.64435186716582 0 0 0 0 233.94740927425664 144.07968315824837 0 144.07968315824837 -154.88134728408113 0 0 0 0 303.58385557344809 -330.86956266776178 0 -330.86956266776178 -116.91734207230547 0 0 0 0 148.08686487082014 -234.64146454675938 0 -234.64146454675938 7.6926837212577084 0 0 0 0 603.35527284398995 -54.729615794305573 0 -54.729615794305573 -126.81013538725892 0 0 0 0 83.693719257713383 78.109750262960006 0 78.109750262960006 -177.98926606356144 0 0 0 0 231.10045547270056 242.93048661388275 0 242.93048661388275 59.424200992124497 0 0 0 0 -33.309872274039662 105.43002946517481 0 105.43002946517481 -10.657913801140239 0 0 0 0 4.1799198381434266 3.706246154783976 0 3.706246154783976 -19.721416761220837 0 0 0 0 -141.97578154695839 -2.6297826687491579 0 -2.6297826687491579 -82.489849485042214 0 0 0 0 19.821760013410312 -42.216850445735872 0 -42.216850445735872 33.794921811801032 0 0 0 0 22.712750759599558 -24.501551506602787 0 -24.501551506602787 -5.7970485916209276 0 0 0 0 24.99994515216531 -34.502953321203677 0 -34.502953321203677 12.601126012412351 0 0 0 0 -148.98205191328452 -55.328740642045886 0 -55.328740642045886 -4.9234548812673893 0 0 0 0 10.163657418624791 -19.92373322949004 0 -19.92373322949004 14.687140790330318 0 0 0 0 14.260871801561734 -30.480076946283589 0 -30.480076946283589 31.909572806242977 0 0 0 0 0.56504191620058464 -3.8250259102904725 0 -3.8250259102904725 7.4094380455725606 0 0 0 0 -85.748980260441385 -171.77915435839168 0 -171.77915435839168 -199.48859092542989 0 0 0 0 -168.21858558399981 -288.45848044419108 0 -288.45848044419108 -293.51090649780599 0 0 0 0 -263.85320822707217 -224.52093368752685 0 -224.52093368752685 -158.78684730368695 0 0 0 0 -228.13275105981302 -215.41779715161101 0 -215.41779715161101 -156.47192131169868 0 0 0 0 -223.83189933229005 -234.81089610810523 0 -234.81089610810523 -214.41023287013741 0 0 0 0 -273.12260571784282 -290.25649418549438 0 -290.25649418549438 -162.14243619962508 0 0 0 0 -258.66795526235728 -240.1080140544218 0 -240.1080140544218 -120.83113831025548 0 0 0 0 0.82359556289113556 -3.6417337528891025 0 -3.6417337528891025 -0.60246474012857654 0 0 0 0 -298.48091821418348 -238.23328141745151 0 -238.23328141745151 -290.27370128226175 0 0 0 0 -264.66272262180428 -282.29321964979317 0 -282.29321964979317 -242.70462419628166 0 0 0 0 -265.78213343932293 -268.21854365895342 0 -268.21854365895342 -239.24020765761088 0 0 0 0 -348.73677068572579 -241.96992364251855 0 -241.96992364251855 -219.90546387469658 0 0 0 0 -336.21242662271106 -265.13851440573853 0 -265.13851440573853 -199.56848330253706 0 0 0 0 -373.74022174440324 -328.51695941445723 0 -328.51695941445723 -233.9589764749835 0 0 0 0 -245.65123240942921 -231.74696912262152 0 -231.74696912262152 -228.29762915343235 0 0 0 0 -261.01393565796388 -316.84860922507687 0 -316.84860922507687 -359.22234237172597 0 0 0 0 -197.77760009915073 -223.35008327682226 0 -223.35008327682226 -268.86979697123752 0 0 0 0 -122.89019558894506 -172.29911016799451 0 -172.29911016799451 -236.0632529380091 0 0 0 0 -161.23399238705679 -182.34689481217356 0 -182.34689481217356 -196.89810774267971 0 0 0 0 -220.8725953201938 -208.95521976488817 0 -208.95521976488817 -208.62181864000013 0 0 0 0 -213.310833820884 -217.0367305014006 0 -217.0367305014006 -229.4551200177666 0 0 0 0 -209.15151068476916 -138.7628831633665 0 -138.7628831633665 -242.44192503563681 0 0 0 0 -114.50032028290934 -151.87417849215188 0 -151.87417849215188 -269.4618325402771 0 0 0 0 -174.7471483313202 -146.62685122809125 0 -146.62685122809125 -221.55301981097364 0 0 0 0 -115.81797125037701 -116.84670278077101 0 -116.84670278077101 -189.32482319954715 0 0 0 0 -188.91003016304603 -193.36876640609262 0 -193.36876640609262 -344.96262068670558 0 0 0 0 -166.69666737147782 -175.39444481321152 0 -175.39444481321152 -236.0752984203591 0 0 0 0 -43.931022461787506 -117.05177250877205 0 -117.05177250877205 -242.43960142000833 0 0 0 0 -39.368953522811353 -36.748593858259483 0 -36.748593858259483 -173.62497030818213 0 0 0 0 -88.497959508666099 1.4570150437621123 0 1.4570150437621123 161.53671991756164 0 0 0 0 3.5851157297175931 0.97717864800415555 0 0.97717864800415555 0.28912037566739368 0 0 0 0 -78.397782180063587 -33.295520512985604 0 -33.295520512985604 17.717079975082015 0 0 0 0 -2.2835688140621642 146.13339882983564 0 146.13339882983564 33.325770912138978 0 0 0 0 249.88474707317528 84.318208512534284 0 84.318208512534284 -101.04727861824358 0 0 0 0 49.223245213121118 15.450077016011164 0 15.450077016011164 -312.79935514437602 0 0 0 0 -13.528355646398268 105.84115649626619 0 105.84115649626619 -102.1706193743712 0 0 0 0 -22.330100251869226 -41.507661852218007 0 -41.507661852218007 -360.0257544504675 0 0 0 0 1.7791340385585954 -164.76499565396671 0 -164.76499565396671 -100.35444329548773 0 0 0 0 -22.389204686354788 -224.94086289028201 0 -224.94086289028201 253.32893025262456 0 0 0 0 315.80559371280469 -189.79197033644823 0 -189.79197033644823 -99.202759384454112 0 0 0 0 37.145130013675953 -380.41091587953997 0 -380.41091587953997 124.5649609904176 0 0 0 0 -426.29005115911423 -235.8615124780008 0 -235.8615124780008 80.104639754704294 0 0 0 0 -439.06044512439075 -589.09360059748587 0 -589.09360059748587 -624.85854177376677 0 0 0 0 -211.96303802208058 -137.12091786401379 0 -137.12091786401379 296.33908865556623 0 0 0 0 -1.9172602083189467 2.2376566095089032 0 2.2376566095089032 -4.2108292707846502 0 0 0 0 546.4985104716834 -352.72910192861309 0 -352.72910192861309 -708.74337027863294 0 0 0 0 108.11128863255999 -142.19340770432177 0 -142.19340770432177 -137.03673886520119 0 0 0 0 464.49421326396737 59.794652028781343 0 59.794652028781343 -192.66130258165504 0 0 0 0 -181.1087924698204 -628.54861063645876 0 -628.54861063645876 -262.21259628585904 0 0 0 0 172.35579428236451 -293.83437372511526 0 -293.83437372511526 52.174731149776562 0 0 0 0 -193.71025090957482 -151.19708909370911 0 -151.19708909370911 72.992780666718318 0 0 0 0 4.3472647177757437 -4.9013748868005109 0 -4.9013748868005109 4.9808012919029991 0 0 0 0 -185.17569460473896 -205.07357334808148 0 -205.07357334808148 88.398325498729719 0 0 0 0 -164.91096438196837 -191.87474752198796 0 -191.87474752198796 24.657575316579823 0 0 0 0 108.50601259830364 199.82066535746071 0 199.82066535746071 -81.3591037274673 0 0 0 0 -336.2343096586701 -103.47767244131956 0 -103.47767244131956 208.00868459626281 0 0 0 0 -167.62228573572065 17.014298543736004 0 17.014298543736004 260.47582138478265 0 0 0 0 -29.321662790945993 -39.18302838719228 0 -39.18302838719228 -8.3505193645232794 0 0 0 0 10.734894928500353 37.121095025927275 0 37.121095025927275 136.39763770591162 0 0 0 0 -114.83291718643886 -76.338635146163142 0 -76.338635146163142 215.21582716385001 0 0 0 0 -5.6315354447451682 -128.67423961747772 0 -128.67423961747772 233.65832726451117 0 0 0 0 -74.268076656200719 -250.80182081978273 0 -250.80182081978273 48.445548033882915 0 0 0 0 -73.559821635244589 -159.52948436150109 0 -159.52948436150109 217.80478803627921 0 0 0 0 -178.86460479440029 -120.11181507521201 0 -120.11181507521201 186.74581921113349 0 0 0 0 -250.43533163033499 -265.81064995193901 0 -265.81064995193901 -35.876986140041481 0 0 0 0 -107.1086935550411 -95.56387671770608 0 -95.56387671770608 149.4526881730817 0 0 0 0 -78.251782718866252 -168.75489457804315 0 -168.75489457804315 4.2232628851725167 0 0 0 0 92.153375776741086 -141.54226246840699 0 -141.54226246840699 49.743973150752936 0 0 0 0 10.510491979517042 -196.85696059692168 0 -196.85696059692168 172.43470837360655 0 0 0 0 1.6105439118909999 -55.980790301238812 0 -55.980790301238812 134.22745945901443 0 0 0 0 142.17554214840857 -44.107035850953253 0 -44.107035850953253 262.3988258320951 0 0 0 0 -156.83247094928083 -198.02323963031222 0 -198.02323963031222 458.69284611049807 0 0 0 0 130.61848190714591 -163.57195088674962 0 -163.57195088674962 177.70141166619305 0 0 0 0 250.55343429910499 -272.92884200751223 0 -272.92884200751223 232.57859764976456 0 0 0 0 192.90616150866481 27.542863459075306 0 27.542863459075306 -11.462007713354978 0 0 0 0 46.241196144859714 -246.75350156004788 0 -246.75350156004788 355.32882470023969 0 0 0 0 -72.702985154675844 47.882798100077707 0 47.882798100077707 91.916556820898904 0 0 0 0 152.81257399629612 -337.61118746398188 0 -337.61118746398188 333.97636919647266 0 0 0 0 22.424184594525286 -308.39070463124517 0 -308.39070463124517 469.71717652781626 0 0 0 0 3.3251892974416108 -0.26416268936358378 0 -0.26416268936358378 0.055335671799376485 0 0 0 0 28.32809729760811 -147.7129682775012 0 -147.7129682775012 402.66609203884582 0 0 0 0 75.952923851913511 -203.18420398324361 0 -203.18420398324361 194.99798432857642 0 0 0 0 15.345511989031365 -190.77648827092526 0 -190.77648827092526 203.45194892828476 0 0 0 0 85.499498255316212 -194.00361170276938 0 -194.00361170276938 93.930160652433187 0 0 0 0 69.673360203899392 -65.698757850509082 0 -65.698757850509082 -82.432724162348677 0 0 0 0 29.118388683054036 -97.522522955865952 0 -97.522522955865952 151.18768469787938 0 0 0 0 2.171426464259639 11.256484595274742 0 11.256484595274742 -13.557534103076705 0 0 0 0 0.45778481705781715 -1.5216855169984775 0 -1.5216855169984775 -0.77490962833739729 0 0 0 0 17.196214263010916 -34.614126277445393 0 -34.614126277445393 -4.6724356221029666 0 0 0 0 29.726123369586276 -1.5619211995926889 0 -1.5619211995926889 -142.10075722827196 0 0 0 0 -40.809300525625076 -31.728179868375264 0 -31.728179868375264 13.388815297710607 0 0 0 0 -45.976733048127016 -2.1405419657112361 0 -2.1405419657112361 8.8930028584745742 0 0 0 0 -91.163597622693487 -137.57945708682018 0 -137.57945708682018 62.202682769796411 0 0 0 0 37.052423434348384 -53.292597486447448 0 -53.292597486447448 -125.25565996951082 0 0 0 0 31.303887758241899 -14.607148923997158 0 -14.607148923997158 -217.29520780787607 0 0 0 0 3.8365381420699123 -64.725069605940007 0 -64.725069605940007 -25.315206890548325 0 0 0 0 -24.87153787999614 -152.84249932016428 0 -152.84249932016428 -294.97381600357039 0 0 0 0 -2.4115480588696983 -2.454732589760857 0 -2.454732589760857 -3.0615931001712156 0 0 0 0 -194.01522052818837 -201.6409381385597 0 -201.6409381385597 -61.680764857047507 0 0 0 0 -286.34634559448932 41.472746665671366 0 41.472746665671366 -16.234361135448808 0 0 0 0 85.367913473617591 68.859666721816211 0 68.859666721816211 -105.61897530145825 0 0 0 0 23.59682333861565 -13.606580644320275 0 -13.606580644320275 -10.080811796433409 0 0 0 0 10.621781742437875 -0.95492782577454527 0 -0.95492782577454527 2.1356160624997713 0 0 0 0 4.9687302187310758 -14.44564536007281 0 -14.44564536007281 7.7370531753567207 0 0 0 0 23.393401359761214 -1.6746129434651742 0 -1.6746129434651742 -0.52458992424547368 0 0 0 0 10.081734267136198 -20.89360836897049 0 -20.89360836897049 25.813840257561424 0 0 0 0 17.394939581808273 -9.4616900398053474 0 -9.4616900398053474 8.0184122418377228 0 0 0 0 16.613034606045403 -29.876310041712713 0 -29.876310041712713 5.6334347383262866 0 0 0 0 -1.6268909344580607 -23.913659871499476 0 -23.913659871499476 75.807142355098222 0 0 0 0 8.3500683383531253 0.64746076011453013 0 0.64746076011453013 -0.88515696976635283 0 0 0 0 52.366159953489841 12.575662197516067 0 12.575662197516067 -55.265041056012706 0 0 0 0 -2.2401313310319892 32.411854090023553 0 32.411854090023553 27.843546974798301 0 0 0 0 12.474676957265544 2.7059999986357965 0 2.7059999986357965 0.42181824803073464 0 0 0 0 69.209458886740322 -78.286284968025939 0 -78.286284968025939 -31.676337578554012 0 0 0 0 75.215921534131667 -156.71785328608303 0 -156.71785328608303 175.66389770586102 0 0 0 0 51.095527077690349 -215.2885780706365 0 -215.2885780706365 153.61912991073041 0 0 0 0 175.94652024459356 -130.6527484994067 0 -130.6527484994067 -36.166179176112564 0 0 0 0 293.8921713103864 -274.50380696723369 0 -274.50380696723369 55.781770000891811 0 0 0 0 111.31898101656407 -298.44724847197267 0 -298.44724847197267 268.10275431737318 0 0 0 0 -22.935153798976899 -78.911852892815659 0 -78.911852892815659 373.1719153926947 0 0 0 0 12.641418231653006 -17.921671649668497 0 -17.921671649668497 16.86637295102264 0 0 0 0 5.9087128672501095 -7.7467727796116286 0 -7.7467727796116286 4.2974395483067234 0 0 0 0 -13.70038556813779 -3.219239500303047 0 -3.219239500303047 21.653080940027394 0 0 0 0 318.67737305183255 17.565630359658826 0 17.565630359658826 -33.701183510680494 0 0 0 0 3.1868211510368596 -2.1412923723481185 0 -2.1412923723481185 1.9270950484565752 0 0 0 0 392.79447898651915 -217.5850383417212 0 -217.5850383417212 2.1623711553220346 0 0 0 0 101.32784966562394 -237.94232126975203 0 -237.94232126975203 330.70093796725632 0 0 0 0 75.550523848444755 153.41496654243178 0 153.41496654243178 230.51352865768968 0 0 0 0 -0.14358867751922877 -3.9366719138302244 0 -3.9366719138302244 19.152019502860142 0 0 0 0 -115.55013811568097 -42.658219698446828 0 -42.658219698446828 169.22813892131489 0 0 0 0 59.784960103220783 -47.958136611243958 0 -47.958136611243958 -4.4857778828518349 0 0 0 0 42.294558574373696 -58.431128153133614 0 -58.431128153133614 -3.8113524350949319 0 0 0 0 -1.6242572013485943 -4.078027596814465 0 -4.078027596814465 -6.258065975122971 0 0 0 0 -115.61452468254174 -68.119172130398965 0 -68.119172130398965 -99.546917599205699 0 0 0 0 -279.14469890748296 -194.94655903914008 0 -194.94655903914008 85.493142960131081 0 0 0 0 -301.85492415163026 -136.27218938189594 0 -136.27218938189594 -64.298714738250055 0 0 0 0 -0.072418896753468687 -0.98181304784400503 0 -0.98181304784400503 -1.5283446814388704 0 0 0 0 -121.25710035609063 -221.63722131458417 0 -221.63722131458417 231.84147991008467 0 0 0 0 -29.527092242503812 -26.425262053138091 0 -26.425262053138091 23.011238778683946 0 0 0 0 158.7828529364715 -107.65142497998386 0 -107.65142497998386 -55.586228505710096 0 0 0 0 197.24040012079786 -147.94619685902126 0 -147.94619685902126 -34.143423964942485 0 0 0 0 192.11879720068828 -156.67804963790331 0 -156.67804963790331 -7.5618539598217467 0 0 0 0 180.66401520632644 -162.14367934060374 0 -162.14367934060374 49.773263183778909 0 0 0 0 171.93492309713838 -133.51328833943717 0 -133.51328833943717 -8.5663057038327679 0 0 0 0 130.09700688096927 -174.04606523333314 0 -174.04606523333314 52.521581496079307 0 0 0 0 87.23889926276388 -128.69115553718075 0 -128.69115553718075 9.9583024951371044 0 0 0 0 118.5857436929 -117.99728223973125 0 -117.99728223973125 13.298155288881844 0 0 0 0 117.12163931946816 -99.939471503111236 0 -99.939471503111236 15.29445385038639 0 0 0 0 98.517632315463743 -104.58552276846217 0 -104.58552276846217 17.043601359462627 0 0 0 0 -123.81098327725158 -126.67585499569304 0 -126.67585499569304 91.514792477758419 0 0 0 0 -172.13498953547332 -34.89829891125828 0 -34.89829891125828 235.42628383482406 0 0 0 0 -0.28879990505407704 0.79673925008870849 0 0.79673925008870849 0.59487115744720853 0 0 0 0 -236.08958334424005 -396.82201699072539 0 -396.82201699072539 83.861074105918306 0 0 0 0 -380.3201155235547 -233.19492597343378 0 -233.19492597343378 -58.201649207331684 0 0 0 0 25.33277465908759 -8.9416245895217799 0 -8.9416245895217799 31.351379066563595 0 0 0 0 5.6225141596010388 -2.1052863395313031 0 -2.1052863395313031 4.2779742274141004 0 0 0 0 73.218801484712458 35.509936296795331 0 35.509936296795331 35.941906576872498 0 0 0 0 13.703366148867644 87.087057688487221 0 87.087057688487221 -8.2542759585485328 0 0 0 0 2.731691839966981 -0.77467189413692417 0 -0.77467189413692417 0.47848318523238831 0 0 0 0 114.02431288181197 10.710149871433714 0 10.710149871433714 -80.671648109322632 0 0 0 0 35.107500751496445 -94.590752852697733 0 -94.590752852697733 -113.66867106356585 0 0 0 0 -64.764661493845779 -101.49145122207938 0 -101.49145122207938 -39.599543406558951 0 0 0 0 24.350469136955212 7.3982856585756736 0 7.3982856585756736 -193.45664847139778 0 0 0 0 -52.725478761654813 -128.80669850917366 0 -128.80669850917366 -147.7509517652943 0 0 0 0 -212.32948438949097 -306.97112868428212 0 -306.97112868428212 -324.39237867576367 0 0 0 0 -450.45285064881136 -106.38031571195188 0 -106.38031571195188 2.7496703354408965 0 0 0 0 -324.03544254630106 -145.55019413087484 0 -145.55019413087484 -4.6484889598177688 0 0 0 0 -188.42297230486292 -16.537847482976758 0 -16.537847482976758 -35.619881333914236 0 0 0 0 -118.13363832850155 -75.198212844075897 0 -75.198212844075897 6.1998661251723206 0 0 0 0 -159.72125242491711 -133.1359626393978 0 -133.1359626393978 -48.759235297180567 0 0 0 0 -153.1218588920583 -226.84788983971976 0 -226.84788983971976 -142.97812877960678 0 0 0 0 -127.83119209173856 -130.25695898252116 0 -130.25695898252116 -67.875194593691049 0 0 0 0 -52.698115289699899 -142.023936184257 0 -142.023936184257 -130.5089326004636 0 0 0 0 -84.404689744416828 -148.45416856450174 0 -148.45416856450174 -75.944722443377941 0 0 0 0 -116.81285576632945 -158.75756525719225 0 -158.75756525719225 -78.070382984177286 0 0 0 0 -50.469252414153914 -53.918568579939276 0 -53.918568579939276 1.3741330678294617 0 0 0 0 -1.1970121038505512 -1.5830532260671148 0 -1.5830532260671148 1.1338215413949797 0 0 0 0 -26.060523093857228 -8.920900821516625 0 -8.920900821516625 7.2656726713141779 0 0 0 0 -7.1769586329897095 -11.21308504035396 0 -11.21308504035396 -0.46247334011786201 0 0 0 0 227.00328257126785 -48.602726610612535 0 -48.602726610612535 -116.13530804004949 0 0 0 0 179.93264525141058 -1.527711972628822 0 -1.527711972628822 6.0237637202626502 0 0 0 0 24.798621303751133 -39.757999119012311 0 -39.757999119012311 198.57531549537998 0 0 0 0 -23.176397436687694 26.205091797049135 0 26.205091797049135 -147.87752350594565 0 0 0 0 -18.801340815363801 -2.5651835186781682 0 -2.5651835186781682 -54.946769221807699 0 0 0 0 -39.971451835823245 -134.56123434649271 0 -134.56123434649271 69.265105509632122 0 0 0 0 -49.114976225093415 -249.41503392544837 0 -249.41503392544837 -277.2377736798644 0 0 0 0 149.16207750331523 -80.869474267883561 0 -80.869474267883561 -181.83188250946478 0 0 0 0 92.604738710546371 -123.23102138659215 0 -123.23102138659215 39.418809777489514 0 0 0 0 0.024348548851410357 -3.92810229233074 0 -3.92810229233074 -1.1038129616695045 0 0 0 0 -66.574614538834794 27.359023415021511 0 27.359023415021511 38.498036042142303 0 0 0 0 0.33562918056122726 -2.0667948121231099 0 -2.0667948121231099 0.98451875174565107 0 0 0 0 18.736145849196134 -11.206375152620172 0 -11.206375152620172 -1.3157730803118928 0 0 0 0 -30.014279329444122 -11.758694866925623 0 -11.758694866925623 22.780430860537308 0 0 0 0 13.967805432690511 -20.116281482565682 0 -20.116281482565682 0.81376766014409441 0 0 0 0 112.51633837955887 5.6551777152562863 0 5.6551777152562863 24.00773278907036 0 0 0 0 8.8331884144627111 -22.126908537188683 0 -22.126908537188683 3.7186799454102584 0 0 0 0 14.067213689893435 -20.594174378559359 0 -20.594174378559359 1.7022868223357364 0 0 0 0 40.682729810629667 -21.598744793289313 0 -21.598744793289313 -3.1636073088484409 0 0 0 0 11.145520615602436 -25.105351310905462 0 -25.105351310905462 -4.1841425413458637 0 0 0 0 24.158140155457062 -21.69856488557695 0 -21.69856488557695 1.2242126093143213 0 0 0 0 14.556688610144192 -23.338072412797374 0 -23.338072412797374 -12.749614809473314 0 0 0 0 -41.48889858282746 -22.400494835956124 0 -22.400494835956124 -3.458217628131024 0 0 0 0 -3.5200488133210897 -13.886598026502572 0 -13.886598026502572 -3.5901213396650675 0 0 0 0 -10.514428775563829 -39.129823238170502 0 -39.129823238170502 -17.34953909014439 0 0 0 0 -5.046349667149169 -9.4947566789213624 0 -9.4947566789213624 5.6121534879407804 0 0 0 0 17.868969709903467 -18.494077447450763 0 -18.494077447450763 1.0748903910334775 0 0 0 0 -48.781261305248336 -11.055784771951949 0 -11.055784771951949 25.052986458427768 0 0 0 0 -48.748181650538626 -27.194668431521531 0 -27.194668431521531 -19.617427716344537 0 0 0 0 -90.401321110453864 -31.398196358632049 0 -31.398196358632049 9.9224696414185019 0 0 0 0 -106.56494948529144 -70.884409025064087 0 -70.884409025064087 -22.999565698351944 0 0 0 0 -67.066766216958968 -65.042370491399652 0 -65.042370491399652 -49.019400981243962 0 0 0 0 -54.941114846415076 19.571637684604866 0 19.571637684604866 -80.975899813590331 0 0 0 0 -82.088324748090599 -102.02957445573929 0 -102.02957445573929 -139.95479628835892 0 0 0 0 -95.844100205659743 -144.3077044196757 0 -144.3077044196757 -98.914272960884773 0 0 0 0 -78.176333521290871 -35.1150554490996 0 -35.1150554490996 -15.796212985662351 0 0 0 0 -21.704956339941418 13.535300467156048 0 13.535300467156048 24.892845981656137 0 0 0 0 -41.497287664751639 -21.270444911110644 0 -21.270444911110644 -0.19999067995195219 0 0 0 0 -85.790747371072939 -12.94243988276412 0 -12.94243988276412 8.0928834221085708 0 0 0 0 -17.880229546850387 21.970087103027254 0 21.970087103027254 95.936732209763704 0 0 0 0 -89.5042722524081 -85.63588981419116 0 -85.63588981419116 -50.578063057746476 0 0 0 0 2.1401453641360604 1.3390573278148494 0 1.3390573278148494 -2.1255843392631384 0 0 0 0 -98.275949007275585 -55.812641466948548 0 -55.812641466948548 96.955442394264537 0 0 0 0 -55.449711341410875 -95.53881420020025 0 -95.53881420020025 29.544155187486467 0 0 0 0 145.06270582265387 -437.57655525696282 0 -437.57655525696282 235.82627554887813 0 0 0 0 73.276089818011769 -135.78599663013483 0 -135.78599663013483 264.66395971546808 0 0 0 0 -26.79944526224067 -21.817907799424962 0 -21.817907799424962 -16.421041333070185 0 0 0 0 5.3236154646356226 -11.890633896083273 0 -11.890633896083273 14.440600230474956 0 0 0 0 -2.4208262021129485 -30.167723059239506 0 -30.167723059239506 82.812230096827079 0 0 0 0 -49.795684871551202 -32.355355810491346 0 -32.355355810491346 12.67915392269424 0 0 0 0 -10.568657994788737 23.633514070765159 0 23.633514070765159 50.830867248325376 0 0 0 0 -25.203943987070488 -51.120302714771242 0 -51.120302714771242 23.192855468845664 0 0 0 0 -26.725582279227645 -34.378563531169931 0 -34.378563531169931 4.3507489403771373 0 0 0 0 -20.275921595074035 -35.888393014283608 0 -35.888393014283608 2.0758947546853435 0 0 0 0 101.68397112471939 -53.124794328541611 0 -53.124794328541611 -22.923859280292163 0 0 0 0 62.388513153146505 -53.416344275463985 0 -53.416344275463985 -3.9262340569403023 0 0 0 0 -6.0852570712711476 -4.5889506254416865 0 -4.5889506254416865 -0.8719534449691615 0 0 0 0 -41.623318789198947 -17.921371478530091 0 -17.921371478530091 23.817467124707036 0 0 0 0 21.289432059519186 -47.214275347263538 0 -47.214275347263538 -12.561381069876006 0 0 0 0 -10.632357975402613 13.358704425297219 0 13.358704425297219 254.25940536914277 0 0 0 0 10.459746352876209 -24.037923820639662 0 -24.037923820639662 -36.153250664621737 0 0 0 0 -8.6729716750047139 -9.7398724976636295 0 -9.7398724976636295 -11.360835983789798 0 0 0 0 -158.84917035949888 142.37611238184763 0 142.37611238184763 15.727438320707051 0 0 0 0 -21.73671112415218 55.353460057636767 0 55.353460057636767 -99.63775287937915 0 0 0 0 -3.1093869111866184 -86.453788883520701 0 -86.453788883520701 30.685472420380393 0 0 0 0 198.38821840935816 -153.46079379308867 0 -153.46079379308867 101.81733721425371 0 0 0 0 -124.25997289994405 -237.77341404231629 0 -237.77341404231629 86.99374708689902 0 0 0 0 34.841314082281087 -230.43595296299281 0 -230.43595296299281 294.76207921298192 0 0 0 0 21.747690526192173 -39.690393905799283 0 -39.690393905799283 77.07704201440356 0 0 0 0 302.77632786537652 -195.45048655663777 0 -195.45048655663777 146.14016303360222 0 0 0 0 416.20488826170634 -150.03039469391774 0 -150.03039469391774 -58.378126719948341 0 0 0 0 36.557170559590531 -199.00613739001346 0 -199.00613739001346 428.5430801437833 0 0 0 0 -9.3659701999464229 -8.9643867712317089 0 -8.9643867712317089 -1.4911019580688816 0 0 0 0 33.489530020782013 -224.06979091848189 0 -224.06979091848189 296.2460518338371 0 0 0 0 -31.687471256541095 -28.190592054382556 0 -28.190592054382556 -20.119106705887056 0 0 0 0 -25.270209556885675 -185.15464468368009 0 -185.15464468368009 -3.8714561690212577 0 0 0 0 47.476631186880695 -83.111905692015625 0 -83.111905692015625 -11.918271315031234 0 0 0 0 -182.6949100202437 -67.985611260550286 0 -67.985611260550286 27.560068379272707 0 0 0 0 20.653075286275453 -171.43943438215092 0 -171.43943438215092 -200.23416264955449 0 0 0 0 5.6098834767492098 -23.918701741628539 0 -23.918701741628539 -30.948948524703972 0 0 0 0 73.300583363877649 -107.76038315314145 0 -107.76038315314145 -10.093334531622531 0 0 0 0 170.93096778881409 2.7665820375113981 0 2.7665820375113981 -8.8934212358242064 0 0 0 0 125.20146560689633 -129.58904829898688 0 -129.58904829898688 -2.4570894839343964 0 0 0 0 89.990035590169214 -146.10001077399465 0 -146.10001077399465 68.277116624696646 0 0 0 0 74.825064855441838 -173.49976381071428 0 -173.49976381071428 22.724523501226031 0 0 0 0 90.880331766551308 -236.41213852948749 0 -236.41213852948749 215.49845795023793 0 0 0 0 35.645311985812938 -92.293940999464667 0 -92.293940999464667 0.62075205910514342 0 0 0 0 -84.976939779217147 -89.758681586395141 0 -89.758681586395141 115.03922296625205 0 0 0 0 33.921998568996173 -83.773881700452876 0 -83.773881700452876 -167.90682519264556 0 0 0 0 -71.195453994662216 -76.552398792384338 0 -76.552398792384338 451.06148151937441 0 0 0 0 2.1326469100910965 0.2176030814092158 0 0.2176030814092158 0.58039504220258209 0 0 0 0 9.5243890031072169 -57.440330559833455 0 -57.440330559833455 167.9233890934247 0 0 0 0 31.056430796350782 42.018017066642074 0 42.018017066642074 62.398839820471039 0 0 0 0 -1.2442741827430837 -36.067124429839168 0 -36.067124429839168 -52.284713165070571 0 0 0 0 71.944389150808775 -212.69421647380591 0 -212.69421647380591 -34.074598037255782 0 0 0 0 -0.29663499500143264 -1.2645527661748801 0 -1.2645527661748801 -2.4942220230367766 0 0 0 0 51.919371109838721 50.851575131252957 0 50.851575131252957 -9.6884822778570197 0 0 0 0 131.40304288305379 16.008003803537576 0 16.008003803537576 -22.628032220865862 0 0 0 0 33.407045120350745 21.47354804666611 0 21.47354804666611 36.716232227405271 0 0 0 0 -4.4279608044982979 -7.8724292265851545 0 -7.8724292265851545 31.929466478987706 0 0 0 0 8.5891523846674183 -21.41175209162763 0 -21.41175209162763 -30.657770282055615 0 0 0 0 -18.242553727843529 63.34704256172256 0 63.34704256172256 3.7210276658697694 0 0 0 0 80.597400483211459 23.908497434837955 0 23.908497434837955 3.4149316446746525 0 0 0 0 86.751725335434458 -1.4604593510939594 0 -1.4604593510939594 -22.901844926897866 0 0 0 0 2.6630705573871953 -2.3722537339806173 0 -2.3722537339806173 -6.8363022204132484 0 0 0 0 11.530879686634306 -27.157634262696408 0 -27.157634262696408 -32.405430986653982 0 0 0 0 93.491224214461909 -11.739935849408994 0 -11.739935849408994 -7.7954301378522359 0 0 0 0 11.512730128839541 -13.325000889843993 0 -13.325000889843993 3.0475127520595358 0 0 0 0 167.95573653111137 10.797754590610566 0 10.797754590610566 -149.62639934998333 0 0 0 0 86.807380863549497 -45.21624654057814 0 -45.21624654057814 -67.780766505215979 0 0 0 0 -26.129621852741479 102.43410294856403 0 102.43410294856403 -249.7609246602733 0 0 0 0 60.472506505736987 -111.64440110545911 0 -111.64440110545911 -305.68747937512671 0 0 0 0 1.4961736643190306 -47.824297498313172 0 -47.824297498313172 51.568963479264994 0 0 0 0 75.680437091358385 -35.870985402551469 0 -35.870985402551469 19.168722217047616 0 0 0 0 -34.312029339934497 -189.11104956001691 0 -189.11104956001691 75.210716449919801 0 0 0 0 -2.9258086065841304 -28.82541058205361 0 -28.82541058205361 -26.054699706672576 0 0 0 0 -18.976297540242285 6.6981235215298511 0 6.6981235215298511 40.406783920577254 0 0 0 0 4.7007954526845532 -15.731962649248455 0 -15.731962649248455 -5.6670204008870861 0 0 0 0 29.987928545831892 -19.950083190999976 0 -19.950083190999976 -0.67854396997063304 0 0 0 0 25.001863827765646 -19.792274851755849 0 -19.792274851755849 -53.399072577264178 0 0 0 0 23.743014117189389 -0.8034881714117299 0 -0.8034881714117299 -7.759104318773165 0 0 0 0 22.015951961621493 -15.840703232281985 0 -15.840703232281985 -21.390961135961152 0 0 0 0 -8.5663085522792812 70.50472532650565 0 70.50472532650565 -140.43881027194948 0 0 0 0 -4.0346120005951756 -0.36013955963396427 0 -0.36013955963396427 -0.35091977098264504 0 0 0 0 60.392106302739421 -112.76855462526146 0 -112.76855462526146 -539.61231753374341 0 0 0 0 -206.72254330692203 -40.012679618717812 0 -40.012679618717812 -44.954150694901728 0 0 0 0 -30.938043136233318 -230.13074199561288 0 -230.13074199561288 -63.328850429812519 0 0 0 0 -45.432716322705573 -30.748681982679045 0 -30.748681982679045 110.06175855426045 0 0 0 0 -44.530575571047962 -28.996983579114385 0 -28.996983579114385 112.67331327073452 0 0 0 0 22.675501052130812 -59.753615151135818 0 -59.753615151135818 102.4677219745754 0 0 0 0 -8.3250780195128282 -25.955587806588742 0 -25.955587806588742 -22.588161428103422 0 0 0 0 -152.01911378781983 -111.10856966952815 0 -111.10856966952815 88.929592583452177 0 0 0 0 -84.109960717087233 -30.203317022565443 0 -30.203317022565443 113.75807654680284 0 0 0 0 -19.332431175711463 -61.704554611639196 0 -61.704554611639196 90.526380923224451 0 0 0 0 -11.897261604900223 -68.560762940538666 0 -68.560762940538666 64.235554408943244 0 0 0 0 15.698450822981448 -28.355561649499379 0 -28.355561649499379 -12.746079353858477 0 0 0 0 -6.0371664999875687 -6.1277189225258386 0 -6.1277189225258386 -7.0593769274952551 0 0 0 0 -50.666241609358622 -35.501044591376512 0 -35.501044591376512 30.937437031757781 0 0 0 0 -60.851785454163291 11.472302816096544 0 11.472302816096544 37.70940324259891 0 0 0 0 -31.376060217120539 -46.437263094462651 0 -46.437263094462651 78.719842307832778 0 0 0 0 -12.751235924680714 -17.683595630436685 0 -17.683595630436685 36.824747228665728 0 0 0 0 14.953140182769857 -40.146338456653211 0 -40.146338456653211 41.6493647590205 0 0 0 0 36.38646776198982 -49.789194207793713 0 -49.789194207793713 62.163557316167044 0 0 0 0 -62.102043521255041 -79.779650014628032 0 -79.779650014628032 69.428054691134093 0 0 0 0 2.7680158332881049 -16.427890212057825 0 -16.427890212057825 33.007460824864374 0 0 0 0 151.00630706962829 -124.27532935561806 0 -124.27532935561806 36.018900522167769 0 0 0 0 52.57787975444262 -178.49290581854279 0 -178.49290581854279 75.332584414266421 0 0 0 0 116.04732451214295 -51.394588830466859 0 -51.394588830466859 243.01323660138587 0 0 0 0 -33.376260548329356 -117.96051287205262 0 -117.96051287205262 15.365399053800502 0 0 0 0 -31.50507793482052 -98.143780235542181 0 -98.143780235542181 -58.722489437834156 0 0 0 0 -39.312760081419583 -113.93924447174163 0 -113.93924447174163 33.142011179552355 0 0 0 0 -14.630606163545963 -121.97744902671093 0 -121.97744902671093 23.929324615259247 0 0 0 0 11.847033678918706 -88.617421018757796 0 -88.617421018757796 40.156204592220092 0 0 0 0 -31.829720865806394 -130.98762720933291 0 -130.98762720933291 62.20171588710582 0 0 0 0 32.541948202719823 -160.56787368502489 0 -160.56787368502489 47.477613567536537 0 0 0 0 76.278743053083872 -126.14723049533404 0 -126.14723049533404 31.16201430538058 0 0 0 0 71.20068432439075 -101.62024091917556 0 -101.62024091917556 42.961653683611075 0 0 0 0 -19.714747488882495 -144.72802280529686 0 -144.72802280529686 67.484755378277441 0 0 0 0 -17.041394265199415 -111.14005603793157 0 -111.14005603793157 -14.595632918531919 0 0 0 0 -19.60517257786978 -110.73745095424601 0 -110.73745095424601 36.136165733454618 0 0 0 0 0.61038146702230733 -138.72514719215906 0 -138.72514719215906 65.439139838095798 0 0 0 0 -4.7370069330491624 -14.288756011820508 0 -14.288756011820508 -1.8029457502147799 0 0 0 0 1.4961736643190875 -47.824297498313626 0 -47.824297498313626 51.568963479264539 0 0 0 0 1.1238518195514189 -114.8140203700932 0 -114.8140203700932 150.05760528664996 0 0 0 0 1.4961736643196488 -47.824297498313967 0 -47.824297498313967 51.568963479265847 0 0 0 0 240.37728282122202 -200.98334927293502 0 -200.98334927293502 19.201193787906959 0 0 0 0 84.369860045432688 -71.808008389318729 0 -71.808008389318729 14.54842762565022 0 0 0 0 138.88105716140035 17.985930011752885 0 17.985930011752885 99.534255693180967 0 0 0 0 -256.6506641687273 -20.489728718654078 0 -20.489728718654078 117.74950398398505 0 0 0 0 -31.049589121630561 -11.221700155318103 0 -11.221700155318103 84.749661997595808 0 0 0 0 -48.062168319291231 -41.120030176007731 0 -41.120030176007731 34.545466583185771 0 0 0 0 -72.191717246696044 -89.696476492435522 0 -89.696476492435522 80.185727773638064 0 0 0 0 -67.793735456999912 -14.594101434573986 0 -14.594101434573986 54.599370653182632 0 0 0 0 -118.39680796829225 -47.60526269787124 0 -47.60526269787124 89.386576183096622 0 0 0 0 -136.81952609273048 31.856640603167762 0 31.856640603167762 53.457858379388199 0 0 0 0 -174.49388595426262 -20.756393264660801 0 -20.756393264660801 95.845848396771544 0 0 0 0 -207.45580552349065 67.204371013386208 0 67.204371013386208 48.878439108400926 0 0 0 0 -43.651045144811022 -27.2909687841072 0 -27.2909687841072 -130.00973544579756 0 0 0 0 -83.474903895638818 19.361405290201219 0 19.361405290201219 -38.592158292303793 0 0 0 0 -65.077120530040247 50.370892254514047 0 50.370892254514047 -110.46532484503041 0 0 0 0 -43.898351549683866 -75.214306602803845 0 -75.214306602803845 26.602735665401269 0 0 0 0 -0.0440848005875627 -14.632109153649907 0 -14.632109153649907 31.518000499565268 0 0 0 0 -166.06328856203436 -100.70408153377321 0 -100.70408153377321 42.672101774969633 0 0 0 0 -216.3155785842664 -91.932098455815321 0 -91.932098455815321 88.744047395699454 0 0 0 0 -193.1493100140865 -46.231415372419406 0 -46.231415372419406 101.93157885724031 0 0 0 0 -121.84734563150232 -57.629379409642752 0 -57.629379409642752 58.234786062657804 0 0 0 0 41.505608989008806 -164.32036490779353 0 -164.32036490779353 112.95892002477012 0 0 0 0 -85.205660691691833 -149.81175988963435 0 -149.81175988963435 -3.048846939813302 0 0 0 0 77.606866099016315 -69.112070358413348 0 -69.112070358413348 11.026989408397185 0 0 0 0 40.714213227691175 -153.59749438286178 0 -153.59749438286178 -71.462614886229858 0 0 0 0 -2.8349118784517486 -14.224969472019893 0 -14.224969472019893 -26.141907426772946 0 0 0 0 -100.04819741938854 -2.432436603562337 0 -2.432436603562337 49.338166653617009 0 0 0 0 1.6962312670721356 -13.153472459211811 0 -13.153472459211811 22.416633918390982 0 0 0 0 -387.77766572870678 -248.49858957014885 0 -248.49858957014885 -57.150222956917787 0 0 0 0 -0.018686055415675362 -0.590063260279859 0 -0.590063260279859 -0.23931097176458138 0 0 0 0 7.8230250026917929 152.0054336714179 0 152.0054336714179 -30.566796966030893 0 0 0 0 -14.412567223278529 19.071809681713603 0 19.071809681713603 -33.671844832852003 0 0 0 0 -45.210738889296863 5.6922247406542965 0 5.6922247406542965 57.604404296955636 0 0 0 0 204.37651618315249 -32.517639350386617 0 -32.517639350386617 1.4202506061396889 0 0 0 0 228.75332370625642 -105.74360367734516 0 -105.74360367734516 -61.830136106927966 0 0 0 0 -3.6352541548430128 -4.2966706624619988 0 -4.2966706624619988 -3.3977383788128357 0 0 0 0 -33.36916256327595 18.926764004294455 0 18.926764004294455 -45.815658332941894 0 0 0 0 -85.331754093055224 46.04666480768492 0 46.04666480768492 7.7697568957219119 0 0 0 0 -1.6732068865729293 -1.4269450112256319 0 -1.4269450112256319 -0.66396045485850053 0 0 0 0 90.940444070021726 105.15675859849318 0 105.15675859849318 -7.309126772928721 0 0 0 0 127.52361141311292 -95.399684965907682 0 -95.399684965907682 -55.306751007147795 0 0 0 0 415.83950366866611 9.3309484120409252 0 9.3309484120409252 -20.455162917374764 0 0 0 0 152.71012436149135 2.027344110416152 0 2.027344110416152 301.67540877200008 0 0 0 0 209.318902686613 -54.509584738789727 0 -54.509584738789727 -29.234726003178366 0 0 0 0 149.2918732297519 -54.995725524495356 0 -54.995725524495356 -1.9680226680857231 0 0 0 0 210.78073912361378 -62.066483664040788 0 -62.066483664040788 -80.272110988097836 0 0 0 0 13.078933884578419 -132.71293541912564 0 -132.71293541912564 73.136943193504521 0 0 0 0 -1.171938148886511 -76.303946349467878 0 -76.303946349467878 -132.31323932143664 0 0 0 0 -4.9307710628793817 2.6575279386885269 0 2.6575279386885269 1.3884386741215025 0 0 0 0 -610.24511130628571 -289.3821018689182 0 -289.3821018689182 149.26410525817755 0 0 0 0 -453.73716237275949 -10.601712459868395 0 -10.601712459868395 14.95100733625668 0 0 0 0 1.3721963637992896 -3.6912097311114875 0 -3.6912097311114875 -0.24223225586675312 0 0 0 0 -347.76491122091238 -49.46174053832101 0 -49.46174053832101 -50.967241218643721 0 0 0 0 -512.36193646090032 -116.52172616184271 0 -116.52172616184271 29.020788715292838 0 0 0 0 -411.43192075178922 -53.057536134288057 0 -53.057536134288057 -29.281056671192857 0 0 0 0 -795.73056226585857 -153.7504917344562 0 -153.7504917344562 -27.919199062454936 0 0 0 0 -415.59792988348545 -51.423231586704787 0 -51.423231586704787 25.830855834208705 0 0 0 0 317.75272003865189 -239.87955983626898 0 -239.87955983626898 76.620255547626584 0 0 0 0 -0.18522021068995653 -0.05660958653073056 0 -0.05660958653073056 2.1385269460574072 0 0 0 0 256.54536695349861 -195.51964849928208 0 -195.51964849928208 54.448816609481241 0 0 0 0 8.842111657117016 -24.568018653405204 0 -24.568018653405204 151.74517688491505 0 0 0 0 1.5807153065104875 -1.8236373428777499 0 -1.8236373428777499 6.6353935917175129 0 0 0 0 3.08508774988782 -1.7479796150992755 0 -1.7479796150992755 1.795772471656143 0 0 0 0 -143.22855387919753 -27.657863859345298 0 -27.657863859345298 -34.597412869772597 0 0 0 0 -385.62757367124027 -106.49106766195337 0 -106.49106766195337 -19.921378554014154 0 0 0 0 -281.76403688767778 -68.102658364589843 0 -68.102658364589843 -0.86058597267947334 0 0 0 0 -322.70275379390205 -41.67128351986139 0 -41.67128351986139 6.5078458175057676 0 0 0 0 -296.02306280043831 32.999903176813859 0 32.999903176813859 38.485058839419594 0 0 0 0 9.7901267437467734 -11.607788225958434 0 -11.607788225958434 13.22437483045946 0 0 0 0 -354.48071664859526 -169.15522583380357 0 -169.15522583380357 11.248865182652366 0 0 0 0 41.806025377011565 -65.787427073511481 0 -65.787427073511481 -42.480561845819466 0 0 0 0 164.66578061056452 16.333530997791968 0 16.333530997791968 6.416371047607754 0 0 0 0 -5.4717100957642355 22.11601368345805 0 22.11601368345805 -174.98609800138729 0 0 0 0 2.0771149488524383 -2.7004324337405357 0 -2.7004324337405357 0.017530420935131019 0 0 0 0 83.104159535244776 -40.143846848738576 0 -40.143846848738576 3.0879002093806776 0 0 0 0 283.95708136629855 38.653932939291735 0 38.653932939291735 2.3623677426712675 0 0 0 0 280.82944764304102 -36.052356233200044 0 -36.052356233200044 12.429399255712269 0 0 0 0 337.40578203079122 -116.31077494903366 0 -116.31077494903366 -18.546483215214266 0 0 0 0 199.13206635594361 -100.31805839727986 0 -100.31805839727986 -19.065989766131679 0 0 0 0 259.61065182182756 -85.543434017117761 0 -85.543434017117761 -29.199664793939519 0 0 0 0 -13.509913541813148 -99.051640642049279 0 -99.051640642049279 51.038271740375421 0 0 0 0 147.74638337882334 -75.022956684741075 0 -75.022956684741075 8.3745442447943788 0 0 0 0 142.6497203078614 -119.40250215240019 0 -119.40250215240019 0.37810798751524999 0 0 0 0 146.52051331107447 -127.03473494487844 0 -127.03473494487844 77.746440357501342 0 0 0 0 146.68523022905569 -128.24722188787092 0 -128.24722188787092 31.832326687990644 0 0 0 0 389.10150802387625 -247.24077278982713 0 -247.24077278982713 121.88386442508954 0 0 0 0 505.51084328428624 41.615072639579921 0 41.615072639579921 -5.6381390741826181 0 0 0 0 -10.88260330524372 -7.2974696034043518 0 -7.2974696034043518 110.98710656514442 0 0 0 0 41.611980540500554 -91.326214839342924 0 -91.326214839342924 206.72128993012757 0 0 0 0 84.281879178261988 -33.978849037353939 0 -33.978849037353939 76.044619699926443 0 0 0 0 90.103273119891128 -129.21839721653328 0 -129.21839721653328 87.476886712392741 0 0 0 0 -73.14854517277945 -107.51381654581928 0 -107.51381654581928 56.907581829364972 0 0 0 0 -33.32871179478434 -48.771741108532979 0 -48.771741108532979 41.315877578127584 0 0 0 0 -70.06556370715407 -25.876129994298026 0 -25.876129994298026 46.447875952107097 0 0 0 0 -68.284010255179226 0.8850168518228827 0 0.8850168518228827 78.456549174708925 0 0 0 0 -10.59047874623775 43.310275383580574 0 43.310275383580574 1.490387189906869 0 0 0 0 88.389738551396476 30.004282772229089 0 30.004282772229089 87.90921144715594 0 0 0 0 8.3573655291147588 -19.674200367488083 0 -19.674200367488083 61.372179973219318 0 0 0 0 169.29082428894526 -181.84952693063656 0 -181.84952693063656 323.31296504709189 0 0 0 0 -360.70372964144281 -41.438843392860235 0 -41.438843392860235 98.636715801173978 0 0 0 0 -354.09974954194058 -178.23290716945803 0 -178.23290716945803 225.74952602662916 0 0 0 0 1.8441710872670729 -2.8937509843492428 0 -2.8937509843492428 4.1814824694590023 0 0 0 0 783.92009407619435 -40.008337119747353 0 -40.008337119747353 22.400897749606884 0 0 0 0 289.99718393763396 31.831804821146989 0 31.831804821146989 80.595039202106818 0 0 0 0 325.14886219255914 -106.15026330447745 0 -106.15026330447745 73.463722169572975 0 0 0 0 155.24625602741344 -80.10003482992613 0 -80.10003482992613 45.735662832613798 0 0 0 0 253.00488049462274 -9.9539975188026801 0 -9.9539975188026801 71.501039258894707 0 0 0 0 179.00364549082769 -49.97610973013866 0 -49.97610973013866 53.326986363032916 0 0 0 0 237.07173164002143 17.482055732782101 0 17.482055732782101 25.708460152526641 0 0 0 0 -436.29678583235608 -189.31777261561348 0 -189.31777261561348 -57.668751632238127 0 0 0 0 460.0810950011637 104.6889090145263 0 104.6889090145263 37.675023174945181 0 0 0 0 432.10693158131835 19.521646522705623 0 19.521646522705623 16.814306364075492 0 0 0 0 352.5913874998223 -9.742617838471233 0 -9.742617838471233 51.801073480557989 0 0 0 0 1.6633917958484634 -7.6902590693776745 0 -7.6902590693776745 13.433672287824271 0 0 0 0 335.13639659509954 69.693423616472614 0 69.693423616472614 48.44937943503146 0 0 0 0 413.50670058327523 -35.012775303431113 0 -35.012775303431113 86.300531472264311 0 0 0 0 343.77022139742621 51.798630077538064 0 51.798630077538064 144.62890114011498 0 0 0 0 331.57542457632917 78.597376179250944 0 78.597376179250944 85.779731679193446 0 0 0 0 307.16853473566334 3.8810513777792721 0 3.8810513777792721 40.707231105945468 0 0 0 0 328.29575782623124 43.63860181581731 0 43.63860181581731 -42.151834164159766 0 0 0 0 224.0447526390135 -39.462564468161645 0 -39.462564468161645 39.967489008995244 0 0 0 0 346.50046699591257 5.1321145770388057 0 5.1321145770388057 24.532302181129239 0 0 0 0 406.95246710297033 -8.4549705862139604 0 -8.4549705862139604 -0.52320565808088304 0 0 0 0 142.93643471191444 1.1602357006183865 0 1.1602357006183865 -17.931661580609443 0 0 0 0 249.8374647958226 45.381165130381419 0 45.381165130381419 28.946438875870399 0 0 0 0 123.56905579337945 35.280973339642827 0 35.280973339642827 8.130937736777696 0 0 0 0 18.646764539999367 -20.002056716125004 0 -20.002056716125004 -60.002308624601085 0 0 0 0 95.120254605699301 -95.121470660868113 0 -95.121470660868113 7.3714806611735497 0 0 0 0 -21.968546035363033 -163.2904743630132 0 -163.2904743630132 -51.143250435881555 0 0 0 0 -85.5413416678266 -83.158684753440525 0 -83.158684753440525 26.709054985909574 0 0 0 0 -48.473191825233698 -72.424216360253354 0 -72.424216360253354 84.616378725304912 0 0 0 0 54.712289717660497 -116.39613494474838 0 -116.39613494474838 1.1012656731254538 0 0 0 0 29.133780846981153 -57.251340201474022 0 -57.251340201474022 80.396875567224924 0 0 0 0 -34.494846508131673 -108.23909817878274 0 -108.23909817878274 13.868711023924789 0 0 0 0 -78.897578997080018 -108.26807402965596 0 -108.26807402965596 28.9744116864224 0 0 0 0 -174.36795255770909 -256.39609669405019 0 -256.39609669405019 -117.38057516143562 0 0 0 0 -45.746754830249984 -158.40166426623443 0 -158.40166426623443 -120.84226240175207 0 0 0 0 -71.312179318790243 -188.18306142517127 0 -188.18306142517127 -43.955503001468514 0 0 0 0 147.24913404718063 -405.79659067088778 0 -405.79659067088778 -104.41631900425978 0 0 0 0 26.200454481149166 -22.0533888982701 0 -22.0533888982701 20.213030188070455 0 0 0 0 -141.578814758622 -78.236047034752843 0 -78.236047034752843 -111.0804869053635 0 0 0 0 -17.576517154861904 -136.96465523568384 0 -136.96465523568384 -280.68969314671097 0 0 0 0 -121.66227436704776 -352.59538137906293 0 -352.59538137906293 -261.64376628415755 0 0 0 0 16.203193937468782 -15.389627441484176 0 -15.389627441484176 12.880042137415682 0 0 0 0 -237.04878710628327 29.277676839585183 0 29.277676839585183 89.433160009221865 0 0 0 0 -202.92865917798281 -52.811224973924254 0 -52.811224973924254 112.8957604290008 0 0 0 0 -219.2905835632755 -60.108383992662766 0 -60.108383992662766 140.46025365107926 0 0 0 0 522.95642881574895 40.180285831838781 0 40.180285831838781 -63.389473548699584 0 0 0 0 485.34960384914666 110.74536746492788 0 110.74536746492788 -81.855084989502529 0 0 0 0 368.47927714472098 169.8941198455185 0 169.8941198455185 53.243765967529271 0 0 0 0 319.32133429792157 16.310112305106713 0 16.310112305106713 -58.467511440599083 0 0 0 0 218.59752855865008 28.822311529169269 0 28.822311529169269 1.1404652704565024 0 0 0 0 194.60569944209601 81.742400700816233 0 81.742400700816233 13.128346556304223 0 0 0 0 85.021940758236269 -59.36991913455546 0 -59.36991913455546 -91.753489194512213 0 0 0 0 60.293191701253818 -56.347567337625776 0 -56.347567337625776 -7.5899668131660292 0 0 0 0 238.24193672874117 -2.6885904086197314 0 -2.6885904086197314 -63.698212054910869 0 0 0 0 -78.829840306394544 -156.1993225870076 0 -156.1993225870076 -42.666361072922825 0 0 0 0 -22.154676549937903 9.8810931783452816 0 9.8810931783452816 -85.906748632189647 0 0 0 0 -234.56620989087151 -196.91410552844127 0 -196.91410552844127 -40.714203436346338 0 0 0 0 234.53723972881562 -124.22088926845754 0 -124.22088926845754 -302.45328406178623 0 0 0 0 253.43925768744521 -200.72646604110696 0 -200.72646604110696 -1.8148951231974024 0 0 0 0 195.64542601689936 -81.114832818745526 0 -81.114832818745526 -77.306138561076978 0 0 0 0 187.54091180076648 4.5235600309715664 0 4.5235600309715664 227.28797845536246 0 0 0 0 549.07304047825164 -331.58822022632194 0 -331.58822022632194 -849.69896844303003 0 0 0 0 6.6896943573712058 -4.8052197081612551 0 -4.8052197081612551 3.6740489095510487 0 0 0 0 361.51220078266124 -126.09079316224552 0 -126.09079316224552 -304.22032529835678 0 0 0 0 47.8639746325548 165.27500470059067 0 165.27500470059067 350.05278992860713 0 0 0 0 258.62352723315325 -243.45240180562877 0 -243.45240180562877 -220.1356161491185 0 0 0 0 129.04172709670547 110.40712893843329 0 110.40712893843329 79.679590422094407 0 0 0 0 -192.68294038975182 -110.2393709082944 0 -110.2393709082944 127.83857302725846 0 0 0 0 59.557896684815205 -133.31289839741657 0 -133.31289839741657 45.256017394351147 0 0 0 0 19.706398251943028 -1.4101821235826719 0 -1.4101821235826719 94.503309918121886 0 0 0 0 186.16711568056962 149.74562788499406 0 149.74562788499406 527.10198415553896 0 0 0 0 94.692294702254003 -140.69325511866737 0 -140.69325511866737 417.41680963289036 0 0 0 0 42.678232766265864 -97.949587422852346 0 -97.949587422852346 389.96220744613674 0 0 0 0 19.874390550381918 -12.394992037046677 0 -12.394992037046677 215.94927014521454 0 0 0 0 67.696169260599163 -170.3975636864775 0 -170.3975636864775 197.79698253002425 0 0 0 0 142.42502079568658 -117.80777926431529 0 -117.80777926431529 125.41703810599938 0 0 0 0 180.06312241281557 -182.67339149357031 0 -182.67339149357031 54.010162452583245 0 0 0 0 161.88189529836018 -181.47084510006061 0 -181.47084510006061 218.00930943019557 0 0 0 0 193.11231194217953 -125.57136102240634 0 -125.57136102240634 87.358433092587802 0 0 0 0 257.88721028511281 -175.61505816751014 0 -175.61505816751014 125.52535054534746 0 0 0 0 338.20555771886734 -227.2706467273797 0 -227.2706467273797 317.44872571847372 0 0 0 0 420.23793564530934 506.09957565260993 0 506.09957565260993 938.54296296164102 0 0 0 0 213.86600640298275 -114.85206835623831 0 -114.85206835623831 216.10945549379949 0 0 0 0 1646.1049041396764 1723.050944589173 0 1723.050944589173 1975.2160178440681 0 0 0 0 240.20394294244761 -205.64782159409515 0 -205.64782159409515 317.97155317637277 0 0 0 0 146.19659338587974 -84.967273240518807 0 -84.967273240518807 -51.269689408916747 0 0 0 0 -210.0858330655974 -31.918767204385858 0 -31.918767204385858 85.480288166840637 0 0 0 0 -191.1204123875832 -219.69139737624391 0 -219.69139737624391 10.149814182345381 0 0 0 0 -736.5432951532307 -49.958673155427391 0 -49.958673155427391 252.68551015942103 0 0 0 0 -346.2704152686656 112.54265960193243 0 112.54265960193243 34.202550393758884 0 0 0 0 -0.42661857355579036 -0.63583823964115282 0 -0.63583823964115282 -1.6721889390587741 0 0 0 0 -123.61004973362469 -26.411400724545274 0 -26.411400724545274 51.403242630721252 0 0 0 0 174.7886703603981 -152.21770378086194 0 -152.21770378086194 34.025865754798588 0 0 0 0 0.1666833709063531 -2.4189692564390732 0 -2.4189692564390732 12.916640545582229 0 0 0 0 586.04080365121627 -180.18927705749184 0 -180.18927705749184 -22.128433161317389 0 0 0 0 182.87569458595681 -172.50097267580986 0 -172.50097267580986 -9.4363628614410118 0 0 0 0 215.29441907143337 -103.88942376417572 0 -103.88942376417572 33.656192938111417 0 0 0 0 189.22075634126122 -151.30934673907223 0 -151.30934673907223 10.772625703069934 0 0 0 0 175.26479746119367 -126.45678864857291 0 -126.45678864857291 -24.000023779948606 0 0 0 0 72.636224261552343 2.372918903518439 0 2.372918903518439 -3.4311410735581376 0 0 0 0 156.44624049038794 -123.93705487276702 0 -123.93705487276702 9.8591642669516659 0 0 0 0 -24.835674664669568 -12.161655594411968 0 -12.161655594411968 1.9685857530663498 0 0 0 0 6.9739190538157345 -39.151996828082247 0 -39.151996828082247 13.376840507335146 0 0 0 0 -7.5558238615931259 -47.022610236329285 0 -47.022610236329285 -0.9246040595935483 0 0 0 0 -20.541942789108816 5.7355628757024988 0 5.7355628757024988 -25.512073001762474 0 0 0 0 -28.63471853693045 0.33495247535802264 0 0.33495247535802264 6.483367157745306 0 0 0 0 -10.146359214502493 -12.577300666758138 0 -12.577300666758138 -4.5561875986514586 0 0 0 0 -61.797671077685663 -89.307117290024507 0 -89.307117290024507 53.73741108260856 0 0 0 0 49.000381496847695 -164.22468656196997 0 -164.22468656196997 49.467082480560748 0 0 0 0 91.294015305064022 -98.604182418737309 0 -98.604182418737309 0.33354935305214894 0 0 0 0 -39.970787794547505 -30.751015172709685 0 -30.751015172709685 -27.984092253969663 0 0 0 0 -0.5576714323938603 -4.7150657417803714 0 -4.7150657417803714 -5.2114872045502691 0 0 0 0 -18.198717019080256 -20.689711572072341 0 -20.689711572072341 -23.747100079429089 0 0 0 0 -12.187111472067617 -17.610422157375702 0 -17.610422157375702 -23.885969169737979 0 0 0 0 2.0655247599142967 -29.86637028525379 0 -29.86637028525379 -5.7858885178450237 0 0 0 0 25.619252378957754 -45.235406781920688 0 -45.235406781920688 -30.420352053482361 0 0 0 0 40.171407948379056 45.94194775795404 0 45.94194775795404 -29.473781250598222 0 0 0 0 -43.519905758316213 -11.506131944557922 0 -11.506131944557922 55.950043315482617 0 0 0 0 56.696524261898958 -17.59784693814845 0 -17.59784693814845 -165.46052676229738 0 0 0 0 -8.0815482716152474 62.241392846323379 0 62.241392846323379 95.44606584640087 0 0 0 0 -228.51846827230747 -36.939187812640739 0 -36.939187812640739 119.01835072715585 0 0 0 0 0.27460663294043919 -0.85530862111092176 0 -0.85530862111092176 4.5458874207080164 0 0 0 0 69.081744604751293 5.7423744014058684 0 5.7423744014058684 -13.865262433648468 0 0 0 0 112.14991249473132 -206.67552337084538 0 -206.67552337084538 226.23145261473201 0 0 0 0 -34.036265019512939 -51.562155109260857 0 -51.562155109260857 39.706777533088825 0 0 0 0 -35.74153183020514 -34.312913835278579 0 -34.312913835278579 -21.154180025068431 0 0 0 0 -22.64575057405898 -61.731120529317678 0 -61.731120529317678 41.137273961667233 0 0 0 0 -34.733187093401284 -55.856778865580054 0 -55.856778865580054 54.30640552746263 0 0 0 0 -23.67113501656786 -44.317388688825304 0 -44.317388688825304 -62.274458298423269 0 0 0 0 -99.008473047055304 -58.849227529896325 0 -58.849227529896325 54.493145225826993 0 0 0 0 -69.329175518823831 -31.158013294741068 0 -31.158013294741068 36.432157014831319 0 0 0 0 -102.53411019171108 -23.336670471273919 0 -23.336670471273919 83.035294922234243 0 0 0 0 -82.985749254061375 -59.665752420538411 0 -59.665752420538411 10.728497043307925 0 0 0 0 -107.47248781575036 -46.044811985635079 0 -46.044811985635079 66.858277413761243 0 0 0 0 -2.8470964734821109 -6.2201641895306174 0 -6.2201641895306174 -6.3237053273173984 0 0 0 0 -23.367645633272332 -43.084693291081521 0 -43.084693291081521 -34.375248895801633 0 0 0 0 9.4095085696935712 -39.749260785919887 0 -39.749260785919887 -41.310288055066849 0 0 0 0 -52.940642475510685 -4.7420279242915058 0 -4.7420279242915058 66.430258655211674 0 0 0 0 -22.243239602419635 -5.0154069054624415 0 -5.0154069054624415 46.908314347767373 0 0 0 0 -11.374928437473621 -8.8275556985055523 0 -8.8275556985055523 4.0180104615555834 0 0 0 0 -8.1118394656095916 -13.105610493729955 0 -13.105610493729955 21.980539631053944 0 0 0 0 9.3687160174304154 -72.617102196223641 0 -72.617102196223641 -137.48893070903432 0 0 0 0 -1.2869930995112568 -2.3066544312405455 0 -2.3066544312405455 -3.3349326643337776 0 0 0 0 -5.8973814569726315 -8.2306016375600386 0 -8.2306016375600386 -8.0945592789800642 0 0 0 0 -13.335095050679229 72.430121050369053 0 72.430121050369053 88.759402888383192 0 0 0 0 -2.7352979439710907 -36.107159117789706 0 -36.107159117789706 5.534534582948254 0 0 0 0 -2.9253731638604989 -7.7056213720036375 0 -7.7056213720036375 2.868698037627837 0 0 0 0 -10.105142963468097 -15.470326626097176 0 -15.470326626097176 0.39975909465192672 0 0 0 0 -4.9292129792135171 -6.9866443477470881 0 -6.9866443477470881 4.9540797951854856 0 0 0 0 -7.5765328107820054 -12.285380529785044 0 -12.285380529785044 -2.5355909785898021 0 0 0 0 -1.1096378961829032 -20.806191351857024 0 -20.806191351857024 -6.8553925775258904 0 0 0 0 -12.147146907085698 -14.972690728755424 0 -14.972690728755424 0.58435976975579251 0 0 0 0 -2.0877342748253653 -12.049835190469249 0 -12.049835190469249 -8.8831546206480372 0 0 0 0 -30.418315195958712 -18.069408022548032 0 -18.069408022548032 5.6250635775750197 0 0 0 0 -16.237694007994719 -21.078594873331483 0 -21.078594873331483 -16.809439715845862 0 0 0 0 3.3523992369168809 -33.10313283851707 0 -33.10313283851707 -12.85284995894699 0 0 0 0 -18.972597707652312 -40.972701292277634 0 -40.972701292277634 9.0776641481470506 0 0 0 0 18.164234599866177 -48.482909666789965 0 -48.482909666789965 16.024312499103587 0 0 0 0 -12.332791169348639 -24.704302796540105 0 -24.704302796540105 17.761719955230603 0 0 0 0 20.167553447041428 -36.061777590733072 0 -36.061777590733072 7.1839135633872502 0 0 0 0 -19.473737670887203 -37.645701050328626 0 -37.645701050328626 -4.1281905112409731 0 0 0 0 6.0506713232607581 2.3175675151142059 0 2.3175675151142059 -67.800247304130153 0 0 0 0 26.263120328241712 -81.645233729607298 0 -81.645233729607298 51.891025075048674 0 0 0 0 -7.40739152713941 -16.882842175630671 0 -16.882842175630671 -4.3711820872714595 0 0 0 0 -53.13209455283868 12.037500180067127 0 12.037500180067127 60.009431634647626 0 0 0 0 -2.3513662962905073 -29.076094611899407 0 -29.076094611899407 -1.1368619956747352 0 0 0 0 -17.000877997974385 -39.958592394508514 0 -39.958592394508514 -0.25059635042998707 0 0 0 0 -12.935212364711333 -40.444212682106809 0 -40.444212682106809 21.089880597635783 0 0 0 0 66.4179416286579 -74.955511688156435 0 -74.955511688156435 -44.90155883655143 0 0 0 0 -2.6259497781485095 -20.323660602913971 0 -20.323660602913971 -0.65379670049714389 0 0 0 0 -16.905571252427862 -22.049385812939533 0 -22.049385812939533 2.4510887076799541 0 0 0 0 -25.359660647833152 -24.893644631075915 0 -24.893644631075915 37.019397834580559 0 0 0 0 -4.444361380511662 -4.09158165941707 0 -4.09158165941707 -0.85966725845951686 0 0 0 0 101.10859890863139 -42.114909491771868 0 -42.114909491771868 6.0840903445496224 0 0 0 0 9.6593080761471271 -18.259236837864997 0 -18.259236837864997 11.449858795092339 0 0 0 0 -33.765893418090855 -15.699271675923796 0 -15.699271675923796 22.815615369224133 0 0 0 0 -28.616480693062996 -52.787720029037004 0 -52.787720029037004 -7.2950572018565119 0 0 0 0 -7.574936697699485 -32.996207132367964 0 -32.996207132367964 6.4116834943186518 0 0 0 0 -25.824101059593843 -39.5925297960151 0 -39.5925297960151 -6.7466796639242563 0 0 0 0 -8.7041531223803759 -27.009035229371875 0 -27.009035229371875 3.8821205865497177 0 0 0 0 -5.7989901322871447 -23.12106930016671 0 -23.12106930016671 12.149996873886721 0 0 0 0 8.6985312684382734 -33.194583190710659 0 -33.194583190710659 18.174703364389643 0 0 0 0 -7.4958872112802055 -31.694132485966293 0 -31.694132485966293 6.1182565228982639 0 0 0 0 -1.6791905798786431 -4.9464637413238037 0 -4.9464637413238037 -1.0264240965465135 0 0 0 0 11.429202175768296 -13.751394414473907 0 -13.751394414473907 8.4455655608162488 0 0 0 0 3.0350392263562895 -18.272761658404015 0 -18.272761658404015 8.4638837628501591 0 0 0 0 14.673237903181871 -17.876306025189479 0 -17.876306025189479 11.967711608915124 0 0 0 0 -4.6449956414149227 -2.8960242593017824 0 -2.8960242593017824 0.79120912198885662 0 0 0 0 13.536398644993824 -15.58695017415539 0 -15.58695017415539 13.309697441231037 0 0 0 0 -9.2190301323680615 -27.637825292901198 0 -27.637825292901198 25.783037380340829 0 0 0 0 -37.817746894612355 -27.141168181216926 0 -27.141168181216926 25.861065283274115 0 0 0 0 -209.42687243191904 11.164335471486993 0 11.164335471486993 23.555080205094782 0 0 0 0 -29.63028474758903 -37.605184048138199 0 -37.605184048138199 33.6250149966545 0 0 0 0 16.146435869068227 -28.399649797856 0 -28.399649797856 -27.417013917685836 0 0 0 0 -2.9869914921858367 -1.5085701661943176 0 -1.5085701661943176 1.6443337266218379 0 0 0 0 -223.7418809898918 -123.18699886367722 0 -123.18699886367722 50.835620965550447 0 0 0 0 -169.66593884941494 -107.7371517538744 0 -107.7371517538744 -11.424211809688131 0 0 0 0 -34.918858700795681 -13.020044588234668 0 -13.020044588234668 45.399017643027719 0 0 0 0 34.010164318682655 -28.680577237146281 0 -28.680577237146281 -26.99349644701033 0 0 0 0 8.5293967461857392 -10.378449966846119 0 -10.378449966846119 9.4645954207153409 0 0 0 0 11.301041285016254 -22.162042034774458 0 -22.162042034774458 6.5907025206579419 0 0 0 0 28.173898364762863 -44.46166985590844 0 -44.46166985590844 27.502246609274152 0 0 0 0 6.224974317651597 -20.940581428231461 0 -20.940581428231461 15.458267619907325 0 0 0 0 22.937807911985146 -22.802393189414033 0 -22.802393189414033 17.138022989194724 0 0 0 0 -0.67891979927991741 -6.2683348956576452 0 -6.2683348956576452 2.9695650931596802 0 0 0 0 7.7287555392062757 -22.79028615361818 0 -22.79028615361818 18.058791285748448 0 0 0 0 -11.043380561408412 -34.413094715388524 0 -34.413094715388524 21.234786618797443 0 0 0 0 -6.6004201648915739 -13.436922313629978 0 -13.436922313629978 -4.8266170700633424 0 0 0 0 -103.48634769333307 -117.49803263845513 0 -117.49803263845513 -56.450492433370528 0 0 0 0 -12.765588772190348 -38.674643921360968 0 -38.674643921360968 -23.44614269614009 0 0 0 0 -3.8872994350485897 -155.12915824059655 0 -155.12915824059655 -77.322690251574841 0 0 0 0 -16.823366796292518 -32.262495829035011 0 -32.262495829035011 -6.8825250356020433 0 0 0 0 37.598082575059379 -38.799828368317321 0 -38.799828368317321 4.6548339290075091 0 0 0 0 -64.330667961066013 -153.76039376727223 0 -153.76039376727223 -41.549209770768812 0 0 0 0 -137.89637775359279 -83.107531372084793 0 -83.107531372084793 -70.598501769207132 0 0 0 0 -51.112514638649373 -99.984483232912226 0 -99.984483232912226 -7.1932990607820102 0 0 0 0 -124.97689308594136 -134.35400351009832 0 -134.35400351009832 -47.26148596439316 0 0 0 0 24.938756213795514 -34.046631326064798 0 -34.046631326064798 16.425187143266264 0 0 0 0 19.133642671311463 -89.190735853017031 0 -89.190735853017031 -166.92684290690016 0 0 0 0 26.872679010890351 -51.374676409415827 0 -51.374676409415827 -1.3800298309811296 0 0 0 0 -9.9019318640519352 -26.840325331974768 0 -26.840325331974768 -30.490386282024264 0 0 0 0 -10.234960815409067 -38.320473138458965 0 -38.320473138458965 -100.63345080118916 0 0 0 0 -5.5057445213387837 -60.267583559751756 0 -60.267583559751756 29.229308110718193 0 0 0 0 -47.100149685338693 -54.462286786449113 0 -54.462286786449113 29.194351264950882 0 0 0 0 46.38452135076659 -110.73911653119103 0 -110.73911653119103 22.002185649547755 0 0 0 0 -25.376030139705108 -64.550154810140157 0 -64.550154810140157 8.9101828649991148 0 0 0 0 -12.776064821263773 -24.565940353794637 0 -24.565940353794637 -28.054227638682875 0 0 0 0 46.581272957794027 -81.482901829381319 0 -81.482901829381319 -15.16625371875125 0 0 0 0 34.41889671201352 -47.558601287044439 0 -47.558601287044439 -2.5353892495186301 0 0 0 0 150.55126978595581 -94.503738966363017 0 -94.503738966363017 -37.138503416306776 0 0 0 0 19.660940159577876 -153.36762768052358 0 -153.36762768052358 134.1481553705853 0 0 0 0 -11.106722655650685 -11.681747424959438 0 -11.681747424959438 -9.3519111375788242 0 0 0 0 -45.919387073454104 -79.113905992084881 0 -79.113905992084881 -53.807282073902734 0 0 0 0 -31.632218264817311 -205.77348464336592 0 -205.77348464336592 339.39170090034168 0 0 0 0 -47.864580448898778 -114.32718979011406 0 -114.32718979011406 288.75367166416981 0 0 0 0 138.85761835749145 -135.37563949997639 0 -135.37563949997639 60.60592872180132 0 0 0 0 104.5690078333264 15.49270610992221 0 15.49270610992221 -18.061847169461544 0 0 0 0 99.043671927167452 -79.337844478607622 0 -79.337844478607622 -226.8525161993166 0 0 0 0 31.52366038783839 -14.788014842371922 0 -14.788014842371922 -30.002418469375698 0 0 0 0 -9.8879503814569034 -245.66108075334523 0 -245.66108075334523 -385.67540147282853 0 0 0 0 58.344845292333048 -118.24712626728433 0 -118.24712626728433 -182.7772581675963 0 0 0 0 82.294413412164431 28.852158799834797 0 28.852158799834797 -385.08717643870477 0 0 0 0 44.68935610196786 15.082030073437636 0 15.082030073437636 -3.1908696984773997 0 0 0 0 -117.2342011507335 -138.18291450432343 0 -138.18291450432343 1.5894776179084147 0 0 0 0 19.965165201734635 -53.042810863606064 0 -53.042810863606064 -120.66904044493185 0 0 0 0 -169.13469064290621 -108.83418186684537 0 -108.83418186684537 -54.132123259030777 0 0 0 0 -31.649035655755142 -58.558388587935042 0 -58.558388587935042 -120.88608390075296 0 0 0 0 -50.007357147878793 -129.5813738153056 0 -129.5813738153056 -75.748889840193442 0 0 0 0 -8.6737559866378433 -170.87236872951325 0 -170.87236872951325 -211.73255931451422 0 0 0 0 22.121808504016371 -120.36063372770332 0 -120.36063372770332 -129.28645989094002 0 0 0 0 -9.8680955354648177 -135.8278788410862 0 -135.8278788410862 -124.10459533512676 0 0 0 0 -65.531562092866807 -125.84705733282681 0 -125.84705733282681 -76.547672183594841 0 0 0 0 -43.21323023786389 -57.9069347141753 0 -57.9069347141753 -36.528747715399021 0 0 0 0 174.40727790042547 -92.372918112630032 0 -92.372918112630032 85.794501920536277 0 0 0 0 14.311876543366246 -4.5357349596973933 0 -4.5357349596973933 -5.0541843064893186 0 0 0 0 -151.62957759200071 -109.00199134509057 0 -109.00199134509057 -51.546227528706368 0 0 0 0 132.15981289595015 -265.24080865028731 0 -265.24080865028731 -158.80971569591566 0 0 0 0 -61.748466330020165 -27.195102709192724 0 -27.195102709192724 13.685992429942416 0 0 0 0 -26.482679370515772 -53.500915068669535 0 -53.500915068669535 -26.613825224097639 0 0 0 0 -142.78739744069753 -232.78682530970036 0 -232.78682530970036 -190.51980927616751 0 0 0 0 -173.63520318546193 -62.834981086697553 0 -62.834981086697553 23.259907862419368 0 0 0 0 233.63566046539927 -259.56084835331239 0 -259.56084835331239 -399.27368683674285 0 0 0 0 19.563917840838716 -4.1694959762389301 0 -4.1694959762389301 -9.4860525527823256 0 0 0 0 -437.96766733064396 -198.75971136885619 0 -198.75971136885619 3.669926787735676 0 0 0 0 -177.27376618962444 209.48859001594428 0 209.48859001594428 246.49106420753378 0 0 0 0 -118.5283860969912 -68.561522463436177 0 -68.561522463436177 13.789227038008448 0 0 0 0 -236.7476415308065 -150.40075780852453 0 -150.40075780852453 7.9220981771591141 0 0 0 0 13.637639356242516 -27.207069185664977 0 -27.207069185664977 0.036238059802599309 0 0 0 0 -4.2561744092998897 -2.659758525122482 0 -2.659758525122482 -0.86797126329008734 0 0 0 0 -4.4004687847168942 -3.0010615872205233 0 -3.0010615872205233 -2.3812140668916264 0 0 0 0 -70.736799929947665 7.1120565317869477 0 7.1120565317869477 9.6605436216964335 0 0 0 0 -4.7779707270710787 -14.708776794766891 0 -14.708776794766891 -18.719305511334824 0 0 0 0 -68.748421563912444 -5.6862634151647171 0 -5.6862634151647171 -7.3663419224449171 0 0 0 0 -6.8461129805265033 -13.954312761183596 0 -13.954312761183596 -16.119533455297631 0 0 0 0 167.54280353638205 684.64896182406733 0 684.64896182406733 -5.3305686120002065 0 0 0 0 -38.717875437896353 -16.151405001823694 0 -16.151405001823694 -2.9981197499302041 0 0 0 0 -80.579928085512677 -11.942382470189472 0 -11.942382470189472 -26.411596985528377 0 0 0 0 37.863458378502401 -21.162739601479188 0 -21.162739601479188 -16.023051634158037 0 0 0 0 27.674034177704016 -24.71352926005784 0 -24.71352926005784 -15.047676034944743 0 0 0 0 19.866152473885283 -12.966908579263681 0 -12.966908579263681 -21.981753617178921 0 0 0 0 8.7527848753914625 -9.030252316999082 0 -9.030252316999082 -17.670372489477757 0 0 0 0 -31.51661774632521 -8.477999170325802 0 -8.477999170325802 -39.16745733031712 0 0 0 0 -48.868136342387317 -15.783307443514389 0 -15.783307443514389 -31.937590743553301 0 0 0 0 -9.3660728219279257 -23.732708236929867 0 -23.732708236929867 -22.118391643241232 0 0 0 0 8.1808901758103403 -21.538955418710952 0 -21.538955418710952 -25.21404772166558 0 0 0 0 24.801162629461032 -20.870023486557329 0 -20.870023486557329 -10.230471578470315 0 0 0 0 13.63612776122115 -30.062528859365948 0 -30.062528859365948 -55.949251264425563 0 0 0 0 -4.7922191065088882 -23.673526566929304 0 -23.673526566929304 -11.550378738986893 0 0 0 0 -7.8868928079819716 -20.717698741163474 0 -20.717698741163474 -24.697769450927048 0 0 0 0 -62.62564311236747 -37.616558069168605 0 -37.616558069168605 11.452981917291254 0 0 0 0 -1.0451020901310764 -22.769469511183274 0 -22.769469511183274 -29.961286779514815 0 0 0 0 8.9213251857472642 -26.68287191744821 0 -26.68287191744821 -4.7289611382329895 0 0 0 0 13.152397563632803 -31.668482457205755 0 -31.668482457205755 -13.021630052091496 0 0 0 0 26.272107298835294 -9.8350582777883346 0 -9.8350582777883346 -91.078487794926332 0 0 0 0 3.327459764428589 -1.4019497687863662 0 -1.4019497687863662 -6.5463357780557203 0 0 0 0 -3.2764358383145691 -15.969244379047439 0 -15.969244379047439 -28.352762911881417 0 0 0 0 3.7792691973991168 -47.142907183806528 0 -47.142907183806528 24.21442342728551 0 0 0 0 16.385648224815668 -31.632116382352251 0 -31.632116382352251 33.719381158020042 0 0 0 0 -27.402910273136513 -39.07005788495735 0 -39.07005788495735 39.065276024328341 0 0 0 0 55.644373123148398 -65.035324720840435 0 -65.035324720840435 9.6025110722257523 0 0 0 0 70.550876390829217 -27.765597288995195 0 -27.765597288995195 41.499237674457618 0 0 0 0 26.691457001881645 -46.252615469511511 0 -46.252615469511511 -48.121782448066369 0 0 0 0 37.214156534442736 -76.778137727165813 0 -76.778137727165813 3.9961276669855579 0 0 0 0 33.971841440368735 -74.702960270187759 0 -74.702960270187759 69.226192136356985 0 0 0 0 28.774188890096411 -35.547303883682616 0 -35.547303883682616 -34.403504293066362 0 0 0 0 24.008036033159442 -26.983472338067259 0 -26.983472338067259 -29.788363513060176 0 0 0 0 26.274995553698432 -20.113024232266554 0 -20.113024232266554 -32.080820693281566 0 0 0 0 23.335380117275605 -28.456615742739075 0 -28.456615742739075 -18.302491795730965 0 0 0 0 20.999845887494494 -19.74565656872123 0 -19.74565656872123 -17.55043032642034 0 0 0 0 14.202294053096921 -55.7125941505642 0 -55.7125941505642 -52.612857679087028 0 0 0 0 38.664868021623988 21.242066636385061 0 21.242066636385061 -10.109521781887452 0 0 0 0 1.7953663971457559 -8.1021655541300674 0 -8.1021655541300674 -3.217649059272218 0 0 0 0 -16.74239673523698 -78.574511757382425 0 -78.574511757382425 -31.958912206122477 0 0 0 0 -2.0064990679966286 -69.186073599557858 0 -69.186073599557858 -63.756879576998472 0 0 0 0 51.467455834455905 -87.477437963283592 0 -87.477437963283592 -88.968585476362932 0 0 0 0 -58.092072313193057 -130.85313122183652 0 -130.85313122183652 -64.689921139917715 0 0 0 0 -2.9427240475561121 -158.5239127974537 0 -158.5239127974537 -106.30968078128353 0 0 0 0 -28.228144285683811 -92.767350145963064 0 -92.767350145963064 -63.809870809975109 0 0 0 0 -24.679960066251169 -109.7918138562934 0 -109.7918138562934 -144.72419536615052 0 0 0 0 110.88903974051209 -120.44655770017926 0 -120.44655770017926 -81.307184577872249 0 0 0 0 336.34810429289792 -229.90063852378444 0 -229.90063852378444 35.162669591594749 0 0 0 0 70.447067758359481 -83.065179966342839 0 -83.065179966342839 -43.805054997155821 0 0 0 0 -37.12072688612534 -231.28357523576597 0 -231.28357523576597 43.690823817807541 0 0 0 0 27.920410300324761 -56.797061165669561 0 -56.797061165669561 -10.677008058879437 0 0 0 0 -139.92482582169032 -69.077671206672676 0 -69.077671206672676 48.012204502207169 0 0 0 0 36.804131251069407 -26.735711883739626 0 -26.735711883739626 -5.6013690145027084 0 0 0 0 17.722828732003109 -73.871370081113128 0 -73.871370081113128 -32.548350438926263 0 0 0 0 52.676664182410605 -21.505962596047539 0 -21.505962596047539 -44.139912503684172 0 0 0 0 -152.58004932826589 179.77036364520245 0 179.77036364520245 158.87538893864257 0 0 0 0 463.97678387173801 140.88784607194248 0 140.88784607194248 -100.90081317351724 0 0 0 0 133.86531685087539 -27.968387072949554 0 -27.968387072949554 -44.931772629028274 0 0 0 0 50.94397182809189 -54.81729864373483 0 -54.81729864373483 -34.050325986769167 0 0 0 0 -14.474083762670489 -68.618437868895853 0 -68.618437868895853 -55.429643476199999 0 0 0 0 59.612906357877364 -5.5452750244367053 0 -5.5452750244367053 -105.15264387027855 0 0 0 0 -6.6872391275774277 -8.1531175349959533 0 -8.1531175349959533 -5.2660302425897356 0 0 0 0 -0.82816264391257022 -28.544071316651994 0 -28.544071316651994 -2.8630530210555674 0 0 0 0 18.686634404592041 58.769095251442195 0 58.769095251442195 -29.900913107652741 0 0 0 0 115.48197765620716 431.29192624573625 0 431.29192624573625 89.285729345094296 0 0 0 0 27.763127929756592 -31.492049830019823 0 -31.492049830019823 -48.635355099287608 0 0 0 0 15.880624370292594 8.4919274152344872 0 8.4919274152344872 -53.421708768294891 0 0 0 0 137.46832876151893 220.5292382242842 0 220.5292382242842 43.162636807897798 0 0 0 0 -70.167566964439175 -27.551025428816502 0 -27.551025428816502 -91.860234916777699 0 0 0 0 9.9272678599303816 -1.8701608094071993 0 -1.8701608094071993 -4.29656976208598 0 0 0 0 72.09203277942288 -60.811939162635099 0 -60.811939162635099 9.7120013061467034 0 0 0 0 535.47381650270108 -244.41290840760848 0 -244.41290840760848 -284.38515630399888 0 0 0 0 53.925080588523997 -117.67479934620133 0 -117.67479934620133 213.86419952409051 0 0 0 0 126.20075770980293 -68.162989159372955 0 -68.162989159372955 -298.82632920736796 0 0 0 0 530.66524278870202 283.85744111231179 0 283.85744111231179 -84.651532993535511 0 0 0 0 39.127648822495047 -32.826980561552311 0 -32.826980561552311 6.8352415007767746 0 0 0 0 1.2396806930182436 -2.2519605500162783 0 -2.2519605500162783 -10.621513332795118 0 0 0 0 -444.00128513106029 -63.73340488228132 0 -63.73340488228132 426.77157062353217 0 0 0 0 28.94547973007576 -24.260045550251885 0 -24.260045550251885 20.109295178773323 0 0 0 0 -394.92024227497313 -335.2580205261911 0 -335.2580205261911 53.461254472029395 0 0 0 0 -106.38904234858273 -362.33803695385723 0 -362.33803695385723 -453.43606916224235 0 0 0 0 -22.81692165210552 -104.25495923153358 0 -104.25495923153358 -298.28157402665238 0 0 0 0 110.91269785233453 57.676722676886129 0 57.676722676886129 -236.35140857876104 0 0 0 0 3.5472223228680377 -11.018656405729416 0 -11.018656405729416 -241.90737245773198 0 0 0 0 188.49328040344335 -88.2673208121887 0 -88.2673208121887 -64.97253070907027 0 0 0 0 111.39474201590201 27.553024018299766 0 27.553024018299766 -173.46858568634343 0 0 0 0 324.16042552248109 32.512210521530506 0 32.512210521530506 -202.44654541324417 0 0 0 0 123.50393415118742 207.8994493548671 0 207.8994493548671 71.860067587491358 0 0 0 0 120.11830459410339 107.02554837948264 0 107.02554837948264 -171.07920831954834 0 0 0 0 166.47872516044913 54.206360364545617 0 54.206360364545617 -233.67888174910331 0 0 0 0 170.05675594168565 7.2639975211918681 0 7.2639975211918681 -118.54052554654481 0 0 0 0 155.30208536030841 105.8418934361689 0 105.8418934361689 -193.32916082318116 0 0 0 0 150.37442515077964 72.517170706992147 0 72.517170706992147 -278.29964574221231 0 0 0 0 117.53064940041804 108.81480690533499 0 108.81480690533499 -215.69923503595055 0 0 0 0 101.36537654736458 -58.057146463252138 0 -58.057146463252138 -299.532304980341 0 0 0 0 58.894880998026565 -23.979713946784614 0 -23.979713946784614 -35.940274960510578 0 0 0 0 -9.7124474284646567 -9.236115005252941 0 -9.236115005252941 -39.092323381424649 0 0 0 0 23.410549434629502 -8.2970845299132634 0 -8.2970845299132634 -40.376257602543774 0 0 0 0 -92.673629759679898 -42.554610666207736 0 -42.554610666207736 4.2139055117686439 0 0 0 0 77.663475700537674 -10.039616693524295 0 -10.039616693524295 -101.98307305367052 0 0 0 0 57.85299575971294 5.1370036587832146 0 5.1370036587832146 -80.618034576109494 0 0 0 0 73.729649245309702 70.068363428435987 0 70.068363428435987 -146.28834855038076 0 0 0 0 73.89173794521048 64.881493001925264 0 64.881493001925264 -68.538584976027778 0 0 0 0 21.350383370998316 33.54275464987586 0 33.54275464987586 -85.037335897955927 0 0 0 0 -26.456532627158595 9.5562258348654723 0 9.5562258348654723 -40.532321638529538 0 0 0 0 20.041326750238113 31.608081872327602 0 31.608081872327602 -30.654161136495532 0 0 0 0 -21.372820216616674 -19.800833323923143 0 -19.800833323923143 -30.732271519547794 0 0 0 0 -8.2291429004240939 -18.622570912623608 0 -18.622570912623608 -19.156968383318201 0 0 0 0 -16.199972172916773 -39.427853290671919 0 -39.427853290671919 -44.951629480849078 0 0 0 0 -33.323743856183683 -12.621004290047495 0 -12.621004290047495 -30.317082655616105 0 0 0 0 -18.389428382612095 -10.299674028785375 0 -10.299674028785375 -33.052800698467763 0 0 0 0 -13.610902967348011 -15.63651404308257 0 -15.63651404308257 -36.187146005453542 0 0 0 0 -5.6013008648633331 -38.760947325441521 0 -38.760947325441521 6.1548686221685784 0 0 0 0 54.116687060968616 -85.844028414023342 0 -85.844028414023342 -16.677265236474341 0 0 0 0 -5.1442367391700827 -50.929021751035179 0 -50.929021751035179 42.309001771380281 0 0 0 0 52.825775570834139 -44.890635936699255 0 -44.890635936699255 -82.962083266516856 0 0 0 0 13.632075955509208 -37.116238771071949 0 -37.116238771071949 -39.523299951662921 0 0 0 0 14.291890145672369 -42.890653016518627 0 -42.890653016518627 -5.561190836771857 0 0 0 0 -7.1894729830746655 -42.27009387628641 0 -42.27009387628641 -47.746544369476396 0 0 0 0 20.193797492289125 -22.715621563792851 0 -22.715621563792851 -6.4944944354833369 0 0 0 0 -1.7782641169432758 -2.7684951101339621 0 -2.7684951101339621 0.40833904622823525 0 0 0 0 102.21338539692078 -12.22304790618 0 -12.22304790618 -108.39247833362606 0 0 0 0 179.00025741049831 -66.851826754113972 0 -66.851826754113972 -66.055866823837277 0 0 0 0 27.113681305276423 -21.75640924785494 0 -21.75640924785494 -10.970040465006766 0 0 0 0 -1.476621296446865 -54.979504209993138 0 -54.979504209993138 -20.798590910915664 0 0 0 0 4.2150093277123233 -60.435003766673617 0 -60.435003766673617 -42.41278781490837 0 0 0 0 95.116738403281488 -142.84944404571434 0 -142.84944404571434 -96.751282801866182 0 0 0 0 44.349128890977227 -72.259869456278466 0 -72.259869456278466 -32.185209715884412 0 0 0 0 -11.353443343221443 -98.475091928870825 0 -98.475091928870825 -6.78932562830596 0 0 0 0 -120.67757115208951 8.5662378995039035 0 8.5662378995039035 -37.75829631437955 0 0 0 0 117.83254458609008 -32.790859018077754 0 -32.790859018077754 -32.904183589758759 0 0 0 0 21.712880111979757 -138.72435432943894 0 -138.72435432943894 -164.92147264886444 0 0 0 0 -43.362212009626091 55.403569516089192 0 55.403569516089192 -212.30217339225783 0 0 0 0 -4.5171301963097328 -9.7919790508218725 0 -9.7919790508218725 13.064729792125455 0 0 0 0 4.7353551497653825 -51.723492110468214 0 -51.723492110468214 -42.32446533051916 0 0 0 0 -4.9108412686855445 -67.557735903879802 0 -67.557735903879802 61.868200271805108 0 0 0 0 5.3174987525756876 -28.202373649881956 0 -28.202373649881956 30.303696215398062 0 0 0 0 -1.5329761334287468 -12.678536498029644 0 -12.678536498029644 13.490324048158072 0 0 0 0 28.604531163455249 -65.332506139044199 0 -65.332506139044199 -22.935321491086142 0 0 0 0 -55.676528451249396 20.838555923995045 0 20.838555923995045 102.06610238900976 0 0 0 0 -176.5510905917472 -106.18968571510868 0 -106.18968571510868 59.081330471904948 0 0 0 0 -2.1772291641620143 -90.353954381640932 0 -90.353954381640932 -138.75244489645047 0 0 0 0 -4.3968978261318199 0.46063983928671348 0 0.46063983928671348 1.4884627519040805 0 0 0 0 -145.40659128973857 -218.80941493895443 0 -218.80941493895443 -135.86854260805194 0 0 0 0 -253.80231588480819 -138.73746925240266 0 -138.73746925240266 8.2562568534376624 0 0 0 0 -254.22556308356434 -184.32499428403207 0 -184.32499428403207 4.8915707072992518 0 0 0 0 -68.73864315638275 -187.66546502246092 0 -187.66546502246092 10.142191589067806 0 0 0 0 -182.66960010950424 -216.70109348727419 0 -216.70109348727419 6.0145389122299093 0 0 0 0 16.938525592691803 -215.25466154764126 0 -215.25466154764126 -334.2334567552316 0 0 0 0 -312.37113447408046 -473.76170066823124 0 -473.76170066823124 -257.13008342924877 0 0 0 0 -511.32322627739632 -239.95514797638316 0 -239.95514797638316 138.77781718547885 0 0 0 0 309.44185663712415 -15.174426206700446 0 -15.174426206700446 -857.40608565208822 0 0 0 0 269.68417685000895 213.10803558678526 0 213.10803558678526 -263.09333465293548 0 0 0 0 16.816919141217568 -54.418010224752834 0 -54.418010224752834 -497.62746938539203 0 0 0 0 6.0279672342654465 -9.1747017729912308 0 -9.1747017729912308 11.158963405996097 0 0 0 0 5.5754767016514961 -503.37521291916346 0 -503.37521291916346 -518.7216660950653 0 0 0 0 -263.99605011022413 -350.81070898306007 0 -350.81070898306007 -308.70186684606597 0 0 0 0 -157.21740508759831 -7.4160427967362921 0 -7.4160427967362921 -293.20251528912922 0 0 0 0 -822.32132262412779 -410.08965775466459 0 -410.08965775466459 330.36558953180065 0 0 0 0 27.844372028732323 -47.53913073775766 0 -47.53913073775766 19.175547130187624 0 0 0 0 20.176945682642504 -20.826459236384174 0 -20.826459236384174 16.203518010222055 0 0 0 0 -417.00940401806292 90.784687353898335 0 90.784687353898335 339.29109589566423 0 0 0 0 102.90119719052018 -85.329343488019731 0 -85.329343488019731 -312.35306272343587 0 0 0 0 -320.10883627884323 -596.1500025076748 0 -596.1500025076748 -422.97920748438628 0 0 0 0 -9.3234028337444528 -0.36339348589604015 0 -0.36339348589604015 -0.92045470074780145 0 0 0 0 70.976177597636706 -257.24646180782293 0 -257.24646180782293 -880.15035341449766 0 0 0 0 -267.15785234410941 -41.663592161356064 0 -41.663592161356064 266.5222376492311 0 0 0 0 -109.05686309616976 -110.17015916516038 0 -110.17015916516038 -70.104951189237909 0 0 0 0 -111.93100652965222 -227.66808537860015 0 -227.66808537860015 -170.45497518472985 0 0 0 0 -24.754686256845162 -292.09897886147974 0 -292.09897886147974 -250.82626081605849 0 0 0 0 -62.957438627177908 -130.53614061646113 0 -130.53614061646113 -348.57246750834383 0 0 0 0 -137.20601237559458 -156.83500031531003 0 -156.83500031531003 -200.59465007334074 0 0 0 0 -65.591641326387617 -54.148936494676491 0 -54.148936494676491 -143.13498865417932 0 0 0 0 -158.37348352443223 -185.00913677553581 0 -185.00913677553581 -158.81838403725305 0 0 0 0 -25.935680728648592 -8.103165891110848 0 -8.103165891110848 4.4033143748464676 0 0 0 0 12.46603387292275 -19.525787483012969 0 -19.525787483012969 21.084899083820659 0 0 0 0 -218.62494477115251 -504.88504448288586 0 -504.88504448288586 25.976811791266599 0 0 0 0 -126.09280181849317 81.984433068319049 0 81.984433068319049 305.70621055042284 0 0 0 0 -91.209418159894994 20.158230733195523 0 20.158230733195523 285.06618209579028 0 0 0 0 -238.03431047383128 266.61062534208759 0 266.61062534208759 32.296144449392159 0 0 0 0 -360.36258066533628 -417.76715448692266 0 -417.76715448692266 -455.68149505292695 0 0 0 0 -0.82484870251364839 -2.5407178825627561 0 -2.5407178825627561 2.4269168869869802 0 0 0 0 -579.44640672097739 -312.14295028339984 0 -312.14295028339984 -234.9650433489478 0 0 0 0 -385.44893435287304 -126.28537266071726 0 -126.28537266071726 -81.663515339474543 0 0 0 0 -198.24162580905249 -275.88291179647968 0 -275.88291179647968 -415.48980430226948 0 0 0 0 2.0337363539350548 -5.2690055777245171 0 -5.2690055777245171 4.4384620809345847 0 0 0 0 15.596419350036058 -23.307262930026624 0 -23.307262930026624 24.809855395912763 0 0 0 0 -46.587350746922311 49.869743943803769 0 49.869743943803769 -11.86146341865242 0 0 0 0 85.889770393092476 -141.44898178592666 0 -141.44898178592666 89.748499129491393 0 0 0 0 -239.20383668223076 -423.68408584473946 0 -423.68408584473946 -62.025446710118558 0 0 0 0 -175.35146577261912 -196.07070994029345 0 -196.07070994029345 182.3398943141874 0 0 0 0 -252.0842094788859 -258.37581901514204 0 -258.37581901514204 220.46921620549983 0 0 0 0 -50.672267079746234 -226.25618011914776 0 -226.25618011914776 -192.31426215014653 0 0 0 0 -144.84238012971036 -54.764993239456089 0 -54.764993239456089 -56.527957769983914 0 0 0 0 -153.91778154395058 78.064845513753085 0 78.064845513753085 406.51810775638296 0 0 0 0 -125.953560877977 -115.65310748559568 0 -115.65310748559568 692.33708760305308 0 0 0 0 87.071384238537576 -76.349108291742596 0 -76.349108291742596 500.68143618979229 0 0 0 0 -105.96328206871931 -36.075797994105415 0 -36.075797994105415 518.01512740798353 0 0 0 0 -156.11053426387662 -235.66013793355523 0 -235.66013793355523 309.94695708236395 0 0 0 0 -122.7210439247574 20.367605717365223 0 20.367605717365223 502.9394212339248 0 0 0 0 -461.81960174751293 -312.21596628188854 0 -312.21596628188854 104.30745447108347 0 0 0 0 -204.35257278776407 -335.10042367788265 0 -335.10042367788265 85.477763718095957 0 0 0 0 -309.55036896903039 -154.94555400318859 0 -154.94555400318859 267.62029845720099 0 0 0 0 -176.64623459798167 -275.60375314841804 0 -275.60375314841804 101.65593264331983 0 0 0 0 -472.37979922863678 -6.1996224326089759 0 -6.1996224326089759 -137.38312795673846 0 0 0 0 137.77263223125192 -308.24899089099199 0 -308.24899089099199 -662.38915649689443 0 0 0 0 163.82151225848065 -377.31471574363241 0 -377.31471574363241 -576.57601863596938 0 0 0 0 1.4417956496981787 -195.02934683610511 0 -195.02934683610511 -268.04386281086772 0 0 0 0 -65.415248000812426 -32.497031290200539 0 -32.497031290200539 -623.80213161643042 0 0 0 0 67.641239175640294 -284.87946456319878 0 -284.87946456319878 -188.6718515092507 0 0 0 0 -144.87860548314347 -76.977432517625857 0 -76.977432517625857 40.505904371239012 0 0 0 0 34.855226344974653 -268.70990175219049 0 -268.70990175219049 204.17092078654241 0 0 0 0 280.97590189419861 -265.18934484931378 0 -265.18934484931378 -22.006600900742342 0 0 0 0 53.334311573933519 -141.24699781555682 0 -141.24699781555682 297.49856246959826 0 0 0 0 224.45986091005761 -181.42483753561646 0 -181.42483753561646 197.35474528477062 0 0 0 0 130.59708856414363 -259.26933847670443 0 -259.26933847670443 -19.387096563001251 0 0 0 0 134.69638027378824 -179.98681645378019 0 -179.98681645378019 -294.13674228300806 0 0 0 0 156.35764630776248 -252.46448925035656 0 -252.46448925035656 -314.89645204837052 0 0 0 0 277.29253330411302 -237.22057456985931 0 -237.22057456985931 -279.75682182540186 0 0 0 0 81.564442259874795 -274.42446333439375 0 -274.42446333439375 -236.60499674489256 0 0 0 0 95.882305689621717 -417.54695941827231 0 -417.54695941827231 -342.07202919952397 0 0 0 0 151.03048946515082 21.655726840457646 0 21.655726840457646 -224.54243637264881 0 0 0 0 38.089553717956733 -180.60644149070868 0 -180.60644149070868 -214.3617187255004 0 0 0 0 331.31889708864037 -152.51263754872343 0 -152.51263754872343 -216.10087395745359 0 0 0 0 246.04868579135473 11.265411017599035 0 11.265411017599035 -100.25498982229328 0 0 0 0 530.7271845926989 -21.868251399268047 0 -21.868251399268047 -109.195027628346 0 0 0 0 209.63106212400635 -174.26616948156516 0 -174.26616948156516 -65.033150044982904 0 0 0 0 421.67596260990103 -203.94967427440861 0 -203.94967427440861 -61.688076152760914 0 0 0 0 324.39415865770206 -101.58677125073518 0 -101.58677125073518 89.290345918532694 0 0 0 0 658.76493411239062 -254.38094594369613 0 -254.38094594369613 95.354799881634335 0 0 0 0 666.19370889158017 -786.69025882395363 0 -786.69025882395363 1238.6077657550923 0 0 0 0 348.90915029084863 -180.52587414553273 0 -180.52587414553273 532.61761205573566 0 0 0 0 364.18653865704982 -288.86675073807419 0 -288.86675073807419 523.7956252204458 0 0 0 0 87.638214841179433 87.474714091837086 0 87.474714091837086 792.13852298317397 0 0 0 0 407.55031655544008 -242.97890399947937 0 -242.97890399947937 205.11345442104539 0 0 0 0 164.68542172390516 -377.23680474995126 0 -377.23680474995126 629.65079694977612 0 0 0 0 42.208264047963894 -153.8614488193125 0 -153.8614488193125 1492.2863404277814 0 0 0 0 -22.531922586422297 -309.78494236818369 0 -309.78494236818369 1683.0444245979379 0 0 0 0 -589.03835909955387 -393.04308344921265 0 -393.04308344921265 208.35005284936778 0 0 0 0 0.37691063704028238 -475.85032866207871 0 -475.85032866207871 -213.14695788457175 0 0 0 0 1.5970295129267953 -5.3704100712033522 0 -5.3704100712033522 12.466987337415603 0 0 0 0 305.11923432548792 780.63314059564618 0 780.63314059564618 1305.0854362853197 0 0 0 0 -177.35326443278063 -55.352008478163043 0 -55.352008478163043 -142.64021756662578 0 0 0 0 -356.49240223216384 -213.56392675747884 0 -213.56392675747884 -1.4875044301152229 0 0 0 0 20.044254733147682 150.98251261848418 0 150.98251261848418 352.62666377449295 0 0 0 0 6.434407813558785 -16.717408567041716 0 -16.717408567041716 31.5932831136804 0 0 0 0 398.99268634904593 306.24352873080443 0 306.24352873080443 411.39254400799109 0 0 0 0 -108.53030024666077 282.73152900943023 0 282.73152900943023 800.27447334583576 0 0 0 0 -116.48251035486464 49.411516291720545 0 49.411516291720545 329.17007207823917 0 0 0 0 -151.82235219604991 95.043629804935335 0 95.043629804935335 459.50862870577475 0 0 0 0 -50.383843791685649 103.68009544061715 0 103.68009544061715 381.57273354143035 0 0 0 0 14.812949269013188 167.83287304346959 0 167.83287304346959 371.38322892103497 0 0 0 0 -39.781093024814254 79.989635171316877 0 79.989635171316877 239.06482588365543 0 0 0 0 -32.473303199712973 59.746715128267169 0 59.746715128267169 265.0398709012843 0 0 0 0 -68.120695780402457 84.581292157343341 0 84.581292157343341 420.89434309566468 0 0 0 0 -12.264557822853021 57.1053161504733 0 57.1053161504733 290.18397172504774 0 0 0 0 -96.707858301353554 94.648936034136568 0 94.648936034136568 418.89688695364384 0 0 0 0 -7.9312366245922021 -110.46599494713882 0 -110.46599494713882 165.56988965735218 0 0 0 0 24.597644043049513 -93.517484654890723 0 -93.517484654890723 98.414407257649145 0 0 0 0 -1.0600341877234314 -66.484238162006477 0 -66.484238162006477 110.49107295964495 0 0 0 0 -10.253219074647859 -97.149614488202133 0 -97.149614488202133 67.092550648580072 0 0 0 0 -42.036804943054449 0.063801698895986192 0 0.063801698895986192 20.086343183711506 0 0 0 0 15.549004820702976 -115.33752596324121 0 -115.33752596324121 57.018322754338442 0 0 0 0 -5.2646521550166447 -9.594015690543749 0 -9.594015690543749 -7.7882705511067556 0 0 0 0 2.874003083583375 -78.205443874641787 0 -78.205443874641787 100.703747185049 0 0 0 0 -17.656188709270701 -25.070861465666589 0 -25.070861465666589 -35.217989141788507 0 0 0 0 50.176233140035038 -5.9982642749600927 0 -5.9982642749600927 -40.50095537929883 0 0 0 0 -33.365743384787493 -42.953972843137308 0 -42.953972843137308 -43.372502734528098 0 0 0 0 -87.384909644733852 -41.775514056993416 0 -41.775514056993416 -43.059410605339963 0 0 0 0 -6.6011061041890358 -5.2432632800133518 0 -5.2432632800133518 -2.3439507115253235 0 0 0 0 -72.878925569624698 -33.585992427062592 0 -33.585992427062592 -34.407759196488769 0 0 0 0 -3.6409206722237286 68.767325218123005 0 68.767325218123005 -21.672930484950484 0 0 0 0 -78.555118997061072 27.404221887896711 0 27.404221887896711 -24.910909919677579 0 0 0 0 11.138992784311995 227.03084375020262 0 227.03084375020262 -20.009116083543631 0 0 0 0 -177.08826663597574 61.660949147542851 0 61.660949147542851 -21.065978022600575 0 0 0 0 286.5542388489921 176.09126858191303 0 176.09126858191303 -149.12549926937936 0 0 0 0 264.77600191674355 -29.004062924999744 0 -29.004062924999744 -202.85351608323617 0 0 0 0 156.85674214767641 89.697054260985169 0 89.697054260985169 -206.54110629818751 0 0 0 0 154.53763783170143 162.14827356502792 0 162.14827356502792 -121.02488588068081 0 0 0 0 128.36352538247229 147.68140313247568 0 147.68140313247568 -30.432011084914848 0 0 0 0 112.05688932947669 113.03028978266593 0 113.03028978266593 -102.31561429524118 0 0 0 0 455.75462840925502 190.83260350170167 0 190.83260350170167 -116.37590909330174 0 0 0 0 300.19506452330461 -18.713046641383698 0 -18.713046641383698 120.78331685613375 0 0 0 0 -0.53475122317446733 -0.42751420602549217 0 -0.42751420602549217 2.1339834000886029 0 0 0 0 205.94371066259191 -291.38963423065434 0 -291.38963423065434 -202.83583804325463 0 0 0 0 -116.742677489794 -49.364245373089943 0 -49.364245373089943 925.57957443062696 0 0 0 0 123.05199885759066 -602.58587029657065 0 -602.58587029657065 492.03065917035565 0 0 0 0 1005.5154753290308 -253.22370996501741 0 -253.22370996501741 196.91173919681751 0 0 0 0 553.2325674092499 107.54845019072854 0 107.54845019072854 164.37639580914401 0 0 0 0 -553.68656153000029 -693.10643644761512 0 -693.10643644761512 2593.4193723922654 0 0 0 0 -1.6339275758800795 -57.516116356669954 0 -57.516116356669954 233.74215017988899 0 0 0 0 6.5481681147375639 -555.55446434126452 0 -555.55446434126452 314.22910986548231 0 0 0 0 -84.270988495536585 -557.06178761234332 0 -557.06178761234332 515.73109219421531 0 0 0 0 20.447621678886208 -282.07112587308802 0 -282.07112587308802 344.64899085700199 0 0 0 0 -99.908383726005923 -212.44626860454082 0 -212.44626860454082 32.453615448550408 0 0 0 0 47.648859738690589 -258.77728148232927 0 -258.77728148232927 -124.69742461328133 0 0 0 0 79.309481956461241 -266.47721573554918 0 -266.47721573554918 61.276128099845664 0 0 0 0 33.082730938479472 -302.3731677761516 0 -302.3731677761516 211.25352801368717 0 0 0 0 45.704629925188783 -233.02432434363982 0 -233.02432434363982 74.098150841455208 0 0 0 0 -10.149851924203176 -179.89449020782104 0 -179.89449020782104 142.93364534615102 0 0 0 0 -25.191722176681651 -186.91352788434597 0 -186.91352788434597 316.91650556361492 0 0 0 0 21.725246167161458 -195.10134510025819 0 -195.10134510025819 140.05906858912203 0 0 0 0 72.529063486192172 -151.70993946675662 0 -151.70993946675662 75.17657127550774 0 0 0 0 49.558508109901595 -217.81366353156773 0 -217.81366353156773 122.10058247810775 0 0 0 0 168.30527054477534 -162.13146849475015 0 -162.13146849475015 91.182799422814014 0 0 0 0 91.908861591782625 -178.33756409495618 0 -178.33756409495618 92.857583954993061 0 0 0 0 -5.1209942286106411 -4.7407339802266986 0 -4.7407339802266986 8.9536321591141927 0 0 0 0 -73.289538032334008 -34.953267127669278 0 -34.953267127669278 153.61386074281654 0 0 0 0 -11.295391613380135 -21.33616884020309 0 -21.33616884020309 -26.001132341993035 0 0 0 0 26.506929167065778 -30.108384983241649 0 -30.108384983241649 12.175774587492924 0 0 0 0 37.215522403336649 -66.828588689514163 0 -66.828588689514163 -3.5029557961461251 0 0 0 0 -23.682435473616238 128.34157188326208 0 128.34157188326208 -130.32395037284005 0 0 0 0 3.4318069525259767 -0.94837793159935657 0 -0.94837793159935657 -2.2866619813714593 0 0 0 0 58.489377407085414 -277.35011649966464 0 -277.35011649966464 -37.176415780395473 0 0 0 0 -224.68785609361066 -148.89209302270683 0 -148.89209302270683 45.729637491143876 0 0 0 0 2.4418739425497842 0.80215220496674533 0 0.80215220496674533 -1.4188648628616107 0 0 0 0 499.50327702742061 -221.76524865842021 0 -221.76524865842021 -224.81262144872017 0 0 0 0 -238.53709935539746 -19.136451070455223 0 -19.136451070455223 -3.245448642221163 0 0 0 0 -20.356251303146237 -21.279311066523931 0 -21.279311066523931 -18.241090041986581 0 0 0 0 -5.3465501671404763 -16.214032150842801 0 -16.214032150842801 -28.550962898220533 0 0 0 0 -18.92232224256551 -30.700325429160152 0 -30.700325429160152 -41.249445609198332 0 0 0 0 173.89530623006294 -90.876724767487758 0 -90.876724767487758 -71.667609383417584 0 0 0 0 82.044617469281093 -38.652363765781047 0 -38.652363765781047 -45.516857816666743 0 0 0 0 79.208605502003138 -41.050893026109406 0 -41.050893026109406 -36.979419029754354 0 0 0 0 130.57207846440508 -29.163009786786461 0 -29.163009786786461 -114.55556476551283 0 0 0 0 107.31679469711162 -142.64372396809631 0 -142.64372396809631 -279.14233878720552 0 0 0 0 8.1846257996991767 -27.088656239622992 0 -27.088656239622992 -109.16414553798677 0 0 0 0 5.6737836646098003 5.4842618615566607 0 5.4842618615566607 -55.346607005438273 0 0 0 0 -4.2656358851036016 -8.8530125161715869 0 -8.8530125161715869 -18.830308456297509 0 0 0 0 111.74174502916594 -45.837027909969038 0 -45.837027909969038 10.477694771943789 0 0 0 0 48.858462972067173 -28.875806006688435 0 -28.875806006688435 -27.99442908065248 0 0 0 0 -3.7054673439872978 -16.846676292033976 0 -16.846676292033976 -29.104758393792878 0 0 0 0 51.337692749931534 -11.034161645714676 0 -11.034161645714676 -21.356291052092274 0 0 0 0 68.662720983800682 -32.502101991001837 0 -32.502101991001837 25.638571721341577 0 0 0 0 40.343368500539327 0.58677331520084408 0 0.58677331520084408 -5.8950396639374958 0 0 0 0 -32.553774257949726 -21.306523135743191 0 -21.306523135743191 84.615794096338504 0 0 0 0 80.606454745138763 -13.329429768353293 0 -13.329429768353293 -46.432213130185119 0 0 0 0 97.395551440176405 -55.605632575938216 0 -55.605632575938216 -35.230527787331084 0 0 0 0 103.76615667103783 -32.330709461512015 0 -32.330709461512015 -49.919691485280055 0 0 0 0 59.375227068152071 -32.363196020296527 0 -32.363196020296527 -40.339614023389004 0 0 0 0 -25.774249298070572 -41.311741298690322 0 -41.311741298690322 -52.182897683591364 0 0 0 0 -10.386214424254831 -32.284220925796035 0 -32.284220925796035 -76.566690388799543 0 0 0 0 -6.1624478545886632 -19.971026192008139 0 -19.971026192008139 -60.287134548273571 0 0 0 0 1.0653773064807641 0.69401211611308256 0 0.69401211611308256 -7.077499511251915 0 0 0 0 6.2178628332142125 -4.3297814942434343 0 -4.3297814942434343 -21.685371919069439 0 0 0 0 12.438894314994286 16.247498280368745 0 16.247498280368745 -3.0884540370934701 0 0 0 0 50.189072969956214 26.562233983302576 0 26.562233983302576 -15.634813174026931 0 0 0 0 -58.993586413574121 -96.340219403715309 0 -96.340219403715309 -149.23911743282224 0 0 0 0 -55.514467723009886 -73.279147339834935 0 -73.279147339834935 -83.896282278787112 0 0 0 0 0.15815941959139224 0.48771184614165364 0 0.48771184614165364 -1.8835568570177372 0 0 0 0 106.16303928699199 -10.985643647876714 0 -10.985643647876714 7.3074725730330101 0 0 0 0 13.382041362752716 24.538372081078705 0 24.538372081078705 -156.91521724921813 0 0 0 0 313.1218834057654 427.25881379311886 0 427.25881379311886 220.18035967145988 0 0 0 0 12.283318846261636 -121.72895245522159 0 -121.72895245522159 -130.33911127158535 0 0 0 0 -21.641101354196508 -96.648292829515412 0 -96.648292829515412 -69.06657924645333 0 0 0 0 -5.8866499132408308 -56.880606706286926 0 -56.880606706286926 -121.97118255467649 0 0 0 0 -22.140082691015721 -102.34654552552411 0 -102.34654552552411 -127.77659247829433 0 0 0 0 58.83320398612193 -87.780873538391461 0 -87.780873538391461 -111.60063304214782 0 0 0 0 -133.98218760743021 -137.96002551899437 0 -137.96002551899437 -80.930979000266234 0 0 0 0 -87.439240026730204 -182.97985551786223 0 -182.97985551786223 -51.284168944584962 0 0 0 0 -8.4976579887934349 -221.10255308918568 0 -221.10255308918568 -255.42377257675253 0 0 0 0 239.65027818723229 -57.951240012636845 0 -57.951240012636845 -246.90847080010599 0 0 0 0 -1.7430237359146048 -3.1961428458252126 0 -3.1961428458252126 -6.1038544429247423 0 0 0 0 -250.02318555739566 -186.32265720733631 0 -186.32265720733631 12.503027948634553 0 0 0 0 -23.468876011898374 228.95015583914483 0 228.95015583914483 350.22120372773861 0 0 0 0 -174.12774458439344 -43.573711433746212 0 -43.573711433746212 162.70032463060215 0 0 0 0 -165.2068246780027 -46.789880585649371 0 -46.789880585649371 127.49929818361124 0 0 0 0 -260.36103834133974 -349.55370000972107 0 -349.55370000972107 -210.06766564820646 0 0 0 0 25.20066380557455 -8.3870792571069614 0 -8.3870792571069614 -8.5500980509714282 0 0 0 0 2.5658607194241707 -2.1088345825251196 0 -2.1088345825251196 -2.9807426767065763 0 0 0 0 66.08200007130381 -835.96116551767409 0 -835.96116551767409 -446.15326266119882 0 0 0 0 12.83404923540138 190.41421046707546 0 190.41421046707546 476.76268406117742 0 0 0 0 111.12679932534661 6.6681653293380805 0 6.6681653293380805 -54.625954462739173 0 0 0 0 111.08013323938167 55.724189773720354 0 55.724189773720354 -52.59477130153391 0 0 0 0 399.92812330530319 421.54572994623413 0 421.54572994623413 -357.40415352503624 0 0 0 0 88.491153438912079 -315.47115228586881 0 -315.47115228586881 -640.2828923975103 0 0 0 0 16.463299058695839 -21.607860736286966 0 -21.607860736286966 188.61535609471684 0 0 0 0 71.150213977145199 85.33358932527517 0 85.33358932527517 91.767310648094281 0 0 0 0 57.810672425940538 2.9550596287663211 0 2.9550596287663211 -27.152171275465662 0 0 0 0 34.558635782717758 22.387171435055279 0 22.387171435055279 44.211649852855771 0 0 0 0 22.714168564267766 -20.027349145766493 0 -20.027349145766493 43.322602761525047 0 0 0 0 13.529856088696722 -12.02102206789823 0 -12.02102206789823 -2.4914536572759971 0 0 0 0 13.036097422391606 -8.5418808835052005 0 -8.5418808835052005 -10.099897476302431 0 0 0 0 -25.546674421667376 -35.112897963261275 0 -35.112897963261275 18.326978796068943 0 0 0 0 19.816668268063665 -12.924931454148464 0 -12.924931454148464 -5.1923703602587921 0 0 0 0 -5.7550281080614241 -18.286346289609355 0 -18.286346289609355 -12.247845992747898 0 0 0 0 74.916701794302526 -45.068506055344187 0 -45.068506055344187 -8.6309951751923109 0 0 0 0 -20.551379978443606 -72.591865542834057 0 -72.591865542834057 -65.986157608915164 0 0 0 0 52.087079337497926 -0.64075622986274539 0 -0.64075622986274539 -41.231019628565264 0 0 0 0 45.913334672147812 -1.4719547494623839 0 -1.4719547494623839 -22.898549477704364 0 0 0 0 86.262874551450295 -50.110516309778177 0 -50.110516309778177 -161.78644457141854 0 0 0 0 5.0367666317154089 -42.705084131968761 0 -42.705084131968761 -37.398128914428526 0 0 0 0 -33.748885305650219 -86.822955750929395 0 -86.822955750929395 -57.72958801547702 0 0 0 0 16.409330536123207 -98.191739588135533 0 -98.191739588135533 49.175370509003187 0 0 0 0 -58.277005409465346 -42.671559756872739 0 -42.671559756872739 22.309509563707252 0 0 0 0 -102.92978132937628 -127.11728441039668 0 -127.11728441039668 -5.4892465432385507 0 0 0 0 32.721782495800099 -31.400442862655026 0 -31.400442862655026 -8.097428376668546 0 0 0 0 12.239033789971018 -16.77572736620732 0 -16.77572736620732 -29.971485202906479 0 0 0 0 3.4601591688216131 1.7671135843282073 0 1.7671135843282073 -1.0404621845196935 0 0 0 0 -35.456300728127133 13.925040008583437 0 13.925040008583437 152.24525360166081 0 0 0 0 -1.2654611509328788 -95.059153920827157 0 -95.059153920827157 -254.23652412781485 0 0 0 0 4.0781825986732656 -87.280075388491241 0 -87.280075388491241 -249.22447499552982 0 0 0 0 -10.947352444494555 -103.38258736705797 0 -103.38258736705797 -134.48528328297107 0 0 0 0 0.51015936539715767 -142.40367214604157 0 -142.40367214604157 -207.56796096200924 0 0 0 0 -47.725450973732222 -106.78550665072635 0 -106.78550665072635 -169.00201791465224 0 0 0 0 -9.8913055212465224 -149.97917012075595 0 -149.97917012075595 -141.24087537323066 0 0 0 0 29.350443013933983 -78.036062583420517 0 -78.036062583420517 -112.38575913727982 0 0 0 0 -15.868301429925395 -124.47929518816818 0 -124.47929518816818 -145.6072540467303 0 0 0 0 -42.480569622216933 -116.28871419990901 0 -116.28871419990901 -32.116326469789783 0 0 0 0 18.531617271456128 -168.47378617634695 0 -168.47378617634695 -391.03279491959256 0 0 0 0 -10.691761102858379 -195.93881872874772 0 -195.93881872874772 -195.37099085153022 0 0 0 0 13.391148965576605 -105.95712327960064 0 -105.95712327960064 -216.16748807745898 0 0 0 0 29.393016222798565 -45.288763945372921 0 -45.288763945372921 -292.3501758597813 0 0 0 0 -126.08679080683794 -198.2186055754355 0 -198.2186055754355 -247.85465125662995 0 0 0 0 313.9921448027435 1.0168895825827349 0 1.0168895825827349 -323.14017614401928 0 0 0 0 0.2883542131942029 -2.005991490509385 0 -2.005991490509385 -0.93746430701615679 0 0 0 0 -4.3565757160681642 -87.646185518835409 0 -87.646185518835409 -208.46967289259374 0 0 0 0 -0.79993041273347387 -31.092150572819378 0 -31.092150572819378 46.176095405855449 0 0 0 0 9.9243235687122251 -31.59253122176051 0 -31.59253122176051 -83.190793447913165 0 0 0 0 5.1012964008614858 9.9242983316544269 0 9.9242983316544269 -3.4403847117646364 0 0 0 0 -2.1636568787207797 0.27213576799488237 0 0.27213576799488237 0.87998809633378272 0 0 0 0 11.069161641695473 -25.937164577298972 0 -25.937164577298972 -209.50219804025983 0 0 0 0 30.917580543775557 -40.930936059503438 0 -40.930936059503438 -336.5528104056084 0 0 0 0 25.567885598305338 -31.517875909686154 0 -31.517875909686154 16.242528284526998 0 0 0 0 -1.0928361987162134 0.76670921753429866 0 0.76670921753429866 3.5306780364480801 0 0 0 0 38.259166341865694 -24.301932820961156 0 -24.301932820961156 8.3241584950401375 0 0 0 0 0.52827371934403367 -3.2467858529481917 0 -3.2467858529481917 -1.6255792820048711 0 0 0 0 21.265935882898134 -60.486369124506382 0 -60.486369124506382 52.084906173160562 0 0 0 0 141.0190180952402 -54.520747722319356 0 -54.520747722319356 10.861060428915152 0 0 0 0 -7.9916238243647513 4.3796635624175906 0 4.3796635624175906 -1.167962600273313 0 0 0 0 0.21317476362173104 -1.8220147884895503 0 -1.8220147884895503 -1.2117879023770612 0 0 0 0 49.176094008073392 -31.339254874288599 0 -31.339254874288599 11.463144719054981 0 0 0 0 5.3879717745799098 -11.25174864767223 0 -11.25174864767223 13.816956719980226 0 0 0 0 0.56690296619857128 -3.1042698209423589 0 -3.1042698209423589 0.65613115986150916 0 0 0 0 58.862259234299927 -20.183496578273662 0 -20.183496578273662 8.3818612494969784 0 0 0 0 69.861196298685059 -29.457156047560602 0 -29.457156047560602 4.7204621881173807 0 0 0 0 39.654318037939447 -17.007916192025732 0 -17.007916192025732 11.835181571877911 0 0 0 0 -29.679348293943349 -142.0809892993293 0 -142.0809892993293 -69.867761185629206 0 0 0 0 -3.6064813502118795 -109.34054184239631 0 -109.34054184239631 -105.95429399882414 0 0 0 0 -3.4556390576913145 -136.72762851919651 0 -136.72762851919651 -46.045363709079538 0 0 0 0 -28.818839051461282 -118.55755063987408 0 -118.55755063987408 -96.324733339475642 0 0 0 0 -23.592184650285617 -91.221808171834709 0 -91.221808171834709 -8.8528428077952412 0 0 0 0 -0.058457818163982433 -2.0314504557575113 0 -2.0314504557575113 0.38710353748540172 0 0 0 0 29.809819793169481 -82.09080938310035 0 -82.09080938310035 -47.898075553825038 0 0 0 0 -4.129059472823883 -136.93553741046344 0 -136.93553741046344 -105.37198548215747 0 0 0 0 -18.286138652044428 -58.903669057275692 0 -58.903669057275692 34.072072529106663 0 0 0 0 209.20301103055294 -11.570667925275302 0 -11.570667925275302 -22.33566553775745 0 0 0 0 147.33230480915086 22.801521141243938 0 22.801521141243938 29.884498134149908 0 0 0 0 116.64253697815548 -36.417742337231175 0 -36.417742337231175 6.3439837328255635 0 0 0 0 41.525941585937289 -82.018564027471257 0 -82.018564027471257 -4.3111883618585125 0 0 0 0 38.431957177402182 -73.715932719418561 0 -73.715932719418561 -20.556631481581462 0 0 0 0 8.8308126509646172 -85.681213070032754 0 -85.681213070032754 -7.1043255446675175 0 0 0 0 -4.1728003929097213 -127.83860908046881 0 -127.83860908046881 -19.495077605286497 0 0 0 0 -22.611598439359113 -97.833551268713563 0 -97.833551268713563 -65.234158492159168 0 0 0 0 20.418983883272631 -107.64100696769128 0 -107.64100696769128 20.254540061663647 0 0 0 0 41.841017536104573 -111.41944420497657 0 -111.41944420497657 8.1532730101007473 0 0 0 0 131.08585872521326 -89.391955449696979 0 -89.391955449696979 -1.4952657250123593 0 0 0 0 100.01495628341354 -73.619738823233092 0 -73.619738823233092 8.0383587532433012 0 0 0 0 171.66070507883433 -67.138466149828673 0 -67.138466149828673 -7.640448009578904 0 0 0 0 181.42026475106377 -26.079126099093628 0 -26.079126099093628 14.878082330690063 0 0 0 0 193.07342262440125 -26.554423305977252 0 -26.554423305977252 4.5590283697877112 0 0 0 0 135.25912789924206 -51.35300199778078 0 -51.35300199778078 15.771078162855702 0 0 0 0 171.17376467477607 -62.079413181401833 0 -62.079413181401833 2.2338420617343218 0 0 0 0 164.83968769632207 -37.163798758653456 0 -37.163798758653456 34.115427396467567 0 0 0 0 186.3910869243926 0.55659986301338904 0 0.55659986301338904 56.807972653376055 0 0 0 0 267.65855944975959 25.17583769500834 0 25.17583769500834 4.7545177450447227 0 0 0 0 337.27752427729843 -20.143600233933284 0 -20.143600233933284 -42.20791565502077 0 0 0 0 0.39946050263065497 -1.8597910438870802 0 -1.8597910438870802 0.026024465741855352 0 0 0 0 284.67976881894538 -71.655736790276023 0 -71.655736790276023 -22.290480863688572 0 0 0 0 196.32537853039548 -58.190475385132231 0 -58.190475385132231 -5.5182198777656595 0 0 0 0 197.21301954412979 -82.810945368957618 0 -82.810945368957618 -10.041040343727218 0 0 0 0 235.86957488267672 -31.537038922423562 0 -31.537038922423562 -10.724269749291125 0 0 0 0 238.83919204546442 -48.391385221696055 0 -48.391385221696055 -12.03484713735088 0 0 0 0 124.99831941932916 -69.913781221210229 0 -69.913781221210229 13.933605816440831 0 0 0 0 28.888045307363427 -111.97274918342373 0 -111.97274918342373 22.325119772362086 0 0 0 0 128.56492354968725 -95.984700115116993 0 -95.984700115116993 -16.875247393123573 0 0 0 0 8.1688200955109096 33.651275907189302 0 33.651275907189302 97.405584580415962 0 0 0 0 2.6452242806181254 -2.0893344469816242 0 -2.0893344469816242 1.6388271078066907 0 0 0 0 -8.4298553821595306 -16.018336069702855 0 -16.018336069702855 2.2863302077348635 0 0 0 0 -0.37628882522391477 -1.0841726239211482 0 -1.0841726239211482 0.31351401147567515 0 0 0 0 160.7649065118585 67.597949546269774 0 67.597949546269774 -100.89808468783758 0 0 0 0 18.733521643157928 5.5535454084438243 0 5.5535454084438243 -23.318897783015018 0 0 0 0 43.353705913930071 -26.065967211334282 0 -26.065967211334282 576.70685311021953 0 0 0 0 188.78615048201007 -320.70752362715621 0 -320.70752362715621 -158.00428252615893 0 0 0 0 -3.0042015792742092 -14.694496012720947 0 -14.694496012720947 20.236867834231816 0 0 0 0 -19.470747145228401 -134.29829839350714 0 -134.29829839350714 214.14294375573263 0 0 0 0 -36.152537447262262 -23.766029079461987 0 -23.766029079461987 -34.807929510587201 0 0 0 0 10.211642383063918 -385.98745035554884 0 -385.98745035554884 -240.20744021220071 0 0 0 0 436.59673665477203 -301.77757556535198 0 -301.77757556535198 -291.17081155265168 0 0 0 0 14.708514211831101 -15.227858374282182 0 -15.227858374282182 15.78505901442167 0 0 0 0 -46.358539654687462 -72.705363951753782 0 -72.705363951753782 28.490260473983653 0 0 0 0 -4.4818570800314319 -16.693079616678915 0 -16.693079616678915 -2.8780790069467912 0 0 0 0 -95.123754204748366 23.584214017227623 0 23.584214017227623 -135.47115076775344 0 0 0 0 7.1377409004198853 -31.174007236181751 0 -31.174007236181751 -219.31077799251898 0 0 0 0 194.49243487325157 121.48823459514119 0 121.48823459514119 68.243304480752158 0 0 0 0 -15.403679678961453 -80.535188656783475 0 -80.535188656783475 -94.81847873239667 0 0 0 0 66.301480701398759 53.116725440777373 0 53.116725440777373 -200.93450190413023 0 0 0 0 46.042909585361031 105.78948518425545 0 105.78948518425545 -103.76975297768695 0 0 0 0 -16.92003061989999 65.652737143798731 0 65.652737143798731 43.556274930918562 0 0 0 0 -14.769429500730894 -2.865759154171883 0 -2.865759154171883 -100.43534820196965 0 0 0 0 -41.720674917698943 26.006834843954039 0 26.006834843954039 -61.545281854157111 0 0 0 0 -27.753589688064494 12.026578909787531 0 12.026578909787531 -83.927275622616889 0 0 0 0 -46.821570798378161 30.240564171424467 0 30.240564171424467 -3.2228768692766607 0 0 0 0 -4.4218545525223032 -2.914456270530918 0 -2.914456270530918 -8.1944539654392123 0 0 0 0 14.551992513331243 -64.705096155254978 0 -64.705096155254978 -44.76402371175709 0 0 0 0 22.92636625187788 -23.236016861817689 0 -23.236016861817689 -105.99590142926991 0 0 0 0 3.1059642974610142 27.380502271862952 0 27.380502271862952 -106.22775069238514 0 0 0 0 -1.5821602328421545 1.1811367007099065 0 1.1811367007099065 0.61400215687739634 0 0 0 0 43.59341138734635 -11.592846503817782 0 -11.592846503817782 -195.12061330300492 0 0 0 0 1.8544797223728295 -91.030297056803363 0 -91.030297056803363 19.391054845984399 0 0 0 0 6.3779012054093691 -17.933657503520596 0 -17.933657503520596 -13.938586694472448 0 0 0 0 6.586381568487468 -24.322311068047384 0 -24.322311068047384 -8.0858617406593112 0 0 0 0 15.331941140110294 -9.4252588488078288 0 -9.4252588488078288 -24.41107970025805 0 0 0 0 11.861453422155591 -9.8133414501680818 0 -9.8133414501680818 -23.838904373795231 0 0 0 0 15.506995541420405 -9.8371871157809032 0 -9.8371871157809032 -10.002477633790308 0 0 0 0 4.0789379335255767 -18.140537468518978 0 -18.140537468518978 3.6438053550547238 0 0 0 0 0.10313230434258003 -17.009643854922615 0 -17.009643854922615 5.1091954514849931 0 0 0 0 4.6529761277986381 -63.144159974370268 0 -63.144159974370268 -32.908835149548395 0 0 0 0 6.7483741043506598 -27.41371248606265 0 -27.41371248606265 2.2286432593027712 0 0 0 0 -7.5893273249305366 -20.733203966037166 0 -20.733203966037166 -13.825169254922216 0 0 0 0 2.8690153315265086 -19.265121383161475 0 -19.265121383161475 -28.315782926158196 0 0 0 0 11.980520505782806 -29.445522485775655 0 -29.445522485775655 -23.362967474193283 0 0 0 0 6.3207070398950922 -16.866599867156502 0 -16.866599867156502 -12.123638271655736 0 0 0 0 39.596865115777291 -53.368421516264789 0 -53.368421516264789 -61.465050495440664 0 0 0 0 11.750668109108119 55.295911679964775 0 55.295911679964775 -110.70744905530591 0 0 0 0 10.413454287740933 -16.561432245856849 0 -16.561432245856849 -23.716734490032081 0 0 0 0 14.600650475308953 -13.658022123502175 0 -13.658022123502175 -31.419513369682051 0 0 0 0 159.27454021369522 -22.467940433009062 0 -22.467940433009062 -127.75975648699387 0 0 0 0 136.59244528913223 -147.73168408788479 0 -147.73168408788479 4.9908878200585605 0 0 0 0 50.23840852762055 -54.325434234081513 0 -54.325434234081513 -64.371290148570552 0 0 0 0 21.573194760432671 -20.449647898454714 0 -20.449647898454714 -37.742640418808151 0 0 0 0 21.327186915301354 -18.318832609311357 0 -18.318832609311357 -31.49358887822018 0 0 0 0 10.973601636902458 -16.881374537657393 0 -16.881374537657393 -28.889197412478097 0 0 0 0 24.07689714465323 -33.309702798404032 0 -33.309702798404032 -28.706800310137623 0 0 0 0 14.340740578495105 -11.812787248932946 0 -11.812787248932946 -15.406604579709587 0 0 0 0 26.476698602064062 -23.0682849970799 0 -23.0682849970799 -27.15976254385896 0 0 0 0 29.966076323540847 -6.6420670911643356 0 -6.6420670911643356 -24.130238416153588 0 0 0 0 35.697683947225414 1.0837616088510913 0 1.0837616088510913 -24.237238008136046 0 0 0 0 29.611689859835678 -10.523592496865604 0 -10.523592496865604 -16.988050962601847 0 0 0 0 9.1964940247708 -18.720638351311209 0 -18.720638351311209 9.097780708107166 0 0 0 0 7.1983524766145166 -8.7630556734845548 0 -8.7630556734845548 -8.0923518388632445 0 0 0 0 1.0208937876936943 -23.280592798872021 0 -23.280592798872021 6.559253990475554 0 0 0 0 18.246524341126133 6.94634871991002 0 6.94634871991002 -19.961661318499864 0 0 0 0 13.43090907592341 2.2675466662440158 0 2.2675466662440158 -24.010990285863954 0 0 0 0 0.0041029909128385 0.046957703099796078 0 0.046957703099796078 -1.1722210677227041 0 0 0 0 5.5521177218629223 -7.2182553434403633 0 -7.2182553434403633 4.7671898058882363 0 0 0 0 -3.2180428757379183 -1.6994220119241739 0 -1.6994220119241739 1.1236993210291217 0 0 0 0 5.1953498836105609 -12.708670758984226 0 -12.708670758984226 3.8513819878426148 0 0 0 0 -6.5125282656165382 -12.754948021840391 0 -12.754948021840391 4.9164887063134302 0 0 0 0 -2.8760634259208473 -13.654336103692003 0 -13.654336103692003 -0.43622785178285994 0 0 0 0 -7.7507357416594687 -21.097091476240166 0 -21.097091476240166 6.0860003759116807 0 0 0 0 6.3920303054214855 -30.935668653082757 0 -30.935668653082757 -8.1573886172263883 0 0 0 0 -0.20410179238206183 -16.823662921690811 0 -16.823662921690811 -123.4624743034633 0 0 0 0 16.566093376329579 -19.197780410656648 0 -19.197780410656648 12.117417952417769 0 0 0 0 20.541014295156856 -81.158946660748597 0 -81.158946660748597 19.565503705374795 0 0 0 0 9.417483050005103 -61.868321043776632 0 -61.868321043776632 46.661924595781841 0 0 0 0 -0.017689651737137942 -86.103217125515386 0 -86.103217125515386 4.4490465388116718 0 0 0 0 39.78049965853279 -43.017748518636836 0 -43.017748518636836 1.1002953738625365 0 0 0 0 47.150950343762815 -58.947423419093866 0 -58.947423419093866 24.015076227049576 0 0 0 0 47.410216909178416 -57.285427644769243 0 -57.285427644769243 27.091734563283353 0 0 0 0 51.136336003887664 -71.935643780379337 0 -71.935643780379337 34.837469917654744 0 0 0 0 47.526084182312388 -68.69015725426712 0 -68.69015725426712 50.224828901518777 0 0 0 0 49.852912505026325 -79.913531345825504 0 -79.913531345825504 41.388842243114595 0 0 0 0 41.204884110702551 -54.247934522883497 0 -54.247934522883497 53.981974366484792 0 0 0 0 32.906356577903352 -89.531144499065704 0 -89.531144499065704 139.93093750148637 0 0 0 0 0.59427729221923187 1.1093895480111158 0 1.1093895480111158 0.42162692128410884 0 0 0 0 55.246392574488709 -92.609194870241481 0 -92.609194870241481 56.221851091409235 0 0 0 0 -1.5818963090070781 -1.3273290790144188 0 -1.3273290790144188 -0.77522017856419012 0 0 0 0 48.216649809677619 -60.984296297848687 0 -60.984296297848687 74.550474057115025 0 0 0 0 0.45836318743022275 -7.6067475717306934 0 -7.6067475717306934 -12.383110444329759 0 0 0 0 -7.3301175756514567 8.3680776116641482 0 8.3680776116641482 -10.955983851965357 0 0 0 0 -2.7141278288555952 -1.8431491608216817 0 -1.8431491608216817 0.61065663155124739 0 0 0 0 12.07011010844144 3.4957629705331783 0 3.4957629705331783 1.0624871475865802 0 0 0 0 39.174204322407604 -6.6932557832460589 0 -6.6932557832460589 -1.5823510673835699 0 0 0 0 -1.6754923902568351 -0.56611995304444918 0 -0.56611995304444918 0.6303265763577599 0 0 0 0 -78.127674133022083 -23.63778964114772 0 -23.63778964114772 -4.0155956510520809 0 0 0 0 -98.713450630006264 -154.94879176954055 0 -154.94879176954055 -1.6369846175415432 0 0 0 0 16.687624361712551 -152.80012916938068 0 -152.80012916938068 -3.7449694325787277 0 0 0 0 -3.0611792334784695 -57.854850257417866 0 -57.854850257417866 109.87338743901455 0 0 0 0 -20.756629838506342 -103.07097084826637 0 -103.07097084826637 50.699604056948459 0 0 0 0 -0.028591149377461988 -95.040840637235078 0 -95.040840637235078 -13.373741455326126 0 0 0 0 -10.020017490940518 -128.89819294543327 0 -128.89819294543327 -30.337955525617645 0 0 0 0 0.0026606605060806032 -101.77026800610622 0 -101.77026800610622 -101.91304962185859 0 0 0 0 -6.1498209540586686 -110.78398043260859 0 -110.78398043260859 -164.2691823565342 0 0 0 0 -98.339213900813775 -84.853537597716695 0 -84.853537597716695 -87.929572815465235 0 0 0 0 -68.352142749961786 -121.39542116658549 0 -121.39542116658549 -82.353221506054069 0 0 0 0 -15.048085731898027 -92.204861490716212 0 -92.204861490716212 -91.843802472717925 0 0 0 0 -16.143066241915221 -83.943027441244794 0 -83.943027441244794 -65.07712777823599 0 0 0 0 0.081406486006017076 -111.92983216186104 0 -111.92983216186104 -41.037087832048002 0 0 0 0 -159.5733820681844 -92.14526680636024 0 -92.14526680636024 -60.254747068595179 0 0 0 0 0.28697981793699334 -1.6412856949987997 0 -1.6412856949987997 -0.201822607401688 0 0 0 0 -87.86620032103383 -30.40881497971975 0 -30.40881497971975 -10.726516794993017 0 0 0 0 110.51777443498349 -29.457325206211571 0 -29.457325206211571 -4.6509214815828273 0 0 0 0 10.517271900476771 -37.878814058143377 0 -37.878814058143377 -0.052545018171144875 0 0 0 0 -162.52625633835851 -51.413876822572313 0 -51.413876822572313 -25.720327295151264 0 0 0 0 -89.476119606479187 -26.5254202606219 0 -26.5254202606219 -124.23843511092184 0 0 0 0 -95.028819998275139 -61.372051586943144 0 -61.372051586943144 -43.265125635338791 0 0 0 0 -82.121395266796753 -108.3494054251272 0 -108.3494054251272 -75.543676866908527 0 0 0 0 -67.074022929773491 -102.77642300872117 0 -102.77642300872117 -152.49187102541265 0 0 0 0 -162.3164580021039 -128.78369330790565 0 -128.78369330790565 -50.88086088560317 0 0 0 0 -74.193455135868135 -53.159106265788694 0 -53.159106265788694 -12.734985730960943 0 0 0 0 -88.683298571500927 -118.87378502413299 0 -118.87378502413299 -74.457306364315627 0 0 0 0 3.1899441759742331 -42.88263975735731 0 -42.88263975735731 -164.15599833723127 0 0 0 0 -101.11570860293864 -126.87389420558618 0 -126.87389420558618 -79.502682627867216 0 0 0 0 3.9487482632612227 -14.204274907211015 0 -14.204274907211015 -64.025578379296348 0 0 0 0 -19.771707663145207 -0.49265261755544998 0 -0.49265261755544998 -14.8560440351539 0 0 0 0 -1.2003223590741285 -2.3014833151583929 0 -2.3014833151583929 -3.8199507852744503 0 0 0 0 3.2114447768981336 -26.82954808313707 0 -26.82954808313707 -11.740941439860762 0 0 0 0 10.620551544205227 4.5872585523102316 0 4.5872585523102316 -10.788365750074149 0 0 0 0 34.362528493109494 -10.063358571806759 0 -10.063358571806759 -9.9155131663947031 0 0 0 0 19.039396397442033 -12.839181686531049 0 -12.839181686531049 -14.788531639731985 0 0 0 0 5.1344614420722792 30.895871527118686 0 30.895871527118686 -110.22181304792787 0 0 0 0 -0.88776127163162499 -1.4763918682189825 0 -1.4763918682189825 -1.0188583975073211 0 0 0 0 4.6119419418546386 -74.105374662963342 0 -74.105374662963342 -13.682906534986785 0 0 0 0 5.471951484778856 -78.037005485101332 0 -78.037005485101332 -57.835781923295897 0 0 0 0 -87.558814637057367 -158.6398698457167 0 -158.6398698457167 -122.79944121909962 0 0 0 0 97.516209760826314 -2.6346756036964791 0 -2.6346756036964791 -23.515151964905044 0 0 0 0 -1.5121800728472579 -6.8484850777509365 0 -6.8484850777509365 -2.8839715950505678 0 0 0 0 68.583158468172769 -119.29223532634654 0 -119.29223532634654 14.612254298289486 0 0 0 0 155.92454975371948 -61.596094865034843 0 -61.596094865034843 -46.547100094939637 0 0 0 0 42.872010141871215 23.775448054986015 0 23.775448054986015 -8.9865248456246718 0 0 0 0 66.391221441910602 -86.114383905349115 0 -86.114383905349115 19.213959220715424 0 0 0 0 115.19093763822093 -29.177793409162405 0 -29.177793409162405 -21.707765235263878 0 0 0 0 34.570201369664574 -11.942862474881395 0 -11.942862474881395 -25.25292865778431 0 0 0 0 44.199791035327507 -23.9858711130492 0 -23.9858711130492 -11.098448727223513 0 0 0 0 26.040303547841177 -17.053401135438435 0 -17.053401135438435 -11.858867409994673 0 0 0 0 -32.842890074825846 -60.219643795355296 0 -60.219643795355296 -20.438957577898691 0 0 0 0 23.893740642646321 -20.869782448783099 0 -20.869782448783099 5.3869385681288584 0 0 0 0 15.76293023283506 -47.25137808843283 0 -47.25137808843283 -33.519937233503242 0 0 0 0 -30.020527387987386 -70.772544957560967 0 -70.772544957560967 7.7641706966496713 0 0 0 0 -58.082989615693805 -64.080767788092999 0 -64.080767788092999 -35.856715677323336 0 0 0 0 2.4404324603956411 -7.4245095123049456 0 -7.4245095123049456 -1.9973688260321247 0 0 0 0 10.607275106987373 -6.4292351865147417 0 -6.4292351865147417 -2.2025608791839222 0 0 0 0 25.69548614327141 -15.384863887781989 0 -15.384863887781989 -2.5361163233455954 0 0 0 0 16.099168675384135 -7.3679736229598802 0 -7.3679736229598802 -8.422943628380267 0 0 0 0 -0.38834369151844328 -3.8245326308227021 0 -3.8245326308227021 -5.4281323989859782 0 0 0 0 9.8587875139382959 -0.65869753968718214 0 -0.65869753968718214 -7.2742934724601582 0 0 0 0 -1.6870994376586168 -3.1898146267694756 0 -3.1898146267694756 3.3227112249996935 0 0 0 0 2.8406662707697876 -0.97210212068378965 0 -0.97210212068378965 -1.4346837128991048 0 0 0 0 5.3593171511020046 -8.5590236183652451 0 -8.5590236183652451 -3.7346839060392085 0 0 0 0 13.689969993522027 -10.250348679431454 0 -10.250348679431454 -3.4401157153915847 0 0 0 0 2.2154230746569681 -1.7282600847986487 0 -1.7282600847986487 0.88337387161735847 0 0 0 0 3.6547727342112921 -14.604419860006828 0 -14.604419860006828 -7.0769781028211582 0 0 0 0 6.692524558671721 -6.2741143103748982 0 -6.2741143103748982 -5.6578570863571258 0 0 0 0 61.409369571898424 -60.978462705777929 0 -60.978462705777929 46.053517486778674 0 0 0 0 61.003776843762807 -55.475705216758769 0 -55.475705216758769 10.460884739068206 0 0 0 0 -4.0138473570518443 -6.8912031267225728 0 -6.8912031267225728 -7.7519012621448589 0 0 0 0 126.82384534583252 -72.644375047305402 0 -72.644375047305402 7.8626465475308578 0 0 0 0 -30.157694752524549 -38.580581966035879 0 -38.580581966035879 -16.824052226850654 0 0 0 0 6.8724308121442448 -12.771266035442196 0 -12.771266035442196 -7.8849801542604361 0 0 0 0 0.67041281038473244 -37.942364474376973 0 -37.942364474376973 -21.479434725414649 0 0 0 0 2.3871706406425801 -32.501952050433829 0 -32.501952050433829 -21.83250588372934 0 0 0 0 -13.679331590648189 -29.858600999126239 0 -29.858600999126239 -18.335582064542905 0 0 0 0 -16.184932742617093 -43.162896526061559 0 -43.162896526061559 -21.049468581699102 0 0 0 0 10.859504724052385 -38.804463577679144 0 -38.804463577679144 -20.659755740238325 0 0 0 0 -3.2120125307192211 -29.490169108219106 0 -29.490169108219106 -17.464090639759888 0 0 0 0 8.2224078880972229 -39.419150935876132 0 -39.419150935876132 -22.418040597643994 0 0 0 0 -14.406462011189433 -28.443770616353504 0 -28.443770616353504 -26.563954931627904 0 0 0 0 -26.208174090445027 -37.715795790938046 0 -37.715795790938046 -16.400829071557382 0 0 0 0 0.95093784533673897 -13.536255995361898 0 -13.536255995361898 -3.0551382139378802 0 0 0 0 -28.010788831364152 -50.606810424091179 0 -50.606810424091179 -26.193194828460946 0 0 0 0 19.009662059185345 -8.2611629965495439 0 -8.2611629965495439 -5.6697903039004345 0 0 0 0 -13.931105190323478 -36.296572937463026 0 -36.296572937463026 -29.401434932031407 0 0 0 0 59.310972396386205 -6.4748702131591926 0 -6.4748702131591926 21.09466909040907 0 0 0 0 25.713725063367747 -29.33941559379673 0 -29.33941559379673 -17.392445252136895 0 0 0 0 8.420128959849535 -36.763815529871636 0 -36.763815529871636 -6.6009651967069658 0 0 0 0 19.16211418081366 -26.23414661082461 0 -26.23414661082461 -20.933721938983197 0 0 0 0 31.471371561232445 -39.52669101296226 0 -39.52669101296226 -15.560678175327666 0 0 0 0 81.80580610204197 -23.385122313390411 0 -23.385122313390411 -33.585183826763569 0 0 0 0 19.931374218102064 -30.614412037938621 0 -30.614412037938621 -8.7946024946913894 0 0 0 0 170.68794250310384 -26.948800994381145 0 -26.948800994381145 -63.037032468839243 0 0 0 0 76.692682226879697 -81.206753210435181 0 -81.206753210435181 -91.234649146562788 0 0 0 0 -0.36603610841108036 -1.0714062327608929 0 -1.0714062327608929 -3.0763218735050994 0 0 0 0 -55.18278058712167 -196.28588399390173 0 -196.28588399390173 -105.31546747264019 0 0 0 0 137.00181072083069 60.26294235657565 0 60.26294235657565 -62.310732068666312 0 0 0 0 -47.82725076713109 -66.799444662852267 0 -66.799444662852267 61.064836607875804 0 0 0 0 14.037568874928979 -184.73218923397229 0 -184.73218923397229 -13.757611721318426 0 0 0 0 -32.755417662818218 -134.0510668488937 0 -134.0510668488937 -35.57621779345709 0 0 0 0 24.462626723041467 -2.3309883811843974 0 -2.3309883811843974 -35.607609603428955 0 0 0 0 -390.62975969779927 -20.960629421571639 0 -20.960629421571639 20.773465977947581 0 0 0 0 -168.83938196211966 -40.855683312016481 0 -40.855683312016481 36.122362203589773 0 0 0 0 359.89959200319572 -97.692560499343017 0 -97.692560499343017 -82.551308734817212 0 0 0 0 166.53751743710018 -85.688662369573763 0 -85.688662369573763 13.619921249355684 0 0 0 0 34.745606707097977 -13.191793772849849 0 -13.191793772849849 49.223824834411971 0 0 0 0 33.536977823649067 -85.2282593580303 0 -85.2282593580303 -13.502487659438771 0 0 0 0 38.187142320400653 -6.7943201261768991 0 -6.7943201261768991 -16.88852736454055 0 0 0 0 -1.9005761981288138 -3.4552052898702286 0 -3.4552052898702286 -9.1026467660937858 0 0 0 0 120.28198746419821 -47.742062534405591 0 -47.742062534405591 -14.817526566954257 0 0 0 0 27.799846975038236 -53.24610874680593 0 -53.24610874680593 16.495128580904293 0 0 0 0 26.314504496775044 -60.450059225900532 0 -60.450059225900532 -17.99559029558327 0 0 0 0 1.3141558267961955 -21.371347653534485 0 -21.371347653534485 -0.020258254051441327 0 0 0 0 21.235520083924712 -62.176778022078679 0 -62.176778022078679 0.96498891514329443 0 0 0 0 37.233340367009077 -62.631455884363731 0 -62.631455884363731 -10.651444132895222 0 0 0 0 21.001375181058805 -27.607035327788715 0 -27.607035327788715 11.00747263853529 0 0 0 0 2.9856395621438452 -7.779957687078138 0 -7.779957687078138 -14.921004211704787 0 0 0 0 -73.776027778196294 -18.53095397913637 0 -18.53095397913637 6.0017868686854854 0 0 0 0 -48.014297740528491 -64.608941247807365 0 -64.608941247807365 16.531140304979999 0 0 0 0 4.7571585579935345 -60.662495523833513 0 -60.662495523833513 -11.740389316946676 0 0 0 0 -24.476952879849705 -47.058086258386084 0 -47.058086258386084 31.21371618549847 0 0 0 0 -9.6477280961769267 -3.4750252430702133 0 -3.4750252430702133 -0.29015264513384498 0 0 0 0 -10.856953006288677 -59.955378549312059 0 -59.955378549312059 16.564464128764484 0 0 0 0 -4.7989666306093568 -51.154513651258071 0 -51.154513651258071 3.6248937695596339 0 0 0 0 -6.0762291421910177 -32.541366365965715 0 -32.541366365965715 -0.22716930521346246 0 0 0 0 -28.215262296020228 -35.565794879282407 0 -35.565794879282407 63.1638287502293 0 0 0 0 29.38757600828103 -51.102658425937761 0 -51.102658425937761 -12.106376552268671 0 0 0 0 -10.433550263374165 -33.336111601062505 0 -33.336111601062505 0.75599310192388014 0 0 0 0 -4.2198004098754609 -57.501688103940296 0 -57.501688103940296 1.5519437283808202 0 0 0 0 -8.799972665765381 -68.145902698909822 0 -68.145902698909822 -8.0371178841625976 0 0 0 0 -5.4034757887893647 -55.934577029563059 0 -55.934577029563059 14.929373381688947 0 0 0 0 -1.9844446044717188 -46.91401708897115 0 -46.91401708897115 -11.71821072634998 0 0 0 0 5.2561831707789679 -42.29250306328413 0 -42.29250306328413 -43.563294000437054 0 0 0 0 3.3843676266906186 -63.673604469480011 0 -63.673604469480011 -17.43995141744972 0 0 0 0 15.008464454509777 -26.574253822983618 0 -26.574253822983618 2.4106145020175864 0 0 0 0 -6.6742363094596797 -26.910840765753989 0 -26.910840765753989 -26.050705739017236 0 0 0 0 -6.4289901138763526 -38.1530569844208 0 -38.1530569844208 -24.886051339524784 0 0 0 0 29.999852541230212 -18.691955255243926 0 -18.691955255243926 -22.579811863319037 0 0 0 0 9.0970763144650846 -58.149479817243389 0 -58.149479817243389 -106.02874515828643 0 0 0 0 -9.4044417071641249 -37.661120597341025 0 -37.661120597341025 14.305598887154368 0 0 0 0 18.846062794647878 -42.031042533347318 0 -42.031042533347318 -74.636166995569965 0 0 0 0 -24.896262260124786 -24.99489274348025 0 -24.99489274348025 -81.076554012912538 0 0 0 0 9.0010805291167344 -33.329598392809885 0 -33.329598392809885 -46.140517307517257 0 0 0 0 30.550228699925356 -42.796445114979178 0 -42.796445114979178 -86.407985923788232 0 0 0 0 -3.314490569588088 -27.566454916477028 0 -27.566454916477028 -41.220938420387938 0 0 0 0 -12.289043793076416 -26.111670925996691 0 -26.111670925996691 -41.02412325824173 0 0 0 0 -6.0915344399982132 -69.026477831079546 0 -69.026477831079546 -83.592464062167551 0 0 0 0 13.922963535365284 -18.707380275929552 0 -18.707380275929552 -3.2568008419670442 0 0 0 0 -48.844739860389382 -112.93824048444367 0 -112.93824048444367 -147.19959557533093 0 0 0 0 15.062670966148744 -43.928216925861335 0 -43.928216925861335 -18.74038309280877 0 0 0 0 -4.2542675430595409 -87.209556272614009 0 -87.209556272614009 -87.847520083702648 0 0 0 0 -0.88214613653690321 -82.305327218127218 0 -82.305327218127218 -204.65588523634506 0 0 0 0 -6.6942760252170359 -2.8568835484353912 0 -2.8568835484353912 11.315534223134851 0 0 0 0 6.2936607523806742 -62.763326990666201 0 -62.763326990666201 -74.99160840577008 0 0 0 0 -57.728489679073391 -61.210088530335156 0 -61.210088530335156 -47.601681655994071 0 0 0 0 -17.48564656090457 -75.451781195005196 0 -75.451781195005196 -42.622860717932099 0 0 0 0 3.3779001713264734 -50.633352880218183 0 -50.633352880218183 -26.116551523130966 0 0 0 0 -19.307318692463014 -73.900585539561916 0 -73.900585539561916 1.5158429186303692 0 0 0 0 -12.3393153586876 -58.905864854345964 0 -58.905864854345964 18.48353783884977 0 0 0 0 8.4057339951759786 -57.481191071410308 0 -57.481191071410308 16.005856274048256 0 0 0 0 6.3125267619034275 -52.208241082720861 0 -52.208241082720861 3.6953966615302818 0 0 0 0 35.146712953050155 -21.525074998131004 0 -21.525074998131004 33.642232394485802 0 0 0 0 0.20815098987772807 -4.0754004758194142 0 -4.0754004758194142 -0.34090057893684733 0 0 0 0 88.076572577792831 -36.75194769800612 0 -36.75194769800612 13.354321941971648 0 0 0 0 2.3185343755612848 -65.535548075258248 0 -65.535548075258248 26.136952749811769 0 0 0 0 68.699805220468988 -50.779296527154514 0 -50.779296527154514 -41.105231662396363 0 0 0 0 38.609015104913851 10.246694714463899 0 10.246694714463899 -7.8096390194655214 0 0 0 0 -0.74336913532877702 -0.44747402919795576 0 -0.44747402919795576 0.32271732999495129 0 0 0 0 52.350248892915261 -56.982193189524423 0 -56.982193189524423 15.645059390520146 0 0 0 0 80.463659161232499 -49.16613991887175 0 -49.16613991887175 2.758980114941096 0 0 0 0 32.342847599662491 -43.459761450852511 0 -43.459761450852511 26.138442844611518 0 0 0 0 11.93537523746636 -58.552873160529771 0 -58.552873160529771 13.518127306172573 0 0 0 0 -8.9109184099106642 -63.197761869312274 0 -63.197761869312274 16.457654552289114 0 0 0 0 18.046562361058022 -40.50630856607313 0 -40.50630856607313 24.732942176313941 0 0 0 0 35.27942419637111 -52.548160704821385 0 -52.548160704821385 -4.0240992348028612 0 0 0 0 73.019744673303649 -14.696261778175085 0 -14.696261778175085 0.43058708196167572 0 0 0 0 -0.46371347385298112 -3.5239864512371639 0 -3.5239864512371639 -1.2943943306462007 0 0 0 0 -170.53625654684947 -62.800491012037355 0 -62.800491012037355 -28.771590528883053 0 0 0 0 -51.019221377260692 -123.79660053219345 0 -123.79660053219345 -105.41873243795737 0 0 0 0 -245.48685305854451 -169.66621617620785 0 -169.66621617620785 -39.299236710146033 0 0 0 0 -106.70971919222939 -90.325044173787091 0 -90.325044173787091 2.1017952533698008 0 0 0 0 -131.36185069616477 -104.66730889325413 0 -104.66730889325413 8.345011355387669 0 0 0 0 -100.2203410855509 -72.452753951164595 0 -72.452753951164595 -41.291629189565128 0 0 0 0 -87.992266569453022 -99.197458895414172 0 -99.197458895414172 -8.4437864459487173 0 0 0 0 -184.95935036802985 -22.916312892572478 0 -22.916312892572478 20.629588231812477 0 0 0 0 -67.406878264519037 -14.433055884351461 0 -14.433055884351461 10.742799377645099 0 0 0 0 -36.409987518891739 -25.298194973558864 0 -25.298194973558864 -19.030278846316833 0 0 0 0 -50.792536733395536 -18.51356717597605 0 -18.51356717597605 1.925502964315541 0 0 0 0 -56.947212849921016 -49.88215168350419 0 -49.88215168350419 -16.861030892941017 0 0 0 0 -105.07570233460865 -43.922630118927373 0 -43.922630118927373 -7.3494310731141468 0 0 0 0 -77.185618424344284 -33.86433670503186 0 -33.86433670503186 -28.214252097376004 0 0 0 0 -69.918066974895083 -49.356584462629826 0 -49.356584462629826 -17.230311388350401 0 0 0 0 -56.27797567748712 -39.46888001741479 0 -39.46888001741479 -11.759223614258417 0 0 0 0 -69.836092748279043 -31.392383009492391 0 -31.392383009492391 -4.320864950699729 0 0 0 0 -67.956230664000032 -41.319732729484144 0 -41.319732729484144 -8.1981943218834203 0 0 0 0 -72.627241356840386 -52.996241897759717 0 -52.996241897759717 2.7311245867028902 0 0 0 0 -62.044756335442798 -61.343420055495358 0 -61.343420055495358 6.4658661688888515 0 0 0 0 -55.834075060905889 -47.746542584794611 0 -47.746542584794611 -4.8184879365321649 0 0 0 0 -63.365608243999304 -57.251334992596867 0 -57.251334992596867 -6.1901994679164432 0 0 0 0 -50.844380086673482 -51.427623893383839 0 -51.427623893383839 -8.8566009327792017 0 0 0 0 -16.224887399119325 -41.690821182190803 0 -41.690821182190803 -75.343300967712622 0 0 0 0 6.6995202350057639 -8.7255881931499388 0 -8.7255881931499388 -7.4172845838581223 0 0 0 0 -37.143486790544557 -48.904558875297113 0 -48.904558875297113 -42.453073875430619 0 0 0 0 -5.2161145481950371 6.5676231963717555 0 6.5676231963717555 0.26524062603871812 0 0 0 0 5.3429243673936924 -3.1840198031502069 0 -3.1840198031502069 1.6118813065069091 0 0 0 0 -39.433593318462954 -41.086248964148353 0 -41.086248964148353 -11.654708472227867 0 0 0 0 -34.314308974143074 -34.582934451081698 0 -34.582934451081698 -29.146882207013189 0 0 0 0 24.744850712886546 -151.51768049417569 0 -151.51768049417569 17.47049294861376 0 0 0 0 20.013110851192323 -120.53923752004386 0 -120.53923752004386 -15.963123827205891 0 0 0 0 -24.346067344500625 -42.03081877337911 0 -42.03081877337911 4.0102591111473771 0 0 0 0 -46.940140690119733 -67.966766107792523 0 -67.966766107792523 -24.259958985393496 0 0 0 0 -9.9593787689227611 -70.290281967811438 0 -70.290281967811438 -210.61334627638462 0 0 0 0 -107.28427730813667 -94.194327365135393 0 -94.194327365135393 -28.736292347557537 0 0 0 0 -15.871158911628299 -39.556846215250175 0 -39.556846215250175 -6.9658639661040525 0 0 0 0 40.03868888015495 -69.350858955161016 0 -69.350858955161016 -69.467272474623769 0 0 0 0 -3.1781621471709514 -21.62331869201978 0 -21.62331869201978 16.195701260609667 0 0 0 0 -1.2640293399514348 -8.1454983045873703 0 -8.1454983045873703 -3.365263625718883 0 0 0 0 -15.042436030045792 -73.206598923450201 0 -73.206598923450201 12.163465667590657 0 0 0 0 -0.64094356526281615 1.5592672100393563 0 1.5592672100393563 0.2281721066830121 0 0 0 0 -66.408882477830048 -40.59177761745741 0 -40.59177761745741 154.6398698003805 0 0 0 0 -88.217502647103174 -101.33722548959221 0 -101.33722548959221 34.165746388979642 0 0 0 0 -4.5038990373141132 -43.082158496887814 0 -43.082158496887814 -18.613393281995513 0 0 0 0 -2.6666169783657097 -51.286800546106406 0 -51.286800546106406 -32.146618831363412 0 0 0 0 -17.986396318698098 -54.915583507890801 0 -54.915583507890801 -28.937746844110734 0 0 0 0 -14.908814036367403 -39.230355095296545 0 -39.230355095296545 3.7248817079080254 0 0 0 0 7.2239079852042778 -36.504248828907066 0 -36.504248828907066 2.4496165507143814 0 0 0 0 -13.886074228711536 -14.655636569338583 0 -14.655636569338583 -7.0130517100470371 0 0 0 0 -4.1830607111769496 -19.570327184128473 0 -19.570327184128473 10.492337489644342 0 0 0 0 -0.73090617589696194 -48.29838526208755 0 -48.29838526208755 -33.418791518491958 0 0 0 0 -0.85893157042301027 -47.555086424823457 0 -47.555086424823457 -37.383155063776712 0 0 0 0 16.658422827147518 -19.296195783566638 0 -19.296195783566638 12.643927659254283 0 0 0 0 0.43209665334507008 -37.62687906183055 0 -37.62687906183055 27.346074060294086 0 0 0 0 45.775918675470166 -53.767461732886204 0 -53.767461732886204 -70.913147773486799 0 0 0 0 -0.48225726520504963 -2.5605638980449896 0 -2.5605638980449896 5.4187738883831571 0 0 0 0 -30.835198583114106 -153.58569569701422 0 -153.58569569701422 -156.01926818637321 0 0 0 0 -0.21199701484147226 6.4224408774240374 0 6.4224408774240374 -55.632033765205961 0 0 0 0 -309.92958733594423 -48.142100440767081 0 -48.142100440767081 35.042802070950529 0 0 0 0 3.1229512309227232 -21.175000442772685 0 -21.175000442772685 -7.7352966912898253 0 0 0 0 34.4723012142058 -28.455650238743146 0 -28.455650238743146 -5.0831308226388501 0 0 0 0 3.8776118159363619 -3.1821448503217979 0 -3.1821448503217979 -4.9087921526816629 0 0 0 0 -200.79135308317836 -6.9868088403146658 0 -6.9868088403146658 -131.68979441936744 0 0 0 0 -306.53816861370342 -64.624430131615611 0 -64.624430131615611 -20.368338795222826 0 0 0 0 -289.35012452433148 -30.383358688257886 0 -30.383358688257886 -5.2796179290259033 0 0 0 0 -0.23895690357627863 -1.627623700576379 0 -1.627623700576379 -0.69220648564803255 0 0 0 0 -506.75138626604166 -182.09041317608171 0 -182.09041317608171 137.22975983971355 0 0 0 0 14.976048474025447 -154.63906649801538 0 -154.63906649801538 -26.830730952264275 0 0 0 0 -6.1891496260504937 -31.149773933718279 0 -31.149773933718279 -11.542428004737303 0 0 0 0 -35.872848593324306 -23.521711506165957 0 -23.521711506165957 -24.303233394058225 0 0 0 0 -290.35564920514298 -16.853381770513352 0 -16.853381770513352 13.413401407652373 0 0 0 0 1.7862814485437468 -13.426023587038848 0 -13.426023587038848 28.371504417079592 0 0 0 0 1.6591423212913554 -7.42531870596342 0 -7.42531870596342 -1.9778598865935351 0 0 0 0 -2.9513782970825559 2.5131067936290492 0 2.5131067936290492 -3.9582056431281671 0 0 0 0 -12.475423446046079 5.9763971380803014 0 5.9763971380803014 174.23351579097653 0 0 0 0 -14.736051147723629 23.310936973382923 0 23.310936973382923 56.905743837662158 0 0 0 0 -18.972197539718763 -57.471589370585207 0 -57.471589370585207 95.03427016059868 0 0 0 0 -21.978211633650062 -38.52769647055311 0 -38.52769647055311 38.697085223200702 0 0 0 0 -19.514933823265892 -52.167945848284944 0 -52.167945848284944 112.89467106985103 0 0 0 0 -27.67994610263122 -132.32593551262607 0 -132.32593551262607 -216.01036061610284 0 0 0 0 2.7125137429069852 -11.824180218335542 0 -11.824180218335542 33.234941412911979 0 0 0 0 5.4793946518511802 -290.6230314918912 0 -290.6230314918912 281.53366091563657 0 0 0 0 -229.57970162775746 133.88436531393745 0 133.88436531393745 -80.544151730322028 0 0 0 0 0.59779169861830894 -0.86988713573535392 0 -0.86988713573535392 1.80713316193998 0 0 0 0 -6.5317446124390699 -102.04478035889406 0 -102.04478035889406 231.1626348016398 0 0 0 0 170.9712083394661 -94.613687160826885 0 -94.613687160826885 -234.06811557040783 0 0 0 0 55.94916374289096 -184.16856479091894 0 -184.16856479091894 140.89133150076668 0 0 0 0 -144.78216726464598 41.559685074547815 0 41.559685074547815 -64.184478926440534 0 0 0 0 49.91631618628162 -156.7991681330459 0 -156.7991681330459 45.447601872718224 0 0 0 0 29.00602551321208 -60.965239173463488 0 -60.965239173463488 -50.392629828862482 0 0 0 0 29.488828914145415 -66.49338123810594 0 -66.49338123810594 11.573172858494218 0 0 0 0 -1.9757707675453275 -36.000161443342222 0 -36.000161443342222 18.623642712137553 0 0 0 0 0.76079270589252701 -53.551355574540139 0 -53.551355574540139 47.711205039513516 0 0 0 0 -5.0626476670186094 -26.828091532647704 0 -26.828091532647704 13.092351102862267 0 0 0 0 -4.9900540981460608 -31.537596020944989 0 -31.537596020944989 25.75791691807899 0 0 0 0 -5.0756520270515466 -23.43645881111479 0 -23.43645881111479 11.150365003604975 0 0 0 0 -10.036532188176352 -23.483681182103282 0 -23.483681182103282 51.07026567844332 0 0 0 0 6.3443983453507826 -26.916133621500194 0 -26.916133621500194 21.453443439655302 0 0 0 0 3.0196226553816814 -30.917031877189402 0 -30.917031877189402 52.043402135803262 0 0 0 0 6.4343701134557705 -36.411147568256411 0 -36.411147568256411 26.775610536853492 0 0 0 0 1.2804980925611744 -26.872269882421278 0 -26.872269882421278 22.396990548040776 0 0 0 0 6.7853212895570323 -40.288095685570624 0 -40.288095685570624 20.553670015146963 0 0 0 0 15.866799049452311 -33.13337739392 0 -33.13337739392 22.363321342594645 0 0 0 0 21.421515751741026 -38.245276878265486 0 -38.245276878265486 -4.8057442642275419 0 0 0 0 22.983926297874859 -33.252674242422472 0 -33.252674242422472 -14.8093737688705 0 0 0 0 21.418484371868544 -38.304087893098767 0 -38.304087893098767 -5.0000164038010553 0 0 0 0 21.773500715360569 -17.962632857466815 0 -17.962632857466815 -75.866413394749543 0 0 0 0 -98.066442910429032 -35.129856804078372 0 -35.129856804078372 -25.650083200416702 0 0 0 0 -1.4804963461501757 11.466434923257111 0 11.466434923257111 -27.827040835498337 0 0 0 0 -50.072915435608593 7.1422702854870295 0 7.1422702854870295 167.921138771595 0 0 0 0 5.5733399444798124 -35.609802775209573 0 -35.609802775209573 46.322962588081282 0 0 0 0 15.642082381251385 0.54895923835920257 0 0.54895923835920257 10.068335984619807 0 0 0 0 3.4614214684042963 -21.968137683822533 0 -21.968137683822533 69.08763220997389 0 0 0 0 -7.3212646641404717 -51.242856873986057 0 -51.242856873986057 40.573089733516099 0 0 0 0 -2.2420951648435476 -26.059288685501265 0 -26.059288685501265 -3.742848054781569 0 0 0 0 -6.2435938322959998 -27.237470337142557 0 -27.237470337142557 -3.3039584229899672 0 0 0 0 -11.836103368972545 -46.09619030736576 0 -46.09619030736576 91.380155837272468 0 0 0 0 -15.312569413843448 -63.664375471602398 0 -63.664375471602398 58.283675504406347 0 0 0 0 -7.5887097713493858 -49.688238652724976 0 -49.688238652724976 45.230853449113056 0 0 0 0 -12.952412554430339 -73.249594107010125 0 -73.249594107010125 26.099748132780405 0 0 0 0 6.6258813940075925 -55.382130702897484 0 -55.382130702897484 34.601308130047073 0 0 0 0 2.5961348700607232 -28.607072970310274 0 -28.607072970310274 -0.35120956798644087 0 0 0 0 14.249932858136162 -35.753421481234909 0 -35.753421481234909 -9.8987062606574909 0 0 0 0 -1.4798532671742528 -5.1553579689235249 0 -5.1553579689235249 -4.4007974136790011 0 0 0 0 41.45218933938304 -55.80699908358838 0 -55.80699908358838 4.8712835791448015 0 0 0 0 -616.98033499049961 -470.09199431792058 0 -470.09199431792058 111.55440021811955 0 0 0 0 -0.19365590078049877 0.75171453034460711 0 0.75171453034460711 -0.80111761416353033 0 0 0 0 18.335598619632947 -53.145497354413237 0 -53.145497354413237 13.890466574906895 0 0 0 0 265.74668619608929 -40.026939114632114 0 -40.026939114632114 -88.936026287810819 0 0 0 0 20.828823097738677 -74.558734689971516 0 -74.558734689971516 11.444472992479859 0 0 0 0 73.926337388616957 -72.351598907174775 0 -72.351598907174775 -110.33673004934462 0 0 0 0 -117.95058921936288 -136.07076072451036 0 -136.07076072451036 -91.265717450121883 0 0 0 0 19.174462725737612 -225.10677351820141 0 -225.10677351820141 -183.37497595728928 0 0 0 0 8.3486357111105463 -271.16399237274891 0 -271.16399237274891 -218.16771944204447 0 0 0 0 -187.56699905071491 -130.79710937196728 0 -130.79710937196728 -294.41752569633172 0 0 0 0 -236.25792467552674 -349.99744659278076 0 -349.99744659278076 -626.45896663273015 0 0 0 0 70.806707270188781 261.11308048290448 0 261.11308048290448 566.79290368956572 0 0 0 0 106.00102649528708 187.29650298233173 0 187.29650298233173 403.80652086536429 0 0 0 0 -80.477857061578106 -324.61631207693972 0 -324.61631207693972 -349.92299570764771 0 0 0 0 -153.75211428067269 -243.37077058849263 0 -243.37077058849263 -196.36611538863872 0 0 0 0 7.1833833532497806 -12.810452314735212 0 -12.810452314735212 14.868094894837277 0 0 0 0 -33.124142871973163 17.155763643408136 0 17.155763643408136 430.16918727586608 0 0 0 0 -3.8691748819146596 112.5456959600524 0 112.5456959600524 561.74906323698804 0 0 0 0 111.91563402376414 -388.23336395172828 0 -388.23336395172828 141.64477624687424 0 0 0 0 171.08394206961748 -265.04461869649276 0 -265.04461869649276 -319.09086483793362 0 0 0 0 1.7442679046762208 -4.6216081019059985 0 -4.6216081019059985 6.3822951450266174 0 0 0 0 -66.234378838020348 -88.232031662997542 0 -88.232031662997542 -107.34828232914697 0 0 0 0 54.486331842756044 -127.13347931426324 0 -127.13347931426324 -110.88624227864057 0 0 0 0 54.414043413884308 -150.10481084319909 0 -150.10481084319909 -19.254200565224892 0 0 0 0 -17.562331263710803 -56.249172367049596 0 -56.249172367049596 -18.349031789330184 0 0 0 0 -26.398458495088562 -96.785037155894315 0 -96.785037155894315 1.4134580057216226 0 0 0 0 -1.4366654275145265 -89.406529058820524 0 -89.406529058820524 15.345909822632166 0 0 0 0 -1.2185949037530008 -93.098924114215379 0 -93.098924114215379 75.981814572456642 0 0 0 0 22.031350664132333 -143.99884383231256 0 -143.99884383231256 -18.248362580316098 0 0 0 0 23.539884082792923 -167.1212561060297 0 -167.1212561060297 105.81464992663678 0 0 0 0 105.18864827025391 -106.45112928742492 0 -106.45112928742492 18.076646008336866 0 0 0 0 -125.89420986421101 -122.74346491691085 0 -122.74346491691085 22.269172663371137 0 0 0 0 5.2486600073025329 -193.04428112875394 0 -193.04428112875394 -52.340668130176709 0 0 0 0 6.9976757891517991 -180.0892516805975 0 -180.0892516805975 6.6611968296274426 0 0 0 0 -256.46167704000982 10.749345666816225 0 10.749345666816225 38.259019275465107 0 0 0 0 -444.29803059903134 -1.8935489149207569 0 -1.8935489149207569 215.88048260611504 0 0 0 0 -129.19045368569414 -107.21685819793379 0 -107.21685819793379 587.76777154368756 0 0 0 0 -121.38176897948142 -102.12144723394795 0 -102.12144723394795 122.97183807621514 0 0 0 0 223.06970352627832 -178.90548997650149 0 -178.90548997650149 -9.1840334921980684 0 0 0 0 -0.10575502641697554 -0.037669664525239455 0 -0.037669664525239455 1.9458953171779712 0 0 0 0 -179.35001805474894 -163.63967983785005 0 -163.63967983785005 97.733995822964062 0 0 0 0 -0.41895277168026368 -0.99459521237776016 0 -0.99459521237776016 4.2113722679666381 0 0 0 0 36.129754719626362 -150.55099270453684 0 -150.55099270453684 26.298739123245468 0 0 0 0 -49.57445941962942 -164.8585301329249 0 -164.8585301329249 19.195070634750664 0 0 0 0 -0.19052309998198069 0.12943918851684089 0 0.12943918851684089 2.1066984895018521 0 0 0 0 220.47314505814757 -236.85175075517395 0 -236.85175075517395 141.15882722153037 0 0 0 0 -504.96389848997933 -61.040607572955196 0 -61.040607572955196 325.40580608961318 0 0 0 0 -22.024004072736716 27.276984000820448 0 27.276984000820448 155.21760232134557 0 0 0 0 -257.15109576205214 106.65234577503725 0 106.65234577503725 162.57468752914792 0 0 0 0 73.514618016160966 100.84468813591229 0 100.84468813591229 167.83993452856521 0 0 0 0 -181.03156153459713 -271.64338116487488 0 -271.64338116487488 233.050779705678 0 0 0 0 3.0720330500915622 -7.8289854543349975 0 -7.8289854543349975 7.8111017117823991 0 0 0 0 0.7271765310651972 -88.853569532930123 0 -88.853569532930123 137.65458932264301 0 0 0 0 -61.242544660715794 -3.3127330322604394 0 -3.3127330322604394 66.781842706106545 0 0 0 0 120.00129344477318 41.660652225726153 0 41.660652225726153 203.82313534199079 0 0 0 0 -28.75819171598414 -38.912793643798068 0 -38.912793643798068 49.25475944039863 0 0 0 0 21.706822620384628 -33.233510173886316 0 -33.233510173886316 36.780905584251741 0 0 0 0 11.015809109201655 -66.969569560918899 0 -66.969569560918899 66.441903663118865 0 0 0 0 -80.885855122978683 -36.450822596354556 0 -36.450822596354556 157.00698082926829 0 0 0 0 -6.1727198466396658 -16.399568123455538 0 -16.399568123455538 127.83379082143983 0 0 0 0 17.151808515125595 17.469098769881384 0 17.469098769881384 261.56605443973967 0 0 0 0 110.78404423718894 -106.39129914519617 0 -106.39129914519617 147.6595966876921 0 0 0 0 -296.09673960896907 -126.64148553339328 0 -126.64148553339328 265.70754169188149 0 0 0 0 -10.76307565937168 -107.39074585483104 0 -107.39074585483104 366.33641103124137 0 0 0 0 10.365264259300602 -67.574582758850738 0 -67.574582758850738 120.17096228707669 0 0 0 0 19.830198606719932 -108.38213483819527 0 -108.38213483819527 232.86976876157132 0 0 0 0 -14.207722608865879 -77.149585830607975 0 -77.149585830607975 142.83801348788893 0 0 0 0 -14.183735853570397 -77.997331094877154 0 -77.997331094877154 63.350607029367893 0 0 0 0 -22.810197525874173 -40.609464499936621 0 -40.609464499936621 135.09199620558502 0 0 0 0 -17.172910347253492 -31.758645537616758 0 -31.758645537616758 74.12509469255383 0 0 0 0 27.002455253794324 -23.760238817194477 0 -23.760238817194477 58.29956257115191 0 0 0 0 -8.2924154426257104 -27.580249839001119 0 -27.580249839001119 -3.9303708530908539 0 0 0 0 66.258321377528773 -29.180714143876685 0 -29.180714143876685 126.00758253473032 0 0 0 0 30.34411253016151 53.734339385674502 0 53.734339385674502 64.917757731745951 0 0 0 0 54.556617296555487 -26.634240088375009 0 -26.634240088375009 -101.76165332142409 0 0 0 0 -213.0472694268683 -75.924303348017929 0 -75.924303348017929 185.00671774086732 0 0 0 0 2.4223094011529795 -2.657865969687208 0 -2.657865969687208 -5.3613851271285213 0 0 0 0 -24.353959522835794 -35.885975885181324 0 -35.885975885181324 -41.105141961108529 0 0 0 0 34.563990734299296 37.087735013426936 0 37.087735013426936 22.815712334289856 0 0 0 0 56.916302374076622 -219.11944317452435 0 -219.11944317452435 -66.54159627242916 0 0 0 0 -219.21518601178832 -196.67805756595226 0 -196.67805756595226 6.040312701206858 0 0 0 0 -57.189430192054715 -70.354322747623883 0 -70.354322747623883 -26.158156674763632 0 0 0 0 -175.49198192700896 -100.32981175696386 0 -100.32981175696386 -41.752306673428393 0 0 0 0 1.4829875469155027 -13.849801997517091 0 -13.849801997517091 32.220888500478644 0 0 0 0 -45.43292005276453 -80.097851448595975 0 -80.097851448595975 -92.389652215428214 0 0 0 0 -98.547324537168606 -27.403198895786772 0 -27.403198895786772 -69.815527978633327 0 0 0 0 116.9527903688795 -59.241289083593529 0 -59.241289083593529 -187.0001834417825 0 0 0 0 -205.35921131412761 28.230876002619198 0 28.230876002619198 144.96208846967329 0 0 0 0 2.9910341186310347 -19.501747121808485 0 -19.501747121808485 17.19640128193117 0 0 0 0 17.065964676527074 -127.79451272353185 0 -127.79451272353185 -79.59925750030709 0 0 0 0 22.195664954339009 -42.823738660779441 0 -42.823738660779441 -23.401650485648133 0 0 0 0 33.798748896184406 -92.513500168772453 0 -92.513500168772453 -17.457589288871759 0 0 0 0 17.167385089953314 -63.169354732476904 0 -63.169354732476904 -58.056058161444753 0 0 0 0 -7.2097844701920906 -29.756377911615274 0 -29.756377911615274 0.78520980442254551 0 0 0 0 -4.1207307854589885 -26.347198064156757 0 -26.347198064156757 6.9338700630798193 0 0 0 0 -8.1968463586417784 -74.126035357708815 0 -74.126035357708815 9.8985378555773877 0 0 0 0 23.592377208609832 -41.066512326833617 0 -41.066512326833617 -47.503493143478408 0 0 0 0 -9.3434275768273238 -37.186004115478269 0 -37.186004115478269 15.3892193322163 0 0 0 0 -33.383943521257606 -123.71364531126892 0 -123.71364531126892 38.568251644352358 0 0 0 0 113.49381646442635 68.168861349109648 0 68.168861349109648 -70.220204754739825 0 0 0 0 33.71357449457355 -89.751871649106761 0 -89.751871649106761 -80.891922353121117 0 0 0 0 -42.360795233551471 -92.730348673197113 0 -92.730348673197113 44.398050640745396 0 0 0 0 2.4032038826298106 -6.5912905535243347 0 -6.5912905535243347 0.60324546338466956 0 0 0 0 -16.747494592578732 -114.45437012912771 0 -114.45437012912771 114.58007016115153 0 0 0 0 -30.85663175529497 -30.969292454406244 0 -30.969292454406244 -15.786184809178636 0 0 0 0 -35.381098234243836 -41.146053769466221 0 -41.146053769466221 -13.470033281246288 0 0 0 0 -15.793425469134803 -18.032788394856745 0 -18.032788394856745 31.058318597751363 0 0 0 0 -5.8887764668324962 -20.734865740218083 0 -20.734865740218083 32.085874681907626 0 0 0 0 -7.9833758702022664 -32.529262553040596 0 -32.529262553040596 49.145207794071396 0 0 0 0 -1.8639684545960336 -45.767014506075384 0 -45.767014506075384 -13.127848523219654 0 0 0 0 -20.042758297189721 -40.389746178336964 0 -40.389746178336964 -9.7702071081657778 0 0 0 0 -23.440021021235395 -24.024272838854529 0 -24.024272838854529 -20.556174657416371 0 0 0 0 -23.235084713574906 -32.237144362815116 0 -32.237144362815116 -19.218484897655344 0 0 0 0 -22.531374026279082 -60.58155778008404 0 -60.58155778008404 52.749853691944736 0 0 0 0 -40.244885176558455 -73.429318477673405 0 -73.429318477673405 63.913813480385215 0 0 0 0 -13.543812699484988 -35.602909462182652 0 -35.602909462182652 85.108630834394717 0 0 0 0 -3.8156176434276006 -5.1569086348520372 0 -5.1569086348520372 -3.8547339694415399 0 0 0 0 59.424381564909709 -94.526117465858079 0 -94.526117465858079 41.63478620301612 0 0 0 0 10.393137989754905 -89.889613977311456 0 -89.889613977311456 41.213712426169309 0 0 0 0 129.24588990864868 -21.540554515589974 0 -21.540554515589974 -257.61232377349643 0 0 0 0 0.29885582602585714 1.3497129128287568 0 1.3497129128287568 0.098750178430718094 0 0 0 0 -90.701851177378558 -117.83712748035759 0 -117.83712748035759 412.82371642793328 0 0 0 0 2.6487900204665493 13.328627845810843 0 13.328627845810843 214.57579090178479 0 0 0 0 27.681937554429169 -117.71109967099437 0 -117.71109967099437 51.311445602652384 0 0 0 0 23.630646831472404 -199.71660965233332 0 -199.71660965233332 178.05082887456228 0 0 0 0 44.573121066590829 -63.769067836496106 0 -63.769067836496106 -80.908429596391215 0 0 0 0 -16.300509261765001 9.4057028216990375 0 9.4057028216990375 -97.725822261661961 0 0 0 0 -37.361487166341249 -72.136541414118483 0 -72.136541414118483 -76.959859348178725 0 0 0 0 2.4514848262274995 -7.9079769776520408 0 -7.9079769776520408 9.3675941180446731 0 0 0 0 -87.776941901785904 14.646625264313116 0 14.646625264313116 31.693723218702416 0 0 0 0 57.074748591134266 -81.578073460762425 0 -81.578073460762425 -180.39361576660485 0 0 0 0 46.408816210867371 -27.687488545011547 0 -27.687488545011547 -123.45260177932505 0 0 0 0 -65.292442509038665 -96.399524433347324 0 -96.399524433347324 5.864565495208808 0 0 0 0 13.031493935274497 -14.429329622701069 0 -14.429329622701069 14.540196338972855 0 0 0 0 -38.093055813296814 -38.857474079122767 0 -38.857474079122767 92.870931622193893 0 0 0 0 5.0149671870577208 -5.3428242910658312 0 -5.3428242910658312 9.8812553839102932 0 0 0 0 245.34897071396699 23.638185493691708 0 23.638185493691708 -41.607588860219948 0 0 0 0 15.990616304590048 -24.604033050604912 0 -24.604033050604912 27.956626712244983 0 0 0 0 -11.342284705631755 -178.7563688985706 0 -178.7563688985706 -96.266708578048565 0 0 0 0 2.1333930715190945 -15.025384045673491 0 -15.025384045673491 46.60437840891791 0 0 0 0 100.46428115816525 -90.848834710406663 0 -90.848834710406663 -112.31475689157378 0 0 0 0 101.20422592125033 -73.283266672777245 0 -73.283266672777245 78.021780398503324 0 0 0 0 -113.66774810271454 -67.786444421622946 0 -67.786444421622946 192.24983418747979 0 0 0 0 -3.7350390586178435 -6.5887082203903358 0 -6.5887082203903358 0.48341132904918283 0 0 0 0 -0.77862475066649495 -65.062664719344866 0 -65.062664719344866 11.942942248942927 0 0 0 0 17.585629118561144 -32.277020443882094 0 -32.277020443882094 33.088613216620942 0 0 0 0 15.654746045962384 -126.90934591338373 0 -126.90934591338373 14.905725519274711 0 0 0 0 1.9817234763615375 -1.0829308957382935 0 -1.0829308957382935 0.11148757563555911 0 0 0 0 -20.98852300249564 119.87465242080725 0 119.87465242080725 226.1464194676646 0 0 0 0 -23.944249598433089 -13.549325929179759 0 -13.549325929179759 223.21854279002582 0 0 0 0 44.698747345726588 25.37195393271395 0 25.37195393271395 38.833927226834476 0 0 0 0 -52.190403756847445 100.73270612467513 0 100.73270612467513 285.26648360145191 0 0 0 0 -47.298681433312595 108.07407250448159 0 108.07407250448159 223.14804048119549 0 0 0 0 -46.790413603805064 54.792287778793252 0 54.792287778793252 256.42494716825058 0 0 0 0 -56.450941356815747 50.321231126612474 0 50.321231126612474 300.03080945146212 0 0 0 0 333.59958726569312 153.24141011592474 0 153.24141011592474 113.81338738992054 0 0 0 0 96.781883311705315 256.67348855914679 0 256.67348855914679 503.23136287435773 0 0 0 0 260.42384375438633 -353.66125716841452 0 -353.66125716841452 126.41161206279139 0 0 0 0 -62.090361256381584 -131.95317897010227 0 -131.95317897010227 222.56138543390989 0 0 0 0 -53.392490491154604 -296.1189505212169 0 -296.1189505212169 662.27542119834106 0 0 0 0 43.9701027371691 -255.08146608527881 0 -255.08146608527881 7.018325399778405 0 0 0 0 74.848390969898901 -337.75214702436097 0 -337.75214702436097 87.996477542691537 0 0 0 0 76.523408439956114 -169.45501800139391 0 -169.45501800139391 66.252494303636922 0 0 0 0 -55.940304919717164 -255.82310563614556 0 -255.82310563614556 9.9450555205221463 0 0 0 0 87.927585957397241 -201.12866432968985 0 -201.12866432968985 -159.99344465944159 0 0 0 0 65.312096949084662 -235.15943989405605 0 -235.15943989405605 24.996983142813406 0 0 0 0 -108.73339270413635 -48.497765048825386 0 -48.497765048825386 -238.75941414381668 0 0 0 0 423.58632857651173 -465.86353869724189 0 -465.86353869724189 -1644.3358159838954 0 0 0 0 -162.69671951618511 -202.14330836669797 0 -202.14330836669797 -65.444583177277309 0 0 0 0 3.1489745931176003 -189.0019190739331 0 -189.0019190739331 -86.402158986327777 0 0 0 0 -93.972126352506166 -148.4476264142113 0 -148.4476264142113 178.42802214156109 0 0 0 0 -50.168001771344279 21.323645406998139 0 21.323645406998139 279.22081811783937 0 0 0 0 -61.710133530046733 -245.31565718229103 0 -245.31565718229103 -126.6684990578633 0 0 0 0 -100.65712489841462 -296.15485161989545 0 -296.15485161989545 358.63305485127057 0 0 0 0 -67.452466408561122 -60.061199570559893 0 -60.061199570559893 105.70641800131489 0 0 0 0 26.668293961309246 -133.974490818513 0 -133.974490818513 3.6811343144399871 0 0 0 0 6.0255442450966825 -5.1058983028832934 0 -5.1058983028832934 3.3054780595021214 0 0 0 0 113.17403667332837 -392.7692092580487 0 -392.7692092580487 703.45645427542331 0 0 0 0 -68.109671115264064 323.87872741872707 0 323.87872741872707 1416.6126709567206 0 0 0 0 121.07124674754596 -132.33251591921817 0 -132.33251591921817 237.80338206300803 0 0 0 0 -974.26941629799694 988.62830709703303 0 988.62830709703303 2107.1650646553298 0 0 0 0 3.377431847526168 -5.0302102915760756 0 -5.0302102915760756 7.6682153961250989 0 0 0 0 188.89133437992132 -232.15408577861308 0 -232.15408577861308 49.74862261304952 0 0 0 0 22.376208620975376 58.801547063085309 0 58.801547063085309 -22.638297456840519 0 0 0 0 -58.810466004637419 -95.714117300245562 0 -95.714117300245562 701.02408018922051 0 0 0 0 140.87657379881421 -120.11341279582848 0 -120.11341279582848 204.39246222341353 0 0 0 0 279.86863925905709 -423.03351863520584 0 -423.03351863520584 323.69478907457233 0 0 0 0 2.1884515813930534 -3.4335308251884769 0 -3.4335308251884769 1.3489790206245029 0 0 0 0 -193.31807040340209 -24.464604902654173 0 -24.464604902654173 781.38879256390828 0 0 0 0 -177.09850979538351 109.38711442916201 0 109.38711442916201 530.59843966929293 0 0 0 0 -294.91108069974143 -78.098886460880749 0 -78.098886460880749 701.9032320386832 0 0 0 0 1207.4229606409863 -119.01631835918488 0 -119.01631835918488 568.15885747611719 0 0 0 0 73.094810983857315 -154.56925808363485 0 -154.56925808363485 529.80849371091244 0 0 0 0 -166.62188838628936 -288.98298954861184 0 -288.98298954861184 1048.4711204698524 0 0 0 0 11.619083283664168 -7.4820651629956778 0 -7.4820651629956778 4.1907083495279167 0 0 0 0 173.8263855189216 -219.87933974606494 0 -219.87933974606494 413.52744525322851 0 0 0 0 268.80635806955979 -466.59961974153066 0 -466.59961974153066 753.70722791147273 0 0 0 0 150.65290702720813 -101.80724133839976 0 -101.80724133839976 276.72574864132184 0 0 0 0 36.350625651200971 -385.82910274263031 0 -385.82910274263031 976.39897330777603 0 0 0 0 -107.03788260438887 -620.6750277220417 0 -620.6750277220417 1136.5482114547958 0 0 0 0 35.795939941919642 -914.36756424642226 0 -914.36756424642226 1710.502145440897 0 0 0 0 -361.86225570290117 -1624.6017917795398 0 -1624.6017917795398 2119.9409965798404 0 0 0 0 708.44849241463817 -654.21218362761283 0 -654.21218362761283 9.6733307730755769 0 0 0 0 714.00173893342901 -999.76816636398109 0 -999.76816636398109 557.1674111293396 0 0 0 0 276.18620667913638 -212.17504143093174 0 -212.17504143093174 861.46838164943074 0 0 0 0 -85.272074295193306 -1.8655455514071946 0 -1.8655455514071946 799.77788631333442 0 0 0 0 220.81260085603571 -579.27826802728487 0 -579.27826802728487 1067.3667425430938 0 0 0 0 -172.26126537728123 -391.01337071851594 0 -391.01337071851594 1062.6475823797948 0 0 0 0 -182.5320262851601 -360.20706249355226 0 -360.20706249355226 1943.1544482620629 0 0 0 0 5.1233725670812476 -3.1331745576026933 0 -3.1331745576026933 2.5797289347747103 0 0 0 0 -0.40133345460344572 -229.40189573648786 0 -229.40189573648786 1442.0638290420611 0 0 0 0 172.54248440755327 -513.20195006199538 0 -513.20195006199538 1209.5047064756809 0 0 0 0 0.63214104901999235 -149.06998747302714 0 -149.06998747302714 851.29471413062674 0 0 0 0 132.14749526493688 -281.27423135135905 0 -281.27423135135905 132.05133450368248 0 0 0 0 52.660042609873926 -46.173712831438024 0 -46.173712831438024 612.84103100635548 0 0 0 0 11.115929793500982 0.91115029507295731 0 0.91115029507295731 1065.1352464262127 0 0 0 0 0.76616586556372113 -0.28416618825609063 0 -0.28416618825609063 0.89082276809446892 0 0 0 0 0.071950428966374602 -42.294556459708474 0 -42.294556459708474 -186.21244411700718 0 0 0 0 -2.1749320408416679 16.297105945086514 0 16.297105945086514 -87.766291311120767 0 0 0 0 -0.036311272728198674 -43.653512117980426 0 -43.653512117980426 -48.742269413909526 0 0 0 0 -11.952799032063922 -48.432998683376013 0 -48.432998683376013 -108.16290860674599 0 0 0 0 31.77348127397272 -19.875406375966122 0 -19.875406375966122 -228.59200247113768 0 0 0 0 -16.358896510129853 -18.290642274559104 0 -18.290642274559104 -113.65364731630871 0 0 0 0 14.998859708110103 -52.894296614375889 0 -52.894296614375889 -202.71120977959322 0 0 0 0 3.6312560104774434 -4.6840577633389024 0 -4.6840577633389024 0.31584854156541908 0 0 0 0 83.412847221608899 -50.532802601593175 0 -50.532802601593175 62.731942511043599 0 0 0 0 11.055866296082968 -69.603167659253813 0 -69.603167659253813 -92.040813328373815 0 0 0 0 -1.2640992633054111 0.047743152090760077 0 0.047743152090760077 0.73176673696008621 0 0 0 0 55.497275612513477 -19.391969505470115 0 -19.391969505470115 -115.10165305110786 0 0 0 0 -5.5727538395149168 27.669232748495233 0 27.669232748495233 -17.431402840948977 0 0 0 0 -1.7082176426156934 -0.15025958147901264 0 -0.15025958147901264 0.71117427633109287 0 0 0 0 27.88269186099933 -37.023001771002782 0 -37.023001771002782 24.53553272375575 0 0 0 0 13.952626950022932 -57.413199444881798 0 -57.413199444881798 45.612636779445893 0 0 0 0 21.075586036182358 -44.1652555361743 0 -44.1652555361743 62.958953672846746 0 0 0 0 25.168886164075957 -40.396375059077855 0 -40.396375059077855 38.998098697124078 0 0 0 0 37.938872213941067 -65.018338053319894 0 -65.018338053319894 32.056762216468996 0 0 0 0 39.048213903966825 -51.992833595651291 0 -51.992833595651291 29.849379957129713 0 0 0 0 35.293528220092412 -60.369015185950957 0 -60.369015185950957 39.359880063122546 0 0 0 0 30.556855845414248 -44.978194315313885 0 -44.978194315313885 27.152764311422288 0 0 0 0 32.475884355430026 -45.217457530377942 0 -45.217457530377942 23.101204625102582 0 0 0 0 20.460024689098645 -35.146725507912379 0 -35.146725507912379 19.758264300978226 0 0 0 0 -1.4628076044989484 0.24675594304483184 0 0.24675594304483184 1.0308241618923546 0 0 0 0 28.485800619939255 -26.370795704417105 0 -26.370795704417105 -67.381106503798037 0 0 0 0 0.016410308424383402 -42.439126624959499 0 -42.439126624959499 54.201452319325654 0 0 0 0 2.3687945316451078 7.4914939686575508 0 7.4914939686575508 22.114063352370067 0 0 0 0 10.720144942803017 -57.933245356757652 0 -57.933245356757652 34.312853102589088 0 0 0 0 220.90609457700339 -1089.0133145330365 0 -1089.0133145330365 368.7002026163716 0 0 0 0 2.2741761533907265 -1177.3263766032142 0 -1177.3263766032142 409.5070808306773 0 0 0 0 367.51915431570524 -1003.7830976937275 0 -1003.7830976937275 -219.90382117627087 0 0 0 0 448.76618470864923 -786.61208837823688 0 -786.61208837823688 360.15013907149222 0 0 0 0 319.63890527419608 -721.52993481427075 0 -721.52993481427075 864.73690695772893 0 0 0 0 930.88813238253351 -314.76828893565471 0 -314.76828893565471 807.12859818565812 0 0 0 0 274.62552473069081 -936.68947004064285 0 -936.68947004064285 1661.556805947117 0 0 0 0 694.88938094360492 -1324.997910706461 0 -1324.997910706461 303.18848879039069 0 0 0 0 284.3853652726466 -902.85646463555531 0 -902.85646463555531 468.60326675285978 0 0 0 0 308.92322428149055 -934.59154721586492 0 -934.59154721586492 499.67969857281059 0 0 0 0 397.78437392842807 -892.11111977683458 0 -892.11111977683458 519.87926289329698 0 0 0 0 336.14937704039039 -523.92723695931272 0 -523.92723695931272 -283.42821636533699 0 0 0 0 113.81124953251492 -491.38527414262535 0 -491.38527414262535 145.81261165492469 0 0 0 0 84.344373526135314 -763.29774822724721 0 -763.29774822724721 481.73894382566323 0 0 0 0 -0.46780397195834666 -1104.0956642031979 0 -1104.0956642031979 654.37691757212997 0 0 0 0 116.12599723895619 -1032.8597692533585 0 -1032.8597692533585 579.03522807385161 0 0 0 0 82.143110753178917 -855.00756347611969 0 -855.00756347611969 933.54933517832796 0 0 0 0 0.62452458563348046 -1050.1871861317086 0 -1050.1871861317086 1187.344585037059 0 0 0 0 -264.25855662650292 -40.002210645753621 0 -40.002210645753621 608.18026620230012 0 0 0 0 -288.85213988470059 -79.482866641890723 0 -79.482866641890723 2138.338231270307 0 0 0 0 -0.25838631450211363 -305.77397814092996 0 -305.77397814092996 -416.28248932414863 0 0 0 0 2.5403241594058414 -4.2172187193325748 0 -4.2172187193325748 5.9567047034026999 0 0 0 0 -86.543244937558484 -60.948871994492947 0 -60.948871994492947 -149.50323706334166 0 0 0 0 -146.82650027938598 -555.03101234321832 0 -555.03101234321832 -142.99217319915988 0 0 0 0 6.2410307231508284 -10.61223848216817 0 -10.61223848216817 11.966505567072559 0 0 0 0 -126.98753348860919 -21.837246142287768 0 -21.837246142287768 205.63871529080825 0 0 0 0 0.20215593604278514 -359.88767503302665 0 -359.88767503302665 256.89641297493654 0 0 0 0 476.30957711268275 -1103.4877581114597 0 -1103.4877581114597 -669.00058197489852 0 0 0 0 3.9072020454062937 -6.1933526654794893 0 -6.1933526654794893 6.2252181127029829 0 0 0 0 568.90610704163919 -1566.0759383736759 0 -1566.0759383736759 1314.6871297717298 0 0 0 0 -341.12298607773187 -1443.4538887720046 0 -1443.4538887720046 140.25436038061162 0 0 0 0 -402.87041988145211 -310.51121778008201 0 -310.51121778008201 1494.5209289962822 0 0 0 0 -326.50513951326866 -459.13753225213441 0 -459.13753225213441 1714.6006507360082 0 0 0 0 -335.59771127680142 241.34369447835161 0 241.34369447835161 361.58494230607266 0 0 0 0 -613.56642529172314 -376.14221021316916 0 -376.14221021316916 423.82418271242386 0 0 0 0 -18.637124130371376 -137.23660790172926 0 -137.23660790172926 737.98724105660949 0 0 0 0 80.004730665859825 111.26293374254601 0 111.26293374254601 606.63611075152585 0 0 0 0 -170.483214889995 -290.2031056644737 0 -290.2031056644737 960.67926041324426 0 0 0 0 70.656201449946821 -48.063935343245248 0 -48.063935343245248 204.62704574485542 0 0 0 0 -120.21530191410966 -61.062909374910305 0 -61.062909374910305 461.94308596014889 0 0 0 0 -59.961577821457468 -145.01850506854862 0 -145.01850506854862 409.95366404301376 0 0 0 0 22.202688908124401 -54.278642051813677 0 -54.278642051813677 -123.03528574555821 0 0 0 0 -206.73075254055584 -527.72367175896579 0 -527.72367175896579 75.220480820080411 0 0 0 0 349.40462945479703 -508.93440216920771 0 -508.93440216920771 740.24232492434385 0 0 0 0 25.465862824359647 -25.302400073433091 0 -25.302400073433091 965.21705159341946 0 0 0 0 232.9060850051319 -208.81073991829362 0 -208.81073991829362 421.90525642261537 0 0 0 0 531.73771102963656 -623.17893567094552 0 -623.17893567094552 1228.2395780216757 0 0 0 0 170.53594019445154 50.709553108383261 0 50.709553108383261 916.07454426541153 0 0 0 0 506.82521407736203 -229.42743434437216 0 -229.42743434437216 1630.5586066095675 0 0 0 0 -59.962489604167786 -1237.6091183479784 0 -1237.6091183479784 3282.8120509555592 0 0 0 0 1.4413063825033703 -6.9427295730028646 0 -6.9427295730028646 -1.633789882947589 0 0 0 0 20.155820462947304 -123.85255974035681 0 -123.85255974035681 22.141976039130782 0 0 0 0 10.112294317499618 -77.754701198977273 0 -77.754701198977273 -69.750359830463822 0 0 0 0 20.859772331939894 -172.2401662578668 0 -172.2401662578668 -385.40690411892319 0 0 0 0 7.6363212586478539 -17.979499845152709 0 -17.979499845152709 -7.1514400375829936 0 0 0 0 108.47825133601873 -944.36585218047185 0 -944.36585218047185 2469.1176120103482 0 0 0 0 -0.63413482147734612 -265.57840303345802 0 -265.57840303345802 1751.0634921172095 0 0 0 0 19.678229861818721 -22.78260749666093 0 -22.78260749666093 -10.86022701433717 0 0 0 0 353.30417391297669 -885.71737609460251 0 -885.71737609460251 1883.2077568160275 0 0 0 0 351.21466541767404 -963.68546320406404 0 -963.68546320406404 1619.4981769565347 0 0 0 0 -678.08988309824053 -726.85301451862688 0 -726.85301451862688 1702.7271920428293 0 0 0 0 -622.52647548295499 -550.9371299659324 0 -550.9371299659324 731.26296224045473 0 0 0 0 -1327.9315240014839 4.5757345981983235 0 4.5757345981983235 899.12439677229122 0 0 0 0 -217.69257669176295 -610.38518928188569 0 -610.38518928188569 639.57418263173986 0 0 0 0 -213.61339400178986 -517.46167301825699 0 -517.46167301825699 1645.6832899670553 0 0 0 0 -113.3586288660299 -204.35715489349786 0 -204.35715489349786 806.47240172610327 0 0 0 0 -67.601019716254086 -92.374548310086539 0 -92.374548310086539 429.0872992001423 0 0 0 0 -475.22220688292873 -399.69506109972826 0 -399.69506109972826 81.310631866679614 0 0 0 0 -472.24544824405893 -550.61495505961102 0 -550.61495505961102 -80.246719279913123 0 0 0 0 -938.2911201115694 -126.3160169674411 0 -126.3160169674411 174.36203912748897 0 0 0 0 -249.77064019622048 -375.26608917703197 0 -375.26608917703197 42.940134997552377 0 0 0 0 40.604481533348007 -190.51809148811299 0 -190.51809148811299 25.555699476428344 0 0 0 0 85.185917994662304 -20.383316494606333 0 -20.383316494606333 -36.734731603362889 0 0 0 0 -275.40073444676091 -783.40603867956725 0 -783.40603867956725 -666.63277195769842 0 0 0 0 -431.24969112301733 -379.96359433790531 0 -379.96359433790531 -13.85490298482182 0 0 0 0 15.476721123343935 -25.393419260788043 0 -25.393419260788043 26.070546678461611 0 0 0 0 -465.63409755739485 -582.15225200164969 0 -582.15225200164969 -117.3078990201071 0 0 0 0 -162.54420109483908 -118.02051507073338 0 -118.02051507073338 -251.55990371875669 0 0 0 0 14.176324745274854 -20.842488721130021 0 -20.842488721130021 20.395944699577619 0 0 0 0 -264.68896113535084 -706.24908730357856 0 -706.24908730357856 -1125.355193684627 0 0 0 0 -49.982367326574604 -234.61540741166391 0 -234.61540741166391 624.23055307846153 0 0 0 0 -80.559976901763548 -225.54052421168899 0 -225.54052421168899 639.27016998011823 0 0 0 0 605.63459530557157 -817.01307446308465 0 -817.01307446308465 -1293.3243156534409 0 0 0 0 6.0038979576521854 -8.5663836673941649 0 -8.5663836673941649 8.6910961000015519 0 0 0 0 -140.77147954145767 -294.82953744852421 0 -294.82953744852421 2474.6582786608087 0 0 0 0 774.21654301207309 -1156.8045649870382 0 -1156.8045649870382 1079.1409053669886 0 0 0 0 -109.71741435824515 -364.64852368384527 0 -364.64852368384527 1045.1262038364869 0 0 0 0 68.650822949497524 -384.84619798461244 0 -384.84619798461244 649.05560126740647 0 0 0 0 -58.021505164768314 -24.607518733804682 0 -24.607518733804682 296.11054434607649 0 0 0 0 75.076839871911943 -340.49325959220005 0 -340.49325959220005 463.76050840414246 0 0 0 0 202.3675423219866 2.3890462986286707 0 2.3890462986286707 -133.78758355486571 0 0 0 0 191.006036928924 -256.62254538522757 0 -256.62254538522757 147.48111451400655 0 0 0 0 150.33398957796635 -206.89919830699773 0 -206.89919830699773 241.71725772540231 0 0 0 0 319.94886974688052 -502.25968578454558 0 -502.25968578454558 526.0679506652923 0 0 0 0 254.33300390736986 -345.93471079317351 0 -345.93471079317351 116.30657072885151 0 0 0 0 80.280641485038359 -144.98628042448217 0 -144.98628042448217 425.37058771652664 0 0 0 0 187.32454822891123 -142.20375266086739 0 -142.20375266086739 136.45031381344961 0 0 0 0 455.70614564683092 -460.03829591033173 0 -460.03829591033173 126.89877152330882 0 0 0 0 1.4122821626989221 -0.7664786629383542 0 -0.7664786629383542 -6.0576797112224199 0 0 0 0 513.0611650150222 -598.70616870595131 0 -598.70616870595131 400.67352175847918 0 0 0 0 432.34053849793554 -594.73732716838981 0 -594.73732716838981 427.58851702212996 0 0 0 0 685.85260276507324 -666.67246022578911 0 -666.67246022578911 694.63732206600253 0 0 0 0 456.51349122793772 -421.73047162878038 0 -421.73047162878038 499.74304294364265 0 0 0 0 4.6120067019959521 -7.4206606549548866 0 -7.4206606549548866 -12.831717424360249 0 0 0 0 -72.922889805027808 102.83385822935452 0 102.83385822935452 -25.214523572218241 0 0 0 0 117.50005437151049 -28.539924418862938 0 -28.539924418862938 -68.701005225084373 0 0 0 0 58.003561555142369 -44.688145517098746 0 -44.688145517098746 92.226052537859687 0 0 0 0 25.509166693984298 17.719676676066229 0 17.719676676066229 -66.680340173176887 0 0 0 0 46.871051894337143 -70.053353948414951 0 -70.053353948414951 -84.820084692561068 0 0 0 0 12.904838588939157 -26.384775264231781 0 -26.384775264231781 27.206854134750401 0 0 0 0 -613.47594008389569 -358.39892935028001 0 -358.39892935028001 -302.94165774785506 0 0 0 0 -2.0327092456914926 -1.2682004843599977 0 -1.2682004843599977 1.9257084424520201 0 0 0 0 -909.18784050624981 34.55796518154375 0 34.55796518154375 -203.9515592125681 0 0 0 0 738.98793417574052 -969.58346667404658 0 -969.58346667404658 1020.8578334926933 0 0 0 0 1254.1191637025913 -587.25133267235651 0 -587.25133267235651 267.71909765212331 0 0 0 0 470.64192787027969 -983.38199237733352 0 -983.38199237733352 1289.4711848584993 0 0 0 0 1701.5638594623961 -1236.5488942880256 0 -1236.5488942880256 1093.3374357115908 0 0 0 0 1.5702834144675109 -3.5384285681563057 0 -3.5384285681563057 -0.62875216896935626 0 0 0 0 705.91756634204285 -674.4177922585186 0 -674.4177922585186 761.06892231779057 0 0 0 0 1157.465815789008 -2237.291708426259 0 -2237.291708426259 1997.9154656064493 0 0 0 0 1709.3224940274267 -1161.4071008098017 0 -1161.4071008098017 1410.5756904948139 0 0 0 0 -1250.3666347594117 214.5926401235979 0 214.5926401235979 412.56621612590243 0 0 0 0 0.18494557957159685 -2.6985821142995121 0 -2.6985821142995121 10.892469809549553 0 0 0 0 -7.1213719109873637 -435.89953076472011 0 -435.89953076472011 1340.3027343154022 0 0 0 0 557.88457584173739 -1137.9578476800925 0 -1137.9578476800925 2138.0892547781427 0 0 0 0 459.41083734277709 -445.72189421714211 0 -445.72189421714211 685.73011861625127 0 0 0 0 54.754600058302458 -14.885161632437303 0 -14.885161632437303 61.493723164432595 0 0 0 0 30.565484852555613 -23.418974118349169 0 -23.418974118349169 -13.188793680417582 0 0 0 0 310.08258036292136 -299.49953576206076 0 -299.49953576206076 113.11657872118667 0 0 0 0 30.885197645679 -193.66323765641027 0 -193.66323765641027 275.96002332138232 0 0 0 0 30.942856306828617 -113.6937573381656 0 -113.6937573381656 -4.5230744584641798 0 0 0 0 1.7543875019546249 -116.49155076009083 0 -116.49155076009083 221.49431889643893 0 0 0 0 -325.98986042969045 -103.05527968090701 0 -103.05527968090701 290.23135336954874 0 0 0 0 -61.674053268972784 -17.629953368183124 0 -17.629953368183124 284.53012209502538 0 0 0 0 18.241530550983953 75.342565398036641 0 75.342565398036641 -38.329727244772585 0 0 0 0 273.13883215677561 -112.85891824163446 0 -112.85891824163446 237.12423730924638 0 0 0 0 32.671890743965349 -23.912749358721015 0 -23.912749358721015 -14.190004713570051 0 0 0 0 37.783478873068816 -412.36840997272157 0 -412.36840997272157 628.7533426332393 0 0 0 0 373.44128081583767 -336.86641690852412 0 -336.86641690852412 875.1161137215513 0 0 0 0 -120.32026674909503 -344.47869742509647 0 -344.47869742509647 976.34942914775456 0 0 0 0 287.68090244142513 -656.2194550599088 0 -656.2194550599088 866.54365865541331 0 0 0 0 -1.06758980484679 -4.7085949789653654 0 -4.7085949789653654 -1.4056692159456787 0 0 0 0 305.64109016043221 -787.30334122014756 0 -787.30334122014756 1076.1107163526212 0 0 0 0 477.39671478670516 -382.93221835692975 0 -382.93221835692975 558.65854502868751 0 0 0 0 247.51570361592894 -427.27989792811422 0 -427.27989792811422 466.28462703131663 0 0 0 0 275.56900290014164 71.604376024874 0 71.604376024874 -296.30404689651277 0 0 0 0 25.621073224300645 -25.80566159751541 0 -25.80566159751541 -16.893101816263226 0 0 0 0 153.45583130016166 -49.013286379713463 0 -49.013286379713463 76.325755154848594 0 0 0 0 -104.62444041087292 13.157648178997079 0 13.157648178997079 175.11261718807145 0 0 0 0 -5.5674133241609525 -16.542696021944721 0 -16.542696021944721 203.08534757309826 0 0 0 0 165.64300280164025 -348.40081569634913 0 -348.40081569634913 391.42477358743417 0 0 0 0 82.467131108951435 263.31513417503538 0 263.31513417503538 1101.9270759429492 0 0 0 0 447.45688546328893 177.99075107550198 0 177.99075107550198 221.87930657722245 0 0 0 0 -19.472593089183647 -10.109587323895539 0 -10.109587323895539 409.83585068119464 0 0 0 0 38.706847966550413 7.5532562857442826 0 7.5532562857442826 363.57719387059115 0 0 0 0 95.454037281884666 -195.54038409032501 0 -195.54038409032501 19.740467545128922 0 0 0 0 -4.5212634253980468 -58.206665198114251 0 -58.206665198114251 44.674315283511532 0 0 0 0 -18.918999551427987 -181.42072976981626 0 -181.42072976981626 52.508713637158507 0 0 0 0 39.424307225748635 -66.816947134028851 0 -66.816947134028851 -118.61440838360977 0 0 0 0 12.40034467696718 -34.879760652252557 0 -34.879760652252557 -6.771158861345171 0 0 0 0 2.8365209354269609 -28.720181360153219 0 -28.720181360153219 -8.3185004693241353 0 0 0 0 8.1809993823408149 5.2720434428065346 0 5.2720434428065346 95.474234568311658 0 0 0 0 -17.70720570890353 -134.3346128431067 0 -134.3346128431067 -112.00677539934986 0 0 0 0 8.3247594118088344 -15.712625230430376 0 -15.712625230430376 8.4009748060341707 0 0 0 0 -33.5714879961306 27.794027616888343 0 27.794027616888343 -23.020459648701944 0 0 0 0 80.229994734170759 -418.90298261141652 0 -418.90298261141652 256.54086157480924 0 0 0 0 0.40088588302523931 -324.66570853191524 0 -324.66570853191524 455.28593951842777 0 0 0 0 456.42756564899173 -936.44357692299673 0 -936.44357692299673 890.51333669236237 0 0 0 0 2.7091463922948833 -3.9505904029300822 0 -3.9505904029300822 7.1437395553867589 0 0 0 0 907.65177842749836 -384.21732687183612 0 -384.21732687183612 17.246932186546474 0 0 0 0 -125.84628440613187 -212.04019776609221 0 -212.04019776609221 776.20060049653694 0 0 0 0 413.69701492277454 -883.40833990195097 0 -883.40833990195097 792.70270165983675 0 0 0 0 148.70648800016352 -542.08504357921083 0 -542.08504357921083 373.52132063442696 0 0 0 0 -0.91077064222197635 -2.5493491499192373 0 -2.5493491499192373 -0.36087230248647018 0 0 0 0 92.429849960995853 -616.12834877806927 0 -616.12834877806927 961.74351775857031 0 0 0 0 156.29972349785385 -532.03920290324459 0 -532.03920290324459 413.3507340471624 0 0 0 0 98.64337345129934 -474.1689614215411 0 -474.1689614215411 553.71471823261891 0 0 0 0 274.5923325217409 -231.83150492150162 0 -231.83150492150162 864.98182017668796 0 0 0 0 1023.1791041830784 -585.85571246555992 0 -585.85571246555992 439.59409257460356 0 0 0 0 161.875603147334 -577.0890447088068 0 -577.0890447088068 439.62027573236992 0 0 0 0 343.4962317112404 -301.10378418420441 0 -301.10378418420441 340.83458884511492 0 0 0 0 207.57707297458182 -226.08223811068819 0 -226.08223811068819 351.56316593602241 0 0 0 0 86.270686119793936 -433.22484013210124 0 -433.22484013210124 275.88379921579326 0 0 0 0 -283.20475840824656 -389.10924657528813 0 -389.10924657528813 457.59257384260127 0 0 0 0 -279.44036539967783 -204.22467826338834 0 -204.22467826338834 482.12074200439383 0 0 0 0 776.98175904171148 -930.06740441415604 0 -930.06740441415604 468.25907298104812 0 0 0 0 -1.5561967880289558 -2.4040934401399738 0 -2.4040934401399738 -0.0078134401311160673 0 0 0 0 468.86058795169629 -602.264233654485 0 -602.264233654485 630.67020042502554 0 0 0 0 126.88925197766912 -926.64576070058683 0 -926.64576070058683 375.69315602636925 0 0 0 0 481.95797516047787 -562.48753836270043 0 -562.48753836270043 746.16212953152717 0 0 0 0 164.92631737883039 -403.30837194909327 0 -403.30837194909327 34.332303896422673 0 0 0 0 459.46609753636403 -790.78796423170206 0 -790.78796423170206 410.03335617533594 0 0 0 0 458.97264365466253 -776.22463864908786 0 -776.22463864908786 456.41840738726228 0 0 0 0 -882.08817808773892 -362.68518980916997 0 -362.68518980916997 564.97234740749991 0 0 0 0 -1036.1171232907218 17.855169730542912 0 17.855169730542912 424.2673815327289 0 0 0 0 -466.99125104576524 -537.64332262190874 0 -537.64332262190874 519.31541725167335 0 0 0 0 1324.7684015576051 -1141.1323707136071 0 -1141.1323707136071 685.20986163199814 0 0 0 0 576.19956594865107 -550.19007877584545 0 -550.19007877584545 640.71194692796416 0 0 0 0 359.7161921412735 -799.24349379147316 0 -799.24349379147316 1004.9462199533918 0 0 0 0 -3.5295291934373978 -4.4258036974733557 0 -4.4258036974733557 0.60274210550824137 0 0 0 0 547.86398796704657 -728.24254319405554 0 -728.24254319405554 728.36488543173618 0 0 0 0 -112.78766034184082 -225.07035813715265 0 -225.07035813715265 480.07461046393291 0 0 0 0 484.86330553077278 -583.11940505350503 0 -583.11940505350503 493.52494778217806 0 0 0 0 -82.815230778771365 -336.25502830241385 0 -336.25502830241385 470.56293120125156 0 0 0 0 -188.10491151880888 -292.92015744861237 0 -292.92015744861237 547.77421629715536 0 0 0 0 -25.454153551889249 -251.86128125252981 0 -251.86128125252981 512.62634457559761 0 0 0 0 56.791717447897099 -270.30976226906569 0 -270.30976226906569 352.28931933398104 0 0 0 0 -19.876662067419602 -325.80702502915301 0 -325.80702502915301 516.55131916635582 0 0 0 0 -104.29763867446309 -250.3723625325074 0 -250.3723625325074 478.8245273497887 0 0 0 0 -167.07256101638632 -301.25147506836583 0 -301.25147506836583 546.5778716718587 0 0 0 0 -189.75214094054354 -223.85350434954125 0 -223.85350434954125 341.16188336970663 0 0 0 0 -123.47369558541504 -369.42211795585808 0 -369.42211795585808 271.55832744060899 0 0 0 0 -323.091589626114 -357.36114609528522 0 -357.36114609528522 423.19130430498626 0 0 0 0 -124.47418440786532 -358.03193375985393 0 -358.03193375985393 429.78648071796488 0 0 0 0 -214.68671194049239 -441.36526302355196 0 -441.36526302355196 394.77681049623061 0 0 0 0 -49.849824751672713 -427.61566927876629 0 -427.61566927876629 481.77502329136627 0 0 0 0 -17.957662426955721 -382.43108238113018 0 -382.43108238113018 537.63519068616006 0 0 0 0 56.223245990862779 -524.52186487844301 0 -524.52186487844301 564.97944323554839 0 0 0 0 -28.308252658527636 -554.1786601995118 0 -554.1786601995118 596.68343353794262 0 0 0 0 -69.870208872976946 -621.513379800861 0 -621.513379800861 521.50286923818931 0 0 0 0 -56.292445792883882 -497.07689949887026 0 -497.07689949887026 495.71939816638042 0 0 0 0 -111.09593523253034 -461.40352472660061 0 -461.40352472660061 313.23962552119337 0 0 0 0 -102.96593802861025 -534.88049720489653 0 -534.88049720489653 465.60002203999102 0 0 0 0 -93.094776081597956 -570.49755863960308 0 -570.49755863960308 435.06530395755544 0 0 0 0 -112.68572587202289 -595.83118227046361 0 -595.83118227046361 543.20189976858092 0 0 0 0 -77.916912475338904 -588.01181409005221 0 -588.01181409005221 401.11541587034299 0 0 0 0 -123.05930058965168 -487.09342704462324 0 -487.09342704462324 364.94915135058909 0 0 0 0 -73.234799626523454 -507.63975148961299 0 -507.63975148961299 304.39607166966016 0 0 0 0 -50.592723862831917 -372.10162462520475 0 -372.10162462520475 228.52086599160975 0 0 0 0 -198.55267921734048 -384.65829089331237 0 -384.65829089331237 255.10089790462735 0 0 0 0 -120.15219193975645 -366.94126603063341 0 -366.94126603063341 122.28201913002704 0 0 0 0 -130.74084377244435 -486.63334723737717 0 -486.63334723737717 278.45464770760736 0 0 0 0 -175.96233908241265 -474.8426647135966 0 -474.8426647135966 398.07497222984239 0 0 0 0 -335.07557191621436 -346.19191228548425 0 -346.19191228548425 308.25546898969333 0 0 0 0 -230.50035046952689 -326.77321264604689 0 -326.77321264604689 223.89534119482414 0 0 0 0 -368.92939914404269 -144.86005469226802 0 -144.86005469226802 91.530520375235938 0 0 0 0 -344.66794009594742 -221.10842201013293 0 -221.10842201013293 199.47709854390996 0 0 0 0 -438.53886866109679 -157.67907949875371 0 -157.67907949875371 253.3882746801828 0 0 0 0 -395.83664087971556 -160.66129905413618 0 -160.66129905413618 181.44755940522009 0 0 0 0 -2.3104549327828714 -3.5044301490427046 0 -3.5044301490427046 3.2869361366899028 0 0 0 0 884.78239653920173 -1702.9335534289421 0 -1702.9335534289421 462.22664591739886 0 0 0 0 -963.42691060738616 262.39687040473927 0 262.39687040473927 261.59646008853451 0 0 0 0 1193.286378147187 -680.00638927335422 0 -680.00638927335422 408.53191728240927 0 0 0 0 -382.87913385677894 286.02877587660259 0 286.02877587660259 -286.20432391409122 0 0 0 0 -569.87344089076214 21.865740610679495 0 21.865740610679495 78.2287208057096 0 0 0 0 -205.37594673759304 -113.55417472806585 0 -113.55417472806585 -130.28841894077777 0 0 0 0 -247.58258142668637 -113.14756994025083 0 -113.14756994025083 -6.1152315096114762 0 0 0 0 -6.949426737279282 15.675382866247674 0 15.675382866247674 -407.87932299522072 0 0 0 0 -5.8695688519821942 -7.9416663907992486 0 -7.9416663907992486 5.8940531878882325 0 0 0 0 170.77526394478264 -291.09254841524307 0 -291.09254841524307 -20.600566860710387 0 0 0 0 0.27635166302715675 -1.9215640550172779 0 -1.9215640550172779 -0.056949587626718312 0 0 0 0 1037.4944897155292 -560.54078749185283 0 -560.54078749185283 288.2588596157002 0 0 0 0 939.0252898554827 -531.42245909601479 0 -531.42245909601479 475.55442347285862 0 0 0 0 1423.6170835694775 558.89017959306148 0 558.89017959306148 -24.088202995670144 0 0 0 0 171.47115850748014 -270.59404131958945 0 -270.59404131958945 150.13772248339956 0 0 0 0 81.086621930464389 -310.96900324989019 0 -310.96900324989019 140.69438306023949 0 0 0 0 -102.28766476937744 -233.98022465009126 0 -233.98022465009126 -11.138818378519318 0 0 0 0 -193.95490012431401 -319.02874527450331 0 -319.02874527450331 181.66603943379596 0 0 0 0 -80.36813347127827 -285.43243611075377 0 -285.43243611075377 97.612427345884498 0 0 0 0 131.31767055008095 -177.92095371709001 0 -177.92095371709001 -221.43769571401936 0 0 0 0 -59.751738419727189 -213.97697185851575 0 -213.97697185851575 36.451131391280796 0 0 0 0 -12.546865915559465 -308.16472484712722 0 -308.16472484712722 158.94942904432537 0 0 0 0 77.199902458884026 -281.02197127136424 0 -281.02197127136424 46.277123124222271 0 0 0 0 -91.097661339939805 -397.67128328971739 0 -397.67128328971739 212.71091117116885 0 0 0 0 -8.8024258556397399 -303.28659223015711 0 -303.28659223015711 98.516249632637482 0 0 0 0 66.041538580553606 -347.85255518442136 0 -347.85255518442136 178.42449595645303 0 0 0 0 64.330157991294982 -331.2544414754957 0 -331.2544414754957 200.79248907376314 0 0 0 0 96.169427878558054 -370.69983674520336 0 -370.69983674520336 249.02197517297463 0 0 0 0 -3.7921687343114172 -429.25706455948966 0 -429.25706455948966 291.26456064646482 0 0 0 0 111.37839908027672 -444.47513558517676 0 -444.47513558517676 281.83352837021084 0 0 0 0 81.262494678132498 -292.67077573064671 0 -292.67077573064671 170.20672758563887 0 0 0 0 175.53632082977856 -343.04865905344195 0 -343.04865905344195 215.32596471245051 0 0 0 0 151.1897781285661 -310.80616896701395 0 -310.80616896701395 173.6413907912065 0 0 0 0 290.51153824526409 -289.22180385123647 0 -289.22180385123647 220.81991673100856 0 0 0 0 229.23305695732779 -197.01309982384919 0 -197.01309982384919 226.17000343985274 0 0 0 0 171.45550593260123 -326.3239467573876 0 -326.3239467573876 234.95950703031849 0 0 0 0 415.87881413227296 -149.81846432658494 0 -149.81846432658494 179.48800860252231 0 0 0 0 283.79008410015376 -285.49574703568942 0 -285.49574703568942 241.78788828407414 0 0 0 0 283.79008410018287 -285.49574703559483 0 -285.49574703559483 241.78788828424877 0 0 0 0 283.79008410027018 -285.49574703564576 0 -285.49574703564576 241.78788828423421 0 0 0 0 232.22346873261267 -376.27852228531265 0 -376.27852228531265 272.58108038218052 0 0 0 0 235.01032973478141 -378.0803613201133 0 -378.0803613201133 267.9036314971745 0 0 0 0 165.76598867910798 -337.11744489329431 0 -337.11744489329431 245.159957433003 0 0 0 0 177.14431738597341 -382.52972783052246 0 -382.52972783052246 246.00745308236583 0 0 0 0 90.713845662881795 -427.81171346495103 0 -427.81171346495103 296.67065470041416 0 0 0 0 157.55544264862328 -550.06247965364491 0 -550.06247965364491 378.96729989885353 0 0 0 0 132.66269014060526 -497.85132256086217 0 -497.85132256086217 361.61995549603307 0 0 0 0 254.13258176704403 -465.42102782247821 0 -465.42102782247821 301.26683758433865 0 0 0 0 285.11237708439148 -510.93725761291716 0 -510.93725761291716 362.64250135533257 0 0 0 0 183.75851964515095 -631.84414709917837 0 -631.84414709917837 444.49556689460587 0 0 0 0 332.53330622059002 -559.13630677194669 0 -559.13630677194669 380.16700636153109 0 0 0 0 501.86956432563602 -399.19752172683366 0 -399.19752172683366 284.86340875206224 0 0 0 0 802.62302393569553 -457.34066360215365 0 -457.34066360215365 272.94842284740298 0 0 0 0 456.99119911626622 -237.37926501164475 0 -237.37926501164475 232.31011303825653 0 0 0 0 797.6429224224994 -259.09025708689296 0 -259.09025708689296 245.15897167683579 0 0 0 0 550.89972555916756 -281.99475659309246 0 -281.99475659309246 243.14595095504774 0 0 0 0 489.46481986788422 -388.53346335412061 0 -388.53346335412061 298.48275556758745 0 0 0 0 363.68931971234269 -425.1854077224707 0 -425.1854077224707 287.95354725953075 0 0 0 0 -58.781429665672476 -576.58280828501302 0 -576.58280828501302 432.84267116068804 0 0 0 0 -45.472412843622806 -650.25157157191734 0 -650.25157157191734 493.89391932092258 0 0 0 0 24.341811573773157 -578.59050313822081 0 -578.59050313822081 395.5126402570022 0 0 0 0 -20.724989580106921 -498.12089002045104 0 -498.12089002045104 369.03995776831289 0 0 0 0 71.036566548944393 -565.30284248954558 0 -565.30284248954558 422.51087540716981 0 0 0 0 67.842512255152201 -650.97730230438106 0 -650.97730230438106 475.91460046864813 0 0 0 0 -31.955784704266989 -662.53994889429305 0 -662.53994889429305 499.27963916667068 0 0 0 0 185.25444515615527 -614.77036230599333 0 -614.77036230599333 450.52280677675844 0 0 0 0 144.79605522207567 -721.35377985730156 0 -721.35377985730156 508.96653580592101 0 0 0 0 238.58234410709701 -791.94974118312894 0 -791.94974118312894 451.53301797302265 0 0 0 0 18.033191012873431 -730.40863955630266 0 -730.40863955630266 519.18105010802174 0 0 0 0 11.5551544818195 -781.19104552440103 0 -781.19104552440103 580.44108467912883 0 0 0 0 844.28688442567363 -563.66736193840916 0 -563.66736193840916 272.64377829778823 0 0 0 0 816.51656189386267 -571.08025213571091 0 -571.08025213571091 272.64344619525946 0 0 0 0 654.9773030939723 -448.23611417846041 0 -448.23611417846041 297.18195081569138 0 0 0 0 545.87282895798489 -613.64084888372599 0 -613.64084888372599 357.1326985333144 0 0 0 0 312.02114311041078 -686.42442658933578 0 -686.42442658933578 433.17237167729763 0 0 0 0 424.70514059971174 -523.14180077030323 0 -523.14180077030323 381.06606169067982 0 0 0 0 353.5176183690055 -640.18134579226898 0 -640.18134579226898 432.45309757568054 0 0 0 0 425.66415466221588 -710.88093640912848 0 -710.88093640912848 405.80794333478116 0 0 0 0 656.96822984706523 -592.17432940989966 0 -592.17432940989966 347.67866470446461 0 0 0 0 681.4261264096167 -643.14913882855035 0 -643.14913882855035 338.64534854263184 0 0 0 0 797.17021320393542 -641.32813298349356 0 -641.32813298349356 319.63507917319657 0 0 0 0 823.66222604589711 -614.81121138530216 0 -614.81121138530216 357.1085247140436 0 0 0 0 781.12856587977149 -704.34721991217521 0 -704.34721991217521 358.52115485935064 0 0 0 0 635.626460608044 -652.60001551712048 0 -652.60001551712048 388.73753257664794 0 0 0 0 653.28090890939529 -809.03167083852713 0 -809.03167083852713 295.95685114817024 0 0 0 0 455.50041933353714 -679.52955297437802 0 -679.52955297437802 404.28585542988731 0 0 0 0 634.84606027854443 -706.71255516908536 0 -706.71255516908536 363.39551427942934 0 0 0 0 153.00651717490837 -738.83147734325394 0 -738.83147734325394 463.11133629002052 0 0 0 0 110.03117140794166 -893.56947978710559 0 -893.56947978710559 311.5349299126392 0 0 0 0 407.34192448880003 -851.48631481784832 0 -851.48631481784832 340.41689548166323 0 0 0 0 141.29604039894684 -790.32041565641089 0 -790.32041565641089 358.0739059186817 0 0 0 0 146.79890504721698 -826.16243824269623 0 -826.16243824269623 349.54150566187218 0 0 0 0 626.08390159839291 -943.07049147442558 0 -943.07049147442558 -0.24845440328499535 0 0 0 0 955.4257791663149 -655.26310937554081 0 -655.26310937554081 146.47725492939753 0 0 0 0 -784.97843753896086 -266.09527889016408 0 -266.09527889016408 624.81240279765188 0 0 0 0 -4.751565153336216 -4.4048874849683415 0 -4.4048874849683415 -2.8689937007082307 0 0 0 0 -963.66501043906828 -759.30945478235299 0 -759.30945478235299 646.59753675963293 0 0 0 0 -251.62266384621034 -1210.143198845828 0 -1210.143198845828 1.0566019793746932 0 0 0 0 -214.22074546392832 -875.39938952414013 0 -875.39938952414013 541.15936448954017 0 0 0 0 -250.50435432996528 -737.84796508510044 0 -737.84796508510044 660.22217564791936 0 0 0 0 -262.19491375066718 -756.69528917411662 0 -756.69528917411662 633.41636046020358 0 0 0 0 -309.44192116265071 -242.56137324776284 0 -242.56137324776284 612.46225516463892 0 0 0 0 -103.77392965065246 -518.45552345557792 0 -518.45552345557792 612.57222337508574 0 0 0 0 -113.64772708883174 -662.27807752819353 0 -662.27807752819353 610.73072236932785 0 0 0 0 -127.23598018948906 -677.83220144402003 0 -677.83220144402003 655.34297078809641 0 0 0 0 -138.88200220880753 -721.35171864216682 0 -721.35171864216682 575.98943856919504 0 0 0 0 -32.820220001033306 -704.25770243021452 0 -704.25770243021452 565.76986332251545 0 0 0 0 -98.726321236164949 -649.63605855785136 0 -649.63605855785136 536.54096944331468 0 0 0 0 -94.442185743009759 -635.70082148294023 0 -635.70082148294023 624.30407278642815 0 0 0 0 -94.149782475793472 -653.02228696439488 0 -653.02228696439488 532.21388642941019 0 0 0 0 -36.151892658388533 -591.81763291848983 0 -591.81763291848983 547.63905619231082 0 0 0 0 -38.32666593453223 -584.89709859935829 0 -584.89709859935829 639.83449858229142 0 0 0 0 145.7297724851669 -567.80053792449326 0 -567.80053792449326 569.91876407240125 0 0 0 0 157.87657401905017 -603.76807717848533 0 -603.76807717848533 602.34849818452494 0 0 0 0 396.95561553749212 -550.85781974826568 0 -550.85781974826568 451.91732171192416 0 0 0 0 574.42088697815052 -643.52067489756882 0 -643.52067489756882 489.98954809685893 0 0 0 0 370.80796925210416 -530.91143164485675 0 -530.91143164485675 511.98794264673052 0 0 0 0 239.78490739485278 -554.238911316761 0 -554.238911316761 563.36947528095516 0 0 0 0 233.08344552698327 -500.96038866686467 0 -500.96038866686467 546.81379359012317 0 0 0 0 114.25366056954226 -158.1389873678454 0 -158.1389873678454 47.311581308400491 0 0 0 0 -20.463405504080583 -322.33596374748595 0 -322.33596374748595 181.48125147323299 0 0 0 0 -10.537370708680854 -10.626949480906305 0 -10.626949480906305 -9.3859366924518781 0 0 0 0 2.0421103424014291 -185.44935304980027 0 -185.44935304980027 -128.48220031841629 0 0 0 0 -315.63980487240042 -80.08388534464757 0 -80.08388534464757 0.04184745233214926 0 0 0 0 -327.89036513649626 -146.99843150495508 0 -146.99843150495508 155.17426675201568 0 0 0 0 178.9407521045905 -146.02489585759031 0 -146.02489585759031 0.10798671070006094 0 0 0 0 114.53397769359071 -15.226327649386803 0 -15.226327649386803 128.98060368037795 0 0 0 0 30.595862984482665 -58.041030882272025 0 -58.041030882272025 0.031139135233388515 0 0 0 0 23.777196351066777 -64.654706105823891 0 -64.654706105823891 1.667681952152634 0 0 0 0 -3.5013716318023569 -15.200165921245457 0 -15.200165921245457 -4.1550768651682972 0 0 0 0 23.486358188529266 -58.482594055181835 0 -58.482594055181835 7.4298957011715174 0 0 0 0 13.351008420751896 -26.848063081315559 0 -26.848063081315559 27.502485163422534 0 0 0 0 59.169693130359519 -40.729223196976818 0 -40.729223196976818 10.426269385396154 0 0 0 0 7.2080543423362542 -8.8884343881909444 0 -8.8884343881909444 0.035234125301940367 0 0 0 0 3.6755788828104841 -1.9465411810049176 0 -1.9465411810049176 0.32572325515380385 0 0 0 0 4.3970842247948383 -0.77710804992990745 0 -0.77710804992990745 0.18423933158496197 0 0 0 0 -221.95871788087243 -138.17881322402536 0 -138.17881322402536 2.2924572194460779 0 0 0 0 -211.93528161044378 170.40462000668413 0 170.40462000668413 -47.726069588796236 0 0 0 0 -2.0947243621698703 -3.6720737708504885 0 -3.6720737708504885 12.444801767899392 0 0 0 0 -5.9103358960095278 -12.662769525607047 0 -12.662769525607047 22.078982138949243 0 0 0 0 -7.1592237928853137 -45.225112688916852 0 -45.225112688916852 -10.6772110225711 0 0 0 0 -149.74863884859224 25.111782631640381 0 25.111782631640381 100.09630138666398 0 0 0 0 -40.013054314751571 90.227598808822222 0 90.227598808822222 130.54866381749162 0 0 0 0 -1.9097830084241423 6.1596094543901359 0 6.1596094543901359 67.510108713241408 0 0 0 0 -89.142170693146909 -9.3110639893075131 0 -9.3110639893075131 174.25336578015049 0 0 0 0 123.29501949280348 -110.47565407144157 0 -110.47565407144157 2.8564323313694331 0 0 0 0 -5.8665052613405919 -23.164391910375834 0 -23.164391910375834 -8.4787596407794013 0 0 0 0 -0.90101122356227137 10.419013334271831 0 10.419013334271831 61.020029016387213 0 0 0 0 -72.621416240159306 -39.439041673904285 0 -39.439041673904285 18.126941316685588 0 0 0 0 21.366840952534403 -277.8176654189956 0 -277.8176654189956 118.39534424859448 0 0 0 0 -343.27194614343171 -54.256262345366849 0 -54.256262345366849 139.85597083394532 0 0 0 0 -277.81988227879629 10.429923852167121 0 10.429923852167121 166.81233675980184 0 0 0 0 -46.799013570700481 -32.683413240116352 0 -32.683413240116352 -2.7109265130202402 0 0 0 0 -55.467001867826184 -98.314625647974026 0 -98.314625647974026 157.59727638786899 0 0 0 0 491.56930163153265 -400.26882479455071 0 -400.26882479455071 308.95989817007649 0 0 0 0 -12.643951534738889 -16.100570591180798 0 -16.100570591180798 -6.31372774543253 0 0 0 0 690.67003557591306 -509.89924729004269 0 -509.89924729004269 345.32931064091099 0 0 0 0 520.97161486876576 -539.3795584688196 0 -539.3795584688196 435.89470033151883 0 0 0 0 -3.5018866761334291 -5.2297802248426208 0 -5.2297802248426208 30.501527388482202 0 0 0 0 -646.09277500454482 -3.4268603643831739 0 -3.4268603643831739 183.17832055878534 0 0 0 0 703.53494642845544 -541.43850727232712 0 -541.43850727232712 415.28357930840139 0 0 0 0 -151.77896232155763 -86.945079927532788 0 -86.945079927532788 -23.941415519235306 0 0 0 0 -403.96762441648752 73.39070337251178 0 73.39070337251178 -12.640722234564691 0 0 0 0 -177.30486404052135 -202.62207063931419 0 -202.62207063931419 71.226632764235546 0 0 0 0 0.94203871188267385 0.62875189814769783 0 0.62875189814769783 10.602671573363921 0 0 0 0 -563.55737041926659 364.68322358620526 0 364.68322358620526 647.2326469244872 0 0 0 0 -512.96924835304526 -141.98383799226758 0 -141.98383799226758 130.59994928864762 0 0 0 0 1961.7398122353216 -1338.2748756669994 0 -1338.2748756669994 867.67896969695721 0 0 0 0 396.59617689818697 -567.57285346008575 0 -567.57285346008575 1902.5697723281846 0 0 0 0 508.90105909570048 -570.12471415699656 0 -570.12471415699656 912.8011381518736 0 0 0 0 744.10151450475314 -554.86299521935325 0 -554.86299521935325 368.82480261782985 0 0 0 0 809.15050245223756 -688.39957772006528 0 -688.39957772006528 489.26877059986873 0 0 0 0 613.21740570789552 -855.02143517445438 0 -855.02143517445438 808.67521538775327 0 0 0 0 308.25172407061473 -695.45892828866636 0 -695.45892828866636 732.3285442068518 0 0 0 0 379.12731583989807 -617.48703468089661 0 -617.48703468089661 567.6810895875351 0 0 0 0 287.18542144171079 -551.68486710202706 0 -551.68486710202706 685.56981672201255 0 0 0 0 296.71465421233734 -663.83076148735927 0 -663.83076148735927 1109.6219861254685 0 0 0 0 236.674174066251 -577.78117472075974 0 -577.78117472075974 575.62264779432007 0 0 0 0 82.292534147118204 -595.53213141184551 0 -595.53213141184551 737.31144140181277 0 0 0 0 121.33435005609863 -443.070498976409 0 -443.070498976409 612.28645027798666 0 0 0 0 33.573450869476801 -470.39252360964565 0 -470.39252360964565 667.18929431861034 0 0 0 0 135.13894464353052 -514.0097363157447 0 -514.0097363157447 872.97241564462456 0 0 0 0 313.17617976419569 -396.99975823180284 0 -396.99975823180284 961.85120211784306 0 0 0 0 302.53995621451395 -451.13712039745587 0 -451.13712039745587 720.38598987285877 0 0 0 0 104.5661264612354 -303.44086396517741 0 -303.44086396517741 852.20985216049303 0 0 0 0 261.04330491768633 -196.64849295436215 0 -196.64849295436215 573.49586667837139 0 0 0 0 13.096037606936079 -268.21378962499693 0 -268.21378962499693 613.50863709329133 0 0 0 0 115.33572801446644 -329.35454233214114 0 -329.35454233214114 565.25339817769418 0 0 0 0 83.210520281247227 -187.1739737160533 0 -187.1739737160533 568.55255853454582 0 0 0 0 174.35670507732902 -283.38435041754747 0 -283.38435041754747 495.15847055304403 0 0 0 0 192.61236740063396 -221.98768453571574 0 -221.98768453571574 511.03797543196924 0 0 0 0 627.32345161574995 -331.35488575098498 0 -331.35488575098498 532.65240149390957 0 0 0 0 185.2073850579327 -485.53794555303284 0 -485.53794555303284 702.71130634996371 0 0 0 0 370.74254574994211 -658.37844799673258 0 -658.37844799673258 851.14714914255455 0 0 0 0 1107.2321014850768 -563.13456525591027 0 -563.13456525591027 863.04370346797441 0 0 0 0 239.45875839909104 -255.27678077373184 0 -255.27678077373184 992.20623219438858 0 0 0 0 -49.020441229578864 -624.7161490383769 0 -624.7161490383769 942.63652773685772 0 0 0 0 46.691011221773806 -649.86618532791545 0 -649.86618532791545 925.63091554216953 0 0 0 0 128.87711753339318 -955.68526774456768 0 -955.68526774456768 1394.0379213883571 0 0 0 0 244.10295120631417 -578.09714816823725 0 -578.09714816823725 655.06043916578142 0 0 0 0 65.036856414137219 -716.33569965113111 0 -716.33569965113111 900.1951979887308 0 0 0 0 207.66600059137272 -687.59615098413724 0 -687.59615098413724 729.78245357596825 0 0 0 0 44.756896531649545 -767.52390859769548 0 -767.52390859769548 1057.252706489176 0 0 0 0 561.82251485883899 -593.26916876935502 0 -593.26916876935502 365.77424416190297 0 0 0 0 217.1084844536399 -723.94934435042887 0 -723.94934435042887 852.71080810472631 0 0 0 0 257.09340110257472 -556.91990370571511 0 -556.91990370571511 517.64336008898681 0 0 0 0 280.76505404312775 -518.80421947926516 0 -518.80421947926516 409.46252097539036 0 0 0 0 225.17942214713639 -346.83313508927176 0 -346.83313508927176 184.82035196554352 0 0 0 0 83.632323667930905 -499.16706160019748 0 -499.16706160019748 609.96678722148863 0 0 0 0 120.94694835192422 -539.00495168253201 0 -539.00495168253201 610.7560093111897 0 0 0 0 95.448418237484475 -465.6218932972447 0 -465.6218932972447 663.41408611892257 0 0 0 0 48.889121102947684 -291.34835100874307 0 -291.34835100874307 283.93908137446124 0 0 0 0 224.64804547600215 -334.56623686145031 0 -334.56623686145031 193.79069090881239 0 0 0 0 200.57693708119041 -292.52335222321199 0 -292.52335222321199 252.45425302678632 0 0 0 0 181.62194996980088 -164.09347213930732 0 -164.09347213930732 -11.680952082111617 0 0 0 0 176.10299671663961 -141.05579635324011 0 -141.05579635324011 -41.105463802749 0 0 0 0 138.51737775452057 -146.04257605847306 0 -146.04257605847306 71.4257417911831 0 0 0 0 40.611077344263322 -255.3701530702283 0 -255.3701530702283 360.05898028734373 0 0 0 0 143.15950076599256 -124.19298020586211 0 -124.19298020586211 78.801901970411564 0 0 0 0 125.88785608187209 -109.23953831641575 0 -109.23953831641575 66.015309531750972 0 0 0 0 124.00710131971573 -88.836453757365234 0 -88.836453757365234 -154.01329617176816 0 0 0 0 -141.39634053039481 -40.513482494432537 0 -40.513482494432537 200.88092426132062 0 0 0 0 -63.062135192056303 -253.52251939335838 0 -253.52251939335838 165.44177658118861 0 0 0 0 14.846466430783039 -73.317042913524347 0 -73.317042913524347 441.89626732751094 0 0 0 0 -30.886247493894189 -189.01424226310337 0 -189.01424226310337 430.90985045924026 0 0 0 0 -11.072269285051334 -311.19122890759127 0 -311.19122890759127 488.52915639552521 0 0 0 0 -230.59122030466096 -483.71170660503049 0 -483.71170660503049 1576.882116232623 0 0 0 0 -259.91198447419447 -175.3725412340209 0 -175.3725412340209 983.92183854808263 0 0 0 0 -48.881736001232639 -197.08335764446019 0 -197.08335764446019 49.82819396519335 0 0 0 0 68.394223144150601 -53.313588773597075 0 -53.313588773597075 88.643233864335343 0 0 0 0 -58.872234011836554 -49.153521000533146 0 -49.153521000533146 105.85498510445177 0 0 0 0 164.73473914642091 -181.45488426897646 0 -181.45488426897646 -7.7304801571408461 0 0 0 0 -110.44121864064437 -191.90361945757377 0 -191.90361945757377 33.653788666364562 0 0 0 0 132.56963130602162 -189.87617379437597 0 -189.87617379437597 87.205739487129904 0 0 0 0 -168.83076437275304 84.89923629921941 0 84.89923629921941 113.45081808563918 0 0 0 0 -0.055293034487277737 -1.370259707349831 0 -1.370259707349831 -4.675981115189316 0 0 0 0 232.63042903695168 -273.88061448381632 0 -273.88061448381632 6.8481100952176348 0 0 0 0 -1.0899035444528948 -29.785374901469865 0 -29.785374901469865 -32.232940930875138 0 0 0 0 48.952650129307585 -110.07110631541582 0 -110.07110631541582 36.968674235020444 0 0 0 0 28.029062808864182 -201.79017089046715 0 -201.79017089046715 76.324967470900447 0 0 0 0 162.9594751284385 37.174635504186881 0 37.174635504186881 210.66301150822983 0 0 0 0 -119.52380451839599 -239.23491002743231 0 -239.23491002743231 193.04764696808707 0 0 0 0 31.313044943592104 -67.740490066884377 0 -67.740490066884377 2.8304406624520198 0 0 0 0 -5.4093991103063246 -9.5847961384951148 0 -9.5847961384951148 1.922980395787576 0 0 0 0 2.5391402960377718 -28.873486482570314 0 -28.873486482570314 -36.264374734632653 0 0 0 0 -35.84794894746301 -13.718223756524822 0 -13.718223756524822 126.62958363264624 0 0 0 0 30.738570141205855 -54.2879344473331 0 -54.2879344473331 11.690336257815943 0 0 0 0 28.400876898755087 -63.228767035561759 0 -63.228767035561759 -1.5658531221997691 0 0 0 0 4.4485309469419008 -50.234505012700538 0 -50.234505012700538 -1.4232698073683423 0 0 0 0 28.514761445097975 -60.134927040882758 0 -60.134927040882758 4.2500379474477086 0 0 0 0 27.48696820645273 -62.311961590688952 0 -62.311961590688952 -0.012691218205873156 0 0 0 0 -43.820405220972134 -42.556325109248064 0 -42.556325109248064 -2.6708195777027868 0 0 0 0 -40.636681193485856 -51.341463560198463 0 -51.341463560198463 7.3898592497716891 0 0 0 0 -5.2986460767278913 -61.278853076961241 0 -61.278853076961241 0.0022852639194752555 0 0 0 0 -25.183833135630266 -59.081337106155843 0 -59.081337106155843 0.82713315408909693 0 0 0 0 -0.54704858226250508 -29.547889315326756 0 -29.547889315326756 2.8951958017423749 0 0 0 0 -45.261096527727204 -41.144746654616029 0 -41.144746654616029 6.6298279521870427 0 0 0 0 -34.048825347403181 -57.095375387187232 0 -57.095375387187232 3.1121460603208106 0 0 0 0 -52.718339530460071 -74.379009737043816 0 -74.379009737043816 -8.001805555766623 0 0 0 0 -32.827154331815109 -54.828688975967452 0 -54.828688975967452 -11.312761975852482 0 0 0 0 -15.977390072639537 -64.797319872264779 0 -64.797319872264779 -33.660312167678057 0 0 0 0 -9.8738818182682735 -49.491474435128112 0 -49.491474435128112 -20.003508144560328 0 0 0 0 36.731118452225928 -42.48113410390215 0 -42.48113410390215 59.596733713842696 0 0 0 0 7.1447238079657325 -16.425477934360671 0 -16.425477934360671 18.185250047776847 0 0 0 0 -91.541426361774938 -103.12629681239923 0 -103.12629681239923 129.94894082638712 0 0 0 0 98.561540255926957 -25.829879636046826 0 -25.829879636046826 -63.305963475548197 0 0 0 0 2.5297168699746635 -5.4898259864127255 0 -5.4898259864127255 7.1749626966771132 0 0 0 0 -28.313461200968959 -329.57052742317001 0 -329.57052742317001 11.785264506463136 0 0 0 0 61.963740417224471 -214.69009753208593 0 -214.69009753208593 108.61458618434699 0 0 0 0 0.53820184903371171 -31.643700814888589 0 -31.643700814888589 -27.852796505190682 0 0 0 0 374.78138483903604 -125.04334031954204 0 -125.04334031954204 -11.671624088390672 0 0 0 0 -1.2958531893920906 -15.643782272668588 0 -15.643782272668588 -11.879384432724194 0 0 0 0 -5.2148842148799304 -34.863476228008949 0 -34.863476228008949 -24.736043065306148 0 0 0 0 15.439589459318086 -34.517357797501063 0 -34.517357797501063 24.15268104893039 0 0 0 0 -9.8746343238294969 -12.961877099660725 0 -12.961877099660725 5.0557634825713365 0 0 0 0 -8.0137952967283894 -39.013043418850174 0 -39.013043418850174 12.951366973907554 0 0 0 0 2.2135091687912194 -8.7265129950631888 0 -8.7265129950631888 -7.9074852348882843 0 0 0 0 210.84708640092867 -222.92168905875951 0 -222.92168905875951 41.590248403461374 0 0 0 0 214.18992140241608 -274.92879550490761 0 -274.92879550490761 317.99802158550301 0 0 0 0 367.42954437565641 -216.49600445313627 0 -216.49600445313627 73.877366400403844 0 0 0 0 458.30423062351838 -360.23411602965643 0 -360.23411602965643 213.87535795506847 0 0 0 0 -110.73362363497654 -187.95609993880407 0 -187.95609993880407 131.63943018966529 0 0 0 0 -1.6254003086147009 -4.9532362894478723 0 -4.9532362894478723 -1.8685249143342446 0 0 0 0 609.62661976129311 -154.4944306067955 0 -154.4944306067955 16.279174723959841 0 0 0 0 2416.931214311182 -7.8805141187549452 0 -7.8805141187549452 -208.89164048384441 0 0 0 0 264.92028147670862 -509.9122070888443 0 -509.9122070888443 -152.06281042852788 0 0 0 0 -67.688037441121196 -64.017513567818241 0 -64.017513567818241 -0.024454013549984666 0 0 0 0 5.7601142307171287 -4.8311735264102253 0 -4.8311735264102253 5.8027578781532725 0 0 0 0 869.9202090294857 -1319.8985991550326 0 -1319.8985991550326 151.51883558599911 0 0 0 0 1100.7562232540404 -1261.8967974333505 0 -1261.8967974333505 -0.68954844345898891 0 0 0 0 1.3056692008376558 -654.83925753073981 0 -654.83925753073981 532.32108906010035 0 0 0 0 0.2861998395237606 -236.26514909092202 0 -236.26514909092202 278.67333541849075 0 0 0 0 -3.4676884404869952 -8.9309255077806284 0 -8.9309255077806284 -9.0388752743856031 0 0 0 0 820.50848859914549 132.94165628841438 0 132.94165628841438 -1036.4536053084448 0 0 0 0 401.74668043712154 -231.84661229907942 0 -231.84661229907942 516.19536769221213 0 0 0 0 473.25697971371847 -45.185192342523806 0 -45.185192342523806 499.3083289834758 0 0 0 0 489.02415336489867 -489.4479490945032 0 -489.4479490945032 348.95223250108393 0 0 0 0 637.38344540851904 -655.94138391146225 0 -655.94138391146225 473.64265358173543 0 0 0 0 -4.0955010136773495 -10.20503949074741 0 -10.20503949074741 -7.3729059371472658 0 0 0 0 52.614655535340717 28.54549837693412 0 28.54549837693412 -39.140390673247111 0 0 0 0 0.18017966834625554 -1.340786063636358 0 -1.340786063636358 -2.1059982318039445 0 0 0 0 326.06125450360923 -428.42730811551155 0 -428.42730811551155 398.35404313322215 0 0 0 0 231.69186626575538 -533.40763866640918 0 -533.40763866640918 -5.2549403797020204 0 0 0 0 82.733700767959817 -167.15680459313808 0 -167.15680459313808 41.550291061219468 0 0 0 0 57.031014534957649 40.143993712961674 0 40.143993712961674 -267.10923602657931 0 0 0 0 7.2807964155126683 -4.4019891727020877 0 -4.4019891727020877 -47.461479184414202 0 0 0 0 -8.0598157828458454 -10.122945317589938 0 -10.122945317589938 -7.839681029611242 0 0 0 0 245.02567498294229 -194.10007744956602 0 -194.10007744956602 -131.46803076623837 0 0 0 0 116.68310497445782 -241.37230619086404 0 -241.37230619086404 81.863749841901154 0 0 0 0 -2.5626603258278919 423.3774806672518 0 423.3774806672518 -740.65565472868184 0 0 0 0 -2.076966822243719 -2.8894535627239719 0 -2.8894535627239719 -4.023072829982226 0 0 0 0 383.42794896647683 -207.44791076841466 0 -207.44791076841466 217.41892641418235 0 0 0 0 -164.03657201382885 21.979658500895312 0 21.979658500895312 -100.03454295785559 0 0 0 0 236.52235438712523 -134.38435710422709 0 -134.38435710422709 -351.26174437613008 0 0 0 0 41.636521064167027 -185.70646389416652 0 -185.70646389416652 -15.751770332433807 0 0 0 0 392.80608968719025 -182.46012090799923 0 -182.46012090799923 -799.18622435173847 0 0 0 0 321.50696084156516 -278.05001364570489 0 -278.05001364570489 -37.396268059367685 0 0 0 0 118.84627126208215 -276.86993115573205 0 -276.86993115573205 303.1526715321088 0 0 0 0 135.1506462521611 -364.98197532022095 0 -364.98197532022095 330.12846575774893 0 0 0 0 358.81520481533516 -285.42589572313955 0 -285.42589572313955 52.034652924170587 0 0 0 0 375.15844991069025 -552.07992145642129 0 -552.07992145642129 721.76874084234078 0 0 0 0 420.75173781823833 -431.13464018580999 0 -431.13464018580999 326.13829406528453 0 0 0 0 394.40545267726702 -309.85874385981151 0 -309.85874385981151 587.15499832007481 0 0 0 0 490.45854051136121 -379.06373649852685 0 -379.06373649852685 524.28849391006224 0 0 0 0 178.96374911017483 -301.50747862548997 0 -301.50747862548997 523.57854890836461 0 0 0 0 354.57072523932584 -269.14301464722666 0 -269.14301464722666 302.92297460469126 0 0 0 0 473.29613555847754 -296.6790643216118 0 -296.6790643216118 469.38080312632519 0 0 0 0 485.08516197635208 -143.51122359861199 0 -143.51122359861199 392.92833896404773 0 0 0 0 0.10002848382290078 -34.47663565626717 0 -34.47663565626717 19.344992365309736 0 0 0 0 346.37420855963865 -279.96178250997036 0 -279.96178250997036 587.47154940271867 0 0 0 0 265.52041752057266 -201.32568942165017 0 -201.32568942165017 426.41827066047699 0 0 0 0 893.33673555397399 -438.2873129285108 0 -438.2873129285108 219.31647351065658 0 0 0 0 -0.91953141527857696 -3.7978036340581269 0 -3.7978036340581269 -3.4693439756954945 0 0 0 0 240.80996104490623 -161.26276376572787 0 -161.26276376572787 82.517025718116201 0 0 0 0 958.06101698382554 -405.03201603030902 0 -405.03201603030902 -322.12689753395534 0 0 0 0 251.12208000192913 -439.7909301845466 0 -439.7909301845466 -66.668881534598768 0 0 0 0 359.21450645934965 -185.04002174744528 0 -185.04002174744528 -44.581948758232556 0 0 0 0 428.39842106880678 -186.56889174025855 0 -186.56889174025855 279.01173111092066 0 0 0 0 397.79434563027462 -244.42623226200521 0 -244.42623226200521 377.87120498198783 0 0 0 0 378.62504769476072 -295.46967721035253 0 -295.46967721035253 283.17914274930081 0 0 0 0 414.36638744434458 -156.1000192241554 0 -156.1000192241554 412.95761808797397 0 0 0 0 601.39925738083912 22.575661518665584 0 22.575661518665584 -198.52122742346546 0 0 0 0 399.2806303197849 -111.04251816629403 0 -111.04251816629403 -176.03661242302042 0 0 0 0 529.67874621045485 -21.011731234830222 0 -21.011731234830222 -167.9596733949179 0 0 0 0 133.41002359786125 33.347819293689099 0 33.347819293689099 -2.5598943693184992 0 0 0 0 657.46582727552959 -39.448985046896269 0 -39.448985046896269 -191.29866451879207 0 0 0 0 708.35249021462732 -74.462954644193815 0 -74.462954644193815 -201.96838400920751 0 0 0 0 412.76347220280331 -215.18734402866539 0 -215.18734402866539 33.488066626196087 0 0 0 0 24.886641539578704 -171.36654552976324 0 -171.36654552976324 -51.236777346362942 0 0 0 0 -18.518172335245289 -34.719906704637623 0 -34.719906704637623 -39.141752786783144 0 0 0 0 765.35303150457912 -463.47069603017735 0 -463.47069603017735 110.53662900025665 0 0 0 0 89.513959519307491 -170.02916752029614 0 -170.02916752029614 28.624106121882505 0 0 0 0 10.657630500719424 -2.3200416146783027 0 -2.3200416146783027 -7.8853247972439391 0 0 0 0 534.18280029039306 82.724683125044976 0 82.724683125044976 -222.99512786646665 0 0 0 0 470.43457977000071 157.80350688814724 0 157.80350688814724 -262.45343597917963 0 0 0 0 749.17318936487573 -361.53946292676119 0 -361.53946292676119 -159.22401966872894 0 0 0 0 977.84920524332483 -126.37122860144882 0 -126.37122860144882 -282.21484601347765 0 0 0 0 -150.98791416876884 -266.01788939458856 0 -266.01788939458856 -196.2116726900349 0 0 0 0 24.965435762314883 -86.565140253973368 0 -86.565140253973368 -228.51140373790258 0 0 0 0 -228.76641356633627 -441.75351136009704 0 -441.75351136009704 -203.93200933722255 0 0 0 0 6.761313385440495 -6.6380132129874241 0 -6.6380132129874241 4.5362037117130711 0 0 0 0 -42.012176266762253 121.24971521370389 0 121.24971521370389 -36.117158709028445 0 0 0 0 161.00127365362096 -123.27901658348856 0 -123.27901658348856 -224.26802845865154 0 0 0 0 137.94394295483562 -126.33862210593634 0 -126.33862210593634 119.79532217328233 0 0 0 0 -202.02734124118979 -43.690978003614873 0 -43.690978003614873 193.28644975811403 0 0 0 0 -259.93088587078569 -393.95052839916161 0 -393.95052839916161 332.66179361109243 0 0 0 0 82.397641134661171 -222.78389550377688 0 -222.78389550377688 302.91175229359942 0 0 0 0 181.91348163581642 -139.52127043289511 0 -139.52127043289511 327.242024560137 0 0 0 0 122.86581759392311 -54.932221009587465 0 -54.932221009587465 360.58417273848318 0 0 0 0 430.31815615411324 -80.268119999720511 0 -80.268119999720511 297.31955722334169 0 0 0 0 430.35217512408235 -75.826120513367641 0 -75.826120513367641 426.80661523784511 0 0 0 0 693.25006769913762 -82.495396923803128 0 -82.495396923803128 259.15382586253691 0 0 0 0 902.9950844214909 3.753170659270836 0 3.753170659270836 330.03676963951875 0 0 0 0 455.86141528587359 -163.81281510009285 0 -163.81281510009285 116.24065851842897 0 0 0 0 849.0218583514943 -243.80867673891771 0 -243.80867673891771 -14.073312164511663 0 0 0 0 449.47261586015406 -153.40639012045676 0 -153.40639012045676 425.32508165907348 0 0 0 0 573.13837063418578 -90.798035384355899 0 -90.798035384355899 -66.934346469832235 0 0 0 0 90.279859686426789 -76.481848041134072 0 -76.481848041134072 91.296396167505009 0 0 0 0 0.8536765871453742 -10.445767132344304 0 -10.445767132344304 -0.36322050519603977 0 0 0 0 431.47520959735357 -13.431442039978265 0 -13.431442039978265 -76.711192121714703 0 0 0 0 442.29659014671324 39.001850923557868 0 39.001850923557868 -72.22855667618569 0 0 0 0 893.82042933084813 95.73949823462317 0 95.73949823462317 -113.06330254174827 0 0 0 0 245.60259967118691 362.39882433461025 0 362.39882433461025 132.61807868067262 0 0 0 0 182.8623912772066 -178.17338755644687 0 -178.17338755644687 447.91775171243353 0 0 0 0 0.50072876063119409 -0.9521485503501026 0 -0.9521485503501026 0.11442470696476903 0 0 0 0 1080.5841328104507 -527.30651219612628 0 -527.30651219612628 293.9882688117068 0 0 0 0 1160.9368623052342 -443.69210778894922 0 -443.69210778894922 313.32690482074395 0 0 0 0 4.3929790816351257 -0.44310961370186419 0 -0.44310961370186419 -1.2034710184351809 0 0 0 0 902.94806291786881 -600.46450415045547 0 -600.46450415045547 335.83289047543803 0 0 0 0 586.64868890110301 -147.22042690055969 0 -147.22042690055969 292.69277605289244 0 0 0 0 589.92906391068027 -248.50973413564498 0 -248.50973413564498 516.10973354829912 0 0 0 0 1020.16581313196 -489.37196224551735 0 -489.37196224551735 392.35247106489987 0 0 0 0 148.87427597185342 -588.91439525947135 0 -588.91439525947135 766.50349849753547 0 0 0 0 -3.2265340078127451 -6.7681339451178815 0 -6.7681339451178815 -0.46859217196229963 0 0 0 0 -5.2470872934227373 -9.5637717587378575 0 -9.5637717587378575 1.5609494127711514 0 0 0 0 207.39859937257552 -162.57035929050835 0 -162.57035929050835 399.8268346543482 0 0 0 0 126.8110974433348 -218.20974224110978 0 -218.20974224110978 371.90428376913769 0 0 0 0 -54.711290234147441 -9.7070673877933586 0 -9.7070673877933586 18.437698123223527 0 0 0 0 -117.47782322357466 47.805841387191322 0 47.805841387191322 -37.926077236974379 0 0 0 0 -82.70971097259212 -16.089731865431531 0 -16.089731865431531 17.938254238186346 0 0 0 0 -71.439956441734466 -5.4736759201696259 0 -5.4736759201696259 11.271847714342584 0 0 0 0 -81.445818221723528 6.8256499764174805 0 6.8256499764174805 64.69018107381271 0 0 0 0 -69.262706272448895 -42.528221802993357 0 -42.528221802993357 101.72907860099804 0 0 0 0 -77.451883940166397 3.0095223443795476 0 3.0095223443795476 57.048929268799839 0 0 0 0 -5.4436978765952073 -8.0611328421819124 0 -8.0611328421819124 4.6439287536696554 0 0 0 0 -40.447580279060503 -27.067147628353268 0 -27.067147628353268 -14.924335098810843 0 0 0 0 -115.53106084511774 -136.76736602878736 0 -136.76736602878736 277.43422406502395 0 0 0 0 -58.854514933886634 -31.665424327594614 0 -31.665424327594614 -17.66265725053043 0 0 0 0 -30.76023201517819 -90.779753103079202 0 -90.779753103079202 50.328180376949604 0 0 0 0 -34.64224116494006 -57.373685398779344 0 -57.373685398779344 18.310025743528968 0 0 0 0 -46.228015835311453 -81.040289375130669 0 -81.040289375130669 0.098725200288754422 0 0 0 0 -34.468509091333544 -65.737084819505981 0 -65.737084819505981 -14.258232346157456 0 0 0 0 8.3106680428159052 -33.627172271670133 0 -33.627172271670133 -12.409159685033956 0 0 0 0 -5.6769838542128062 -21.996950285333014 0 -21.996950285333014 -11.073713432862803 0 0 0 0 4.8253102090804463 -27.685278825620486 0 -27.685278825620486 -21.872303688517214 0 0 0 0 -24.219711528356193 -25.4247913393095 0 -25.4247913393095 8.0085963065052681 0 0 0 0 -62.835021649785055 -42.384955821151991 0 -42.384955821151991 -16.672184890841194 0 0 0 0 -40.55783618030182 -92.870685153789964 0 -92.870685153789964 3.2305353229421598 0 0 0 0 -71.753688374916237 -89.310268553330388 0 -89.310268553330388 3.5382207483871753 0 0 0 0 -42.403797589875467 -74.601001483413711 0 -74.601001483413711 -31.786339367703476 0 0 0 0 3.7977408795813972 -38.401988445509687 0 -38.401988445509687 41.105961316454341 0 0 0 0 25.654432362621158 -39.972756008204243 0 -39.972756008204243 -1.9673385541764219 0 0 0 0 0.95347414508796646 -48.066222099294464 0 -48.066222099294464 9.97350624538376 0 0 0 0 10.651676589819374 -68.549551587002497 0 -68.549551587002497 -48.839046255710855 0 0 0 0 -17.778972415133353 -61.730760259022645 0 -61.730760259022645 -48.667588234820869 0 0 0 0 -45.803345835527168 -47.447085616867298 0 -47.447085616867298 44.070128457708051 0 0 0 0 -54.083869759017034 -92.128598768227675 0 -92.128598768227675 -43.319357097585453 0 0 0 0 48.524459239800478 38.500107029685296 0 38.500107029685296 -64.045719132031081 0 0 0 0 35.464264850146776 -33.560963532127332 0 -33.560963532127332 -2.3633279312829956 0 0 0 0 -77.683722696380983 -49.295070691661749 0 -49.295070691661749 6.8930830448880442 0 0 0 0 -83.236637340298216 -120.85984624651974 0 -120.85984624651974 -187.04794405545908 0 0 0 0 -133.10498374124001 -168.01778427603631 0 -168.01778427603631 -115.73889810120454 0 0 0 0 11.65202228502676 -191.3995677229359 0 -191.3995677229359 -279.03940706703725 0 0 0 0 -105.30806967221292 -16.101148812565953 0 -16.101148812565953 -45.115855184376414 0 0 0 0 -45.393159804069001 -77.915595326019684 0 -77.915595326019684 -23.607270759157473 0 0 0 0 -66.151924554371362 -91.300621346599655 0 -91.300621346599655 -26.583385655067104 0 0 0 0 -50.210153445641481 -78.909023257056106 0 -78.909023257056106 -33.636596631768043 0 0 0 0 -47.744387842936703 -77.894982271907793 0 -77.894982271907793 -30.256785698000385 0 0 0 0 -52.510382058238974 -76.105767333232507 0 -76.105767333232507 -23.29724153438292 0 0 0 0 -54.024047562209489 -78.217152561350758 0 -78.217152561350758 -30.578668737416592 0 0 0 0 -50.649028570684095 -80.936405731277773 0 -80.936405731277773 -29.253198567341315 0 0 0 0 -59.649500671919668 -85.003990250159404 0 -85.003990250159404 -28.500890649812391 0 0 0 0 34.205197351405218 -33.592596069542509 0 -33.592596069542509 -4.8976663355134207 0 0 0 0 27.649696983459734 -115.75810512211501 0 -115.75810512211501 -47.98603427231501 0 0 0 0 -103.3730260366666 -122.51553267842974 0 -122.51553267842974 -10.603321947557561 0 0 0 0 -48.475353512638009 -84.933825831824834 0 -84.933825831824834 -55.305379104738677 0 0 0 0 -49.896344358606257 -80.713400716601427 0 -80.713400716601427 -30.007807431611582 0 0 0 0 33.882061703867407 -32.812180395343191 0 -32.812180395343191 -6.2775641840457155 0 0 0 0 -1.859677849110287 -0.86554448917930671 0 -0.86554448917930671 0.30819070736471588 0 0 0 0 -3.7347938440996131 -158.79979233530048 0 -158.79979233530048 -47.226490760331217 0 0 0 0 -50.319673940806751 4.1962664020647935 0 4.1962664020647935 -137.38117489509204 0 0 0 0 -16.111663887577208 -156.49916862864757 0 -156.49916862864757 130.6319720968786 0 0 0 0 24.498115011368498 -150.18830614527542 0 -150.18830614527542 -247.82766107650241 0 0 0 0 22.158245065457038 -141.0820965913972 0 -141.0820965913972 -162.31902434551375 0 0 0 0 -23.992760874159217 -194.6974685215464 0 -194.6974685215464 -3.0986437079154712 0 0 0 0 -27.736942369472047 -95.397309324567686 0 -95.397309324567686 72.979277123507927 0 0 0 0 -38.851766774132443 -117.91094643499491 0 -117.91094643499491 34.616344764799578 0 0 0 0 -10.821965209601515 -50.704216160240321 0 -50.704216160240321 -5.1301828130308422 0 0 0 0 -9.0369242588003829 -36.460317785157031 0 -36.460317785157031 99.883253667067038 0 0 0 0 -8.7188157870084524 -103.1001084080599 0 -103.1001084080599 66.711774535735458 0 0 0 0 22.079613655221237 -45.421580820247982 0 -45.421580820247982 151.45221544063315 0 0 0 0 130.56808837788503 -75.110224577960253 0 -75.110224577960253 119.85661595738384 0 0 0 0 -2.4403683341091629 -2.6863116992115899 0 -2.6863116992115899 -2.2504279915073369 0 0 0 0 107.18254913647888 -217.08160765938374 0 -217.08160765938374 412.48148408107772 0 0 0 0 78.107623371603495 47.314080815700436 0 47.314080815700436 -21.604441336563468 0 0 0 0 27.281397619430209 12.269158146197697 0 12.269158146197697 -21.561659148799663 0 0 0 0 14.606577434090696 -41.855059812800391 0 -41.855059812800391 10.384999064695876 0 0 0 0 0.8542822364867817 -3.2306487879510435 0 -3.2306487879510435 -3.3959415489077855 0 0 0 0 -12.626934587710913 -18.205548309815036 0 -18.205548309815036 -14.744485568714708 0 0 0 0 16.859246515508858 -35.572564207977848 0 -35.572564207977848 7.3573556929186452 0 0 0 0 48.341560425844364 -42.614086226603831 0 -42.614086226603831 -12.420828595313651 0 0 0 0 300.27219421784412 -229.60829137158908 0 -229.60829137158908 20.450063044423587 0 0 0 0 -7.2310162659616672 -20.711907620970258 0 -20.711907620970258 -28.852253761674348 0 0 0 0 -13.376699470110511 -17.682381855189732 0 -17.682381855189732 -12.995051042807347 0 0 0 0 132.25061383968864 -36.433091844452974 0 -36.433091844452974 -59.945608990754408 0 0 0 0 -1.9194801601569855 -0.74086696782377714 0 -0.74086696782377714 -0.020895452481511256 0 0 0 0 -31.686186417598492 89.035519906268746 0 89.035519906268746 -139.21857639374502 0 0 0 0 -81.649085391853532 -2.1123993567043726 0 -2.1123993567043726 103.500456901711 0 0 0 0 -63.156446199188622 73.04381222039774 0 73.04381222039774 65.420304265135201 0 0 0 0 295.8464835117361 134.2252857202875 0 134.2252857202875 -235.71921531802218 0 0 0 0 -19.996191269668714 -33.466810353336299 0 -33.466810353336299 -37.967912957321715 0 0 0 0 8.2770547711579674 -0.51237957525678368 0 -0.51237957525678368 -6.2890168036430225 0 0 0 0 33.761565464059458 -60.855932822210889 0 -60.855932822210889 -294.86456101531803 0 0 0 0 92.46152899023582 -184.02565625281568 0 -184.02565625281568 -126.62815381909604 0 0 0 0 92.450355178591053 -109.46246718666953 0 -109.46246718666953 -195.96198836922849 0 0 0 0 2.2632167387591835 -79.553269807001925 0 -79.553269807001925 36.565994564849461 0 0 0 0 311.14039403908828 -78.427584695739824 0 -78.427584695739824 110.22334520041477 0 0 0 0 204.43989665922527 -259.74170563882217 0 -259.74170563882217 11.826792324984126 0 0 0 0 454.75509084982423 -338.86276988255395 0 -338.86276988255395 4.6400687531277072 0 0 0 0 213.58636137146823 -364.4225801772227 0 -364.4225801772227 12.475431068596663 0 0 0 0 573.77764167079295 -498.27832907583615 0 -498.27832907583615 29.016099508429761 0 0 0 0 4.2073595337503313 -3.4393475471038286 0 -3.4393475471038286 1.8494621073056408 0 0 0 0 967.17840984511713 250.34197162274359 0 250.34197162274359 169.68420693681401 0 0 0 0 932.74362324114918 -288.12959715271791 0 -288.12959715271791 -274.35977190821723 0 0 0 0 -151.09869872013587 -401.60298815001806 0 -401.60298815001806 89.544121450795501 0 0 0 0 221.61848415790155 -500.30289293993701 0 -500.30289293993701 111.76449319493986 0 0 0 0 793.9725427736721 -450.48718410886795 0 -450.48718410886795 -163.91693570966891 0 0 0 0 -376.74764192712701 -252.95723681313393 0 -252.95723681313393 142.64648051105905 0 0 0 0 28.896705646597184 -139.73010901521957 0 -139.73010901521957 -38.083633881939022 0 0 0 0 -16.426453236957059 -62.630470024961596 0 -62.630470024961596 14.57947258844797 0 0 0 0 -263.75298928884695 -43.757981888229551 0 -43.757981888229551 -12.098208037728909 0 0 0 0 35.638755133228187 -196.19297612613445 0 -196.19297612613445 44.021051755376902 0 0 0 0 43.132550369700766 -442.50415733187401 0 -442.50415733187401 155.44451360639505 0 0 0 0 180.4789573624148 -262.84820775381377 0 -262.84820775381377 91.118932629609844 0 0 0 0 -24.369408586885129 -199.82406472239018 0 -199.82406472239018 79.23351425567671 0 0 0 0 63.74296391520511 -148.78039015922513 0 -148.78039015922513 65.532120876159752 0 0 0 0 110.13592516569679 -124.7361339162162 0 -124.7361339162162 44.879379810157843 0 0 0 0 157.65691176727159 -200.0461797758544 0 -200.0461797758544 78.476825447851297 0 0 0 0 104.5165361710151 -161.34060339248754 0 -161.34060339248754 90.944721163214126 0 0 0 0 177.41519627558591 -172.05013849399074 0 -172.05013849399074 106.82079958809481 0 0 0 0 24.814534384592662 -60.125693736288667 0 -60.125693736288667 -23.229833543071436 0 0 0 0 -16.461679977150126 -20.748871688771672 0 -20.748871688771672 -23.606754714022287 0 0 0 0 209.64520238601472 -228.41322069411035 0 -228.41322069411035 96.172275755467126 0 0 0 0 88.892797631850044 -199.79462248483833 0 -199.79462248483833 106.17510224346188 0 0 0 0 88.968573858944296 -199.97164468998074 0 -199.97164468998074 62.305042156003765 0 0 0 0 87.072380066152618 -181.93964059337122 0 -181.93964059337122 75.338606381492355 0 0 0 0 99.819229859085681 -177.81570284367808 0 -177.81570284367808 34.324211207363987 0 0 0 0 82.670134637914089 -175.82385895943298 0 -175.82385895943298 13.968727942999976 0 0 0 0 85.189161299327679 -194.86672080307289 0 -194.86672080307289 -12.271976899945003 0 0 0 0 52.54144049595925 -228.38219906168524 0 -228.38219906168524 76.897338157867125 0 0 0 0 -24.923865035418203 -236.5564338002805 0 -236.5564338002805 82.887918228223498 0 0 0 0 56.616889553677538 -225.33402674383797 0 -225.33402674383797 -28.657447574070829 0 0 0 0 -6.5240491957142694 -192.5859759016671 0 -192.5859759016671 -30.207611075660679 0 0 0 0 -12.455571902367865 -238.81611225516644 0 -238.81611225516644 -67.003696636704262 0 0 0 0 -199.88191247648865 -177.31155818518164 0 -177.31155818518164 16.364655021372528 0 0 0 0 73.657846230889845 -204.45791206911053 0 -204.45791206911053 -63.389384416419489 0 0 0 0 1.9404955593272462 -197.30016768917631 0 -197.30016768917631 -0.040059849712633877 0 0 0 0 114.34987160055334 -157.67036935559918 0 -157.67036935559918 -42.870315182277409 0 0 0 0 35.15272218896007 -253.25119942648053 0 -253.25119942648053 -74.610759226918162 0 0 0 0 -55.071655708380604 -185.54314022846302 0 -185.54314022846302 -31.033097442967119 0 0 0 0 59.606895634651664 -200.80227118510447 0 -200.80227118510447 123.26618580368086 0 0 0 0 35.397831250971649 -135.33155685061502 0 -135.33155685061502 -36.362744474282408 0 0 0 0 275.8028339248267 -170.08066323162711 0 -170.08066323162711 -58.5288550377511 0 0 0 0 109.2404672929224 -148.79804062467156 0 -148.79804062467156 -58.179582927090564 0 0 0 0 117.25730566854509 -123.6358967416254 0 -123.6358967416254 14.517493810577434 0 0 0 0 115.36188251902286 -133.48505611828296 0 -133.48505611828296 -36.597285555457347 0 0 0 0 -79.997224142400228 -9.4480201008209406 0 -9.4480201008209406 291.0420715168475 0 0 0 0 -79.950558585904261 -85.632779411199238 0 -85.632779411199238 130.40404337183645 0 0 0 0 -231.69261560510495 -61.009868166722299 0 -61.009868166722299 40.262918279073347 0 0 0 0 13.6094009194066 -26.375272873076018 0 -26.375272873076018 46.811807696108275 0 0 0 0 -246.49922609354144 -128.88232003294615 0 -128.88232003294615 40.660103971804347 0 0 0 0 -234.0057322193079 -145.84409522485657 0 -145.84409522485657 -6.2481218109824113 0 0 0 0 -206.99240157545137 -186.4703427038512 0 -186.4703427038512 54.467626898593153 0 0 0 0 -353.0725830640713 -221.99147832593007 0 -221.99147832593007 49.253926458766728 0 0 0 0 -146.56769734457976 -322.80839468709382 0 -322.80839468709382 -176.79732932904153 0 0 0 0 -115.29580452262053 -129.30452681824681 0 -129.30452681824681 -66.170077474424033 0 0 0 0 -195.73882916423827 -327.8003656899873 0 -327.8003656899873 -546.85149192388781 0 0 0 0 -633.52073328864935 -282.21624729542418 0 -282.21624729542418 54.501509140212875 0 0 0 0 -307.25450242217539 -134.04218749359734 0 -134.04218749359734 121.79078699427919 0 0 0 0 -35.979422552565666 -69.130559301542235 0 -69.130559301542235 -0.77169424322710256 0 0 0 0 -6.6044038220897576 -1.6500699849000711 0 -1.6500699849000711 -1.9929861058411831 0 0 0 0 -405.55208684296622 112.07645526612214 0 112.07645526612214 128.19609954901534 0 0 0 0 -14.882904670688646 -12.518290070971844 0 -12.518290070971844 8.8916480129087958 0 0 0 0 8.3473087017537182 -78.066079483590329 0 -78.066079483590329 -187.79164735674567 0 0 0 0 -39.552025666402187 -71.486626020259791 0 -71.486626020259791 69.901591307803756 0 0 0 0 18.922170601344554 -41.020790950087424 0 -41.020790950087424 52.780676592802919 0 0 0 0 -139.74412131813369 -434.41741937263942 0 -434.41741937263942 189.87770926453413 0 0 0 0 -39.012866018685145 -153.32529208611777 0 -153.32529208611777 -32.721089434304304 0 0 0 0 -92.364614325195362 -136.355254542068 0 -136.355254542068 -3.5695128576735442 0 0 0 0 -148.28763818673178 -347.08208744434887 0 -347.08208744434887 -622.2016904541988 0 0 0 0 -255.39578197607443 -200.95002685692634 0 -200.95002685692634 57.010907823206594 0 0 0 0 -652.96152587893084 -315.91981756135283 0 -315.91981756135283 50.581332103836758 0 0 0 0 -459.82876773729959 92.402215451244047 0 92.402215451244047 -61.284313909207413 0 0 0 0 -35.793236375797278 -53.202871971900095 0 -53.202871971900095 -54.346297745531047 0 0 0 0 -130.46025756893687 -116.76851924214952 0 -116.76851924214952 306.267579813677 0 0 0 0 -56.121289705151867 -198.04073469099967 0 -198.04073469099967 337.61643158826155 0 0 0 0 -326.11076213530305 -173.81075031047112 0 -173.81075031047112 200.78479425067781 0 0 0 0 -2.0016212008903764 -6.0680640939901949 0 -6.0680640939901949 4.6829943014858983 0 0 0 0 -258.52465874786594 -232.26082904563191 0 -232.26082904563191 -141.53367083169724 0 0 0 0 116.92789995942803 -446.71037785149019 0 -446.71037785149019 1413.7966040433585 0 0 0 0 -1.016636356819518 -3.4361967511975422 0 -3.4361967511975422 2.6907666311801464 0 0 0 0 66.293124213494593 -620.20279092999408 0 -620.20279092999408 -487.9157315495213 0 0 0 0 0.10445919137380599 -2.0946630960632717 0 -2.0946630960632717 1.2056762686876041 0 0 0 0 62.385047861413113 -94.717820782524541 0 -94.717820782524541 616.12722759656754 0 0 0 0 135.90587703131496 -239.88840105308191 0 -239.88840105308191 -726.71236516629688 0 0 0 0 -46.412476319904727 -57.407819527428728 0 -57.407819527428728 -63.899572143018304 0 0 0 0 301.90488227180504 -149.89960086637257 0 -149.89960086637257 -203.45140839863234 0 0 0 0 205.99545542137366 -42.802054452798984 0 -42.802054452798984 -151.66954357027134 0 0 0 0 232.7101545268581 -215.1851373161976 0 -215.1851373161976 66.513480788184097 0 0 0 0 104.71776733022489 35.881342608070554 0 35.881342608070554 130.62550701434867 0 0 0 0 82.942136030516849 -51.091068515790539 0 -51.091068515790539 -77.019627994870461 0 0 0 0 -63.577038792298481 -199.82340884025143 0 -199.82340884025143 -0.2642400265976903 0 0 0 0 -82.921625284889387 103.21435823968727 0 103.21435823968727 288.34721571378032 0 0 0 0 -177.5000272274965 -206.08467931582527 0 -206.08467931582527 227.44798466989596 0 0 0 0 -1.1937166265896977 -5.0993475438313141 0 -5.0993475438313141 3.6405494481181222 0 0 0 0 -124.96651371931512 -308.60474483594589 0 -308.60474483594589 -166.16337663998092 0 0 0 0 -106.09814884845082 -87.68283675976727 0 -87.68283675976727 140.21524892250454 0 0 0 0 -113.21086606521021 -247.21881361997657 0 -247.21881361997657 223.3438619696517 0 0 0 0 -101.13184031467244 -175.98934384743006 0 -175.98934384743006 157.89821087826567 0 0 0 0 -12.184340622143282 19.45593555927735 0 19.45593555927735 144.70556870968153 0 0 0 0 246.45988076523827 -607.10933149502853 0 -607.10933149502853 116.33387258184666 0 0 0 0 2.8879343592112292 -3.1356163086672595 0 -3.1356163086672595 2.4862066540971739 0 0 0 0 158.45035886346886 -367.47346746314179 0 -367.47346746314179 295.73821412597135 0 0 0 0 259.09271708322285 -187.31503128992972 0 -187.31503128992972 80.498764030351595 0 0 0 0 56.897940593546991 -158.70220598394008 0 -158.70220598394008 77.216985256083717 0 0 0 0 5.5543243974680081 -71.519060535314566 0 -71.519060535314566 123.29589266576932 0 0 0 0 0.28014297646946318 -1.1276374457983849 0 -1.1276374457983849 -0.82391422493203947 0 0 0 0 21.722991255114266 -111.27245914107243 0 -111.27245914107243 -135.16464867610921 0 0 0 0 -147.54276000105165 -154.6371625937245 0 -154.6371625937245 210.18844892584821 0 0 0 0 25.315318177033987 -181.066471718088 0 -181.066471718088 213.26877293417601 0 0 0 0 -123.11240523275592 -240.88787540990597 0 -240.88787540990597 248.20084185256201 0 0 0 0 1.6017503234434116 -371.30340478180005 0 -371.30340478180005 296.66488472560741 0 0 0 0 -48.736104156585498 -272.86076671594674 0 -272.86076671594674 111.9445757196554 0 0 0 0 166.98035799965146 -398.47696275368435 0 -398.47696275368435 174.7523319952852 0 0 0 0 166.31531306045127 -266.08182714374078 0 -266.08182714374078 336.493082515688 0 0 0 0 156.34325322563018 -269.28555638307444 0 -269.28555638307444 324.26834768483059 0 0 0 0 248.36074831139922 -248.95936699878257 0 -248.95936699878257 325.17932130756526 0 0 0 0 162.1465609675588 -112.78723184081861 0 -112.78723184081861 147.65507873729803 0 0 0 0 -1.391682040745458 -2.5331841040564882 0 -2.5331841040564882 -2.0961641547949483 0 0 0 0 46.436834407853894 12.005024202004279 0 12.005024202004279 -84.674588826670515 0 0 0 0 138.0027082178143 -225.76590237128721 0 -225.76590237128721 275.03620737709571 0 0 0 0 493.89142324166096 -532.29854244342278 0 -532.29854244342278 537.99085769277281 0 0 0 0 463.90799958484786 -446.35972121682062 0 -446.35972121682062 544.86484797242019 0 0 0 0 268.05736042159879 -472.05958696760536 0 -472.05958696760536 709.17967952170147 0 0 0 0 14.455240421779308 -167.65521432385503 0 -167.65521432385503 881.13501512577932 0 0 0 0 376.5171370728649 -572.89340580699809 0 -572.89340580699809 717.39557151395275 0 0 0 0 60.631480384794202 -380.42296947785803 0 -380.42296947785803 480.71048508428794 0 0 0 0 484.30474039792171 -461.96573378796893 0 -461.96573378796893 454.35747062130758 0 0 0 0 60.316392303826433 -375.500286835726 0 -375.500286835726 605.63724755630392 0 0 0 0 12.496972537891907 -130.56187395214829 0 -130.56187395214829 401.22155209304765 0 0 0 0 -124.55506280336158 -367.41091608385341 0 -367.41091608385341 363.23277121836145 0 0 0 0 -135.17661896465142 -356.23471279022669 0 -356.23471279022669 742.30487681653904 0 0 0 0 -90.703102452705934 -320.15886354021859 0 -320.15886354021859 425.71466566144227 0 0 0 0 -75.542225834797136 -417.05811650624673 0 -417.05811650624673 410.22020953468564 0 0 0 0 -198.24709348672695 -676.48993182445338 0 -676.48993182445338 274.89475814519938 0 0 0 0 166.87701121151997 -479.9454740493336 0 -479.9454740493336 -59.985448772909876 0 0 0 0 -1.898810775478772 -3.3965305635916536 0 -3.3965305635916536 -1.2717928681510671 0 0 0 0 -157.88990304217441 -744.53524383624972 0 -744.53524383624972 906.63979874055804 0 0 0 0 -36.827873971597 -645.70214772067629 0 -645.70214772067629 82.604545302190672 0 0 0 0 -155.37386312406306 -766.65390667752217 0 -766.65390667752217 319.34921970943833 0 0 0 0 -171.42198383346681 -405.96750086235147 0 -405.96750086235147 380.02369315305987 0 0 0 0 80.098012632554401 -285.48007049434182 0 -285.48007049434182 451.37066672908259 0 0 0 0 -24.560106794866442 -548.18292818387272 0 -548.18292818387272 508.73014750735456 0 0 0 0 -39.393662868875197 -509.69871836657092 0 -509.69871836657092 413.27985691993672 0 0 0 0 -0.84394577120561109 -1.9989442566504465 0 -1.9989442566504465 0.057479459430297197 0 0 0 0 662.31389822304482 -683.74398271363316 0 -683.74398271363316 335.41860033699049 0 0 0 0 756.87961486721906 -604.9155927576212 0 -604.9155927576212 390.05894388526212 0 0 0 0 414.5724547327045 -734.36570641384606 0 -734.36570641384606 329.06499410895776 0 0 0 0 803.66714477042842 -487.40603384744463 0 -487.40603384744463 345.22710592851217 0 0 0 0 1060.1239210059175 -418.69394178202856 0 -418.69394178202856 103.58396749669919 0 0 0 0 522.39219604570826 -393.64223377488088 0 -393.64223377488088 58.139110621239524 0 0 0 0 723.53965741504362 -463.37361410832091 0 -463.37361410832091 234.77861332642351 0 0 0 0 914.48059664166431 -561.8879140949357 0 -561.8879140949357 275.58043471063866 0 0 0 0 932.02019810823549 -576.53248830326629 0 -576.53248830326629 406.87244059846853 0 0 0 0 -2.5827545540159207 -3.9794147803774678 0 -3.9794147803774678 0.40233323020355272 0 0 0 0 1061.9679624709534 -841.58880954302549 0 -841.58880954302549 678.32992635200208 0 0 0 0 731.91914437712694 -575.29545717414294 0 -575.29545717414294 525.76071349011909 0 0 0 0 1136.1377273034759 -647.10804082668255 0 -647.10804082668255 190.0544711042603 0 0 0 0 255.8668433595376 -306.0833454784588 0 -306.0833454784588 136.66363625353551 0 0 0 0 -4.5512972388982682 -7.0092420298450904 0 -7.0092420298450904 4.2564874281918321 0 0 0 0 -2.251142261856554 -3.6886902295716126 0 -3.6886902295716126 -1.1674311902569912 0 0 0 0 67.057857837480697 72.251152513334091 0 72.251152513334091 56.380060209987278 0 0 0 0 -281.75927181407314 -222.78620638798748 0 -222.78620638798748 281.59042845189106 0 0 0 0 1032.5777320019697 -693.47841488360064 0 -693.47841488360064 252.50560830158065 0 0 0 0 885.59737648634473 -660.18830359683488 0 -660.18830359683488 271.33514365056908 0 0 0 0 932.04587269102922 -639.80338377019507 0 -639.80338377019507 273.78230379951674 0 0 0 0 812.25951124117273 -690.3788463879755 0 -690.3788463879755 349.21501167232054 0 0 0 0 947.70842324272417 -716.26378999400004 0 -716.26378999400004 345.22075007774401 0 0 0 0 1027.6452959481539 -685.89503958936984 0 -685.89503958936984 381.75582943420159 0 0 0 0 223.23793911201938 -334.59837737608177 0 -334.59837737608177 195.64271649543662 0 0 0 0 215.10192244244899 -329.45364476450777 0 -329.45364476450777 154.95040476665599 0 0 0 0 219.54817342239403 -344.38984361336043 0 -344.38984361336043 173.08664948644582 0 0 0 0 190.66851724619846 -320.65808580588418 0 -320.65808580588418 171.2918874528259 0 0 0 0 224.6392220009875 -406.00022654259737 0 -406.00022654259737 249.65387887327233 0 0 0 0 253.22873034585791 -342.08785563991114 0 -342.08785563991114 199.89345673941716 0 0 0 0 198.17600362730809 -344.38046153224059 0 -344.38046153224059 207.2286283665162 0 0 0 0 964.82227137843438 -592.46230358399043 0 -592.46230358399043 217.65947955107549 0 0 0 0 993.81263424681674 -606.26820630631119 0 -606.26820630631119 216.3105776601933 0 0 0 0 1076.9840042985743 -562.4864739915065 0 -562.4864739915065 160.90152331988793 0 0 0 0 919.1611547247885 -467.01653318621538 0 -467.01653318621538 193.05919381673448 0 0 0 0 1080.8977530596021 -482.10379352328891 0 -482.10379352328891 189.76247671468445 0 0 0 0 290.18997683402267 -259.79457615292631 0 -259.79457615292631 189.57568608783185 0 0 0 0 777.70712378407552 -333.24959367471274 0 -333.24959367471274 189.4449765025056 0 0 0 0 1226.0154761876911 -400.90828630173928 0 -400.90828630173928 36.645360837690532 0 0 0 0 867.21642052018433 -335.36168636642105 0 -335.36168636642105 171.19821531898924 0 0 0 0 415.97193227957177 -178.40567956145969 0 -178.40567956145969 168.8776386863974 0 0 0 0 1094.2804618018781 -74.173656902436051 0 -74.173656902436051 114.71584824612364 0 0 0 0 761.51181021126104 -140.02968127757777 0 -140.02968127757777 170.41803386766696 0 0 0 0 736.66392454164452 -45.791314705536934 0 -45.791314705536934 142.80638093949528 0 0 0 0 960.9678565207505 -211.65881137085671 0 -211.65881137085671 96.353217467491049 0 0 0 0 538.64443894056603 -75.204215056321118 0 -75.204215056321118 152.79496396891773 0 0 0 0 664.81366102288302 -171.35566863611166 0 -171.35566863611166 150.15341074082244 0 0 0 0 837.79985783674056 -148.8501209509559 0 -148.8501209509559 113.59721756809449 0 0 0 0 921.61006626033122 -352.75290801513074 0 -352.75290801513074 145.44365292249131 0 0 0 0 659.94151438648987 -500.44058187503833 0 -500.44058187503833 221.474309236517 0 0 0 0 529.23943313943892 -412.31105653874693 0 -412.31105653874693 216.14125109238375 0 0 0 0 483.29395537932578 -334.7707634306862 0 -334.7707634306862 204.4756638649269 0 0 0 0 695.78584343508919 -363.30723852750816 0 -363.30723852750816 144.95558993142913 0 0 0 0 351.32895554768766 -455.25733353442774 0 -455.25733353442774 275.05960762377072 0 0 0 0 349.02436931917691 -472.43957213274371 0 -472.43957213274371 236.9975524773472 0 0 0 0 315.6379074577344 -359.39527087054739 0 -359.39527087054739 225.45458372338908 0 0 0 0 363.86114336152968 -374.27969009100343 0 -374.27969009100343 211.15285206923727 0 0 0 0 434.30360691284295 -355.61174373328686 0 -355.61174373328686 187.0155920709949 0 0 0 0 233.10941404067125 -326.5779238710893 0 -326.5779238710893 199.6311324753915 0 0 0 0 370.74801391702204 -336.51293699810049 0 -336.51293699810049 196.40949839091627 0 0 0 0 155.21546105427842 -441.62630630446074 0 -441.62630630446074 235.84747152792988 0 0 0 0 -165.46651587447468 -555.72513443475873 0 -555.72513443475873 526.24720719879406 0 0 0 0 -23.802521502890158 -487.08062476467603 0 -487.08062476467603 355.27422543439025 0 0 0 0 118.70630801093648 -550.89134183522765 0 -550.89134183522765 329.42088302860793 0 0 0 0 150.86936726752174 -429.56919228516927 0 -429.56919228516927 286.6428529767727 0 0 0 0 -52.250140526950418 -702.27039443790272 0 -702.27039443790272 386.58738524644286 0 0 0 0 395.65634616617717 -618.17981914641223 0 -618.17981914641223 345.55726635002065 0 0 0 0 -25.792956563804182 -484.17494030982652 0 -484.17494030982652 419.20512120360218 0 0 0 0 -191.98180638479607 -357.33471842591825 0 -357.33471842591825 387.31853219048935 0 0 0 0 23.397734183006833 -374.63740355212212 0 -374.63740355212212 309.76055951342278 0 0 0 0 -134.0066172515435 -399.54449720563935 0 -399.54449720563935 418.02881137064105 0 0 0 0 14.721900243792334 -316.78181761365704 0 -316.78181761365704 237.06280168506783 0 0 0 0 124.5804799204343 -394.38244998297887 0 -394.38244998297887 286.52031781784876 0 0 0 0 116.70162079780857 -355.45384561012906 0 -355.45384561012906 226.0016982692905 0 0 0 0 268.78069405144197 -289.12479744006123 0 -289.12479744006123 60.639742081868462 0 0 0 0 148.24565562950738 -284.16263156977948 0 -284.16263156977948 124.28592131714686 0 0 0 0 144.8774609333268 -300.55274505809939 0 -300.55274505809939 191.12478964420734 0 0 0 0 239.3654279684124 -214.11789105161006 0 -214.11789105161006 -17.731020221312065 0 0 0 0 -38.062559573027102 -138.89959457403165 0 -138.89959457403165 90.465951581281843 0 0 0 0 58.764064234768739 -250.72287097034859 0 -250.72287097034859 166.18668173316109 0 0 0 0 -118.34890560211352 -286.33911629953218 0 -286.33911629953218 244.41323675390595 0 0 0 0 -104.79290318291169 -283.35896818496258 0 -283.35896818496258 244.79663086794608 0 0 0 0 -95.726753902679775 -372.63806604553611 0 -372.63806604553611 455.55734641463823 0 0 0 0 -120.74623959888686 -459.45550211021055 0 -459.45550211021055 277.16246149648214 0 0 0 0 -148.789859314149 -512.62623025771245 0 -512.62623025771245 503.56787382718176 0 0 0 0 -142.24643970672878 -526.84897102522882 0 -526.84897102522882 533.85044105150882 0 0 0 0 -83.203612419954879 -379.71277575964996 0 -379.71277575964996 833.92880998847704 0 0 0 0 293.70154821708093 -320.2865683643322 0 -320.2865683643322 508.70293202982793 0 0 0 0 236.90052689023105 -448.17218882181078 0 -448.17218882181078 163.96220817832 0 0 0 0 -53.614465072293569 -531.09573174857087 0 -531.09573174857087 402.47283255081857 0 0 0 0 -77.240964221290511 -584.58512400556322 0 -584.58512400556322 109.32002108082452 0 0 0 0 7.1626436687020032 -469.37495100484739 0 -469.37495100484739 14.64746196437045 0 0 0 0 -217.7578700108852 -647.9284660432786 0 -647.9284660432786 -0.31253489976734272 0 0 0 0 -770.4110279293327 -503.59159336374796 0 -503.59159336374796 121.86952811162701 0 0 0 0 -73.358056491185778 -454.78884394480013 0 -454.78884394480013 94.089550172226154 0 0 0 0 -408.79426967158361 -437.19608820414942 0 -437.19608820414942 292.53713970383433 0 0 0 0 261.80960516961204 249.08842969220859 0 249.08842969220859 -228.9947184282355 0 0 0 0 -387.32719657084454 -119.84209006902165 0 -119.84209006902165 142.16921177165932 0 0 0 0 -124.38878843434213 -5.2387572115112562 0 -5.2387572115112562 -91.307569408309064 0 0 0 0 163.51462072429422 -164.23072921991843 0 -164.23072921991843 -27.180244225412025 0 0 0 0 -952.1735992582071 1.2803631746792234 0 1.2803631746792234 191.8086028702528 0 0 0 0 0.015561515328656128 -2.425534054611191 0 -2.425534054611191 1.3725050592281605 0 0 0 0 -223.77472818310343 -530.93895029379928 0 -530.93895029379928 7.889461738668615 0 0 0 0 -1.8974776858451854 -1.754932647015913 0 -1.754932647015913 -1.2434814856227661 0 0 0 0 1311.7397089681326 -816.22004967174871 0 -816.22004967174871 0.72425952721022491 0 0 0 0 956.89218389194343 -605.46166783548506 0 -605.46166783548506 239.08694775756157 0 0 0 0 1628.8637453161682 -660.27062938523522 0 -660.27062938523522 1.5227683909761254 0 0 0 0 1207.0461559731848 -572.78033889907238 0 -572.78033889907238 216.76293420032744 0 0 0 0 1274.1214792591345 -350.71797528110619 0 -350.71797528110619 383.30510443687672 0 0 0 0 1026.7537634838009 -534.9874138347077 0 -534.9874138347077 588.04578472099092 0 0 0 0 882.72462210753292 -674.23130144463357 0 -674.23130144463357 390.95225349068642 0 0 0 0 914.55330032449274 -643.33966072315525 0 -643.33966072315525 422.48466653159994 0 0 0 0 913.05704571522074 -660.84314918828022 0 -660.84314918828022 319.50110406396561 0 0 0 0 1053.5608946584325 -615.66761097353447 0 -615.66761097353447 336.75788424081111 0 0 0 0 369.65152952085555 -453.42921177199605 0 -453.42921177199605 -446.90466420549274 0 0 0 0 -0.94240163076105432 -3.1031705672763366 0 -3.1031705672763366 -1.6734975201972588 0 0 0 0 279.82123545757736 -377.54996987753634 0 -377.54996987753634 143.46185656497255 0 0 0 0 244.52787987569013 -552.72840801630082 0 -552.72840801630082 739.99417728688422 0 0 0 0 243.70222006351105 -456.84933728456599 0 -456.84933728456599 502.31616758636301 0 0 0 0 -3.2366612986228702 -6.0528832751657973 0 -6.0528832751657973 -3.1955251666066431 0 0 0 0 344.23955332477271 -607.56085678681484 0 -607.56085678681484 422.06306926398247 0 0 0 0 170.95092989275145 -525.38650763262194 0 -525.38650763262194 391.98019011201723 0 0 0 0 322.15465898488037 -476.07652031473845 0 -476.07652031473845 26.183984911600419 0 0 0 0 225.843949845922 -640.0249607689293 0 -640.0249607689293 -0.01836523910969845 0 0 0 0 260.30694832285008 -608.64996449552109 0 -608.64996449552109 3.2327236718519998 0 0 0 0 306.2454888679722 -637.92729025799053 0 -637.92729025799053 0.073653975086926948 0 0 0 0 305.613440242254 -667.2172410247731 0 -667.2172410247731 6.0095468453801004 0 0 0 0 771.08382810761486 -573.23508187624975 0 -573.23508187624975 0.31600841198815033 0 0 0 0 505.37699132145462 -439.89911767567537 0 -439.89911767567537 92.691462721848438 0 0 0 0 1676.5636551240659 -189.53135292073603 0 -189.53135292073603 -149.70469682397743 0 0 0 0 1.7138484631285902 -3.0482847489987179 0 -3.0482847489987179 0.2563227210586092 0 0 0 0 -870.51020722944077 -611.85159921257218 0 -611.85159921257218 0.74579288105815067 0 0 0 0 640.95178839152368 -176.43608659522761 0 -176.43608659522761 -24.606336738830578 0 0 0 0 696.43618929933064 -514.28725122067226 0 -514.28725122067226 -0.6308987613338104 0 0 0 0 17.40425143952649 -349.76064050636165 0 -349.76064050636165 505.74316170299426 0 0 0 0 14.068142081627229 -261.92422356350835 0 -261.92422356350835 -242.89851344749695 0 0 0 0 606.41586880295381 -806.81188939072308 0 -806.81188939072308 -391.1708928567823 0 0 0 0 425.45212228066521 -537.24116857611807 0 -537.24116857611807 -506.71811608744611 0 0 0 0 505.67666038669995 -524.36305196456669 0 -524.36305196456669 -532.48168100868861 0 0 0 0 362.68930227163878 -244.06767902077809 0 -244.06767902077809 -221.82552964561182 0 0 0 0 274.00302557473879 -465.01605606185694 0 -465.01605606185694 -417.91781919910136 0 0 0 0 425.50678050892657 194.97193645635707 0 194.97193645635707 -129.53629025760165 0 0 0 0 656.8371762205079 -431.79799723566612 0 -431.79799723566612 -281.74667504068202 0 0 0 0 467.3207672790777 -334.44593775380417 0 -334.44593775380417 -329.84512995366822 0 0 0 0 284.42749690829532 -269.17422879951846 0 -269.17422879951846 -287.87347457298165 0 0 0 0 493.94132174156687 -458.0440194329517 0 -458.0440194329517 -571.78142358573677 0 0 0 0 665.55912539705241 -243.097824784978 0 -243.097824784978 -96.540610897602164 0 0 0 0 215.90132732703023 -262.38553247506206 0 -262.38553247506206 -48.904715944263444 0 0 0 0 3.4442683987689851 -7.7712198944800921 0 -7.7712198944800921 -0.29645889228686428 0 0 0 0 -462.65789960050461 -498.31138110309257 0 -498.31138110309257 -27.373412775625184 0 0 0 0 71.458775957580656 -235.3607430977645 0 -235.3607430977645 -195.03018623925891 0 0 0 0 3.9588303281424349 -9.3168445496992192 0 -9.3168445496992192 -2.6999849800897948 0 0 0 0 204.28066939231576 -171.60137920757734 0 -171.60137920757734 112.12231462630734 0 0 0 0 66.824783021278307 -72.010342597393617 0 -72.010342597393617 48.463757142584655 0 0 0 0 70.290892644034102 -174.99886969819636 0 -174.99886969819636 282.33032009882663 0 0 0 0 -14.464243109400741 -19.503306137450636 0 -19.503306137450636 136.80534822239861 0 0 0 0 3.0007711807593296 12.674148834088555 0 12.674148834088555 76.851298026042059 0 0 0 0 -0.24949355357504821 -1.8092568513717904 0 -1.8092568513717904 2.3501436054169176 0 0 0 0 130.52039402286209 -254.59614744517603 0 -254.59614744517603 240.08866638460313 0 0 0 0 -3.9899787951217149 -6.4487169729553671 0 -6.4487169729553671 -2.9909025315213995 0 0 0 0 951.76308581607736 -313.13273833809944 0 -313.13273833809944 108.90725943655707 0 0 0 0 4.6066190895762738 -1.7098004058116345 0 -1.7098004058116345 -1.2925719390535448 0 0 0 0 979.57687596649703 -231.59408170270763 0 -231.59408170270763 9.6533861428979435 0 0 0 0 935.55559886554943 -196.96667247244159 0 -196.96667247244159 -52.272759422892705 0 0 0 0 279.80437031485417 -168.61503904706478 0 -168.61503904706478 16.905356723967998 0 0 0 0 460.9557180613499 -361.88776352541089 0 -361.88776352541089 -241.34094234489748 0 0 0 0 464.32698280859404 -211.2512742295512 0 -211.2512742295512 93.033345658237522 0 0 0 0 475.81181970639227 -132.70327198633458 0 -132.70327198633458 127.18152309334619 0 0 0 0 475.969993568527 -129.2327971724917 0 -129.2327971724917 -55.980517963900638 0 0 0 0 267.97905379764052 -137.33285634301865 0 -137.33285634301865 100.46273556592996 0 0 0 0 340.4624178050617 -21.713029923703289 0 -21.713029923703289 110.61049670382636 0 0 0 0 441.28726232221925 -52.059255683379888 0 -52.059255683379888 99.485137297910114 0 0 0 0 473.32631993782525 -65.969423953560181 0 -65.969423953560181 248.31515508368284 0 0 0 0 806.76130292954258 -319.26413310253338 0 -319.26413310253338 197.51827000098274 0 0 0 0 559.64730114216673 -44.64704904714894 0 -44.64704904714894 144.70913999460754 0 0 0 0 497.79075975981686 -82.717921764000494 0 -82.717921764000494 131.17753704746974 0 0 0 0 462.28723695669032 -104.37516107682313 0 -104.37516107682313 172.35782075953466 0 0 0 0 285.69485844544761 -49.995868091300508 0 -49.995868091300508 195.94567889629252 0 0 0 0 424.12402470642337 -46.054488139721798 0 -46.054488139721798 164.86658806733612 0 0 0 0 462.16336399903321 -100.79483672899732 0 -100.79483672899732 152.46608603176719 0 0 0 0 496.87301858694536 -87.982557714099585 0 -87.982557714099585 173.67339616236859 0 0 0 0 357.42321844162143 -100.50456799952372 0 -100.50456799952372 220.02956055517279 0 0 0 0 401.35707453167834 -111.78867386309412 0 -111.78867386309412 211.20789377042092 0 0 0 0 437.8326399263824 -157.76772819166945 0 -157.76772819166945 247.93512341718088 0 0 0 0 443.60786058577105 -158.82971278366313 0 -158.82971278366313 247.16571517591365 0 0 0 0 473.50761657328985 -85.472349612864491 0 -85.472349612864491 176.59899506894362 0 0 0 0 506.21179421040779 -207.79433274222902 0 -207.79433274222902 274.06033854804991 0 0 0 0 605.78059914192818 -98.701639886778139 0 -98.701639886778139 202.42626067875244 0 0 0 0 379.58111138715049 -266.75028520449086 0 -266.75028520449086 383.05406377770123 0 0 0 0 509.28702263938612 -65.897048313658161 0 -65.897048313658161 200.73804707505769 0 0 0 0 493.17766778610894 -109.23479700153985 0 -109.23479700153985 204.19924214095226 0 0 0 0 498.21015200195143 -51.698389586195844 0 -51.698389586195844 267.07806552629336 0 0 0 0 450.83398700625548 -91.236741300977883 0 -91.236741300977883 239.21974862952629 0 0 0 0 451.43141989230924 -93.811252162454821 0 -93.811252162454821 204.65105935988686 0 0 0 0 186.7559915718175 -146.91138019197024 0 -146.91138019197024 317.18499714301652 0 0 0 0 451.41341948452964 -85.143249752977681 0 -85.143249752977681 209.23583097875235 0 0 0 0 39.66414291586716 -267.72350050196837 0 -267.72350050196837 248.09101313814608 0 0 0 0 161.7481215596672 -148.95718356437646 0 -148.95718356437646 233.16690928491562 0 0 0 0 6.5852202550959191 -208.51700866244573 0 -208.51700866244573 237.48086624586722 0 0 0 0 242.68162109535388 -251.36442016390356 0 -251.36442016390356 155.62916304903774 0 0 0 0 559.57809003305749 -176.28752427237663 0 -176.28752427237663 141.93817388983007 0 0 0 0 -62.598466968605749 -194.77847895918967 0 -194.77847895918967 300.65120871307954 0 0 0 0 -3.7702554123397931 48.380432742076664 0 48.380432742076664 162.90589895146695 0 0 0 0 -127.89099424599226 -23.941457673921832 0 -23.941457673921832 470.53701902145622 0 0 0 0 166.69572366808086 -388.86427570774777 0 -388.86427570774777 -92.841486508776143 0 0 0 0 -4.3884169699789837 -2.6481562639043545 0 -2.6481562639043545 -1.2851179951915981 0 0 0 0 -244.69972139781021 -695.38003680448674 0 -695.38003680448674 223.22266044752905 0 0 0 0 -228.66107645383534 88.065564393069508 0 88.065564393069508 115.15194811543006 0 0 0 0 -14.177875225771242 -4.2343244547453622 0 -4.2343244547453622 0.27216540883608786 0 0 0 0 -103.22158591377939 159.2315011910905 0 159.2315011910905 -119.54926398007956 0 0 0 0 16.272450180647866 -251.32752892770441 0 -251.32752892770441 594.84415894142512 0 0 0 0 34.920100316800017 -98.246590526976433 0 -98.246590526976433 400.10981628974696 0 0 0 0 -17.62650090306856 -5.7028896408960037 0 -5.7028896408960037 1.8213882742342236 0 0 0 0 86.781074754095243 -145.84455703651474 0 -145.84455703651474 479.932082508858 0 0 0 0 56.682262190992333 -139.90442050535785 0 -139.90442050535785 479.38407830665528 0 0 0 0 80.541203018981832 -134.00182340114043 0 -134.00182340114043 361.08029110873758 0 0 0 0 258.60363671552841 -153.67076669974995 0 -153.67076669974995 303.39957892168604 0 0 0 0 190.48238499357103 -222.53408829702676 0 -222.53408829702676 390.48503579276621 0 0 0 0 319.48254063501008 -172.42560465347924 0 -172.42560465347924 294.45125489468046 0 0 0 0 207.81473199405445 -82.694110005177208 0 -82.694110005177208 247.55532551219221 0 0 0 0 145.52372794968505 -145.19830340635235 0 -145.19830340635235 359.99311980782295 0 0 0 0 106.73984831356665 -92.511329496301187 0 -92.511329496301187 295.27849431544746 0 0 0 0 138.82841473889493 -122.82777346485091 0 -122.82777346485091 291.29327091469895 0 0 0 0 165.81166740972003 -13.099882201488072 0 -13.099882201488072 162.63508545732475 0 0 0 0 295.49234227629609 -112.12690348624574 0 -112.12690348624574 234.01560321991565 0 0 0 0 99.481254849549259 -120.40755314332637 0 -120.40755314332637 90.380078159549157 0 0 0 0 36.402522496802703 -20.527576779866649 0 -20.527576779866649 197.2780379755859 0 0 0 0 -125.1995337820772 -29.737712627516885 0 -29.737712627516885 53.815941614040639 0 0 0 0 144.89201074909215 -133.62615898022341 0 -133.62615898022341 -137.86981602260494 0 0 0 0 179.89862190770873 -94.037623604133842 0 -94.037623604133842 172.67121633345596 0 0 0 0 197.55635969107243 -60.682693143833603 0 -60.682693143833603 23.159026474211714 0 0 0 0 59.060538651022398 -115.79813763016136 0 -115.79813763016136 44.377291054930538 0 0 0 0 276.52942293105662 -106.98882029498418 0 -106.98882029498418 -87.168479114385264 0 0 0 0 122.86203311440477 -165.25582085779752 0 -165.25582085779752 -45.354360201876261 0 0 0 0 168.61874843069199 -153.47615383079392 0 -153.47615383079392 -288.00651748778182 0 0 0 0 44.649178844074413 -314.90546878262103 0 -314.90546878262103 -254.12086303265551 0 0 0 0 155.32354760367707 -167.7498883735534 0 -167.7498883735534 -255.22803673327871 0 0 0 0 283.13906528538064 -236.03473478899832 0 -236.03473478899832 -226.30306853807997 0 0 0 0 5.8945462652345668 -128.48749305641286 0 -128.48749305641286 -357.30858215772605 0 0 0 0 -35.689914608123217 -181.36483995709568 0 -181.36483995709568 -103.1621767370998 0 0 0 0 43.19081016756536 -244.54691862172695 0 -244.54691862172695 -436.86995844972262 0 0 0 0 -113.23673395289734 -323.38293784009147 0 -323.38293784009147 -491.29347873252118 0 0 0 0 -80.064360824864707 -387.77917197075294 0 -387.77917197075294 -387.29789141099445 0 0 0 0 -179.75461291348392 -468.05867898482029 0 -468.05867898482029 -581.91295809602889 0 0 0 0 -199.36049081548845 -449.18651414275519 0 -449.18651414275519 -599.23520777620433 0 0 0 0 -278.2250978002121 -631.87253261314618 0 -631.87253261314618 -1022.0128940272807 0 0 0 0 -214.51586041553128 -218.6225091977085 0 -218.6225091977085 -946.16065449480811 0 0 0 0 -791.54204931767435 -184.66098747064825 0 -184.66098747064825 -501.96711070449237 0 0 0 0 -278.35792967755879 -279.19714745254169 0 -279.19714745254169 -449.18425453006421 0 0 0 0 -76.48936980658209 -315.03552291158576 0 -315.03552291158576 -454.54943008367991 0 0 0 0 -256.05795731374928 -106.58845502122131 0 -106.58845502122131 -159.91501969852106 0 0 0 0 -147.4586626731907 -370.18750568706582 0 -370.18750568706582 -449.07850886895903 0 0 0 0 47.143238957310587 -197.40460813758546 0 -197.40460813758546 -132.72217787347472 0 0 0 0 -564.4664726776582 -471.66503822325467 0 -471.66503822325467 -99.461314590955226 0 0 0 0 -224.30422929172084 -447.46095028902391 0 -447.46095028902391 -463.37211440376996 0 0 0 0 -722.3846520567713 -789.52006911362696 0 -789.52006911362696 -672.00943516650659 0 0 0 0 4.9977616218122698 -7.4415848588187572 0 -7.4415848588187572 -2.4565991987653888 0 0 0 0 -46.298637622059687 -415.31667905927679 0 -415.31667905927679 -1330.8931385199066 0 0 0 0 3.9913324882555798 -26.747182827693905 0 -26.747182827693905 9.7793288095017488 0 0 0 0 -953.95950362341227 -493.34575774570112 0 -493.34575774570112 -71.891470610702527 0 0 0 0 -373.45807497635724 -127.43197581706772 0 -127.43197581706772 -198.95374459311461 0 0 0 0 12.371053495389937 -14.141061092945613 0 -14.141061092945613 3.1537259770739468 0 0 0 0 -476.3817009424165 -835.70381149622699 0 -835.70381149622699 -738.83757080249779 0 0 0 0 -456.34332841750074 -655.90317286731806 0 -655.90317286731806 -503.40887483468396 0 0 0 0 -523.17836983437883 -615.27993783506827 0 -615.27993783506827 -514.64751374469051 0 0 0 0 -340.48504610137024 -596.33417611302866 0 -596.33417611302866 -628.46208247997311 0 0 0 0 -441.13209631259087 -580.42844024119495 0 -580.42844024119495 -552.96785460511455 0 0 0 0 -521.27724610663063 -544.17140679223667 0 -544.17140679223667 -550.67298768997398 0 0 0 0 -351.93198185234542 -478.62428033235119 0 -478.62428033235119 -633.14704376002192 0 0 0 0 0.43435000269164448 -828.76589106787287 0 -828.76589106787287 -811.92611221957486 0 0 0 0 2.1998495339802986 -3.0567782384845685 0 -3.0567782384845685 1.3830910808678567 0 0 0 0 -467.04713220743997 -600.5874343189098 0 -600.5874343189098 -703.52559325966286 0 0 0 0 2.8134059378309075 -30.021229611482795 0 -30.021229611482795 19.24986814326985 0 0 0 0 17.836960249987353 -3.1136344587712301 0 -3.1136344587712301 6.0349078668659786 0 0 0 0 -1.5702916664551645 -10.110662699419812 0 -10.110662699419812 -3.8537865577766297 0 0 0 0 228.10494571431218 -395.45655653153699 0 -395.45655653153699 -370.53587576521386 0 0 0 0 102.16789102989424 -231.4729751486957 0 -231.4729751486957 -547.647786287911 0 0 0 0 -288.11195872080771 -672.21929482724227 0 -672.21929482724227 -706.42963483946914 0 0 0 0 -77.792754667658301 -460.53588940969348 0 -460.53588940969348 -361.83774746164818 0 0 0 0 -71.476885414899698 -395.2121546894341 0 -395.2121546894341 -583.94029107078677 0 0 0 0 -183.63429870388154 -485.8025241096766 0 -485.8025241096766 -653.01872917437868 0 0 0 0 -194.12450839059238 -519.12293631344073 0 -519.12293631344073 -506.28372073369019 0 0 0 0 9.0038156966809488 -13.464687364336115 0 -13.464687364336115 9.9958823150634828 0 0 0 0 -410.29475430118691 -560.81813492128276 0 -560.81813492128276 -468.19245793163645 0 0 0 0 242.17240824015562 -230.17754240067734 0 -230.17754240067734 -769.34382586175343 0 0 0 0 -275.28912021053929 -280.33682964732725 0 -280.33682964732725 -475.58898146759748 0 0 0 0 549.54320469403865 -510.33105370441808 0 -510.33105370441808 -773.03797307775312 0 0 0 0 10.945161869834919 -146.49510136373283 0 -146.49510136373283 617.73531152329815 0 0 0 0 4.5173593534355199 -5.2180029242955754 0 -5.2180029242955754 4.4394978143004806 0 0 0 0 0.65175647563831518 35.513463096977716 0 35.513463096977716 147.34055200863077 0 0 0 0 81.43018977193924 -189.42559131706003 0 -189.42559131706003 217.29494365956907 0 0 0 0 200.26433895192122 -231.63091911806987 0 -231.63091911806987 0.53899074077344267 0 0 0 0 518.52294622061163 -588.00134827936927 0 -588.00134827936927 399.44031355743937 0 0 0 0 -0.99080896247667738 -26.673066761108203 0 -26.673066761108203 22.977281283070624 0 0 0 0 6.0294237161918005 -4.5773790989851477 0 -4.5773790989851477 53.257281587175385 0 0 0 0 34.937902332136673 -31.102672530534619 0 -31.102672530534619 19.13226551076832 0 0 0 0 26.857043276319388 -79.566114607246163 0 -79.566114607246163 0.038195401375560323 0 0 0 0 8.8913832254118859 -54.004846152120081 0 -54.004846152120081 63.577819522877689 0 0 0 0 5.0136881710494663 -38.272525200436121 0 -38.272525200436121 0.032375064707593992 0 0 0 0 -0.81605188868222456 -15.398968301720743 0 -15.398968301720743 17.469026765822491 0 0 0 0 3.7986882878176402 -25.519077735412793 0 -25.519077735412793 24.411587093301932 0 0 0 0 4.0271715239327648 -23.12118184894473 0 -23.12118184894473 13.232855024318269 0 0 0 0 8.7795970181791745 -17.617177013045875 0 -17.617177013045875 0.0038475462788483128 0 0 0 0 7.8553454643997611 -17.723690479473589 0 -17.723690479473589 5.1761087047198089 0 0 0 0 4.647929160601052 -10.213801301084459 0 -10.213801301084459 -1.0933287787083827 0 0 0 0 -0.040416396380216213 -6.5306479598443659 0 -6.5306479598443659 -5.9662921973998948 0 0 0 0 -6.4873718504220896 -2.8098218837093469 0 -2.8098218837093469 1.6281373768459702 0 0 0 0 69.4465253686285 -451.60849981330102 0 -451.60849981330102 308.49377700535115 0 0 0 0 75.958590277298242 -259.54297213163045 0 -259.54297213163045 71.716926965520543 0 0 0 0 14.934301606073859 -12.772812148969024 0 -12.772812148969024 45.545543330183136 0 0 0 0 0.25993383672835613 -0.31598716956978734 0 -0.31598716956978734 -0.84585925350295099 0 0 0 0 77.604884563652377 -303.26040749840831 0 -303.26040749840831 481.59542399235943 0 0 0 0 -1.565993841153837 -6.7843868047848446 0 -6.7843868047848446 -6.4445405559686009 0 0 0 0 -4.6240675233420916 -52.021191180858295 0 -52.021191180858295 16.799058508331655 0 0 0 0 268.03656933140178 -237.53987727817093 0 -237.53987727817093 63.991543965414166 0 0 0 0 241.04455763781448 -231.43159027109596 0 -231.43159027109596 69.819264369103621 0 0 0 0 324.297695789513 -116.79597090125844 0 -116.79597090125844 60.90211103130423 0 0 0 0 165.58681118411414 -122.87990973462183 0 -122.87990973462183 65.713908574980451 0 0 0 0 143.4513184022444 -180.17387744058578 0 -180.17387744058578 -32.796492121058691 0 0 0 0 99.860425998141181 -14.402679848178195 0 -14.402679848178195 -177.72106446057296 0 0 0 0 208.75715542987018 -83.085903494051308 0 -83.085903494051308 -85.2595253570762 0 0 0 0 -34.73347012317754 -156.29227961879224 0 -156.29227961879224 -53.117595959149185 0 0 0 0 -28.28430966916676 -73.614382891490095 0 -73.614382891490095 -10.945893622869335 0 0 0 0 196.50960140184134 -106.95131156355455 0 -106.95131156355455 36.945294095094141 0 0 0 0 233.31512299163614 -134.19890796592063 0 -134.19890796592063 -133.53916450536781 0 0 0 0 106.17748991373082 -34.589185650042054 0 -34.589185650042054 -3.1196268925309596 0 0 0 0 12.322544240714137 -11.613120218537915 0 -11.613120218537915 10.597891590936342 0 0 0 0 -9.2331184183264998 -11.734580465047642 0 -11.734580465047642 -5.0394559466828355 0 0 0 0 102.47103689038977 -47.675344928873528 0 -47.675344928873528 -0.88452975204950235 0 0 0 0 -10.018075965907428 -48.519253526472312 0 -48.519253526472312 24.147160149637784 0 0 0 0 -2.57175649195689 -7.0938196739308239 0 -7.0938196739308239 -7.0620335963245822 0 0 0 0 -9.4913617785810036 -6.1534837665098081 0 -6.1534837665098081 -4.3626151428164803 0 0 0 0 12.24564722076002 -6.9524755851161899 0 -6.9524755851161899 34.437783536233837 0 0 0 0 17.590574432045742 -20.639529879226757 0 -20.639529879226757 -44.996130565326894 0 0 0 0 18.35660225540596 -28.145214442127326 0 -28.145214442127326 -8.9147201700034202 0 0 0 0 72.80651342782221 -82.60770923284872 0 -82.60770923284872 0.031106993741559563 0 0 0 0 10.664052957538843 -62.189022280284917 0 -62.189022280284917 -4.89627590811142 0 0 0 0 48.988355011312706 -46.465322404830658 0 -46.465322404830658 -37.032664844169631 0 0 0 0 -34.456367618049171 -57.528575713504324 0 -57.528575713504324 -0.048472461050550919 0 0 0 0 -0.49771327084727091 -43.454255536400524 0 -43.454255536400524 -18.29112342926237 0 0 0 0 -20.331500117771157 -29.485586004386278 0 -29.485586004386278 -3.0581968330880045 0 0 0 0 -8.58153160535403 -44.699003559726407 0 -44.699003559726407 -17.54492334353381 0 0 0 0 0.095193986360306404 -6.4438132399375121 0 -6.4438132399375121 15.021474457586351 0 0 0 0 -12.859939480112189 -34.448659158930241 0 -34.448659158930241 -0.6473663398392091 0 0 0 0 280.76548570747354 -398.19620089948876 0 -398.19620089948876 261.15324233770662 0 0 0 0 0.38523989414109572 -1.3239722586051599 0 -1.3239722586051599 5.8423009917971171 0 0 0 0 -82.699996329609348 -42.976609545245083 0 -42.976609545245083 6.7420296873569896 0 0 0 0 -1.1743246200712747 -13.835853675438557 0 -13.835853675438557 0.012979175856580321 0 0 0 0 57.164129586648414 -93.027990220813081 0 -93.027990220813081 454.42797572267045 0 0 0 0 -799.20223179412642 -1569.2626849653461 0 -1569.2626849653461 11.147691255027894 0 0 0 0 -2.463322041679902 -3.0174268986051871 0 -3.0174268986051871 0.59780715068806956 0 0 0 0 -231.06587160873505 -272.09047243993518 0 -272.09047243993518 604.70474482375721 0 0 0 0 -4.0256970368936891 -14.656483940052567 0 -14.656483940052567 -0.2145375351246912 0 0 0 0 -1.5285952737916482 -0.11352578183395678 0 -0.11352578183395678 2.8581095832159207 0 0 0 0 229.0813325997533 -431.49261986019337 0 -431.49261986019337 205.18598026759719 0 0 0 0 -100.76292870912766 -270.81721518051563 0 -270.81721518051563 132.23095801237469 0 0 0 0 87.27676564311605 -174.09893452061442 0 -174.09893452061442 4.1551607873407193 0 0 0 0 -238.44249302679418 -26.865984957672481 0 -26.865984957672481 68.532629586536132 0 0 0 0 -56.44723101348427 -68.741338716828523 0 -68.741338716828523 -50.146475002053194 0 0 0 0 -266.45919711051647 -190.85277856052562 0 -190.85277856052562 -121.02275577141154 0 0 0 0 -0.64391892595376987 0.80478468078446497 0 0.80478468078446497 -2.2160538257293183 0 0 0 0 -189.58386565250839 -12.331443772680359 0 -12.331443772680359 -4.7864180985125131 0 0 0 0 -178.68026108183767 58.02994733523883 0 58.02994733523883 -209.88205951727286 0 0 0 0 -202.12317824986667 -78.18974955738031 0 -78.18974955738031 32.982744080378325 0 0 0 0 -321.03946510175456 -310.28735421595775 0 -310.28735421595775 72.109138857544167 0 0 0 0 -135.21067478875375 -167.91180552222249 0 -167.91180552222249 -284.51648580774781 0 0 0 0 -177.15866132405881 12.344023464325801 0 12.344023464325801 9.9961031745333457 0 0 0 0 -0.84782536346955339 -1.4907126777463731 0 -1.4907126777463731 1.4346660428088036 0 0 0 0 -328.7233483220607 64.478928320662817 0 64.478928320662817 2.8748728521823068 0 0 0 0 -8.2809373738036811 -29.737954248457754 0 -29.737954248457754 3.3475495186685293 0 0 0 0 4.3583236246832087 -16.373678075425005 0 -16.373678075425005 -2.8700667465635146 0 0 0 0 -99.804421813737463 56.300385538363116 0 56.300385538363116 -48.39522692898754 0 0 0 0 0.36899443112497643 -0.75389430162768889 0 -0.75389430162768889 -4.9644795853477603 0 0 0 0 -81.645393166948452 128.86167053780628 0 128.86167053780628 -180.86276537152116 0 0 0 0 -124.2990582991406 99.458759018560158 0 99.458759018560158 -98.568590632658015 0 0 0 0 -14.991980821470861 57.036245221743229 0 57.036245221743229 -130.6150807357335 0 0 0 0 35.839880774263293 -81.793089422331832 0 -81.793089422331832 -155.05896046991256 0 0 0 0 -66.63600288485577 -129.44108006650094 0 -129.44108006650094 -5.2556668577017263 0 0 0 0 -74.255720774941437 -165.30038560505636 0 -165.30038560505636 -157.20849543797885 0 0 0 0 -132.11094645101002 -121.58162338263355 0 -121.58162338263355 -117.21010097560793 0 0 0 0 -16.187852224110259 -32.483429736424 0 -32.483429736424 -254.77986478689127 0 0 0 0 -16.100059228753793 -37.329122262411033 0 -37.329122262411033 -75.177227377425879 0 0 0 0 -22.680634082030366 55.138299822235695 0 55.138299822235695 -284.92944210644055 0 0 0 0 -21.972445478044222 68.415170751849246 0 68.415170751849246 -111.25941680423421 0 0 0 0 -144.61586291404637 -79.910646287637064 0 -79.910646287637064 -244.21361252404131 0 0 0 0 -343.2982821289736 17.095484161749027 0 17.095484161749027 -238.37465265651554 0 0 0 0 -210.23921792021974 -247.16849812061992 0 -247.16849812061992 -162.47376783290747 0 0 0 0 -107.07831149355479 -93.223138376721181 0 -93.223138376721181 -343.19383711931005 0 0 0 0 -254.24023160480374 9.1422748111945111 0 9.1422748111945111 -330.47451371984062 0 0 0 0 69.138907811184254 44.054358838515327 0 44.054358838515327 -449.13839694251146 0 0 0 0 -284.10716582601526 215.44901577786732 0 215.44901577786732 -387.9881282150709 0 0 0 0 -0.87632203536516151 0.94333811090420738 0 0.94333811090420738 -1.6037012770105861 0 0 0 0 -97.079833285230052 27.608303268121745 0 27.608303268121745 -437.705229081781 0 0 0 0 -143.53397753174067 -127.91359488037233 0 -127.91359488037233 -120.4502790402621 0 0 0 0 -215.33451602762943 -126.23066190072859 0 -126.23066190072859 -10.410199519144953 0 0 0 0 -178.53010702095708 -75.766119011124829 0 -75.766119011124829 28.330203799418086 0 0 0 0 -173.07217721473114 -116.14111712164686 0 -116.14111712164686 -3.538599508763582 0 0 0 0 -879.95328373273333 181.51238013454349 0 181.51238013454349 -177.05858856846407 0 0 0 0 -74.780391922520266 279.67222330264121 0 279.67222330264121 -726.29707223280275 0 0 0 0 -718.3575145650766 -39.628977741547715 0 -39.628977741547715 304.51706519973231 0 0 0 0 262.66944582586007 -132.40552706925882 0 -132.40552706925882 -726.77632323253056 0 0 0 0 -399.30605078987355 -268.53298451600494 0 -268.53298451600494 338.08474317264154 0 0 0 0 -182.32962300192958 -4.454416810953262 0 -4.454416810953262 217.90545036996809 0 0 0 0 3.2520556953646729 -4.514704845565312 0 -4.514704845565312 5.5637069955335505 0 0 0 0 82.00708775066596 -414.3955190165525 0 -414.3955190165525 -37.928502418428252 0 0 0 0 -196.04661718608986 -158.94632500390435 0 -158.94632500390435 26.546184445971448 0 0 0 0 -167.39441155587792 -183.10727038188998 0 -183.10727038188998 22.812544182415877 0 0 0 0 -260.92070279370455 -198.48474557488225 0 -198.48474557488225 308.97070646350039 0 0 0 0 -74.996028719107471 -108.91955525916455 0 -108.91955525916455 71.963376996420266 0 0 0 0 -145.23927305761208 -136.10356894901633 0 -136.10356894901633 89.276878961332841 0 0 0 0 -78.678250551383826 -130.58561411845221 0 -130.58561411845221 84.467457537237351 0 0 0 0 -39.972906560351475 -128.52328856357599 0 -128.52328856357599 64.379395856361953 0 0 0 0 -79.350136257615304 -190.30477618727127 0 -190.30477618727127 20.744883470091736 0 0 0 0 2.5602377972736576 -137.11625276680934 0 -137.11625276680934 -31.914609907089471 0 0 0 0 27.275333216810395 -448.83633218772593 0 -448.83633218772593 -440.72622185517321 0 0 0 0 6.0797803836197009 -3.5787594478810192 0 -3.5787594478810192 2.2451118965535102 0 0 0 0 -201.63218122894375 -108.27860919117211 0 -108.27860919117211 -452.52308315347909 0 0 0 0 -439.13513430014638 -321.93890374602051 0 -321.93890374602051 -212.90940134419725 0 0 0 0 93.460072267364012 -46.110159541523899 0 -46.110159541523899 -0.74216359825072686 0 0 0 0 -236.83805445545136 -535.03282348958646 0 -535.03282348958646 -470.28618571118204 0 0 0 0 -79.286922779058187 -230.5111684039357 0 -230.5111684039357 -518.87548538271949 0 0 0 0 17.237212155418707 -11.553287227353536 0 -11.553287227353536 3.0013550838078515 0 0 0 0 90.155931044241697 -32.21153674245943 0 -32.21153674245943 -3.2839783250665278 0 0 0 0 244.29231773942865 19.199443769895879 0 19.199443769895879 -56.617688144884596 0 0 0 0 359.01877030211926 -57.535409721145697 0 -57.535409721145697 -105.21303045342938 0 0 0 0 277.18576835176509 -210.66125340086182 0 -210.66125340086182 -112.15820479897229 0 0 0 0 -137.78963120766821 -331.36557669321701 0 -331.36557669321701 -106.51355084955139 0 0 0 0 -135.34854068413915 -80.648095121949154 0 -80.648095121949154 -45.058293242120271 0 0 0 0 -199.9200708052449 -588.68028409376711 0 -588.68028409376711 -234.24073886820406 0 0 0 0 656.99278329529261 260.40128220926999 0 260.40128220926999 -12.868107193525248 0 0 0 0 663.89458349519009 -308.83872826942752 0 -308.83872826942752 -288.70839502083254 0 0 0 0 385.1541359918059 -351.29925371849185 0 -351.29925371849185 -440.1389233748705 0 0 0 0 519.36485786139849 247.24937953214976 0 247.24937953214976 -696.58888948121603 0 0 0 0 -562.35617040237594 299.19659253652208 0 299.19659253652208 -24.339249855809612 0 0 0 0 -9.9903288930877601 -6.0053706684531178 0 -6.0053706684531178 -4.468164138119846 0 0 0 0 -306.61042695832839 85.678445854373422 0 85.678445854373422 10.773243219466167 0 0 0 0 -122.34225669467924 -46.009501074488071 0 -46.009501074488071 90.724529825281934 0 0 0 0 -118.19957068898839 -34.007425043429976 0 -34.007425043429976 61.68532869997216 0 0 0 0 4.8458187844375971 -550.62152517690265 0 -550.62152517690265 192.5821589539446 0 0 0 0 -402.43039181956169 315.4997385450697 0 315.4997385450697 -69.21391631433471 0 0 0 0 -29.886009495830749 -18.07017581296283 0 -18.07017581296283 -10.319141093778853 0 0 0 0 54.564361914479036 -598.09918118862515 0 -598.09918118862515 -335.68856729358959 0 0 0 0 -46.654160318707987 -26.594512859505343 0 -26.594512859505343 -14.217431063396916 0 0 0 0 -45.06241866049902 -38.081981889014969 0 -38.081981889014969 47.727227585535729 0 0 0 0 -40.243719759348096 -81.418407402461526 0 -81.418407402461526 60.558477614122239 0 0 0 0 -23.592706997125333 -58.9334511976665 0 -58.9334511976665 20.300224034068378 0 0 0 0 -49.227626426181814 -60.554032663016187 0 -60.554032663016187 20.957767290727134 0 0 0 0 -54.806947401715433 -56.435935532858821 0 -56.435935532858821 6.7487416171970835 0 0 0 0 -51.370369385935646 -70.235381030550116 0 -70.235381030550116 -3.7338994576748519 0 0 0 0 -90.046988629375846 -78.820989700931932 0 -78.820989700931932 1.1299447381861683 0 0 0 0 -74.475791906274026 -70.797748771215993 0 -70.797748771215993 -2.2827584784354258 0 0 0 0 -76.586350928408137 -66.346901228025672 0 -66.346901228025672 11.189962238707267 0 0 0 0 -84.85502923281274 -58.797288854719227 0 -58.797288854719227 30.665482570399035 0 0 0 0 -102.62240389325234 -79.438813306554948 0 -79.438813306554948 12.965404975280762 0 0 0 0 -172.93361839917088 -131.39550513004815 0 -131.39550513004815 15.917565300602291 0 0 0 0 -98.490040277978096 -87.391902759693949 0 -87.391902759693949 26.80439990024388 0 0 0 0 -89.397366848850652 -73.902689200316672 0 -73.902689200316672 26.510740271388386 0 0 0 0 -132.3315552845952 -63.931932449171654 0 -63.931932449171654 81.406976785965526 0 0 0 0 -37.348387843896489 -274.6598323042308 0 -274.6598323042308 147.13890365567568 0 0 0 0 19.724274513503815 -137.15470614285459 0 -137.15470614285459 -68.372400515352638 0 0 0 0 -131.65434133643521 -86.904607241280246 0 -86.904607241280246 3.7143695124013902 0 0 0 0 -80.329188523424818 -133.08850438199079 0 -133.08850438199079 -24.860146802631789 0 0 0 0 -150.09955096929298 -61.258502357677571 0 -61.258502357677571 17.549587717225222 0 0 0 0 -143.99531027422427 -119.14278027987712 0 -119.14278027987712 -20.186048145609675 0 0 0 0 -234.22091410917528 -147.82195236756525 0 -147.82195236756525 8.6254443463567441 0 0 0 0 8.0944566969270255 -12.109965972110658 0 -12.109965972110658 16.556428430773934 0 0 0 0 -161.0475342973441 -179.13534010951116 0 -179.13534010951116 -42.9512633768245 0 0 0 0 -29.172500919444246 -78.889016274881214 0 -78.889016274881214 -74.153671743279119 0 0 0 0 -110.92742179191373 -84.160855611406987 0 -84.160855611406987 -28.900658400867542 0 0 0 0 -124.18388949211317 -89.993303767500038 0 -89.993303767500038 -3.7647248128596402 0 0 0 0 12.324715836124257 -18.262998118020093 0 -18.262998118020093 25.225255252597819 0 0 0 0 -95.141830289479003 -90.014978716110818 0 -90.014978716110818 8.2157971735505271 0 0 0 0 -97.215549601494786 -81.224606063717147 0 -81.224606063717147 -20.671354458567293 0 0 0 0 -100.94453017221258 -79.937967463923997 0 -79.937967463923997 1.4911932742306817 0 0 0 0 -116.20740537850952 -80.912390036975012 0 -80.912390036975012 6.2762185375322588 0 0 0 0 -95.883778812079072 -71.571814982971773 0 -71.571814982971773 0.089754974028437573 0 0 0 0 -111.92050440212506 -74.654473440137735 0 -74.654473440137735 8.6463493544188168 0 0 0 0 -102.50636341344125 -82.724394950613714 0 -82.724394950613714 14.782247068884317 0 0 0 0 -95.151278096067927 -89.774647938033922 0 -89.774647938033922 6.7211408432085591 0 0 0 0 -95.375160116009283 -79.151328603413276 0 -79.151328603413276 -4.2180957434829907 0 0 0 0 -112.68680835941348 -78.818966454414294 0 -78.818966454414294 20.204234642220399 0 0 0 0 -106.64806660884778 -69.833635521317774 0 -69.833635521317774 36.464415604188616 0 0 0 0 -108.38608441111637 -64.622495722574513 0 -64.622495722574513 41.879730479195132 0 0 0 0 -120.86080194903025 -82.922201679219143 0 -82.922201679219143 39.431551530688012 0 0 0 0 -113.37640698225232 -78.436406002565491 0 -78.436406002565491 20.386919034002858 0 0 0 0 -142.65675097550775 -95.846542234357912 0 -95.846542234357912 33.862199183651683 0 0 0 0 -130.94777537650475 -79.525319124187263 0 -79.525319124187263 45.415558823027823 0 0 0 0 -134.4313048040367 -75.853402282311436 0 -75.853402282311436 52.500472395939141 0 0 0 0 -115.37525945814377 -70.0832211486304 0 -70.0832211486304 42.348579804347537 0 0 0 0 -105.78421987412207 -97.830493456093109 0 -97.830493456093109 1.3781056794432516 0 0 0 0 -108.73219130444159 -87.811978518591786 0 -87.811978518591786 13.242587093230213 0 0 0 0 -120.45550271219034 -92.022185994946938 0 -92.022185994946938 18.922592319922842 0 0 0 0 -127.23941689769117 -107.32276125639055 0 -107.32276125639055 29.980050174297503 0 0 0 0 -116.77748162757325 -103.69289838921941 0 -103.69289838921941 24.724782694389432 0 0 0 0 -111.1918124021131 -118.74667262557341 0 -118.74667262557341 -4.941292725106905 0 0 0 0 -85.987484154607955 -104.32470684874534 0 -104.32470684874534 2.9075416135110572 0 0 0 0 -84.273943104309637 -99.773951686233886 0 -99.773951686233886 -13.400063436547498 0 0 0 0 -69.078897487013819 -88.634884344774036 0 -88.634884344774036 -5.5827392729243002 0 0 0 0 -67.955410381990077 -90.297345543360279 0 -90.297345543360279 -22.714170709461541 0 0 0 0 -53.359374909414328 -91.372389610156461 0 -91.372389610156461 -22.654644378560988 0 0 0 0 -63.590361324340847 -103.90878628092105 0 -103.90878628092105 -27.804632845902233 0 0 0 0 -50.423531786750573 -91.151331747973018 0 -91.151331747973018 -30.93625507671095 0 0 0 0 -45.669182687657667 -83.598360623747794 0 -83.598360623747794 -29.576195257237487 0 0 0 0 -49.219607155918311 -80.564436920616572 0 -80.564436920616572 -32.069567926495438 0 0 0 0 -50.323748178162532 -80.337187176523003 0 -80.337187176523003 -28.623617164226744 0 0 0 0 -56.959538668364985 -80.527609910232059 0 -80.527609910232059 -25.027871617998244 0 0 0 0 -56.871370484889212 -81.414301870977624 0 -81.414301870977624 -16.288524553401658 0 0 0 0 -51.305530423742312 -74.682727542212888 0 -74.682727542212888 -19.567077114901622 0 0 0 0 -47.332638561867498 -63.593637991951255 0 -63.593637991951255 -6.9912035634206404 0 0 0 0 -57.872287651873876 -75.015331505040422 0 -75.015331505040422 -19.082669419531157 0 0 0 0 -59.317891002451006 -68.041099198090251 0 -68.041099198090251 -5.2431803079598467 0 0 0 0 -73.702294947630435 -75.959978572249383 0 -75.959978572249383 -2.1435039474636142 0 0 0 0 -90.908610899685755 -83.961525953772707 0 -83.961525953772707 -5.3658244539001316 0 0 0 0 -73.411720479867654 -79.619964086999971 0 -79.619964086999971 -14.388571658193541 0 0 0 0 -61.668089164628327 -23.583788196705427 0 -23.583788196705427 35.838974629157747 0 0 0 0 -58.206583348328422 -91.781412297341376 0 -91.781412297341376 1.0368641715631384 0 0 0 0 -21.093925212062459 -70.196734727383955 0 -70.196734727383955 -2.4309594559417746 0 0 0 0 335.22712015623256 36.344795762019203 0 36.344795762019203 -60.463245818265932 0 0 0 0 3.9857366827182759 -3.9756640107444525 0 -3.9756640107444525 3.9421948794045676 0 0 0 0 -183.38366333932936 -98.146690569112252 0 -98.146690569112252 245.17526418676061 0 0 0 0 -52.617897329542529 44.984506267759116 0 44.984506267759116 196.33973524384055 0 0 0 0 -91.908487307908217 -120.3613226746711 0 -120.3613226746711 33.846799885875953 0 0 0 0 -78.785776834072749 -88.511524473189638 0 -88.511524473189638 99.689067457411511 0 0 0 0 -65.212220561002141 -114.87133147472196 0 -114.87133147472196 54.33015145308309 0 0 0 0 -66.745034764062439 -62.089600061626697 0 -62.089600061626697 105.77764587505953 0 0 0 0 -65.107341573951544 -70.200545453843006 0 -70.200545453843006 64.806081902119331 0 0 0 0 -21.673647993527993 -87.427844960249786 0 -87.427844960249786 71.62162988394266 0 0 0 0 -16.008950215000368 -78.478533633984625 0 -78.478533633984625 51.694935938697654 0 0 0 0 15.915776515983453 -89.969916243629996 0 -89.969916243629996 52.289345200322714 0 0 0 0 79.346598880350939 -104.1863779701016 0 -104.1863779701016 40.736499609038219 0 0 0 0 24.824397916429007 -108.77806016526483 0 -108.77806016526483 44.002095522693708 0 0 0 0 52.619630482404318 -80.23588019149247 0 -80.23588019149247 46.291855818562908 0 0 0 0 70.420641940130736 -99.040921426814748 0 -99.040921426814748 31.4297710906867 0 0 0 0 75.829490548248941 -87.038067955492807 0 -87.038067955492807 46.866554522894148 0 0 0 0 104.98935789907227 -101.10751834842404 0 -101.10751834842404 13.363115382002434 0 0 0 0 -13.408741712504792 -19.936491859764857 0 -19.936491859764857 -28.506724200365227 0 0 0 0 99.014927838972653 -60.449660481241153 0 -60.449660481241153 -7.0658836402362795 0 0 0 0 37.861786545181531 -74.70828721973885 0 -74.70828721973885 27.324767130601685 0 0 0 0 45.739213577282499 -85.2053083581377 0 -85.2053083581377 26.356463469361188 0 0 0 0 -9.9789741036947817 -79.180614448065171 0 -79.180614448065171 31.161372767811372 0 0 0 0 -18.730531862249336 -61.021942347077129 0 -61.021942347077129 33.567014778833254 0 0 0 0 21.989158017797308 -53.620659255806459 0 -53.620659255806459 16.011528299044585 0 0 0 0 -57.5435847591325 -56.093142797826658 0 -56.093142797826658 24.887033156395773 0 0 0 0 -9.1865782432614651 -44.360085389342203 0 -44.360085389342203 -17.68920124565193 0 0 0 0 16.738167926253936 -71.033184470208653 0 -71.033184470208653 -44.132224022774608 0 0 0 0 19.836977751503582 -73.716651298527722 0 -73.716651298527722 9.386192000394658 0 0 0 0 -25.946902858882822 179.4777328140317 0 179.4777328140317 23.317433666423312 0 0 0 0 48.044282715567533 -41.985289940119401 0 -41.985289940119401 5.76129438229691 0 0 0 0 18.612534058994243 -60.741733907889284 0 -60.741733907889284 3.4805886058602482 0 0 0 0 135.88856179156755 -41.001193627328576 0 -41.001193627328576 -49.856696203205502 0 0 0 0 16.009828092122916 -79.834391913882428 0 -79.834391913882428 -23.136488970911159 0 0 0 0 -8.5622110195339474 -26.653629240421687 0 -26.653629240421687 -33.828098059330301 0 0 0 0 -0.063515621631722752 -40.223158196495206 0 -40.223158196495206 0.62324994534355938 0 0 0 0 15.832209712167241 -86.148002521513263 0 -86.148002521513263 -40.992999383662209 0 0 0 0 10.916165550491442 -24.202722247946284 0 -24.202722247946284 17.346738966573469 0 0 0 0 -0.77760314147963072 -43.195273198116411 0 -43.195273198116411 -11.717337560578017 0 0 0 0 11.051049625958079 -11.291028103283452 0 -11.291028103283452 13.29111821404878 0 0 0 0 37.680038848991899 -22.876984130034543 0 -22.876984130034543 -2.6739981853534118 0 0 0 0 34.585896840406349 -57.741917507999801 0 -57.741917507999801 -30.517638010023802 0 0 0 0 -11.576929534403462 -65.483892194417422 0 -65.483892194417422 -6.8980454818738508 0 0 0 0 3.1846396847231517 -50.678156191532253 0 -50.678156191532253 0.93152954511970165 0 0 0 0 -21.865039734480888 -45.528924410024047 0 -45.528924410024047 3.7833909070723166 0 0 0 0 64.847188243078563 -39.880082928772026 0 -39.880082928772026 -7.1082430463266064 0 0 0 0 -13.051510161510388 -27.913218133389396 0 -27.913218133389396 24.278095376764185 0 0 0 0 2.0813803546536489 -31.383882641470876 0 -31.383882641470876 8.4037549629992867 0 0 0 0 -7.016580647673436 -95.116373269825999 0 -95.116373269825999 -0.27195604387088679 0 0 0 0 11.937839986849177 -20.796461857293185 0 -20.796461857293185 -15.525739351162812 0 0 0 0 40.615348784034722 -60.797629510121624 0 -60.797629510121624 22.838077341972166 0 0 0 0 -36.440367664948099 -28.202022135645166 0 -28.202022135645166 -72.493854163520155 0 0 0 0 -63.799993854358036 -70.919725124766046 0 -70.919725124766046 -8.2539924449156388 0 0 0 0 -105.33665626581933 -56.139161086490276 0 -56.139161086490276 62.403468763393903 0 0 0 0 -117.23505517340402 -59.080957691066942 0 -59.080957691066942 49.277550367281947 0 0 0 0 -89.171928598992736 -67.000881014579136 0 -67.000881014579136 43.032087055104057 0 0 0 0 -83.986345160314841 -47.291730996385013 0 -47.291730996385013 52.086086667004565 0 0 0 0 -66.714124530537617 17.373150577597698 0 17.373150577597698 66.760111804786902 0 0 0 0 -53.608919599890839 -79.380905903146413 0 -79.380905903146413 75.732294935187383 0 0 0 0 -7.2056830154997318 -0.37272401976305503 0 -0.37272401976305503 0.59065005571946472 0 0 0 0 15.499077320901961 -48.695725904306528 0 -48.695725904306528 12.633330289565492 0 0 0 0 15.705981465481454 -29.196584072032906 0 -29.196584072032906 37.522842327828599 0 0 0 0 -49.681927855318747 -32.865286870539421 0 -32.865286870539421 46.267975090237087 0 0 0 0 -19.088992632764359 -82.24555979987872 0 -82.24555979987872 8.8899808742808091 0 0 0 0 -58.298652235390136 -54.606324892532939 0 -54.606324892532939 23.537686001503971 0 0 0 0 -83.680092886503701 -73.153239950788702 0 -73.153239950788702 10.830797450133105 0 0 0 0 -92.59846828564946 -72.685422015360018 0 -72.685422015360018 10.807201290377407 0 0 0 0 10.167161628332451 -30.450051696338051 0 -30.450051696338051 -35.151579169734759 0 0 0 0 1.8866164877381379 -23.685352918848366 0 -23.685352918848366 19.044035165308742 0 0 0 0 24.403909704658872 -109.52938477271528 0 -109.52938477271528 -80.815937315139308 0 0 0 0 -107.1402931917014 -160.86491091363951 0 -160.86491091363951 -11.367073897799855 0 0 0 0 16.765853755299638 -23.0557963646866 0 -23.0557963646866 32.319105260994405 0 0 0 0 6.5100133741095547 -7.8473853929883486 0 -7.8473853929883486 -6.7198301009745052 0 0 0 0 -446.86800974881044 -25.088770383696101 0 -25.088770383696101 135.44509219006432 0 0 0 0 1.3878924786686708 -27.550882433235984 0 -27.550882433235984 1.2172422679432486 0 0 0 0 68.825270302565059 -47.828230464043827 0 -47.828230464043827 6.4319745309912832 0 0 0 0 105.16065397305465 -90.205675771374445 0 -90.205675771374445 -28.713098437525332 0 0 0 0 68.66073684498042 -1.5260979738231981 0 -1.5260979738231981 -9.2132195852727818 0 0 0 0 760.42962223052746 449.17518863525038 0 449.17518863525038 -135.47024629062798 0 0 0 0 -198.11733760599964 -690.87065896830063 0 -690.87065896830063 53.496848974231398 0 0 0 0 53.42189317570228 -30.279831207286406 0 -30.279831207286406 22.710827024406171 0 0 0 0 -382.57986078607973 209.88846227988324 0 209.88846227988324 78.455056480815983 0 0 0 0 -2.0512609757921609 -0.38297735775000774 0 -0.38297735775000774 -0.77262856635769595 0 0 0 0 82.191009149160891 -33.252478515534676 0 -33.252478515534676 6.8510099204431754 0 0 0 0 4.4472971863116104 -24.457569727181145 0 -24.457569727181145 -4.6039787653810436 0 0 0 0 211.80171439868354 -36.86013580343888 0 -36.86013580343888 -54.57824393438932 0 0 0 0 34.237207883523297 -18.982149022498561 0 -18.982149022498561 23.408102602501458 0 0 0 0 -87.120828771774541 -16.134469629305386 0 -16.134469629305386 21.943688280875904 0 0 0 0 -30.440277124527711 -32.262566663415782 0 -32.262566663415782 -30.103255639613053 0 0 0 0 105.22007538682374 5.882732130416116 0 5.882732130416116 -11.481183616463341 0 0 0 0 40.740320460652583 -88.455464266548006 0 -88.455464266548006 -6.0949512811021123 0 0 0 0 -1.000295143879157 -119.27828267425321 0 -119.27828267425321 -16.534952348076331 0 0 0 0 45.612689161083836 -46.633212412809371 0 -46.633212412809371 -12.291093538518453 0 0 0 0 142.1015893167978 -100.90958972485259 0 -100.90958972485259 -16.052017577960214 0 0 0 0 302.281837656059 -37.155408055223234 0 -37.155408055223234 -31.398407157110341 0 0 0 0 162.79149698789934 -0.47956180245864743 0 -0.47956180245864743 6.1869491177567397 0 0 0 0 -98.523762971026827 -104.833782585677 0 -104.833782585677 43.669271797174588 0 0 0 0 34.615043930472893 -93.440827933027322 0 -93.440827933027322 41.743957545291778 0 0 0 0 39.826284376033072 -108.24483888645773 0 -108.24483888645773 27.969075540269841 0 0 0 0 237.29291327840656 -43.452469794594435 0 -43.452469794594435 -41.654654363228474 0 0 0 0 87.54647630612817 -2.8268293707296834 0 -2.8268293707296834 -75.810403228413634 0 0 0 0 4.5869741109137294 -23.931329548973519 0 -23.931329548973519 -9.3812821577476484 0 0 0 0 57.095567335376472 -52.785754765767706 0 -52.785754765767706 -55.850510614309314 0 0 0 0 276.70198178419378 23.963167711417555 0 23.963167711417555 -10.042418892262504 0 0 0 0 0.1361020037347922 -23.851828615583642 0 -23.851828615583642 -12.13695803552335 0 0 0 0 -34.992376411937585 -26.682881291641024 0 -26.682881291641024 -181.74635667875191 0 0 0 0 -30.376044127675414 -57.259271448598156 0 -57.259271448598156 7.3551657716870977 0 0 0 0 -174.79209918617198 -138.27175010496285 0 -138.27175010496285 -24.731936531901738 0 0 0 0 -155.16662817911492 70.612050816675037 0 70.612050816675037 130.30822468599945 0 0 0 0 -242.59312080720701 -32.662399703669507 0 -32.662399703669507 70.835909473280481 0 0 0 0 -1.9936773459807853 -1.7850073878486867 0 -1.7850073878486867 -1.3515736697898362 0 0 0 0 0.7544690660724882 -33.395284474763685 0 -33.395284474763685 -207.75357498691847 0 0 0 0 -180.63976443905585 -127.01062903104344 0 -127.01062903104344 -51.084415489760431 0 0 0 0 -214.54108250313948 38.389366507373779 0 38.389366507373779 -21.758750866403716 0 0 0 0 -97.765380096229819 11.73578945625286 0 11.73578945625286 -29.150849363526504 0 0 0 0 -38.482284887901187 -68.351862901341519 0 -68.351862901341519 -28.962879778826391 0 0 0 0 -72.383701680986633 -120.5106339887916 0 -120.5106339887916 8.5363984162468114 0 0 0 0 -66.583748083750834 -63.873712136384711 0 -63.873712136384711 -105.83502240612142 0 0 0 0 -113.32535135647413 -76.621241539163748 0 -76.621241539163748 37.100392954693234 0 0 0 0 107.16733930251939 -131.84856790041522 0 -131.84856790041522 35.784743120602798 0 0 0 0 58.936608688440174 -88.410597417474492 0 -88.410597417474492 45.151046942435642 0 0 0 0 57.245402829214981 -94.327938939491105 0 -94.327938939491105 35.293685166114301 0 0 0 0 -19.031844316821662 -83.740859030767751 0 -83.740859030767751 32.846273934663259 0 0 0 0 -13.675237560226378 -110.55623766046483 0 -110.55623766046483 42.114209585004573 0 0 0 0 -31.010728951641795 -108.88162973844737 0 -108.88162973844737 12.100327910124179 0 0 0 0 48.240351205455227 -86.933016931434395 0 -86.933016931434395 7.3919931018353964 0 0 0 0 62.503052002462937 -121.96601647661828 0 -121.96601647661828 25.255062212549092 0 0 0 0 93.221688431254734 -49.805593560500711 0 -49.805593560500711 3.6893862188362618 0 0 0 0 66.095332048120326 -90.435782305026805 0 -90.435782305026805 -56.25502097392382 0 0 0 0 1.3986785980208651 -21.634318843383539 0 -21.634318843383539 -14.473838323658129 0 0 0 0 54.184948822994556 -20.33298471416856 0 -20.33298471416856 -47.200591515025735 0 0 0 0 -180.72600462863011 -111.61980874625806 0 -111.61980874625806 358.37864951037773 0 0 0 0 -5.3679400589127084 -4.6200918053401594 0 -4.6200918053401594 -2.9089562662475288 0 0 0 0 -104.07043076179252 -91.85701890852215 0 -91.85701890852215 -30.491733884686255 0 0 0 0 196.38380249660258 -63.754138148051425 0 -63.754138148051425 -37.47481208238969 0 0 0 0 -165.15546599432128 -283.43227270385978 0 -283.43227270385978 -488.1062076143935 0 0 0 0 -74.02267055788252 121.19129388725378 0 121.19129388725378 -89.033434659035265 0 0 0 0 -324.32708503012691 62.604089174688852 0 62.604089174688852 108.81036780998875 0 0 0 0 -1.2935205118265003 -35.892045628001142 0 -35.892045628001142 97.719439892949595 0 0 0 0 -29.506409925139906 90.951282236712359 0 90.951282236712359 48.57032034585427 0 0 0 0 -64.537611622421537 37.420584497929667 0 37.420584497929667 59.785886411380488 0 0 0 0 -116.13293049758795 28.865887224699691 0 28.865887224699691 96.697543405094621 0 0 0 0 -168.87418647851518 -60.9938050237879 0 -60.9938050237879 45.099632179924811 0 0 0 0 -63.134690815553768 -22.313659451319836 0 -22.313659451319836 58.79038103676794 0 0 0 0 -79.204909490566934 -11.39720879887318 0 -11.39720879887318 51.377466405348969 0 0 0 0 -32.759062783254194 7.2919103759195423 0 7.2919103759195423 58.603736095723434 0 0 0 0 -69.925600779784872 62.524661721083248 0 62.524661721083248 34.527397069432482 0 0 0 0 -76.281100444235335 27.287800724756607 0 27.287800724756607 51.919365175301209 0 0 0 0 -39.016821690911456 8.6973159209337609 0 8.6973159209337609 60.884547678459057 0 0 0 0 -25.84961133131219 42.780757915388676 0 42.780757915388676 37.638879454023481 0 0 0 0 -111.68108831438258 -57.506293071302025 0 -57.506293071302025 -490.68876923116477 0 0 0 0 -77.670775003243762 -157.09580201262361 0 -157.09580201262361 -222.61215583051307 0 0 0 0 -23.672959556013851 -1.8380509978095105 0 -1.8380509978095105 0.40868434419701227 0 0 0 0 -61.497639316301502 9.5193625539905042 0 9.5193625539905042 74.46991354534839 0 0 0 0 -211.74002909524279 -349.33203491109452 0 -349.33203491109452 149.6109266238816 0 0 0 0 61.591596377562382 -673.64088219435143 0 -673.64088219435143 -428.31130359141389 0 0 0 0 -346.53147364153847 77.704875486702804 0 77.704875486702804 -25.762570963199323 0 0 0 0 -3.3197127864135823 -6.6411586052252076 0 -6.6411586052252076 -3.3695993594063438 0 0 0 0 33.971226979390849 -89.937739920079366 0 -89.937739920079366 -653.31212222795875 0 0 0 0 82.310279154346063 -73.415212138981587 0 -73.415212138981587 44.141653026128552 0 0 0 0 326.70004537485875 57.667313586702221 0 57.667313586702221 -58.381751240995072 0 0 0 0 -2.0148548154012502 -2.7650098128774516 0 -2.7650098128774516 2.2206620503531411 0 0 0 0 89.540818287856382 -92.764551235479303 0 -92.764551235479303 68.371569004841149 0 0 0 0 -141.22613765545975 -160.60720074452547 0 -160.60720074452547 24.215994594843778 0 0 0 0 -70.848581850994378 -39.964860527351448 0 -39.964860527351448 72.045464954630006 0 0 0 0 -7.7373170203354675 -177.80995324004471 0 -177.80995324004471 23.040570681394911 0 0 0 0 -44.690122964788316 98.456828599168148 0 98.456828599168148 -137.84555757282942 0 0 0 0 -206.05206623572303 75.887415591223544 0 75.887415591223544 27.069908389818011 0 0 0 0 -69.34382548549911 -20.200545102805336 0 -20.200545102805336 86.98448097137225 0 0 0 0 -149.03136567722322 -95.452349174676783 0 -95.452349174676783 34.74434794732224 0 0 0 0 -136.49188573182619 -53.899953848638688 0 -53.899953848638688 -22.441471595244366 0 0 0 0 -75.709152439863828 45.218004743070196 0 45.218004743070196 -142.76958485944488 0 0 0 0 -280.08349346155592 317.9419871488135 0 317.9419871488135 -453.94508625258459 0 0 0 0 -718.93458408785955 -109.32054734512531 0 -109.32054734512531 -18.987242383605917 0 0 0 0 -7.9991077457540172 -2.2159349908949224 0 -2.2159349908949224 -0.28650912672204143 0 0 0 0 326.5500972372397 -245.89949461415233 0 -245.89949461415233 -338.2184567223012 0 0 0 0 598.48979847074952 -307.85933283096529 0 -307.85933283096529 -541.04079963007462 0 0 0 0 -166.2444800602243 -580.96135860318464 0 -580.96135860318464 -461.84297179961504 0 0 0 0 10.445649893836162 -112.69013308631475 0 -112.69013308631475 33.006344058143441 0 0 0 0 124.22326158384476 -159.62527154080817 0 -159.62527154080817 -1.2543097596571897 0 0 0 0 125.77877081913448 -95.609675243911624 0 -95.609675243911624 46.658422747917939 0 0 0 0 43.673151804559893 -163.88803731459484 0 -163.88803731459484 25.02773897278621 0 0 0 0 38.195497105481991 -134.52822283579371 0 -134.52822283579371 53.594205837423942 0 0 0 0 180.75114593605576 -96.274119523619447 0 -96.274119523619447 22.838559290474223 0 0 0 0 36.367894525697466 -129.54374293812361 0 -129.54374293812361 61.246921673460747 0 0 0 0 186.67427541444613 -110.93995141145206 0 -110.93995141145206 42.464970310233184 0 0 0 0 300.23733295178317 -4.8092485116867465 0 -4.8092485116867465 3.4710583195410436 0 0 0 0 361.15601425649947 -88.897487080925202 0 -88.897487080925202 8.1187115502907545 0 0 0 0 399.66295797083058 -20.431273922240507 0 -20.431273922240507 22.945102022495121 0 0 0 0 426.48330019633977 -151.66366326878051 0 -151.66366326878051 -17.926227345218649 0 0 0 0 281.74613111769577 -71.628688423312269 0 -71.628688423312269 34.424227199237066 0 0 0 0 213.77318979697338 -148.74636074380032 0 -148.74636074380032 13.806767907197354 0 0 0 0 305.2328644973968 -164.69815990179814 0 -164.69815990179814 13.992248014707002 0 0 0 0 182.91014486087079 -94.075062997922942 0 -94.075062997922942 25.951239841316237 0 0 0 0 313.61407147252612 -138.14094702056173 0 -138.14094702056173 -1.7896280084532918 0 0 0 0 370.61841179549083 -124.24920282651874 0 -124.24920282651874 -23.929098948079627 0 0 0 0 -8.6716661487658921 -22.790915584845052 0 -22.790915584845052 -13.047028407108684 0 0 0 0 -22.0395414206032 -38.220769282648689 0 -38.220769282648689 22.639572219071852 0 0 0 0 142.54873033078479 -106.30374112040226 0 -106.30374112040226 20.345410445865127 0 0 0 0 -19.189645161884982 -49.464926435786765 0 -49.464926435786765 8.1927199800338713 0 0 0 0 280.42723806268532 22.986339654109543 0 22.986339654109543 -14.317905878284364 0 0 0 0 -7.9054823378469354 -2.3009361833657742 0 -2.3009361833657742 -0.16469931372958513 0 0 0 0 566.64192233125868 -66.88593160322489 0 -66.88593160322489 -52.574908416005201 0 0 0 0 -35.158523328995216 -63.556616305781063 0 -63.556616305781063 -2.889492482667265 0 0 0 0 459.19520803339765 -70.300382536144753 0 -70.300382536144753 -6.3927317766538181 0 0 0 0 9.0082824664067012 2.7553866438169941 0 2.7553866438169941 -1.7803924580855153 0 0 0 0 -25.239233350072027 -57.197608169324667 0 -57.197608169324667 -1.6245407667302061 0 0 0 0 -41.337929416302359 -58.753162351953506 0 -58.753162351953506 4.8657698325437195 0 0 0 0 -58.074105410276388 -75.118487206527789 0 -75.118487206527789 -2.1744650756627379 0 0 0 0 -38.907642318841681 -58.623278959974414 0 -58.623278959974414 4.8476404465181986 0 0 0 0 -78.436250209146237 -52.093172417986352 0 -52.093172417986352 32.59413499981747 0 0 0 0 -37.313642324756074 -52.727448483841727 0 -52.727448483841727 13.422429851532797 0 0 0 0 -32.426795629879052 -48.478451092378236 0 -48.478451092378236 13.124460955838913 0 0 0 0 -48.439704737364082 -42.209688230752363 0 -42.209688230752363 30.580985581662389 0 0 0 0 -33.906438066860574 -34.15509783728703 0 -34.15509783728703 34.512358657691948 0 0 0 0 -32.489773706749332 -30.505458018273927 0 -30.505458018273927 34.395951745653292 0 0 0 0 -43.875992267334368 -31.962235594080994 0 -31.962235594080994 41.177053150953725 0 0 0 0 -33.011825783126426 -3.215836057360498 0 -3.215836057360498 -1.4298222665105995 0 0 0 0 -36.958663408222492 -32.630842708247656 0 -32.630842708247656 33.755531099468499 0 0 0 0 -444.78487773823554 448.67862519924802 0 448.67862519924802 399.04625179176583 0 0 0 0 163.74914592711139 -180.51401490818171 0 -180.51401490818171 -368.96112827885736 0 0 0 0 -401.12306017162973 -56.290886615439831 0 -56.290886615439831 103.88643671832688 0 0 0 0 -5.2416349307974031 -4.4803503356830303 0 -4.4803503356830303 -11.861675165285277 0 0 0 0 346.75474567224956 -150.07696695316554 0 -150.07696695316554 -33.119835486024385 0 0 0 0 312.96497303994829 -150.52847795255275 0 -150.52847795255275 9.058719113272673 0 0 0 0 409.40696637931796 -102.16126513027848 0 -102.16126513027848 -24.854234023194294 0 0 0 0 341.49741342740708 -219.83226326658769 0 -219.83226326658769 106.79688558739144 0 0 0 0 435.73547789508666 -300.91814340918063 0 -300.91814340918063 174.00948755104037 0 0 0 0 545.49792577645894 -183.1823806645516 0 -183.1823806645516 22.909258548883372 0 0 0 0 568.89525575585139 54.461912644117547 0 54.461912644117547 -105.06057278157095 0 0 0 0 0.69263134420198469 -10.221704603550464 0 -10.221704603550464 -4.8980025318899303 0 0 0 0 294.57946745678055 -163.64130996981112 0 -163.64130996981112 185.84854107654974 0 0 0 0 447.69145469932573 -218.76721903344696 0 -218.76721903344696 26.419855905114673 0 0 0 0 282.589863840823 -107.63901444130988 0 -107.63901444130988 0.62655065246508457 0 0 0 0 171.0702202622706 -88.801974881454953 0 -88.801974881454953 100.14935026384774 0 0 0 0 303.01406150213734 -104.31186583696763 0 -104.31186583696763 -6.6971446402021684 0 0 0 0 379.31495899796209 -2.1625573987475946 0 -2.1625573987475946 124.93622977061386 0 0 0 0 182.29735911299667 -36.141417495509813 0 -36.141417495509813 -82.158345409414324 0 0 0 0 290.53612732515649 -141.20919623184091 0 -141.20919623184091 -22.56307421888414 0 0 0 0 192.50087591116244 -4.470839209996484 0 -4.470839209996484 6.4344155366861742 0 0 0 0 63.64772137705404 23.229152240935946 0 23.229152240935946 -37.716090892819921 0 0 0 0 64.73774923201745 -3.3393734080600552 0 -3.3393734080600552 -178.51471746362586 0 0 0 0 173.94894010466965 -71.193697024520588 0 -71.193697024520588 -41.261583804123802 0 0 0 0 115.04098294184587 -100.98551643989776 0 -100.98551643989776 -46.932520257356828 0 0 0 0 90.063268797637647 -62.821216015705431 0 -62.821216015705431 7.618177564429061 0 0 0 0 34.998975546322981 -89.762541023581434 0 -89.762541023581434 4.1816929605774931 0 0 0 0 6.2382286307786927 -16.707514873130627 0 -16.707514873130627 -4.3215704990211599 0 0 0 0 110.01093265791314 96.731167096111676 0 96.731167096111676 -286.00897035108937 0 0 0 0 27.723492299637655 61.018755016917567 0 61.018755016917567 -51.350339393151444 0 0 0 0 62.156878758955827 83.275285104662544 0 83.275285104662544 -167.59578942212102 0 0 0 0 -15.110076404234633 54.3339166080209 0 54.3339166080209 -178.43130564763123 0 0 0 0 221.8475165069849 -44.028622454246033 0 -44.028622454246033 -171.16763816020466 0 0 0 0 -112.72045034156872 -27.500342664112395 0 -27.500342664112395 -150.03072246053489 0 0 0 0 305.89248248617696 -142.44105940618829 0 -142.44105940618829 -198.42221432639781 0 0 0 0 6.5211573379409558 -17.849671100934628 0 -17.849671100934628 -7.1326125335453998 0 0 0 0 218.78414642269763 29.99667887097894 0 29.99667887097894 25.115589789671503 0 0 0 0 -291.11114660709791 -139.00455779784897 0 -139.00455779784897 124.44259183582744 0 0 0 0 0.32781839673461022 -1.5338838170192552 0 -1.5338838170192552 -5.4703051286378752 0 0 0 0 -470.71004784705156 -223.76796645178911 0 -223.76796645178911 88.923644870483258 0 0 0 0 393.3865787689374 -70.672733650260852 0 -70.672733650260852 -270.30228765527863 0 0 0 0 5.0347527674818409 -3.9028613412627351 0 -3.9028613412627351 -11.187014129784131 0 0 0 0 -22.451545638384687 75.621738981432827 0 75.621738981432827 -1071.096591388683 0 0 0 0 115.45011619838624 -555.47763290896546 0 -555.47763290896546 -827.56414010637673 0 0 0 0 -0.77778027641397784 -27.379302088655095 0 -27.379302088655095 -1.8826626365407719 0 0 0 0 5.7873317410880389 -6.2871592592430545 0 -6.2871592592430545 -13.054119370374266 0 0 0 0 14.506421298711075 -44.54674019484446 0 -44.54674019484446 -12.025315960971056 0 0 0 0 2.3387449762813048 -25.362015046986926 0 -25.362015046986926 -27.874945596711768 0 0 0 0 0.51432220869173761 -3.1501118349260651 0 -3.1501118349260651 -0.046483357140530153 0 0 0 0 7.9112166479790176 -22.725731769354752 0 -22.725731769354752 -36.709498899363098 0 0 0 0 1.3592213374140556 -1.6955354121892015 0 -1.6955354121892015 0.88191250909221708 0 0 0 0 0.13584361958517377 -2.0798213917162229 0 -2.0798213917162229 0.22039993039318517 0 0 0 0 2.1776581846061163 -26.982359433321108 0 -26.982359433321108 -28.651977251865901 0 0 0 0 -11.291718726097315 2.6325805934375239 0 2.6325805934375239 -50.729885729844682 0 0 0 0 9.5251669807857979 -12.466591356456775 0 -12.466591356456775 -86.529208543270215 0 0 0 0 0.33270648028061345 -1.938911468566701 0 -1.938911468566701 0.15125377457575162 0 0 0 0 -1.9850845014334482 1.5794946168680326 0 1.5794946168680326 -4.0085396457143361 0 0 0 0 12.197883715234639 -27.689194115730061 0 -27.689194115730061 -26.212038358971768 0 0 0 0 -5.8904882267825087 -10.182657364415718 0 -10.182657364415718 -46.219969984682393 0 0 0 0 -5.7978911167228944 -25.650861527392408 0 -25.650861527392408 -22.002140177108231 0 0 0 0 11.148736539530319 -12.694765866292073 0 -12.694765866292073 -32.782288632966811 0 0 0 0 -2.2106798698732746 -21.276549742637144 0 -21.276549742637144 -37.638727360179473 0 0 0 0 3.0905351767951288 -1.8234065088336138 0 -1.8234065088336138 -41.354801643385144 0 0 0 0 11.029249479403006 -17.415517924076994 0 -17.415517924076994 -48.016976076760329 0 0 0 0 1.0483411790664832 -28.119023691571783 0 -28.119023691571783 -32.655284573149402 0 0 0 0 -0.55369217377119639 -25.422478729989962 0 -25.422478729989962 -69.251346298435237 0 0 0 0 -15.381360265917465 -22.111335627683729 0 -22.111335627683729 -47.671080914479717 0 0 0 0 -6.5191116728819907 8.0003320203613839 0 8.0003320203613839 0.062206886304920772 0 0 0 0 -12.769073527887713 -7.5346187884529172 0 -7.5346187884529172 -43.007124992604076 0 0 0 0 0.098731267562754965 -1.495410389172136 0 -1.495410389172136 0.1196460477093737 0 0 0 0 27.552440572571868 -10.273086095887265 0 -10.273086095887265 -97.719304841101348 0 0 0 0 25.10131938802806 -33.031071316785528 0 -33.031071316785528 21.721769791834959 0 0 0 0 6.2670179269789514 -18.303972202771547 0 -18.303972202771547 -15.639617740343965 0 0 0 0 -13.242210621305276 -21.310882266776389 0 -21.310882266776389 -8.6508903641006327 0 0 0 0 -19.466879337560385 -27.486966534175735 0 -27.486966534175735 -48.78281611957209 0 0 0 0 6.7437370663355978 -6.3571762243627745 0 -6.3571762243627745 -42.681600426394652 0 0 0 0 -1.5107995136236383 -3.6278723832633766 0 -3.6278723832633766 -2.9659567138551921 0 0 0 0 33.644811132053292 -30.933692979431726 0 -30.933692979431726 -73.25963675481762 0 0 0 0 7.0477099241088581 -9.0536051453004802 0 -9.0536051453004802 -85.44652816215239 0 0 0 0 9.1972691998671507 -10.432764475302974 0 -10.432764475302974 -13.119424871551018 0 0 0 0 -80.458230830172397 -11.937803230566715 0 -11.937803230566715 184.76124272648303 0 0 0 0 0.96251007149049883 -4.3593833227052272 0 -4.3593833227052272 -1.490450255576218 0 0 0 0 -33.801068078531898 20.420461768311725 0 20.420461768311725 119.42317236609233 0 0 0 0 37.582042174770322 -96.939099246214028 0 -96.939099246214028 86.907241109244751 0 0 0 0 8.5836693894307246 -8.6789500356426288 0 -8.6789500356426288 -23.905814094534435 0 0 0 0 4.6223315700608509 -129.00294925987146 0 -129.00294925987146 136.60294657816121 0 0 0 0 0.23845696948460215 -2.8187761659705544 0 -2.8187761659705544 -1.6727030693473006 0 0 0 0 -1.4682795915059046 -6.4750976680761703 0 -6.4750976680761703 -5.666705450322155 0 0 0 0 -2.5528091882442823 -19.10580601120455 0 -19.10580601120455 -0.54498562230583047 0 0 0 0 0.23660307718336782 -8.1710489878062624 0 -8.1710489878062624 -6.6821889032722268 0 0 0 0 1.7907605928585326 -11.763147863530321 0 -11.763147863530321 -7.3670952848951856 0 0 0 0 5.2962108995839827 -6.6950468804834031 0 -6.6950468804834031 -0.18944569101751085 0 0 0 0 -234.01762013313601 -7.4787473444957868 0 -7.4787473444957868 0.49832447539120039 0 0 0 0 -15.765290563300368 -6.828562922495621 0 -6.828562922495621 -8.1976490874994852 0 0 0 0 -6.2637483285725466 -3.5833222189139633 0 -3.5833222189139633 -52.554994183043164 0 0 0 0 -0.32218653644667938 -20.177200664082193 0 -20.177200664082193 -39.80962911539973 0 0 0 0 14.00527729807618 -11.80372605813136 0 -11.80372605813136 -40.415927462432592 0 0 0 0 -6.2967816972231958 -30.717953178733296 0 -30.717953178733296 -45.563434288303142 0 0 0 0 -6.5810423004676721 -25.952929682282495 0 -25.952929682282495 -6.3631749902605161 0 0 0 0 10.929269041240332 -34.412822804555617 0 -34.412822804555617 10.788312024786137 0 0 0 0 7.3044774719273846 -10.97236291642912 0 -10.97236291642912 -75.953124305986421 0 0 0 0 2.8727749528643471 -18.972528187089665 0 -18.972528187089665 -1.4531078312938916 0 0 0 0 -2.5435709288431099 -28.344339271126955 0 -28.344339271126955 -7.563604752838728 0 0 0 0 -2.5068315809039632 -30.184395548652901 0 -30.184395548652901 -6.4040102263534209 0 0 0 0 -3.0010364476627913 -26.040597069825388 0 -26.040597069825388 -6.2079438502323718 0 0 0 0 -9.3551929075219959 -30.30828774168549 0 -30.30828774168549 7.4259772693549166 0 0 0 0 3.7643884766762312 -31.503513281187224 0 -31.503513281187224 -11.338248188432772 0 0 0 0 1.8679000517768145 -1.3428718335599115 0 -1.3428718335599115 0.10089379773125984 0 0 0 0 -0.89000796253822045 -12.053714709210908 0 -12.053714709210908 -22.952761165819538 0 0 0 0 -0.20566266196510696 -7.1357641412937483 0 -7.1357641412937483 12.265811701654457 0 0 0 0 -18.207834668442956 -10.121502879359468 0 -10.121502879359468 -3.7230623727336933 0 0 0 0 -0.20038681173043926 -2.091272997986195 0 -2.091272997986195 0.27436140643470885 0 0 0 0 -12.797717207875394 -18.769382023918297 0 -18.769382023918297 35.364099173530121 0 0 0 0 -24.269215908178921 -4.1871938237281938 0 -4.1871938237281938 89.694015628771012 0 0 0 0 -0.24424963009195721 -1.598815623634664 0 -1.598815623634664 0.18676389023610973 0 0 0 0 -25.83807199394505 -7.5317337189499085 0 -7.5317337189499085 -0.39125367695669411 0 0 0 0 -9.7778323395396001 -34.765277035101462 0 -34.765277035101462 36.291739180938748 0 0 0 0 9.455967665220669 -36.239089261058325 0 -36.239089261058325 -59.012058762338711 0 0 0 0 -10.631587386624489 -26.750555716565081 0 -26.750555716565081 -6.3835549043231339 0 0 0 0 -0.76666210402687796 -1.5947742468543282 0 -1.5947742468543282 0.6203048340898718 0 0 0 0 -13.030509185336996 -113.91924164792727 0 -113.91924164792727 -99.726773996716474 0 0 0 0 -0.87619117169742822 -99.329740870309251 0 -99.329740870309251 -180.19419297120476 0 0 0 0 -0.99822316099744057 -1.5203383861735347 0 -1.5203383861735347 -0.0020503838859440293 0 0 0 0 -57.949735421971127 -35.313488484211121 0 -35.313488484211121 -52.960880639118841 0 0 0 0 -10.371959570278705 -8.2147453416619101 0 -8.2147453416619101 -112.40499953947437 0 0 0 0 25.529645902606717 -40.969161747707403 0 -40.969161747707403 -97.515812946268852 0 0 0 0 -17.631487883152658 -57.41460204195937 0 -57.41460204195937 -107.41902675102028 0 0 0 0 -1.0817242001046452 -1.672933338118952 0 -1.672933338118952 1.2840399403316241 0 0 0 0 -4.9222644289147865 -6.0223537076635694 0 -6.0223537076635694 -3.7040525903066737 0 0 0 0 32.124164193810429 10.88963952344784 0 10.88963952344784 -80.352624968072632 0 0 0 0 86.020761672411027 37.611352448811886 0 37.611352448811886 -144.75147096799265 0 0 0 0 -170.76588778291989 -146.10813085906648 0 -146.10813085906648 44.601777994310396 0 0 0 0 -53.774762468849076 -50.053762820072734 0 -50.053762820072734 -11.95544020847592 0 0 0 0 -13.99037975318366 -27.232430444445917 0 -27.232430444445917 -6.7443247420965911 0 0 0 0 25.46069434394667 48.895847448573477 0 48.895847448573477 -193.72145069182079 0 0 0 0 -16.010569761478109 -68.645922152783896 0 -68.645922152783896 -47.074822142105404 0 0 0 0 0.35145339168711587 -1.5873430890028288 0 -1.5873430890028288 -2.153850408625118 0 0 0 0 -18.661480442420725 -9.4307918316335417 0 -9.4307918316335417 11.215081636135437 0 0 0 0 -56.014667340207779 -78.03815039067922 0 -78.03815039067922 -89.419323190548312 0 0 0 0 11.238907541071967 -80.901421241389471 0 -80.901421241389471 -147.30175598324422 0 0 0 0 8.6112814065709244 27.196678498174151 0 27.196678498174151 117.58659376277728 0 0 0 0 -0.11703781807345592 -3.1457346918967914 0 -3.1457346918967914 0.073331950778009691 0 0 0 0 16.288942358798522 -33.249304542510799 0 -33.249304542510799 75.390068706507009 0 0 0 0 -0.11387017507128405 -2.0574498852649299 0 -2.0574498852649299 -0.13838229155235426 0 0 0 0 -64.265633750081179 -54.951298031872284 0 -54.951298031872284 238.77274073089757 0 0 0 0 1.7944264079560526 -12.776865182997426 0 -12.776865182997426 -100.22336717378494 0 0 0 0 37.776906133341981 -77.504154477161137 0 -77.504154477161137 -289.054757359012 0 0 0 0 -61.01325083579286 -104.43300180516053 0 -104.43300180516053 -57.41655776630796 0 0 0 0 -38.587148740436533 -0.6533517895982186 0 -0.6533517895982186 74.22478367462827 0 0 0 0 -8.5990106901558931 -15.888619039514509 0 -15.888619039514509 -1.4542180031755549 0 0 0 0 -3.3251370959915221 -18.489532861975022 0 -18.489532861975022 -14.217581373419307 0 0 0 0 -7.4179823764497996 -77.898167042050773 0 -77.898167042050773 -76.367639139223684 0 0 0 0 -29.393220510981337 -19.94993950153912 0 -19.94993950153912 85.00442395619757 0 0 0 0 -14.753160328032948 -26.426109509645478 0 -26.426109509645478 -2.881948540599808 0 0 0 0 -2.8701905499528664 -4.5777591930776254 0 -4.5777591930776254 -7.5968942542764069 0 0 0 0 -7.0726444221782003 -6.8618731623373606 0 -6.8618731623373606 -0.01086282007599948 0 0 0 0 -24.861332123977263 -39.113392585019028 0 -39.113392585019028 -65.71735055938916 0 0 0 0 -10.921624176178739 -14.217099117919133 0 -14.217099117919133 -6.7969376033743174 0 0 0 0 -9.77440064244729 -13.205261086048267 0 -13.205261086048267 -1.3828470607404597 0 0 0 0 -9.909315527362196 -13.71995183355466 0 -13.71995183355466 0.00015750929742353037 0 0 0 0 -8.5109253972644012 -12.023304651031566 0 -12.023304651031566 1.0633794917530999 0 0 0 0 -11.091689619240242 -13.023757493877383 0 -13.023757493877383 -0.40976881916867569 0 0 0 0 -8.0027320392255206 -18.702739538275637 0 -18.702739538275637 4.0096644292134442 0 0 0 0 -1.8762233450179338 -15.55683780835534 0 -15.55683780835534 -6.0302458829974057 0 0 0 0 -8.6599091557400243 -14.169290767655184 0 -14.169290767655184 -0.57959292333543999 0 0 0 0 -6.8923051804735849 -12.860055097956668 0 -12.860055097956668 -1.2375682043925842 0 0 0 0 -7.8688582891918486 -13.273285819799639 0 -13.273285819799639 0.43497670066426508 0 0 0 0 -4.6002965476329223 -6.1750333290313435 0 -6.1750333290313435 -0.64393948402302215 0 0 0 0 -1.761174126097103 -6.3294599958016988 0 -6.3294599958016988 12.21206879944657 0 0 0 0 -9.722359132296333 -10.380591393924988 0 -10.380591393924988 2.2592282066325424 0 0 0 0 -7.0780478293800115 -14.527406826779043 0 -14.527406826779043 2.3841086400425411 0 0 0 0 -5.2870476080339444 -5.6541703179672425 0 -5.6541703179672425 1.2786008191704639 0 0 0 0 -1.4252046892374324 -2.8968267549938531 0 -2.8968267549938531 -2.4386943411570599 0 0 0 0 -2.9615209430194227 -7.5522452226141468 0 -7.5522452226141468 20.037544699589489 0 0 0 0 -12.78658389633533 -14.409238392428321 0 -14.409238392428321 3.2464089268465557 0 0 0 0 0.0051226394018328847 -0.23439716290218371 0 -0.23439716290218371 1.6205451750423379 0 0 0 0 -31.982789182606211 -12.913785720489614 0 -12.913785720489614 53.271515018973332 0 0 0 0 -12.171478757460136 -17.175622745038709 0 -17.175622745038709 -8.5723756072402466 0 0 0 0 -8.5804444114831 -12.912308282272264 0 -12.912308282272264 9.5058633024823997 0 0 0 0 -6.2660775293079496 -20.303536617744612 0 -20.303536617744612 -11.400358228449477 0 0 0 0 -7.1753765192152059 -12.743508197152551 0 -12.743508197152551 6.521473780827364 0 0 0 0 -0.85728874441814895 -9.656808602875401 0 -9.656808602875401 -1.4263876617172144 0 0 0 0 -16.78162410215009 -8.51461695125181 0 -8.51461695125181 2.3831201280618188 0 0 0 0 -0.44464339822560817 -0.59910903683265104 0 -0.59910903683265104 0.61649154124602035 0 0 0 0 -12.578429081484501 -48.011461795627838 0 -48.011461795627838 48.378982634942076 0 0 0 0 -9.7542471553501855 -6.090259787007426 0 -6.090259787007426 -2.4767048997164238 0 0 0 0 -22.261290002383163 -6.0509875663645474 0 -6.0509875663645474 0.33870530952138012 0 0 0 0 59.214086849300656 33.908633328886935 0 33.908633328886935 11.03850836262427 0 0 0 0 -7.7318912783812266 -12.306017452283413 0 -12.306017452283413 2.9628910869469109 0 0 0 0 -10.375869884039275 -14.320391446381109 0 -14.320391446381109 7.7182103426348476 0 0 0 0 -6.5242949274788913 -11.968406748737031 0 -11.968406748737031 3.2241711702779199 0 0 0 0 -3.9274020082812058 -8.1851515396992909 0 -8.1851515396992909 -6.301953983367639 0 0 0 0 -8.0137838451417664 -1.5862292196111056 0 -1.5862292196111056 -0.20612853180236357 0 0 0 0 -3.1569882518446963 -14.556025446030645 0 -14.556025446030645 8.9404920216457526 0 0 0 0 -9.4082346748618875 -15.485697103991697 0 -15.485697103991697 3.2527550273807719 0 0 0 0 -7.439058768890078 -8.0083811248192234 0 -8.0083811248192234 6.8049153108687648 0 0 0 0 -11.895570212598614 -15.792055645762957 0 -15.792055645762957 6.3204906572791515 0 0 0 0 -15.019224211944675 -10.191784065658794 0 -10.191784065658794 11.031858586158251 0 0 0 0 6.1032853645265277 -33.900351316337037 0 -33.900351316337037 -7.3119320896039426 0 0 0 0 -9.8485806576345567 -30.492573691005418 0 -30.492573691005418 16.358101708770846 0 0 0 0 2.1058635619750312 -5.5393474302992587 0 -5.5393474302992587 -3.2386623522550479 0 0 0 0 20.077134802329965 -19.913409588711829 0 -19.913409588711829 -18.084423358715867 0 0 0 0 9.102802923049893 -14.655357497335245 0 -14.655357497335245 6.5111360534121516 0 0 0 0 -9.5015051223017508 -14.928063440831465 0 -14.928063440831465 5.7828626426307892 0 0 0 0 -4.3988664484240871 -9.498640508574681 0 -9.498640508574681 1.4320298263046425 0 0 0 0 -0.70726168070306272 -6.188605086889055 0 -6.188605086889055 9.1996669362033998 0 0 0 0 -11.932094816715107 -4.6236078487636405 0 -4.6236078487636405 -0.56869839554019563 0 0 0 0 -0.64473164804673644 -0.29038508973521004 0 -0.29038508973521004 4.2905991458778345 0 0 0 0 58.835765613403055 -13.689393408976684 0 -13.689393408976684 -8.0720160629825841 0 0 0 0 24.566983036718739 -9.2366901111545303 0 -9.2366901111545303 -3.1723039444696042 0 0 0 0 -25.684862052052267 -9.9896043169856057 0 -9.9896043169856057 11.380284415485221 0 0 0 0 7.9512089723975805 39.210997272985878 0 39.210997272985878 20.332274302410951 0 0 0 0 -33.080814995810215 -30.918783755503682 0 -30.918783755503682 34.129882509024355 0 0 0 0 -161.71513037789919 -71.23806427753334 0 -71.23806427753334 12.644933342606123 0 0 0 0 -69.772420384790166 -172.31191467170356 0 -172.31191467170356 -111.00910842914527 0 0 0 0 -94.185832289196696 -128.80492574465279 0 -128.80492574465279 -58.931993860516741 0 0 0 0 -14.499349185309256 -50.839232943699244 0 -50.839232943699244 -169.73600791649915 0 0 0 0 -100.98864870036232 45.222816909897119 0 45.222816909897119 -32.002813215403876 0 0 0 0 -107.92297964200225 -5.9979220854838786 0 -5.9979220854838786 210.95411369346402 0 0 0 0 0.37993032483646516 -2.2960813060871601 0 -2.2960813060871601 0.60944697478527132 0 0 0 0 61.109637736357399 -34.548467703127244 0 -34.548467703127244 25.527449207169411 0 0 0 0 51.1088196022788 -15.257774933008591 0 -15.257774933008591 2.8854287886424572 0 0 0 0 136.35989196671289 -12.092086189943075 0 -12.092086189943075 1.7440139305981575 0 0 0 0 -1.6726692671485779 0.40452049163086201 0 0.40452049163086201 0.84723150966435412 0 0 0 0 -19.398375930821203 -24.578132799304512 0 -24.578132799304512 10.03984478451639 0 0 0 0 60.422506419503407 47.333109243137187 0 47.333109243137187 -53.895914349766826 0 0 0 0 11.390357000873337 -52.747343262870345 0 -52.747343262870345 -56.265615485612216 0 0 0 0 176.40120964964808 -43.951362745161532 0 -43.951362745161532 -19.442885962998844 0 0 0 0 177.60026379381088 -6.1703976047720062 0 -6.1703976047720062 2.2043640874762787 0 0 0 0 -6.0732659823869994e-05 -1.1400572570503584 0 -1.1400572570503584 1.4017599168669364 0 0 0 0 94.263954513735371 -9.136350627457432 0 -9.136350627457432 25.247068641969236 0 0 0 0 77.621635814753972 -84.378326186762934 0 -84.378326186762934 19.480941770521895 0 0 0 0 -83.026594881393976 -65.195380819737693 0 -65.195380819737693 -13.577647949397942 0 0 0 0 -90.472595375966193 -116.46715236819182 0 -116.46715236819182 2.3669366441863531 0 0 0 0 275.33309573181396 -33.169216972777576 0 -33.169216972777576 -63.637587334993441 0 0 0 0 0.11955028183219341 -0.01032172466342729 0 -0.01032172466342729 0.22517809317467652 0 0 0 0 -174.17490062518482 -92.147925831348402 0 -92.147925831348402 19.364832840452436 0 0 0 0 -133.56730646857432 -73.229934753186171 0 -73.229934753186171 35.961135537665541 0 0 0 0 -68.118940293350533 -91.708598258775055 0 -91.708598258775055 -9.96784533943719 0 0 0 0 -45.371309985825064 -60.013269676210257 0 -60.013269676210257 -44.111511802835594 0 0 0 0 -39.390536305214482 -72.372883044763512 0 -72.372883044763512 -19.197111715448045 0 0 0 0 14.224227726142999 -11.455752683134051 0 -11.455752683134051 -4.7157935830709903 0 0 0 0 8.0643565907357697 21.322944607256659 0 21.322944607256659 -126.10109043186094 0 0 0 0 -29.78931236754579 65.94892876126687 0 65.94892876126687 -20.951180991778529 0 0 0 0 -122.45616585875723 -153.71286833033901 0 -153.71286833033901 204.93762170502305 0 0 0 0 -4.0494658043503762 -5.0256082563870379 0 -5.0256082563870379 -3.7431575571520526 0 0 0 0 101.83822039611914 -146.45961027421981 0 -146.45961027421981 -32.772730680437235 0 0 0 0 118.61271784697237 -95.359960505940762 0 -95.359960505940762 29.641330811013177 0 0 0 0 50.794782161261537 -80.428137896877161 0 -80.428137896877161 71.738588471549519 0 0 0 0 -5.7236022252599952 -6.0846890941949532 0 -6.0846890941949532 -4.1224348310032468 0 0 0 0 51.093435114914428 -275.32844016615309 0 -275.32844016615309 115.62922627754233 0 0 0 0 99.154687479531276 -12.549471843047286 0 -12.549471843047286 -115.27632586836626 0 0 0 0 95.43997279076757 -9.3951632281587081 0 -9.3951632281587081 -108.06365643839308 0 0 0 0 102.28222508884573 -157.47213981848654 0 -157.47213981848654 -294.63004843735689 0 0 0 0 54.422891038841044 80.44590178478029 0 80.44590178478029 -266.51728646929359 0 0 0 0 -62.654664443705769 61.174572445355579 0 61.174572445355579 11.674165635711688 0 0 0 0 22.439809714647708 8.22380902443183 0 8.22380902443183 -33.129455105503439 0 0 0 0 53.974936723483552 -36.751524938757939 0 -36.751524938757939 17.921494765087118 0 0 0 0 52.743359054646135 42.429642746298668 0 42.429642746298668 -108.08163507362769 0 0 0 0 61.832544112692631 -42.454932090889088 0 -42.454932090889088 -77.900487624079688 0 0 0 0 19.946720623036526 -35.586664177008061 0 -35.586664177008061 -66.832907987803992 0 0 0 0 25.233278519564919 39.589838077392415 0 39.589838077392415 -290.90411798219066 0 0 0 0 -1.1772042249630346 -2.1202679947290619 0 -2.1202679947290619 -1.8925517829678498 0 0 0 0 95.40314639632561 -32.279893303018071 0 -32.279893303018071 -96.222868005381315 0 0 0 0 0.35235796195047442 -599.48852552408061 0 -599.48852552408061 -1112.3424772970939 0 0 0 0 8.0459440077611362 59.65585260005173 0 59.65585260005173 -529.00469284098472 0 0 0 0 119.64532220456749 -51.062163268587028 0 -51.062163268587028 -16.488330333668273 0 0 0 0 -282.81892370101195 -335.47016217646342 0 -335.47016217646342 -42.607425223250175 0 0 0 0 0.050595271699421573 -594.48269311489639 0 -594.48269311489639 204.46180264093709 0 0 0 0 -1001.9631012218015 -866.63604698428389 0 -866.63604698428389 -0.42033424411420128 0 0 0 0 -859.74280264061963 -575.44031821299723 0 -575.44031821299723 -351.43865555583034 0 0 0 0 -0.23043974936878661 -42.048725090257648 0 -42.048725090257648 2.8709608183708042 0 0 0 0 -143.82483584979491 205.38006695427976 0 205.38006695427976 853.46265612201205 0 0 0 0 2.6336294504484101 -2.3152017305939836 0 -2.3152017305939836 0.19109001116122215 0 0 0 0 -1.2793321593209726 -0.19194445819584871 0 -0.19194445819584871 -0.50044767347079144 0 0 0 0 2.4564010620975925 -986.56499729505049 0 -986.56499729505049 -1287.5240361556644 0 0 0 0 -3.8064474206150862 -5.6005859221529164 0 -5.6005859221529164 -0.55353148442911504 0 0 0 0 39.287667426153348 -124.38836794281269 0 -124.38836794281269 -592.80639357936343 0 0 0 0 -31.655149161320878 1.1594675735832425 0 1.1594675735832425 -4.9026750369230285 0 0 0 0 14.82415503221273 -106.96097232471584 0 -106.96097232471584 228.01887045965123 0 0 0 0 22.283794811595726 8.9494501788103662 0 8.9494501788103662 230.13356981977995 0 0 0 0 -8.4549887945415776 -12.503112105074464 0 -12.503112105074464 0.27592291159784565 0 0 0 0 -2.4647478871629573 -10.186615561135113 0 -10.186615561135113 -5.0850846287066815 0 0 0 0 1.6355575085765395 -10.285716822827553 0 -10.285716822827553 -2.9001472252765339 0 0 0 0 -2.716630828671029 -13.986713559693722 0 -13.986713559693722 2.0376700737120217 0 0 0 0 -29.425949952172232 -19.84214031308511 0 -19.84214031308511 729.22331283440508 0 0 0 0 26.114909045907552 -70.999295796067599 0 -70.999295796067599 2.7002009040888879 0 0 0 0 7.0959820337702695 -25.636436803401011 0 -25.636436803401011 -37.241377408776316 0 0 0 0 4.1720220519872271 -4.1759615192893875 0 -4.1759615192893875 -1.470702936213776 0 0 0 0 -112.24872219548706 -27.810081218114647 0 -27.810081218114647 12.28066980605945 0 0 0 0 -174.21210475409316 -356.1607159554369 0 -356.1607159554369 329.94936201184464 0 0 0 0 -19.320712593918955 -10.868104320514714 0 -10.868104320514714 -3.5453321571501135 0 0 0 0 -112.24040328301999 -134.64913221513234 0 -134.64913221513234 -123.26239510388405 0 0 0 0 6.9709596186849723 -6.74235414536966 0 -6.74235414536966 0.045301594026469161 0 0 0 0 256.1281134110759 -111.54483249160694 0 -111.54483249160694 -55.449867179002467 0 0 0 0 177.94677420254447 -85.014965940663387 0 -85.014965940663387 130.82626727283059 0 0 0 0 2.8732172928907858 -1.8214231626319588 0 -1.8214231626319588 1.2232608331139616 0 0 0 0 -35.701309273950756 -36.13038617415441 0 -36.13038617415441 -0.41525255125088734 0 0 0 0 -11.154148794143111 87.628281659272034 0 87.628281659272034 -25.347225048658402 0 0 0 0 1.9454544919390742 0.52576808615816617 0 0.52576808615816617 -0.051899015913829061 0 0 0 0 -80.357802625767363 -56.967982437774481 0 -56.967982437774481 -118.14387025102769 0 0 0 0 71.048338705744754 26.256984141228713 0 26.256984141228713 -72.60194232975482 0 0 0 0 53.113817166949048 -446.35841888200912 0 -446.35841888200912 -580.83631578234053 0 0 0 0 -179.06168573557807 41.060818116409791 0 41.060818116409791 32.416810962105956 0 0 0 0 38.52687222448003 -397.18422941221979 0 -397.18422941221979 -1031.5214048934504 0 0 0 0 -9.0432817891441175 -3.9531913857397427 0 -3.9531913857397427 1.6415577392736509 0 0 0 0 -60.740344132733298 -18.023981535923667 0 -18.023981535923667 233.39199846944757 0 0 0 0 -7.6078960299382743 12.393709609662437 0 12.393709609662437 166.46860751241547 0 0 0 0 23.269038398124394 36.982490330839937 0 36.982490330839937 149.03423986782764 0 0 0 0 -22.2217088919937 -3.3882823849561419 0 -3.3882823849561419 2.3893915018585545 0 0 0 0 -44.045544352826255 32.077348504477413 0 32.077348504477413 201.11949783887394 0 0 0 0 -0.13743164121339646 0.41410043379777051 0 0.41410043379777051 -0.041443664032584593 0 0 0 0 -64.736723833993892 -35.381752785535355 0 -35.381752785535355 56.857795391351829 0 0 0 0 -56.942516791117669 -21.527965066128672 0 -21.527965066128672 22.715160985790135 0 0 0 0 -1607.6948494681201 291.72512151119736 0 291.72512151119736 -454.47942008363316 0 0 0 0 -247.08237349273259 -422.30713765425753 0 -422.30713765425753 -235.73054076167318 0 0 0 0 -34.254349761034035 -3.8587568813401276 0 -3.8587568813401276 5.1523359160752875 0 0 0 0 -3.9791823302584817 -301.92813038978056 0 -301.92813038978056 -178.33807898512896 0 0 0 0 -338.41224581607457 -260.61674632769791 0 -260.61674632769791 58.984056586428778 0 0 0 0 -592.90303040736035 -356.72446022060467 0 -356.72446022060467 6.3456640321473969 0 0 0 0 -350.69434046451352 -284.33022054761386 0 -284.33022054761386 19.907738257223173 0 0 0 0 1169.4696989613003 -288.70156910727383 0 -288.70156910727383 -939.68218893728044 0 0 0 0 -366.09277987433597 48.403401899289747 0 48.403401899289747 19.295842357525544 0 0 0 0 -7.2716582735498605 -4.4159353961054144 0 -4.4159353961054144 -3.1234539096363108 0 0 0 0 -631.45945007204864 -138.78778230205762 0 -138.78778230205762 68.875368354769307 0 0 0 0 -141.97369737867848 66.683405549360032 0 66.683405549360032 17.417188974702185 0 0 0 0 -315.0512726484958 -45.409303777887544 0 -45.409303777887544 57.602676059032092 0 0 0 0 -290.9269914921897 -69.261572714596696 0 -69.261572714596696 77.622504404716892 0 0 0 0 -257.42387745163978 -304.28656727618363 0 -304.28656727618363 314.18395818256977 0 0 0 0 -96.513124554301612 -110.76974523154786 0 -110.76974523154786 50.711209065803814 0 0 0 0 350.14382484385715 -204.2933266087457 0 -204.2933266087457 29.864057160091761 0 0 0 0 -38.91877285202645 -952.62448355195011 0 -952.62448355195011 -1.5022916335001355 0 0 0 0 -448.96260363067267 176.94123316881996 0 176.94123316881996 137.35279163878295 0 0 0 0 -5.610828223571005 -1.06858683572149 0 -1.06858683572149 -0.071258718203910831 0 0 0 0 -829.43374057573237 -199.2136748189514 0 -199.2136748189514 391.29532609463058 0 0 0 0 23.429320340772392 3.935739025939256 0 3.935739025939256 -0.043500605708686635 0 0 0 0 -437.46840597094706 -253.45941227897129 0 -253.45941227897129 135.44769080789411 0 0 0 0 -366.52089731345768 -169.72637961093278 0 -169.72637961093278 188.03618854143861 0 0 0 0 -335.78969856308686 -220.95267226321266 0 -220.95267226321266 78.216730370026198 0 0 0 0 -194.38161088139896 -110.27207663565787 0 -110.27207663565787 7.450966393116687 0 0 0 0 -37.471171171635888 -107.75739769439701 0 -107.75739769439701 14.474569032143336 0 0 0 0 24.056761153158732 4.308671227456216 0 4.308671227456216 0.097089591588883195 0 0 0 0 -25.162442887671205 -16.011912192567252 0 -16.011912192567252 57.813990248771006 0 0 0 0 -28.25776167926233 -43.295866057585954 0 -43.295866057585954 140.40386993952961 0 0 0 0 -15.397749381290012 -2.2249418192749602 0 -2.2249418192749602 -0.2502149063453345 0 0 0 0 -179.25954906335392 -69.778108439524658 0 -69.778108439524658 30.199261439596739 0 0 0 0 -5.336297479840141 -56.259580869245838 0 -56.259580869245838 3.3593846611838671 0 0 0 0 19.183188141985738 -18.979919657471328 0 -18.979919657471328 -37.881037948716767 0 0 0 0 8.2545164320908953 -37.856953533249907 0 -37.856953533249907 -0.090348000113408489 0 0 0 0 5.8998590265914999 -15.928581134616152 0 -15.928581134616152 6.3660671543825273 0 0 0 0 7.8661109007516643 -32.713085450886865 0 -32.713085450886865 -2.1956921359324042 0 0 0 0 -3.8476525595833664 -15.168747527543019 0 -15.168747527543019 -25.143660103902221 0 0 0 0 -4.1762982198251883 -5.2778809739298964 0 -5.2778809739298964 -1.4653064462764291 0 0 0 0 194.30555097438628 -123.5914327681312 0 -123.5914327681312 -139.69708379493386 0 0 0 0 -5.7701235017811996 -37.298005966118581 0 -37.298005966118581 4.1011733565974282 0 0 0 0 9.4067532418594055 -39.929393139022068 0 -39.929393139022068 0.86806788713874994 0 0 0 0 1.5991518566714085 -24.190075107605338 0 -24.190075107605338 8.8694430910728812 0 0 0 0 9.673225664659185 -34.833034578300612 0 -34.833034578300612 -0.3781298105532187 0 0 0 0 17.190519942589162 -27.359825909457868 0 -27.359825909457868 3.6605579391252832 0 0 0 0 17.685888750348113 -39.456450112241896 0 -39.456450112241896 29.450122042107978 0 0 0 0 17.910695399492397 -31.991958658025396 0 -31.991958658025396 3.5334970113435702 0 0 0 0 58.013337995944312 -26.701488621343742 0 -26.701488621343742 5.9614134884723171 0 0 0 0 49.509046431853676 -41.194221355055333 0 -41.194221355055333 0.16829568090906832 0 0 0 0 5.331696712584284 -21.123676317434985 0 -21.123676317434985 4.8879395119989795 0 0 0 0 -22.008442626443866 -28.134181684963551 0 -28.134181684963551 13.774461696346407 0 0 0 0 -39.473288698769466 -39.84309819700502 0 -39.84309819700502 21.984758501450415 0 0 0 0 -18.313178139490446 -23.251356447269245 0 -23.251356447269245 -12.917169746928266 0 0 0 0 -17.595888799617569 -30.453839516932248 0 -30.453839516932248 32.958908480206446 0 0 0 0 -2.4575294117239537 -36.661745352659636 0 -36.661745352659636 36.414524946079837 0 0 0 0 73.683116625325056 -51.898484438752348 0 -51.898484438752348 14.605118265899364 0 0 0 0 -0.76490797252336051 -14.276350899894169 0 -14.276350899894169 5.6066852392541477 0 0 0 0 89.032916004114668 61.408619632980844 0 61.408619632980844 -39.680740250856616 0 0 0 0 7.1152921052562306 -22.161929044486897 0 -22.161929044486897 11.828935794144058 0 0 0 0 0.34809334286728699 -86.162192733755546 0 -86.162192733755546 13.840877266826283 0 0 0 0 -14.756458679119532 -26.636997192334093 0 -26.636997192334093 -6.3787772146752104 0 0 0 0 -3.3278405672281224 -43.451435107153884 0 -43.451435107153884 -1.7029243459501231 0 0 0 0 -2.1732402171907381 -5.9801676141632925 0 -5.9801676141632925 -0.93544076801083698 0 0 0 0 13.09690608193705 -58.346536760502204 0 -58.346536760502204 -73.128391475376702 0 0 0 0 -21.813263712323533 -20.463297610345762 0 -20.463297610345762 9.0429945723044511 0 0 0 0 -40.530917420772312 -16.490444998280509 0 -16.490444998280509 19.048412430143799 0 0 0 0 -17.483428766769066 -35.854597915651539 0 -35.854597915651539 51.082004450381646 0 0 0 0 0.87569853773973705 -8.1145330897355237 0 -8.1145330897355237 -0.9867460087537161 0 0 0 0 -14.216686066065449 -48.738927997923383 0 -48.738927997923383 -33.213157244703325 0 0 0 0 9.9321308784783469 -33.272382142198694 0 -33.272382142198694 -26.266569043633353 0 0 0 0 5.0711692898040539 -21.272051937085251 0 -21.272051937085251 -0.014878257832904751 0 0 0 0 -0.59133542994241139 -18.505400458985463 0 -18.505400458985463 -10.24431372264317 0 0 0 0 -0.25354920046811458 -28.991601196543343 0 -28.991601196543343 -31.890998101778678 0 0 0 0 7.6179358921641551 -1.8695473934126952 0 -1.8695473934126952 -6.5076798144398253 0 0 0 0 16.641950506069406 -139.53610258388471 0 -139.53610258388471 59.882971217535669 0 0 0 0 -16.948842908706865 -97.580982821222278 0 -97.580982821222278 120.75444768107263 0 0 0 0 -17.605321033654036 -104.8120344863637 0 -104.8120344863637 125.90388832579265 0 0 0 0 -19.691014409807394 -104.43781337956898 0 -104.43781337956898 208.42147487968759 0 0 0 0 -4.2899594512776424 -3.7921676307693559 0 -3.7921676307693559 -0.65941853402871686 0 0 0 0 129.35193925717613 -165.93246490348974 0 -165.93246490348974 105.30117165971751 0 0 0 0 -27.15523682541243 -71.870079569569498 0 -71.870079569569498 54.997317264103913 0 0 0 0 -7.2892568933639268 -45.012696695363957 0 -45.012696695363957 234.98890103292797 0 0 0 0 -1.1186498752067564 -76.11673521082048 0 -76.11673521082048 167.50891975938066 0 0 0 0 -3.8033365666487953 -101.87888969301275 0 -101.87888969301275 121.98092417245789 0 0 0 0 -16.705232562177116 -100.0286578191517 0 -100.0286578191517 128.22212336400844 0 0 0 0 16.495431433460908 -47.441380649408529 0 -47.441380649408529 27.089835194556144 0 0 0 0 0.4993334874016 -33.243759624027007 0 -33.243759624027007 115.0852734892751 0 0 0 0 -25.327400869304256 -43.072194982192741 0 -43.072194982192741 -27.230890836115577 0 0 0 0 -27.190586794056799 -50.679842088833539 0 -50.679842088833539 -51.689023977138277 0 0 0 0 -33.459277937314255 -79.439450995450898 0 -79.439450995450898 -57.114945165900281 0 0 0 0 -35.448129721014993 -62.228222499037656 0 -62.228222499037656 -6.0451982388403849 0 0 0 0 -32.283916968284757 -72.070799249024276 0 -72.070799249024276 -27.096971377046259 0 0 0 0 -33.787973785030772 -40.217163059256563 0 -40.217163059256563 7.7557397517230129 0 0 0 0 -59.489111328482977 -53.356686865772645 0 -53.356686865772645 4.5858043866619482 0 0 0 0 -40.432296975930512 -42.591870290596489 0 -42.591870290596489 -1.338628519573831 0 0 0 0 -74.504529782483587 -40.595775931888056 0 -40.595775931888056 12.247126375106745 0 0 0 0 -90.083582507686515 -84.840495969834592 0 -84.840495969834592 -8.4691804992107791 0 0 0 0 -38.1988648415645 -81.744463373419421 0 -81.744463373419421 -44.723157185700984 0 0 0 0 -57.082886932865222 -75.757264930622114 0 -75.757264930622114 4.7061336497135926 0 0 0 0 -48.412400643926958 -64.665524364794692 0 -64.665524364794692 -1.1706366177240852 0 0 0 0 -57.735606481786817 -72.76661708237225 0 -72.76661708237225 -4.9293708645523111 0 0 0 0 -1.0047813215260248 13.224007743739776 0 13.224007743739776 78.335364551901876 0 0 0 0 -4.2026010318877525 -42.794924318684934 0 -42.794924318684934 -12.915462372497132 0 0 0 0 -46.912071331018524 -60.133002027119801 0 -60.133002027119801 28.476027846583747 0 0 0 0 -16.383692372954101 -59.009493199249846 0 -59.009493199249846 -34.464819277171046 0 0 0 0 -42.353930487115576 -1.4003286285078502 0 -1.4003286285078502 146.1780340674668 0 0 0 0 -1.5468431990302633 -39.354869547983981 0 -39.354869547983981 116.41022237361176 0 0 0 0 -0.23645638044050088 0.14274893876553563 0 0.14274893876553563 0.26648414141681798 0 0 0 0 -32.09568430238869 -19.383178505250726 0 -19.383178505250726 103.4924244884387 0 0 0 0 -17.786590947194782 -48.03955962541113 0 -48.03955962541113 69.989456928960863 0 0 0 0 -64.598293350245513 -107.10388763871379 0 -107.10388763871379 74.752879340858271 0 0 0 0 -27.392193879044498 -105.1021419098106 0 -105.1021419098106 -59.093252743365156 0 0 0 0 -54.050766530570399 -98.380430920438812 0 -98.380430920438812 -3.3199427175422898 0 0 0 0 -47.971087579084269 -62.801733754462475 0 -62.801733754462475 31.063245287219615 0 0 0 0 -54.962546003967873 -70.693791917874478 0 -70.693791917874478 45.195260323194816 0 0 0 0 -59.946995487298409 -70.030135902980874 0 -70.030135902980874 -68.375662301310513 0 0 0 0 -20.982789447130926 -104.27182105818247 0 -104.27182105818247 -161.41728364712617 0 0 0 0 1.4885260891009011 -0.70109471406208002 0 -0.70109471406208002 0.29261092711891834 0 0 0 0 32.432227993791457 -89.242207061786758 0 -89.242207061786758 172.5729950437526 0 0 0 0 46.429136816535902 -63.343994717116402 0 -63.343994717116402 210.86829903219041 0 0 0 0 -21.507256934070028 -134.15161731525404 0 -134.15161731525404 599.80324820169335 0 0 0 0 0.54580854020713332 -0.49366074969748297 0 -0.49366074969748297 0.16767772631886224 0 0 0 0 117.08038607926574 -284.65425746297842 0 -284.65425746297842 188.96498050023433 0 0 0 0 25.823110393568641 -216.86754676892451 0 -216.86754676892451 -54.469885477876232 0 0 0 0 60.517449812428822 -141.06408624209689 0 -141.06408624209689 -402.15990374430112 0 0 0 0 29.011105980949651 -172.53698950257785 0 -172.53698950257785 117.01184901250235 0 0 0 0 33.755351853375032 -177.93459397538027 0 -177.93459397538027 120.64995763442676 0 0 0 0 26.876299750801991 -182.65313668003546 0 -182.65313668003546 118.6335463873329 0 0 0 0 -0.018352105311350897 -183.96003386163648 0 -183.96003386163648 131.26775992761395 0 0 0 0 27.220163354912074 -186.40462162708718 0 -186.40462162708718 102.26649399922599 0 0 0 0 38.956824989254528 -148.37035947769618 0 -148.37035947769618 155.52268932768129 0 0 0 0 0.14815580371941905 -158.8666126475091 0 -158.8666126475091 198.69410847220206 0 0 0 0 -1.0015702301134297 -113.00618616498286 0 -113.00618616498286 324.65537027171376 0 0 0 0 35.168943912009127 -92.279364635145612 0 -92.279364635145612 115.97181851568467 0 0 0 0 25.684869527540286 -91.354548794697621 0 -91.354548794697621 112.88322536891064 0 0 0 0 17.513916601639721 -63.701722012738173 0 -63.701722012738173 222.55568596608646 0 0 0 0 41.321592924912693 44.601236844075174 0 44.601236844075174 227.6358438155055 0 0 0 0 18.720464839463602 119.66163923761087 0 119.66163923761087 217.75574324460104 0 0 0 0 51.807416034149355 18.710053410002729 0 18.710053410002729 145.73405563837514 0 0 0 0 -1.66257316464268 -1.1439438282228593 0 -1.1439438282228593 -0.43850110200231995 0 0 0 0 -37.755110759317176 1.0103753427811171 0 1.0103753427811171 397.44751289173655 0 0 0 0 0.17818995767447632 -194.35454350628424 0 -194.35454350628424 157.87006919991654 0 0 0 0 0.29685898584534698 0.6660011828674044 0 0.6660011828674044 0.17241864246168248 0 0 0 0 -1.2917380831919445 0.91353469628851514 0 0.91353469628851514 0.936240812333061 0 0 0 0 -68.622437265068584 -96.177361189693329 0 -96.177361189693329 -134.8950996583153 0 0 0 0 0.0031168690547929145 -10.663948726701165 0 -10.663948726701165 16.116126550126864 0 0 0 0 -1.007505871244831 0.10880289769837148 0 0.10880289769837148 0.34708707599317989 0 0 0 0 12.553888751168415 -0.11041161061984894 0 -0.11041161061984894 -5.0532711595733417 0 0 0 0 -2.1222122393371734 -3.1098793866518761 0 -3.1098793866518761 -1.4885880053351741 0 0 0 0 -11.208974070679687 8.9686164199501945 0 8.9686164199501945 7.1590975260405685 0 0 0 0 -1.2387125637623342 -1.2679196305404616 0 -1.2679196305404616 -0.32810931270873311 0 0 0 0 100.56370893371059 -67.789781278482224 0 -67.789781278482224 -116.90041069201834 0 0 0 0 -154.61386773557024 -95.936368303802738 0 -95.936368303802738 -53.837818151569081 0 0 0 0 91.795534630760812 -83.40725667404422 0 -83.40725667404422 50.538181316172995 0 0 0 0 -60.832317140462692 -187.13008600006106 0 -187.13008600006106 -194.66654106117494 0 0 0 0 0.065154565822012955 -121.3151462734404 0 -121.3151462734404 -132.62497270633139 0 0 0 0 -73.666479596613499 -73.158558611754415 0 -73.158558611754415 -110.12972867265489 0 0 0 0 -21.13364519305469 -136.08630916360198 0 -136.08630916360198 96.015795701841853 0 0 0 0 -0.05941076707132855 -189.11466555192044 0 -189.11466555192044 -2.3223015036783181 0 0 0 0 83.976841622876236 -152.38273784246849 0 -152.38273784246849 0.80061933365504956 0 0 0 0 45.214651808899362 -219.87423635157029 0 -219.87423635157029 36.951966693210125 0 0 0 0 -26.472678998376068 -245.91131761261749 0 -245.91131761261749 -77.638225830763986 0 0 0 0 134.29326264864994 -178.10155749812589 0 -178.10155749812589 -197.94561359749059 0 0 0 0 131.12124915452478 -151.44207161057261 0 -151.44207161057261 -77.755621418968076 0 0 0 0 149.76964434337424 -144.76908616195942 0 -144.76908616195942 -82.546191630797694 0 0 0 0 173.52119559672428 -160.26999601388889 0 -160.26999601388889 -89.992675174231408 0 0 0 0 128.47394966089632 -179.2777451535112 0 -179.2777451535112 -78.447871647746979 0 0 0 0 136.22024254449934 -159.468577039298 0 -159.468577039298 23.878168794457451 0 0 0 0 124.0197085049731 -148.89811519132127 0 -148.89811519132127 25.798177956457948 0 0 0 0 67.018958093263791 -136.43947293398014 0 -136.43947293398014 176.95537184116347 0 0 0 0 46.909253151663506 -133.24205619188069 0 -133.24205619188069 94.833543033972092 0 0 0 0 47.349914180282212 -145.07611012132111 0 -145.07611012132111 200.14534017417145 0 0 0 0 42.751498614205047 -109.28688762939782 0 -109.28688762939782 42.604651207751886 0 0 0 0 18.94618194695795 -83.825181611926382 0 -83.825181611926382 54.156215776703903 0 0 0 0 112.06211505892861 -108.11065956533639 0 -108.11065956533639 -33.054570502034039 0 0 0 0 115.80502876206447 -98.410497743676387 0 -98.410497743676387 -75.69063139201171 0 0 0 0 206.88186400891573 -131.02683531255752 0 -131.02683531255752 -99.096846904289123 0 0 0 0 134.35175724444707 -46.00165185719743 0 -46.00165185719743 -180.4329534446224 0 0 0 0 63.886771479024901 -56.02755549698486 0 -56.02755549698486 -88.899010800429096 0 0 0 0 69.096411161248398 -87.41684964156957 0 -87.41684964156957 -106.61017252679449 0 0 0 0 121.61776106349862 -97.858139911402759 0 -97.858139911402759 -174.57814284286724 0 0 0 0 115.13784599981409 -48.970883827480066 0 -48.970883827480066 -352.54084912860708 0 0 0 0 351.77018200597377 -547.74186992165778 0 -547.74186992165778 531.94149191473844 0 0 0 0 208.1175983355788 30.240631546712393 0 30.240631546712393 -690.17540929657844 0 0 0 0 -8.2458821512409486 69.230070966339554 0 69.230070966339554 -432.43126212038624 0 0 0 0 1.709859575758685 -1.9540861684218314 0 -1.9540861684218314 2.8646716406498225 0 0 0 0 395.56472099391249 -201.35352315979617 0 -201.35352315979617 -434.29535166297137 0 0 0 0 238.19433788767492 -329.4937266548668 0 -329.4937266548668 101.12154772263602 0 0 0 0 145.63067755979137 -167.37722897454296 0 -167.37722897454296 -91.803330490274675 0 0 0 0 148.56038800514943 -157.29973900200639 0 -157.29973900200639 -75.889504246548313 0 0 0 0 26.627946923326817 -80.732968156120478 0 -80.732968156120478 55.004205249057122 0 0 0 0 50.995174894400407 -158.29971694142296 0 -158.29971694142296 178.05512082910354 0 0 0 0 26.437215876685514 -47.229095062135457 0 -47.229095062135457 84.626355793319817 0 0 0 0 -77.915177295682952 8.5493072809185833 0 8.5493072809185833 119.48782492581086 0 0 0 0 -65.914451704869862 -21.076177800874575 0 -21.076177800874575 166.71726456008037 0 0 0 0 54.791698983193783 -150.50732624512966 0 -150.50732624512966 193.35353394976119 0 0 0 0 -4.1035793889896013 -43.916115879001154 0 -43.916115879001154 113.25171007928293 0 0 0 0 21.416019443888217 -29.061508832211985 0 -29.061508832211985 19.035302490447066 0 0 0 0 8.1559903916058829 -3.8006671946459392 0 -3.8006671946459392 -8.7813934222431271 0 0 0 0 -22.900344513713208 0.79235244915253134 0 0.79235244915253134 6.9208660013828194 0 0 0 0 2.0182092062750598 -16.624506100037252 0 -16.624506100037252 3.4064640095866707 0 0 0 0 -26.494451752747409 118.27325122811453 0 118.27325122811453 125.69481611717674 0 0 0 0 91.412826826694072 -58.797256871403079 0 -58.797256871403079 90.044973725895034 0 0 0 0 3.8196038017491958 -3.2685103080923597 0 -3.2685103080923597 0.80860620766823388 0 0 0 0 42.294773454676033 2.0143778244018904 0 2.0143778244018904 257.94788976945347 0 0 0 0 369.74168626591927 -287.89697817320575 0 -287.89697817320575 195.01989284462979 0 0 0 0 99.17998244606747 -275.93526921111084 0 -275.93526921111084 595.50160312884691 0 0 0 0 400.83119372090732 -566.87938306393335 0 -566.87938306393335 519.93168535626319 0 0 0 0 312.73479861994565 -558.53144965212778 0 -558.53144965212778 535.6805299878979 0 0 0 0 -74.606970390565721 -130.04044236025481 0 -130.04044236025481 305.83086636763619 0 0 0 0 291.33344346209196 -278.10979907784713 0 -278.10979907784713 228.31489505953505 0 0 0 0 -7.3584574581357742 0.24707125185159029 0 0.24707125185159029 7.1510489384390468 0 0 0 0 85.277678235419444 -178.07221558319361 0 -178.07221558319361 478.16677184723085 0 0 0 0 58.099854540225351 -143.18303551564168 0 -143.18303551564168 805.74782658695767 0 0 0 0 174.82661227113567 -501.93661666985281 0 -501.93661666985281 549.24551658719429 0 0 0 0 177.08621074756957 -84.881640320087172 0 -84.881640320087172 804.56883057849336 0 0 0 0 669.6123334694712 -335.16823745676083 0 -335.16823745676083 599.6955262250849 0 0 0 0 194.30854189692036 -384.99750091424721 0 -384.99750091424721 544.05377799479174 0 0 0 0 138.55690327848424 -273.51359469210729 0 -273.51359469210729 413.1786613891818 0 0 0 0 139.52078323364549 -288.08673936422201 0 -288.08673936422201 330.19980487582507 0 0 0 0 90.176529079064494 -281.25004488234117 0 -281.25004488234117 438.87999151356416 0 0 0 0 21.974780531418219 -23.563506312839309 0 -23.563506312839309 7.2184072144773381 0 0 0 0 -3.2501416277882527 -18.853980494097414 0 -18.853980494097414 45.415924827691924 0 0 0 0 11.180545798055334 -6.3642838442041239 0 -6.3642838442041239 -0.86051864415851753 0 0 0 0 62.6406543917401 -49.729395775124431 0 -49.729395775124431 -371.1821394297167 0 0 0 0 56.128086106007686 5.9040588640000351 0 5.9040588640000351 -344.38818451042243 0 0 0 0 38.477662274468457 -54.596692966755654 0 -54.596692966755654 -239.81867993929336 0 0 0 0 28.284466757904738 -61.136939180083573 0 -61.136939180083573 -239.27846881932783 0 0 0 0 -5.8819143213477219 -29.64789081026538 0 -29.64789081026538 -178.8186986504661 0 0 0 0 17.553383003512863 -70.760786354374432 0 -70.760786354374432 -217.63325548340072 0 0 0 0 12.905028496432351 -75.225815631121804 0 -75.225815631121804 -170.16078001799178 0 0 0 0 -9.9901416639768286 -83.380186497452087 0 -83.380186497452087 -145.18445627491747 0 0 0 0 2.9872003758791834 -95.659671183588216 0 -95.659671183588216 -204.91432555433857 0 0 0 0 1.2596110763915931 -71.294007498452629 0 -71.294007498452629 -223.26165296731051 0 0 0 0 -14.643798673438141 -101.37852270044095 0 -101.37852270044095 -259.37678897057776 0 0 0 0 -10.614398337056627 -71.858703157035052 0 -71.858703157035052 -287.08550583827309 0 0 0 0 17.474036109459121 -75.765745894241263 0 -75.765745894241263 -259.53553120922879 0 0 0 0 11.018674570252188 -97.51389115033453 0 -97.51389115033453 -243.98351495267707 0 0 0 0 4.5687324437312782 -96.836950593009533 0 -96.836950593009533 -346.68353287362334 0 0 0 0 39.977975344634615 -60.767849606472737 0 -60.767849606472737 -335.13613732472004 0 0 0 0 18.169412640811061 -80.693955473419919 0 -80.693955473419919 -320.89474362324108 0 0 0 0 -5.1855411962606013 -99.693430313607678 0 -99.693430313607678 -333.94830834209279 0 0 0 0 -167.20273956679739 -42.463238709875441 0 -42.463238709875441 -331.69472516144742 0 0 0 0 -143.410713047022 -65.321833892638097 0 -65.321833892638097 -315.20984770124778 0 0 0 0 -71.066096756723709 -88.69857187368325 0 -88.69857187368325 -335.78290774562629 0 0 0 0 -60.204190405231202 -61.439338175361627 0 -61.439338175361627 -300.83346048399108 0 0 0 0 -47.028402487165295 -98.745917554391781 0 -98.745917554391781 -303.88146127172513 0 0 0 0 -50.838247507752385 -75.699654150899732 0 -75.699654150899732 -305.54929019152769 0 0 0 0 -50.233600498817395 -59.439119444883545 0 -59.439119444883545 -322.1955369807547 0 0 0 0 -89.084616604843177 107.44018334915745 0 107.44018334915745 -400.12393502923078 0 0 0 0 -16.819725705863675 -19.399168077492504 0 -19.399168077492504 -341.47578477202114 0 0 0 0 -116.3385964362169 37.225846651130269 0 37.225846651130269 -352.21370960978675 0 0 0 0 -212.34127422508027 25.284469857608201 0 25.284469857608201 -327.9242428089201 0 0 0 0 -2.5886063924408518 -47.309107750283147 0 -47.309107750283147 -287.51404498645388 0 0 0 0 -69.984883674245793 -24.437812689022394 0 -24.437812689022394 -283.75404007500038 0 0 0 0 -25.18574265181087 -93.518052683612041 0 -93.518052683612041 -216.43611965530727 0 0 0 0 -20.035413208417594 -64.140947915890138 0 -64.140947915890138 -276.56128027530212 0 0 0 0 -60.241835177235771 -77.328018581014476 0 -77.328018581014476 -280.65931766283757 0 0 0 0 -5.851964661560487 -58.854153713182313 0 -58.854153713182313 -189.46673493918934 0 0 0 0 -12.726249118975829 -65.730202462254965 0 -65.730202462254965 -184.33865673014952 0 0 0 0 30.046827351063257 -34.508918582250772 0 -34.508918582250772 -177.59159304057903 0 0 0 0 4.9754369801812572 -96.257234450109536 0 -96.257234450109536 -132.18049579070066 0 0 0 0 5.2897059302340494 -57.088531658962893 0 -57.088531658962893 -95.755622781201964 0 0 0 0 -6.7568852252734359 -78.184547210279561 0 -78.184547210279561 -91.421137716431986 0 0 0 0 10.261608273111051 -68.617750313780562 0 -68.617750313780562 -141.14085002045249 0 0 0 0 0.97598147789540235 -93.288206682504097 0 -93.288206682504097 -89.328303824360773 0 0 0 0 3.1320380666002166 -78.180483609725343 0 -78.180483609725343 -91.535922581198975 0 0 0 0 -3.8984313121909508 -88.622766366581345 0 -88.622766366581345 22.828251428538351 0 0 0 0 2.8895514345203992 -70.527291517144477 0 -70.527291517144477 -36.647454037728494 0 0 0 0 -11.653065850237908 -72.131771619860956 0 -72.131771619860956 -36.456204374961089 0 0 0 0 -8.8306263224803843 -94.26372704590176 0 -94.26372704590176 23.10313323297305 0 0 0 0 20.793627914928948 -93.958488455524275 0 -93.958488455524275 -39.468510938022519 0 0 0 0 19.183966371027054 -65.832524753561302 0 -65.832524753561302 -19.26906685691938 0 0 0 0 23.440073754798505 -105.70622417252162 0 -105.70622417252162 64.556533275273978 0 0 0 0 4.5707413047493901 -71.247508132553776 0 -71.247508132553776 30.844020015214483 0 0 0 0 -6.4793484804104082 -90.489237098066951 0 -90.489237098066951 75.375589975024923 0 0 0 0 -10.055420934877475 -92.75969742219786 0 -92.75969742219786 75.518310933170142 0 0 0 0 -11.681107082338713 -98.673277143105224 0 -98.673277143105224 115.12110089787166 0 0 0 0 -18.16847084370238 -92.935681794753236 0 -92.935681794753236 116.43980530764384 0 0 0 0 50.829949095423217 -60.326657866076857 0 -60.326657866076857 118.94095802078664 0 0 0 0 16.374231480069284 -98.338846144946729 0 -98.338846144946729 77.701038705155952 0 0 0 0 -17.064593275308653 -99.096657537584178 0 -99.096657537584178 133.35130829796253 0 0 0 0 -10.778031840949552 -74.259158850727545 0 -74.259158850727545 117.37630441697183 0 0 0 0 -14.994070794913569 -97.731633593888546 0 -97.731633593888546 77.722631744799401 0 0 0 0 2.6652112079900689 -77.807218644931709 0 -77.807218644931709 26.502606610687508 0 0 0 0 36.344047870457871 -91.749263105473801 0 -91.749263105473801 27.740537792684336 0 0 0 0 -17.059596331018838 -94.860666338852752 0 -94.860666338852752 27.971449952077819 0 0 0 0 6.1139857609960018 -59.012981915340788 0 -59.012981915340788 -15.808345479090349 0 0 0 0 9.728153496995219 -96.966283104171453 0 -96.966283104171453 -31.828512518914067 0 0 0 0 1.0486990012577735 -66.38270715206454 0 -66.38270715206454 -31.230838215778931 0 0 0 0 -15.616443406557664 -81.969106380842277 0 -81.969106380842277 -36.350358422139834 0 0 0 0 -0.34244016573939007 -71.732816394629481 0 -71.732816394629481 -92.54839257907588 0 0 0 0 -18.983522520953557 -73.579226327077777 0 -73.579226327077777 -36.808655737699155 0 0 0 0 -10.115031403911416 -67.134996658212913 0 -67.134996658212913 -91.091776637680596 0 0 0 0 5.5321689492848236 -62.313832106832706 0 -62.313832106832706 -164.89484467696457 0 0 0 0 6.4551736625289777 -90.251601334262887 0 -90.251601334262887 -86.993662753542594 0 0 0 0 -27.823158675855666 -54.058201942936648 0 -54.058201942936648 -87.758343087480171 0 0 0 0 5.7959064108435996 -91.684046509657492 0 -91.684046509657492 -74.584460690355627 0 0 0 0 67.192800592249114 -66.499407786754091 0 -66.499407786754091 -70.68864917261817 0 0 0 0 8.7737157376068353 -54.192726209515968 0 -54.192726209515968 61.605100296117598 0 0 0 0 30.482463154141442 -74.429646001615765 0 -74.429646001615765 -78.916861160974804 0 0 0 0 35.163931806810979 -150.42428472705205 0 -150.42428472705205 109.55331449738151 0 0 0 0 34.820991957325532 -116.28212093407592 0 -116.28212093407592 150.69461303121352 0 0 0 0 -27.559083527403828 -19.629266267414486 0 -19.629266267414486 -9.892280995575689 0 0 0 0 -16.887061940757121 -122.90299005649013 0 -122.90299005649013 116.20075162945795 0 0 0 0 37.560545127085788 -58.584945119840995 0 -58.584945119840995 20.550771888498275 0 0 0 0 40.662359047606515 -149.52952368017077 0 -149.52952368017077 53.10902248034472 0 0 0 0 -32.426845490383386 -21.780795303095452 0 -21.780795303095452 -13.653317669400593 0 0 0 0 -33.320650976333127 -4.9589628171834192 0 -4.9589628171834192 7.4496667489038373 0 0 0 0 7.3775799035893215 -6.2913726904797329 0 -6.2913726904797329 -0.10706936955348656 0 0 0 0 56.11843357176258 -17.853121768608617 0 -17.853121768608617 -191.38764990673008 0 0 0 0 -55.856123705940263 16.807493833803164 0 16.807493833803164 -165.61998977443727 0 0 0 0 4.7721769972558832 -85.451103279028757 0 -85.451103279028757 -76.290127101130565 0 0 0 0 15.720419457127718 7.0345785475983575 0 7.0345785475983575 -3.0818924206105294 0 0 0 0 24.556923470525362 2.8649526331137167 0 2.8649526331137167 -14.430480028509919 0 0 0 0 19.501519371711765 -9.3797201634788507 0 -9.3797201634788507 3.3796097790909698 0 0 0 0 -18.836074067628942 23.812302679025379 0 23.812302679025379 21.22186767225503 0 0 0 0 39.520316705755249 2.645520031021988 0 2.645520031021988 -33.432631656847661 0 0 0 0 5.3107309452971094 -69.773167554871179 0 -69.773167554871179 107.40779592947911 0 0 0 0 11.857549055363052 -99.944794709452253 0 -99.944794709452253 -38.098955230933825 0 0 0 0 27.4895425775685 -54.138886724724216 0 -54.138886724724216 47.589925444112964 0 0 0 0 -6.8813790985448549 0.24136462396221958 0 0.24136462396221958 5.2361869113108952 0 0 0 0 52.922450763588131 -32.537328289618017 0 -32.537328289618017 12.870821334680841 0 0 0 0 169.02442142473592 -249.97313443323765 0 -249.97313443323765 511.65102404592108 0 0 0 0 182.81970234810433 -519.412226532766 0 -519.412226532766 968.14126977753403 0 0 0 0 162.09802264204336 35.990074961218852 0 35.990074961218852 -338.23012273162385 0 0 0 0 1.5990057470869488 -0.20301219216949562 0 -0.20301219216949562 0.39175163986376305 0 0 0 0 -0.785502104270563 70.667449351817595 0 70.667449351817595 -101.69124162026856 0 0 0 0 -8.2211517670948524 -2.1722855876105314 0 -2.1722855876105314 -149.1856891906973 0 0 0 0 -47.697989885251445 -73.864176879472325 0 -73.864176879472325 -48.089458934642607 0 0 0 0 -5.291303902817603 -0.40644353975317138 0 -0.40644353975317138 3.869485688236459 0 0 0 0 343.6904402813816 -224.63463137274266 0 -224.63463137274266 -187.6856732860906 0 0 0 0 290.17883898917353 -144.87318258576124 0 -144.87318258576124 -284.60462469606682 0 0 0 0 545.68901125782577 -441.69891563281271 0 -441.69891563281271 514.47737168855383 0 0 0 0 199.9528801060369 -372.97902974354292 0 -372.97902974354292 513.56768000032753 0 0 0 0 383.49943921119848 -388.63799393275258 0 -388.63799393275258 108.01252902678243 0 0 0 0 208.2371089652006 -171.4042178959462 0 -171.4042178959462 62.376350082930003 0 0 0 0 173.53234290765249 -172.28344590999041 0 -172.28344590999041 23.782456480897963 0 0 0 0 113.65564405671466 -66.361964811778307 0 -66.361964811778307 19.384559088568494 0 0 0 0 188.98702775243146 -163.48978132796765 0 -163.48978132796765 110.25551828028983 0 0 0 0 98.276329941101721 -77.863989963097993 0 -77.863989963097993 96.978312209707838 0 0 0 0 231.9176847268136 -257.73975706574583 0 -257.73975706574583 191.53716427584004 0 0 0 0 60.076223161885082 -104.41063751504103 0 -104.41063751504103 230.28395037002338 0 0 0 0 173.57601527042789 -169.18437097416336 0 -169.18437097416336 169.87707612746453 0 0 0 0 79.369149503450899 -82.790335746618439 0 -82.790335746618439 123.04552636504377 0 0 0 0 58.097405322927784 -23.659691208480012 0 -23.659691208480012 108.87632410041988 0 0 0 0 23.239430845744209 -31.106662368671095 0 -31.106662368671095 119.49442435250558 0 0 0 0 -8.375718184375728 0.77579871843954606 0 0.77579871843954606 93.10175003123004 0 0 0 0 10.060099690410425 -58.028844698470493 0 -58.028844698470493 69.352064999251525 0 0 0 0 -14.257045746322547 -32.711451041595865 0 -32.711451041595865 43.331759073451394 0 0 0 0 38.608900204599195 -28.584589528774814 0 -28.584589528774814 70.021102983802848 0 0 0 0 62.386154526626342 -96.600512236884242 0 -96.600512236884242 58.447481395954128 0 0 0 0 20.996283026623132 -37.693733831736608 0 -37.693733831736608 -25.043553412891924 0 0 0 0 48.563345144160849 -81.443927233853174 0 -81.443927233853174 -47.569702283013612 0 0 0 0 83.040393474162556 -44.424899159403139 0 -44.424899159403139 -142.15648999641053 0 0 0 0 -12.679251275985735 -77.231464332502583 0 -77.231464332502583 18.65325328509789 0 0 0 0 -12.078724158738623 -50.91175013938846 0 -50.91175013938846 -38.948659409472384 0 0 0 0 -22.724121609935537 -71.708996608147572 0 -71.708996608147572 -20.834592274703027 0 0 0 0 -6.6700208097608993 -45.520708373293019 0 -45.520708373293019 -55.331693309522961 0 0 0 0 -17.444523616955848 -43.372000034225493 0 -43.372000034225493 -23.64371972085064 0 0 0 0 -8.6446650246944046 -46.500277361225017 0 -46.500277361225017 -28.630525816162844 0 0 0 0 -20.825477304955712 -56.929774895546871 0 -56.929774895546871 -2.8299959444157139 0 0 0 0 -31.167597111321811 -47.870004518519636 0 -47.870004518519636 19.046043089667364 0 0 0 0 -23.650360032028402 -54.368028234224766 0 -54.368028234224766 26.357449667848414 0 0 0 0 -18.545473038795535 -45.618419897712556 0 -45.618419897712556 7.5610236106585944 0 0 0 0 -20.380385123971791 -23.116525378229198 0 -23.116525378229198 52.144620358736574 0 0 0 0 -12.930723561534251 -15.888886906414882 0 -15.888886906414882 38.74542766583545 0 0 0 0 -14.890363852437076 -40.592904455563939 0 -40.592904455563939 13.93923947908479 0 0 0 0 -71.626773942247382 -11.766050382899266 0 -11.766050382899266 19.201988127499135 0 0 0 0 -50.272219806203793 -43.743461937339816 0 -43.743461937339816 27.695457228155647 0 0 0 0 -1.2802986739623918 -0.87823855736537837 0 -0.87823855736537837 0.28574378863255845 0 0 0 0 -23.739399759888329 -17.549557517120775 0 -17.549557517120775 8.4695615465170704 0 0 0 0 -36.004518200265011 -38.606456520776192 0 -38.606456520776192 1.3408873667867738 0 0 0 0 -6.0541971997590736 -27.089663963284693 0 -27.089663963284693 -22.760589363024337 0 0 0 0 -16.820451974789648 -38.825690534674095 0 -38.825690534674095 0.32310245529515669 0 0 0 0 -6.7580319056210101 -18.196516691577813 0 -18.196516691577813 -6.0432933492120355 0 0 0 0 6.9082215048183571 -11.705673966638642 0 -11.705673966638642 -4.1567032741659204 0 0 0 0 -0.65710002848936711 -10.955561323022266 0 -10.955561323022266 -5.3299801687535364 0 0 0 0 7.3207525469770189 -10.667982512448361 0 -10.667982512448361 -12.2924373943315 0 0 0 0 2.3969352945568971 -8.0214637510944158 0 -8.0214637510944158 7.9352898061697488 0 0 0 0 -6.0898780282004736 4.3526516161728068 0 4.3526516161728068 -0.72925193265837152 0 0 0 0 -2.4109408981234992 6.5525776074291571 0 6.5525776074291571 -41.607278530100302 0 0 0 0 -2.4362826704600593 7.0071151199372252 0 7.0071151199372252 -14.590834303875454 0 0 0 0 0.3397845159197459 -10.304093448237836 0 -10.304093448237836 -31.107564638368785 0 0 0 0 -0.57359426093171351 -20.842630194390949 0 -20.842630194390949 -18.553248466585501 0 0 0 0 12.554270625609206 -14.071020740964741 0 -14.071020740964741 -109.02129866036557 0 0 0 0 5.032902284463205 -1.2931848621902482 0 -1.2931848621902482 -0.70240655637810434 0 0 0 0 -0.77888117651690436 0.91901554574993582 0 0.91901554574993582 0.57084415797828569 0 0 0 0 -61.110252964788742 -85.203733388503906 0 -85.203733388503906 24.983175468674744 0 0 0 0 -1.5669145881547593 -29.555677844064121 0 -29.555677844064121 -61.792179920703347 0 0 0 0 22.051493799925083 32.325613978544425 0 32.325613978544425 56.303174851382209 0 0 0 0 -2.7259811597323278 -63.018612922773173 0 -63.018612922773173 -112.46594985452975 0 0 0 0 -2.666736210725503 -41.344247846274811 0 -41.344247846274811 -52.054420260690677 0 0 0 0 6.1132328142848564 -4.9728282469186524 0 -4.9728282469186524 -91.340504508436425 0 0 0 0 212.2872324395139 -376.87308146300711 0 -376.87308146300711 491.92342254088726 0 0 0 0 175.12180466276186 -283.04670242823704 0 -283.04670242823704 412.39367675386166 0 0 0 0 51.482613238447811 -280.77731353255513 0 -280.77731353255513 418.62237497474416 0 0 0 0 231.59449268456228 -347.90588686272713 0 -347.90588686272713 365.85111226529261 0 0 0 0 158.29764340304246 -262.43231323687723 0 -262.43231323687723 362.571277466428 0 0 0 0 89.518398757267278 -305.41449873356032 0 -305.41449873356032 382.49503351966268 0 0 0 0 5.8548826895559785 -1.8449366427511187 0 -1.8449366427511187 -0.41168523069622864 0 0 0 0 0.93979132980305735 -0.71268899277520603 0 -0.71268899277520603 2.8239587091367788 0 0 0 0 298.09795682839467 -129.91485293571532 0 -129.91485293571532 5.8598725997144356 0 0 0 0 165.6854277700113 17.423724317507549 0 17.423724317507549 -15.320452316187584 0 0 0 0 9.4687078269080303 -58.496235606805726 0 -58.496235606805726 40.604841565349489 0 0 0 0 24.553792154736584 -182.30230866985221 0 -182.30230866985221 300.26907097097137 0 0 0 0 67.153340203352855 -250.07960917777382 0 -250.07960917777382 363.98752361850347 0 0 0 0 298.54148590168916 -291.10373638741294 0 -291.10373638741294 263.67148950316187 0 0 0 0 114.60543305566171 -118.03519982445141 0 -118.03519982445141 124.0473306242784 0 0 0 0 -103.25163057952886 -101.23584413330536 0 -101.23584413330536 339.00870397299877 0 0 0 0 -68.352408333914354 -204.08047284360509 0 -204.08047284360509 384.71402757128817 0 0 0 0 5.1438069562791497 -7.2323919607224525 0 -7.2323919607224525 1.5330538803100353 0 0 0 0 312.15510713119511 -178.45505509908094 0 -178.45505509908094 42.464440643438138 0 0 0 0 63.558067070149264 106.88169345454571 0 106.88169345454571 -53.49868269613944 0 0 0 0 47.694796860123461 89.569756489192514 0 89.569756489192514 -69.423929383025097 0 0 0 0 5.2689705146764823 -5.2169935612782048 0 -5.2169935612782048 -0.023987069516337556 0 0 0 0 1.8329012875007251 -2.4930179479102463 0 -2.4930179479102463 -1.699304367702652 0 0 0 0 -133.73471448740747 -2.232015036206576 0 -2.232015036206576 -9.5271589221592876 0 0 0 0 3.4997897587018088 -6.4181624063494382 0 -6.4181624063494382 1.95902151453447 0 0 0 0 -5.2099842384341173 -10.009704085838166 0 -10.009704085838166 1.3908048787270673 0 0 0 0 2.5149458455816784 -9.011201015374354 0 -9.011201015374354 2.9014058438115171 0 0 0 0 3.540099148376612 -4.6539357294313959 0 -4.6539357294313959 -0.64748328094719909 0 0 0 0 1.2176267152282492 -3.2792513552637139 0 -3.2792513552637139 -1.0902487436664501 0 0 0 0 4.2052959929278586 -6.0193505380520946 0 -6.0193505380520946 -0.18420645938749658 0 0 0 0 -1.4239840060579354 -4.5744423867873394 0 -4.5744423867873394 1.3792857609818441 0 0 0 0 0.010106216976140558 0.054911549897227019 0 0.054911549897227019 -0.45182743938801195 0 0 0 0 5.1488648618105799 -7.1885681658168323 0 -7.1885681658168323 -2.0202706658164971 0 0 0 0 1.353184679259499 -2.9517611978212628 0 -2.9517611978212628 -1.4008227590064735 0 0 0 0 5.40487636034959 -6.2834185665851692 0 -6.2834185665851692 0.70878863329926389 0 0 0 0 1.1735789848614857 -5.8630030982082388 0 -5.8630030982082388 1.454160569590357 0 0 0 0 4.448297382257806 -9.1458259275436831 0 -9.1458259275436831 2.8578991614340339 0 0 0 0 3.6046531094802532 -5.4361760144565352 0 -5.4361760144565352 1.6441070226836132 0 0 0 0 -0.29926368301676121 -7.1645028468255987 0 -7.1645028468255987 2.5285840230280883 0 0 0 0 1.0115365057869994 -5.8326866699490267 0 -5.8326866699490267 2.6065751955486718 0 0 0 0 6.3246842002263293 -10.079645496265584 0 -10.079645496265584 3.1496836555361369 0 0 0 0 12.666451188702922 -2.0956976258412396 0 -2.0956976258412396 1.5761710937404132 0 0 0 0 5.116014126181625 -6.2996202206204828 0 -6.2996202206204828 1.6763881048068328 0 0 0 0 9.6503049200764508 -16.092399574619776 0 -16.092399574619776 -4.0490654212917434 0 0 0 0 -0.11423279215647142 -2.4706731440808696 0 -2.4706731440808696 -0.30706042097098418 0 0 0 0 11.256297245549831 12.868278796207619 0 12.868278796207619 -6.8203300311579369 0 0 0 0 47.328082126725349 -18.803831499886655 0 -18.803831499886655 -9.5593567064915987 0 0 0 0 15.015112252863673 -15.403072942552171 0 -15.403072942552171 -4.5604228373777005 0 0 0 0 3.2347818658709002 -10.282686294557607 0 -10.282686294557607 11.21033887381418 0 0 0 0 5.0875559963387786 -16.868621660360077 0 -16.868621660360077 5.5643048110869131 0 0 0 0 11.513618831573694 -16.782371901841543 0 -16.782371901841543 -22.402817866030091 0 0 0 0 -8.615602430945728 -6.5403956517693587 0 -6.5403956517693587 16.210419284856471 0 0 0 0 1.3037996301106034 -3.1243375265791151 0 -3.1243375265791151 1.4712650974360457 0 0 0 0 5.5376929449969339 -9.926774298104263 0 -9.926774298104263 4.3094877459260346 0 0 0 0 2.9529471833855325 -5.6325960468127363 0 -5.6325960468127363 3.2159483829760518 0 0 0 0 5.6032120659328939 -10.74730001916123 0 -10.74730001916123 1.9888767942102277 0 0 0 0 12.529702780637308 -6.986767454335677 0 -6.986767454335677 -2.2232395240062033 0 0 0 0 -2.2684697670047171 -6.0749846746402909 0 -6.0749846746402909 2.1522669826226775 0 0 0 0 4.5901478429288503 -5.9921249312070728 0 -5.9921249312070728 1.8292112328008727 0 0 0 0 8.0092491064060596 -9.4450786180914292 0 -9.4450786180914292 0.53070519351240364 0 0 0 0 2.2950727460265625 -7.306273738928212 0 -7.306273738928212 1.6624281632211932 0 0 0 0 -0.13160999130195705 -14.82841262373222 0 -14.82841262373222 12.08119237545634 0 0 0 0 0.58861200566067851 -1.4743885638442009 0 -1.4743885638442009 2.2697436251916834 0 0 0 0 9.6960579761689587 -5.9556952705979711 0 -5.9556952705979711 7.7460247853159672 0 0 0 0 4.1140893013014121 -5.951389861530302 0 -5.951389861530302 0.30693176423692137 0 0 0 0 2.4610421789349459 -5.5195911924914753 0 -5.5195911924914753 2.4621003392102239 0 0 0 0 -0.015750705140817445 -19.047955421290681 0 -19.047955421290681 25.293003939744722 0 0 0 0 7.0571564931342436 -8.731202008469154 0 -8.731202008469154 -10.24214196009234 0 0 0 0 -0.76764970599811022 1.5510521539768582 0 1.5510521539768582 0.82767617807889948 0 0 0 0 3.4916184952890035 -6.091815140167455 0 -6.091815140167455 -17.773139851516135 0 0 0 0 -0.079964261469285702 -10.380564978239818 0 -10.380564978239818 5.0538248077573371 0 0 0 0 -0.00062210265969042666 -13.1109031355154 0 -13.1109031355154 -2.5038129697495606 0 0 0 0 5.2422217543571605 -11.472343611372708 0 -11.472343611372708 -3.0749821799945494 0 0 0 0 5.7475977267240523 -8.5815499060863658 0 -8.5815499060863658 2.5711968675477692 0 0 0 0 2.4487384516978636 -10.418156897076187 0 -10.418156897076187 8.2862874774455122 0 0 0 0 3.4763917705004133 -8.9845799841009466 0 -8.9845799841009466 5.2974260329610843 0 0 0 0 -423.14667496776019 41.682173829580279 0 41.682173829580279 107.53225453641426 0 0 0 0 -95.618946606577083 -154.14995474283205 0 -154.14995474283205 146.41825360597795 0 0 0 0 -90.260077411919156 20.270377542620167 0 20.270377542620167 -124.2271632047341 0 0 0 0 -143.16930093691917 2.7991601343455841 0 2.7991601343455841 11.483035294822912 0 0 0 0 224.22336898071444 -126.43747665646697 0 -126.43747665646697 25.623039915742993 0 0 0 0 -65.131390930873749 -171.66657138709343 0 -171.66657138709343 288.71652998315403 0 0 0 0 -1.4665057775748096 -3.0778829393440219 0 -3.0778829393440219 0.51095255495176417 0 0 0 0 145.17378380478476 -110.35500235439758 0 -110.35500235439758 262.82531026990182 0 0 0 0 16.960692691136501 -4.829213683551643 0 -4.829213683551643 -2.4413278862193692 0 0 0 0 63.638833323001336 -114.23198337802262 0 -114.23198337802262 25.048172707145568 0 0 0 0 -12.448566367631429 -15.410779874753644 0 -15.410779874753644 1.268802486883942 0 0 0 0 -12.757750464522275 -13.723068024685574 0 -13.723068024685574 -4.8837922827006679 0 0 0 0 -35.881014918541041 -11.413855972004058 0 -11.413855972004058 -7.9222747056555818 0 0 0 0 -12.60872020689078 -10.269324198850434 0 -10.269324198850434 -6.4905824145535149 0 0 0 0 -44.126656190834183 -110.2615133969739 0 -110.2615133969739 149.25718477120245 0 0 0 0 -16.212513763526061 -11.215953545499104 0 -11.215953545499104 -5.4576321463199804 0 0 0 0 62.486468431689445 -103.58557733642806 0 -103.58557733642806 128.35649125932105 0 0 0 0 3.148859247645305 -164.59964893530196 0 -164.59964893530196 135.77020593589987 0 0 0 0 -6.9235716992043308 -31.009246219568013 0 -31.009246219568013 310.57685175191727 0 0 0 0 -1.4208070268762754 -3.6751585421216504 0 -3.6751585421216504 -1.3176305538052162 0 0 0 0 128.73394642951826 -63.514692012862724 0 -63.514692012862724 -0.69327882024663268 0 0 0 0 -235.83567683104775 -128.24534952932299 0 -128.24534952932299 276.83416739729364 0 0 0 0 -353.71431253401533 -70.27415374881457 0 -70.27415374881457 325.2156904898784 0 0 0 0 75.805482128009317 62.19825414463412 0 62.19825414463412 -261.89982801459701 0 0 0 0 107.70480652030164 -95.948271760251373 0 -95.948271760251373 19.705821675222978 0 0 0 0 -354.16532196076616 6.3970973394904433 0 6.3970973394904433 210.9229411038832 0 0 0 0 -9.8926884055620334 -14.476960272898841 0 -14.476960272898841 -16.709119957297148 0 0 0 0 106.59947198556983 -121.61602816290178 0 -121.61602816290178 73.071978664804192 0 0 0 0 174.09771188212835 -147.31778506395494 0 -147.31778506395494 22.870164621916047 0 0 0 0 -397.95366990578259 304.16183114494925 0 304.16183114494925 -62.901976185696185 0 0 0 0 228.31835020357903 -107.01024182318724 0 -107.01024182318724 6.5436976058681466 0 0 0 0 -5.4792495448363212 -7.0771972385384565 0 -7.0771972385384565 -7.4839052349912691 0 0 0 0 127.02336246917548 -120.83342119715053 0 -120.83342119715053 32.347197493789281 0 0 0 0 52.449989950714723 -74.483223239776692 0 -74.483223239776692 27.079307910953503 0 0 0 0 135.42404019161404 -37.703470516204106 0 -37.703470516204106 23.422310271988636 0 0 0 0 -1.3824197790489734 -1.6779160481916406 0 -1.6779160481916406 -2.4484329756611487 0 0 0 0 -514.12335887719746 229.93763996942289 0 229.93763996942289 -5.4734678333079501 0 0 0 0 224.18481893786338 -114.9626995431272 0 -114.9626995431272 -24.844099556819856 0 0 0 0 -68.611758893039223 -4.1248794908860873 0 -4.1248794908860873 -155.98318960835604 0 0 0 0 -298.07656570207473 -110.3921591958333 0 -110.3921591958333 52.362937244804925 0 0 0 0 -2.4400100244274654 91.716081042239239 0 91.716081042239239 -18.707623670863541 0 0 0 0 32.539555166212267 -234.87122908814581 0 -234.87122908814581 143.27245405349822 0 0 0 0 85.157242760396912 -171.89946778411104 0 -171.89946778411104 212.07807450900145 0 0 0 0 -151.58637285055374 -130.11601067791162 0 -130.11601067791162 -102.23488397046594 0 0 0 0 -28.127522046175727 16.3714194869317 0 16.3714194869317 56.758165150840796 0 0 0 0 140.54227133422501 -144.16902237709201 0 -144.16902237709201 -10.415743237637798 0 0 0 0 -93.277930684744206 -94.87408037608111 0 -94.87408037608111 112.99777694346994 0 0 0 0 -118.33043429757163 -143.02490760028741 0 -143.02490760028741 34.627665241867362 0 0 0 0 -10.886330105720845 -11.954999668003438 0 -11.954999668003438 51.708665426485823 0 0 0 0 -27.94049056412041 -57.232004726251034 0 -57.232004726251034 -31.483241229316263 0 0 0 0 -145.21545482221154 86.900857872326469 0 86.900857872326469 -46.445854792633327 0 0 0 0 -0.24084744028525051 -1.1636119184480833 0 -1.1636119184480833 -1.4584885974077508 0 0 0 0 183.98944791353279 -197.90439447777317 0 -197.90439447777317 114.07528332776565 0 0 0 0 -29.207217304810911 10.962133448499117 0 10.962133448499117 28.722914149831922 0 0 0 0 -2.1323946488812098 0.055445607330305791 0 0.055445607330305791 2.7710019206594723 0 0 0 0 144.48696241557263 -250.39722967956368 0 -250.39722967956368 35.786293413260864 0 0 0 0 168.88561477864278 -231.32338451900432 0 -231.32338451900432 50.637784040663973 0 0 0 0 -6.5177471100905677 -33.330796421949344 0 -33.330796421949344 6.1286600217354135 0 0 0 0 -27.051223403948825 -65.685716501357092 0 -65.685716501357092 19.804793537099613 0 0 0 0 -205.44061862817034 -24.037511755519517 0 -24.037511755519517 19.89462196074237 0 0 0 0 -219.33214071734983 -126.04535199657403 0 -126.04535199657403 79.576995363666356 0 0 0 0 64.108491497958312 -87.498616308334022 0 -87.498616308334022 -5.7589810215222315 0 0 0 0 20.231790834477579 -8.4838041497423546 0 -8.4838041497423546 -46.008232665786636 0 0 0 0 41.924980947138465 -70.921486076191286 0 -70.921486076191286 -53.340627705048973 0 0 0 0 -59.221419437257282 -148.98420410549807 0 -148.98420410549807 58.474783820487573 0 0 0 0 -37.004910450083614 -23.56117616801626 0 -23.56117616801626 -11.903778362196476 0 0 0 0 -30.972478640661393 33.583514446880145 0 33.583514446880145 39.134543159030727 0 0 0 0 -0.64048238076793496 -31.667581714671542 0 -31.667581714671542 -44.85069199949794 0 0 0 0 -22.967089529833174 -13.886514792267917 0 -13.886514792267917 -8.3782328946108464 0 0 0 0 -4.2475912561795894 -2.8973665816840537 0 -2.8973665816840537 -5.76619510884926 0 0 0 0 -37.599169439956313 -28.611262379421532 0 -28.611262379421532 -4.1733442556833324 0 0 0 0 2.1057575910974151 -11.174954488822195 0 -11.174954488822195 -5.1466001090756794 0 0 0 0 -25.558062328171218 -56.547206122042553 0 -56.547206122042553 -55.882121621161787 0 0 0 0 -14.038055489923863 -12.270538600612781 0 -12.270538600612781 5.9831945841579 0 0 0 0 -60.244732234685216 -18.201584261129028 0 -18.201584261129028 3.3756189102714416 0 0 0 0 -30.784666903113248 -17.524549218709581 0 -17.524549218709581 -23.410596766523668 0 0 0 0 -25.624475386123436 -10.204668139950329 0 -10.204668139950329 2.1007282049608804 0 0 0 0 -29.678790905978531 -21.530719306410901 0 -21.530719306410901 -19.315479209610203 0 0 0 0 -23.616991067020564 -15.469720293599678 0 -15.469720293599678 4.3835200528861975 0 0 0 0 -9.3342923929958488 -9.402891782556253 0 -9.402891782556253 12.079440178727964 0 0 0 0 -19.116353233944118 -12.578350378661469 0 -12.578350378661469 3.5464234558679806 0 0 0 0 -14.604996111797021 -10.857410416002764 0 -10.857410416002764 0.58695325520518793 0 0 0 0 -6.1647137106590435 -1.0864953105767654 0 -1.0864953105767654 2.2502627320640443 0 0 0 0 -32.558606109156244 -2.4686441615194781 0 -2.4686441615194781 43.814127876088605 0 0 0 0 -28.363859168741328 19.052794856506807 0 19.052794856506807 16.035427157890808 0 0 0 0 -13.611916067253333 5.6768007025821134 0 5.6768007025821134 -19.343920840714418 0 0 0 0 -51.161912692012265 17.071962373782299 0 17.071962373782299 102.72506399529084 0 0 0 0 -0.42375789757565485 4.5020028482101679 0 4.5020028482101679 2.5398295336449026 0 0 0 0 -29.914013678637275 -39.710267299404222 0 -39.710267299404222 0.74693450692484475 0 0 0 0 -40.442222170924651 -48.279803631256073 0 -48.279803631256073 -35.029188348256866 0 0 0 0 -16.578892109901062 -15.168168609843633 0 -15.168168609843633 8.3106466534372885 0 0 0 0 -26.159748029946201 -15.744320980073132 0 -15.744320980073132 -6.1079696019197556 0 0 0 0 -6.1563163237358935 -16.369748280539525 0 -16.369748280539525 -8.5981637997168932 0 0 0 0 -27.977875936459412 -17.388466735725217 0 -17.388466735725217 -0.87423177636618288 0 0 0 0 -13.066780717490474 -12.639087290190218 0 -12.639087290190218 9.7725254865117677 0 0 0 0 -18.984859305231566 -14.041568723228806 0 -14.041568723228806 -0.8698312054499695 0 0 0 0 -19.366159000106563 -32.869135394048499 0 -32.869135394048499 -7.6086058782066175 0 0 0 0 -62.482960893932614 -31.541046492195164 0 -31.541046492195164 -4.7809950952869258 0 0 0 0 -38.406705855799373 -13.394124033242406 0 -13.394124033242406 -21.976309461329947 0 0 0 0 -32.39162263929029 -19.382029192340269 0 -19.382029192340269 -20.99895185148489 0 0 0 0 -34.708665458696487 -20.0070532957252 0 -20.0070532957252 -11.87010912229016 0 0 0 0 -13.87635958348983 -17.364922305907385 0 -17.364922305907385 -11.864302134299578 0 0 0 0 -22.26317943106551 -3.2071326563209368 0 -3.2071326563209368 -4.0584184378312784 0 0 0 0 -23.525162223057123 -8.9894866306949552 0 -8.9894866306949552 9.2127844543247193 0 0 0 0 -43.773958453959494 -24.465999694915809 0 -24.465999694915809 11.78501490468102 0 0 0 0 -23.244787154271762 -41.298515942270569 0 -41.298515942270569 14.391014818022086 0 0 0 0 11.119138668917003 13.491715557047428 0 13.491715557047428 20.127491309451216 0 0 0 0 -11.00465333036118 -8.58150587667933 0 -8.58150587667933 22.446219251458388 0 0 0 0 0.67222702045535243 1.2440659391533018 0 1.2440659391533018 -1.2202621277148893 0 0 0 0 5.655187527750968 -13.726343976026328 0 -13.726343976026328 -13.747363976275665 0 0 0 0 -8.5445481748902239 2.7528789519128622 0 2.7528789519128622 7.6595195416630304 0 0 0 0 -37.397473293465737 -9.4753086574983172 0 -9.4753086574983172 43.48049851757969 0 0 0 0 -7.6656396065518493 -10.335606832288249 0 -10.335606832288249 34.375707024897565 0 0 0 0 -8.2615380769930198 15.817081091798173 0 15.817081091798173 55.218137539195595 0 0 0 0 -9.6611624924480566 -39.175207655725899 0 -39.175207655725899 91.208809680138984 0 0 0 0 -4.1720117579910152 -0.56267034744732314 0 -0.56267034744732314 2.3974067782246351 0 0 0 0 177.12327059481322 -254.59695922888386 0 -254.59695922888386 255.01055525266565 0 0 0 0 181.92174355621682 -175.90042644332061 0 -175.90042644332061 252.93388001779783 0 0 0 0 184.58957867293066 -162.408837640809 0 -162.408837640809 169.55314534484432 0 0 0 0 170.01928338979997 -274.12598404528671 0 -274.12598404528671 201.54757141833397 0 0 0 0 80.611352645733859 -274.74123347259865 0 -274.74123347259865 168.29231359242476 0 0 0 0 113.8350824520021 -129.21389827039911 0 -129.21389827039911 240.29999334002605 0 0 0 0 -2.2988010474557825 -0.11576947230765455 0 -0.11576947230765455 1.5763546423307417 0 0 0 0 -4.5212498923574458 -67.600049104039499 0 -67.600049104039499 6.8760477317423465 0 0 0 0 -8.5976804845176957 -54.578286085354648 0 -54.578286085354648 -16.23536828559736 0 0 0 0 -114.92562526096827 -119.3530557507782 0 -119.3530557507782 30.753458290331764 0 0 0 0 -115.58270229363552 2.6996678180539675 0 2.6996678180539675 48.884998657132201 0 0 0 0 77.138270970724989 -156.385790700303 0 -156.385790700303 27.540876007498809 0 0 0 0 1.601540843588495 -1.1433094755732895 0 -1.1433094755732895 -0.11572260591254491 0 0 0 0 167.16486851446825 -38.604108254045059 0 -38.604108254045059 -26.989369723388336 0 0 0 0 -19.766294365267136 -40.049942384016717 0 -40.049942384016717 -26.696944693263006 0 0 0 0 -45.613471068812942 -32.696325941229588 0 -32.696325941229588 -26.801202673523221 0 0 0 0 82.0209403480535 -99.323169074785937 0 -99.323169074785937 -102.40973810815194 0 0 0 0 -53.882943013501063 -49.398504554284955 0 -49.398504554284955 -42.613285610086677 0 0 0 0 82.996305292977922 -80.475495793025402 0 -80.475495793025402 -44.965242807527829 0 0 0 0 49.63385655543243 14.780821264430415 0 14.780821264430415 -23.144912397738153 0 0 0 0 -25.637569835351186 -34.762915573578738 0 -34.762915573578738 -20.130977565175669 0 0 0 0 13.414322428360663 -3.6896063917023554 0 -3.6896063917023554 -9.159705334136774 0 0 0 0 88.044968708192755 8.2145983735463233 0 8.2145983735463233 -65.508466397732263 0 0 0 0 -15.773817587330996 -44.257321522225539 0 -44.257321522225539 0.16116934701312857 0 0 0 0 -1.6590556939772796 -45.29518522699982 0 -45.29518522699982 -12.747675038241141 0 0 0 0 -11.765950158740097 -8.6367355081329578 0 -8.6367355081329578 -2.251574129712381 0 0 0 0 -3.2780118567316094 -50.436054971689373 0 -50.436054971689373 -25.674666144010189 0 0 0 0 -26.771607570539345 -27.19703921684777 0 -27.19703921684777 -24.785515051222319 0 0 0 0 -19.870955505741222 -32.437817023504977 0 -32.437817023504977 -10.311479207906814 0 0 0 0 -21.682173787012644 -16.281166280017949 0 -16.281166280017949 -8.249149272674579 0 0 0 0 -11.848088845173464 -18.290177424613709 0 -18.290177424613709 -14.824821436687955 0 0 0 0 6.7401305518724257 -15.817105163689121 0 -15.817105163689121 -8.9882185322057921 0 0 0 0 5.1037450663971526 -16.571678155160015 0 -16.571678155160015 -12.843018560122708 0 0 0 0 -19.566020938735164 -19.417212371152345 0 -19.417212371152345 -18.006445999762946 0 0 0 0 26.02091916349309 42.022768328039092 0 42.022768328039092 -45.145356250766781 0 0 0 0 3.728051450223802 -10.02428985091953 0 -10.02428985091953 -11.013819517638751 0 0 0 0 174.40632545891276 -105.04116173111834 0 -105.04116173111834 18.54963319098897 0 0 0 0 46.214724248959101 -0.081616762457997538 0 -0.081616762457997538 0.46722364595825638 0 0 0 0 -19.509065908436696 -20.522884929931706 0 -20.522884929931706 -9.3867778554922552 0 0 0 0 -15.687318909640453 -21.416787212512645 0 -21.416787212512645 -10.408320308531984 0 0 0 0 61.169476075345301 24.602752669456095 0 24.602752669456095 -51.20174978148134 0 0 0 0 -21.555340161439744 -18.718118720654275 0 -18.718118720654275 -8.8555508091012598 0 0 0 0 -12.223461349947684 -13.081156208772882 0 -13.081156208772882 -5.4519269492375315 0 0 0 0 -19.837329379653966 -19.407847115817276 0 -19.407847115817276 5.4695970134089293 0 0 0 0 -14.008196638374159 -13.561011627475608 0 -13.561011627475608 -5.1663509693919281 0 0 0 0 164.377592214576 -88.865194037050969 0 -88.865194037050969 9.0510051047167508 0 0 0 0 -300.5445451613632 -33.724521729676781 0 -33.724521729676781 64.121271088873982 0 0 0 0 -62.404195346418419 154.8514170512135 0 154.8514170512135 -46.972579644134385 0 0 0 0 118.23044724127976 -67.926563189574154 0 -67.926563189574154 41.976041794325283 0 0 0 0 -282.09029137453763 -7.7740792314216378 0 -7.7740792314216378 88.436454653070541 0 0 0 0 -4.4142159263719805 -71.423936057959509 0 -71.423936057959509 13.778548598718771 0 0 0 0 -1.1931509506494962 -0.61772977040410382 0 -0.61772977040410382 -0.56156472335371888 0 0 0 0 -195.51692691142671 43.672542599131702 0 43.672542599131702 13.854760339978384 0 0 0 0 -152.53779752587434 -47.681262651400175 0 -47.681262651400175 18.071369763049006 0 0 0 0 -273.77879035461228 -40.54516300978139 0 -40.54516300978139 33.343833500570327 0 0 0 0 -129.82171093187935 20.421331558023667 0 20.421331558023667 -39.623239712767827 0 0 0 0 40.104103594268963 -16.855288150367414 0 -16.855288150367414 -45.161829210155702 0 0 0 0 -46.734432375094912 88.161855965983705 0 88.161855965983705 -36.188943258181098 0 0 0 0 -84.968759168143151 4.6147914017747098 0 4.6147914017747098 -48.236908056824177 0 0 0 0 -277.4844087773381 110.02666270701229 0 110.02666270701229 -101.73894728967934 0 0 0 0 -346.24118564153468 -119.64194604883596 0 -119.64194604883596 -34.918200112749219 0 0 0 0 137.76598733357969 -229.26467325049452 0 -229.26467325049452 -147.97621281756437 0 0 0 0 -295.53443061566213 -11.077263410254091 0 -11.077263410254091 30.939354928181274 0 0 0 0 -81.897442346707976 -55.260894220635237 0 -55.260894220635237 -20.569952093748725 0 0 0 0 115.04178291575226 60.609770852312067 0 60.609770852312067 -118.36707514413865 0 0 0 0 -125.3546609346522 -225.50759467080206 0 -225.50759467080206 88.814204151327431 0 0 0 0 -0.5520873340681014 -1.9536812684537352 0 -1.9536812684537352 -0.3114320925295857 0 0 0 0 -2.6087758995596317 -2.5371884836933347 0 -2.5371884836933347 -0.99820754056737826 0 0 0 0 -6.7572462937441742 17.56348359084177 0 17.56348359084177 -126.1084911084763 0 0 0 0 -59.736408205211774 -189.37158799046938 0 -189.37158799046938 -209.34709360916167 0 0 0 0 -258.76508210884276 -133.71411385968713 0 -133.71411385968713 -25.47676955614952 0 0 0 0 -44.884468291245867 -24.275916989572579 0 -24.275916989572579 1.8572721058808384 0 0 0 0 -44.421654167472752 -30.695561609735478 0 -30.695561609735478 -266.28938816975278 0 0 0 0 -55.703103338280926 -176.02357541318997 0 -176.02357541318997 -202.61334631143654 0 0 0 0 -54.210412967731827 -161.7755813227086 0 -161.7755813227086 -66.650716355929035 0 0 0 0 -80.375320050305163 -68.149973191833851 0 -68.149973191833851 -13.115597608139069 0 0 0 0 -136.29232557143405 -67.424146183653647 0 -67.424146183653647 34.959744248000789 0 0 0 0 -74.764219855911506 -51.214478368314303 0 -51.214478368314303 31.031731928022054 0 0 0 0 -264.12204342591212 32.349232296821356 0 32.349232296821356 2.566953647074115 0 0 0 0 -108.2965715774626 17.029634251966854 0 17.029634251966854 1.2536256551982206 0 0 0 0 -53.474513188390119 -14.050323706775089 0 -14.050323706775089 9.4236219551639806 0 0 0 0 -50.25165569037199 -19.168807060225845 0 -19.168807060225845 6.5186964024178451 0 0 0 0 -84.402055116464908 -22.258505340028933 0 -22.258505340028933 14.78548823285746 0 0 0 0 -35.785313633954502 -74.954551208731573 0 -74.954551208731573 12.330132031645917 0 0 0 0 -77.857087071861315 -86.667253743835317 0 -86.667253743835317 29.423540007646352 0 0 0 0 -79.014204449456884 -48.430214859639818 0 -48.430214859639818 27.579363487730006 0 0 0 0 -79.946760261904274 -47.59038057064754 0 -47.59038057064754 26.987316563430795 0 0 0 0 -53.128454468849668 -46.894821383032649 0 -46.894821383032649 12.667274686726159 0 0 0 0 -57.325063696620575 -20.543071106864275 0 -20.543071106864275 0.92764487903835757 0 0 0 0 -44.235653073224967 -12.19604697125169 0 -12.19604697125169 13.080842506511544 0 0 0 0 -58.052117430568615 -38.157001069481339 0 -38.157001069481339 4.7366564074818598 0 0 0 0 -49.212854648198118 -29.699234289144442 0 -29.699234289144442 12.806828624547052 0 0 0 0 -191.30873467393394 3.9146256584081129 0 3.9146256584081129 9.9789116935862694 0 0 0 0 9.5101505894393767 -34.929248404976953 0 -34.929248404976953 8.3040185276112517 0 0 0 0 -6.6742706222285051 -39.637586871313943 0 -39.637586871313943 17.727814364076039 0 0 0 0 18.647625938452535 -30.968475393472886 0 -30.968475393472886 9.3838765882738642 0 0 0 0 495.10616941197077 -111.77199823494448 0 -111.77199823494448 -89.679499109268363 0 0 0 0 -92.999343291230616 -30.009662651295002 0 -30.009662651295002 14.12799252412924 0 0 0 0 344.11363118643203 -325.40004443742419 0 -325.40004443742419 38.463308658370806 0 0 0 0 -11.961875334845345 -2.6426942715465458 0 -2.6426942715465458 5.1160347792711747 0 0 0 0 -1.3014540193043445 -9.9869262102640697 0 -9.9869262102640697 13.380273548773884 0 0 0 0 -165.00020379306807 -547.3445864063724 0 -547.3445864063724 -26.749639522282905 0 0 0 0 19.215114784812613 -93.38630807200343 0 -93.38630807200343 -13.088675229589626 0 0 0 0 29.628704305267732 -43.965679297116516 0 -43.965679297116516 50.905452342772897 0 0 0 0 -43.293768144321803 -85.744993246524245 0 -85.744993246524245 81.286668882228696 0 0 0 0 37.424255572055699 -53.038671319777222 0 -53.038671319777222 18.841527821727141 0 0 0 0 29.168963519623503 -69.321879521689425 0 -69.321879521689425 -4.3556995117319275 0 0 0 0 29.911184047319693 -82.949405090937944 0 -82.949405090937944 -30.737181810986385 0 0 0 0 51.323048853999353 -72.869108835812767 0 -72.869108835812767 -28.111135850544088 0 0 0 0 -49.297260982544685 -120.12322430723907 0 -120.12322430723907 -13.022042270347811 0 0 0 0 55.184219977112662 -110.50392857507177 0 -110.50392857507177 -112.10288033795223 0 0 0 0 -48.433992421507355 31.276723412875981 0 31.276723412875981 56.634334463957202 0 0 0 0 47.813826898003754 -95.319861828578723 0 -95.319861828578723 25.900733994239999 0 0 0 0 47.93935107048506 -80.115772195605899 0 -80.115772195605899 5.9880117057109601 0 0 0 0 41.58498422138473 -68.863874586042357 0 -68.863874586042357 6.7557631775853224 0 0 0 0 43.738180484448094 -63.414869770998848 0 -63.414869770998848 95.163078240413597 0 0 0 0 6.1984715414655511 -133.2736720030407 0 -133.2736720030407 99.803911041857305 0 0 0 0 -38.92717545938649 -172.69543035885727 0 -172.69543035885727 405.33230868756436 0 0 0 0 3.4332288530028734 -9.1092991965044519 0 -9.1092991965044519 -6.1786206767892544 0 0 0 0 101.55744177056476 -159.23322329577059 0 -159.23322329577059 134.75016685394803 0 0 0 0 41.514654339072877 -117.22164483677011 0 -117.22164483677011 54.197277962255612 0 0 0 0 26.05744705538018 -51.640046588649057 0 -51.640046588649057 -36.416026310424058 0 0 0 0 -28.888878319168342 -37.745205304394901 0 -37.745205304394901 -20.568287641394207 0 0 0 0 45.829491680036881 -171.0999917528934 0 -171.0999917528934 78.33017548371572 0 0 0 0 -107.90991997874517 -140.10287209068747 0 -140.10287209068747 92.539778325786756 0 0 0 0 8.1602733436448034 -97.882812577172444 0 -97.882812577172444 118.03123898773265 0 0 0 0 -24.266555855570914 -144.10490234577924 0 -144.10490234577924 59.621009577585937 0 0 0 0 -15.732954224393325 -186.07691454014775 0 -186.07691454014775 89.538273342561297 0 0 0 0 47.190703919579391 -110.92152075681679 0 -110.92152075681679 -8.8715659460431198 0 0 0 0 42.330058414139785 -82.736983469045299 0 -82.736983469045299 51.333540964908025 0 0 0 0 42.933828735309362 -106.15215989766511 0 -106.15215989766511 42.331156055151041 0 0 0 0 92.43515241465866 -108.27205121202815 0 -108.27205121202815 34.231670359775308 0 0 0 0 119.88221764602986 -293.26592540812499 0 -293.26592540812499 1.9385705169515859 0 0 0 0 59.016947728923697 -105.23211679270389 0 -105.23211679270389 -141.76554879158448 0 0 0 0 84.941331948088191 -189.12046504330647 0 -189.12046504330647 -7.9810480247615487 0 0 0 0 41.660165279776265 -91.077389557301103 0 -91.077389557301103 -66.054959423529908 0 0 0 0 -52.452262645281735 -98.683055834635525 0 -98.683055834635525 -73.789394231032929 0 0 0 0 -55.468659616563855 -137.96627246092919 0 -137.96627246092919 -135.11280711073778 0 0 0 0 14.345423748854955 -59.995854352266178 0 -59.995854352266178 -95.364057913598572 0 0 0 0 -19.289942614159372 -53.052163752378874 0 -53.052163752378874 -75.575677607490434 0 0 0 0 -30.208577237848658 -90.157122789933965 0 -90.157122789933965 -91.273019639065751 0 0 0 0 26.899190585747419 -90.288103210141799 0 -90.288103210141799 -49.084568456259149 0 0 0 0 7.951475964684505 -60.269888419324161 0 -60.269888419324161 -53.615095198463678 0 0 0 0 29.680504644002212 -50.663902298964786 0 -50.663902298964786 -66.724091505970136 0 0 0 0 3.4102574373100651 -35.716506679203121 0 -35.716506679203121 -67.647201041067547 0 0 0 0 8.456239708436442 -60.82300088156012 0 -60.82300088156012 -80.425236164286616 0 0 0 0 56.475893467864807 -73.692159768057081 0 -73.692159768057081 -30.02005946735153 0 0 0 0 42.812698155918042 -80.078329074394787 0 -80.078329074394787 6.6713201925540488 0 0 0 0 45.714747449434071 -59.80206192564583 0 -59.80206192564583 -30.737653064219558 0 0 0 0 42.43631339885178 -56.760563710025963 0 -56.760563710025963 -46.066569255412105 0 0 0 0 34.156787096786502 -65.285453151912179 0 -65.285453151912179 -31.895041817333549 0 0 0 0 42.387544412071293 -63.340372199265403 0 -63.340372199265403 -29.117847628045638 0 0 0 0 39.699641861916461 -62.408073470675845 0 -62.408073470675845 -26.815368837820188 0 0 0 0 22.166129842000373 -60.796740817949285 0 -60.796740817949285 -28.703285663290444 0 0 0 0 29.398313825531659 -48.701754834505209 0 -48.701754834505209 -8.7712929298249946 0 0 0 0 27.137766072548402 -40.081396938147009 0 -40.081396938147009 -37.513037296039329 0 0 0 0 19.715137737333862 -41.043527651892873 0 -41.043527651892873 -21.031597193623384 0 0 0 0 17.132514693017583 -26.191510027520962 0 -26.191510027520962 -26.411947914109305 0 0 0 0 17.045447650649294 -43.817081304281601 0 -43.817081304281601 -10.137893722298713 0 0 0 0 -16.111861248326022 -52.01691220955172 0 -52.01691220955172 -55.608516783471714 0 0 0 0 2.2985720788710751 -36.506370596119268 0 -36.506370596119268 -43.951071859018612 0 0 0 0 19.192792425579682 -36.337920238040169 0 -36.337920238040169 -51.053936707879075 0 0 0 0 -1.4121708895836491 -31.740523251841751 0 -31.740523251841751 -19.774207705397203 0 0 0 0 4.0983846443523362 -28.617418712794006 0 -28.617418712794006 -56.37094106344739 0 0 0 0 9.080062870409165 -17.860032332554511 0 -17.860032332554511 -26.37549097030751 0 0 0 0 -1.4377197663015977 -21.41399838811958 0 -21.41399838811958 4.0316622340233152 0 0 0 0 6.4425135179408244 -21.882500241756588 0 -21.882500241756588 8.3893872617136367 0 0 0 0 10.422539404178679 -17.4478844685691 0 -17.4478844685691 4.0156709764878542 0 0 0 0 19.389191071779351 -15.34668414853877 0 -15.34668414853877 14.418589912640073 0 0 0 0 14.852910967489152 -31.203632991174345 0 -31.203632991174345 16.822836932861719 0 0 0 0 8.2784752149855194 -19.674273333132078 0 -19.674273333132078 28.430129849852165 0 0 0 0 13.455356872769102 -20.705837821399946 0 -20.705837821399946 30.561927156663156 0 0 0 0 -37.523625306093891 -38.797450560488812 0 -38.797450560488812 27.190874893113914 0 0 0 0 -93.097121580154635 -81.170936274636119 0 -81.170936274636119 17.605294365377972 0 0 0 0 -62.526280347185093 -75.788278825250472 0 -75.788278825250472 15.972854819932593 0 0 0 0 -40.929968821502371 -54.087982282944949 0 -54.087982282944949 27.993259550369999 0 0 0 0 -180.21017935190321 -21.522581497281692 0 -21.522581497281692 46.946427479844886 0 0 0 0 234.05919102497683 228.91687739543909 0 228.91687739543909 81.034246099379018 0 0 0 0 -16.519158566603437 -177.07143340953303 0 -177.07143340953303 337.22862504806176 0 0 0 0 208.99633746787367 -262.93973279220842 0 -262.93973279220842 101.77590743881269 0 0 0 0 0.78609862580113798 0.5754326421978746 0 0.5754326421978746 -1.5992168633365773 0 0 0 0 -66.09723364718775 -75.026325311051693 0 -75.026325311051693 138.92984374680145 0 0 0 0 -5.4850493015474058 -213.79692921283299 0 -213.79692921283299 55.907407963419814 0 0 0 0 80.343599977608392 -128.11597676619186 0 -128.11597676619186 -18.976711899681959 0 0 0 0 94.850857690776138 -82.381296895479068 0 -82.381296895479068 -61.386726608326626 0 0 0 0 65.558811286198761 -137.54990459974169 0 -137.54990459974169 -23.565764923398319 0 0 0 0 65.15061889982826 -65.965584768210874 0 -65.965584768210874 -52.602329481415381 0 0 0 0 -11.54395442031273 -90.369673962087745 0 -90.369673962087745 -12.413069077992532 0 0 0 0 -43.653391988766089 -127.41903648769636 0 -127.41903648769636 12.999504537497614 0 0 0 0 24.585335077919666 -34.142087191751997 0 -34.142087191751997 47.614473177887497 0 0 0 0 -1.6941827804148488 -89.194070272647423 0 -89.194070272647423 6.4037134197842533 0 0 0 0 -1.5426240345805127 -76.680888944117214 0 -76.680888944117214 -10.995613110986596 0 0 0 0 15.277664965837175 -60.241117703453256 0 -60.241117703453256 3.8554388101729273 0 0 0 0 19.140305104922533 -27.639233238654455 0 -27.639233238654455 38.572219412409765 0 0 0 0 17.378608859940869 -41.282794117348772 0 -41.282794117348772 8.6606146575159073 0 0 0 0 -97.980382147370619 -95.327714733726339 0 -95.327714733726339 11.703271356006098 0 0 0 0 42.801820237113134 -37.220407210353642 0 -37.220407210353642 33.966884121215116 0 0 0 0 -1.2336177151947325 -2.7418649850570418 0 -2.7418649850570418 3.7870394900248172 0 0 0 0 -0.13047116742382059 -5.0981196665425159 0 -5.0981196665425159 4.2346338773241996 0 0 0 0 0.36754166770612073 -0.33383358495987636 0 -0.33383358495987636 -0.45442790076844375 0 0 0 0 0.52338936134228931 -3.6466359070746677 0 -3.6466359070746677 4.3513578593056295 0 0 0 0 -1.8888607378976303 -20.438144056588499 0 -20.438144056588499 -8.0596097977240788 0 0 0 0 2.9034625979147677 0.77244546125075431 0 0.77244546125075431 -11.515967749237461 0 0 0 0 -19.433702798378363 -24.395069841701115 0 -24.395069841701115 10.734140505097457 0 0 0 0 1.1055933012621466 -4.1120074118432086 0 -4.1120074118432086 4.5519635346666689 0 0 0 0 -1.003443976476774 -5.8797488715881627 0 -5.8797488715881627 5.020008576932014 0 0 0 0 7.9366940838845039 -0.19180128998277723 0 -0.19180128998277723 -3.6769480146613205 0 0 0 0 -11.79274520141189 -1.8350183421280235 0 -1.8350183421280235 11.179687199877662 0 0 0 0 2.3096448738940722 -3.7214723512109771 0 -3.7214723512109771 3.9311738377517997 0 0 0 0 0.64442622161550389 -4.3264038695451745 0 -4.3264038695451745 2.5020746100635733 0 0 0 0 -0.24634814718956477 -3.3055247449074159 0 -3.3055247449074159 4.5639623638196554 0 0 0 0 -0.0014701498366775922 -1.9839771111473965 0 -1.9839771111473965 2.1634463812224567 0 0 0 0 -0.32385516082077004 -1.8837176055088136 0 -1.8837176055088136 1.5324566202088334 0 0 0 0 -0.0046184483559575515 -7.5745451062198379 0 -7.5745451062198379 9.4542052959768625 0 0 0 0 6.1086291225146852 -8.4424224887188757 0 -8.4424224887188757 -13.722787528437038 0 0 0 0 -0.26731356099307391 0.41192952686730067 0 0.41192952686730067 2.3845258791934825 0 0 0 0 -7.2751763039705111 -13.746598240764797 0 -13.746598240764797 24.287783387881063 0 0 0 0 -0.085790884316736538 0.74296322794756264 0 0.74296322794756264 1.1693339265521674 0 0 0 0 0.014677566468890291 -22.954842645032841 0 -22.954842645032841 5.2796808277507807 0 0 0 0 0.35982844153943461 -5.7710603308066197 0 -5.7710603308066197 5.9266650712929945 0 0 0 0 0.10982004138350021 -7.6675303773190535 0 -7.6675303773190535 2.3267062548634385 0 0 0 0 -1.5635460537887411 -6.8865118302328483 0 -6.8865118302328483 0.69007331585453358 0 0 0 0 -0.37466969724383148 -7.3672676217622417 0 -7.3672676217622417 6.8514635990200707 0 0 0 0 1.4856646540574729 -2.3273897521685285 0 -2.3273897521685285 11.583218165938888 0 0 0 0 3.6056252049518491 -4.9199604445879999 0 -4.9199604445879999 2.9381884062595987 0 0 0 0 0.16726010258571478 -7.3592724579575588 0 -7.3592724579575588 3.154411031435302 0 0 0 0 -0.542103227574529 -3.7622613048220188 0 -3.7622613048220188 5.728044082971806 0 0 0 0 -2.3611535452873795 -9.0737721251553012 0 -9.0737721251553012 18.275070638938814 0 0 0 0 -5.4001703876419924 -12.500853921425005 0 -12.500853921425005 -2.7264271385847678 0 0 0 0 -2.7345904206122214 -4.0540378726068411 0 -4.0540378726068411 14.263837752972904 0 0 0 0 -1.4113053681462873 -0.1982088629940808 0 -0.1982088629940808 1.3268072756653293 0 0 0 0 -1.2013323932769708 -22.567819032070474 0 -22.567819032070474 31.206665115214491 0 0 0 0 2.2259865230735159 -6.7924047919905206 0 -6.7924047919905206 7.0027662871489156 0 0 0 0 -3.0064011692974475 -3.8956760783592301 0 -3.8956760783592301 0.65673773440746475 0 0 0 0 12.220452902536636 -30.889879532249324 0 -30.889879532249324 18.548604361049001 0 0 0 0 49.282586760822369 12.046462478490014 0 12.046462478490014 -13.544983179286646 0 0 0 0 2.2317069617274683 -11.018830461701327 0 -11.018830461701327 11.385415023510177 0 0 0 0 -1.9827007345120364 4.0085316531992703 0 4.0085316531992703 18.702384747582983 0 0 0 0 -7.2713123294524848 -12.363828706896129 0 -12.363828706896129 -23.165873708909203 0 0 0 0 -16.800810436165193 -11.712683746311086 0 -11.712683746311086 -1.0088366345971735 0 0 0 0 -9.4255355464702006 -16.708499317481255 0 -16.708499317481255 -8.9112086696241022 0 0 0 0 -12.970855890889652 -27.369206963995566 0 -27.369206963995566 -29.508617013427283 0 0 0 0 -25.192142105479434 -23.755252785519588 0 -23.755252785519588 -1.7639748194014828 0 0 0 0 -14.61485927272588 -27.564762367088406 0 -27.564762367088406 -18.522372735566023 0 0 0 0 -31.812622886180179 -33.886812217047918 0 -33.886812217047918 -6.6623441853516852 0 0 0 0 -34.184738255906268 -56.291855261584715 0 -56.291855261584715 -33.779568394286571 0 0 0 0 -13.833803651777998 -25.473919008660687 0 -25.473919008660687 -19.076948368707235 0 0 0 0 34.475408863494522 -28.486085684420686 0 -28.486085684420686 -64.375146750915519 0 0 0 0 -37.682791203304077 -93.652766088456701 0 -93.652766088456701 -82.931740562399682 0 0 0 0 31.573663564311573 18.590408033651329 0 18.590408033651329 -17.812410307122263 0 0 0 0 -49.843765696998162 -125.76193693696951 0 -125.76193693696951 -153.554718555411 0 0 0 0 -137.19304378014931 -150.13951453169466 0 -150.13951453169466 -140.94982982565034 0 0 0 0 0.99060184457576383 0.14144140936421934 0 0.14144140936421934 -1.4516973104096849 0 0 0 0 -74.710715477311169 -72.569413379978869 0 -72.569413379978869 -100.6832621027861 0 0 0 0 -54.181766370660625 -94.809014076752646 0 -94.809014076752646 -137.26906574960594 0 0 0 0 -86.828186314924096 -133.33186203475907 0 -133.33186203475907 -151.06300217623175 0 0 0 0 1.4721468823999402 0.47773359994801012 0 0.47773359994801012 -2.446063862283836 0 0 0 0 -32.486425839259027 27.068439543096247 0 27.068439543096247 -35.051902033275837 0 0 0 0 -56.195182806834055 -92.176751592814071 0 -92.176751592814071 -139.96567101844266 0 0 0 0 25.360552962185466 -5.0567721841380262 0 -5.0567721841380262 -66.340641016714017 0 0 0 0 23.884205164107698 -51.273236508984155 0 -51.273236508984155 -26.655151941713484 0 0 0 0 -10.626018359616864 -7.9916315894206491 0 -7.9916315894206491 31.773982355497537 0 0 0 0 -0.76070327511141045 0.77630891528679413 0 0.77630891528679413 0.045232177258121453 0 0 0 0 -106.41554311821528 -2.0591880979254711 0 -2.0591880979254711 82.659794313796738 0 0 0 0 -0.2728920043373364 -3.007518798498495 0 -3.007518798498495 5.0621401647476887 0 0 0 0 -2.7897799183778318 -2.8996146075698732 0 -2.8996146075698732 -0.39141952535841718 0 0 0 0 6.5982700594395283 -30.902688685466273 0 -30.902688685466273 10.342408156659076 0 0 0 0 7.9851949009826058 12.940816203343275 0 12.940816203343275 52.272335928678331 0 0 0 0 -7.1908249692824029 -10.075332581955536 0 -10.075332581955536 6.511618533575529 0 0 0 0 -7.9812602926976979 -8.0439038309705211 0 -8.0439038309705211 15.908378980217094 0 0 0 0 -7.5677040857262909 -15.964330612190679 0 -15.964330612190679 13.681185173412814 0 0 0 0 -7.5798447806659226 -18.793124633138145 0 -18.793124633138145 0.27988378125155577 0 0 0 0 -41.416664649492304 -94.374269336505677 0 -94.374269336505677 -136.47512477724558 0 0 0 0 -53.868188882726827 -93.607971528097551 0 -93.607971528097551 -136.52026143901367 0 0 0 0 1.6177129168750071 0.44572699011645511 0 0.44572699011645511 -4.05443754134226 0 0 0 0 3.8231497490378388 -6.6177089739985604 0 -6.6177089739985604 -6.9671345246733836 0 0 0 0 15.885078472172609 30.105516884247663 0 30.105516884247663 22.444846582324317 0 0 0 0 -1.5629036422815545 -2.877701726928457 0 -2.877701726928457 -0.28931841822254789 0 0 0 0 21.972399292557384 -23.626173500933874 0 -23.626173500933874 197.66424272420227 0 0 0 0 -1.3495258668184817 0.53133867698680604 0 0.53133867698680604 -0.17606213091125511 0 0 0 0 -12.385395367287856 52.778037423659043 0 52.778037423659043 103.27736929009779 0 0 0 0 36.694440364460206 -2.114226814489939 0 -2.114226814489939 -1.311602330635651 0 0 0 0 2.1079829959636385 -1.4277689911027949 0 -1.4277689911027949 -1.1010832600982923 0 0 0 0 -32.711420474020997 -92.162455672641954 0 -92.162455672641954 -239.00512371849027 0 0 0 0 -35.157530582335312 -75.738705242345532 0 -75.738705242345532 -117.38191014599715 0 0 0 0 -32.772683569790388 -82.834952785616224 0 -82.834952785616224 -101.64315868991616 0 0 0 0 -40.281929200347804 -75.952137117414168 0 -75.952137117414168 -107.90890376315656 0 0 0 0 -56.473521456926392 -101.42011613535215 0 -101.42011613535215 -115.26287680906171 0 0 0 0 -77.585536817539833 -90.61163474897694 0 -90.61163474897694 -117.75481454009969 0 0 0 0 -60.898549900073704 -98.538060990285885 0 -98.538060990285885 -118.0708885803615 0 0 0 0 -37.361997784551932 -75.407784312135846 0 -75.407784312135846 -115.94120947154556 0 0 0 0 -61.611844791139447 -80.111884130444423 0 -80.111884130444423 -97.544706881351885 0 0 0 0 -32.322811860838556 -59.013925425653724 0 -59.013925425653724 -104.11063442530531 0 0 0 0 -45.777617826148344 -69.935728904971256 0 -69.935728904971256 -79.006030831951648 0 0 0 0 -14.434849941462744 -47.250963037796282 0 -47.250963037796282 -85.146254557492512 0 0 0 0 -35.999763845215057 -66.093109704205744 0 -66.093109704205744 -71.081678792617822 0 0 0 0 -23.839852092040019 -75.108458000623614 0 -75.108458000623614 -62.025360260538946 0 0 0 0 -9.9543064804602182 -40.125318032371069 0 -40.125318032371069 -64.833960802082629 0 0 0 0 -14.913349816990376 -43.959569777982779 0 -43.959569777982779 -43.253632323387137 0 0 0 0 8.254967531276634 -28.565993759442335 0 -28.565993759442335 22.869551887817579 0 0 0 0 13.119256163430691 -20.458624583594428 0 -20.458624583594428 -45.243163848501467 0 0 0 0 11.434841270693141 -11.533134498927666 0 -11.533134498927666 7.5166596674437187 0 0 0 0 8.2031113570919842 -8.7440606088407549 0 -8.7440606088407549 -2.2982305551895479 0 0 0 0 23.9299276121601 -40.949796787669925 0 -40.949796787669925 -75.788385851756175 0 0 0 0 -0.26083893991184937 -0.019901640991257352 0 -0.019901640991257352 0.75359139417658838 0 0 0 0 66.332769357195502 -164.40349480986606 0 -164.40349480986606 157.97190486924683 0 0 0 0 62.811501514723204 -138.19701108585286 0 -138.19701108585286 -14.055850341221685 0 0 0 0 13.977556894460577 -91.511585788552566 0 -91.511585788552566 -74.706380618184994 0 0 0 0 -20.49503706620817 -149.38084831977017 0 -149.38084831977017 -29.563223539684259 0 0 0 0 -17.455403653410031 -67.272304853500827 0 -67.272304853500827 -55.462656113809317 0 0 0 0 -30.989922315980948 -63.983345515219298 0 -63.983345515219298 -76.637120207496991 0 0 0 0 -44.905097678882157 -112.98228369522917 0 -112.98228369522917 -79.167320732623921 0 0 0 0 -51.719523125691921 -87.730037264879229 0 -87.730037264879229 -90.689676211128244 0 0 0 0 -34.372924302617321 -78.57218083994303 0 -78.57218083994303 -118.36233678676308 0 0 0 0 -55.673945908638416 -114.15199128491349 0 -114.15199128491349 -64.66418321327501 0 0 0 0 -58.453646348898474 -91.780983702941285 0 -91.780983702941285 -54.030201704848878 0 0 0 0 -53.776709181569458 -104.47016183532469 0 -104.47016183532469 -22.188216120968718 0 0 0 0 -24.288557832827792 -61.360446651518032 0 -61.360446651518032 -33.157801215296786 0 0 0 0 -38.549540017549589 -44.422921438315825 0 -44.422921438315825 -16.469487965485314 0 0 0 0 -86.114957296522334 -60.677573816724362 0 -60.677573816724362 -3.2320072101538244 0 0 0 0 -62.395736038764881 -52.742793057032031 0 -52.742793057032031 -0.98816050698223989 0 0 0 0 -46.994642482219206 -69.73736472771634 0 -69.73736472771634 -15.745453642812208 0 0 0 0 -56.964966872852528 -89.827009108619677 0 -89.827009108619677 -45.694167364796158 0 0 0 0 -91.561554318104754 -78.630268252998576 0 -78.630268252998576 -14.673712895390963 0 0 0 0 -114.14799299477818 -86.326044063359404 0 -86.326044063359404 -3.1797130567574641 0 0 0 0 -69.608948414315819 -78.070372415866586 0 -78.070372415866586 -18.166045819047213 0 0 0 0 -85.097395374561529 -103.32862960375405 0 -103.32862960375405 -8.7648128476757847 0 0 0 0 -92.605208996279543 -144.80810368185666 0 -144.80810368185666 8.7720816142082185 0 0 0 0 -111.56441954916227 -99.830802115277038 0 -99.830802115277038 -6.6666266851452747 0 0 0 0 -29.596430104546926 -86.857587345725392 0 -86.857587345725392 139.61522199073625 0 0 0 0 -71.124448746715643 -286.20771960033426 0 -286.20771960033426 70.795244884488966 0 0 0 0 -510.70997569186147 -57.648924967405947 0 -57.648924967405947 83.185903849096121 0 0 0 0 -106.99052644955373 -93.416011054529008 0 -93.416011054529008 1.5874242676345602 0 0 0 0 -1.5572023168715035 -2.230444306765321 0 -2.230444306765321 1.6841718332640028 0 0 0 0 637.96633344162183 -562.93760899803624 0 -562.93760899803624 5.6257198968069133 0 0 0 0 -0.029397088881523814 -409.9276408803953 0 -409.9276408803953 67.622658987354043 0 0 0 0 290.35787657393303 -191.0541330335061 0 -191.0541330335061 222.81551142655371 0 0 0 0 97.57142185059638 -257.54301798462984 0 -257.54301798462984 254.80755511830921 0 0 0 0 184.22135595489817 -144.17198984966308 0 -144.17198984966308 132.01473813287339 0 0 0 0 0.1624511772087979 -180.1008518444755 0 -180.1008518444755 252.45353291682477 0 0 0 0 254.12443808377429 -264.87535814634339 0 -264.87535814634339 165.44186608834389 0 0 0 0 -3.3427083000536726 -4.2345677489349214 0 -4.2345677489349214 4.7599721593564084 0 0 0 0 -136.65312860937411 -9.558027769741102 0 -9.558027769741102 13.766312442847266 0 0 0 0 -145.62651107456986 -53.446171936312567 0 -53.446171936312567 5.0777768479129008 0 0 0 0 -59.096106330714974 16.906824944759137 0 16.906824944759137 12.915248892666568 0 0 0 0 -80.979160364125164 8.9714490395041366 0 8.9714490395041366 14.588551710166939 0 0 0 0 -72.744938010902843 -38.580860761960139 0 -38.580860761960139 4.8606139851908665 0 0 0 0 -84.59031435434008 -30.902473557618237 0 -30.902473557618237 2.466109906337806 0 0 0 0 -40.323598701128503 -24.776745082934212 0 -24.776745082934212 -2.1948125302478729 0 0 0 0 -38.352840035218151 -20.368854628160591 0 -20.368854628160591 2.3019566813090933 0 0 0 0 -35.559033797791926 -20.007939065184473 0 -20.007939065184473 -4.4214963805698062 0 0 0 0 -16.893623198764544 12.238324150612243 0 12.238324150612243 1.7928613333060639 0 0 0 0 0.15380573927788016 -46.737970160212555 0 -46.737970160212555 82.673853325439268 0 0 0 0 -2.6349384406723431 -3.604907283813418 0 -3.604907283813418 -3.665081489675881 0 0 0 0 -5.9709786417770374 -7.3067543733743605 0 -7.3067543733743605 -2.5942216020066553 0 0 0 0 10.474097262504074 -0.046908716172993081 0 -0.046908716172993081 -48.552216334717741 0 0 0 0 0.54610427912848536 -1.7366258784340971 0 -1.7366258784340971 0.91827979153549677 0 0 0 0 2.4276189900973009 0.74147993555284231 0 0.74147993555284231 0.012709506413196792 0 0 0 0 125.8488079079907 -78.847457005307206 0 -78.847457005307206 -204.51442968414631 0 0 0 0 -16.999475733544386 -76.257822345920431 0 -76.257822345920431 -115.51468548184494 0 0 0 0 11.788934147934924 -6.3106330578370944 0 -6.3106330578370944 -15.198117179895235 0 0 0 0 139.87972357228864 80.546495675944243 0 80.546495675944243 -710.79012512727968 0 0 0 0 2.9042277770780345 1.7834901947366593 0 1.7834901947366593 0.26542091602160944 0 0 0 0 7.8965730631971383 -368.78030005514393 0 -368.78030005514393 -237.84899533787029 0 0 0 0 -23.25254782976117 -29.35377241610513 0 -29.35377241610513 198.31205693008178 0 0 0 0 273.28808615979506 -119.92323772443797 0 -119.92323772443797 -386.0631056890943 0 0 0 0 -1.0262203967136259 -0.98979308017389656 0 -0.98979308017389656 -0.11123830145976932 0 0 0 0 0.14716479403878183 -382.67789535618533 0 -382.67789535618533 424.42124034842618 0 0 0 0 101.42493945670321 -319.248278098014 0 -319.248278098014 241.62947216908651 0 0 0 0 206.5913224356118 -180.05287774099338 0 -180.05287774099338 -188.5183622428649 0 0 0 0 91.491741809273663 -230.78327808204813 0 -230.78327808204813 117.62208302524004 0 0 0 0 -1.336731536905603 -2.4104927630343411 0 -2.4104927630343411 -1.0464624667179088 0 0 0 0 106.05518765132001 -156.82280454277998 0 -156.82280454277998 143.84640911755196 0 0 0 0 4.0733404554193839 -265.46166920757241 0 -265.46166920757241 224.76601533370103 0 0 0 0 -0.76965583527248782 -0.97299333645202424 0 -0.97299333645202424 -0.3524380731678125 0 0 0 0 -7.7507933918677736 -180.89640659681663 0 -180.89640659681663 447.82072001757024 0 0 0 0 162.16474895859938 -60.408913079693775 0 -60.408913079693775 -341.72324072952142 0 0 0 0 106.32448511605617 -88.335575584854269 0 -88.335575584854269 -96.448829266245411 0 0 0 0 86.368920603883453 -111.25161337285112 0 -111.25161337285112 -111.00235444063946 0 0 0 0 154.93450213839606 -75.946862169634187 0 -75.946862169634187 18.465096559547419 0 0 0 0 0.7273513025325542 0.20532812273072309 0 0.20532812273072309 0.17101458490208188 0 0 0 0 60.201473995271954 -221.03053776180559 0 -221.03053776180559 139.79542092209431 0 0 0 0 91.153371653839713 -85.167868108850143 0 -85.167868108850143 55.835647041915763 0 0 0 0 102.4402755475603 -48.858525403303702 0 -48.858525403303702 72.07739919060532 0 0 0 0 130.95920551594463 -84.154658829250366 0 -84.154658829250366 45.917340127577972 0 0 0 0 84.404329586115637 -69.589919498292602 0 -69.589919498292602 50.668775759389973 0 0 0 0 4.1821910852231667 -196.23949941902083 0 -196.23949941902083 -52.919141388197204 0 0 0 0 55.691537703123686 -158.59590527420198 0 -158.59590527420198 88.06641225522344 0 0 0 0 61.489086817706266 -183.26878055470797 0 -183.26878055470797 192.64539852113012 0 0 0 0 114.65029422823864 -110.20502087022851 0 -110.20502087022851 127.51620352436385 0 0 0 0 129.87011962208635 -90.617088570309079 0 -90.617088570309079 25.266796826503196 0 0 0 0 103.5114130235379 -92.650850851323867 0 -92.650850851323867 123.47123563038485 0 0 0 0 140.1391830655939 -172.13915916940812 0 -172.13915916940812 151.2440801536286 0 0 0 0 1.264784368510945 0.6446407468032902 0 0.6446407468032902 0.40500684400842957 0 0 0 0 153.66719725233997 -160.00562423754559 0 -160.00562423754559 153.10158858999421 0 0 0 0 87.039854545597336 -59.612419124233384 0 -59.612419124233384 109.50981318277263 0 0 0 0 129.6100010281807 -97.97397121532822 0 -97.97397121532822 70.756548184049279 0 0 0 0 148.98228571301479 -51.797136266878397 0 -51.797136266878397 73.744385431825322 0 0 0 0 51.812725944630074 66.394750166072754 0 66.394750166072754 -61.661212976086063 0 0 0 0 0.7113179640010685 0.27564693020500286 0 0.27564693020500286 0.20628427052685083 0 0 0 0 -13.941063661921362 -51.714625268957661 0 -51.714625268957661 148.55595376256679 0 0 0 0 73.03032844120753 -102.93675897685944 0 -102.93675897685944 16.5397093820593 0 0 0 0 183.84342931925494 -145.69559996748876 0 -145.69559996748876 100.04671762586895 0 0 0 0 211.40407176049484 -78.00303087140037 0 -78.00303087140037 -45.764984465351517 0 0 0 0 83.363065552217449 -59.501471603623486 0 -59.501471603623486 31.136787770156843 0 0 0 0 80.919789927432475 -11.381088847586014 0 -11.381088847586014 65.290146536500288 0 0 0 0 230.19543600829638 167.38552626980913 0 167.38552626980913 -10.18419428411471 0 0 0 0 273.12240844662301 -343.1825224937445 0 -343.1825224937445 329.78895953296524 0 0 0 0 -69.05627876802464 94.652481360502861 0 94.652481360502861 -140.46483082393979 0 0 0 0 105.09452516038436 -265.56969393055715 0 -265.56969393055715 201.74846343879472 0 0 0 0 -58.948629542974231 -91.934143051153114 0 -91.934143051153114 89.909731015699435 0 0 0 0 456.80359194090124 -145.90100906651355 0 -145.90100906651355 -37.004019584184789 0 0 0 0 73.026823034633708 -126.99648041656656 0 -126.99648041656656 73.816205908141455 0 0 0 0 93.111173472512746 -85.707087630462865 0 -85.707087630462865 28.860887465284122 0 0 0 0 30.31963890782572 -51.452678502332674 0 -51.452678502332674 -6.0195110482582095 0 0 0 0 7.028304453500823 -90.864851139673192 0 -90.864851139673192 79.784022011288471 0 0 0 0 0.20616738633592036 0.33862808031469172 0 0.33862808031469172 -0.12146956401911613 0 0 0 0 9.5497670711411047 -17.396746858926463 0 -17.396746858926463 -47.50427465123812 0 0 0 0 -9.2727157154149609 -14.805658433543613 0 -14.805658433543613 -19.693608763495803 0 0 0 0 24.866854301253625 -66.014382880954599 0 -66.014382880954599 43.535378738304644 0 0 0 0 78.25061416378594 -65.015091447492978 0 -65.015091447492978 18.663331252145326 0 0 0 0 126.43377906322439 -86.144975439339589 0 -86.144975439339589 14.30196092562619 0 0 0 0 46.786587982023775 -69.046675120431701 0 -69.046675120431701 40.906466229439502 0 0 0 0 213.69729202588087 -123.13078735350467 0 -123.13078735350467 10.613005170333054 0 0 0 0 123.79953992317314 -96.221104522361202 0 -96.221104522361202 16.497422710472165 0 0 0 0 205.84912054052074 -70.230040459102213 0 -70.230040459102213 21.62798359522094 0 0 0 0 83.06621092446585 -85.77905750366881 0 -85.77905750366881 57.644253566889347 0 0 0 0 99.422155831991404 -54.74932290800416 0 -54.74932290800416 -17.428914633917884 0 0 0 0 21.687803393964714 12.727739264706543 0 12.727739264706543 -74.083444943033101 0 0 0 0 11.366706137745496 -21.548510780658489 0 -21.548510780658489 -13.920864546907978 0 0 0 0 -4.0084239755560702 -11.058951581630708 0 -11.058951581630708 0.072719412856713461 0 0 0 0 9.0399434514984023 -29.482906613210844 0 -29.482906613210844 -4.2071767008264942 0 0 0 0 10.379813020248548 -21.281286940179143 0 -21.281286940179143 26.593258561950734 0 0 0 0 60.032464457182869 -49.512960243510861 0 -49.512960243510861 10.12909353942905 0 0 0 0 -7.3355885310957092 -9.7715977026518885 0 -9.7715977026518885 15.230982453866659 0 0 0 0 5.986104068953864 -15.45582854469194 0 -15.45582854469194 -30.893620107510287 0 0 0 0 -1.1679015346690278 -2.1183856807877532 0 -2.1183856807877532 -5.4552887993883576 0 0 0 0 -7.5474180243927549 -16.772993627942242 0 -16.772993627942242 -30.465108122788479 0 0 0 0 -5.8063171787956662 -9.4251661136555143 0 -9.4251661136555143 -14.679477449635378 0 0 0 0 0.2461565447244709 -1.2413042204040678 0 -1.2413042204040678 -5.504773547215339 0 0 0 0 -0.92947600974002853 -15.567004655641995 0 -15.567004655641995 -26.039475155538582 0 0 0 0 4.3154055790582788 -12.23064123201226 0 -12.23064123201226 -24.098483515794669 0 0 0 0 -10.93752355088327 4.7569482945259551 0 4.7569482945259551 -3.978825281974423 0 0 0 0 2.7163108486565761 -13.565633511476108 0 -13.565633511476108 -10.109561610375522 0 0 0 0 0.25329518631588144 -5.7136434112969425 0 -5.7136434112969425 -17.512388967633569 0 0 0 0 1.433676822372945 -5.1857237800758185 0 -5.1857237800758185 -32.857944922252045 0 0 0 0 -6.4834752630849835 -9.4666124007395069 0 -9.4666124007395069 -19.361826957425592 0 0 0 0 2.8872016417662962 -9.3257320892437292 0 -9.3257320892437292 -23.465479601517345 0 0 0 0 0.0036366593230923172 -11.498398623096705 0 -11.498398623096705 -17.312515142265966 0 0 0 0 -0.0046383406188397203 -11.32322236175105 0 -11.32322236175105 -5.881413635512672 0 0 0 0 0.18668220421750448 -8.0233373665163299 0 -8.0233373665163299 -10.487261904864454 0 0 0 0 -4.8146988546620406 -7.501900729391167 0 -7.501900729391167 -10.996724029058774 0 0 0 0 4.7117905558916391 -16.882651605093088 0 -16.882651605093088 1.4037314419547329 0 0 0 0 -3.8429957332639617 -5.6225482878194057 0 -5.6225482878194057 -7.3366690648764106 0 0 0 0 8.283885768170876 -22.57484467458471 0 -22.57484467458471 -11.455363408917947 0 0 0 0 3.0605427238879201 -9.1181415336227474 0 -9.1181415336227474 -4.3288602161346716 0 0 0 0 -172.13132646586746 41.93318644272108 0 41.93318644272108 9.4631320582282115 0 0 0 0 -119.49076629267074 -42.071605523056178 0 -42.071605523056178 92.836476210249657 0 0 0 0 -45.955150297450018 10.477132631922359 0 10.477132631922359 -11.640351683400695 0 0 0 0 -149.30147153526832 22.734466852439198 0 22.734466852439198 53.508882820473445 0 0 0 0 -138.14074315089965 -29.41271848150609 0 -29.41271848150609 14.389300239109389 0 0 0 0 -124.74824926791189 -12.509472008587409 0 -12.509472008587409 -150.39536209417747 0 0 0 0 -192.1283468778056 -64.028382012920247 0 -64.028382012920247 -37.13861221462048 0 0 0 0 -193.83167264343501 20.965865852305797 0 20.965865852305797 -288.34213903887576 0 0 0 0 -311.72637760885846 -95.968584793211448 0 -95.968584793211448 -40.4688028259813 0 0 0 0 -116.4009057319945 -147.52679274383706 0 -147.52679274383706 -262.94963541561629 0 0 0 0 275.10653157369961 -130.11906556217241 0 -130.11906556217241 -175.45411433259551 0 0 0 0 -207.15680233194144 -385.23375596909955 0 -385.23375596909955 -299.18861136866781 0 0 0 0 -86.036189472459228 -61.17688411237782 0 -61.17688411237782 139.88950094975098 0 0 0 0 -87.037778217949381 -111.54882898523852 0 -111.54882898523852 -41.370756561118199 0 0 0 0 -73.713129575746279 -47.511692048352302 0 -47.511692048352302 96.122488707918819 0 0 0 0 0.25335377713522433 -2.5509602408959253 0 -2.5509602408959253 -7.9576414093726004 0 0 0 0 144.36446864811296 -208.0139427543952 0 -208.0139427543952 123.94791906367169 0 0 0 0 474.82974481323799 -222.18465887178672 0 -222.18465887178672 -118.6276208300892 0 0 0 0 363.5735280000481 138.3044680564272 0 138.3044680564272 -205.86190328746324 0 0 0 0 -8.6067312103932636 -95.667867698186456 0 -95.667867698186456 86.147486003311769 0 0 0 0 0.69805469295548761 -0.52608857381290619 0 -0.52608857381290619 -4.6882584092588919 0 0 0 0 -65.369689291022951 -36.336613369078009 0 -36.336613369078009 44.641343614250701 0 0 0 0 -97.497635457872093 -57.709670800789127 0 -57.709670800789127 83.439707658920952 0 0 0 0 -108.94893747562674 -34.034838392625488 0 -34.034838392625488 84.999005536394634 0 0 0 0 -77.524343279685127 -56.440838126900303 0 -56.440838126900303 78.277560718512177 0 0 0 0 -84.279717114286541 -15.354045573749318 0 -15.354045573749318 61.140709752247858 0 0 0 0 -55.73350097795992 -35.510444675983535 0 -35.510444675983535 50.75889756481638 0 0 0 0 -84.349785787562723 -63.404011001704475 0 -63.404011001704475 34.350381127079515 0 0 0 0 -41.771712995934649 -41.062013207459358 0 -41.062013207459358 27.186223392565669 0 0 0 0 -4.721545022133796 -8.6969276937541053 0 -8.6969276937541053 35.070242766681758 0 0 0 0 9.6840490138201858 -2.9667915902437016 0 -2.9667915902437016 25.59422458940378 0 0 0 0 7.9461298628512793 -14.184759968296177 0 -14.184759968296177 22.418768035719374 0 0 0 0 5.9827952400664799 -1.5755119252175973 0 -1.5755119252175973 17.481579351750497 0 0 0 0 -51.599037464904541 -5.6616401134194803 0 -5.6616401134194803 35.428387005694276 0 0 0 0 -49.060821977182059 -27.802825255457265 0 -27.802825255457265 50.958538131018202 0 0 0 0 3.7604097621006076 -10.781577026799368 0 -10.781577026799368 22.713103616893932 0 0 0 0 7.6992813586693956 -9.3279783358998429 0 -9.3279783358998429 22.120268944518102 0 0 0 0 4.7016599869457423 -6.5643852696384783 0 -6.5643852696384783 19.701388316946577 0 0 0 0 7.9348287732718745 -8.4283914079182978 0 -8.4283914079182978 22.508646414516079 0 0 0 0 4.0603007736700789 -6.774595861632676 0 -6.774595861632676 15.256823467487427 0 0 0 0 10.971278842411266 8.5580872742284555 0 8.5580872742284555 17.466668194926115 0 0 0 0 7.9624961531662848 -11.449990481435634 0 -11.449990481435634 22.818789221166526 0 0 0 0 3.3546512251910343 1.2095924053510387 0 1.2095924053510387 2.3305412959411385 0 0 0 0 152.19373892188742 -161.74377635171254 0 -161.74377635171254 156.28038396128795 0 0 0 0 207.16295676218579 -71.663955489190812 0 -71.663955489190812 152.05756254798325 0 0 0 0 95.579405224133552 -126.87420851016122 0 -126.87420851016122 297.1486901995122 0 0 0 0 337.75829540041741 -248.21696538500692 0 -248.21696538500692 158.96898264172034 0 0 0 0 1.4064950311748419 1.1475171852972181 0 1.1475171852972181 1.7465164303973815 0 0 0 0 138.63131294718914 -202.94489308753828 0 -202.94489308753828 390.95416655265581 0 0 0 0 4.5597531477799578 4.4250135208455106 0 4.4250135208455106 7.0370987640820282 0 0 0 0 6.9969599824325996 -6.5994063083212495 0 -6.5994063083212495 16.731889294879352 0 0 0 0 141.55941960833115 -217.87883666118159 0 -217.87883666118159 218.08318533264173 0 0 0 0 93.507021712728601 -133.49910360510876 0 -133.49910360510876 259.40835775267578 0 0 0 0 147.98909259793436 -133.87393250010382 0 -133.87393250010382 71.617300132103992 0 0 0 0 248.48785654870153 -196.62860987079239 0 -196.62860987079239 161.56504229502025 0 0 0 0 99.107512614034931 -171.15058964690525 0 -171.15058964690525 171.89568056466828 0 0 0 0 74.892773080384359 -44.918952710609119 0 -44.918952710609119 161.9145748111514 0 0 0 0 -47.759331094748632 2.0300475903004553 0 2.0300475903004553 19.040627275833913 0 0 0 0 3.917558586191717 10.649801291216846 0 10.649801291216846 1.6357993131223338 0 0 0 0 -17.709110019437503 -11.23660524135812 0 -11.23660524135812 5.6956657253302865 0 0 0 0 -43.762588907806276 57.4005536842011 0 57.4005536842011 57.967430743834484 0 0 0 0 -159.57723341943347 -310.26201546593438 0 -310.26201546593438 200.67806336487502 0 0 0 0 54.336016409921285 -90.714585719244724 0 -90.714585719244724 241.23054081112605 0 0 0 0 227.91625821484922 -247.81130454930189 0 -247.81130454930189 162.72224251828357 0 0 0 0 1.9263022733919541 1.4160820149153537 0 1.4160820149153537 1.3579729670965897 0 0 0 0 128.67733855021652 -19.546279501662411 0 -19.546279501662411 20.854921203731465 0 0 0 0 -201.52458035673044 -249.78071608301161 0 -249.78071608301161 90.272642777167448 0 0 0 0 75.100447103286569 53.697196005239675 0 53.697196005239675 -112.89893750592637 0 0 0 0 1.3841544458215935 -0.16634647510128531 0 -0.16634647510128531 -0.48871869948994373 0 0 0 0 -25.615142283553723 -94.963893708035357 0 -94.963893708035357 139.37583897662125 0 0 0 0 144.70529456131771 -47.228475257063565 0 -47.228475257063565 -35.516888096980438 0 0 0 0 0.36101573312922142 -1.4503379345346303 0 -1.4503379345346303 -1.3836322638858132 0 0 0 0 -84.660978093495942 -161.8506683405526 0 -161.8506683405526 14.861886675793812 0 0 0 0 -54.734452417615103 67.406769886268876 0 67.406769886268876 19.535900034197311 0 0 0 0 94.681116104835382 -28.317692670048473 0 -28.317692670048473 -128.77307350770388 0 0 0 0 89.664061552997737 -2.198858178617229 0 -2.198858178617229 -328.24944184610013 0 0 0 0 -94.392093730155466 -234.31651302152295 0 -234.31651302152295 -405.89425731428128 0 0 0 0 -67.546931137232605 -453.39863373553658 0 -453.39863373553658 -1057.0476093857394 0 0 0 0 -395.89052350495513 -286.3634515919689 0 -286.3634515919689 22.441668268706053 0 0 0 0 0.032864531100926797 -1.2121006304639401 0 -1.2121006304639401 -1.2910071607067817 0 0 0 0 -57.514365464761795 -290.81134524945674 0 -290.81134524945674 -737.1150687215013 0 0 0 0 -581.78345009245095 -61.351077693218031 0 -61.351077693218031 -832.89873666203516 0 0 0 0 -758.74626111980615 -430.62799732155645 0 -430.62799732155645 -564.84548806581006 0 0 0 0 -256.71908998436811 -553.22010849633079 0 -553.22010849633079 -337.23640272159901 0 0 0 0 83.210797248786548 -173.1150697732628 0 -173.1150697732628 -663.08383758269883 0 0 0 0 -56.518658515389689 -314.54052464297502 0 -314.54052464297502 -441.0382054141819 0 0 0 0 -163.65279127701069 -408.25298981214291 0 -408.25298981214291 -516.03953226274598 0 0 0 0 -166.88840382722447 -362.39926424250717 0 -362.39926424250717 -526.91933166835952 0 0 0 0 -207.87561351298064 -563.60036279994165 0 -563.60036279994165 -878.25095140389351 0 0 0 0 -618.98600572536816 -561.35532076075015 0 -561.35532076075015 -290.7059167304833 0 0 0 0 -109.98622978701314 -197.31089905529643 0 -197.31089905529643 -194.94167413579999 0 0 0 0 -24.357002886303235 -180.20106829883571 0 -180.20106829883571 -270.45767961363163 0 0 0 0 -413.61733550652571 -419.5146046948912 0 -419.5146046948912 -307.12220055074431 0 0 0 0 -351.37723733214079 -89.844874018450355 0 -89.844874018450355 15.134446168263821 0 0 0 0 -113.78946216877921 117.02216618979844 0 117.02216618979844 54.484013954435795 0 0 0 0 -125.5986747618299 0.45137686257294263 0 0.45137686257294263 -18.127920157605331 0 0 0 0 -146.28132720506983 -26.192262025987475 0 -26.192262025987475 172.73323152488229 0 0 0 0 -29.359040558614652 16.746106240459085 0 16.746106240459085 85.954818593767413 0 0 0 0 -6.0330339308129624 18.054494971558597 0 18.054494971558597 21.145185990845675 0 0 0 0 -79.912459034647327 60.623025921457156 0 60.623025921457156 47.950618536438924 0 0 0 0 -121.58346486132359 22.152520005898623 0 22.152520005898623 65.154738101018665 0 0 0 0 -307.17443630791968 -177.62051718778093 0 -177.62051718778093 63.809490639863725 0 0 0 0 -12.863252031558659 -39.560123151008156 0 -39.560123151008156 80.82349285498276 0 0 0 0 -10.548090790369315 -49.014504095583106 0 -49.014504095583106 77.729307894936937 0 0 0 0 24.006706086394843 -27.517278933994021 0 -27.517278933994021 39.62416184430549 0 0 0 0 -4.0239900948217837 -12.70233646869201 0 -12.70233646869201 32.659061861937516 0 0 0 0 -30.744609079818474 -32.026905148572041 0 -32.026905148572041 63.761763884198444 0 0 0 0 15.786616509503801 -18.539448913295018 0 -18.539448913295018 45.116699172143854 0 0 0 0 91.006733203510521 -27.024253036697701 0 -27.024253036697701 46.073773607600288 0 0 0 0 -11.558561891117279 9.6852841448514937 0 9.6852841448514937 57.79052201169543 0 0 0 0 53.477133085834794 -0.010086378611958935 0 -0.010086378611958935 50.31700083258329 0 0 0 0 23.878700308996486 16.174568905113119 0 16.174568905113119 57.203400976756711 0 0 0 0 41.011039056058507 23.830073415738298 0 23.830073415738298 57.571817072283011 0 0 0 0 137.63537128517055 10.32618787199317 0 10.32618787199317 57.325945095919451 0 0 0 0 4.519049977126997 -39.686938270742758 0 -39.686938270742758 109.96103894764019 0 0 0 0 3.8236841206307872 -34.403538123387534 0 -34.403538123387534 71.716358576701168 0 0 0 0 36.030518026607751 -78.006201168060215 0 -78.006201168060215 149.43540832764847 0 0 0 0 -17.947427650622558 -91.99027010638747 0 -91.99027010638747 -190.27649419579939 0 0 0 0 -13.34768415772939 -6.057714611966766 0 -6.057714611966766 6.966848827246797 0 0 0 0 0.53445650111976306 -1.8307566325902815 0 -1.8307566325902815 -0.83360330188588638 0 0 0 0 -24.650631446580519 -317.72497696344908 0 -317.72497696344908 -756.76573645355711 0 0 0 0 -5.4047807816968998 168.26592074358177 0 168.26592074358177 -448.3939564711709 0 0 0 0 -166.0239936781727 -405.58550093529448 0 -405.58550093529448 -484.6558109087398 0 0 0 0 -197.79130708718731 -410.89325203706539 0 -410.89325203706539 -333.74743834566834 0 0 0 0 -128.77770375426917 -302.27807924616081 0 -302.27807924616081 -302.38396615300007 0 0 0 0 -36.774900838179747 -161.36421877234352 0 -161.36421877234352 -526.63435374796427 0 0 0 0 -1.7462309134643874 -76.816419469368611 0 -76.816419469368611 -332.59332066438947 0 0 0 0 -167.74144667204382 -270.60600289522063 0 -270.60600289522063 -299.20204842260864 0 0 0 0 -5.986750044454908 -2.0975587309008716 0 -2.0975587309008716 0.63719244956169252 0 0 0 0 28.909577425336465 -669.98072011872136 0 -669.98072011872136 -717.09094158205517 0 0 0 0 -24.440801471093437 -431.66297698832204 0 -431.66297698832204 -817.44343763189374 0 0 0 0 -192.39812201491804 -510.96771655843168 0 -510.96771655843168 -641.93325880452539 0 0 0 0 -281.54312137221859 -688.01844650761086 0 -688.01844650761086 -714.46125182774995 0 0 0 0 -168.4862379929109 -452.10332912295962 0 -452.10332912295962 -478.4009539835406 0 0 0 0 -169.62829583769781 -440.32841177964656 0 -440.32841177964656 -475.02080817863271 0 0 0 0 -164.24697929932154 -526.78266081068068 0 -526.78266081068068 -643.4863155866426 0 0 0 0 -266.35926796367858 -571.12189576018136 0 -571.12189576018136 -416.64417359220533 0 0 0 0 -231.03242788056377 -496.02908702755849 0 -496.02908702755849 -565.17855524542847 0 0 0 0 -321.71324871411343 -493.64719410271391 0 -493.64719410271391 -54.338590289744388 0 0 0 0 -191.59573829273722 -210.22762096971201 0 -210.22762096971201 -45.02964380964923 0 0 0 0 -203.25764312025422 -313.01717626680284 0 -313.01717626680284 -236.56747828687594 0 0 0 0 -244.89848115375207 -462.06827051881828 0 -462.06827051881828 -350.48716645517834 0 0 0 0 -240.21809291901445 -369.86332948914605 0 -369.86332948914605 -161.10285139625103 0 0 0 0 -249.28316874772281 -488.72471896869956 0 -488.72471896869956 -327.13308206926013 0 0 0 0 -201.31059082903084 -399.62867158796598 0 -399.62867158796598 -334.16958187561056 0 0 0 0 -235.05270321624994 -386.43575597814015 0 -386.43575597814015 -298.05599964995275 0 0 0 0 -220.97250190420891 -407.04616503044008 0 -407.04616503044008 -268.51473563230138 0 0 0 0 -177.34656485448068 -201.34994473663164 0 -201.34994473663164 -385.80878481037962 0 0 0 0 -201.33523364872235 -204.01716691617708 0 -204.01716691617708 -261.57194826450632 0 0 0 0 -227.91393362321833 -213.70318510041034 0 -213.70318510041034 -4.8013538417453674 0 0 0 0 -212.91241527925013 -500.65545296272285 0 -500.65545296272285 -658.66996645722975 0 0 0 0 -27.285464917426907 -294.49598721769223 0 -294.49598721769223 -429.72743262365111 0 0 0 0 -643.99834710262076 -236.98539784782679 0 -236.98539784782679 -266.69299403832571 0 0 0 0 -250.22063934290782 -25.858872418416013 0 -25.858872418416013 -724.62142513900835 0 0 0 0 -513.00660278719988 -175.7097067214338 0 -175.7097067214338 34.545583338156575 0 0 0 0 -354.42992732686253 -507.19724006361412 0 -507.19724006361412 -464.93352212442051 0 0 0 0 -124.59915905498201 -217.13100940005097 0 -217.13100940005097 -236.76379397087112 0 0 0 0 -224.09082824977122 -309.64711379597236 0 -309.64711379597236 -201.31159543473768 0 0 0 0 27.47710868154536 11.24601345852534 0 11.24601345852534 -58.909461912307052 0 0 0 0 2.7577449213022192 -44.810422438170008 0 -44.810422438170008 -62.201823928047816 0 0 0 0 -0.2765359435239958 -1.7592924168155903 0 -1.7592924168155903 -4.7303130417422032 0 0 0 0 47.938715084463183 65.563296105910013 0 65.563296105910013 -707.99054712132136 0 0 0 0 -18.330285357209505 21.823799754387437 0 21.823799754387437 -106.76322841269211 0 0 0 0 -0.2528500627237662 -6.026741067083961 0 -6.026741067083961 -10.291630049160638 0 0 0 0 90.017865782501758 27.069386548268085 0 27.069386548268085 2.8658276832629781 0 0 0 0 45.695277606933814 -40.172184295274292 0 -40.172184295274292 -70.549190227851795 0 0 0 0 72.980746931010799 -73.263216533057857 0 -73.263216533057857 -57.779870709466195 0 0 0 0 3.1858529477285629 -14.278174562511705 0 -14.278174562511705 -5.4478751592514225 0 0 0 0 1.658434132754337 -7.7370977066148043 0 -7.7370977066148043 -10.051380612198045 0 0 0 0 3.2646578987145034 -6.5007931163365953 0 -6.5007931163365953 -7.0129727489831097 0 0 0 0 -136.54035602975637 -39.624068165940116 0 -39.624068165940116 -20.597790967483661 0 0 0 0 2.3357588769326014 -3.3380262057554759 0 -3.3380262057554759 0.8813352100288917 0 0 0 0 -1.6918604195961962 -15.678423450133778 0 -15.678423450133778 48.7779000842919 0 0 0 0 -245.66558222558524 -185.37818334077292 0 -185.37818334077292 -166.66482522217848 0 0 0 0 -109.36893024732854 -7.1496118384584406 0 -7.1496118384584406 -68.053111294353585 0 0 0 0 -215.77027901203837 -53.661157445749268 0 -53.661157445749268 -27.91355691890567 0 0 0 0 -1.2564595557778375 -47.945284887917296 0 -47.945284887917296 36.229465074010477 0 0 0 0 -1.3432028282986721 -14.130574373235504 0 -14.130574373235504 23.905585516689825 0 0 0 0 -1.0426774489353647 -14.267283540895743 0 -14.267283540895743 4.4031627991710254 0 0 0 0 -8.9337067083642978 -36.725930574658719 0 -36.725930574658719 34.545330301629292 0 0 0 0 -12.04671237513142 -3.8174803169716611 0 -3.8174803169716611 20.872533714156333 0 0 0 0 -4.7228205407227506 -44.231863898557094 0 -44.231863898557094 65.946596302341277 0 0 0 0 -0.77374056308217121 -24.563659953248944 0 -24.563659953248944 6.1246015963184206 0 0 0 0 -19.970496651774738 -53.542662131172619 0 -53.542662131172619 68.517691257733532 0 0 0 0 0.6180810246447237 -38.229310732515685 0 -38.229310732515685 31.375025834889861 0 0 0 0 -11.552768412744626 -51.581754138103861 0 -51.581754138103861 66.147053474735799 0 0 0 0 2.482688354565397 -21.40128104815502 0 -21.40128104815502 -2.4519181375586494 0 0 0 0 4.0113394650798 -42.658587473496937 0 -42.658587473496937 30.783842418654785 0 0 0 0 -3.9719527846498295 -21.25610010565817 0 -21.25610010565817 9.5903069117587414 0 0 0 0 0.77093575880280696 -35.032774818903818 0 -35.032774818903818 45.462976054061983 0 0 0 0 4.0536367383247125 -19.68024236050519 0 -19.68024236050519 0.49291775445271924 0 0 0 0 4.2592235677366261 -36.064884088375038 0 -36.064884088375038 61.224778771693991 0 0 0 0 3.6948400073203942 -14.054028077265642 0 -14.054028077265642 -4.6170020188321974 0 0 0 0 4.1670577494660392 -40.47810218274617 0 -40.47810218274617 24.284006077461015 0 0 0 0 5.6541089430102147 -22.41763303366406 0 -22.41763303366406 -2.7734822438915216 0 0 0 0 5.5912835564128329 -21.170154919239636 0 -21.170154919239636 -10.068543829721953 0 0 0 0 11.059631836715852 -30.03683578023724 0 -30.03683578023724 -2.5420444003386589 0 0 0 0 5.2601843454831396 -24.553262969786743 0 -24.553262969786743 -0.88987538015908285 0 0 0 0 2.9879901740714558 -36.137182251886315 0 -36.137182251886315 16.304709888234356 0 0 0 0 5.8076910885259565 -29.098799847520255 0 -29.098799847520255 11.359415968000185 0 0 0 0 1.127817727003233 -37.516855883339829 0 -37.516855883339829 -0.26225086300185119 0 0 0 0 7.0795917811474496 -40.265254531508688 0 -40.265254531508688 11.74472435771542 0 0 0 0 -45.490767915835022 -38.698210583461332 0 -38.698210583461332 180.22743551270469 0 0 0 0 -3.7633563521373148 -45.887004191572224 0 -45.887004191572224 17.589669006924794 0 0 0 0 -10.648260319445399 -61.942119234067604 0 -61.942119234067604 -11.986425911763945 0 0 0 0 -12.429551766545046 -54.822064261736159 0 -54.822064261736159 -4.8963064118070179 0 0 0 0 0.95766684069531038 -56.508178565867638 0 -56.508178565867638 -26.762723160070891 0 0 0 0 11.063914982980023 -28.962519790068157 0 -28.962519790068157 -12.179254160316038 0 0 0 0 -1.544637115104706 -45.620309311123492 0 -45.620309311123492 -4.4435954352572935 0 0 0 0 37.704538221680963 -27.836025323357489 0 -27.836025323357489 -24.568579180685987 0 0 0 0 15.844228727979228 -30.589841480623175 0 -30.589841480623175 10.963017195083729 0 0 0 0 -16.43499026743666 -59.336283753350017 0 -59.336283753350017 -37.545521597572815 0 0 0 0 -31.673979112536472 -21.083378675228232 0 -21.083378675228232 -58.047805577966983 0 0 0 0 -8.9538195229063859 -45.989165637630315 0 -45.989165637630315 26.00826578001827 0 0 0 0 -105.72523628851195 -44.884943599141479 0 -44.884943599141479 -24.170243776252391 0 0 0 0 112.50193794793449 -201.2265934677489 0 -201.2265934677489 -84.555169520714117 0 0 0 0 84.009757936696587 -4.2842818586050839 0 -4.2842818586050839 -122.52030065787403 0 0 0 0 92.200637469097273 -103.55667367924354 0 -103.55667367924354 -45.553461585943296 0 0 0 0 97.023967528926732 -55.523401029708111 0 -55.523401029708111 24.213764331721904 0 0 0 0 126.32695762670483 11.023102432204723 0 11.023102432204723 -1.2979626776605073 0 0 0 0 -0.25858667367720045 -22.840461800865342 0 -22.840461800865342 -71.393694968855925 0 0 0 0 1.0249975538689853 -2.1288371084315507 0 -2.1288371084315507 -4.659236491368878 0 0 0 0 -37.929706557028112 9.4327255103562493 0 9.4327255103562493 4.9218690240959404 0 0 0 0 5.017758690972201 -7.4166361990987753 0 -7.4166361990987753 -8.205570522650909 0 0 0 0 -167.44560670548162 -0.17597468210806255 0 -0.17597468210806255 726.79676406651197 0 0 0 0 -49.706972513154476 -50.635631602838203 0 -50.635631602838203 -10.767025988843184 0 0 0 0 -100.33635218763811 -91.986312175558851 0 -91.986312175558851 183.96794434398907 0 0 0 0 -74.549451890915748 -100.63200107126005 0 -100.63200107126005 90.156337708522187 0 0 0 0 -73.8347923847723 -114.833280433244 0 -114.833280433244 75.840981216528235 0 0 0 0 -53.622901220100175 -75.176912895643909 0 -75.176912895643909 127.36594924065139 0 0 0 0 -87.319013732212625 -120.29784714078414 0 -120.29784714078414 123.20453629828626 0 0 0 0 -84.883714731349755 -64.723384212387828 0 -64.723384212387828 168.01659809893317 0 0 0 0 4.5860275229752006 -40.461008440805927 0 -40.461008440805927 76.150164299586322 0 0 0 0 -41.33893323848315 -35.795072053937474 0 -35.795072053937474 128.16398733714232 0 0 0 0 -38.103652467892971 -115.4417105244429 0 -115.4417105244429 34.631420388973311 0 0 0 0 -21.638031669095653 -87.388997858920447 0 -87.388997858920447 28.126436531354557 0 0 0 0 -39.562651087712332 -54.127309373741213 0 -54.127309373741213 -3.7754224685686095 0 0 0 0 -42.197031667972624 -100.87889168333368 0 -100.87889168333368 5.4263441257228351 0 0 0 0 143.45646472524095 -68.140096475643077 0 -68.140096475643077 125.74609117996442 0 0 0 0 4.3571771274603464 -81.854647664701531 0 -81.854647664701531 0.36448601557276561 0 0 0 0 -23.801037549957982 -120.9803554818609 0 -120.9803554818609 -6.6556468694966497 0 0 0 0 -59.520166225582216 -79.126295675583606 0 -79.126295675583606 -8.6191800810811401 0 0 0 0 9.720889580998346 -3.7419040289170624 0 -3.7419040289170624 3.4603997603379106 0 0 0 0 39.952328166171725 -27.93083589722616 0 -27.93083589722616 9.6268823968220048 0 0 0 0 1.1344571830268251 -148.49701933833694 0 -148.49701933833694 -75.839963253443784 0 0 0 0 -19.824651932456618 -97.413933431598707 0 -97.413933431598707 -76.257131213353205 0 0 0 0 -4.430354068041197 -132.86579927327693 0 -132.86579927327693 -87.491111599758369 0 0 0 0 -5.1064115387089259 -142.58676636689142 0 -142.58676636689142 -47.301730079609115 0 0 0 0 -18.07259689091552 -108.42649880859608 0 -108.42649880859608 -23.091200225127977 0 0 0 0 -7.7727863328036619 -119.16245139723469 0 -119.16245139723469 -52.312347612518352 0 0 0 0 -5.885772039555377 -113.83940161954388 0 -113.83940161954388 -6.545949844756251 0 0 0 0 -11.069628224053304 -128.84947375198135 0 -128.84947375198135 -26.865509408244179 0 0 0 0 -26.307540627043636 -145.83311728110493 0 -145.83311728110493 -22.999592253922856 0 0 0 0 -23.396438491603476 -142.77378297340874 0 -142.77378297340874 -24.750894994944247 0 0 0 0 -5.0538948517605604 -144.1474238234814 0 -144.1474238234814 -53.943548647497664 0 0 0 0 6.7530656661911053 -152.37354061918086 0 -152.37354061918086 -78.316873593195851 0 0 0 0 -9.9674055994473747 -159.01386806201299 0 -159.01386806201299 -60.761304203422696 0 0 0 0 -13.30680826043681 -166.5408455095876 0 -166.5408455095876 -67.009321411660494 0 0 0 0 -10.678664168043269 -163.88186451018703 0 -163.88186451018703 -65.762757818280079 0 0 0 0 -46.865790488816856 -162.436036430885 0 -162.436036430885 -32.093027360277119 0 0 0 0 -30.290248892499221 -195.18352389308529 0 -195.18352389308529 -101.22992418047215 0 0 0 0 -67.806478013750166 -178.51147743788533 0 -178.51147743788533 -46.54700211714021 0 0 0 0 -52.203023388145084 -172.3244819569536 0 -172.3244819569536 -45.61435175123529 0 0 0 0 -111.25456771266181 -160.23492235040976 0 -160.23492235040976 6.6907783777842269 0 0 0 0 -65.306571866163722 -139.39681110165293 0 -139.39681110165293 21.025503447741357 0 0 0 0 -32.632876917470639 -102.50164108596891 0 -102.50164108596891 41.744102975822898 0 0 0 0 -61.249263044905092 -129.36387736340203 0 -129.36387736340203 22.478847854999913 0 0 0 0 -97.04973582353341 -132.29289519239865 0 -132.29289519239865 66.538777591127655 0 0 0 0 -37.515526591458183 -199.81415668761019 0 -199.81415668761019 -114.57284237392378 0 0 0 0 -129.7323447043309 -235.19374545415576 0 -235.19374545415576 -85.798189896440817 0 0 0 0 7.5886147007695399 -172.44865539811144 0 -172.44865539811144 -104.36493824493664 0 0 0 0 11.925546805628983 -161.45502894559831 0 -161.45502894559831 -102.02533818682423 0 0 0 0 185.76594111118175 -30.527477290830575 0 -30.527477290830575 -155.00368893111408 0 0 0 0 -129.19490756800951 -186.16926451320887 0 -186.16926451320887 -85.453699120425881 0 0 0 0 21.469360144983511 -106.02250334008932 0 -106.02250334008932 -169.48077294364884 0 0 0 0 -10.673415131850561 -120.74979567113769 0 -120.74979567113769 -7.3709814253288641 0 0 0 0 -26.710917592956321 -89.95944425971652 0 -89.95944425971652 -1.6987638314458309 0 0 0 0 -151.8668670672705 -84.125903274486518 0 -84.125903274486518 67.871654635484447 0 0 0 0 -205.68827381874871 -24.90458560940624 0 -24.90458560940624 -48.749328229078856 0 0 0 0 291.19284839538705 -173.70910282959198 0 -173.70910282959198 -177.95670340272591 0 0 0 0 -250.73421284071628 -217.06866005642934 0 -217.06866005642934 40.480134091456421 0 0 0 0 -1.8722117675807368 -0.61045880027510435 0 -0.61045880027510435 4.0872132926748286 0 0 0 0 56.744238800882158 179.4685257011763 0 179.4685257011763 144.85571665966972 0 0 0 0 -100.18378925306752 -214.86107654960051 0 -214.86107654960051 -7.9294898385014676 0 0 0 0 44.795249187278387 -125.73865151919381 0 -125.73865151919381 -100.17681598332933 0 0 0 0 -1.6305128134640512 -2.5085840028313271 0 -2.5085840028313271 0.26057907405725445 0 0 0 0 -17.388971985912576 0.45123653214750448 0 0.45123653214750448 -85.940018883395169 0 0 0 0 162.5345350613934 -18.946020196764039 0 -18.946020196764039 -72.564041922355955 0 0 0 0 88.499710089447035 -109.09430089523812 0 -109.09430089523812 -91.138527484843507 0 0 0 0 -0.60767901001781865 -64.287496908793628 0 -64.287496908793628 -47.526369033919764 0 0 0 0 174.17429577099756 -15.174718183295909 0 -15.174718183295909 -165.73685404379466 0 0 0 0 195.17291204691719 -56.754034912523821 0 -56.754034912523821 -99.511757568535359 0 0 0 0 61.643122105953807 -129.95280827481383 0 -129.95280827481383 14.243477884538152 0 0 0 0 343.93290925091424 -166.83304492436673 0 -166.83304492436673 -159.64647649940451 0 0 0 0 -30.741758119272163 -281.81739205010746 0 -281.81739205010746 -194.34534788620294 0 0 0 0 47.62679229454443 -49.728072637167315 0 -49.728072637167315 -360.05475039912199 0 0 0 0 -303.13357072952203 -432.59097446763462 0 -432.59097446763462 -277.33617425865123 0 0 0 0 335.58487040500313 -493.44312189307516 0 -493.44312189307516 -303.16149420011971 0 0 0 0 -20.120657855488389 123.38752645951922 0 123.38752645951922 -28.795066707618389 0 0 0 0 -284.86980737616614 -815.46698625416866 0 -815.46698625416866 40.417637761394872 0 0 0 0 -399.75126029310923 -687.08053607778129 0 -687.08053607778129 71.617419099325161 0 0 0 0 0.35617327923522879 -1.5510411291692989 0 -1.5510411291692989 -4.7793830545608316 0 0 0 0 -359.53827958435068 -717.37638307542124 0 -717.37638307542124 36.02367651935856 0 0 0 0 -238.85461111280529 89.828522786827534 0 89.828522786827534 -59.033939886504868 0 0 0 0 -722.5636401403317 -367.87083224068647 0 -367.87083224068647 28.390264120682673 0 0 0 0 -0.1297212693351355 -2.3496388757922304 0 -2.3496388757922304 4.0272719945798077 0 0 0 0 56.243818433234992 -364.73744381506822 0 -364.73744381506822 10.721704655179565 0 0 0 0 -19.739952629694017 18.625345227570506 0 18.625345227570506 330.18269215977671 0 0 0 0 141.36330628273208 -283.1556926075632 0 -283.1556926075632 301.83534225572112 0 0 0 0 -74.931197404279374 -119.71315964046516 0 -119.71315964046516 219.44738491123098 0 0 0 0 -74.720442875233402 -117.1126381477398 0 -117.1126381477398 77.616404178595985 0 0 0 0 -61.023396568052704 -47.891200313271838 0 -47.891200313271838 123.05095848823112 0 0 0 0 -31.109718442807207 -17.855322744292607 0 -17.855322744292607 36.904942388669951 0 0 0 0 -20.312006372912947 29.261560954682523 0 29.261560954682523 142.65048115697755 0 0 0 0 55.246936914816615 -156.24604849857769 0 -156.24604849857769 9.5206458973598274 0 0 0 0 -78.859013492059603 -88.493651238721668 0 -88.493651238721668 30.975538623166358 0 0 0 0 210.76477419500225 -8.3210923364176779 0 -8.3210923364176779 -21.718915257068147 0 0 0 0 32.952447572311939 -37.72948734569627 0 -37.72948734569627 -38.829502614841658 0 0 0 0 445.91816323989042 -5.4687074944940832 0 -5.4687074944940832 -46.855894201961746 0 0 0 0 -8.5582794853997655 -25.364830906272907 0 -25.364830906272907 -16.067755921685531 0 0 0 0 1.5586921163438632 -10.872309007026466 0 -10.872309007026466 2.1769656643515027 0 0 0 0 -28.664599193289177 -38.371090344422555 0 -38.371090344422555 24.759147414871791 0 0 0 0 -30.080849782170844 -44.385518694750772 0 -44.385518694750772 34.214146004632937 0 0 0 0 -84.200998588825314 -276.85440260708612 0 -276.85440260708612 -540.07352068607452 0 0 0 0 -6.2086363449763553 -5.6336828400779249 0 -5.6336828400779249 -4.6688913735562751 0 0 0 0 -55.422850183992523 -250.2911972500591 0 -250.2911972500591 -952.64192849620667 0 0 0 0 -6.3883586503524867 2.5374419171161904 0 2.5374419171161904 -8.3983079790946142 0 0 0 0 67.583608642085892 -45.773882210867669 0 -45.773882210867669 -11.404029840385192 0 0 0 0 -340.02868050940424 -336.93805927216721 0 -336.93805927216721 -181.40858626001091 0 0 0 0 -46.81720773352572 -297.13571336440589 0 -297.13571336440589 -542.91619980936298 0 0 0 0 -251.88773817497713 -163.82397397792533 0 -163.82397397792533 20.264647905590436 0 0 0 0 -530.43007934889829 46.180402369226158 0 46.180402369226158 39.584569741332416 0 0 0 0 143.47260106157046 -174.00836831705834 0 -174.00836831705834 63.056354580799869 0 0 0 0 237.56898882918904 173.06551627107592 0 173.06551627107592 -647.36627688206681 0 0 0 0 -397.94564156874912 -498.26168592318481 0 -498.26168592318481 -472.46347966197663 0 0 0 0 -301.80722021615838 -419.05548940317476 0 -419.05548940317476 -15.054566503615206 0 0 0 0 -572.00056106827105 -376.23534984682738 0 -376.23534984682738 100.34391875582151 0 0 0 0 415.74812506666694 443.10540612485306 0 443.10540612485306 113.03376152498458 0 0 0 0 -854.51696198212312 232.73883411402562 0 232.73883411402562 216.61529493555827 0 0 0 0 -12.951635145218461 -321.09992760690693 0 -321.09992760690693 -801.02695401543315 0 0 0 0 -308.1400826989061 -707.63124627928914 0 -707.63124627928914 -499.73179836378586 0 0 0 0 799.69930047391063 46.220461184751528 0 46.220461184751528 -308.25452600627943 0 0 0 0 0.62076212055768032 2.2368871876287386 0 2.2368871876287386 -19.171124830561858 0 0 0 0 -204.98620933632446 -283.51959466823109 0 -283.51959466823109 -266.92958111735516 0 0 0 0 -275.70069061452887 -754.12735611939524 0 -754.12735611939524 -569.80457512215298 0 0 0 0 828.2337410006694 147.64718698052684 0 147.64718698052684 49.314427945216266 0 0 0 0 -4.0075644675328448 0.85798594719344834 0 0.85798594719344834 1.9231787374760874 0 0 0 0 524.49573534990486 247.50067231225876 0 247.50067231225876 36.100095467357278 0 0 0 0 764.04017272944839 229.09962913529398 0 229.09962913529398 -146.64713215854681 0 0 0 0 -1102.3377198330836 -482.18127482421642 0 -482.18127482421642 108.10981976400581 0 0 0 0 -300.96756621725183 -341.40121595157643 0 -341.40121595157643 -153.39274917567127 0 0 0 0 -0.73303512376099977 2.5993082397447438 0 2.5993082397447438 -6.0747509219443501 0 0 0 0 69.150546432132614 -490.90182390073005 0 -490.90182390073005 -414.68059980635735 0 0 0 0 -21.942539147894855 -33.583359977200935 0 -33.583359977200935 -11.402059761229445 0 0 0 0 -862.88040378304868 -407.73607026521313 0 -407.73607026521313 424.39512881387145 0 0 0 0 441.94021861724104 53.140600472523147 0 53.140600472523147 -203.0370093690035 0 0 0 0 0.6603520574135473 -42.457138472600491 0 -42.457138472600491 -23.423898747960266 0 0 0 0 2.2149346030247443 48.338627256201015 0 48.338627256201015 52.439849301865252 0 0 0 0 -160.66959597800451 -95.603385665504902 0 -95.603385665504902 40.205827154773544 0 0 0 0 -87.63850127013211 36.839971093153054 0 36.839971093153054 213.2403481640531 0 0 0 0 -79.359658702804154 -43.065300032328651 0 -43.065300032328651 -49.887192799737022 0 0 0 0 32.456012166377661 -20.182486751116798 0 -20.182486751116798 -0.91163962302559298 0 0 0 0 -137.38904790351808 -121.10941837538576 0 -121.10941837538576 -14.228070142315119 0 0 0 0 -0.65914678297485807 -200.96104987917442 0 -200.96104987917442 -560.38448703082258 0 0 0 0 0.54130467684929329 -7.3057226274233322 0 -7.3057226274233322 2.2153085300579587 0 0 0 0 3.5819532226418787 -19.115933301227457 0 -19.115933301227457 18.556573098525277 0 0 0 0 -249.62328789129606 -61.521865498880743 0 -61.521865498880743 14.502095574324812 0 0 0 0 -27.297527719200446 288.37295153805201 0 288.37295153805201 380.1291353360848 0 0 0 0 -223.02530697588537 -245.14602477904884 0 -245.14602477904884 -160.68211541174696 0 0 0 0 -257.28966971331272 17.284217821973414 0 17.284217821973414 -14.009629739088268 0 0 0 0 -228.14324999976895 -313.16650384508944 0 -313.16650384508944 -215.48469377032234 0 0 0 0 -39.12861201996111 -191.7943602777425 0 -191.7943602777425 -275.62646531476094 0 0 0 0 -30.527488995979184 -319.98840907140846 0 -319.98840907140846 -152.4721785670481 0 0 0 0 -56.888759463594397 -116.47614142982457 0 -116.47614142982457 -18.872069246741376 0 0 0 0 -34.067296732236173 -177.07956661804519 0 -177.07956661804519 228.36586468465612 0 0 0 0 81.058343034419522 -202.38392730203577 0 -202.38392730203577 26.133557481378375 0 0 0 0 -26.378488853101771 -14.236571663117502 0 -14.236571663117502 -10.154349082105 0 0 0 0 -4.1456671819214534 76.614925068042339 0 76.614925068042339 158.15840292071334 0 0 0 0 42.071970456739344 -20.901541682957962 0 -20.901541682957962 5.5376425041049515 0 0 0 0 -38.717137281944815 -218.97311496368502 0 -218.97311496368502 -34.241194689404438 0 0 0 0 -204.53433446414056 -389.29009284788208 0 -389.29009284788208 -126.15747760414297 0 0 0 0 87.715168313827235 -163.16210077142568 0 -163.16210077142568 12.817699617397011 0 0 0 0 72.041883521817113 -297.38452476746147 0 -297.38452476746147 -251.27241914734986 0 0 0 0 -2.152229223633455 -1.8309951913477693 0 -1.8309951913477693 -1.8137748672591414 0 0 0 0 -385.96947734799323 89.999143858609386 0 89.999143858609386 -31.189576844386465 0 0 0 0 -74.031898855913823 60.365910459791849 0 60.365910459791849 -360.97037915843066 0 0 0 0 -202.74624509013665 -254.37071474922232 0 -254.37071474922232 -131.76310839085636 0 0 0 0 -439.1663216906154 -158.99480251816215 0 -158.99480251816215 -13.943553665998479 0 0 0 0 -188.64664832365816 -122.51286202349911 0 -122.51286202349911 -9.4020938621952155 0 0 0 0 -87.836716842666647 -108.20139099917469 0 -108.20139099917469 54.808264353700906 0 0 0 0 -118.75950836943412 -99.395128051063693 0 -99.395128051063693 34.893752721131023 0 0 0 0 -139.95356765717588 -131.84065692184595 0 -131.84065692184595 45.283809398048106 0 0 0 0 -137.95790400610713 -156.32104177145447 0 -156.32104177145447 -3.9902163949254827 0 0 0 0 -104.09985066933041 -131.50734762471279 0 -131.50734762471279 14.179160267085535 0 0 0 0 -222.97726841192525 -154.67089861728346 0 -154.67089861728346 -2.1899812343035592 0 0 0 0 -187.2433169222586 -100.55377371514123 0 -100.55377371514123 34.891407380262535 0 0 0 0 -215.22468455478156 -128.28413670986538 0 -128.28413670986538 7.4268876572241425 0 0 0 0 -283.97599965308382 -0.79413850761829963 0 -0.79413850761829963 40.250501229122165 0 0 0 0 -142.62487015754596 -98.950525218096118 0 -98.950525218096118 61.697247178210091 0 0 0 0 -89.595398290832236 -78.195005530238632 0 -78.195005530238632 69.820747877676695 0 0 0 0 -143.87347613053305 -36.108870508641118 0 -36.108870508641118 67.303229003271554 0 0 0 0 -104.4426516759595 -25.487952636475711 0 -25.487952636475711 42.368634097723771 0 0 0 0 -121.24257465647679 12.548469074847162 0 12.548469074847162 53.165809821763105 0 0 0 0 -131.36911006558148 65.373290458530391 0 65.373290458530391 -38.206344098005729 0 0 0 0 -28.816999175060118 12.202087396089155 0 12.202087396089155 -15.737341062187625 0 0 0 0 -74.631827318749856 -30.437000678179174 0 -30.437000678179174 150.44159633027084 0 0 0 0 -45.752545708892285 -46.821591914824921 0 -46.821591914824921 122.24168293540606 0 0 0 0 -53.304525566268268 -57.179204003370472 0 -57.179204003370472 -5.5531145035259204 0 0 0 0 -35.607255091483239 -13.440302943954521 0 -13.440302943954521 131.64634618109983 0 0 0 0 -80.441086531471228 -15.677279964136687 0 -15.677279964136687 131.54914014705355 0 0 0 0 -92.68064271174444 -26.004722573887193 0 -26.004722573887193 124.37736597132243 0 0 0 0 -58.580684648870374 -15.659171724827502 0 -15.659171724827502 53.63555309970387 0 0 0 0 -91.326845015486469 -113.82050893975247 0 -113.82050893975247 186.46685398417549 0 0 0 0 -136.05520256352611 77.638603953077109 0 77.638603953077109 757.52807544855023 0 0 0 0 -79.096314695896581 -43.482263588677597 0 -43.482263588677597 67.8474212382323 0 0 0 0 -84.707601723916014 -53.009747068311981 0 -53.009747068311981 93.853817805767903 0 0 0 0 -104.29802280078729 -81.035523424587154 0 -81.035523424587154 98.081743919126893 0 0 0 0 -62.627787831581372 -72.230774175639453 0 -72.230774175639453 111.7157374281669 0 0 0 0 -51.767301723375567 -72.156598604411556 0 -72.156598604411556 99.566056290121196 0 0 0 0 -40.512198402153444 -26.770389172872456 0 -26.770389172872456 108.80387143972985 0 0 0 0 -14.934145611638087 -67.100074250869511 0 -67.100074250869511 111.94135713610194 0 0 0 0 -15.923994015323842 -131.64540224158554 0 -131.64540224158554 148.47048283250842 0 0 0 0 39.7522750420394 -81.138630767233735 0 -81.138630767233735 115.41470575902349 0 0 0 0 -49.883410466818532 -129.22939081486356 0 -129.22939081486356 148.5203868547178 0 0 0 0 -98.388342457234103 -108.47753623499557 0 -108.47753623499557 128.96108923049815 0 0 0 0 -76.252211205253843 -124.0567754500953 0 -124.0567754500953 135.97589612269621 0 0 0 0 -74.259904858663504 -117.54301501836198 0 -117.54301501836198 121.78548670157215 0 0 0 0 -81.582691021329083 -105.16341327251575 0 -105.16341327251575 133.24405199178909 0 0 0 0 -108.24870413130338 -113.06543530711906 0 -113.06543530711906 93.026738404332718 0 0 0 0 -74.632612223922479 -102.72247140282161 0 -102.72247140282161 95.517238987096789 0 0 0 0 28.229335896877274 -67.195632900765759 0 -67.195632900765759 49.628731609331226 0 0 0 0 -67.999342877601521 -61.641316811748766 0 -61.641316811748766 270.57392863688028 0 0 0 0 154.80375712371142 -156.63844494498244 0 -156.63844494498244 84.472177493389609 0 0 0 0 -2.6139166347978371 -2.9412782095245262 0 -2.9412782095245262 0.26438636520822811 0 0 0 0 -10.49824760410047 -14.962001180272637 0 -14.962001180272637 226.98396799303575 0 0 0 0 -6.0674040861384846 -6.0627440255370946 0 -6.0627440255370946 -2.2148956035469283 0 0 0 0 -31.788768057512243 3.7814293499329779 0 3.7814293499329779 23.185863299515404 0 0 0 0 -16.179655864770211 -25.491115799180079 0 -25.491115799180079 24.694136257776336 0 0 0 0 -15.840132684026685 -51.987635056467639 0 -51.987635056467639 3.2839326051907847 0 0 0 0 -8.3080210834333652 -25.734662778505196 0 -25.734662778505196 19.555357255206644 0 0 0 0 8.5654873269340897 -38.255488675310517 0 -38.255488675310517 -12.370942368259875 0 0 0 0 10.671054094039391 -66.870524748640946 0 -66.870524748640946 31.671215022221986 0 0 0 0 35.296077772525678 -66.466456360517441 0 -66.466456360517441 30.942790851540167 0 0 0 0 -6.3731235903973129 -20.362827623502309 0 -20.362827623502309 -18.036068284438723 0 0 0 0 -8.2099938646538462 -26.982507471666931 0 -26.982507471666931 -11.39388783398843 0 0 0 0 -8.4831217246291999 -81.293007483684164 0 -81.293007483684164 45.285291520689498 0 0 0 0 3.8835002886189613 -51.978520179754014 0 -51.978520179754014 -0.72137124460562063 0 0 0 0 24.900330080340776 -40.751145845107899 0 -40.751145845107899 12.543906180186388 0 0 0 0 6.6530809173045782 -89.9439961605392 0 -89.9439961605392 50.159242607977831 0 0 0 0 -25.056048293368804 -12.458617442416653 0 -12.458617442416653 81.159936503410108 0 0 0 0 29.128206619087635 -31.521472148503197 0 -31.521472148503197 13.812747074858452 0 0 0 0 -116.17867946889055 -107.75731301309952 0 -107.75731301309952 6.2900744910750745 0 0 0 0 -48.526476947820356 -39.841630405466049 0 -39.841630405466049 18.925347459568911 0 0 0 0 -77.990055502627911 -82.861021820020142 0 -82.861021820020142 13.019385660758815 0 0 0 0 -39.315613029970336 -25.780025464251764 0 -25.780025464251764 35.039229670664099 0 0 0 0 -43.122808063520552 -22.947713351730471 0 -22.947713351730471 58.343708063594477 0 0 0 0 -60.959022569237277 -51.735954344355605 0 -51.735954344355605 42.040281623745159 0 0 0 0 -51.19489125285213 -23.358889524170337 0 -23.358889524170337 53.456911888662489 0 0 0 0 -67.360861799254963 -66.152757118209593 0 -66.152757118209593 34.735185845001979 0 0 0 0 -81.629743231525936 -87.726083635468285 0 -87.726083635468285 -17.251461599330469 0 0 0 0 -56.167946432930876 -43.044001497865111 0 -43.044001497865111 9.4855767088783978 0 0 0 0 -96.706041168708452 -76.874207922859341 0 -76.874207922859341 -38.656139747521593 0 0 0 0 -92.818210254939913 -93.031039790469094 0 -93.031039790469094 9.4060488396351385 0 0 0 0 -75.594949395612275 -55.294892668662214 0 -55.294892668662214 22.327952346547136 0 0 0 0 -113.67891844096266 -82.239759971419062 0 -82.239759971419062 -19.470506952083724 0 0 0 0 -77.348558548164874 -95.388083906416341 0 -95.388083906416341 -20.610734904420951 0 0 0 0 -133.60206360884331 -118.65585003041133 0 -118.65585003041133 -1.1647685489151627 0 0 0 0 139.72597993046838 77.550734611931603 0 77.550734611931603 -23.66455334159491 0 0 0 0 28.717048007001146 -30.893213197022419 0 -30.893213197022419 7.3951941660605183 0 0 0 0 -75.228047859441176 -23.973933971838051 0 -23.973933971838051 22.344697577400893 0 0 0 0 -8.3909938897968459 53.545079689339673 0 53.545079689339673 -36.258804691313344 0 0 0 0 -91.861112403931202 34.586172247075183 0 34.586172247075183 126.5217591711471 0 0 0 0 -48.756139170483493 -19.802218801913 0 -19.802218801913 120.90868510259497 0 0 0 0 21.647754834827538 -5.2237970707485601 0 -5.2237970707485601 75.237579355267371 0 0 0 0 12.82264005648085 28.784599400090201 0 28.784599400090201 56.307375695729206 0 0 0 0 -5.8603096295883006 -96.875507376717451 0 -96.875507376717451 156.7668961565696 0 0 0 0 -9.0739502589380141 -28.574535166246733 0 -28.574535166246733 -20.214913691220559 0 0 0 0 350.92701993033324 55.629391804654006 0 55.629391804654006 -7.7649569232949034 0 0 0 0 -9.1688801593209064 -62.228125325861583 0 -62.228125325861583 98.427542691081953 0 0 0 0 -19.575541277912635 -49.735756778448376 0 -49.735756778448376 107.66129354560144 0 0 0 0 -4.2616125534368621 -70.807301303299027 0 -70.807301303299027 112.01010096364303 0 0 0 0 -18.444480643252973 -53.685976205616498 0 -53.685976205616498 119.52597763867971 0 0 0 0 -1.2421125007631417 -56.523560099194583 0 -56.523560099194583 108.87975567852754 0 0 0 0 4.4163944251049543 -78.647595444954277 0 -78.647595444954277 165.97150112919917 0 0 0 0 -6.3316954717174667 -47.319190275768506 0 -47.319190275768506 130.33539891915825 0 0 0 0 -6.0987082039700908 -80.973860821394283 0 -80.973860821394283 165.72840765586352 0 0 0 0 23.620203896516045 -111.55610734947467 0 -111.55610734947467 122.06680342145773 0 0 0 0 20.450102036387307 -320.75124751520525 0 -320.75124751520525 65.060344754470862 0 0 0 0 206.06392354565696 -71.388359604737161 0 -71.388359604737161 -11.797146781311312 0 0 0 0 1.9985269601238258 -1.0977718125994649 0 -1.0977718125994649 0.60976085418931092 0 0 0 0 22.235969221053438 135.08293558329387 0 135.08293558329387 180.58601192983525 0 0 0 0 -17.258932493898101 7.9217665410806148 0 7.9217665410806148 44.573883539313101 0 0 0 0 10.338248994939477 -11.133941087090648 0 -11.133941087090648 56.066752216775058 0 0 0 0 -127.44091940330554 -135.39746574252104 0 -135.39746574252104 27.528724423213134 0 0 0 0 -65.193850360914894 17.82414617854738 0 17.82414617854738 185.59170770568579 0 0 0 0 32.290116117288562 31.114243995600305 0 31.114243995600305 85.779136049571775 0 0 0 0 43.099146441258199 -70.823769906011876 0 -70.823769906011876 168.94897950771656 0 0 0 0 43.351874054096697 -71.811984596424736 0 -71.811984596424736 170.2652177532666 0 0 0 0 114.09328431018548 -163.63716805259173 0 -163.63716805259173 268.65002050620751 0 0 0 0 34.633083533670288 -67.913875888232724 0 -67.913875888232724 168.80642960907426 0 0 0 0 24.979052268143278 -65.686391033035761 0 -65.686391033035761 170.60909109008207 0 0 0 0 5.3501483067848312 -54.288801467488156 0 -54.288801467488156 181.70556765986839 0 0 0 0 -3.7858029414728662 -59.99033006549962 0 -59.99033006549962 188.76004500514864 0 0 0 0 13.473743067112082 -73.802335961850531 0 -73.802335961850531 213.93351068885022 0 0 0 0 58.397641014642431 -45.712932838603592 0 -45.712932838603592 237.1037331441039 0 0 0 0 35.817806496328558 -40.047585655127477 0 -40.047585655127477 249.28917321405856 0 0 0 0 33.744772238416772 -55.779137629000616 0 -55.779137629000616 183.93713610971281 0 0 0 0 30.381064414261346 -9.1265438724367414 0 -9.1265438724367414 205.18124808269204 0 0 0 0 28.569554380290356 -15.970104231171717 0 -15.970104231171717 236.59362534246821 0 0 0 0 68.921666030611959 26.549355072171238 0 26.549355072171238 267.31918934756504 0 0 0 0 47.781653353852562 -93.190539917353362 0 -93.190539917353362 448.11261537236169 0 0 0 0 56.563663865621493 -32.566396833657564 0 -32.566396833657564 137.20138565071738 0 0 0 0 51.949122951689787 -190.30463134302954 0 -190.30463134302954 432.66317558810988 0 0 0 0 -4.5858578249802733 2.5411402138691876 0 2.5411402138691876 11.165005174130702 0 0 0 0 -9.6672996745564994 -23.183657474813433 0 -23.183657474813433 28.207568098765233 0 0 0 0 4.6346734477340306 -2.6282879378109669 0 -2.6282879378109669 64.904793015324685 0 0 0 0 -0.82522725262970198 -36.947503775579207 0 -36.947503775579207 153.49067074275194 0 0 0 0 -17.244306554389027 -20.644714857119141 0 -20.644714857119141 137.92512583630196 0 0 0 0 -3.7095080384769972 19.645512454840855 0 19.645512454840855 141.1317137164321 0 0 0 0 -51.711642208331909 -57.013318303406322 0 -57.013318303406322 12.947392596743157 0 0 0 0 -67.678831019770769 -15.159775145410094 0 -15.159775145410094 62.746897509943665 0 0 0 0 -23.328485909913979 0.74218283322124989 0 0.74218283322124989 73.723425461170336 0 0 0 0 -11.826197001695823 -20.034434982130676 0 -20.034434982130676 32.616410872333503 0 0 0 0 -16.100108023059875 -26.90591935431803 0 -26.90591935431803 39.568133083342673 0 0 0 0 -47.436518262329628 -41.07302089439645 0 -41.07302089439645 91.662418315979494 0 0 0 0 -42.790478145770066 -35.434034168123731 0 -35.434034168123731 48.285265706344944 0 0 0 0 -38.172884953306493 -63.073149143353021 0 -63.073149143353021 22.41703180850709 0 0 0 0 -60.897089180902185 -82.321139966704777 0 -82.321139966704777 28.860159700445365 0 0 0 0 -74.197295824123216 -68.588023463781639 0 -68.588023463781639 14.680327979261165 0 0 0 0 -81.812398142210441 -95.745449341533458 0 -95.745449341533458 -14.952924816353061 0 0 0 0 -60.022046044527087 -85.689765977895604 0 -85.689765977895604 -20.836157644026571 0 0 0 0 -64.539072225754353 -83.518271308808835 0 -83.518271308808835 -16.89635884794518 0 0 0 0 -40.404983248210556 -77.478986930225801 0 -77.478986930225801 -18.024692627765035 0 0 0 0 -46.911646662798375 -85.069603723207365 0 -85.069603723207365 13.714476954933161 0 0 0 0 -61.590017049132484 -73.4675917618668 0 -73.4675917618668 4.5990423499715689 0 0 0 0 -36.211116975697223 -71.769281097291241 0 -71.769281097291241 26.727852123514822 0 0 0 0 -28.580864957332778 -66.035353625825792 0 -66.035353625825792 4.4920400254741253 0 0 0 0 -26.047452303757382 -72.232760195664014 0 -72.232760195664014 -17.090188751066307 0 0 0 0 -46.417940292347339 -77.092194017947804 0 -77.092194017947804 2.6633110098207453 0 0 0 0 -49.854841236930952 -69.587945777338973 0 -69.587945777338973 -17.268249565097449 0 0 0 0 -28.954743126099629 -53.773107053534545 0 -53.773107053534545 -13.26139184087333 0 0 0 0 -23.190279361406283 -67.022294201712612 0 -67.022294201712612 3.1815428795503067 0 0 0 0 -41.530905606254237 -61.493830959352636 0 -61.493830959352636 -15.443338878840677 0 0 0 0 1.8682754323435802 -53.585974327339045 0 -53.585974327339045 6.1846959276845155 0 0 0 0 -5.745262717672631 -73.8483341529261 0 -73.8483341529261 64.541919561038412 0 0 0 0 -9.2774036056325713 -58.102584779120662 0 -58.102584779120662 28.142671467143202 0 0 0 0 -41.22709121738535 -63.440772594601185 0 -63.440772594601185 63.57346673696793 0 0 0 0 -16.296053829191806 -29.969300934031708 0 -29.969300934031708 81.083444747965586 0 0 0 0 -20.976923265407095 -67.368848648237872 0 -67.368848648237872 63.509175044222957 0 0 0 0 6.291651565268694 -54.292195974214337 0 -54.292195974214337 98.957367618611897 0 0 0 0 -10.624787097045555 -43.380737428918337 0 -43.380737428918337 93.087646798081551 0 0 0 0 63.234420162239985 -54.615472851924096 0 -54.615472851924096 88.432582809682117 0 0 0 0 4.6307700704940089 -45.068731526444935 0 -45.068731526444935 145.1996297633541 0 0 0 0 98.761954838493693 -38.888132058234987 0 -38.888132058234987 145.2464254107017 0 0 0 0 32.0920554367367 -30.993152683145127 0 -30.993152683145127 144.37909366692838 0 0 0 0 15.941286592485994 -6.4519245642420628 0 -6.4519245642420628 137.66128070731156 0 0 0 0 29.677492824792353 -41.59284706987637 0 -41.59284706987637 131.86272644532346 0 0 0 0 51.23742147005396 -43.369443104649235 0 -43.369443104649235 87.871420537861923 0 0 0 0 12.843249903748983 -44.303904762225557 0 -44.303904762225557 37.354064893595933 0 0 0 0 29.175894115209303 -14.141675657904671 0 -14.141675657904671 69.44135081698505 0 0 0 0 14.606538434055437 -42.318090155630671 0 -42.318090155630671 46.36769910163548 0 0 0 0 16.52118275691646 -62.016272518492769 0 -62.016272518492769 90.05253419364567 0 0 0 0 -6.8379901294538286 -67.07160086741078 0 -67.07160086741078 33.045403371879729 0 0 0 0 -1.4959675402351422 -40.164459980481297 0 -40.164459980481297 -21.537251926403769 0 0 0 0 19.599575292782902 -26.850655694731358 0 -26.850655694731358 9.5088039058482536 0 0 0 0 -25.568636873778814 -36.295119447998331 0 -36.295119447998331 8.0848941390822802 0 0 0 0 -60.279979917161654 11.298337786376578 0 11.298337786376578 7.5136729303898164 0 0 0 0 -14.567279558169503 -30.835536918941443 0 -30.835536918941443 -30.202559224376273 0 0 0 0 6.2534344815394434 -3.639856769038488 0 -3.639856769038488 4.223442423227425 0 0 0 0 -19.247843457726958 -30.90948607603741 0 -30.90948607603741 52.296055676988544 0 0 0 0 -12.046307048634844 -0.71472388374172624 0 -0.71472388374172624 64.724500274600359 0 0 0 0 -14.469532935554071 -7.5796628792534193 0 -7.5796628792534193 99.34559690498736 0 0 0 0 12.329811007957687 -30.601358239784531 0 -30.601358239784531 74.80510810039732 0 0 0 0 -90.572275626756209 -27.226403921241513 0 -27.226403921241513 -41.229209219008226 0 0 0 0 -119.38463863987681 41.820651500040185 0 41.820651500040185 -26.486999230975016 0 0 0 0 -24.399914917868955 -16.253170962808326 0 -16.253170962808326 -41.165954881661492 0 0 0 0 -27.110836025891331 -59.66853410187332 0 -59.66853410187332 -35.993849037791733 0 0 0 0 -48.767940896992513 -38.372985227261779 0 -38.372985227261779 -20.698353855835194 0 0 0 0 -66.208863184279153 -51.599991138418147 0 -51.599991138418147 -41.803217842857521 0 0 0 0 -88.531097655604754 -4.4742038007379961 0 -4.4742038007379961 -53.750814117526033 0 0 0 0 -59.736440281448267 -22.780697203135787 0 -22.780697203135787 -58.745147767480375 0 0 0 0 -65.425320566531809 -52.349596687983649 0 -52.349596687983649 -41.086472109693204 0 0 0 0 -102.69890321335879 -49.694120363655202 0 -49.694120363655202 -41.272877237546027 0 0 0 0 -82.587163668958055 -78.560547671463155 0 -78.560547671463155 -37.269304789298985 0 0 0 0 -37.413379099201848 -51.325533772006565 0 -51.325533772006565 -42.150252087768422 0 0 0 0 -53.639559200604708 -78.472399898148524 0 -78.472399898148524 -33.582492224279122 0 0 0 0 -46.959329821839674 -70.686530323436273 0 -70.686530323436273 -29.172485236891589 0 0 0 0 -59.719039643072392 -63.598318606178509 0 -63.598318606178509 -27.403025074436414 0 0 0 0 -35.201388195011532 -63.071323365863464 0 -63.071323365863464 -27.52567030157843 0 0 0 0 -71.123942322357834 -72.192199413655544 0 -72.192199413655544 -33.967175475111617 0 0 0 0 -69.219914930205505 -87.643733151485151 0 -87.643733151485151 -38.543041178396379 0 0 0 0 -89.921340300315933 -84.859869128105856 0 -84.859869128105856 -37.289671177129094 0 0 0 0 -82.573975413928565 -88.669735541259797 0 -88.669735541259797 -28.414492097098446 0 0 0 0 -61.716386991651234 -82.527741806318772 0 -82.527741806318772 -31.251130118238507 0 0 0 0 -79.820859887113329 -92.121687336360083 0 -92.121687336360083 -36.181054310687614 0 0 0 0 -102.10678858739266 -95.97297006413919 0 -95.97297006413919 -35.23733860311404 0 0 0 0 -99.321594287297557 -97.346103126703383 0 -97.346103126703383 -40.471016572381245 0 0 0 0 -87.429680167064362 -90.302162265265906 0 -90.302162265265906 -41.255823624996992 0 0 0 0 -78.45160686230156 -82.337434563303759 0 -82.337434563303759 -40.299089918917161 0 0 0 0 -107.47546650107688 -90.115453247128244 0 -90.115453247128244 -39.965641647495431 0 0 0 0 -96.106555656486307 -82.911062086062884 0 -82.911062086062884 -35.824013020578604 0 0 0 0 -104.47679212931689 -93.576286864659778 0 -93.576286864659778 -40.333629546032171 0 0 0 0 -112.02568068610481 -90.646173421093408 0 -90.646173421093408 -34.260978176956996 0 0 0 0 -115.36805512254887 -100.84663595979146 0 -100.84663595979146 -39.280323496336337 0 0 0 0 -139.38241027506047 -109.76012805325627 0 -109.76012805325627 -47.599479032724503 0 0 0 0 -8.9890628616445465 -10.46785031985435 0 -10.46785031985435 5.9419492936156395 0 0 0 0 -167.73122914697706 -116.43178661815273 0 -116.43178661815273 -41.515107570770851 0 0 0 0 -228.83449208963066 -180.90184821409639 0 -180.90184821409639 -19.100027838241658 0 0 0 0 28.124422659084743 -24.986208599949872 0 -24.986208599949872 -11.80638205448497 0 0 0 0 137.2578777890576 48.170665605301565 0 48.170665605301565 -3.3612989884968556 0 0 0 0 -149.22818812513833 -88.883035022823606 0 -88.883035022823606 -33.88796424193697 0 0 0 0 -180.24432897355655 -89.5073669805397 0 -89.5073669805397 -26.737083316787903 0 0 0 0 -171.48308057493341 -87.702402052679645 0 -87.702402052679645 -52.687721901096666 0 0 0 0 -160.82952729328281 -95.038332520496624 0 -95.038332520496624 -94.232817724743654 0 0 0 0 -167.05266529739492 -107.78874201056715 0 -107.78874201056715 -56.672651721341026 0 0 0 0 -164.4206014752308 -80.159276797709026 0 -80.159276797709026 -25.798544107674388 0 0 0 0 -144.53735340455933 -81.657941366291197 0 -81.657941366291197 -31.633114348549498 0 0 0 0 -139.62032236528648 -54.069917196851293 0 -54.069917196851293 -10.880725556111429 0 0 0 0 -132.10050155379759 -72.396105938799337 0 -72.396105938799337 -21.967351039242203 0 0 0 0 -124.62663671750306 -69.531328887672316 0 -69.531328887672316 -28.653182065660076 0 0 0 0 -101.2997475307518 -58.891897214322739 0 -58.891897214322739 -23.972790975569296 0 0 0 0 -77.122155222881702 -25.340826616067261 0 -25.340826616067261 -18.394126743934066 0 0 0 0 -127.53271496304478 -59.515017034218545 0 -59.515017034218545 -11.111955924798167 0 0 0 0 -120.32432563193754 -41.279318157564887 0 -41.279318157564887 0.74791606328108173 0 0 0 0 -109.45235692156984 -44.211511087071813 0 -44.211511087071813 -8.013614770856293 0 0 0 0 -140.09103344917025 -61.761870481950609 0 -61.761870481950609 14.875723036706404 0 0 0 0 -116.97171874998639 -99.694635961855965 0 -99.694635961855965 -12.250832069951684 0 0 0 0 -86.34374732771812 -70.360316437301663 0 -70.360316437301663 -16.48788314390913 0 0 0 0 -14.621530219488704 -74.939901050877779 0 -74.939901050877779 4.7838965697783351 0 0 0 0 -71.126995458493184 -97.412980417790095 0 -97.412980417790095 25.51828647023558 0 0 0 0 -102.44149632785661 -73.820552440808228 0 -73.820552440808228 70.766305607281538 0 0 0 0 -116.49929310372318 -89.865432014553335 0 -89.865432014553335 149.72427298714774 0 0 0 0 -114.46201329914447 14.399050140215422 0 14.399050140215422 14.100297749718266 0 0 0 0 -12.368264279877621 -89.059653206403709 0 -89.059653206403709 -65.135478768685061 0 0 0 0 -175.25208497013318 -109.12256803467062 0 -109.12256803467062 -29.89804417787218 0 0 0 0 -116.10400993920302 -162.31505436644966 0 -162.31505436644966 -101.24252783402488 0 0 0 0 -58.597792456559546 -21.538321232908856 0 -21.538321232908856 -298.56227973459681 0 0 0 0 49.773139120471114 -5.422744497941494 0 -5.422744497941494 -112.93108354746437 0 0 0 0 46.406660523211031 -46.951893619758721 0 -46.951893619758721 61.642454230512385 0 0 0 0 163.17851770902416 62.925821629057737 0 62.925821629057737 -57.876190026577206 0 0 0 0 -92.332716377035467 -108.50057500518506 0 -108.50057500518506 -46.202641747498092 0 0 0 0 -129.60981816009917 -116.1454387707181 0 -116.1454387707181 -29.633640282296255 0 0 0 0 28.270152581396257 -29.319194764864694 0 -29.319194764864694 3.0276187488189947 0 0 0 0 -84.742458145932687 -89.008406519163145 0 -89.008406519163145 -28.98708639819597 0 0 0 0 -95.644773568168603 -104.8404322572087 0 -104.8404322572087 -33.429398053378918 0 0 0 0 -111.4354861259817 -120.00584762277231 0 -120.00584762277231 -38.448688178973953 0 0 0 0 -105.61186487910481 -98.654283760823091 0 -98.654283760823091 -32.065450956699351 0 0 0 0 -101.23454467516058 -102.83641506645108 0 -102.83641506645108 -36.732421878832611 0 0 0 0 191.06757294832323 164.5425365653623 0 164.5425365653623 -109.52324082146242 0 0 0 0 -105.02975460645052 -100.81053829892721 0 -100.81053829892721 -46.905133875367028 0 0 0 0 -120.8175867335467 -92.326064692647378 0 -92.326064692647378 -40.102008425234089 0 0 0 0 -118.46202447059477 -97.482956358260708 0 -97.482956358260708 -33.854841302370914 0 0 0 0 -108.26701804939512 -97.013955984813038 0 -97.013955984813038 -50.160098080134048 0 0 0 0 18.037492456920518 -0.83329952404073993 0 -0.83329952404073993 112.13775387781789 0 0 0 0 40.367970852381404 -10.547566487246968 0 -10.547566487246968 -5.8130040876494604 0 0 0 0 -119.32009471694892 -98.397471469031643 0 -98.397471469031643 37.727453969413546 0 0 0 0 37.58017697327432 -1.7194994138458242 0 -1.7194994138458242 -61.818085234950559 0 0 0 0 28.395454793505944 -27.767410348611698 0 -27.767410348611698 -2.8473769465543342 0 0 0 0 -11.04891996970219 -6.6712312036497927 0 -6.6712312036497927 0.33182047500912404 0 0 0 0 -114.12987896102004 -103.69449124872835 0 -103.69449124872835 -41.782228602693067 0 0 0 0 -149.98553058381367 -244.77766222373975 0 -244.77766222373975 103.05785552251473 0 0 0 0 266.98652513386969 77.133168562759238 0 77.133168562759238 -5.1263412590960797 0 0 0 0 184.82902396322788 -112.32047014340242 0 -112.32047014340242 2.9874668311204005 0 0 0 0 58.328711358391956 -7.9898748933792376 0 -7.9898748933792376 40.20961103011723 0 0 0 0 114.71701215937355 -20.885994918554388 0 -20.885994918554388 -10.891219818585341 0 0 0 0 -213.31262927133866 -92.889251661762955 0 -92.889251661762955 65.765972452048118 0 0 0 0 80.853331641779732 -133.71603865167981 0 -133.71603865167981 -70.081338401290623 0 0 0 0 -239.14188331539754 -393.32784685393744 0 -393.32784685393744 -264.34141752305504 0 0 0 0 -0.39579303617658113 -1.3862361458077714 0 -1.3862361458077714 2.6884700816295464 0 0 0 0 -79.229959430213057 -168.16464185687528 0 -168.16464185687528 -53.439177133950579 0 0 0 0 -189.24995731142189 -95.337377072205072 0 -95.337377072205072 -98.697476438846934 0 0 0 0 -294.95955456887259 -264.81922289807835 0 -264.81922289807835 -106.98055601280728 0 0 0 0 0.16973550610173049 -5.6712815323627375 0 -5.6712815323627375 12.230861009555237 0 0 0 0 10.637134979353505 -370.19465195280554 0 -370.19465195280554 -388.81215432185945 0 0 0 0 -107.12216126755129 -433.46682827484869 0 -433.46682827484869 -149.51528602902181 0 0 0 0 -141.18193505657382 -280.22830695716721 0 -280.22830695716721 -65.910545519413063 0 0 0 0 -342.24281178862157 -146.36497231709882 0 -146.36497231709882 254.60372113791163 0 0 0 0 519.34399499986148 429.55269801749932 0 429.55269801749932 192.66780924303566 0 0 0 0 -13.00297226794828 -14.791715975006809 0 -14.791715975006809 83.584742085585276 0 0 0 0 -53.113929694749459 57.8236205041012 0 57.8236205041012 61.37970634057865 0 0 0 0 -12.600724297869419 -9.6342040599938628 0 -9.6342040599938628 13.156861552131886 0 0 0 0 79.529764404225716 9.9952409121524397 0 9.9952409121524397 -27.647854067550725 0 0 0 0 77.648620495545401 -3.3170548231701105 0 -3.3170548231701105 -23.775039162443136 0 0 0 0 57.160942775592048 39.625038237263198 0 39.625038237263198 -113.27575479617371 0 0 0 0 -44.884215890852829 92.812006293461309 0 92.812006293461309 -48.140872665313509 0 0 0 0 -235.57334341074784 50.190215573414207 0 50.190215573414207 -245.76108919550734 0 0 0 0 -25.437992906075692 -56.077323743150941 0 -56.077323743150941 -296.27031994502977 0 0 0 0 -14.838011240412925 23.9887510795661 0 23.9887510795661 -90.665446637057357 0 0 0 0 114.57669632835461 24.537330830646852 0 24.537330830646852 -204.48155257469625 0 0 0 0 8.2021611425925585 -188.74832253102022 0 -188.74832253102022 -207.45819152385957 0 0 0 0 97.549099241333352 -33.004497304848883 0 -33.004497304848883 61.085260993097108 0 0 0 0 -138.24769516532979 -209.39162498288806 0 -209.39162498288806 -30.550409997198585 0 0 0 0 -138.62383127743124 -220.17380132360995 0 -220.17380132360995 -202.62888463237141 0 0 0 0 -278.71234332577114 -346.26338965602008 0 -346.26338965602008 -314.84244865797882 0 0 0 0 -289.00513828667044 -400.34210274719271 0 -400.34210274719271 -580.34867436058994 0 0 0 0 -684.07949744738653 -303.48006583293136 0 -303.48006583293136 -40.144304095552798 0 0 0 0 -433.91214699286138 -115.899384890683 0 -115.899384890683 -39.544323340769552 0 0 0 0 -421.72585314450288 -9.5308071736955071 0 -9.5308071736955071 61.198872455261153 0 0 0 0 -552.16063027179371 -88.909440066948264 0 -88.909440066948264 -4.7101441377599258 0 0 0 0 -562.73983879902016 144.70732630915336 0 144.70732630915336 180.05773611915447 0 0 0 0 -363.61211105194138 -599.35620294976229 0 -599.35620294976229 -589.58682137726373 0 0 0 0 -6.5093674668336732 2.1085662386407016 0 2.1085662386407016 0.030071796771329318 0 0 0 0 -234.73710407668568 14.882535742035543 0 14.882535742035543 -629.48480585436243 0 0 0 0 -726.19837261232124 -119.3657615285681 0 -119.3657615285681 -89.113614530608174 0 0 0 0 -46.945988471155943 -134.97989893211161 0 -134.97989893211161 19.348122044498268 0 0 0 0 -75.604291222512984 -123.89963789061221 0 -123.89963789061221 -15.70379969685564 0 0 0 0 -58.778073272469328 -173.48360160440347 0 -173.48360160440347 -41.429965082530543 0 0 0 0 27.120319015087489 -126.98202709469115 0 -126.98202709469115 -17.562955431738374 0 0 0 0 -31.321206962136785 -114.01639969336247 0 -114.01639969336247 16.405406262916586 0 0 0 0 16.236722153777919 -87.65209704722929 0 -87.65209704722929 -16.898915130270325 0 0 0 0 -12.411135767903033 -121.03587399085882 0 -121.03587399085882 -9.5132120250855223 0 0 0 0 -64.452068962531484 -94.596325166197857 0 -94.596325166197857 -11.050396013048157 0 0 0 0 -31.763402505745631 -128.77559430831812 0 -128.77559430831812 -38.245672573033517 0 0 0 0 -117.42411643802188 -79.174389927206903 0 -79.174389927206903 -53.368433779811312 0 0 0 0 -84.759012028604047 -146.93859958149005 0 -146.93859958149005 -60.128895104679259 0 0 0 0 -78.258183463975001 -117.30785832058018 0 -117.30785832058018 -22.444764987307281 0 0 0 0 -144.12105273050838 -79.039718862408336 0 -79.039718862408336 -26.633618954609119 0 0 0 0 -154.5773526447565 -120.02561461066853 0 -120.02561461066853 -34.788072962575825 0 0 0 0 1.1358588918274215 -1.3207355051495524 0 -1.3207355051495524 0.45231972844974422 0 0 0 0 -95.562447651826005 87.528973692151112 0 87.528973692151112 -225.24025685768174 0 0 0 0 -130.0847965422663 -94.038341146436323 0 -94.038341146436323 -119.81187550658433 0 0 0 0 -117.41524914028287 -209.06895895366779 0 -209.06895895366779 -79.939060386146139 0 0 0 0 -111.74743976041373 -180.630804311063 0 -180.630804311063 44.328408184970613 0 0 0 0 122.72995275352514 -2.517138848439572 0 -2.517138848439572 -71.699371294384036 0 0 0 0 120.34848469037752 -24.813087356667893 0 -24.813087356667893 -54.237479331206487 0 0 0 0 119.26408051902945 -9.7627605270299682 0 -9.7627605270299682 -55.110685694984568 0 0 0 0 28.487514223877938 -26.978703960520715 0 -26.978703960520715 -8.2176346324953329 0 0 0 0 -229.16473430796077 -184.99134181197064 0 -184.99134181197064 83.525272739898355 0 0 0 0 -229.08565755571249 -170.31820181883256 0 -170.31820181883256 -63.281973085235222 0 0 0 0 -171.96334825951271 -67.627747811024165 0 -67.627747811024165 -175.56997374373896 0 0 0 0 3.252144726329858 -3.1454278391169455 0 -3.1454278391169455 3.1229666957400468 0 0 0 0 -243.03989129594811 -102.67084648218042 0 -102.67084648218042 -41.33458469179277 0 0 0 0 -160.17889574579203 -108.31147711825543 0 -108.31147711825543 -57.086760515398055 0 0 0 0 -164.00993896361615 -111.53909772128736 0 -111.53909772128736 -53.64907563381712 0 0 0 0 -202.27823113268641 -116.09566611794799 0 -116.09566611794799 -34.538583268564253 0 0 0 0 -173.6486363400536 -147.05508547869067 0 -147.05508547869067 -103.45207615241452 0 0 0 0 116.17780927009517 -28.378050960020119 0 -28.378050960020119 -14.074216962548235 0 0 0 0 77.671875749761966 -0.082628277645198978 0 -0.082628277645198978 34.637427264196958 0 0 0 0 94.666633604208982 12.516971732261482 0 12.516971732261482 -76.557407886466535 0 0 0 0 101.29319548666899 -3.8944414627694641 0 -3.8944414627694641 -37.353442759500467 0 0 0 0 121.06366948672076 -10.989524290844201 0 -10.989524290844201 -111.04019199269896 0 0 0 0 109.19791704472379 -9.8947112808888278 0 -9.8947112808888278 -87.719389468657027 0 0 0 0 160.58707184091509 -35.44073240009493 0 -35.44073240009493 -102.19552768690119 0 0 0 0 289.10721846146225 -39.085172697181406 0 -39.085172697181406 -122.11282878791644 0 0 0 0 213.41969723796092 -208.69570835357354 0 -208.69570835357354 85.510139520200028 0 0 0 0 12.480963765348861 -54.36138192603903 0 -54.36138192603903 225.59492754202256 0 0 0 0 4.5407450180651168 1.5446732540751711 0 1.5446732540751711 -1.1885646170223687 0 0 0 0 -6.7057318616698467 19.394775877208303 0 19.394775877208303 23.981136372945002 0 0 0 0 73.585347832547995 -154.8515916733304 0 -154.8515916733304 -28.815928638432524 0 0 0 0 -23.8669448517403 -137.42926235565915 0 -137.42926235565915 -11.974347329905868 0 0 0 0 86.117233273376769 -77.850381399945036 0 -77.850381399945036 -48.907087147006678 0 0 0 0 34.773855462935899 -36.342904874025407 0 -36.342904874025407 -53.462216113061913 0 0 0 0 121.75457366476894 -93.116150045365885 0 -93.116150045365885 -54.254503244472289 0 0 0 0 29.694428552606411 -28.616156387543992 0 -28.616156387543992 -7.6246501514270903 0 0 0 0 -253.65199863609996 -295.577974871896 0 -295.577974871896 178.83812361047512 0 0 0 0 -111.33430952998242 -107.80107486212546 0 -107.80107486212546 104.77846291318747 0 0 0 0 -125.56077962064501 -29.327604571759821 0 -29.327604571759821 -71.614861535043019 0 0 0 0 31.011762485088667 -28.231155887918966 0 -28.231155887918966 -11.077925275883899 0 0 0 0 -88.483254664914966 -168.6911957227785 0 -168.6911957227785 -139.90729660171201 0 0 0 0 -50.232414894397152 -116.40341954613359 0 -116.40341954613359 -197.33388915559408 0 0 0 0 -59.152458311997179 -119.1972469521952 0 -119.1972469521952 -61.141309833328705 0 0 0 0 -26.818529664637936 -128.38615646106518 0 -128.38615646106518 -144.34341685648906 0 0 0 0 -41.689466493604414 -125.43661654019161 0 -125.43661654019161 -58.956251270277789 0 0 0 0 -95.320524965576169 -93.907656916026554 0 -93.907656916026554 -13.496548010527476 0 0 0 0 -28.054669400396051 -137.34324509646103 0 -137.34324509646103 14.397232689336306 0 0 0 0 -85.915963104995626 -53.930753733417077 0 -53.930753733417077 28.819684368025264 0 0 0 0 33.891754667236683 -29.717036138469091 0 -29.717036138469091 -11.767811758686456 0 0 0 0 -3.0008626598264527 -62.347408424209334 0 -62.347408424209334 -38.8812971066709 0 0 0 0 -29.979707061568206 -134.12715179346333 0 -134.12715179346333 -154.25882275145705 0 0 0 0 -72.810158447037793 -128.14039747079005 0 -128.14039747079005 -133.87424143680073 0 0 0 0 -1.1258108596803922 -9.4326549215271314 0 -9.4326549215271314 -1.8722833245043731 0 0 0 0 -23.47590100128582 -72.709377006360228 0 -72.709377006360228 -54.880717511232433 0 0 0 0 0.54772110512207917 -11.517369948468815 0 -11.517369948468815 -2.0364405404172281 0 0 0 0 -90.372005918046852 -53.764857449238662 0 -53.764857449238662 15.841911017987513 0 0 0 0 -13.246362683402367 -77.613110175719157 0 -77.613110175719157 -60.120553150201886 0 0 0 0 -15.494473923313308 -82.867051605456254 0 -82.867051605456254 -42.714406930086625 0 0 0 0 -16.584701913459867 -89.192256060600812 0 -89.192256060600812 -78.061571053165608 0 0 0 0 107.86396697719465 -46.855309085545741 0 -46.855309085545741 -122.30451197641014 0 0 0 0 -23.581676272445101 -30.027511385207603 0 -30.027511385207603 -85.546198503583582 0 0 0 0 68.440374652704122 -71.864851912096128 0 -71.864851912096128 -74.626169542465504 0 0 0 0 47.257462113725296 -141.36118329398528 0 -141.36118329398528 -109.15668075529902 0 0 0 0 208.45832243020504 -141.55598188592421 0 -141.55598188592421 -133.34652536390422 0 0 0 0 -17.968952067656573 -151.01862780305282 0 -151.01862780305282 -93.51504598925203 0 0 0 0 -33.168723549108108 -122.30881606534149 0 -122.30881606534149 -42.136186334082595 0 0 0 0 5.8510649482086592 -117.38362718115695 0 -117.38362718115695 -56.548775761821162 0 0 0 0 -56.180261971307118 -149.44885626718587 0 -149.44885626718587 -50.908921724178072 0 0 0 0 -68.498165951613373 -123.29015090561734 0 -123.29015090561734 -40.855357154738158 0 0 0 0 -45.448659551433593 -103.77197262039044 0 -103.77197262039044 -28.068498221394293 0 0 0 0 -46.717048301969044 -95.465174309758027 0 -95.465174309758027 -32.342425287104561 0 0 0 0 -18.22468771736385 -84.897302617971945 0 -84.897302617971945 -44.220733012074561 0 0 0 0 -40.328601378638268 -92.619099330770041 0 -92.619099330770041 -42.632890410313848 0 0 0 0 -34.462291357369395 -78.970573596272516 0 -78.970573596272516 -31.904011129561695 0 0 0 0 -34.870354061376929 -76.993557430055262 0 -76.993557430055262 -33.432833540158754 0 0 0 0 -32.218617660746531 -76.901174585678746 0 -76.901174585678746 -34.889166911056236 0 0 0 0 -258.60763876679903 -177.51072991406181 0 -177.51072991406181 19.652280046799206 0 0 0 0 -229.19493859637987 -128.29073182746652 0 -128.29073182746652 37.663904873284082 0 0 0 0 -256.35942826924611 -103.68417599051554 0 -103.68417599051554 43.035859354396962 0 0 0 0 -206.3863552877574 -66.016562714874453 0 -66.016562714874453 34.47771097365694 0 0 0 0 -214.73337421615452 -46.191472958560098 0 -46.191472958560098 28.159302472220588 0 0 0 0 -254.33792328792208 -1.3805122172539086 0 -1.3805122172539086 8.8624685359245632 0 0 0 0 -262.60991446363732 -70.513610857342428 0 -70.513610857342428 34.483682323072571 0 0 0 0 -313.63654403113435 -70.570010718600088 0 -70.570010718600088 31.482005908485007 0 0 0 0 -322.76933514389293 -57.924913859207663 0 -57.924913859207663 45.744281746616252 0 0 0 0 -319.1815770600524 34.198591196851339 0 34.198591196851339 46.02736371066203 0 0 0 0 -443.19331335004972 -52.034753016354443 0 -52.034753016354443 46.395014283225464 0 0 0 0 -405.28822092707196 -219.00108897210703 0 -219.00108897210703 -61.904855199885787 0 0 0 0 -324.72386876992903 -145.68766738125987 0 -145.68766738125987 4.5848446102281741 0 0 0 0 -333.35361380048744 -158.02345928074465 0 -158.02345928074465 29.368184199609459 0 0 0 0 -344.78393216833729 -274.63061669801402 0 -274.63061669801402 -24.90675272055887 0 0 0 0 34.907179315790927 -262.04147343599925 0 -262.04147343599925 17.285655219235423 0 0 0 0 1.8400834722206127 -192.02609878176918 0 -192.02609878176918 -107.08655903503131 0 0 0 0 -26.618529055517683 -153.72736179095591 0 -153.72736179095591 -50.50854699964475 0 0 0 0 -50.922767273195859 -194.05576668138383 0 -194.05576668138383 -37.105676611341551 0 0 0 0 -163.45942427142381 -238.1884948659017 0 -238.1884948659017 -52.612360909761264 0 0 0 0 -152.2055563576705 -203.60274935537564 0 -203.60274935537564 -9.3773250760150404 0 0 0 0 -129.13386883331077 -192.80409699384018 0 -192.80409699384018 -29.625566966195038 0 0 0 0 -176.27725670109294 -160.96540594607086 0 -160.96540594607086 7.4582818668131949 0 0 0 0 -62.126885380297608 -153.82425000891271 0 -153.82425000891271 -21.59701025421964 0 0 0 0 -117.81525012582733 -148.81668314931449 0 -148.81668314931449 -20.813501677101158 0 0 0 0 -70.118090651566035 -122.07361799123373 0 -122.07361799123373 -5.8834577202906075 0 0 0 0 -161.80783096359937 -122.89865989870668 0 -122.89865989870668 27.819926792000842 0 0 0 0 -115.24627467041478 -138.71045283085914 0 -138.71045283085914 14.12053315896992 0 0 0 0 -149.29693925414631 -109.4125314087305 0 -109.4125314087305 39.489887326053577 0 0 0 0 -170.87330541025221 -150.29875485574394 0 -150.29875485574394 27.817482522750652 0 0 0 0 -209.77822870716273 -124.37121868006125 0 -124.37121868006125 36.715578476778319 0 0 0 0 -180.86321315878649 -92.490317838715782 0 -92.490317838715782 44.244837974727716 0 0 0 0 -188.0170604804016 -85.25237987177934 0 -85.25237987177934 42.272248164510529 0 0 0 0 -159.56589624712706 -49.173009979172093 0 -49.173009979172093 38.185890728833328 0 0 0 0 -143.41991897251228 -75.777186658126084 0 -75.777186658126084 43.342863537936864 0 0 0 0 -164.75480308124111 -93.556100980330484 0 -93.556100980330484 43.373701097316371 0 0 0 0 -145.88625174785284 -72.613052270280605 0 -72.613052270280605 47.05350842478947 0 0 0 0 -105.89291456138926 -66.196570374189832 0 -66.196570374189832 37.585841291380348 0 0 0 0 -100.05837778893115 -45.573198583991143 0 -45.573198583991143 23.364759475851315 0 0 0 0 -123.81510954387568 -54.171062912273555 0 -54.171062912273555 36.410427729519142 0 0 0 0 -0.98019461852046152 -28.750820560507819 0 -28.750820560507819 17.187788082942106 0 0 0 0 28.044507415158876 -38.513369368772146 0 -38.513369368772146 6.383581416659581 0 0 0 0 -44.982299137727864 -18.587088662441602 0 -18.587088662441602 10.571896358480444 0 0 0 0 -70.836801455702926 -69.334964584122645 0 -69.334964584122645 40.608123443273143 0 0 0 0 -111.77626369588597 -17.904964761202791 0 -17.904964761202791 17.35721846915294 0 0 0 0 -88.491141140018044 -43.625246190289545 0 -43.625246190289545 21.503282537269115 0 0 0 0 5.7029023269629473 -4.154663472991043 0 -4.154663472991043 2.2559346184735318 0 0 0 0 -67.925537642304477 -19.000750594821511 0 -19.000750594821511 45.496331953669142 0 0 0 0 -68.647913053658101 -23.071140561227367 0 -23.071140561227367 24.008443830214674 0 0 0 0 -105.99668767549338 -32.308350524184789 0 -32.308350524184789 38.98614598673521 0 0 0 0 -64.41649642122519 -11.260894506192926 0 -11.260894506192926 22.341026531677926 0 0 0 0 -39.877887947142042 -43.918433896305942 0 -43.918433896305942 34.65496161916235 0 0 0 0 -146.07591040414172 -60.335822145796556 0 -60.335822145796556 35.074733857058163 0 0 0 0 -110.33408720378793 -37.846718148310174 0 -37.846718148310174 20.03746243067144 0 0 0 0 -117.52406114648238 -34.302331795925966 0 -34.302331795925966 35.404753925631667 0 0 0 0 -139.67383704377153 -43.656171920207271 0 -43.656171920207271 32.299722789502994 0 0 0 0 -112.31366547720472 -20.802383602906048 0 -20.802383602906048 28.131418858953111 0 0 0 0 -169.46167185553441 -39.702230549037267 0 -39.702230549037267 40.911000357598823 0 0 0 0 -161.04151901339856 -60.483615526698486 0 -60.483615526698486 28.9513790877063 0 0 0 0 -150.99785523142873 -42.538895311725355 0 -42.538895311725355 19.642036548508258 0 0 0 0 -159.05447163966346 -66.734387103264453 0 -66.734387103264453 -52.131102755171014 0 0 0 0 -180.88448871613582 -60.865259787660762 0 -60.865259787660762 24.476423858155613 0 0 0 0 -163.27210260085928 -23.274358181856769 0 -23.274358181856769 35.111758096092672 0 0 0 0 -145.74761731506351 -29.44612765549391 0 -29.44612765549391 21.116534900887928 0 0 0 0 -148.15601000899096 -29.823875514382962 0 -29.823875514382962 39.178307292168029 0 0 0 0 0.077081198052941335 -4.594679592068097 0 -4.594679592068097 2.4127237821139502 0 0 0 0 15.307406546423749 -14.478421099621301 0 -14.478421099621301 -3.0320469479338499 0 0 0 0 -33.717497533225583 -37.063810977688263 0 -37.063810977688263 -1.519421297693043 0 0 0 0 -90.469183511968367 -0.06501605687844858 0 -0.06501605687844858 26.553902268851743 0 0 0 0 -84.055014893828471 -25.268519650131566 0 -25.268519650131566 25.411775462758669 0 0 0 0 -97.428421650083919 -11.878359745553098 0 -11.878359745553098 24.393119495463907 0 0 0 0 -26.844740262969935 7.674152203824633 0 7.674152203824633 11.142703717396216 0 0 0 0 46.875405183553084 -86.228786848576419 0 -86.228786848576419 6.5501981534248443 0 0 0 0 -2.8743224814292487 -4.924493164818319 0 -4.924493164818319 -3.5253145756884692 0 0 0 0 -95.407401844515107 -52.857105532777496 0 -52.857105532777496 63.314380326148239 0 0 0 0 63.375214099188725 -42.495808315670729 0 -42.495808315670729 -93.418626585393213 0 0 0 0 0.80005747063549393 -2.4812142693709589 0 -2.4812142693709589 -0.34718647809346681 0 0 0 0 -32.081591013067282 24.288117478521599 0 24.288117478521599 -19.349374003621961 0 0 0 0 74.925811884830068 21.463364744126011 0 21.463364744126011 28.574748025823283 0 0 0 0 -8.2869598281331491 -70.388746100066783 0 -70.388746100066783 -78.401501385027586 0 0 0 0 130.5105306487626 -71.582073809528083 0 -71.582073809528083 -91.06036154265712 0 0 0 0 -5.1818329901425386 77.792341390962974 0 77.792341390962974 10.181625334242199 0 0 0 0 -254.57415298254273 45.371382153953164 0 45.371382153953164 35.995879541303111 0 0 0 0 -258.49590149051528 32.977186390853603 0 32.977186390853603 11.883102034144031 0 0 0 0 -44.573612805286757 -12.963513615082775 0 -12.963513615082775 -71.528365169129756 0 0 0 0 -134.67779257711027 43.371475912601454 0 43.371475912601454 23.599173042231996 0 0 0 0 -237.75736641917047 -122.34502861739384 0 -122.34502861739384 34.219914411009995 0 0 0 0 -90.024759705687757 100.00728705381334 0 100.00728705381334 -66.316180417287114 0 0 0 0 -0.24003891710679781 -33.073715718547916 0 -33.073715718547916 -3.4359993471672823 0 0 0 0 4.7718539002380567 -19.345563705619952 0 -19.345563705619952 9.4824354597840284 0 0 0 0 9.9931224012639888 -17.20574150009918 0 -17.20574150009918 -8.5046858484355603 0 0 0 0 -6.9908001549209473 -28.302121118002361 0 -28.302121118002361 -0.67272847749836728 0 0 0 0 57.849014703952889 7.7717813385267931 0 7.7717813385267931 -13.081660992869729 0 0 0 0 52.565945541588007 -80.83596990084834 0 -80.83596990084834 -9.3357645484832119 0 0 0 0 2.5083571420123301 -21.009542066899261 0 -21.009542066899261 -18.63958893101605 0 0 0 0 -36.80645447018469 -29.74222450219122 0 -29.74222450219122 5.4588062872899172 0 0 0 0 9.1312876257688913 -29.937831666304191 0 -29.937831666304191 -23.333625239465619 0 0 0 0 6.5976231500414997 -27.77730923158229 0 -27.77730923158229 -7.5925051058351301 0 0 0 0 7.2559755549868896 -25.595690779809843 0 -25.595690779809843 -9.0839414243764622 0 0 0 0 13.28356616437668 -35.120794771370129 0 -35.120794771370129 -6.0209916054882342 0 0 0 0 6.2706062686575024 -29.484281391760305 0 -29.484281391760305 -8.6154223240100691 0 0 0 0 -2.0597203244201578 -19.149605779062952 0 -19.149605779062952 -7.6287717380104283 0 0 0 0 3.1606269240395122 -21.518585960720223 0 -21.518585960720223 -13.531500714067253 0 0 0 0 9.7293952974657767 -30.282375055409666 0 -30.282375055409666 12.749072473443704 0 0 0 0 12.839102070989611 -43.069939801189321 0 -43.069939801189321 2.2985545308401925 0 0 0 0 36.609391869333194 -22.207405879310954 0 -22.207405879310954 4.2041336371039506 0 0 0 0 8.9964122459568898 -36.717912772393902 0 -36.717912772393902 3.9053698313364293 0 0 0 0 12.144588227572967 -39.812452526166453 0 -39.812452526166453 -1.8541089966620348 0 0 0 0 7.2000340653654789 -25.38884128672861 0 -25.38884128672861 1.9798893329680904 0 0 0 0 9.9890281403822883 -31.23823526803244 0 -31.23823526803244 0.014291939238319173 0 0 0 0 8.4070679005142139 -20.41527101599095 0 -20.41527101599095 1.3141194848712487 0 0 0 0 8.7922304799718063 -24.206783065620485 0 -24.206783065620485 -6.3455839756608547 0 0 0 0 -8.194202912694891 -24.62108056276611 0 -24.62108056276611 -16.026127418515898 0 0 0 0 4.6044939063685888 -45.060875487781232 0 -45.060875487781232 20.011510934498801 0 0 0 0 5.4255413969221991 -32.88362446946303 0 -32.88362446946303 -14.134623716083752 0 0 0 0 8.7438601986156606 -22.860167082085525 0 -22.860167082085525 -6.7545542470219786 0 0 0 0 24.268129488948034 -37.652811172005386 0 -37.652811172005386 7.3601558744558133 0 0 0 0 3.1243596117058443 -32.421958505418928 0 -32.421958505418928 16.016946452903852 0 0 0 0 -21.766386353300277 -35.689473168628865 0 -35.689473168628865 25.378297125884274 0 0 0 0 -4.2356137002207106 -18.657131771204149 0 -18.657131771204149 22.787879969302594 0 0 0 0 -6.3587477553319331 -40.176598595649921 0 -40.176598595649921 31.2391360528527 0 0 0 0 4.8284309430225587 -28.349501648970318 0 -28.349501648970318 12.953627458913274 0 0 0 0 31.065415721579257 -30.774404171473634 0 -30.774404171473634 4.8095549271565687 0 0 0 0 -0.98710493174439762 -39.760663108860172 0 -39.760663108860172 14.316076701165002 0 0 0 0 -9.3349138193123053 -49.488248739788332 0 -49.488248739788332 4.6223499221814563 0 0 0 0 -5.0223594180361033 -52.75673288660073 0 -52.75673288660073 1.6329300932811748 0 0 0 0 -10.246750925238302 -49.563047474401174 0 -49.563047474401174 1.0715729955850293 0 0 0 0 -5.5476038796841749 -41.428565988741866 0 -41.428565988741866 2.704189535950718 0 0 0 0 -21.582825479182098 -24.868995080516029 0 -24.868995080516029 -6.5626005671780518 0 0 0 0 -10.124305353738237 -49.485191232733087 0 -49.485191232733087 -14.63049456101362 0 0 0 0 -29.398276136671484 -39.528941624424988 0 -39.528941624424988 3.4655596829106798 0 0 0 0 -1.8562559551319282 -35.675175501723061 0 -35.675175501723061 8.3236982584376165 0 0 0 0 5.1093876998565975 -15.557785881292148 0 -15.557785881292148 -2.244213032474363 0 0 0 0 -1.453441075146813 -10.074277860097602 0 -10.074277860097602 1.8783017847087109 0 0 0 0 31.135835992528882 -16.759816538131417 0 -16.759816538131417 -6.3779902800888522 0 0 0 0 6.3763498575747093 -6.3726069639252501 0 -6.3726069639252501 -5.7913000378938051 0 0 0 0 0.76136847282626263 -15.585436066956959 0 -15.585436066956959 4.6618047146614359 0 0 0 0 -6.6011610255619466 -21.498952249282748 0 -21.498952249282748 -7.421588991275911 0 0 0 0 24.020767540794623 -39.5759425402739 0 -39.5759425402739 0.93358925971188 0 0 0 0 -0.1076286749666906 -44.141734518907469 0 -44.141734518907469 0.27888645659004396 0 0 0 0 49.207782577141188 -44.254842476882914 0 -44.254842476882914 -17.732344774820376 0 0 0 0 -7.9980552044365254 -18.457179733770325 0 -18.457179733770325 -11.190125009399864 0 0 0 0 6.5744667708006901 -31.767217789712561 0 -31.767217789712561 -12.119192107576026 0 0 0 0 22.555973104652367 -26.129459130379473 0 -26.129459130379473 -0.010186809648075723 0 0 0 0 8.9818754255902604 -32.692104836918588 0 -32.692104836918588 -3.0877891360851208 0 0 0 0 42.449624615939683 -67.234156394319143 0 -67.234156394319143 49.185143457438244 0 0 0 0 -3.2258060896245695 -11.504591207214004 0 -11.504591207214004 -1.3322925382511528 0 0 0 0 2.5293455864812131 -44.708124045531804 0 -44.708124045531804 8.2425234667025506 0 0 0 0 4.8507929199076898 -36.290962665561437 0 -36.290962665561437 -2.9722495896858163 0 0 0 0 -21.067870462167775 -27.68108411328285 0 -27.68108411328285 5.2629891593351203 0 0 0 0 -11.274993402606015 -17.58920070735843 0 -17.58920070735843 5.608237956183487 0 0 0 0 -9.7077898961506435 -27.604894856942337 0 -27.604894856942337 -0.5972792792645123 0 0 0 0 -6.0480834412750255 -25.713302300654071 0 -25.713302300654071 4.0229717046298781 0 0 0 0 -2.132722523818277 -21.6509631979674 0 -21.6509631979674 -6.9848074367560713 0 0 0 0 2.8300299795446335 -37.766504894911122 0 -37.766504894911122 3.6363252300591284 0 0 0 0 -2.7169581825191926 -38.365953697245459 0 -38.365953697245459 -10.105753369920421 0 0 0 0 -3.3860628657859309 -24.931889962484121 0 -24.931889962484121 5.4157000829090123 0 0 0 0 -10.190225539517414 -28.609805769739687 0 -28.609805769739687 -5.6775728023110608 0 0 0 0 -7.7000311758456519 -36.234371497645498 0 -36.234371497645498 -3.2102551934076473 0 0 0 0 -0.94764639632474257 -25.188684634323344 0 -25.188684634323344 -10.65251746861801 0 0 0 0 -19.073350034374016 -67.887943760977691 0 -67.887943760977691 -32.09332846011921 0 0 0 0 -70.818030808499316 -39.026081282501309 0 -39.026081282501309 23.223100615885073 0 0 0 0 71.222990864444 -52.097370269504381 0 -52.097370269504381 -29.403781996302314 0 0 0 0 -1.085695275179333 -5.6687823302336611 0 -5.6687823302336611 0.90568573740770475 0 0 0 0 -118.98868697659418 -29.089186164190323 0 -29.089186164190323 60.931020064883342 0 0 0 0 -44.162621043491527 -64.947093407126886 0 -64.947093407126886 57.197717307917628 0 0 0 0 96.938424043008126 -21.204044825342862 0 -21.204044825342862 -90.204976040433394 0 0 0 0 1.4331299569448106 -4.1851637751430806 0 -4.1851637751430806 5.5751272886972458 0 0 0 0 -10.701845472708641 -31.464862079678404 0 -31.464862079678404 -8.7362475611649071 0 0 0 0 -12.857211863386283 -26.823850762144332 0 -26.823850762144332 -9.9421117440047055 0 0 0 0 -11.547530899486446 -40.129986308849766 0 -40.129986308849766 8.7812731175727095 0 0 0 0 0.070775942795464175 -4.172636766804299 0 -4.172636766804299 7.0876063422755706 0 0 0 0 -10.77886819650174 -24.575250609001866 0 -24.575250609001866 -0.16947714240097866 0 0 0 0 68.302317308989586 -75.502979869699629 0 -75.502979869699629 35.160013407989027 0 0 0 0 32.445204118834226 -48.32675252799163 0 -48.32675252799163 46.460513774276478 0 0 0 0 53.353224127175054 -35.452478143353801 0 -35.452478143353801 14.601777449719521 0 0 0 0 -10.106906748478892 -25.609091204608468 0 -25.609091204608468 -16.579853664529395 0 0 0 0 -5.2454161057030433 -49.783131095723661 0 -49.783131095723661 -20.496607190490977 0 0 0 0 -6.8782723208933021 -50.214923708283095 0 -50.214923708283095 -13.407130465073635 0 0 0 0 -46.243443504354218 -146.71030847701923 0 -146.71030847701923 -84.60386692947759 0 0 0 0 0.11697818801036419 -27.738984916994372 0 -27.738984916994372 -11.714227215352558 0 0 0 0 -92.352623745100573 -116.01438420485556 0 -116.01438420485556 -31.316394946232549 0 0 0 0 -2.0701042958397693 -1.6909924021237686 0 -1.6909924021237686 3.4089264035087874 0 0 0 0 -6.692143910091545 -9.8205747948632052 0 -9.8205747948632052 -17.870332051003516 0 0 0 0 22.84280789767945 -4.0648966573371581 0 -4.0648966573371581 18.942941566997433 0 0 0 0 88.161396927531314 -66.865605612205968 0 -66.865605612205968 -36.798504751744531 0 0 0 0 -2.4517296970090356 -3.6192729349294979 0 -3.6192729349294979 -3.5020499718772644 0 0 0 0 6.3306220521917567 -38.582596438342534 0 -38.582596438342534 -57.438115314344032 0 0 0 0 6.6956345931139367 -12.016834064486147 0 -12.016834064486147 9.3621480912006518 0 0 0 0 1.5032630443401231 -6.5384306109492698 0 -6.5384306109492698 -6.3567973584871567 0 0 0 0 -7.939203291813854 -22.384501352102614 0 -22.384501352102614 5.5647483873834105 0 0 0 0 8.8713600894734554 -26.491438587940593 0 -26.491438587940593 -11.663077943917472 0 0 0 0 8.1375085523246611 -15.693534097223274 0 -15.693534097223274 11.10200966339203 0 0 0 0 73.79722589341327 -18.184453567100263 0 -18.184453567100263 -57.715192185275555 0 0 0 0 -47.88320964223567 81.796970600426675 0 81.796970600426675 -71.810565269408926 0 0 0 0 1.2034023244812175 0.25812950122119105 0 0.25812950122119105 -4.5273385823290351 0 0 0 0 6.0389584792965252 -44.72283664340425 0 -44.72283664340425 -46.48839239998415 0 0 0 0 6.4399821857784758 -8.1785534229662744 0 -8.1785534229662744 10.413256476360871 0 0 0 0 25.359118928510725 -12.623115609712613 0 -12.623115609712613 -15.705203166636181 0 0 0 0 9.3976093409364694 -49.822683500549942 0 -49.822683500549942 -7.9845293858895729 0 0 0 0 301.91533437042744 -3.4492477463646054 0 -3.4492477463646054 -25.91818946375605 0 0 0 0 -30.328008267049881 119.71262878583875 0 119.71262878583875 425.66056139341197 0 0 0 0 0.80785805246514997 -3.0197166301178484 0 -3.0197166301178484 5.238725525559186 0 0 0 0 -81.529130783619621 -76.313560721328713 0 -76.313560721328713 65.072314650306907 0 0 0 0 -204.88088086625885 21.611603055132349 0 21.611603055132349 454.34941475157495 0 0 0 0 -450.21731128639658 -5.6175409446859703 0 -5.6175409446859703 89.608498819711713 0 0 0 0 2.6811513820608468 -6.8379654454412382 0 -6.8379654454412382 0.41328848425484965 0 0 0 0 -102.70482711627847 -0.69941757927244907 0 -0.69941757927244907 502.69194186849393 0 0 0 0 96.958341553345235 53.561598354643365 0 53.561598354643365 -96.029808864645929 0 0 0 0 -44.47108108845805 -190.95730252836557 0 -190.95730252836557 341.44525326016674 0 0 0 0 172.2971907051724 -24.791693724732795 0 -24.791693724732795 -109.77254578492284 0 0 0 0 61.60951810041297 92.459918557068704 0 92.459918557068704 277.42313118762604 0 0 0 0 -107.59647521050283 -132.67142255376831 0 -132.67142255376831 6.0544258900260957 0 0 0 0 -236.34192932916267 -237.0064933150245 0 -237.0064933150245 486.11270427294562 0 0 0 0 61.959286710472632 -432.04326185337209 0 -432.04326185337209 88.055564218820052 0 0 0 0 -89.779982018255396 -168.86613739499629 0 -168.86613739499629 -145.98932957877591 0 0 0 0 -173.133603523499 -493.73841160506208 0 -493.73841160506208 -159.38776217258351 0 0 0 0 -48.054168646303879 -219.29570578250537 0 -219.29570578250537 55.037532177172011 0 0 0 0 219.29217895858164 -289.50017310175463 0 -289.50017310175463 -590.01648807506376 0 0 0 0 238.52477317110606 -21.828834526613036 0 -21.828834526613036 -272.67813441234989 0 0 0 0 68.3076911058306 -305.69894674835837 0 -305.69894674835837 -139.3496321109285 0 0 0 0 -6.7932553954815376 -207.22137946402336 0 -207.22137946402336 163.77707164938329 0 0 0 0 141.85917958991013 -188.56227826545768 0 -188.56227826545768 24.372289048284983 0 0 0 0 55.81858858695341 -243.18741162504602 0 -243.18741162504602 45.993650271463821 0 0 0 0 121.86117228077637 -171.90559709829495 0 -171.90559709829495 69.413068647367254 0 0 0 0 15.043046348495409 -233.71035313655329 0 -233.71035313655329 58.17632378907706 0 0 0 0 267.26023138748133 -117.32764836692513 0 -117.32764836692513 8.6347804614524648 0 0 0 0 62.945018034304667 -96.861892299568353 0 -96.861892299568353 173.3462598769255 0 0 0 0 33.691992411018873 -119.12627098301027 0 -119.12627098301027 50.960248477182176 0 0 0 0 -218.93574230521335 -141.72994235789702 0 -141.72994235789702 60.728418928973042 0 0 0 0 47.847401583676401 -143.88775068939503 0 -143.88775068939503 34.035673028225574 0 0 0 0 0.59124132954569575 -3.8930450898635698 0 -3.8930450898635698 -0.65116930857176314 0 0 0 0 7.919065376619983 -50.344722344008915 0 -50.344722344008915 -70.97463537094518 0 0 0 0 207.28301408701373 -116.6168082346538 0 -116.6168082346538 -21.685963219686641 0 0 0 0 -5.6297448288574845 -4.4895499217602755 0 -4.4895499217602755 -30.09392195735311 0 0 0 0 51.991135779106799 31.360301979115775 0 31.360301979115775 -79.419968711719775 0 0 0 0 -28.974052912496308 -21.035960645580651 0 -21.035960645580651 -20.229643302275889 0 0 0 0 -5.867291651080734 -35.748217506850686 0 -35.748217506850686 -36.564113358719354 0 0 0 0 71.420173462611274 -81.283362292750098 0 -81.283362292750098 -85.280102143352451 0 0 0 0 -8.6025396481836793 -24.622509921972657 0 -24.622509921972657 -9.9411824804886884 0 0 0 0 -1.5541083091917187 -30.320621804202759 0 -30.320621804202759 -29.176864999934981 0 0 0 0 -2.9860239643749082 -21.162976669752879 0 -21.162976669752879 -3.3928570086645777 0 0 0 0 -107.63444221527243 -0.7206842568657521 0 -0.7206842568657521 -37.991842366327546 0 0 0 0 124.21813660411135 -38.200847164084735 0 -38.200847164084735 -59.920151411689858 0 0 0 0 119.37856231589831 -125.50011491142277 0 -125.50011491142277 -20.405180753510649 0 0 0 0 -7.4693296921969434 -10.171181788044343 0 -10.171181788044343 -20.117125969866734 0 0 0 0 -10.841725931584278 11.163609560936379 0 11.163609560936379 25.62471893768452 0 0 0 0 147.86790762346573 -198.52075508489139 0 -198.52075508489139 62.314494984058115 0 0 0 0 262.87736210199 92.668504832594706 0 92.668504832594706 100.86920847753959 0 0 0 0 124.6741347513962 -165.38967804265937 0 -165.38967804265937 127.57487463693451 0 0 0 0 -65.671241258351074 134.21681247406559 0 134.21681247406559 -80.371949421617046 0 0 0 0 -84.839511077119823 -207.9797221852341 0 -207.9797221852341 -253.83855522336307 0 0 0 0 -982.71236856599626 -16.428930759943796 0 -16.428930759943796 61.970399631702094 0 0 0 0 -14.882152556034271 -0.94768234458570078 0 -0.94768234458570078 -603.64577664251692 0 0 0 0 -3.5266002614142309 -4.2716960571917193 0 -4.2716960571917193 -6.0479525887088528 0 0 0 0 -705.33149551728366 -620.71186199497515 0 -620.71186199497515 -93.431904465407115 0 0 0 0 -297.01302301706255 -308.65029023638772 0 -308.65029023638772 -208.74798758135921 0 0 0 0 -306.46812351790595 -108.25119827332492 0 -108.25119827332492 -46.59013825087186 0 0 0 0 -156.59383542664909 -20.494871607160349 0 -20.494871607160349 2.7632898889860371 0 0 0 0 -124.76914048649178 -108.97758461417743 0 -108.97758461417743 -86.037120691533346 0 0 0 0 -40.273927045273012 -54.209736066355617 0 -54.209736066355617 63.388686655669517 0 0 0 0 -20.532070257096827 -1.5123206296075011 0 -1.5123206296075011 -5.1842596166875472 0 0 0 0 -151.93530863451815 -117.66942329376161 0 -117.66942329376161 -133.92788278028274 0 0 0 0 -3.981076410633186 1.4532533222715571 0 1.4532533222715571 1.5192434076054084 0 0 0 0 -280.92768974723504 66.375517746955666 0 66.375517746955666 61.225817068123433 0 0 0 0 122.07104369343301 84.989744521259126 0 84.989744521259126 -208.41887924570165 0 0 0 0 23.780955655222442 -29.589626977794978 0 -29.589626977794978 -113.48023388313413 0 0 0 0 41.986136987488408 -109.58823395743821 0 -109.58823395743821 -8.6712600184819166 0 0 0 0 6.4531086554336525 -76.158721350904216 0 -76.158721350904216 -9.9949062340201635 0 0 0 0 16.736529521603643 -62.226745478761586 0 -62.226745478761586 -90.384117602596234 0 0 0 0 -14.461716019171945 -30.796985894040404 0 -30.796985894040404 -14.230803529555487 0 0 0 0 0.92435591787134297 -23.567053795192297 0 -23.567053795192297 -19.200286368422656 0 0 0 0 0.17051155125852802 -34.735755126836921 0 -34.735755126836921 -66.129149314496317 0 0 0 0 -2.9732334511463705 -32.507595975239838 0 -32.507595975239838 -21.426529402764572 0 0 0 0 2.8656354055120659 -14.253305589511495 0 -14.253305589511495 -26.131667053058585 0 0 0 0 -7.937049987815044 -85.609941683444504 0 -85.609941683444504 46.82170225799473 0 0 0 0 23.131174954593007 -38.947246318095949 0 -38.947246318095949 -23.54282162205709 0 0 0 0 32.413949593723373 -23.388603515910745 0 -23.388603515910745 -16.178898735752341 0 0 0 0 -2.8301589261565026 -23.284190942248344 0 -23.284190942248344 -11.084263017044202 0 0 0 0 404.40220697732002 -463.39887714343467 0 -463.39887714343467 -302.15470193731767 0 0 0 0 0.38833949644633226 -12.386661314891299 0 -12.386661314891299 -18.64643170904186 0 0 0 0 8.718558116179338 -19.866566127646927 0 -19.866566127646927 -18.451461396582893 0 0 0 0 -150.33357005454491 36.099148559185551 0 36.099148559185551 45.653013253522658 0 0 0 0 0.89828762688489405 -28.438240786597476 0 -28.438240786597476 -25.246951100843035 0 0 0 0 6.0196733346147084 -20.338866820354269 0 -20.338866820354269 -14.32032649653911 0 0 0 0 -0.37787429035902065 -15.121623571558064 0 -15.121623571558064 -18.175013959264398 0 0 0 0 -51.236226460357784 -28.396560098257396 0 -28.396560098257396 19.053202773096928 0 0 0 0 1.769846357643962 -23.678650391110342 0 -23.678650391110342 -19.23494179324948 0 0 0 0 
</DataArray>
<DataArray type="Float64" Name="cross_section_updated" format="ascii">
1 0.010374891331954704 1 1 1 0.010693443017748768 1 1 1 1 1 0.012303989729721335 1 1 1 0.013663259682946412 1 1 1 1 1 0.010265980404886167 1 1 0.010640181968921908 1 1 1 1 1 1 1 1 1 1 1 1 1 1 1 1 0.010955637551323652 1 1 1 1 1 1 1 1 1 1 1 1 1 1 1 1 1 0.013534225823949957 1 1 1 1 1 1 1 1 1 1 1 1 0.011482093977433439 1 1 1 1 1 0.0096100193274317111 1 0.0088080569374212169 1 1 1 1 1 1 0.010790645744861618 1 1 1 1 1 1 1 1 1 1 1 1 1 1 1 1 1 1 1 1 1 1 1 1 1 1 1 1 0.010008579131593984 1 1 0.010766609290941757 1 0.010052184792721779 1 1 1 1 1 1 1 1 0.01031164312403408 1 1 0.010194578385340379 1 1 1 1 1 1 1 0.010438496261746127 1 1 0.011032568205574494 1 1 1 1 1 1 1 1 0.010526226681040359 1 1 1 1 0.011517120108203865 1 1 0.011946530978487149 1 1 1 1 1 0.011651764472931002 1 1 1 1 1 1 1 1 1 0.0099486112573392623 1 0.0095239112120023527 1 1 1 1 1 1 1 0.0086020672506697468 1 1 0.0099978783686938098 0.010750317551601154 1 1 1 1 0.014703080055049531 1 1 1 1 1 0.013960790880839666 1 1 1 1 1 1 0.010177839795068587 1 1 1 0.0099763300064439914 1 1 1 1 1 1 1 1 1 1 1 1 1 1 1 1 1 1 1 1 1 1 0.010583735032048746 1 1 0.01098143405216016 1 1 1 1 1 1 1 1 1 1 1 1 1 1 1 1 1 1 0.010572637658695731 1 1 1 1 1 1 1 1 1 1 0.011823361398432609 1 1 1 1 1 1 1 0.013195322677951123 0.010023392210956262 0.0099787321805799387 1 1 1 1 1 1 1 1 1 0.0092249154447700179 1 1 1 1 1 1 1 0.010560278599734286 1 1 1 0.01021674538134441 1 1 0.013569249169369045 1 1 1 1 1 1 1 1 1 1 1 1 1 1 1 0.013765355029698598 1 1 1 0.0080337237525980269 1 1 1 1 1 1 1 1 1 1 1 1 1 1 1 1 1 1 1 1 1 1 1 1 1 1 1 0.012092283686608672 1 1 0.011451257831699353 1 1 1 1 1 1 1 1 1 1 0.010087385760701739 1 1 1 0.010293021609703404 1 1 1 1 1 1 1 0.0099592795913907763 1 1 1 1 0.013264607340225854 1 0.010519572953655732 1 1 1 1 1 0.006975618999786706 1 1 1 1 1 1 1 1 1 1 1 0.0099633739895282972 1 0.012580611605524291 1 0.0094060644673860366 0.0088657883206041902 1 0.0075802257843860313 1 1 0.011375377678211906 1 1 1 1 1 1 1 1 1 1 1 1 1 1 1 0.010464582615818159 1 1 1 1 1 1 1 0.0080975907447767732 0.013187256492705333 1 1 1 1 1 1 1 1 1 1 1 1 1 1 1 0.010185414169297701 1 1 1 0.010457282476041975 1 0.0087073016841901756 0.012579308189352026 1 1 1 1 0.0099288346892447768 1 0.0094759205241473424 1 1 1 1 1 1 1 1 1 1 0.014043956363900791 1 1 1 0.012389593996152361 1 1 1 1 1 1 1 1 1 0.0091785304847234288 1 0.007536904195776295 1 0.0072481304045963861 1 1 0.007858827160486621 0.01146516612597143 1 1 1 1 0.010659967658432731 1 1 1 1 0.0099058601735377162 0.012746935497483175 1 1 1 1 1 1 0.010395377252192774 1 1 1 1 1 1 1 1 1 1 0.0098618520847349976 1 1 1 0.010012322620920736 1 0.009662205549515971 1 1 1 0.010036560715505245 1 1 0.010647656880799048 1 1 0.0099685906670272436 0.010901514867189368 1 1 1 1 1 1 1 1 1 1 1 1 1 1 1 1 1 1 1 0.010549164412517251 1 1 1 1 0.010327355435779218 0.011570440437775947 1 1 0.0098544869377264373 1 1 1 1 0.011335427742019543 1 1 1 0.013228942213781635 1 1 1 1 1 1 0.0076707320376051078 1 1 1 1 1 1 1 0.0083537460217695727 1 1 0.0090427604536501578 1 0.0096953968224760198 1 1 1 1 1 1 1 1 1 1 1 0.01053885510493453 0.010379293714825081 1 1 1 1 1 1 1 1 1 0.010378293835652912 1 1 1 1 1 1 1 1 1 1 1 1 1 1 1 1 1 1 1 1 1 1 1 1 1 1 1 1 1 1 1 1 0.010089530789505028 1 1 1 1 0.010308055248585239 1 1 1 1 1 1 1 1 1 1 1 0.010980720339467703 1 0.011331632230995849 1 1 1 1 1 0.010608006029853137 1 1 1 1 1 1 1 1 1 1 1 1 1 1 1 1 1 1 1 1 1 1 1 1 1 1 1 1 1 1 1 1 1 1 1 1 1 1 1 1 1 1 1 1 1 1 1 0.010220187157697989 1 1 1 1 1 1 1 1 1 1 1 1 1 1 1 1 1 1 1 1 1 1 1 1 1 1 1 1 0.0099418586389466053 1 1 1 1 1 1 1 1 1 1 1 1 1 1 1 1 1 0.010208215954714543 1 1 1 1 1 1 1 1 1 1 1 1 1 1 1 1 1 1 1 1 1 1 1 1 1 1 1 1 1 1 1 1 1 1 1 1 0.015679602290236475 1 1 0.010119669040817207 1 1 1 1 1 1 1 1 1 1 1 1 1 1 1 1 0.010219443040544807 1 1 1 1 0.010646566333370924 0.010699032951570016 1 1 0.010588347962320983 1 1 1 1 1 1 1 1 1 0.010392226686774926 0.010902725862047021 1 1 1 1 0.013721721140643879 1 1 1 1 0.010075536108234074 1 1 1 0.010542071092191322 1 1 1 1 1 1 1 1 1 0.011282429990312622 1 1 1 1 1 1 1 1 1 1 1 1 1 1 1 1 1 1 1 1 1 1 1 1 0.010818452308414725 1 1 1 1 1 1 1 1 0.012101905624858855 1 1 1 1 0.010131966116528286 1 1 1 1 0.016150419520543524 0.0081523582112886187 1 1 1 1 1 1 1 1 1 1 0.0095618426941600793 1 1 1 1 1 1 1 1 1 0.010997140103668781 1 1 0.01303611458889309 1 0.011712609254858926 1 1 0.015383989057668825 1 1 1 0.0086777237905193809 1 1 1 1 1 1 1 1 1 1 1 0.0094374200376125764 1 1 1 1 1 0.0096098948917306398 0.010172807078042469 1 1 1 1 0.01129291605109347 1 1 1 0.010076612564063971 1 1 1 1 1 1 0.018308251974531502 1 1 1 1 1 0.0058884425253093054 1 1 1 1 0.010080307615053467 1 1 0.011871080932688727 1 0.012315233970742785 0.005640244485681534 1 0.021264533587844667 1 1 1 1 0.010829321040954689 1 0.010774632130883864 1 1 1 1 1 1 1 1 0.0093621064506302521 1 1 1 0.010193548874485666 1 1 1 1 1 1 0.0098274954999829304 1 1 1 1 1 1 0.0074245796653055144 0.0091607341701912346 1 1 1 1 1 1 0.010496394091996165 1 1 1 1 0.010005386095433758 1 1 1 1 1 1 1 1 1 0.0087526613206029905 1 1 1 1 1 1 0.010402603562385686 1 0.010164140022285264 1 1 1 1 0.0080680758188051115 1 1 0.010025047111822689 1 1 0.0098977673678878955 1 0.01003378964639836 1 1 1 1 1 1 1 1 0.0094433780940073458 1 0.0098784727349994252 1 1 1 1 1 1 1 1 1 1 0.0075395023824943175 1 1 1 1 1 1 1 1 1 0.010405207665337488 1 1 1 1 0.009994713104373637 0.0071819846326913479 1 1 0.010018901909554068 1 1 1 1 1 1 1 1 1 1 1 1 1 1 0.010121662216423495 1 0.010062949047300188 1 1 1 1 1 1 1 1 1 0.010070247888840835 1 1 1 1 1 1 1 1 1 1 1 1 1 1 1 1 1 1 1 1 1 1 1 1 1 1 1 1 1 1 1 1 1 1 1 1 1 1 1 1 1 1 1 1 1 1 1 1 1 1 1 1 1 0.0100989673443003 1 0.0069650649845383189 1 1 1 0.0071932055106557636 1 1 0.0095577065513707746 0.01034074285060386 1 1 1 1 1 1 1 1 1 0.0098391554816789784 1 1 1 1 1 1 1 1 1 1 1 1 1 1 1 1 1 1 1 1 1 1 1 1 1 1 1 1 1 1 1 0.0065266719357212639 1 1 1 1 0.0049784448124217725 1 1 1 1 1 1 1 0.010374011793565186 1 1 1 1 1 1 1 0.010265278501281987 1 1 1 1 1 1 0.0069010129840595584 1 0.010298551291185121 1 0.0072416376377469442 1 1 1 1 1 1 1 1 0.010027748233797866 1 1 1 1 1 1 0.010620809693895696 1 1 0.010077397395705578 1 1 1 1 1 1 1 1 1 1 1 1 1 0.0086387659885269249 1 0.010698040060239892 1 1 1 1 1 1 0.0097122903118065772 1 1 1 1 0.0082781756863388525 1 1 1 1 1 0.0073654680526861558 0.011650292489846193 1 0.0062977518240957542 1 1 1 0.009923933320796486 1 1 1 1 1 1 1 1 1 1 1 1 1 1 1 1 1 0.005754937711592913 1 1 1 1 1 1 1 1 1 1 1 1 1 1 1 1 1 0.010281717578676389 1 1 1 1 1 1 0.0060628638413099661 1 0.0099876884140386243 1 1 0.010003723844774395 1 1 1 1 1 0.0053579384429691809 1 1 0.012559712411891912 1 0.01037245816641285 0.0053240992529020913 0.009319090970070977 1 1 1 1 1 1 1 1 1 0.0053804486477126 1 1 1 0.011042675191919664 1 1 1 1 0.0098856277834839627 1 1 1 1 1 1 1 1 1 1 1 1 1 1 1 1 1 1 1 0.011382201135944098 1 1 1 1 0.0097668028414944694 1 1 1 1 1 1 1 1 0.010871855956586001 1 1 1 1 1 0.0056181512449569133 1 1 1 1 1 1 1 1 1 1 1 1 1 1 1 1 1 1 1 0.010003554883359335 1 1 0.010534651562311186 0.011216970846416522 0.0075240569648894196 1 1 0.0077347010653586352 0.0095973656541933176 1 1 1 1 0.0099920716496766718 1 1 1 1 1 1 1 1 0.0082122620434083669 0.0091637236511771213 1 0.011412544983639167 1 0.0099407563860202958 1 1 1 1 1 1 1 1 0.0081326137283245278 1 1 1 1 1 1 0.0089771637800079365 1 1 1 1 1 1 1 0.0096007907452162131 1 1 1 1 1 1 1 1 1 1 1 0.009386472320822974 1 1 1 1 1 1 1 1 1 1 1 1 1 1 1 1 1 1 1 1 1 1 0.01018188618603446 1 1 1 1 0.011504294118241127 1 1 1 0.01044336341898246 1 0.011869559032388356 1 1 1 1 1 0.010671794056147139 1 1 1 1 1 1 1 1 1 1 1 1 1 1 1 1 1 1 1 1 1 1 1 1 1 1 0.010654827911905435 1 1 1 1 1 1 1 1 1 0.0084905463212698404 0.011400230921943809 1 0.0099984986788356021 1 1 1 0.01000093834196644 1 1 0.011533834092269962 1 1 0.010267710615406971 1 1 1 0.0092323107567763695 1 1 1 0.0099938950026191367 1 0.01041454542531867 1 1 1 1 1 1 1 1 1 1 1 1 0.010535942298754613 1 1 1 1 1 1 1 1 1 1 1 1 1 1 1 1 1 0.0099326909049650015 1 1 1 0.0099567846315157284 1 1 1 0.0099383033558818994 1 1 1 1 1 1 1 0.010024093726550732 1 1 1 1 0.0076101943580096504 1 1 1 1 1 1 1 1 0.0091541178149799948 1 1 1 1 1 1 1 1 1 1 1 1 1 1 1 1 1 1 1 1 1 1 1 1 1 1 1 1 1 1 1 1 1 0.010069350361507749 1 1 1 1 1 1 1 1 1 1 1 1 1 1 0.010252561290080021 1 0.0082072461207077681 1 1 1 0.0094575058825760432 1 1 1 1 1 0.010794603882448701 1 1 1 1 1 1 1 1 0.0096349545678919013 1 1 0.010021973816329011 1 1 1 1 1 1 1 1 1 1 1 1 0.011483401139959746 1 1 0.010414407764167999 1 0.011088756740428644 1 1 1 1 0.010064701595881536 1 1 0.0094180288946268485 1 1 1 1 1 1 1 1 1 1 1 0.0080385894923820627 1 0.0095934930941827378 1 1 0.010928739498433562 0.0093224971013992474 1 0.01000707430753393 1 1 1 1 0.0080718115349252099 1 1 1 1 1 1 1 1 1 1 1 0.0079716821080966192 1 1 0.009998517309421761 1 0.011713956419830741 1 1 1 1 1 1 1 1 1 1 0.0088430881214537314 1 1 1 1 1 1 1 1 1 1 1 1 1 1 1 1 1 1 1 1 1 1 1 1 1 1 1 1 1 1 1 1 1 1 1 0.0099861533710707169 1 1 1 1 1 1 0.0099682612657312694 1 1 1 1 0.010864066784346375 1 1 1 1 0.011308609001305257 1 1 1 1 1 1 1 1 1 0.012085476772082857 1 1 1 1 1 0.01162400085414041 0.0092011692403778916 1 1 1 0.0097160018258526555 1 0.010008614406692366 1 1 1 1 1 1 1 1 1 0.010226534719526682 1 0.010061621989897405 1 1 1 1 1 0.0087811003206819307 1 0.011240799232560432 1 1 1 1 1 1 1 0.0098657670272451811 1 1 1 1 1 1 1 1 1 1 1 1 1 1 1 1 1 1 1 1 1 0.01013708166913002 0.0074980856815257957 0.0077282288151099285 1 1 1 1 0.0097834662298451995 1 1 1 1 1 1 1 1 1 1 1 1 1 1 1 1 1 1 1 1 1 1 1 1 1 1 1 1 1 1 1 1 1 1 1 0.010725384375965645 1 1 1 1 1 1 1 1 1 1 1 1 1 1 1 1 1 1 0.0099201174523507601 1 1 1 0.010521479372634293 1 1 1 1 1 1 1 1 1 0.010323779185943448 1 1 1 1 1 1 1 1 1 1 1 1 1 1 1 1 1 0.0099884537255410816 1 0.0098332653019393805 1 1 1 1 1 1 1 1 1 1 1 1 1 0.0099131478495886292 1 1 1 1 1 1 1 0.010304465652538512 1 1 1 1 1 1 0.0096114183682750008 1 1 1 1 1 1 1 1 1 1 1 0.01019540804869091 1 1 1 1 1 0.010261396511155513 1 1 1 1 1 1 0.0099982708559848716 1 1 1 1 1 0.0090711585477356322 1 0.010883131973732181 1 1 1 1 1 1 1 1 1 1 1 1 1 1 1 0.010306984519191553 1 1 1 1 1 1 1 1 1 1 0.010821244395859013 0.0092261665798130874 1 1 0.01189408568922499 1 1 0.010019868754691637 1 0.0098875825602070862 1 1 1 1 1 1 1 1 1 0.0089147679946979287 0.0070288570733392751 1 1 1 1 1 0.0067135035630248984 1 1 1 1 1 1 1 0.0099521856272324714 1 1 1 1 1 1 1 1 1 1 1 1 1 1 1 1 1 1 1 1 1 1 1 1 1 1 1 1 1 1 1 1 1 1 1 1 1 1 1 1 1 1 1 1 0.0098562790551002515 1 1 0.012591820788475174 1 1 1 1 1 1 1 0.0065198504697735384 1 1 1 0.01000132658155202 1 1 0.0092801282279554413 1 1 0.011521303608481684 0.010004657220053514 1 1 0.010617963756981812 1 1 1 1 1 1 1 1 1 1 1 1 1 1 1 0.0095935331290206115 1 1 1 1 1 1 1 1 1 1 1 1 1 0.0098703990870468716 1 1 1 1 1 1 1 1 1 1 1 1 1 1 1 1 1 1 1 1 1 1 1 1 1 1 0.011196305870138885 1 1 1 1 1 1 1 1 1 1 1 1 0.010181487569444198 1 1 1 1 1 1 1 1 1 1 1 0.014812732361222349 1 1 1 0.013323772889280723 1 1 1 1 1 1 0.015573202345181038 1 1 1 1 1 1 1 1 1 1 1 1 1 1 1 1 1 1 1 1 1 1 1 1 1 0.0097028096828852151 1 0.015791331618820497 1 1 1 1 0.010923847546438156 1 1 0.010288966544337842 1 1 1 1 1 1 1 1 1 1 1 1 1 1 1 1 1 1 1 1 1 1 1 1 1 1 1 1 0.010273670384968188 1 1 1 1 1 1 1 1 1 1 1 1 1 1 1 1 1 1 0.010117064738693692 1 1 1 1 0.010836204348479289 1 0.01134510906424452 1 1 1 1 1 1 1 1 1 1 1 1 1 1 1 1 1 1 1 1 1 1 1 1 1 1 1 1 1 0.010837373710056353 1 1 1 1 1 1 1 0.011240611027829304 1 1 1 1 1 1 1 0.010017560898710011 1 1 1 0.011583092452105544 1 1 1 1 1 1 1 0.0099605855506048249 1 1 1 0.011441500991655681 0.0095891935421792626 0.010373463273353811 1 1 0.0090757399423057449 1 1 1 0.0096518275061727356 1 1 1 1 1 1 1 1 1 0.0097489830971766982 0.009895906323040448 1 1 1 1 1 1 1 1 1 1 1 1 0.0097544213601065636 1 1 1 1 1 1 0.0099062458584409929 1 1 1 1 1 1 1 1 1 1 1 1 1 1 1 1 1 0.0099191740982188074 1 1 1 1 0.0098527746553594246 1 1 1 1 0.0099335168558282085 1 1 1 1 1 1 1 1 1 1 1 1 1 1 1 1 1 1 1 1 1 1 1 1 1 0.0098203669225581779 1 1 1 1 1 1 1 1 0.0099267415869269127 1 1 1 1 1 1 1 1 1 1 1 0.0098936253356312707 1 1 1 1 1 1 1 1 1 1 1 1 1 1 1 0.0100708707901262 1 1 1 1 1 0.010070977270623607 1 1 1 1 1 1 1 1 1 1 1 1 1 0.010081587248464856 1 1 1 1 0.010175524991902522 1 1 0.01021708474641933 1 1 1 1 1 1 1 1 1 1 1 1 1 1 1 1 1 1 1 1 1 1 1 1 1 1 1 1 1 1 1 1 0.010186922315835269 1 0.010168595013021101 1 1 1 1 1 1 1 1 0.0100756104406235 1 1 1 1 1 1 1 1 1 1 1 0.0099803800942205936 1 0.010026591293463982 1 1 1 1 0.010614595458533918 1 1 1 1 1 1 1 1 1 1 1 1 0.010993181964242862 1 1 1 1 1 1 1 1 1 0.009997722776728021 1 1 0.0099992771397970845 1 1 1 1 0.01045533621885226 1 0.010016746980960681 1 1 1 1 1 1 1 1 1 1 1 1 1 1 1 1 1 1 1 1 1 0.010037941922072122 1 1 1 1 1 1 1 0.0088732941588829366 1 0.011376037268436834 1 1 1 1 0.010024508325179675 0.0096040257770853982 1 1 1 1 1 0.0077998524257018309 0.0096337661186297815 1 1 1 1 0.010000048176056917 1 1 0.0026348047567228087 0.0099007822794259237 1 0.011716149389784897 0.013451432558879744 0.0086130562415630534 1 1 1 1 1 1 1 1 0.012818331691250151 0.008884194277291731 1 1 1 1 0.0092181503112456695 0.011437037677852901 1 1 1 1 1 1 1 1 1 0.011171292961089447 1 1 1 1 1 1 0.0088047623739736288 1 1 1 1 1 1 1 1 0.0085255500997255124 1 1 1 1 1 1 0.012382862668091261 1 1 0.010202930791313706 0.0079332656299866047 1 1 0.011439697130971661 1 0.0074001872460810018 1 0.0085384222072104957 1 1 1 0.010924275500563461 1 0.010403572145745528 1 1 0.01245250297493089 0.0090658136135822725 0.0081395314230439317 1 1 1 1 0.0088226160731398016 1 0.0099986247867907708 0.010008756196502782 1 0.010047889924902846 0.0083568649946498645 1 1 0.010510180082452324 1 1 1 0.0099959134106595727 1 1 1 1 1 0.0070100742823577082 1 1 1 0.010219594763075121 0.0094100658515524262 1 1 1 0.010617584769941811 1 1 1 1 1 0.010134100712252061 1 1 1 1 1 1 1 1 1 1 1 1 1 1 1 1 1 0.0096347982120939604 1 1 1 1 1 1 0.01001197705440131 1 1 1 0.010078146890337546 1 1 1 1 1 1 0.0099631873375645962 1 0.009572956033946825 1 1 1 1 1 1 1 1 1 1 1 1 1 1 1 1 1 1 1 1 1 1 1 0.0097066374843610744 1 1 1 0.010200845932225946 1 1 1 1 1 1 1 1 1 1 1 1 1 1 1 1 1 1 0.0099469924167949648 1 1 1 1 1 1 1 1 1 1 1 1 1 1 1 1 1 1 1 1 1 1 0.0090037053078526087 1 1 1 1 1 1 1 1 1 1 1 1 0.010175922968167304 1 0.0083351139519035437 1 1 1 1 1 0.013339561662314169 1 1 1 0.0091528472089010982 1 1 0.0093219744602836517 1 0.013741109465522648 1 1 0.0099295967638151472 0.0097603613564102507 1 1 1 1 1 1 1 1 1 1 1 1 1 1 1 1 1 0.011581105668919801 0.010254292015449879 1 1 1 1 1 1 1 1 1 1 1 1 1 1 1 1 1 1 1 1 1 1 0.010661358960437999 1 0.014517583925394116 1 1 1 0.0099867501727439363 1 1 1 0.010850298238332248 1 1 1 1 1 1 1 1 1 0.010408807201626834 1 1 1 0.0096242196051263725 1 1 1 1 1 1 1 1 1 0.0078180804109604304 1 1 1 1 1 1 1 1 1 1 1 1 1 1 1 1 1 1 1 1 1 1 1 1 1 1 1 1 1 1 1 1 1 1 1 1 1 1 1 1 1 1 1 1 1 0.0093217268953943791 1 1 1 1 0.0092283939261564897 0.0093716907994921272 1 1 0.011567197811110199 0.0099532529081483734 1 1 1 1 0.0097523151672803225 1 1 1 1 1 1 1 1 1 0.0098184059767853094 1 1 1 1 0.0093675833521396495 1 1 1 1 0.008704398027112108 1 1 1 0.010543642810629765 0.0099898900201058505 1 1 1 1 1 1 1 1 0.0081379521940232874 1 1 1 1 1 1 0.0099242936842162018 1 1 1 1 1 1 0.0099940091023961539 1 1 1 1 0.0099942490364227903 1 0.0096287669543779417 1 0.009998214440242641 1 1 1 0.0099725507219604985 0.010670340713964777 1 1 1 1 0.0099460167261990855 1 0.0088195079348591561 1 1 1 1 0.010166077735060735 0.0073554759610424819 1 0.0085200475265186388 1 1 1 1 1 0.0090898905693624441 1 1 0.010615588573522667 0.0083657484793607118 0.0082079771686502136 0.010168650453968801 1 1 1 0.0091766586078843252 1 0.0095250586420354763 0.0098316973885729797 1 1 1 1 1 1 1 1 1 1 1 1 1 1 1 1 1 1 1 1 0.01022409046937736 1 1 1 1 1 0.0099953629786820701 1 1 0.0074638643290964634 1 0.010053356900473081 1 1 1 1 1 1 1 1 1 0.0095400154101968251 1 1 0.0099971039622398141 1 0.0077698909342268458 1 1 0.010230136941359939 0.0082336489448882021 1 0.01020895142318257 1 1 1 0.009958546014003972 1 0.010108846685640313 1 1 0.0077118626966142106 1 1 0.0055502407511889215 1 1 1 1 1 1 1 1 1 1 1 1 1 1 1 1 1 1 1 1 1 1 1 1 1 1 1 0.0099717725303003768 1 1 1 0.0099916920498983562 1 1 0.010137870838825625 1 1 1 1 1 1 1 1 1 1 1 1 1 1 1 1 1 1 1 1 1 1 0.010150381502484396 1 1 0.0079408281833722172 1 1 0.0081283965751154392 1 1 1 0.010000774236277318 1 1 1 1 1 1 1 1 1 1 1 1 1 1 0.010712358744478052 1 1 0.01002411175672085 1 1 1 0.010024148830541707 1 1 1 1 1 1 1 1 0.010497780843350037 1 1 1 1 0.010193885448058663 1 1 1 1 1 1 1 1 1 1 1 1 1 1 1 1 0.0098024970698708403 1 1 1 0.0094001718516542685 1 1 1 1 1 1 1 1 1 1 1 1 1 1 1 1 1 1 1 1 1 1 1 1 1 1 1 1 1 1 1 1 1 1 1 1 1 1 1 1 1 1 1 1 1 1 1 1 1 1 1 0.0089625422849423739 1 1 0.008996303920812335 1 1 1 1 1 1 1 1 1 1 1 1 1 1 1 1 1 1 1 0.0085520037900752612 1 0.0069158490255298369 0.0097660937294539642 0.0086673726912104201 1 1 1 1 1 1 1 1 1 1 1 1 1 1 1 1 1 0.0072205658538634088 0.0061000053975032095 1 1 1 0.0099737130465830017 1 1 1 1 0.0063316934926525899 0.0078366395518159552 1 0.0098052765675700482 1 1 1 0.0099348028664498923 1 1 1 1 0.015642474787582728 1 1 1 1 1 0.012932142671955898 1 1 0.011971312162394925 0.010000486977793094 1 1 0.0099498531015241309 1 0.0073294383489396642 1 1 0.0083526187946663145 1 1 1 1 1 1 1 1 1 0.0098549532942650321 1 1 1 1 0.010447172279916976 1 1 1 1 1 1 1 1 1 1 1 0.010180557235788201 1 1 1 1 1 1 1 1 1 0.0099769977247233816 1 1 1 1 1 1 1 1 0.015097968797717751 1 1 0.010060536896359266 1 1 1 1 1 1 1 1 1 1 1 1 1 1 1 1 1 1 0.010042955186061906 1 1 1 1 1 1 1 1 1 1 1 0.0093075709175654397 1 1 1 1 1 1 1 0.0079543679891964127 1 1 0.010151707876509481 1 1 1 1 0.009761823195415022 1 1 1 1 0.010865307519172631 1 1 1 1 0.010685124783797691 1 0.011640121541194296 1 1 1 1 0.014114299747410254 1 1 1 0.0098088216926469421 1 1 1 1 1 1 1 1 1 1 1 1 1 1 1 1 1 1 1 1 1 1 1 1 1 1 1 1 1 0.0086452679895043308 1 0.0065952864148277526 1 0.0076699041098887977 0.0091277567318906721 1 1 1 0.0081563898263652835 1 1 1 1 0.0090236546620887682 1 0.0088591638375078389 1 1 1 0.010084028906168999 1 1 1 1 1 1 1 1 0.010025184427288995 1 1 1 1 1 1 1 1 1 1 1 1 1 1 0.0077154504565161812 1 0.010048826068696599 1 1 1 1 1 0.0097321831729058773 1 1 1 0.0076415718882309105 1 1 1 1 0.0076648418543961636 1 1 1 1 1 1 1 1 0.010535182900725831 1 1 0.01032346635503464 1 1 1 1 0.010103318070537838 1 1 1 1 1 1 0.01211860659999164 1 1 1 1 1 0.0089927630934264983 1 0.012021047463178326 0.011321174110502855 1 1 1 1 1 1 1 1 1 1 1 0.010220148284496794 1 1 1 1 1 1 1 0.0096189712760800863 1 1 1 1 1 1 1 1 1 1 1 1 1 1 1 1 1 1 1 1 1 1 1 1 1 1 1 1 1 0.011483380580405765 1 1 1 1 0.012266771137924102 1 1 1 1 0.010197589913837256 1 1 1 1 1 1 1 1 1 1 1 1 0.0095156513606916189 1 1 1 1 1 1 1 1 1 1 1 1 1 1 1 1 1 1 1 1 1 1 1 1 1 1 1 1 1 1 1 1 1 1 1 0.010752619014505185 1 1 1 0.0099911019781867144 1 1 1 1 1 1 1 1 1 1 1 1 1 0.0099786401951750033 1 1 1 1 1 1 1 1 0.0099936646591510438 0.010011177339238614 1 0.010317751692749167 1 1 1 1 1 0.010303103346355506 1 1 1 1 1 0.012342479781592013 1 1 0.0090187923576769448 1 1 1 0.01226177908660523 1 1 0.01050151020570186 1 1 1 1 1 0.011963805314013212 0.010161474491552153 1 1 1 1 1 1 1 1 1 1 1 1 1 1 0.010174786088977207 1 1 1 1 1 0.010326647572807851 1 0.011829859540240935 1 1 0.012219886307273786 1 0.0099094085980668354 0.008423897408619747 0.0077075627565584446 1 1 1 0.012547487415718692 1 1 1 1 1 1 1 1 0.009199012629806564 0.0086109851525053328 1 0.010003178733161356 1 0.0080136884354620186 1 1 1 1 1 1 1 1 1 1 1 1 1 1 1 1 1 1 1 1 1 1 1 1 1 1 1 1 1 1 1 1 1 1 1 0.010043031504463337 1 1 1 1 1 1 1 1 1 1 1 1 1 1 1 1 1 1 1 1 1 1 1 1 1 1 0.010193073247519517 1 1 1 1 1 1 0.010437681230572472 1 1 0.011714992410272474 1 0.009061027841434777 1 1 1 1 0.010637795812220329 1 1 1 0.0096836265371820149 1 1 1 1 1 1 0.012320330390863592 1 1 0.0081065399084435455 1 1 1 0.0078863209302159898 1 1 0.011930153557248602 1 1 1 1 1 0.01015898109187547 1 1 0.006763624612150616 0.01167720678398446 1 1 0.0098614858188097419 1 0.0073335251716669962 1 1 1 0.007812113871158979 1 1 0.010080516287825969 0.010438116394366785 1 0.0099998890247443139 1 1 0.010156612640208064 1 1 1 1 1 1 1 1 1 1 1 1 1 1 1 1 1 1 0.0093255137522919376 1 1 1 1 1 1 1 1 1 1 0.0083845990807348888 1 1 1 1 1 1 1 0.009407266356901027 1 1 1 1 1 1 1 1 1 1 1 1 1 1 1 1 1 1 1 1 0.0088055423043061389 0.010148632868965543 1 1 1 1 1 1 1 1 1 1 1 0.0098804650146394526 1 1 1 1 1 1 0.0099627865640866658 1 1 1 1 0.0080848441725051672 1 1 1 1 1 1 1 1 1 0.0074616869238718006 1 1 1 1 1 1 1 1 1 1 1 1 1 1 1 1 0.011351943171940009 1 1 1 1 1 1 1 1 1 1 1 1 1 0.010101611946760618 1 1 1 1 1 1 1 1 1 1 0.010300733189604932 1 1 1 0.009791856827033367 1 1 1 1 1 1 0.010511886519771882 1 1 1 1 1 1 1 1 1 1 1 0.009755549324985487 1 1 1 1 1 1 1 1 0.011968031297214361 1 1 0.0077870286317276681 1 1 0.0080890494979077472 1 0.008767858210917176 0.0099905811442638354 1 0.0097861795561780731 1 1 1 1 0.0080783439770103511 0.0084174341709235961 1 1 1 1 1 0.0086580906252184727 1 1 1 1 0.0095703936678082219 1 1 1 0.0079953125895552979 1 1 0.0099009150339128237 1 1 1 1 1 1 1 1 1 1 0.0076464439090255781 1 0.011022893596174886 1 0.0084952747581083891 0.010497347616782445 1 1 1 0.0093046540718126573 1 1 0.01067429612334447 0.010000685470947587 1 1 1 1 1 0.010222061537507484 1 1 1 1 1 1 1 1 1 1 1 1 1 1 1 1 0.012573579018494947 1 1 0.013696070455248626 1 1 1 0.010249882100633594 1 1 1 0.010817789040859564 1 0.0033144199713560467 1 1 1 1 1 1 1 1 0.0096879650274760785 1 1 1 0.013518931370487094 0.0098746255429215286 1 1 1 1 1 1 1 1 1 1 1 1 1 0.0099005066377386292 1 0.010011309576847502 1 1 1 1 1 1 1 1 1 1 1 1 1 1 1 1 1 1 1 1 1 1 1 1 1 0.0056254336815713298 1 1 1 1 0.0061390208560089046 1 0.0070576661718087311 1 1 0.0066830154734798695 1 1 1 1 1 1 1 1 1 1 1 1 1 1 1 1 1 1 1 1 1 1 1 1 1 1 1 1 1 1 1 1 0.010839106327374495 1 1 1 1 1 1 1 0.009213296038881047 1 1 1 1 1 1 1 1 1 1 1 0.0096262777578468919 0.010147145955409014 1 1 1 1 1 0.0078875357365557966 1 1 0.010436589712777918 1 0.0081038485487150737 1 1 1 1 1 1 1 1 1 1 1 1 0.007978246643483216 1 1 1 1 1 0.0064075914669604189 0.0051693751586857802 1 1 1 1 0.0099842555606629406 1 1 1 1 1 1 1 1 1 1 0.0078275045630578355 1 1 1 1 1 1 1 1 1 1 1 1 1 1 1 1 1 1 1 1 1 1 1 1 1 1 1 1 1 1 1 1 1 1 1 1 1 1 1 1 1 1 1 1 1 1 1 1 1 1 1 1 1 1 1 1 0.010071497603541233 1 1 1 0.010165761617065477 1 1 1 1 1 1 1 0.010108009691382678 1 1 1 1 1 0.010516674657271251 1 1 1 1 0.010213357499296461 1 1 1 1 1 1 1 1 1 1 1 1 1 1 1 0.010005211534920129 0.008403820882201039 1 1 1 0.010587692404973422 0.008712691991328193 1 1 1 1 1 1 0.0099532977058457359 1 1 0.0095757277527863584 1 1 1 1 1 1 1 1 1 1 0.010070973949120012 0.011938274400205819 1 1 0.012607260687166541 1 1 1 1 1 1 1 0.010142427877492494 1 1 1 1 1 1 1 1 1 1 1 1 1 0.0090850086699772181 1 1 1 1 1 1 0.0072433957316728661 1 1 1 1 1 1 1 1 1 0.009357535719137073 1 1 1 1 0.0097912777820479292 1 1 1 1 1 1 1 1 0.0099821078946605545 1 1 1 1 1 1 1 1 0.0096666237629916586 1 1 1 1 1 0.010376450975533554 0.012792329701134288 1 1 0.01015958036725719 1 1 1 0.012828522219139374 1 1 1 1 1 1 0.010312954346169316 1 1 0.0097953666848285201 1 1 0.0099811456909312691 1 1 1 1 1 0.010131173056395994 1 1 1 1 0.012561546413807188 1 1 1 1 1 1 1 1 1 1 1 1 0.010025653892692816 1 1 1 1 1 0.010136685294975892 1 1 1 1 1 1 0.010319146170867698 1 1 1 1 1 1 1 1 1 1 1 1 1 1 1 1 1 1 1 1 0.0094046575980631774 1 1 1 1 0.0083782595506725517 1 1 1 1 1 1 0.0075697736126260282 1 1 1 1 1 1 1 1 1 0.0099139012574917165 1 1 1 1 1 1 1 1 1 1 1 1 1 1 1 1 1 1 1 1 1 1 1 1 1 1 1 1 1 1 0.0098925279371226155 1 1 1 1 1 1 1 1 0.012169247960014312 1 1 0.008785997412595347 1 1 1 1 1 0.0089949568802089666 1 1 1 1 0.009304778326102988 1 1 1 1 1 1 1 1 0.0090304952962507942 1 1 1 0.010388542268884735 1 0.01278999862113582 1 1 1 0.0095621204380297812 0.0066269063506217982 0.008948689395712639 1 1 1 1 0.0095187368639848245 1 1 1 1 1 1 1 1 1 1 1 0.010771633019360649 1 1 1 1 1 1 1 1 1 1 1 1 1 1 1 1 0.008145886581974059 1 1 1 1 1 1 1 1 1 1 1 1 1 1 1 1 1 1 1 1 1 1 1 1 1 1 1 1 1 1 1 1 1 1 1 1 1 1 1 1 1 1 1 1 1 1 1 1 1 1 1 1 1 1 1 0.0096296167828642306 1 0.010133999850333593 1 1 0.0099912986135538701 1 1 1 1 1 1 1 0.0097100194465450321 1 1 0.010086972297136917 1 0.010244999797523652 1 1 1 1 1 1 1 1 1 1 1 0.0082087405441783456 1 1 0.011661014938027126 1 1 0.012971250243715782 1 0.0099019011343306831 1 1 1 1 1 1 1 0.0099955255691959802 1 1 1 1 1 1 1 1 1 1 1 1 1 1 1 1 1 1 1 1 1 1 0.010370187212023338 1 1 1 1 1 1 1 1 1 1 1 1 1 0.0094458134111893421 1 1 1 1 1 1 0.010944789837172685 1 1 1 1 1 1 1 1 1 1 1 1 1 1 1 1 1 1 1 1 1 1 1 1 1 1 1 0.010287836754480721 1 1 1 1 1 1 1 0.0098282454270037095 1 1 1 1 1 1 1 1 1 0.0094842453136803583 1 1 1 1 0.010930773276211059 0.010826221539275772 0.012305818598456484 1 1 1 1 0.010788702772507482 1 1 0.011278462752146294 1 1 1 1 1 1 1 1 0.011279191902059045 1 1 0.010478841258873512 1 1 1 0.011928898502281128 1 1 1 0.0093039263258626048 1 1 1 0.0099233176273230434 1 1 1 1 1 1 1 1 1 1 1 1 1 1 0.010047825786943002 1 1 1 0.010377206433551105 1 1 0.010040734742428675 1 1 1 1 1 1 1 1 1 1 1 1 1 1 1 1 1 0.010082665298361097 1 0.008700095179813995 1 1 1 1 1 1 1 1 1 0.0096451268542180266 1 0.010005978698446126 0.011713277779307312 1 1 1 1 1 1 1 0.013722985020688302 1 1 0.0087282985612012094 1 0.0098050248156332283 1 1 1 1 1 1 1 1 1 1 1 1 1 1 1 0.0099777454720357747 1 1 1 1 0.0056413782816018866 1 1 1 1 1 0.0077898356913332408 0.0075707129515693115 1 1 0.0099435592546681939 1 1 1 1 0.0080151363049502811 1 1 1 1 1 1 1 1 1 1 0.010133790320545469 1 0.0045603318833390416 1 1 1 1 0.007833598293989141 1 1 1 1 1 1 1 1 1 1 0.010207139752172916 1 1 1 1 0.0097538838284486097 1 1 1 1 0.0077850666340765588 1 1 1 0.0093226616291406487 0.0078210019085920603 1 0.010339342453504914 1 1 1 1 1 1 1 0.007089739437448386 1 0.010002733329725358 1 1 0.010131147144027393 0.010216346817017467 1 0.0095930878453863409 1 1 1 1 1 1 0.0069273194551245591 1 1 1 1 1 0.0087745889541349202 1 1 1 1 1 1 1 0.013342712431716966 1 1 1 1 1 1 1 1 1 1 1 1 1 1 1 1 0.0084935121271694763 1 1 1 1 1 1 1 1 1 1 1 1 1 1 1 1 1 1 1 0.013189101583766905 1 1 1 1 1 1 1 1 1 1 0.012275323337067179 1 0.010012345548369016 1 1 1 1 1 0.0092696690815593421 1 1 0.0097782476058927842 1 1 1 1 1 1 1 1 1 0.0099260749151994874 1 1 0.0099853468001235152 1 1 1 1 1 1 0.010208223598699027 1 1 0.010606344531981265 0.010419261915923274 1 1 1 1 1 0.012310347367271143 1 1 1 1 0.0099340338472054153 1 1 1 1 1 1 1 1 1 1 1 1 1 1 1 1 1 1 1 1 1 1 1 1 1 1 1 0.010564345411938616 1 1 1 1 1 1 1 1 1 1 1 0.011680343138619034 1 1 1 1 1 1 1 1 1 1 1 1 1 1 1 1 1 1 1 1 1 1 1 1 1 0.014530538183524639 1 1 1 0.012985548215303899 1 1 1 1 1 1 1 1 1 1 1 1 1 1 1 1 1 1 1 1 0.011021174284358361 1 1 1 1 1 1 1 1 1 1 1 1 1 1 1 1 1 1 1 1 1 1 1 1 1 1 1 0.0098222608987580465 1 1 0.011300050552385268 1 1 1 1 1 1 1 1 1 1 1 1 0.0084868344527108865 1 1 1 1 0.0099257154818604976 0.0058610206618740692 0.0064751961607090493 1 1 1 1 1 1 1 0.010457561930187594 1 1 1 0.004184628252172703 1 1 1 1 1 1 1 1 0.010139270419757034 1 1 1 1 0.0090598146174379439 1 1 0.0100182899411842 0.008488364918643472 1 1 1 1 0.010546879348737125 0.0087208417391340595 1 1 0.0097440964374283946 1 0.0063530543059520427 1 1 1 1 1 1 1 1 0.0091937027293184162 1 1 1 1 1 0.0096584221056865635 0.00754018848197091 1 0.010061731074620578 1 0.012879519553545632 1 0.013570934840770169 0.0070845380019108149 0.0072642998069261215 1 1 1 1 0.0094115308917671753 1 0.011549467060593706 1 0.0096289596670839587 1 1 1 1 1 1 0.0098709320310922249 1 1 1 1 1 1 1 0.012339180565661892 1 0.0094656793371285554 0.012668155615213299 1 0.0081537597905808699 1 0.0043677472671580977 1 0.0066766120440662829 1 1 1 1 1 0.015470682556284256 1 1 0.0052679167255965248 1 1 1 1 1 0.0053880911228066748 1 1 1 1 0.010085797987792256 0.012770675375340875 1 1 1 1 1 1 1 1 1 1 1 1 1 1 1 1 1 1 1 0.0018142905656456463 1 0.0095624106718827963 1 1 1 0.012115226816143437 1 1 1 0.0096225522631604894 1 1 1 1 1 0.0099276537227950129 0.009974263087741778 1 1 1 0.0084659324850834498 1 0.010161973595652102 1 1 1 0.007680715523875694 0.0080211967643709463 1 1 0.0079203935954754133 0.0064356525521678115 1 0.010773454228680736 0.0089764088513699519 0.0061702060019112794 1 0.0071320137565900506 1 1 1 0.0099917332161895377 0.0077675027854015206 1 1 1 1 1 1 1 1 1 1 1 0.011794221384718247 0.011063270472133992 1 1 0.010031436920447763 1 1 1 1 1 1 1 1 1 1 1 1 1 0.01298746371063984 1 1 1 1 1 1 1 1 0.010037470965673687 0.0098668584449324269 1 1 1 0.005628429292631635 1 1 0.010685419207376371 1 1 1 1 1 0.015921485671152723 0.010119906821193913 1 0.014709016256632944 1 1 1 1 1 1 1 1 1 1 1 1 1 1 1 1 1 1 1 1 1 1 1 1 1 1 1 1 0.0067209684459604881 1 1 1 1 1 1 1 1 1 1 1 0.011979135737834073 0.010055978092006358 1 1 0.012672726243740724 1 1 1 1 1 1 1 1 1 0.0099456986276768057 1 1 0.014047277226585228 1 1 1 1 1 0.009784215668016686 1 1 1 1 1 1 1 1 1 1 1 0.011475018954580848 1 1 1 1 1 0.013856415899220953 1 1 1 0.0090665750719264929 1 1 1 1 1 1 1 1 1 0.0073116590491710699 0.013391029523167616 1 1 1 1 1 0.010199254353482172 1 1 1 0.010692388618205085 0.014082760311540111 1 1 1 1 1 1 1 1 1 1 1 1 1 1 1 1 1 1 1 1 1 1 1 1 1 1 1 1 1 1 1 1 1 1 1 1 1 1 1 1 1 1 1 1 1 1 1 1 1 1 1 1 1 0.011351406926560162 1 1 1 1 0.01381878999233619 1 1 1 1 1 1 1 1 1 1 1 1 1 1 1 1 1 0.010131645740973961 1 0.0047214657626519062 1 1 1 0.0097879273569746322 1 1 1 1 1 1 1 1 1 1 1 1 1 0.01001945632396724 1 1 1 1 1 1 1 1 1 1 1 1 1 1 1 1 1 1 1 1 1 1 0.010464977699519934 1 0.0059561408428959999 1 1 1 0.0099765927855221051 1 1 0.0099460176534324762 1 1 0.006206089843710039 0.0066079466615480134 0.0037515455160230249 1 1 1 1 1 1 1 0.0077078397000505342 1 1 0.0062569942884241041 1 1 1 1 1 1 1 1 1 1 1 0.0094911439653695383 1 1 1 1 1 0.0098321514206896731 1 1 1 1 1 1 1 1 1 1 1 1 0.0092209951165310704 1 1 1 1 1 1 0.0097822636110046976 1 1 1 1 1 1 1 1 1 1 1 1 1 1 1 1 1 1 1 1 1 1 1 1 1 1 0.012504190586618467 1 0.010167956549702657 1 1 1 1 1 1 1 1 1 1 1 1 1 1 1 1 0.009924700064878101 1 1 1 1 0.0098753570034016552 1 1 1 1 1 0.0098673335340488458 1 1 1 0.0098331930842490266 1 1 0.010093749744085348 1 1 1 1 1 1 1 1 0.0099842194333936794 1 1 1 1 1 1 1 1 1 1 1 1 1 1 1 1 1 1 1 1 1 1 1 1 0.010019547281577237 1 1 1 1 1 1 1 1 1 0.010392059882900095 1 0.010001466048991693 1 1 1 1 1 1 1 1 1 0.013047076802238884 1 1 1 1 1 1 1 1 1 1 1 1 1 0.0095029711654854299 1 1 1 0.0098645421825624396 1 1 0.0086763011996753344 1 0.010501640986469885 1 0.01153316319194711 0.0088794148977220447 1 1 1 0.0070096874464860275 0.0079677739623452218 1 0.010602199737186515 1 1 1 0.0067757421659042968 1 1 1 1 1 1 1 0.011137759511059331 1 1 1 1 1 0.009639895117551818 1 1 1 0.01000048392670079 0.011177799109863676 0.0096342737375592416 1 1 1 1 1 1 0.013355377459799657 1 1 1 1 1 1 1 1 1 1 1 0.010094018020286913 1 0.0097513563766186296 1 1 1 0.0097181625219543294 1 1 0.0098963640282942085 1 1 1 1 1 1 1 1 1 1 1 1 1 1 1 0.010013745677858432 1 1 1 1 1 1 1 1 1 1 1 1 1 1 1 0.0095093470431510882 1 1 1 1 1 0.009814267323934478 1 1 1 1 0.010150688859886486 1 1 1 1 1 1 1 1 1 0.013003730270265475 1 1 1 0.0099982408306109917 0.010824935149940734 1 1 0.0092828897653290388 1 1 0.010242432102595581 1 1 0.010000945039966919 1 1 1 1 0.0087148944434684086 1 1 0.01082267436603775 1 1 1 1 1 1 1 1 1 1 1 0.01092802305039435 1 1 1 1 1 1 1 1 1 1 0.0096587962971667676 1 1 1 1 1 1 1 1 1 1 1 1 1 0.0089733846506762707 1 1 1 1 1 1 0.013928083689817234 0.0082547988981558369 1 1 1 1 0.010009249614136344 1 1 0.0084942670036417828 1 1 0.0085290480181023226 1 1 1 1 1 1 0.012633128783292941 0.0062957684032785132 1 1 1 0.010888251449497486 1 1 1 1 1 1 1 0.012144588552357552 1 1 1 1 0.009994026829247802 1 1 1 1 1 1 1 1 1 0.0099149278589693631 1 1 1 1 0.010017769010204989 1 1 1 1 1 1 1 1 0.0098334411526553485 1 1 1 1 1 1 1 1 1 1 1 1 1 1 1 1 1 1 1 1 1 1 1 1 0.010907031831253609 1 1 0.010684236994368724 1 0.0036688869829020138 1 1 1 1 1 1 1 1 1 0.0098418321577727671 1 0.0099420039686158677 1 1 1 1 1 1 1 0.0074697901788607426 1 1 1 0.013358698711887867 1 1 0.009897163248950118 1 1 1 0.0080222312516547156 1 0.01001164067352214 1 1 1 0.0099136546069147867 1 1 1 1 1 0.013328603870683544 0.010700660334716073 1 1 1 1 1 1 1 0.013574415140643543 1 1 0.010213629698421524 1 1 1 1 1 1 1 1 1 1 1 1 1 1 1 1 1 1 1 1 1 1 1 1 1 1 1 1 1 1 0.0094264753594213869 0.0090125588456478369 1 1 1 1 1 0.0098755619712559209 1 0.0097765759640331146 1 1 0.0098925428143719664 1 1 1 1 1 1 1 1 1 1 1 1 1 0.012194410231568314 1 1 1 1 0.010770504898806359 1 1 1 1 1 1 1 1 1 1 1 1 1 1 1 1 1 1 0.010192963126447857 1 0.010404296763396825 1 1 0.010211333636948971 1 1 1 1 1 1 0.0097726884823705999 1 1 1 1 1 1 1 1 1 1 1 1 1 1 1 1 1 1 1 0.0088037300948400257 1 1 1 1 0.0098949717169690195 1 1 1 1 1 1 0.013644271679961652 1 1 1 1 0.011641037186317369 1 1 1 1 0.0088845123342685007 0.011316902614166775 1 1 0.013708042500231622 1 1 1 1 0.010151551320167627 1 0.0046087432950969991 1 0.0081980172302469345 1 0.0089197345620996033 1 1 0.0054066614532294228 1 1 1 1 0.010087977772812623 1 1 1 0.010047853098510466 1 1 1 1 1 1 1 0.0104352373588895 1 1 1 1 0.012779049467984646 1 0.010630182172513459 1 0.014493689453828224 1 1 1 1 1 0.010073399057622045 1 0.015548069816659656 1 0.01022046741414709 1 1 1 1 1 1 1 1 1 1 1 1 1 1 1 1 1 1 1 1 1 1 1 1 1 1 1 1 0.010822394001278544 1 1 1 1 0.011003761079937471 1 1 1 1 1 0.010296283791177294 1 1 1 1 1 1 0.011464721547592311 1 1 1 1 1 1 1 1 1 1 1 1 1 1 0.010642327546313758 1 1 1 1 1 1 0.010083283005342411 1 1 1 1 1 1 1 0.010465890336489829 1 1 0.0099369663760613229 1 1 0.0098870063378556118 1 1 1 1 1 1 1 1 1 1 0.0099499789620622926 1 1 1 1 1 1 1 1 1 1 1 1 1 1 1 1 1 1 1 1 1 1 1 1 1 0.010815087629451823 1 1 0.011914570883453362 1 1 1 0.01110058575434935 1 1 1 1 1 1 1 1 1 1 1 1 1 1 1 1 1 1 1 1 1 0.0097864393105327324 1 1 1 0.0097940985749856088 1 1 0.010664541772302822 1 1 1 1 1 1 1 1 1 1 1 1 1 1 1 1 1 0.01427839169229286 1 1 0.013577855910797902 1 1 1 1 0.011492542583050757 1 1 1 1 1 1 1 1 1 1 1 1 1 1 0.0095343104290527524 1 1 1 1 0.0085384992290726807 1 1 1 1 1 0.014235746960174251 1 0.010045457502746663 1 1 1 1 1 0.0097522262220736053 1 1 1 1 0.010547603031180772 1 1 1 1 0.011638557464082119 1 1 1 1 1 1 1 1 0.011805460174760833 1 1 1 1 0.0094396927841997342 1 1 1 1 0.01103570417570968 1 1 1 1 1 1 1 1 1 1 1 1 0.0094194415810213497 1 1 1 0.01236580658415368 1 1 1 1 0.010928281682115387 1 1 1 1 0.0096874665621261413 1 1 1 1 1 1 1 1 1 1 1 1 0.0096905103185272248 1 1 1 1 1 1 1 1 1 1 1 1 0.009434387973459548 1 1 1 1 1 1 1 1 1 1 1 1 1 1 1 1 1 1 1 1 1 1 1 1 1 1 1 1 1 1 1 1 1 1 1 1 1 1 1 0.010014678783889654 1 1 1 1 1 1 1 1 0.0098901514321018767 1 0.0098606613015723016 1 1 1 1 1 1 1 1 1 1 1 1 1 1 1 1 1 1 1 1 1 1 1 1 1 1 1 1 1 1 1 1 1 1 1 1 1 1 1 1 1 1 1 1 1 1 1 1 1 1 1 1 1 1 1 1 1 1 1 1 1 1 1 1 1 1 1 1 1 1 1 1 1 1 1 1 1 1 1 1 1 1 1 1 0.0091685402648121646 1 1 1 1 1 1 1 1 1 1 1 1 1 1 1 1 1 1 1 1 1 1 1 1 1 0.0079520925427146831 1 1 1 1 1 1 1 0.0081036125480871499 1 1 1 1 0.0099873141511044924 0.01000456758732282 1 1 0.0098186755462510086 0.011705998547160619 1 1 1 0.016757901284511736 1 1 0.007394469307203869 0.016272244001919713 1 1 1 1 1 1 1 0.0074113928928040331 1 1 0.0127787387862468 1 1 1 1 1 0.011053614565776115 1 1 1 1 1 1 1 1 1 1 1 1 1 1 1 1 1 1 1 1 1 1 1 1 1 1 1 1 1 1 1 1 1 1 1 1 1 1 1 1 1 1 1 1 1 1 1 1 1 1 1 1 1 1 1 1 1 1 1 1 1 1 1 1 1 1 1 1 1 1 0.009600562481747156 1 0.0066481455444929814 1 1 1 1 1 0.0089161374017917537 0.006909761347918859 1 1 1 1 1 1 1 1 1 1 1 1 1 1 1 1 1 1 0.012865167757116613 1 1 0.0099079025526064863 1 1 0.0067179537079192376 1 0.0083016356626555814 1 1 0.0083665855262857781 0.013870558102650683 0.01003739012320121 1 1 1 1 1 0.0095135526779405906 1 1 1 1 0.010942662463103455 1 1 1 1 0.0086091949954721341 1 1 1 1 1 0.0086742745388701629 1 0.0098514509037283642 1 1 1 1 1 0.0082022681666934164 1 1 1 0.009423654400383296 1 1 1 1 1 1 1 1 1 1 1 1 1 1 1 1 1 1 1 1 1 0.009447883242786689 1 1 1 1 1 1 1 1 1 1 1 1 1 1 1 1 0.0041949491629148621 1 1 0.010363407624636861 1 1 1 1 1 1 1 0.01122708258685777 1 1 1 1 1 1 1 1 1 1 1 1 1 1 1 1 1 0.010820890419617486 1 1 1 1 1 0.010095041141135261 1 1 0.010279018415942913 1 1 1 1 1 0.0091768271639254845 1 1 1 1 1 1 1 1 1 1 0.009914010748298091 1 1 0.002413412280208567 1 1 1 1 1 0.0076164656584874601 0.0073148762493163138 0.012189278510600077 0.0011990438140412085 1 1 1 1 0.013539082467049247 1 1 1 1 1 1 0.013190566675782226 1 1 1 1 1 1 1 1 1 1 1 1 1 0.012964951383709514 1 1 1 1 0.012785683132735214 0.0098306462690719125 1 1 1 1 1 1 1 1 1 1 1 1 1 0.0094966869722091334 1 1 1 1 0.0095360344120186749 0.0074454001436694145 1 1 1 0.0058598092387042687 0.0076265243801383626 1 0.0098355814808068175 1 1 1 1 0.0043611305120658129 0.0097273540845158827 1 1 1 1 1 1 1 1 1 0.010645120156154325 1 1 1 1 1 1 1 1 1 1 1 1 1 1 1 1 1 1 1 0.005981470364681234 1 1 1 1 1 1 1 1 1 1 1 1 1 1 1 1 1 1 1 1 1 1 1 1 1 1 1 0.015971093164026753 1 1 1 1 1 1 1 1 1 1 0.0092883856446000102 1 0.0080524723077817374 1 1 0.017967586591592893 1 1 1 1 1 1 1 1 1 1 1 0.010248882432521103 1 1 0.010151777084310519 1 0.010152416634454304 1 1 1 1 1 1 1 1 1 1 1 0.01024952198266489 1 1 1 1 1 1 0.010581962430703449 1 1 1 1 0.0099163771688990168 1 1 1 1 1 1 1 1 1 1 1 0.0096451443402741071 1 1 1 1 1 1 1 1 1 1 1 1 1 1 1 1 1 0.0095460780538667578 1 1 1 1 1 1 1 0.0097664025319458593 1 1 1 1 1 1 1 1 1 0.0095102801868781825 1 1 1 1 0.009829624541648695 0.0096001376293444601 1 1 1 1 1 1 1 1 1 1 1 1 1 1 1 1 1 1 1 1 1 1 1 1 1 1 1 1 1 1 1 1 1 1 1 1 1 1 1 1 1 1 1 1 1 1 1 1 1 1 1 1 1 1 1 1 1 1 1 1 1 1 1 1 1 1 1 1 1 1 1 1 1 1 1 1 1 1 1 1 1 1 1 1 1 0.0099536889519527862 1 0.0097388209721519653 1 1 1 1 1 1 1 1 1 1 1 0.0096369791213995314 1 1 1 0.0091830571752662942 1 1 1 1 1 1 1 1 1 1 0.010160893281553918 1 1 1 1 1 1 1 1 1 1 1 1 1 1 1 1 1 0.010315301299112045 1 1 0.010153681597355715 1 1 1 1 1 0.010299158869391348 1 0.0091071249819747596 1 0.01020787356871952 1 1 1 1 1 1 1 1 1 1 1 1 1 1 1 1 1 1 1 1 1 1 1 1 1 1 1 1 1 1 1 1 1 1 1 1 1 1 1 1 1 1 1 0.0094099992355446867 1 1 0.0085499321674132427 1 1 1 0.0081935700426267362 1 1 1 1 1 1 1 1 1 1 1 1 1 1 1 1 1 1 1 1 1 1 1 1 1 1 1 1 1 1 1 1 1 1 1 1 1 1 1 1 1 1 1 0.0095027180579922016 1 1 1 1 0.012254904486401874 1 1 1 1 1 1 1 1 0.0099548265015511027 1 1 1 0.0089746251318041682 1 1 1 1 1 1 1 0.012157460143826963 1 1 1 1 1 0.010925266165287039 1 1 1 1 1 1 1 1 1 1 1 1 1 1 1 1 0.009342470200692116 0.0093817707934704224 1 1 1 0.009975104161029525 1 0.0091911041093021908 1 1 1 1 1 1 1 1 1 1 1 1 1 1 0.0080982679340897371 1 1 0.0090734851463260373 0.0086468752324472611 1 1 1 1 1 1 1 1 1 1 0.011715341923487648 1 1 0.010614535734082772 1 1 1 1 0.009572390013589463 1 1 0.0099995017228011671 1 1 1 1 1 1 0.0097503415931635903 1 1 1 1 1 1 0.0098825194382962164 1 1 0.010028631900564052 1 0.0095684755770593655 1 1 1 1 1 1 1 1 1 1 1 1 1 1 1 1 1 1 0.009775237432134069 1 1 1 1 1 1 1 1 1 1 1 0.010901362095564183 1 1 1 1 1 1 1 1 1 1 1 0.010821282025617282 1 1 1 1 1 0.012357604726723851 1 1 1 1 1 1 1 1 1 1 1 1 0.008616988410794368 1 1 1 1 1 0.0059350679232081363 1 0.0038480280691658461 1 1 1 1 1 1 1 1 1 1 1 1 1 1 1 1 1 1 1 1 1 1 0.012512386715019475 1 1 1 1 0.013810356779741788 1 1 1 1 1 1 1 1 1 1 1 1 1 1 1 1 1 1 1 1 1 1 1 1 1 1 1 1 1 1 1 1 1 1 1 1 1 1 1 1 1 1 1 1 1 1 1 0.01078489300804659 1 1 1 1 1 1 1 1 1 1 1 1 1 1 1 1 0.0058726096659946474 1 1 1 1 1 1 1 1 1 1 1 1 1 1 1 0.0050066525450245553 1 1 0.013847534513701113 1 0.012344928254932844 1 1 1 1 1 1 0.0099802752341148111 0.011330357405404966 1 0.0073792318097393537 1 1 1 1 1 1 1 1 1 0.010057027376297047 1 0.015774891955270348 1 1 1 1 1 1 1 1 1 0.014879953369935211 0.0089678725213052646 1 0.010555427950819408 1 1 1 1 1 1 1 0.0098777125704791954 1 0.0099301566184517506 1 1 1 1 1 1 1 1 1 1 1 1 1 1 1 1 0.0094472080447504346 1 1 0.0091693329920657634 1 1 1 1 1 0.0096706694737263479 1 1 1 1 1 1 1 1 1 1 1 1 1 1 1 1 1 1 1 1 1 0.0091427689366363266 1 1 1 1 1 1 1 1 1 1 1 1 1 1 1 1 1 1 1 0.0076430320764645518 1 1 1 1 0.0090865067606145187 1 1 1 0.010331281356103164 1 1 1 1 1 1 1 1 1 1 1 1 0.0092112868540864968 1 1 1 1 1 1 1 1 1 1 1 1 1 1 1 1 1 1 1 1 1 0.0076689871675627037 1 1 1 1 0.010014919064335479 1 1 1 0.010009796640398912 1 1 1 1 1 1 1 1 1 1 1 0.0067162667853204669 1 1 1 1 0.0086445231595972498 1 1 1 1 1 1 1 0.010118494871759209 1 1 1 1 1 1 1 1 1 1 1 1 1 1 1 0.010203583138501966 1 1 1 1 1 1 1 0.01019961861557634 1 1 0.0094149004803821268 1 1 0.0098653829939255779 1 1 1 0.010007320151171468 1 1 1 1 1 0.010039265907548195 1 1 1 0.010057112900287088 1 1 1 1 1 1 1 1 1 1 1 1 1 0.010028323168152106 1 1 1 1 1 1 0.0094945869188299142 1 1 1 1 0.010077610260599265 1 1 1 1 0.01001177790502359 0.0091796362406261454 1 0.0091320972333105745 1 0.010833969325178669 1 1 1 1 1 1 0.008713836441961751 1 1 1 1 1 0.0090646192197754317 1 1 1 1 1 1 0.010005933018903526 1 1 0.0099954568434903086 1 1 1 0.0082954652993525134 0.010008407020133911 1 1 1 1 1 1 1 0.0099866611598233481 1 1 1 1 1 0.0079523789769534638 1 1 0.0098321294020845985 1 1 1 1 0.0099749336294202764 1 0.0099798665231338787 1 1 1 1 1 0.0099467132473243375 1 1 1 0.0079025049285300665 0.0099037289720695053 1 1 1 1 1 0.0088720381107693438 1 1 1 1 0.0090078090822835865 1 0.0093963438138324248 1 1 1 0.0092292150937745739 0.010001685274632769 1 0.011149361643856572 0.0099998268896000688 1 1 0.0098728505054635173 1 1 0.010623052436029368 1 0.0099315875924338368 1 1 0.0076609847645540928 1 1 1 0.0090722894755167136 1 0.01000130984061472 0.01114229655061 1 0.0097279830666911413 1 1 1 1 0.0097784692857405715 1 0.011597924189889237 1 1 0.011217308389600568 1 0.010358859197088694 1 1 1 1 1 1 1 1 1 1 1 0.010101430523944934 1 1 1 0.010005662422692529 1 1 1 1 1 0.010159260083105201 1 1 1 1 1 0.010022617124696053 1 1 1 1 1 1 1 1 1 0.0091991157370064063 1 1 1 0.0089728721940961816 1 1 1 1 1 1 1 1 1 1 1 1 0.0096983430058201932 1 1 1 1 1 1 1 1 1 1 0.010397484975771577 0.0098790493510260563 1 0.009230404886430366 1 1 1 1 0.0095243184757068979 1 0.010873973747597691 0.0086854864986447688 1 1 1 0.010523395192343734 1 1 0.0075139632735682959 1 0.011091088965121064 1 1 0.010397765819760646 1 1 0.010175694588610236 1 1 1 1 1 0.0093510380538279134 1 1 1 0.0080915603695916223 1 0.0099701667949193655 1 1 1 1 0.007001702671868169 1 1 1 1 1 1 0.0089997542773853859 1 1 1 1 1 1 1 1 1 0.0094212855226027733 1 1 1 1 1 1 1 1 1 1 0.0084288893778582379 1 1 1 1 0.011357523137072558 1 1 0.0099776618461581475 1 1 1 0.011463880959215458 1 1 1 1 1 1 0.011002776807432103 1 1 1 1 1 1 1 1 1 1 1 1 0.0098854226092620068 1 1 1 1 0.010224400444418849 1 1 0.01052305832132616 0.0094397282451309985 1 0.0099859086433888578 1 1 1 1 0.010020768745579358 1 1 1 1 1 1 1 1 1 1 1 1 1 1 1 1 1 1 1 1 1 1 1 1 1 1 1 1 0.0099727500083491814 1 1 1 1 1 1 1 1 1 0.010159918800975986 1 1 1 0.010062711737817991 1 1 1 1 1 1 1 1 1 1 1 1 1 1 1 1 1 0.0098961732155139759 1 1 0.010002655605255149 0.0099674437693337333 1 1 0.0099265454335082017 1 0.0095760534972074499 1 0.0098402046005200486 1 1 1 1 1 1 1 1 1 1 1 1 1 1 1 1 1 1 1 1 1 1 1 1 1 1 1 1 1 1 1 1 1 1 0.01015625534323771 1 1 1 1 1 1 1 1 1 1 1 1 1 1 1 1 1 0.010403116565636566 1 1 1 1 1 1 1 0.0098008905872015387 1 1 1 1 1 1 1 1 1 1 1 0.011067778444037508 1 1 1 1 1 1 1 1 1 1 1 1 1 1 1 1 1 1 1 1 1 1 1 1 1 1 1 1 1 1 1 1 1 1 1 1 1 1 1 1 1 1 1 1 1 1 1 1 1 1 1 1 1 1 1 1 1 1 1 1 1 1 1 1 1 1 1 1 1 1 1 1 1 1 1 1 1 1 1 0.0060469803237071379 1 1 1 0.0053942524760405043 1 0.010688700895122916 1 1 1 1 1 1 1 1 1 1 1 0.009763464627529474 1 1 1 1 0.010137696097330317 1 1 1 0.0097559660369602764 1 1 1 1 1 1 1 1 1 1 1 1 1 1 1 1 1 1 1 1 1 1 1 1 1 1 1 1 1 1 1 1 1 1 1 1 1 1 1 0.0099193531821276208 1 1 1 1 1 1 1 1 1 1 1 1 1 1 1 0.010379136042738367 0.010006384875258798 1 1 1 1 1 1 1 1 1 1 1 1 0.010462779497714535 0.010071109753773247 1 1 1 1 1 1 1 1 1 1 1 1 1 0.010082842912376969 0.0099497906336828267 1 1 1 1 1 0.0098574155300174306 1 0.0096907488122739763 0.010000043677092955 1 0.0098875633038523428 1 0.010388053153695748 1 0.0097533018029872381 1 0.010496076197049755 1 1 0.010741304957103636 1 0.0097665763210986224 1 1 1 1 1 1 1 0.0099938718077871719 0.011250784933073441 0.010767516323636166 1 1 1 0.010444714242238799 1 1 1 0.010002599494628636 1 0.010262070570852003 0.010688336505368127 1 1 0.0099995492719369902 1 1 1 1 1 1 1 1 1 1 1 1 1 0.01013749164202552 1 1 1 1 0.0085884400007383965 1 0.0079891532331867691 1 0.007672763907402967 1 1 1 0.010139067591100538 1 1 1 1 1 1 0.007323362591162761 1 1 1 1 0.0087347781965979709 1 1 1 0.0096438233014918238 1 1 1 1 1 1 1 1 1 1 1 1 1 1 1 0.009837860399552336 1 1 0.010229109279409133 1 1 1 1 1 1 1 1 1 1 0.0050257056915447903 1 1 1 0.0097759521900663456 1 0.010124318213942506 1 1 1 1 0.0087977673397402496 1 0.0070302754794262182 1 0.0093465994747462932 0.0097041243460582703 0.0095199316736574533 1 1 1 1 0.0099923804860437022 1 1 1 0.0066700919780281857 0.010639605428113834 0.0070735808723387701 1 0.007474500320439152 1 1 1 1 1 1 1 1 1 1 1 1 0.0099307798038532832 1 1 1 1 1 1 0.0097613161320254174 1 1 1 1 1 1 0.0098960903287909074 1 1 1 1 1 0.010101465920921907 1 0.0049495177042233156 1 1 1 1 1 0.010474108715597601 0.010032241605965098 1 1 1 0.010258736753670884 1 1 1 0.0067877619144207672 0.0074282752999135894 1 0.0081238630626061289 1 1 0.00988453367780486 1 1 1 1 1 1 1 1 0.0085599681172360814 1 1 1 1 1 1 0.0098428922936449406 1 1 1 1 1 1 1 1 1 1 1 1 1 1 0.0099154680681685665 0.009584821010442484 1 1 1 1 1 1 1 1 1 1 1 1 1 1 1 1 1 1 1 1 0.0037998073199715238 1 1 1 1 0.010457477888997171 1 0.014335359204145637 1 1 1 0.010170738561502848 0.0097362623774735965 1 1 0.018548277566470747 1 1 1 1 1 1 1 1 1 1 1 1 1 1 0.010061102105857802 1 1 1 0.00554373680664552 1 1 1 1 1 1 1 1 1 1 1 1 1 1 1 1 1 1 1 1 1 1 1 1 1 1 1 1 1 1 1 1 1 1 1 1 1 1 1 1 1 1 1 1 1 1 1 1 0.014403694685935992 1 1 1 1 1 1 1 1 0.0099241702661579112 1 1 1 1 1 1 1 1 0.017188643907068556 1 1 1 0.015790843516788659 1 1 1 0.010111916852316232 1 0.009997796120763321 0.010569492048424866 1 1 1 0.010610642119612733 1 1 1 0.010658682041880392 1 1 1 0.0099992120413318446 1 1 0.0099935952642580175 1 0.010000496671348651 1 0.010807520968827573 1 1 0.0098792248882478579 1 0.01070132864670266 1 0.0098413405035446492 1 1 1 0.0098597789622361532 1 1 0.0096552543827581865 1 1 1 1 1 1 1 1 1 1 1 1 1 1 1 1 1 1 0.0099742979936729582 1 1 1 0.0099220856270583538 1 1 1 1 1 0.0099510736711699802 1 1 0.0096880820075695134 1 1 1 1 1 1 1 1 0.0098603437285054909 1 1 0.0098106423554104316 1 0.009871631822972609 1 1 0.01020751928936911 1 1 1 1 1 1 1 1 1 1 1 1 1 1 1 1 1 1 1 1 1 0.010021821347372811 1 1 1 1 1 1 1 1 1 1 1 1 1 1 1 1 1 1 1 1 1 1 1 1 1 1 1 1 0.0099719046469204896 1 1 1 1 1 1 1 0.01009419188612533 1 1 1 1 1 1 1 1 1 1 1 0.0093599605310614124 1 1 1 0.010259549954985039 1 1 1 1 0.010378153811513954 1 1 1 0.0098414676600946348 1 1 1 1 0.0097029804376814639 1 1 0.0098613086644160509 1 1 1 1 1 0.010079062932517662 1 1 1 1 1 1 1 1 1 1 1 1 0.010148645471089263 1 1 1 1 1 0.010083135053634089 1 1 1 1 1 1 1 1 1 1 1 1 1 1 1 1 0.0099987195365389692 1 1 1 1 1 1 1 1 1 1 1 1 1 1 1 1 1 1 1 0.0099652572543879742 1 0.0079489609033679149 0.010044616114904483 1 1 1 1 1 1 1 1 1 1 1 0.0084174026910737634 1 0.0088800339369981829 1 1 1 1 1 1 1 1 1 1 1 1 1 1 1 1 1 0.0091525209617362609 1 1 1 1 0.0095836277516835391 1 1 1 1 1 1 1 1 1 1 0.013055831050937654 1 1 1 1 1 1 1 0.011744567199782799 1 1 0.010406037072259835 1 1 1 1 0.010048907507951836 1 0.01102026711880014 1 1 1 1 1 1 1 1 1 1 1 1 1 1 0.010306266140365727 1 1 1 0.010088957631117994 1 1 0.0098876134218331014 1 1 1 1 1 1 1 0.0098817908443491927 1 1 1 1 1 1 1 1 1 1 1 1 1 1 1 1 1 1 1 1 1 1 1 1 1 1 1 1 1 1 1 1 1 1 1 1 1 1 0.0085601520107065846 0.010062619066046413 1 1 1 1 1 1 1 1 0.0093644766234905995 1 1 1 1 1 1 1 1 1 1 1 1 1 1 1 1 1 1 1 1 1 1 1 1 1 1 1 1 1 1 1 0.009508663175825157 1 1 0.0087356471409681911 1 1 1 0.010390259606464594 1 0.010555225424995046 1 0.010250368387090035 1 1 1 1 1 1 0.0096003633424200339 1 0.0091652488977893628 1 0.012598690710210008 1 0.015019774629626031 1 0.0097904099722801521 1 0.0082135766211395358 1 1 1 0.011414966594506812 1 1 0.0075190447255698515 0.010455816023998784 1 1 0.0082148069014987678 0.013778013023525347 0.0072320945944617746 1 0.01529835729983774 1 1 1 0.012955038518020531 1 0.011851683992507514 0.014407102478625524 1 1 0.0081721850832490225 1 1 1 1 1 1 1 0.010112904735448002 1 0.0089187491584994203 1 0.0040031655408381221 1 1 1 1 1 1 1 1 1 1 0.004940245519953583 1 1 1 1 1 0.010864576923731653 0.01542805853146749 1 1 1 1 1 1 1 1 1 1 1 1 1 1 1 1 1 1 1 1 1 1 1 1 1 1 1 1 1 1 1 1 1 1 1 1 1 0.010292738078540066 1 1 1 0.010157250095295644 1 1 1 1 1 1 1 1 1 1 1 1 1 1 1 0.0094930634762106364 1 1 1 0.010418528348293156 1 1 1 1 1 1 1 1 1 1 1 1 1 0.0076040630244750638 0.011270860615857883 1 1 1 0.0090667742517688849 1 0.0090125883074065327 1 1 1 1 1 1 1 1 1 1 1 1 1 1 1 0.0080580032647838504 1 1 1 0.0097944302355589472 1 1 1 1 0.0093393362990132657 1 0.0059563127047015081 1 1 1 1 1 1 1 0.013774150301339331 1 1 0.0096460726247012893 0.012919591698140959 1 1 1 1 1 1 1 1 1 1 1 1 0.014667071008669532 1 1 1 1 0.0096179004211315935 1 1 1 1 1 1 1 1 1 1 1 1 1 1 1 1 1 1 1 1 1 1 1 0.0035150720214011241 1 1 1 1 1 1 1 1 1 1 1 1 1 1 1 1 1 1 1 1 1 1 1 1 1 0.010183087487145557 1 0.0089687525166820738 1 1 1 0.013293956757407537 1 1 1 0.0067837050926923513 0.0063367891303699126 1 1 0.014749487865937449 1 1 0.014198977987138881 1 1 1 1 1 1 1 1 1 1 1 1 1 1 1 1 1 0.013626258069486547 1 1 1 1 1 1 1 0.0067076360330486856 1 1 1 1 1 1 1 1 1 1 1 1 0.010235635124230839 1 1 1 1 1 1 1 1 1 1 1 1 1 1 1 1 1 1 1 1 1 1 1 0.01001639798574799 0.012288775900126912 1 1 1 1 1 1 1 0.011980923252215937 1 1 1 1 1 1 1 1 1 1 1 1 1 1 1 1 1 1 1 1 1 1 1 1 1 1 1 1 1 1 1 1 1 1 1 1 1 1 1 1 1 1 1 1 1 1 1 1 1 1 1 1 1 1 1 1 1 1 1 1 1 1 1 1 1 1 1 1 1 1 1 1 1 1 1 1 1 1 1 1 1 1 0.0110816344504076 1 1 0.011604122824605163 1 1 1 1 1 1 1 1 1 1 1 1 1 1 1 1 1 1 1 1 1 1 1 1 1 1 1 1 1 1 1 1 1 0.013141737931566996 1 1 1 1 1 1 1 1 1 1 1 1 1 1 0.012549499475126489 0.010281223147926368 1 1 1 1 1 1 1 1 1 0.010234578437497968 1 1 1 0.01111394642080365 1 1 1 1 1 1 1 1 1 1 1 1 1 1 1 1 1 1 1 1 1 1 1 1 1 1 1 1 0.0092870663001903102 1 1 1 1 1 1 1 1 1 1 1 1 1 1 1 1 0.010192914135489662 1 1 1 1 1 1 1 0.012057920914331943 1 1 1 0.010613703869578703 1 1 1 1 1 1 1 1 1 1 1 1 1 1 1 0.010274942349941845 1 1 1 1 1 1 0.012259987730682619 1 1 1 0.011978583470353165 1 1 1 1 1 1 1 1 0.012098908005474933 1 1 1 0.010513814618823015 1 0.010797724009141845 1 1 1 1 1 1 1 1 1 1 1 1 1 1 1 1 1 1 1 1 1 1 1 1 1 1 1 1 1 1 1 1 1 1 1 1 1 1 1 1 1 1 1 1 1 1 1 1 1 1 1 1 1 1 1 1 1 1 1 1 1 0.012363342622189213 1 1 1 1 1 0.0099841786333605149 1 1 1 1 1 1 1 1 1 1 1 1 1 1 1 1 1 1 0.0098805262164978272 1 1 1 1 1 1 1 0.0093771841963598262 1 1 0.010044415913446625 1 1 1 1 1 1 1 1 1 1 1 0.01017890752805364 1 0.010747242572973848 0.0075004417440940538 1 1 0.008479867761359644 1 1 0.01026065859341955 1 1 1 0.0096907278343234312 0.0086756523382589927 0.011975961502833258 1 1 1 1 0.0099789601114319663 1 0.010616586203060135 0.010151226934763561 1 1 1 0.0096939762581325119 1 0.01210391996200991 1 1 1 0.011736466054226199 1 1 1 1 1 1 0.0071110084265533953 1 1 1 1 0.009908616940207466 1 0.0092919271397782117 0.011836302075530176 0.007587911882512309 1 1 1 0.0071966447896730113 0.012637044956823515 1 1 1 0.0086578523477585396 1 1 1 0.011612273117237103 1 0.0086771064612351061 0.0087239231691151001 1 1 0.0098495305380058573 0.008579484112396854 1 0.0091568721875501524 1 1 1 0.009933237531416509 1 1 1 0.009917579003902539 0.0084867560324211454 0.0079543213310982411 1 0.010011891783917894 0.0078530545937354999 1 1 1 0.0064570341701410336 1 1 1 0.0096143153475641632 1 0.0099521534170755252 1 1 1 0.01006760399641337 1 1 0.0090007518269789484 0.012044783198311221 1 0.012509923127027839 1 1 0.0096761637070765967 1 0.011637734630594814 1 1 1 1 0.01058169802029953 1 1 1 0.010631867832608574 1 1 1 1 1 1 1 1 1 1 1 1 1 1 1 1 1 1 1 1 1 1 1 1 0.0099969261839388361 1 1 0.0071287893901790089 1 0.0084548929615226882 0.011153080960312723 1 0.010508219631183867 0.0052263406156688192 1 1 1 1 0.0075031013866094501 1 1 1 1 1 1 1 1 0.0090780488686014963 1 1 1 1 1 1 0.0081633990041089545 1 0.009767904972686316 1 1 1 1 1 1 1 0.0086564576962877629 1 1 0.0071650023783411676 1 1 1 0.0092631647728795372 1 0.0083421593676080673 1 1 1 1 0.0074202687192995199 1 0.0086568008989080063 
</DataArray>
</CellData>
</Piece>
</UnstructuredGrid>
</VTKFile>
