<?xml version="1.0"?>
<VTKFile type="UnstructuredGrid" version="0.1" byte_order="LittleEndian">
<UnstructuredGrid>
<Piece NumberOfPoints="31654" NumberOfCells="11073">
<Points>
<DataArray type="Float64" NumberOfComponents="3" format="ascii">
-0.5 -0.5 0 -0.49999999999999961 -0.4955045412525596 0 -0.48963209310728212 -0.50000000000000422 0 -0.49999999999999961 -0.4955045412525596 0 -0.48203849089195971 -0.47713094086527608 0 -0.49999999999999961 -0.4955045412525596 0 -0.48963209310728212 -0.50000000000000422 0 -0.48203849089195971 -0.47713094086527608 0 -0.49999999999999961 -0.4955045412525596 0 -0.48203849089195971 -0.47713094086527608 0 -0.5 -0.46595673819470768 0 -0.46990870762866721 -0.47934720221353289 0 -0.48203849089195971 -0.47713094086527608 0 -0.46407698178391998 -0.45875734047799233 0 -0.48963209310728212 -0.50000000000000422 0 -0.46990870762866721 -0.47934720221353289 0 -0.48963209310728212 -0.50000000000000422 0 -0.46990870762866721 -0.47934720221353289 0 -0.48203849089195971 -0.47713094086527608 0 -0.48963209310728212 -0.50000000000000422 0 -0.46990870762866721 -0.47934720221353289 0 -0.46243590185244349 -0.5 0 -0.46990870762866721 -0.47934720221353289 0 -0.45363353302438197 -0.48971701633361631 0 -0.46243590185244349 -0.5 0 -0.46990870762866721 -0.47934720221353289 0 -0.45363353302438197 -0.48971701633361631 0 -0.44694981201881268 -0.47952086312093228 0 -0.46990870762866721 -0.47934720221353289 0 -0.44694981201881268 -0.47952086312093228 0 -0.45018532215005441 -0.45869440442705972 0 -0.46990870762866721 -0.47934720221353289 0 -0.45018532215005441 -0.45869440442705972 0 -0.44694981201881268 -0.47952086312093228 0 -0.45018532215005441 -0.45869440442705972 0 -0.43676142814697039 -0.46882345795161567 0 -0.45363353302438197 -0.48971701633361631 0 -0.46243590185244349 -0.5 0 -0.43523971059760491 -0.5 0 -0.45363353302438197 -0.48971701633361631 0 -0.44694981201881268 -0.47952086312093228 0 -0.43523971059760491 -0.5 0 -0.45018532215005441 -0.45869440442705972 0 -0.43046193667144161 -0.43804160664058639 0 -0.44611547267588031 -0.44038374009070869 0 -0.45018532215005441 -0.45869440442705972 0 -0.43046193667144161 -0.43804160664058639 0 -0.45018532215005441 -0.45869440442705972 0 -0.43676142814697039 -0.46882345795161567 0 -0.43177850281690772 -0.45628229593173408 0 -0.46990870762866721 -0.47934720221353289 0 -0.45018532215005441 -0.45869440442705972 0 -0.46407698178391998 -0.45875734047799233 0 -0.46407698178391998 -0.45875734047799233 0 -0.46250953793196992 -0.4412457854006509 0 -0.47684596925265937 -0.44496942617860208 0 -0.44611547267588031 -0.44038374009070869 0 -0.46407698178391998 -0.45875734047799233 0 -0.46250953793196992 -0.4412457854006509 0 -0.44611547267588031 -0.44038374009070869 0 -0.46407698178391998 -0.45875734047799233 0 -0.44611547267588031 -0.44038374009070869 0 -0.45018532215005441 -0.45869440442705972 0 -0.46407698178391998 -0.45875734047799233 0 -0.46250953793196992 -0.4412457854006509 0 -0.47684596925265937 -0.44496942617860208 0 -0.47376596402009991 -0.43093597365180991 0 -0.48203849089195971 -0.47713094086527608 0 -0.46407698178391998 -0.45875734047799233 0 -0.48203849089195971 -0.47713094086527608 0 -0.46407698178391998 -0.45875734047799233 0 -0.4838773625273069 -0.45749909622570117 0 -0.46407698178391998 -0.45875734047799233 0 -0.47684596925265937 -0.44496942617860208 0 -0.4838773625273069 -0.45749909622570117 0 -0.48203849089195971 -0.47713094086527608 0 -0.4838773625273069 -0.45749909622570117 0 -0.5 -0.46595673819470768 0 -0.4838773625273069 -0.45749909622570117 0 -0.5 -0.46595673819470768 0 -0.5 -0.43640893513685569 0 -0.47684596925265937 -0.44496942617860208 0 -0.4838773625273069 -0.45749909622570117 0 -0.5 -0.43640893513685569 0 -0.5 -0.43640893513685569 0 -0.48807352787942693 -0.42163503360792981 0 -0.47376596402009991 -0.43093597365180991 0 -0.5 -0.43640893513685569 0 -0.48807352787942693 -0.42163503360792981 0 -0.5 -0.40686113207900387 0 -0.48807352787942693 -0.42163503360792981 0 -0.5 -0.40686113207900387 0 -0.48647090372502799 -0.39376645540432531 0 -0.48807352787942693 -0.42163503360792981 0 -0.48647090372502799 -0.39376645540432531 0 -0.4667787485529945 -0.405586497379263 0 -0.48807352787942693 -0.42163503360792981 0 -0.47376596402009991 -0.43093597365180991 0 -0.4667787485529945 -0.405586497379263 0 -0.47684596925265937 -0.44496942617860208 0 -0.5 -0.43640893513685569 0 -0.47376596402009991 -0.43093597365180991 0 -0.5 -0.377313329021152 0 -0.48647090372502799 -0.39376645540432531 0 -0.47048170016765112 -0.38129471166342299 0 -0.5 -0.40686113207900387 0 -0.5 -0.377313329021152 0 -0.48647090372502799 -0.39376645540432531 0 -0.48647090372502799 -0.39376645540432531 0 -0.47048170016765112 -0.38129471166342299 0 -0.4667787485529945 -0.405586497379263 0 -0.47048170016765112 -0.38129471166342299 0 -0.44746665090917243 -0.39413820001010119 0 -0.44808162225674392 -0.37692182579735289 0 -0.47048170016765112 -0.38129471166342299 0 -0.4667787485529945 -0.405586497379263 0 -0.44746665090917243 -0.39413820001010119 0 -0.47048170016765112 -0.38129471166342299 0 -0.4667787485529945 -0.405586497379263 0 -0.4667787485529945 -0.405586497379263 0 -0.44746665090917243 -0.39413820001010119 0 -0.44389815475070749 -0.41309320310289299 0 -0.44746665090917243 -0.39413820001010119 0 -0.44389815475070749 -0.41309320310289299 0 -0.4268810438033932 -0.40405875814065001 0 -0.44808162225674392 -0.37692182579735289 0 -0.43026145018299999 -0.38326351845830642 0 -0.43543039476948919 -0.36685570225466702 0 -0.44746665090917243 -0.39413820001010119 0 -0.44808162225674392 -0.37692182579735289 0 -0.43026145018299999 -0.38326351845830642 0 -0.44611547267588031 -0.44038374009070869 0 -0.46250953793196992 -0.4412457854006509 0 -0.45531793121929531 -0.42691034632906982 0 -0.46250953793196992 -0.4412457854006509 0 -0.47376596402009991 -0.43093597365180991 0 -0.45531793121929531 -0.42691034632906982 0 -0.4667787485529945 -0.405586497379263 0 -0.45531793121929531 -0.42691034632906982 0 -0.44389815475070749 -0.41309320310289299 0 -0.47376596402009991 -0.43093597365180991 0 -0.4667787485529945 -0.405586497379263 0 -0.45531793121929531 -0.42691034632906982 0 -0.44389815475070749 -0.41309320310289299 0 -0.44123627706134622 -0.4277108435848444 0 -0.43038788998940619 -0.42012532176096379 0 -0.44611547267588031 -0.44038374009070869 0 -0.44123627706134622 -0.4277108435848444 0 -0.43046193667144161 -0.43804160664058639 0 -0.45531793121929531 -0.42691034632906982 0 -0.44389815475070749 -0.41309320310289299 0 -0.44123627706134622 -0.4277108435848444 0 -0.44611547267588031 -0.44038374009070869 0 -0.45531793121929531 -0.42691034632906982 0 -0.44123627706134622 -0.4277108435848444 0 -0.44123627706134622 -0.4277108435848444 0 -0.43038788998940619 -0.42012532176096379 0 -0.43046193667144161 -0.43804160664058639 0 -0.43038788998940619 -0.42012532176096379 0 -0.41073855119282882 -0.41738880885411322 0 -0.43046193667144161 -0.43804160664058639 0 -0.44389815475070749 -0.41309320310289299 0 -0.43038788998940619 -0.42012532176096379 0 -0.4268810438033932 -0.40405875814065001 0 -0.43038788998940619 -0.42012532176096379 0 -0.41073855119282882 -0.41738880885411322 0 -0.4268810438033932 -0.40405875814065001 0 -0.41073855119282882 -0.41738880885411322 0 -0.4061748184439441 -0.43549875007120742 0 -0.43046193667144161 -0.43804160664058639 0 -0.41073855119282882 -0.41738880885411322 0 -0.43046193667144161 -0.43804160664058639 0 -0.43026145018299999 -0.38326351845830642 0 -0.4268810438033932 -0.40405875814065001 0 -0.41111747537830812 -0.39127236395216508 0 -0.44746665090917243 -0.39413820001010119 0 -0.43026145018299999 -0.38326351845830642 0 -0.4268810438033932 -0.40405875814065001 0 -0.41073855119282882 -0.41738880885411322 0 -0.4268810438033932 -0.40405875814065001 0 -0.41111747537830812 -0.39127236395216508 0 -0.43026145018299999 -0.38326351845830642 0 -0.41111747537830812 -0.39127236395216508 0 -0.41634473552900092 -0.37082329016511723 0 -0.41111747537830812 -0.39127236395216508 0 -0.41634473552900092 -0.37082329016511723 0 -0.39304672010686581 -0.37475311150844498 0 -0.41111747537830812 -0.39127236395216508 0 -0.39101516571421591 -0.39673601106763989 0 -0.39304672010686581 -0.37475311150844498 0 -0.41073855119282882 -0.41738880885411322 0 -0.41111747537830812 -0.39127236395216508 0 -0.39101516571421591 -0.39673601106763989 0 -0.39101516571421591 -0.39673601106763989 0 -0.36842202000709551 -0.4069503877282013 0 -0.37121257174217581 -0.38460265902015978 0 -0.39101516571421591 -0.39673601106763989 0 -0.38512768531393771 -0.40976189400084922 0 -0.36842202000709551 -0.4069503877282013 0 -0.39101516571421591 -0.39673601106763989 0 -0.39304672010686581 -0.37475311150844498 0 -0.37121257174217581 -0.38460265902015978 0 -0.41073855119282882 -0.41738880885411322 0 -0.4061748184439441 -0.43549875007120742 0 -0.38590425447482968 -0.42403540064749051 0 -0.39235059255532651 -0.43725519633794602 0 -0.4061748184439441 -0.43549875007120742 0 -0.38590425447482968 -0.42403540064749051 0 -0.41073855119282882 -0.41738880885411322 0 -0.39101516571421591 -0.39673601106763989 0 -0.41073855119282882 -0.41738880885411322 0 -0.39101516571421591 -0.39673601106763989 0 -0.38512768531393771 -0.40976189400084922 0 -0.41073855119282882 -0.41738880885411322 0 -0.38512768531393771 -0.40976189400084922 0 -0.38590425447482968 -0.42403540064749051 0 -0.38512768531393771 -0.40976189400084922 0 -0.37222584211108473 -0.42374855568549852 0 -0.36842202000709551 -0.4069503877282013 0 -0.38512768531393771 -0.40976189400084922 0 -0.38590425447482968 -0.42403540064749051 0 -0.37222584211108473 -0.42374855568549852 0 -0.38590425447482968 -0.42403540064749051 0 -0.37969946268683807 -0.44093739067353832 0 -0.37222584211108473 -0.42374855568549852 0 -0.38590425447482968 -0.42403540064749051 0 -0.37969946268683807 -0.44093739067353832 0 -0.39235059255532651 -0.43725519633794602 0 -0.38590425447482968 -0.42403540064749051 0 -0.37969946268683807 -0.44093739067353832 0 -0.37969946268683807 -0.44093739067353832 0 -0.37349467089884719 -0.45783938069958652 0 -0.39235059255532651 -0.43725519633794602 0 -0.37969946268683807 -0.44093739067353832 0 -0.39762383461569439 -0.44854924395954793 0 -0.37969946268683807 -0.44093739067353832 0 -0.39762383461569439 -0.44854924395954793 0 -0.37349467089884719 -0.45783938069958652 0 -0.39235059255532651 -0.43725519633794602 0 -0.4061748184439441 -0.43549875007120742 0 -0.39762383461569439 -0.44854924395954793 0 -0.39762383461569439 -0.44854924395954793 0 -0.40480880063287922 -0.46465520859447418 0 -0.4158175686356223 -0.45129695524469998 0 -0.39762383461569439 -0.44854924395954793 0 -0.40480880063287922 -0.46465520859447418 0 -0.38967595846051922 -0.46407966395753569 0 -0.39762383461569439 -0.44854924395954793 0 -0.38967595846051922 -0.46407966395753569 0 -0.37349467089884719 -0.45783938069958652 0 -0.39762383461569439 -0.44854924395954793 0 -0.37349467089884719 -0.45783938069958652 0 -0.38967595846051922 -0.46407966395753569 0 -0.37977069260572971 -0.47103743603700798 0 -0.37349467089884719 -0.45783938069958652 0 -0.37977069260572971 -0.47103743603700798 0 -0.37824661550928201 -0.48343057916569632 0 -0.3925915345037938 -0.47925758194389678 0 -0.38967595846051922 -0.46407966395753569 0 -0.37977069260572971 -0.47103743603700798 0 -0.3925915345037938 -0.47925758194389678 0 -0.37824661550928201 -0.48343057916569632 0 -0.38084732808792798 -0.5 0 -0.3925915345037938 -0.47925758194389678 0 -0.37824661550928201 -0.48343057916569632 0 -0.38084732808792798 -0.5 0 -0.37157748043598571 -0.48981787593663523 0 -0.3925915345037938 -0.47925758194389678 0 -0.41068017467584461 -0.48034324331306061 0 -0.40804351934276639 -0.5 0 -0.38084732808792798 -0.5 0 -0.3925915345037938 -0.47925758194389678 0 -0.40804351934276639 -0.5 0 -0.40480880063287922 -0.46465520859447418 0 -0.3925915345037938 -0.47925758194389678 0 -0.41068017467584461 -0.48034324331306061 0 -0.40480880063287922 -0.46465520859447418 0 -0.38967595846051922 -0.46407966395753569 0 -0.3925915345037938 -0.47925758194389678 0 -0.41068017467584461 -0.48034324331306061 0 -0.42760563386300671 -0.48300252558437479 0 -0.42224711119623609 -0.46666183862050931 0 -0.40480880063287922 -0.46465520859447418 0 -0.41068017467584461 -0.48034324331306061 0 -0.42224711119623609 -0.46666183862050931 0 -0.41068017467584461 -0.48034324331306061 0 -0.40804351934276639 -0.5 0 -0.42760563386300671 -0.48300252558437479 0 -0.44694981201881268 -0.47952086312093228 0 -0.43523971059760491 -0.5 0 -0.42760563386300671 -0.48300252558437479 0 -0.40804351934276639 -0.5 0 -0.43523971059760491 -0.5 0 -0.42760563386300671 -0.48300252558437479 0 -0.44694981201881268 -0.47952086312093228 0 -0.42760563386300671 -0.48300252558437479 0 -0.43676142814697039 -0.46882345795161567 0 -0.42760563386300671 -0.48300252558437479 0 -0.43676142814697039 -0.46882345795161567 0 -0.42224711119623609 -0.46666183862050931 0 -0.42224711119623609 -0.46666183862050931 0 -0.43177850281690772 -0.45628229593173408 0 -0.4158175686356223 -0.45129695524469998 0 -0.43676142814697039 -0.46882345795161567 0 -0.42224711119623609 -0.46666183862050931 0 -0.43177850281690772 -0.45628229593173408 0 -0.45018532215005441 -0.45869440442705972 0 -0.43177850281690772 -0.45628229593173408 0 -0.43046193667144161 -0.43804160664058639 0 -0.43177850281690772 -0.45628229593173408 0 -0.43046193667144161 -0.43804160664058639 0 -0.4158175686356223 -0.45129695524469998 0 -0.4061748184439441 -0.43549875007120742 0 -0.43046193667144161 -0.43804160664058639 0 -0.4158175686356223 -0.45129695524469998 0 -0.4061748184439441 -0.43549875007120742 0 -0.39762383461569439 -0.44854924395954793 0 -0.4158175686356223 -0.45129695524469998 0 -0.40480880063287922 -0.46465520859447418 0 -0.42224711119623609 -0.46666183862050931 0 -0.4158175686356223 -0.45129695524469998 0 -0.43978426832496842 -0.25595267217095202 0 -0.44492860647738708 -0.2581125008386993 0 -0.44621521508720452 -0.23618731695651429 0 -0.44492860647738708 -0.2581125008386993 0 -0.43426817646393762 -0.2757660644535741 0 -0.43387501832978109 -0.26196842385737701 0 -0.44492860647738708 -0.2581125008386993 0 -0.45210769146844049 -0.26818687722025841 0 -0.45328796924433162 -0.25902648129984679 0 -0.44856495240922428 -0.25209074898137163 0 -0.44492860647738708 -0.2581125008386993 0 -0.45328796924433162 -0.25902648129984679 0 -0.44856495240922428 -0.25209074898137163 0 -0.45328796924433162 -0.25902648129984679 0 -0.45717515575802498 -0.25173532694221612 0 -0.44856495240922428 -0.25209074898137163 0 -0.44492860647738708 -0.2581125008386993 0 -0.43978426832496842 -0.25595267217095202 0 -0.44492860647738708 -0.2581125008386993 0 -0.43387501832978109 -0.26196842385737701 0 -0.44492860647738708 -0.2581125008386993 0 -0.44356537844224458 -0.28134336150278721 0 -0.43426817646393762 -0.2757660644535741 0 -0.44492860647738708 -0.2581125008386993 0 -0.43426817646393762 -0.2757660644535741 0 -0.44492860647738708 -0.2581125008386993 0 -0.45210769146844049 -0.26818687722025841 0 -0.44356537844224458 -0.28134336150278721 0 -0.44492860647738708 -0.2581125008386993 0 -0.44356537844224458 -0.28134336150278721 0 -0.45210769146844049 -0.26818687722025841 0 -0.45766727826398351 -0.27900022115322443 0 -0.44356537844224458 -0.28134336150278721 0 -0.45766727826398351 -0.27900022115322443 0 -0.46089159682461961 -0.26330731821400738 0 -0.47590017520925493 -0.27127157601289797 0 -0.45210769146844049 -0.26818687722025841 0 -0.45766727826398351 -0.27900022115322443 0 -0.46089159682461961 -0.26330731821400738 0 -0.46089159682461961 -0.26330731821400738 0 -0.45717515575802498 -0.25173532694221612 0 -0.46804319132689648 -0.246018173434604 0 -0.46089159682461961 -0.26330731821400738 0 -0.47590017520925493 -0.27127157601289797 0 -0.46804319132689648 -0.246018173434604 0 -0.46089159682461961 -0.26330731821400738 0 -0.45328796924433162 -0.25902648129984679 0 -0.45717515575802498 -0.25173532694221612 0 -0.45210769146844049 -0.26818687722025841 0 -0.46089159682461961 -0.26330731821400738 0 -0.45328796924433162 -0.25902648129984679 0 -0.47590017520925493 -0.27127157601289797 0 -0.48614690839338193 -0.24626533862775701 0 -0.46804319132689648 -0.246018173434604 0 -0.47590017520925493 -0.27127157601289797 0 -0.46804319132689648 -0.246018173434604 0 -0.5 -0.25912211678974428 0 -0.47590017520925493 -0.27127157601289797 0 -0.48614690839338193 -0.24626533862775701 0 -0.5 -0.25912211678974428 0 -0.47590017520925493 -0.27127157601289797 0 -0.5 -0.28866991984759632 0 -0.47590017520925493 -0.27127157601289797 0 -0.48375715909161332 -0.29652497859119209 0 -0.47590017520925493 -0.27127157601289797 0 -0.48375715909161332 -0.29652497859119209 0 -0.46804671203192461 -0.29361236792080098 0 -0.47590017520925493 -0.27127157601289797 0 -0.48375715909161332 -0.29652497859119209 0 -0.5 -0.28866991984759632 0 -0.48375715909161332 -0.29652497859119209 0 -0.5 -0.28866991984759632 0 -0.5 -0.31821772290544809 0 -0.48375715909161332 -0.29652497859119209 0 -0.48159055501162068 -0.30841935451590302 0 -0.5 -0.31821772290544809 0 -0.48159055501162068 -0.30841935451590302 0 -0.46147920760846362 -0.30964070732682919 0 -0.46804671203192461 -0.29361236792080098 0 -0.48375715909161332 -0.29652497859119209 0 -0.48159055501162068 -0.30841935451590302 0 -0.46804671203192461 -0.29361236792080098 0 -0.46147920760846362 -0.30964070732682919 0 -0.46804671203192461 -0.29361236792080098 0 -0.44787369203620059 -0.29270338589020162 0 -0.46147920760846362 -0.30964070732682919 0 -0.44787369203620059 -0.29270338589020162 0 -0.45766727826398351 -0.27900022115322443 0 -0.46804671203192461 -0.29361236792080098 0 -0.44787369203620059 -0.29270338589020162 0 -0.45766727826398351 -0.27900022115322443 0 -0.47590017520925493 -0.27127157601289797 0 -0.46804671203192461 -0.29361236792080098 0 -0.44787369203620059 -0.29270338589020162 0 -0.43426817646393762 -0.2757660644535741 0 -0.44787369203620059 -0.29270338589020162 0 -0.44356537844224458 -0.28134336150278721 0 -0.43426817646393762 -0.2757660644535741 0 -0.45766727826398351 -0.27900022115322443 0 -0.44787369203620059 -0.29270338589020162 0 -0.44356537844224458 -0.28134336150278721 0 -0.46147920760846362 -0.30964070732682919 0 -0.44787369203620059 -0.29270338589020162 0 -0.43972290206812747 -0.31404433696105499 0 -0.43972290206812747 -0.31404433696105499 0 -0.45418191945286968 -0.33408860372456151 0 -0.42299818234826803 -0.33010441368656501 0 -0.46147920760846362 -0.30964070732682919 0 -0.43972290206812747 -0.31404433696105499 0 -0.45418191945286968 -0.33408860372456151 0 -0.45418191945286968 -0.33408860372456151 0 -0.47093334472894388 -0.32006824344776419 0 -0.47788760339696412 -0.33271114023174297 0 -0.46147920760846362 -0.30964070732682919 0 -0.45418191945286968 -0.33408860372456151 0 -0.47093334472894388 -0.32006824344776419 0 -0.48159055501162068 -0.30841935451590302 0 -0.47093334472894388 -0.32006824344776419 0 -0.47788760339696412 -0.33271114023174297 0 -0.48159055501162068 -0.30841935451590302 0 -0.47788760339696412 -0.33271114023174297 0 -0.48159055501162068 -0.30841935451590302 0 -0.46147920760846362 -0.30964070732682919 0 -0.47093334472894388 -0.32006824344776419 0 -0.48159055501162068 -0.30841935451590302 0 -0.5 -0.31821772290544809 0 -0.47788760339696412 -0.33271114023174297 0 -0.5 -0.31821772290544809 0 -0.47788760339696412 -0.33271114023174297 0 -0.5 -0.34776552596330002 0 -0.45418191945286968 -0.33408860372456151 0 -0.47788760339696412 -0.33271114023174297 0 -0.47418465178230762 -0.35700292594758298 0 -0.47788760339696412 -0.33271114023174297 0 -0.47418465178230762 -0.35700292594758298 0 -0.47788760339696412 -0.33271114023174297 0 -0.47418465178230762 -0.35700292594758298 0 -0.5 -0.34776552596330002 0 -0.5 -0.377313329021152 0 -0.47418465178230762 -0.35700292594758298 0 -0.5 -0.34776552596330002 0 -0.47048170016765112 -0.38129471166342299 0 -0.47418465178230762 -0.35700292594758298 0 -0.5 -0.377313329021152 0 -0.47048170016765112 -0.38129471166342299 0 -0.47418465178230762 -0.35700292594758298 0 -0.47048170016765112 -0.38129471166342299 0 -0.44808162225674392 -0.37692182579735289 0 -0.45516677492798019 -0.36238975740582102 0 -0.47048170016765112 -0.38129471166342299 0 -0.47418465178230762 -0.35700292594758298 0 -0.45516677492798019 -0.36238975740582102 0 -0.45418191945286968 -0.33408860372456151 0 -0.47418465178230762 -0.35700292594758298 0 -0.45516677492798019 -0.36238975740582102 0 -0.45516677492798019 -0.36238975740582102 0 -0.43543039476948919 -0.36685570225466702 0 -0.42985073729317308 -0.34740482084532182 0 -0.45516677492798019 -0.36238975740582102 0 -0.42985073729317308 -0.34740482084532182 0 -0.45418191945286968 -0.33408860372456151 0 -0.45516677492798019 -0.36238975740582102 0 -0.42985073729317308 -0.34740482084532182 0 -0.44808162225674392 -0.37692182579735289 0 -0.45516677492798019 -0.36238975740582102 0 -0.43543039476948919 -0.36685570225466702 0 -0.43543039476948919 -0.36685570225466702 0 -0.42985073729317308 -0.34740482084532182 0 -0.41634473552900092 -0.37082329016511723 0 -0.43026145018299999 -0.38326351845830642 0 -0.43543039476948919 -0.36685570225466702 0 -0.41634473552900092 -0.37082329016511723 0 -0.42985073729317308 -0.34740482084532182 0 -0.40396953454954398 -0.35361611148851008 0 -0.40453469965836619 -0.33241988428482261 0 -0.42985073729317308 -0.34740482084532182 0 -0.41634473552900092 -0.37082329016511723 0 -0.40396953454954398 -0.35361611148851008 0 -0.39304672010686581 -0.37475311150844498 0 -0.38678236955283363 -0.3546674392385083 0 -0.40396953454954398 -0.35361611148851008 0 -0.41634473552900092 -0.37082329016511723 0 -0.39304672010686581 -0.37475311150844498 0 -0.40396953454954398 -0.35361611148851008 0 -0.39304672010686581 -0.37475311150844498 0 -0.38678236955283363 -0.3546674392385083 0 -0.36895057713182872 -0.36137438315582421 0 -0.39304672010686581 -0.37475311150844498 0 -0.38678236955283363 -0.3546674392385083 0 -0.39304672010686581 -0.37475311150844498 0 -0.36895057713182872 -0.36137438315582421 0 -0.37121257174217581 -0.38460265902015978 0 -0.38678236955283363 -0.3546674392385083 0 -0.3805180189988015 -0.33458176696857173 0 -0.38678236955283363 -0.3546674392385083 0 -0.36955918105770619 -0.3442268408339102 0 -0.36895057713182872 -0.36137438315582421 0 -0.38678236955283363 -0.3546674392385083 0 -0.3805180189988015 -0.33458176696857173 0 -0.36955918105770619 -0.3442268408339102 0 -0.38678236955283363 -0.3546674392385083 0 -0.40396953454954398 -0.35361611148851008 0 -0.39325794515702472 -0.34162812288884598 0 -0.40396953454954398 -0.35361611148851008 0 -0.40453469965836619 -0.33241988428482261 0 -0.39325794515702472 -0.34162812288884598 0 -0.40453469965836619 -0.33241988428482261 0 -0.39209358962776292 -0.32869312177584198 0 -0.39325794515702472 -0.34162812288884598 0 -0.38678236955283363 -0.3546674392385083 0 -0.39325794515702472 -0.34162812288884598 0 -0.3805180189988015 -0.33458176696857173 0 -0.39209358962776292 -0.32869312177584198 0 -0.39325794515702472 -0.34162812288884598 0 -0.3805180189988015 -0.33458176696857173 0 -0.3805180189988015 -0.33458176696857173 0 -0.37425366844476837 -0.31449609469863532 0 -0.3805180189988015 -0.33458176696857173 0 -0.37186361675358581 -0.32300302659276309 0 -0.37425366844476837 -0.31449609469863532 0 -0.3805180189988015 -0.33458176696857173 0 -0.38042312134317502 -0.3201556296673696 0 -0.37425366844476837 -0.31449609469863532 0 -0.37921866202355869 -0.31743494772432368 0 -0.38042312134317502 -0.3201556296673696 0 -0.37921866202355869 -0.31743494772432368 0 -0.37425366844476837 -0.31449609469863532 0 -0.37921866202355869 -0.31743494772432368 0 -0.38042312134317502 -0.3201556296673696 0 -0.37425366844476837 -0.31449609469863532 0 -0.39209358962776292 -0.32869312177584198 0 -0.37921866202355869 -0.31743494772432368 0 -0.38042312134317502 -0.3201556296673696 0 -0.39209358962776292 -0.32869312177584198 0 -0.3805180189988015 -0.33458176696857173 0 -0.38042312134317502 -0.3201556296673696 0 -0.40453469965836619 -0.33241988428482261 0 -0.39209358962776292 -0.32869312177584198 0 -0.37921866202355869 -0.31743494772432368 0 -0.40453469965836619 -0.33241988428482261 0 -0.37921866202355869 -0.31743494772432368 0 -0.40453469965836619 -0.33241988428482261 0 -0.39570323381900618 -0.31335793664190892 0 -0.40592776081445231 -0.32269750435881162 0 -0.40453469965836619 -0.33241988428482261 0 -0.37921866202355869 -0.31743494772432368 0 -0.39570323381900618 -0.31335793664190892 0 -0.39570323381900618 -0.31335793664190892 0 -0.40592776081445231 -0.32269750435881162 0 -0.40472424015597119 -0.30492911817165541 0 -0.40592776081445231 -0.32269750435881162 0 -0.42299818234826803 -0.33010441368656501 0 -0.42009796863919469 -0.29923178440619269 0 -0.42985073729317308 -0.34740482084532182 0 -0.40453469965836619 -0.33241988428482261 0 -0.42299818234826803 -0.33010441368656501 0 -0.42985073729317308 -0.34740482084532182 0 -0.40453469965836619 -0.33241988428482261 0 -0.40453469965836619 -0.33241988428482261 0 -0.40592776081445231 -0.32269750435881162 0 -0.42299818234826803 -0.33010441368656501 0 -0.45418191945286968 -0.33408860372456151 0 -0.42985073729317308 -0.34740482084532182 0 -0.42299818234826803 -0.33010441368656501 0 -0.43972290206812747 -0.31404433696105499 0 -0.42299818234826803 -0.33010441368656501 0 -0.42009796863919469 -0.29923178440619269 0 -0.44787369203620059 -0.29270338589020162 0 -0.43972290206812747 -0.31404433696105499 0 -0.42009796863919469 -0.29923178440619269 0 -0.44787369203620059 -0.29270338589020162 0 -0.42009796863919469 -0.29923178440619269 0 -0.43426817646393762 -0.2757660644535741 0 -0.42009796863919469 -0.29923178440619269 0 -0.41237947063372088 -0.27862490741284379 0 -0.43426817646393762 -0.2757660644535741 0 -0.42009796863919469 -0.29923178440619269 0 -0.43426817646393762 -0.2757660644535741 0 -0.42009796863919469 -0.29923178440619269 0 -0.40595517511564699 -0.29262078054082857 0 -0.41237947063372088 -0.27862490741284379 0 -0.42009796863919469 -0.29923178440619269 0 -0.40472424015597119 -0.30492911817165541 0 -0.40595517511564699 -0.29262078054082857 0 -0.40592776081445231 -0.32269750435881162 0 -0.42009796863919469 -0.29923178440619269 0 -0.40472424015597119 -0.30492911817165541 0 -0.40592776081445231 -0.32269750435881162 0 -0.42009796863919469 -0.29923178440619269 0 -0.40472424015597119 -0.30492911817165541 0 -0.39458134842478798 -0.29782561801467072 0 -0.40595517511564699 -0.29262078054082857 0 -0.39570323381900618 -0.31335793664190892 0 -0.39458134842478798 -0.29782561801467072 0 -0.38586953461271678 -0.30340289788163832 0 -0.39570323381900618 -0.31335793664190892 0 -0.40472424015597119 -0.30492911817165541 0 -0.39458134842478798 -0.29782561801467072 0 -0.37921866202355869 -0.31743494772432368 0 -0.39570323381900618 -0.31335793664190892 0 -0.38586953461271678 -0.30340289788163832 0 -0.37921866202355869 -0.31743494772432368 0 -0.38586953461271678 -0.30340289788163832 0 -0.37853455158755228 -0.2988953810748684 0 -0.37921866202355869 -0.31743494772432368 0 -0.37853455158755228 -0.2988953810748684 0 -0.36920518518592149 -0.29481609694576028 0 -0.39458134842478798 -0.29782561801467072 0 -0.38586953461271678 -0.30340289788163832 0 -0.38428053169028209 -0.2914419377424925 0 -0.38586953461271678 -0.30340289788163832 0 -0.37853455158755228 -0.2988953810748684 0 -0.38428053169028209 -0.2914419377424925 0 -0.38428053169028209 -0.2914419377424925 0 -0.38006784644117542 -0.27801537009126498 0 -0.37425596465064309 -0.28707320640431661 0 -0.37853455158755228 -0.2988953810748684 0 -0.38428053169028209 -0.2914419377424925 0 -0.37425596465064309 -0.28707320640431661 0 -0.38428053169028209 -0.2914419377424925 0 -0.39528141979102438 -0.28466854090705163 0 -0.38006784644117542 -0.27801537009126498 0 -0.39528141979102438 -0.28466854090705163 0 -0.40595517511564699 -0.29262078054082857 0 -0.41237947063372088 -0.27862490741284379 0 -0.39458134842478798 -0.29782561801467072 0 -0.38428053169028209 -0.2914419377424925 0 -0.39528141979102438 -0.28466854090705163 0 -0.39458134842478798 -0.29782561801467072 0 -0.39528141979102438 -0.28466854090705163 0 -0.40595517511564699 -0.29262078054082857 0 -0.39306843247376549 -0.27057066474434449 0 -0.40500544837150798 -0.26083237581601892 0 -0.41237947063372088 -0.27862490741284379 0 -0.39528141979102438 -0.28466854090705163 0 -0.39306843247376549 -0.27057066474434449 0 -0.41237947063372088 -0.27862490741284379 0 -0.39528141979102438 -0.28466854090705163 0 -0.39306843247376549 -0.27057066474434449 0 -0.38006784644117542 -0.27801537009126498 0 -0.39306843247376549 -0.27057066474434449 0 -0.38006784644117542 -0.27801537009126498 0 -0.37740410478643921 -0.26299349797254662 0 -0.37740410478643921 -0.26299349797254662 0 -0.39186305465216531 -0.25425052695649591 0 -0.37582382025708527 -0.246023115539172 0 -0.39306843247376549 -0.27057066474434449 0 -0.37740410478643921 -0.26299349797254662 0 -0.39186305465216531 -0.25425052695649591 0 -0.39306843247376549 -0.27057066474434449 0 -0.40500544837150798 -0.26083237581601892 0 -0.39186305465216531 -0.25425052695649591 0 -0.40500544837150798 -0.26083237581601892 0 -0.39186305465216531 -0.25425052695649591 0 -0.40705479724394628 -0.24188849849308219 0 -0.420661486853942 -0.25882728147332812 0 -0.40705479724394628 -0.24188849849308219 0 -0.40500544837150798 -0.26083237581601892 0 -0.420661486853942 -0.25882728147332812 0 -0.40705479724394628 -0.24188849849308219 0 -0.40500544837150798 -0.26083237581601892 0 -0.420661486853942 -0.25882728147332812 0 -0.41237947063372088 -0.27862490741284379 0 -0.420661486853942 -0.25882728147332812 0 -0.43426817646393762 -0.2757660644535741 0 -0.420661486853942 -0.25882728147332812 0 -0.41237947063372088 -0.27862490741284379 0 -0.43426817646393762 -0.2757660644535741 0 -0.420661486853942 -0.25882728147332812 0 -0.43426817646393762 -0.2757660644535741 0 -0.43387501832978109 -0.26196842385737701 0 -0.43978426832496842 -0.25595267217095202 0 -0.43387501832978109 -0.26196842385737701 0 -0.42996602305475529 -0.25522131411260801 0 -0.43978426832496842 -0.25595267217095202 0 -0.42996602305475529 -0.25522131411260801 0 -0.42707331057603581 -0.24532875095080739 0 -0.420661486853942 -0.25882728147332812 0 -0.42996602305475529 -0.25522131411260801 0 -0.42707331057603581 -0.24532875095080739 0 -0.420661486853942 -0.25882728147332812 0 -0.43387501832978109 -0.26196842385737701 0 -0.42996602305475529 -0.25522131411260801 0 -0.32438864613447121 -0.25933717352790842 0 -0.33368442547674693 -0.24785125579902459 0 -0.31927486322503718 -0.24452010099714019 0 -0.32438864613447121 -0.25933717352790842 0 -0.31594769265599698 -0.25376434042267809 0 -0.31927486322503718 -0.24452010099714019 0 -0.32438864613447121 -0.25933717352790842 0 -0.31305156941253082 -0.26107875653336537 0 -0.31937965865869788 -0.26787122749346393 0 -0.32438864613447121 -0.25933717352790842 0 -0.31594769265599698 -0.25376434042267809 0 -0.31305156941253082 -0.26107875653336537 0 -0.31937965865869788 -0.26787122749346393 0 -0.32794471080023119 -0.27492771754297562 0 -0.31164362251163419 -0.27458401323054837 0 -0.32794471080023119 -0.27492771754297562 0 -0.32310293493033282 -0.29007313177926441 0 -0.31164362251163419 -0.27458401323054837 0 -0.31305156941253082 -0.26107875653336537 0 -0.31937965865869788 -0.26787122749346393 0 -0.31164362251163419 -0.27458401323054837 0 -0.32438864613447121 -0.25933717352790842 0 -0.31937965865869788 -0.26787122749346393 0 -0.32794471080023119 -0.27492771754297562 0 -0.32438864613447121 -0.25933717352790842 0 -0.32794471080023119 -0.27492771754297562 0 -0.3414661993928032 -0.26511780554518471 0 -0.32794471080023119 -0.27492771754297562 0 -0.3414661993928032 -0.26511780554518471 0 -0.34440846089439547 -0.28287895850317968 0 -0.32438864613447121 -0.25933717352790842 0 -0.3414661993928032 -0.26511780554518471 0 -0.33368442547674693 -0.24785125579902459 0 -0.3414661993928032 -0.26511780554518471 0 -0.34917823151064831 -0.24957839538863319 0 -0.33368442547674693 -0.24785125579902459 0 -0.3591917083482849 -0.27219724616719682 0 -0.34917823151064831 -0.24957839538863319 0 -0.36338572988622991 -0.25681459894990649 0 -0.3591917083482849 -0.27219724616719682 0 -0.34917823151064831 -0.24957839538863319 0 -0.3414661993928032 -0.26511780554518471 0 -0.3591917083482849 -0.27219724616719682 0 -0.34917823151064831 -0.24957839538863319 0 -0.37740410478643921 -0.26299349797254662 0 -0.36338572988622991 -0.25681459894990649 0 -0.37582382025708527 -0.246023115539172 0 -0.37740410478643921 -0.26299349797254662 0 -0.36338572988622991 -0.25681459894990649 0 -0.3591917083482849 -0.27219724616719682 0 -0.38006784644117542 -0.27801537009126498 0 -0.3591917083482849 -0.27219724616719682 0 -0.37425596465064309 -0.28707320640431661 0 -0.38006784644117542 -0.27801537009126498 0 -0.37740410478643921 -0.26299349797254662 0 -0.3591917083482849 -0.27219724616719682 0 -0.3414661993928032 -0.26511780554518471 0 -0.3591917083482849 -0.27219724616719682 0 -0.34440846089439547 -0.28287895850317968 0 -0.3591917083482849 -0.27219724616719682 0 -0.34440846089439547 -0.28287895850317968 0 -0.35931343731742282 -0.28566928934174513 0 -0.35931343731742282 -0.28566928934174513 0 -0.3615758831202498 -0.29450514233450542 0 -0.3548673048902718 -0.2970699430880423 0 -0.34440846089439547 -0.28287895850317968 0 -0.35931343731742282 -0.28566928934174513 0 -0.3548673048902718 -0.2970699430880423 0 -0.3591917083482849 -0.27219724616719682 0 -0.36920518518592149 -0.29481609694576028 0 -0.3591917083482849 -0.27219724616719682 0 -0.36920518518592149 -0.29481609694576028 0 -0.37425596465064309 -0.28707320640431661 0 -0.3591917083482849 -0.27219724616719682 0 -0.35931343731742282 -0.28566928934174513 0 -0.36920518518592149 -0.29481609694576028 0 -0.35931343731742282 -0.28566928934174513 0 -0.3615758831202498 -0.29450514233450542 0 -0.36920518518592149 -0.29481609694576028 0 -0.3615758831202498 -0.29450514233450542 0 -0.36920518518592149 -0.29481609694576028 0 -0.36291760508738319 -0.3004652399624741 0 -0.37853455158755228 -0.2988953810748684 0 -0.36920518518592149 -0.29481609694576028 0 -0.37425596465064309 -0.28707320640431661 0 -0.37921866202355869 -0.31743494772432368 0 -0.36920518518592149 -0.29481609694576028 0 -0.37016236830383042 -0.30137797286301199 0 -0.37921866202355869 -0.31743494772432368 0 -0.37016236830383042 -0.30137797286301199 0 -0.37425366844476837 -0.31449609469863532 0 -0.37921866202355869 -0.31743494772432368 0 -0.36920518518592149 -0.29481609694576028 0 -0.36501980475802243 -0.30903043441047379 0 -0.37425366844476837 -0.31449609469863532 0 -0.37016236830383042 -0.30137797286301199 0 -0.37425366844476837 -0.31449609469863532 0 -0.37016236830383042 -0.30137797286301199 0 -0.36501980475802243 -0.30903043441047379 0 -0.37425366844476837 -0.31449609469863532 0 -0.36920518518592149 -0.29481609694576028 0 -0.37016236830383042 -0.30137797286301199 0 -0.36291760508738319 -0.3004652399624741 0 -0.37016236830383042 -0.30137797286301199 0 -0.36291760508738319 -0.3004652399624741 0 -0.36501980475802243 -0.30903043441047379 0 -0.3615758831202498 -0.29450514233450542 0 -0.36291760508738319 -0.3004652399624741 0 -0.3548673048902718 -0.2970699430880423 0 -0.36291760508738319 -0.3004652399624741 0 -0.36501980475802243 -0.30903043441047379 0 -0.35767172217189902 -0.30804212803452918 0 -0.36501980475802243 -0.30903043441047379 0 -0.35767172217189902 -0.30804212803452918 0 -0.36102752117867798 -0.31421766568033438 0 -0.35767172217189902 -0.30804212803452918 0 -0.3548673048902718 -0.2970699430880423 0 -0.34684046456643219 -0.31174240759667821 0 -0.34440846089439547 -0.28287895850317968 0 -0.3548673048902718 -0.2970699430880423 0 -0.34684046456643219 -0.31174240759667821 0 -0.35767172217189902 -0.30804212803452918 0 -0.34684046456643219 -0.31174240759667821 0 -0.35567292848205112 -0.31587360613775389 0 -0.34440846089439547 -0.28287895850317968 0 -0.34684046456643219 -0.31174240759667821 0 -0.36291760508738319 -0.3004652399624741 0 -0.35767172217189902 -0.30804212803452918 0 -0.3548673048902718 -0.2970699430880423 0 -0.34684046456643219 -0.31174240759667821 0 -0.33493591154826857 -0.31217552393010473 0 -0.33310708373359399 -0.30040431493761649 0 -0.34440846089439547 -0.28287895850317968 0 -0.34684046456643219 -0.31174240759667821 0 -0.33310708373359399 -0.30040431493761649 0 -0.33493591154826857 -0.31217552393010473 0 -0.33310708373359399 -0.30040431493761649 0 -0.31851294718041051 -0.30488473567073249 0 -0.32794471080023119 -0.27492771754297562 0 -0.34440846089439547 -0.28287895850317968 0 -0.33214079758963833 -0.28707103069075901 0 -0.34440846089439547 -0.28287895850317968 0 -0.33310708373359399 -0.30040431493761649 0 -0.33214079758963833 -0.28707103069075901 0 -0.33310708373359399 -0.30040431493761649 0 -0.33214079758963833 -0.28707103069075901 0 -0.32310293493033282 -0.29007313177926441 0 -0.33310708373359399 -0.30040431493761649 0 -0.31224471992999159 -0.28680577537315011 0 -0.33310708373359399 -0.30040431493761649 0 -0.32310293493033282 -0.29007313177926441 0 -0.31224471992999159 -0.28680577537315011 0 -0.32794471080023119 -0.27492771754297562 0 -0.33214079758963833 -0.28707103069075901 0 -0.32310293493033282 -0.29007313177926441 0 -0.32310293493033282 -0.29007313177926441 0 -0.31224471992999159 -0.28680577537315011 0 -0.31164362251163419 -0.27458401323054837 0 -0.32310293493033282 -0.29007313177926441 0 -0.31164362251163419 -0.27458401323054837 0 -0.33310708373359399 -0.30040431493761649 0 -0.31851294718041051 -0.30488473567073249 0 -0.31224471992999159 -0.28680577537315011 0 -0.32669486992668179 -0.32077733800109148 0 -0.30897235038299048 -0.33116051973598087 0 -0.30553880375356629 -0.31573383989816922 0 -0.32669486992668179 -0.32077733800109148 0 -0.30553880375356629 -0.31573383989816922 0 -0.33493591154826857 -0.31217552393010473 0 -0.31851294718041051 -0.30488473567073249 0 -0.32669486992668179 -0.32077733800109148 0 -0.31851294718041051 -0.30488473567073249 0 -0.32669486992668179 -0.32077733800109148 0 -0.30553880375356629 -0.31573383989816922 0 -0.32669486992668179 -0.32077733800109148 0 -0.32466896406783291 -0.33404407862442559 0 -0.30897235038299048 -0.33116051973598087 0 -0.31690568287675702 -0.34041947479709889 0 -0.32466896406783291 -0.33404407862442559 0 -0.30897235038299048 -0.33116051973598087 0 -0.31690568287675702 -0.34041947479709889 0 -0.32766118629826679 -0.33907698792869861 0 -0.32466896406783291 -0.33404407862442559 0 -0.31690568287675702 -0.34041947479709889 0 -0.32766118629826679 -0.33907698792869861 0 -0.32571390489420571 -0.34742386935466929 0 -0.32766118629826679 -0.33907698792869861 0 -0.32466896406783291 -0.33404407862442559 0 -0.33386890728616853 -0.33166887323221578 0 -0.32669486992668179 -0.32077733800109148 0 -0.32466896406783291 -0.33404407862442559 0 -0.33386890728616853 -0.33166887323221578 0 -0.32766118629826679 -0.33907698792869861 0 -0.33482018057890961 -0.33908227502133559 0 -0.32571390489420571 -0.34742386935466929 0 -0.33482018057890961 -0.33908227502133559 0 -0.33979536867864918 -0.34199013916993037 0 -0.32571390489420571 -0.34742386935466929 0 -0.32766118629826679 -0.33907698792869861 0 -0.33386890728616853 -0.33166887323221578 0 -0.33482018057890961 -0.33908227502133559 0 -0.33979536867864918 -0.34199013916993037 0 -0.34206491982001902 -0.33525703898560028 0 -0.34927246823846908 -0.34060585669017662 0 -0.33482018057890961 -0.33908227502133559 0 -0.33979536867864918 -0.34199013916993037 0 -0.34206491982001902 -0.33525703898560028 0 -0.33386890728616853 -0.33166887323221578 0 -0.34206491982001902 -0.33525703898560028 0 -0.34802545901457432 -0.32580613098792688 0 -0.33386890728616853 -0.33166887323221578 0 -0.33482018057890961 -0.33908227502133559 0 -0.34206491982001902 -0.33525703898560028 0 -0.32669486992668179 -0.32077733800109148 0 -0.34802545901457432 -0.32580613098792688 0 -0.32669486992668179 -0.32077733800109148 0 -0.33386890728616853 -0.33166887323221578 0 -0.34802545901457432 -0.32580613098792688 0 -0.33493591154826857 -0.31217552393010473 0 -0.32669486992668179 -0.32077733800109148 0 -0.34802545901457432 -0.32580613098792688 0 -0.34684046456643219 -0.31174240759667821 0 -0.33493591154826857 -0.31217552393010473 0 -0.34802545901457432 -0.32580613098792688 0 -0.34684046456643219 -0.31174240759667821 0 -0.34802545901457432 -0.32580613098792688 0 -0.34684046456643219 -0.31174240759667821 0 -0.34802545901457432 -0.32580613098792688 0 -0.35487175791761078 -0.32425660775548393 0 -0.35487175791761078 -0.32425660775548393 0 -0.36090906592089339 -0.32047710756848868 0 -0.36082373171806692 -0.32665224072081012 0 -0.35487175791761078 -0.32425660775548393 0 -0.36082373171806692 -0.32665224072081012 0 -0.35606581187324221 -0.33202738471594129 0 -0.34684046456643219 -0.31174240759667821 0 -0.35487175791761078 -0.32425660775548393 0 -0.35567292848205112 -0.31587360613775389 0 -0.35487175791761078 -0.32425660775548393 0 -0.35567292848205112 -0.31587360613775389 0 -0.36090906592089339 -0.32047710756848868 0 -0.35767172217189902 -0.30804212803452918 0 -0.35567292848205112 -0.31587360613775389 0 -0.36102752117867798 -0.31421766568033438 0 -0.35567292848205112 -0.31587360613775389 0 -0.36102752117867798 -0.31421766568033438 0 -0.36090906592089339 -0.32047710756848868 0 -0.36501980475802243 -0.30903043441047379 0 -0.36102752117867798 -0.31421766568033438 0 -0.3664768308978244 -0.31731180076395271 0 -0.36102752117867798 -0.31421766568033438 0 -0.3664768308978244 -0.31731180076395271 0 -0.36090906592089339 -0.32047710756848868 0 -0.36090906592089339 -0.32047710756848868 0 -0.36082373171806692 -0.32665224072081012 0 -0.36658162533112981 -0.32455072435259741 0 -0.3664768308978244 -0.31731180076395271 0 -0.36090906592089339 -0.32047710756848868 0 -0.36658162533112981 -0.32455072435259741 0 -0.3664768308978244 -0.31731180076395271 0 -0.36658162533112981 -0.32455072435259741 0 -0.37186361675358581 -0.32300302659276309 0 -0.36658162533112981 -0.32455072435259741 0 -0.37186361675358581 -0.32300302659276309 0 -0.3712204895581776 -0.32829668925499589 0 -0.3664768308978244 -0.31731180076395271 0 -0.37186361675358581 -0.32300302659276309 0 -0.37425366844476837 -0.31449609469863532 0 -0.36501980475802243 -0.30903043441047379 0 -0.3664768308978244 -0.31731180076395271 0 -0.37425366844476837 -0.31449609469863532 0 -0.3805180189988015 -0.33458176696857173 0 -0.36578497188057968 -0.33316221064352031 0 -0.36955918105770619 -0.3442268408339102 0 -0.3805180189988015 -0.33458176696857173 0 -0.3712204895581776 -0.32829668925499589 0 -0.36578497188057968 -0.33316221064352031 0 -0.3805180189988015 -0.33458176696857173 0 -0.37186361675358581 -0.32300302659276309 0 -0.3712204895581776 -0.32829668925499589 0 -0.36658162533112981 -0.32455072435259741 0 -0.3712204895581776 -0.32829668925499589 0 -0.36578497188057968 -0.33316221064352031 0 -0.36082373171806692 -0.32665224072081012 0 -0.36578497188057968 -0.33316221064352031 0 -0.35929528961882212 -0.33659483369729493 0 -0.36082373171806692 -0.32665224072081012 0 -0.36658162533112981 -0.32455072435259741 0 -0.36578497188057968 -0.33316221064352031 0 -0.36578497188057968 -0.33316221064352031 0 -0.35929528961882212 -0.33659483369729493 0 -0.36955918105770619 -0.3442268408339102 0 -0.35929528961882212 -0.33659483369729493 0 -0.35606581187324221 -0.33202738471594129 0 -0.34927246823846908 -0.34060585669017662 0 -0.35929528961882212 -0.33659483369729493 0 -0.34927246823846908 -0.34060585669017662 0 -0.35975639759146638 -0.35045424403217618 0 -0.34802545901457432 -0.32580613098792688 0 -0.35487175791761078 -0.32425660775548393 0 -0.34927246823846908 -0.34060585669017662 0 -0.35487175791761078 -0.32425660775548393 0 -0.35606581187324221 -0.33202738471594129 0 -0.34927246823846908 -0.34060585669017662 0 -0.36082373171806692 -0.32665224072081012 0 -0.35929528961882212 -0.33659483369729493 0 -0.35606581187324221 -0.33202738471594129 0 -0.34802545901457432 -0.32580613098792688 0 -0.34927246823846908 -0.34060585669017662 0 -0.34206491982001902 -0.33525703898560028 0 -0.34802545901457432 -0.32580613098792688 0 -0.34927246823846908 -0.34060585669017662 0 -0.33979536867864918 -0.34199013916993037 0 -0.34927246823846908 -0.34060585669017662 0 -0.34710536986164281 -0.34758165579787009 0 -0.34927246823846908 -0.34060585669017662 0 -0.35170447191050602 -0.36946930578367509 0 -0.34927246823846908 -0.34060585669017662 0 -0.34710536986164281 -0.34758165579787009 0 -0.35170447191050602 -0.36946930578367509 0 -0.34927246823846908 -0.34060585669017662 0 -0.35975639759146638 -0.35045424403217618 0 -0.35170447191050602 -0.36946930578367509 0 -0.35929528961882212 -0.33659483369729493 0 -0.35975639759146638 -0.35045424403217618 0 -0.36955918105770619 -0.3442268408339102 0 -0.35975639759146638 -0.35045424403217618 0 -0.36955918105770619 -0.3442268408339102 0 -0.36895057713182872 -0.36137438315582421 0 -0.35975639759146638 -0.35045424403217618 0 -0.36895057713182872 -0.36137438315582421 0 -0.35170447191050602 -0.36946930578367509 0 -0.36895057713182872 -0.36137438315582421 0 -0.35170447191050602 -0.36946930578367509 0 -0.37121257174217581 -0.38460265902015978 0 -0.34710536986164281 -0.34758165579787009 0 -0.35170447191050602 -0.36946930578367509 0 -0.33839464566177829 -0.36319284962808851 0 -0.32828419651358193 -0.36370913570116742 0 -0.33839464566177829 -0.36319284962808851 0 -0.33468256793477691 -0.37993867994153241 0 -0.35170447191050602 -0.36946930578367509 0 -0.33839464566177829 -0.36319284962808851 0 -0.33468256793477691 -0.37993867994153241 0 -0.32828419651358193 -0.36370913570116742 0 -0.33839464566177829 -0.36319284962808851 0 -0.33225673815553719 -0.35468559542367828 0 -0.34710536986164281 -0.34758165579787009 0 -0.32571390489420571 -0.34742386935466929 0 -0.33979536867864918 -0.34199013916993037 0 -0.34710536986164281 -0.34758165579787009 0 -0.32571390489420571 -0.34742386935466929 0 -0.34710536986164281 -0.34758165579787009 0 -0.33225673815553719 -0.35468559542367828 0 -0.32571390489420571 -0.34742386935466929 0 -0.34710536986164281 -0.34758165579787009 0 -0.33839464566177829 -0.36319284962808851 0 -0.33225673815553719 -0.35468559542367828 0 -0.32571390489420571 -0.34742386935466929 0 -0.30432243992676872 -0.34726608291146849 0 -0.32571390489420571 -0.34742386935466929 0 -0.32245933395017973 -0.35152424837016749 0 -0.30432243992676872 -0.34726608291146849 0 -0.31690568287675702 -0.34041947479709889 0 -0.32571390489420571 -0.34742386935466929 0 -0.30432243992676872 -0.34726608291146849 0 -0.32245933395017973 -0.35152424837016749 0 -0.30432243992676872 -0.34726608291146849 0 -0.31141707899331911 -0.35875942499126512 0 -0.32828419651358193 -0.36370913570116742 0 -0.33225673815553719 -0.35468559542367828 0 -0.32245933395017973 -0.35152424837016749 0 -0.33225673815553719 -0.35468559542367828 0 -0.32571390489420571 -0.34742386935466929 0 -0.32245933395017973 -0.35152424837016749 0 -0.32828419651358193 -0.36370913570116742 0 -0.32245933395017973 -0.35152424837016749 0 -0.31950288496992463 -0.36923728185911098 0 -0.32828419651358193 -0.36370913570116742 0 -0.31950288496992463 -0.36923728185911098 0 -0.33468256793477691 -0.37993867994153241 0 -0.32245933395017973 -0.35152424837016749 0 -0.31950288496992463 -0.36923728185911098 0 -0.32245933395017973 -0.35152424837016749 0 -0.31950288496992463 -0.36923728185911098 0 -0.31141707899331911 -0.35875942499126512 0 -0.31950288496992463 -0.36923728185911098 0 -0.29973870547450249 -0.3670293059081598 0 -0.31654643598967069 -0.38695031534805469 0 -0.31950288496992463 -0.36923728185911098 0 -0.29973870547450249 -0.3670293059081598 0 -0.31141707899331911 -0.35875942499126512 0 -0.29973870547450249 -0.3670293059081598 0 -0.30432243992676872 -0.34726608291146849 0 -0.31141707899331911 -0.35875942499126512 0 -0.29973870547450249 -0.3670293059081598 0 -0.28293097495933178 -0.34710829646826702 0 -0.29973870547450249 -0.3670293059081598 0 -0.28293097495933178 -0.34710829646826702 0 -0.28437724806866832 -0.36194082386397258 0 -0.30432243992676872 -0.34726608291146849 0 -0.28293097495933178 -0.34710829646826702 0 -0.29973870547450249 -0.3670293059081598 0 -0.30432243992676872 -0.34726608291146849 0 -0.28293097495933178 -0.34710829646826702 0 -0.28293097495933178 -0.34710829646826702 0 -0.28437724806866832 -0.36194082386397258 0 -0.27758938369523278 -0.34706889614257169 0 -0.29973870547450249 -0.3670293059081598 0 -0.28437724806866832 -0.36194082386397258 0 -0.28696793062362141 -0.37687916830780172 0 -0.28437724806866832 -0.36194082386397258 0 -0.27292197199808038 -0.37206298491741918 0 -0.28696793062362141 -0.37687916830780172 0 -0.28437724806866832 -0.36194082386397258 0 -0.27292197199808038 -0.37206298491741918 0 -0.27758938369523278 -0.34706889614257169 0 -0.27292197199808038 -0.37206298491741918 0 -0.27758938369523278 -0.34706889614257169 0 -0.27292197199808038 -0.37206298491741918 0 -0.25635584899492952 -0.36479531241394392 0 -0.25562605699951518 -0.38151667329357147 0 -0.25635584899492952 -0.36479531241394392 0 -0.25562605699951518 -0.38151667329357147 0 -0.23850542149377901 -0.37277319836461681 0 -0.27292197199808038 -0.37206298491741918 0 -0.25635584899492952 -0.36479531241394392 0 -0.26725347085765999 -0.35654043001898839 0 -0.2527798654172162 -0.34575467121188358 0 -0.26053307457693781 -0.35177039744945299 0 -0.24563489547392939 -0.35247447718499841 0 -0.25635584899492952 -0.36479531241394392 0 -0.26053307457693781 -0.35177039744945299 0 -0.24563489547392939 -0.35247447718499841 0 -0.26053307457693781 -0.35177039744945299 0 -0.26886707502312163 -0.34700455917155398 0 -0.26725347085765999 -0.35654043001898839 0 -0.25635584899492952 -0.36479531241394392 0 -0.26053307457693781 -0.35177039744945299 0 -0.26725347085765999 -0.35654043001898839 0 -0.2527798654172162 -0.34575467121188358 0 -0.26053307457693781 -0.35177039744945299 0 -0.26165275908460328 -0.33821114604683128 0 -0.26053307457693781 -0.35177039744945299 0 -0.26886707502312163 -0.34700455917155398 0 -0.26165275908460328 -0.33821114604683128 0 -0.27292197199808038 -0.37206298491741918 0 -0.26725347085765999 -0.35654043001898839 0 -0.27758938369523278 -0.34706889614257169 0 -0.26886707502312163 -0.34700455917155398 0 -0.27758938369523278 -0.34706889614257169 0 -0.27071566949151088 -0.34046620651206178 0 -0.26886707502312163 -0.34700455917155398 0 -0.27758938369523278 -0.34706889614257169 0 -0.26886707502312163 -0.34700455917155398 0 -0.26725347085765999 -0.35654043001898839 0 -0.27758938369523278 -0.34706889614257169 0 -0.28293097495933178 -0.34710829646826702 0 -0.27855136653470769 -0.34191745760448838 0 -0.28293097495933178 -0.34710829646826702 0 -0.27758938369523278 -0.34706889614257169 0 -0.27855136653470769 -0.34191745760448838 0 -0.28293097495933178 -0.34710829646826702 0 -0.27758938369523278 -0.34706889614257169 0 -0.27758938369523278 -0.34706889614257169 0 -0.27855136653470769 -0.34191745760448838 0 -0.27758938369523278 -0.34706889614257169 0 -0.27855136653470769 -0.34191745760448838 0 -0.27071566949151088 -0.34046620651206178 0 -0.27855136653470769 -0.34191745760448838 0 -0.28146705205757949 -0.32630389969986778 0 -0.27855136653470769 -0.34191745760448838 0 -0.26691776311989002 -0.32812897359486359 0 -0.28146705205757949 -0.32630389969986778 0 -0.26691776311989002 -0.32812897359486359 0 -0.27071566949151088 -0.34046620651206178 0 -0.26165275908460328 -0.33821114604683128 0 -0.27855136653470769 -0.34191745760448838 0 -0.26691776311989002 -0.32812897359486359 0 -0.27855136653470769 -0.34191745760448838 0 -0.26691776311989002 -0.32812897359486359 0 -0.27071566949151088 -0.34046620651206178 0 -0.26886707502312163 -0.34700455917155398 0 -0.27071566949151088 -0.34046620651206178 0 -0.26165275908460328 -0.33821114604683128 0 -0.26691776311989002 -0.32812897359486359 0 -0.26165275908460328 -0.33821114604683128 0 -0.25862354825437001 -0.32986076705003192 0 -0.26165275908460328 -0.33821114604683128 0 -0.25063194343948531 -0.33006763904785308 0 -0.24712733145617671 -0.33863049128807332 0 -0.26165275908460328 -0.33821114604683128 0 -0.25862354825437001 -0.32986076705003192 0 -0.25063194343948531 -0.33006763904785308 0 -0.2527798654172162 -0.34575467121188358 0 -0.26165275908460328 -0.33821114604683128 0 -0.24712733145617671 -0.33863049128807332 0 -0.25528415970507401 -0.31434048958523719 0 -0.25160910495539901 -0.3181674073992361 0 -0.25495470656815672 -0.32345776102078871 0 -0.25690221598922031 -0.31545436760316881 0 -0.25528415970507401 -0.31434048958523719 0 -0.25525044645500711 -0.31014451684388361 0 -0.25528415970507401 -0.31434048958523719 0 -0.25018784659082388 -0.31305552398611491 0 -0.25160910495539901 -0.3181674073992361 0 -0.25528415970507401 -0.31434048958523719 0 -0.25018784659082388 -0.31305552398611491 0 -0.25525044645500711 -0.31014451684388361 0 -0.25862354825437001 -0.32986076705003192 0 -0.25063194343948531 -0.33006763904785308 0 -0.25495470656815672 -0.32345776102078871 0 -0.25063194343948531 -0.33006763904785308 0 -0.25495470656815672 -0.32345776102078871 0 -0.24645108193138171 -0.32044532164139122 0 -0.25160910495539901 -0.3181674073992361 0 -0.25495470656815672 -0.32345776102078871 0 -0.24645108193138171 -0.32044532164139122 0 -0.26691776311989002 -0.32812897359486359 0 -0.25862354825437001 -0.32986076705003192 0 -0.25495470656815672 -0.32345776102078871 0 -0.26691776311989002 -0.32812897359486359 0 -0.25528415970507401 -0.31434048958523719 0 -0.25495470656815672 -0.32345776102078871 0 -0.26691776311989002 -0.32812897359486359 0 -0.25528415970507401 -0.31434048958523719 0 -0.26691776311989002 -0.32812897359486359 0 -0.25690221598922031 -0.31545436760316881 0 -0.27078339583856209 -0.31729354353578648 0 -0.25690221598922031 -0.31545436760316881 0 -0.27078339583856209 -0.31729354353578648 0 -0.26424721044567018 -0.30589013498578432 0 -0.26691776311989002 -0.32812897359486359 0 -0.25690221598922031 -0.31545436760316881 0 -0.25528415970507401 -0.31434048958523719 0 -0.26691776311989002 -0.32812897359486359 0 -0.27078339583856209 -0.31729354353578648 0 -0.28146705205757949 -0.32630389969986778 0 -0.27078339583856209 -0.31729354353578648 0 -0.28146705205757949 -0.32630389969986778 0 -0.28438273758045091 -0.31069034179524702 0 -0.29397244907265541 -0.32377513474573738 0 -0.28146705205757949 -0.32630389969986778 0 -0.28438273758045091 -0.31069034179524702 0 -0.29397244907265541 -0.32377513474573738 0 -0.30553880375356629 -0.31573383989816922 0 -0.28438273758045091 -0.31069034179524702 0 -0.28146705205757949 -0.32630389969986778 0 -0.28438273758045091 -0.31069034179524702 0 -0.30553880375356629 -0.31573383989816922 0 -0.28438273758045091 -0.31069034179524702 0 -0.27855136653470769 -0.34191745760448838 0 -0.28146705205757949 -0.32630389969986778 0 -0.29070324305667111 -0.3361076891738749 0 -0.30432243992676872 -0.34726608291146849 0 -0.28293097495933178 -0.34710829646826702 0 -0.29070324305667111 -0.3361076891738749 0 -0.29397244907265541 -0.32377513474573738 0 -0.28146705205757949 -0.32630389969986778 0 -0.29070324305667111 -0.3361076891738749 0 -0.28293097495933178 -0.34710829646826702 0 -0.27855136653470769 -0.34191745760448838 0 -0.29070324305667111 -0.3361076891738749 0 -0.30432243992676872 -0.34726608291146849 0 -0.29070324305667111 -0.3361076891738749 0 -0.30897235038299048 -0.33116051973598087 0 -0.29397244907265541 -0.32377513474573738 0 -0.29070324305667111 -0.3361076891738749 0 -0.30897235038299048 -0.33116051973598087 0 -0.31690568287675702 -0.34041947479709889 0 -0.30432243992676872 -0.34726608291146849 0 -0.30897235038299048 -0.33116051973598087 0 -0.29397244907265541 -0.32377513474573738 0 -0.30897235038299048 -0.33116051973598087 0 -0.30553880375356629 -0.31573383989816922 0 -0.31851294718041051 -0.30488473567073249 0 -0.30121170752838311 -0.2995856542569047 0 -0.31224471992999159 -0.28680577537315011 0 -0.30553880375356629 -0.31573383989816922 0 -0.30121170752838311 -0.2995856542569047 0 -0.28438273758045091 -0.31069034179524702 0 -0.31851294718041051 -0.30488473567073249 0 -0.30553880375356629 -0.31573383989816922 0 -0.30121170752838311 -0.2995856542569047 0 -0.31224471992999159 -0.28680577537315011 0 -0.29870848987246151 -0.28745044400216307 0 -0.29138235612638741 -0.273207235808686 0 -0.30121170752838311 -0.2995856542569047 0 -0.31224471992999159 -0.28680577537315011 0 -0.29870848987246151 -0.28745044400216307 0 -0.28788254685341819 -0.29194878880196629 0 -0.27713643449208653 -0.289106522994172 0 -0.29138235612638741 -0.273207235808686 0 -0.30121170752838311 -0.2995856542569047 0 -0.29870848987246151 -0.28745044400216307 0 -0.28788254685341819 -0.29194878880196629 0 -0.28788254685341819 -0.29194878880196629 0 -0.29138235612638741 -0.273207235808686 0 -0.29870848987246151 -0.28745044400216307 0 -0.28788254685341819 -0.29194878880196629 0 -0.29138235612638741 -0.273207235808686 0 -0.28788254685341819 -0.29194878880196629 0 -0.27995998845109238 -0.30016688009176951 0 -0.27713643449208653 -0.289106522994172 0 -0.28788254685341819 -0.29194878880196629 0 -0.28438273758045091 -0.31069034179524702 0 -0.27995998845109238 -0.30016688009176951 0 -0.28788254685341819 -0.29194878880196629 0 -0.28438273758045091 -0.31069034179524702 0 -0.30121170752838311 -0.2995856542569047 0 -0.28788254685341819 -0.29194878880196629 0 -0.28438273758045091 -0.31069034179524702 0 -0.26424721044567018 -0.30589013498578432 0 -0.27713643449208653 -0.289106522994172 0 -0.28438273758045091 -0.31069034179524702 0 -0.26424721044567018 -0.30589013498578432 0 -0.27078339583856209 -0.31729354353578648 0 -0.28438273758045091 -0.31069034179524702 0 -0.26424721044567018 -0.30589013498578432 0 -0.28438273758045091 -0.31069034179524702 0 -0.27995998845109238 -0.30016688009176951 0 -0.26424721044567018 -0.30589013498578432 0 -0.27995998845109238 -0.30016688009176951 0 -0.26424721044567018 -0.30589013498578432 0 -0.27713643449208653 -0.289106522994172 0 -0.26424721044567018 -0.30589013498578432 0 -0.25629685870081231 -0.30399481174304988 0 -0.25525044645500711 -0.31014451684388361 0 -0.26424721044567018 -0.30589013498578432 0 -0.25629685870081231 -0.30399481174304988 0 -0.25690221598922031 -0.31545436760316881 0 -0.26424721044567018 -0.30589013498578432 0 -0.25525044645500711 -0.31014451684388361 0 -0.25690221598922031 -0.31545436760316881 0 -0.26424721044567018 -0.30589013498578432 0 -0.26424721044567018 -0.30589013498578432 0 -0.25629685870081231 -0.30399481174304988 0 -0.2629834147314965 -0.29356899073828341 0 -0.25629685870081231 -0.30399481174304988 0 -0.25202261165186851 -0.29264279131426502 0 -0.24394850283411801 -0.29960231044352581 0 -0.25629685870081231 -0.30399481174304988 0 -0.25525044645500711 -0.31014451684388361 0 -0.24858438729844209 -0.30813177315994572 0 -0.25018784659082388 -0.31305552398611491 0 -0.25525044645500711 -0.31014451684388361 0 -0.24858438729844209 -0.30813177315994572 0 -0.25629685870081231 -0.30399481174304988 0 -0.25202261165186851 -0.29264279131426502 0 -0.2629834147314965 -0.29356899073828341 0 -0.25742061831072638 -0.28203843270396911 0 -0.25202261165186851 -0.29264279131426502 0 -0.2629834147314965 -0.29356899073828341 0 -0.25742061831072638 -0.28203843270396911 0 -0.2629834147314965 -0.29356899073828341 0 -0.27713643449208653 -0.289106522994172 0 -0.25742061831072638 -0.28203843270396911 0 -0.27713643449208653 -0.289106522994172 0 -0.27524676773154277 -0.27431428385186651 0 -0.26424721044567018 -0.30589013498578432 0 -0.2629834147314965 -0.29356899073828341 0 -0.27713643449208653 -0.289106522994172 0 -0.27524676773154277 -0.27431428385186651 0 -0.25796732377402332 -0.26763035487599091 0 -0.27110343040962043 -0.25998899379735718 0 -0.27110343040962043 -0.25998899379735718 0 -0.29138235612638741 -0.273207235808686 0 -0.27524676773154277 -0.27431428385186651 0 -0.27110343040962043 -0.25998899379735718 0 -0.29138235612638741 -0.273207235808686 0 -0.25742061831072638 -0.28203843270396911 0 -0.27524676773154277 -0.27431428385186651 0 -0.25796732377402332 -0.26763035487599091 0 -0.25742061831072638 -0.28203843270396911 0 -0.25796732377402332 -0.26763035487599091 0 -0.2436696497673328 -0.26582093126575779 0 -0.27110343040962043 -0.25998899379735718 0 -0.25218120228073287 -0.24765507659215041 0 -0.27110343040962043 -0.25998899379735718 0 -0.26566085027026393 -0.24523659071420251 0 -0.25218120228073287 -0.24765507659215041 0 -0.25796732377402332 -0.26763035487599091 0 -0.27110343040962043 -0.25998899379735718 0 -0.25218120228073287 -0.24765507659215041 0 -0.25796732377402332 -0.26763035487599091 0 -0.2436696497673328 -0.26582093126575779 0 -0.25218120228073287 -0.24765507659215041 0 -0.27110343040962043 -0.25998899379735718 0 -0.27523815199516338 -0.24593723721268851 0 -0.26566085027026393 -0.24523659071420251 0 -0.27110343040962043 -0.25998899379735718 0 -0.2827280564874855 -0.25085307071156082 0 -0.28670977544150522 -0.2605802480696579 0 -0.27110343040962043 -0.25998899379735718 0 -0.2827280564874855 -0.25085307071156082 0 -0.27523815199516338 -0.24593723721268851 0 -0.29526051877429971 -0.25243959245627218 0 -0.29203644410522939 -0.26970458078900289 0 -0.30018431009293578 -0.25909489468183239 0 -0.27110343040962043 -0.25998899379735718 0 -0.28670977544150522 -0.2605802480696579 0 -0.29138235612638741 -0.273207235808686 0 -0.29526051877429971 -0.25243959245627218 0 -0.28670977544150522 -0.2605802480696579 0 -0.29203644410522939 -0.26970458078900289 0 -0.29526051877429971 -0.25243959245627218 0 -0.29203644410522939 -0.26970458078900289 0 -0.2827280564874855 -0.25085307071156082 0 -0.29526051877429971 -0.25243959245627218 0 -0.28670977544150522 -0.2605802480696579 0 -0.29203644410522939 -0.26970458078900289 0 -0.30018431009293578 -0.25909489468183239 0 -0.27713643449208653 -0.289106522994172 0 -0.27524676773154277 -0.27431428385186651 0 -0.29138235612638741 -0.273207235808686 0 -0.27713643449208653 -0.289106522994172 0 -0.29138235612638741 -0.273207235808686 0 -0.28670977544150522 -0.2605802480696579 0 -0.29138235612638741 -0.273207235808686 0 -0.29203644410522939 -0.26970458078900289 0 -0.29138235612638741 -0.273207235808686 0 -0.29203644410522939 -0.26970458078900289 0 -0.30179557180659428 -0.27172422035808591 0 -0.29138235612638741 -0.273207235808686 0 -0.29203644410522939 -0.26970458078900289 0 -0.31224471992999159 -0.28680577537315011 0 -0.29138235612638741 -0.273207235808686 0 -0.31224471992999159 -0.28680577537315011 0 -0.29138235612638741 -0.273207235808686 0 -0.30179557180659428 -0.27172422035808591 0 -0.29203644410522939 -0.26970458078900289 0 -0.30179557180659428 -0.27172422035808591 0 -0.30018431009293578 -0.25909489468183239 0 -0.30179557180659428 -0.27172422035808591 0 -0.31164362251163419 -0.27458401323054837 0 -0.30018431009293578 -0.25909489468183239 0 -0.31224471992999159 -0.28680577537315011 0 -0.30179557180659428 -0.27172422035808591 0 -0.31164362251163419 -0.27458401323054837 0 -0.31164362251163419 -0.27458401323054837 0 -0.30018431009293578 -0.25909489468183239 0 -0.31305156941253082 -0.26107875653336537 0 -0.31164362251163419 -0.27458401323054837 0 -0.30018431009293578 -0.25909489468183239 0 -0.31305156941253082 -0.26107875653336537 0 -0.307075691851949 -0.25012133063229841 0 -0.30018431009293578 -0.25909489468183239 0 -0.31594769265599698 -0.25376434042267809 0 -0.31305156941253082 -0.26107875653336537 0 -0.307075691851949 -0.25012133063229841 0 -0.29526051877429971 -0.25243959245627218 0 -0.307075691851949 -0.25012133063229841 0 -0.30018431009293578 -0.25909489468183239 0 -0.307075691851949 -0.25012133063229841 0 -0.30018431009293578 -0.25909489468183239 0 -0.29526051877429971 -0.25243959245627218 0 -0.30018431009293578 -0.25909489468183239 0 -0.34190594272395269 -0.4496315599303235 0 -0.32325126658471459 -0.45588280466781639 0 -0.34002108281179599 -0.47072727910160977 0 -0.34190594272395269 -0.4496315599303235 0 -0.32325126658471459 -0.45588280466781639 0 -0.33596891467132761 -0.430492581765546 0 -0.34190594272395269 -0.4496315599303235 0 -0.35297547948862101 -0.43972780922279531 0 -0.33596891467132761 -0.430492581765546 0 -0.32325126658471459 -0.45588280466781639 0 -0.33596891467132761 -0.430492581765546 0 -0.30773696786790111 -0.43973066261695781 0 -0.32325126658471459 -0.45588280466781639 0 -0.3148778572191957 -0.48040784684038479 0 -0.30333223380701679 -0.46612083625140949 0 -0.32325126658471459 -0.45588280466781639 0 -0.3148778572191957 -0.48040784684038479 0 -0.34002108281179599 -0.47072727910160977 0 -0.3148778572191957 -0.48040784684038479 0 -0.34002108281179599 -0.47072727910160977 0 -0.3148778572191957 -0.48040784684038479 0 -0.32772569726156492 -0.48764342010196748 0 -0.34002108281179599 -0.47072727910160977 0 -0.32772569726156492 -0.48764342010196748 0 -0.33141235347140863 -0.5 0 -0.30917357010972779 -0.50000000000000067 0 -0.3148778572191957 -0.48040784684038479 0 -0.32772569726156492 -0.48764342010196748 0 -0.30917357010972779 -0.50000000000000067 0 -0.33141235347140863 -0.5 0 -0.34314362269569632 -0.48708197456784269 0 -0.35365113683308957 -0.49999999999999928 0 -0.32772569726156492 -0.48764342010196748 0 -0.33141235347140863 -0.5 0 -0.34314362269569632 -0.48708197456784269 0 -0.32772569726156492 -0.48764342010196748 0 -0.34314362269569632 -0.48708197456784269 0 -0.34002108281179599 -0.47072727910160977 0 -0.34314362269569632 -0.48708197456784269 0 -0.34002108281179599 -0.47072727910160977 0 -0.35940772261874282 -0.48052335568141691 0 -0.34002108281179599 -0.47072727910160977 0 -0.35940772261874282 -0.48052335568141691 0 -0.36516430840439629 -0.46104671136283459 0 -0.34314362269569632 -0.48708197456784269 0 -0.35365113683308957 -0.49999999999999928 0 -0.35940772261874282 -0.48052335568141691 0 -0.35365113683308957 -0.49999999999999928 0 -0.35939741292709843 -0.49624062312229639 0 -0.35940772261874282 -0.48052335568141691 0 -0.35365113683308957 -0.49999999999999928 0 -0.35940772261874282 -0.48052335568141691 0 -0.35939741292709843 -0.49624062312229639 0 -0.35940772261874282 -0.48052335568141691 0 -0.36644604191297242 -0.47704000191094131 0 -0.38084732808792798 -0.5 0 -0.35365113683308957 -0.49999999999999928 0 -0.35939741292709843 -0.49624062312229639 0 -0.38084732808792798 -0.5 0 -0.35939741292709843 -0.49624062312229639 0 -0.37157748043598571 -0.48981787593663523 0 -0.35939741292709843 -0.49624062312229639 0 -0.36644604191297242 -0.47704000191094131 0 -0.35939741292709843 -0.49624062312229639 0 -0.37157748043598571 -0.48981787593663523 0 -0.36644604191297242 -0.47704000191094131 0 -0.35940772261874282 -0.48052335568141691 0 -0.36516430840439629 -0.46104671136283459 0 -0.35940772261874282 -0.48052335568141691 0 -0.36644604191297242 -0.47704000191094131 0 -0.36516430840439629 -0.46104671136283459 0 -0.37824661550928201 -0.48343057916569632 0 -0.37157748043598571 -0.48981787593663523 0 -0.36644604191297242 -0.47704000191094131 0 -0.37977069260572971 -0.47103743603700798 0 -0.37824661550928201 -0.48343057916569632 0 -0.36644604191297242 -0.47704000191094131 0 -0.36644604191297242 -0.47704000191094131 0 -0.37349467089884719 -0.45783938069958652 0 -0.36644604191297242 -0.47704000191094131 0 -0.37349467089884719 -0.45783938069958652 0 -0.36516430840439629 -0.46104671136283459 0 -0.37977069260572971 -0.47103743603700798 0 -0.36644604191297242 -0.47704000191094131 0 -0.37349467089884719 -0.45783938069958652 0 -0.37349467089884719 -0.45783938069958652 0 -0.36516430840439629 -0.46104671136283459 0 -0.37349467089884719 -0.45783938069958652 0 -0.36516430840439629 -0.46104671136283459 0 -0.36831208868892468 -0.45039661436478418 0 -0.36516430840439629 -0.46104671136283459 0 -0.35492436133373029 -0.45236997165903309 0 -0.36831208868892468 -0.45039661436478418 0 -0.36516430840439629 -0.46104671136283459 0 -0.36831208868892468 -0.45039661436478418 0 -0.34002108281179599 -0.47072727910160977 0 -0.36516430840439629 -0.46104671136283459 0 -0.34002108281179599 -0.47072727910160977 0 -0.36516430840439629 -0.46104671136283459 0 -0.35492436133373029 -0.45236997165903309 0 -0.34190594272395269 -0.4496315599303235 0 -0.34002108281179599 -0.47072727910160977 0 -0.35492436133373029 -0.45236997165903309 0 -0.34190594272395269 -0.4496315599303235 0 -0.35492436133373029 -0.45236997165903309 0 -0.35297547948862101 -0.43972780922279531 0 -0.35492436133373029 -0.45236997165903309 0 -0.35297547948862101 -0.43972780922279531 0 -0.36075856035828441 -0.44458982922376911 0 -0.36075856035828441 -0.44458982922376911 0 -0.36831208868892468 -0.45039661436478418 0 -0.36627748403022381 -0.43636339047411071 0 -0.35297547948862101 -0.43972780922279531 0 -0.36075856035828441 -0.44458982922376911 0 -0.36627748403022381 -0.43636339047411071 0 -0.37969946268683807 -0.44093739067353832 0 -0.37349467089884719 -0.45783938069958652 0 -0.36831208868892468 -0.45039661436478418 0 -0.35492436133373029 -0.45236997165903309 0 -0.36075856035828441 -0.44458982922376911 0 -0.36831208868892468 -0.45039661436478418 0 -0.37969946268683807 -0.44093739067353832 0 -0.36831208868892468 -0.45039661436478418 0 -0.36627748403022381 -0.43636339047411071 0 -0.37969946268683807 -0.44093739067353832 0 -0.36627748403022381 -0.43636339047411071 0 -0.37222584211108473 -0.42374855568549852 0 -0.36627748403022381 -0.43636339047411071 0 -0.37222584211108473 -0.42374855568549852 0 -0.35767709638193401 -0.42523106530001958 0 -0.37222584211108473 -0.42374855568549852 0 -0.36842202000709551 -0.4069503877282013 0 -0.35767709638193401 -0.42523106530001958 0 -0.36842202000709551 -0.4069503877282013 0 -0.34940092819215179 -0.41260701060950838 0 -0.35767709638193401 -0.42523106530001958 0 -0.34940092819215179 -0.41260701060950838 0 -0.3541364755825428 -0.39833275487717362 0 -0.33488262501913668 -0.40868289812702829 0 -0.34940092819215179 -0.41260701060950838 0 -0.35767709638193401 -0.42523106530001958 0 -0.33596891467132761 -0.430492581765546 0 -0.35297547948862101 -0.43972780922279531 0 -0.35767709638193401 -0.42523106530001958 0 -0.33596891467132761 -0.430492581765546 0 -0.35297547948862101 -0.43972780922279531 0 -0.36627748403022381 -0.43636339047411071 0 -0.35767709638193401 -0.42523106530001958 0 -0.36842202000709551 -0.4069503877282013 0 -0.37121257174217581 -0.38460265902015978 0 -0.3541364755825428 -0.39833275487717362 0 -0.36842202000709551 -0.4069503877282013 0 -0.34940092819215179 -0.41260701060950838 0 -0.3541364755825428 -0.39833275487717362 0 -0.35170447191050602 -0.36946930578367509 0 -0.3541364755825428 -0.39833275487717362 0 -0.35170447191050602 -0.36946930578367509 0 -0.37121257174217581 -0.38460265902015978 0 -0.3541364755825428 -0.39833275487717362 0 -0.35170447191050602 -0.36946930578367509 0 -0.3541364755825428 -0.39833275487717362 0 -0.33468256793477691 -0.37993867994153241 0 -0.3541364755825428 -0.39833275487717362 0 -0.33468256793477691 -0.37993867994153241 0 -0.33488262501913668 -0.40868289812702829 0 -0.33468256793477691 -0.37993867994153241 0 -0.31654643598967069 -0.38695031534805469 0 -0.33488262501913668 -0.40868289812702829 0 -0.31654643598967069 -0.38695031534805469 0 -0.33488262501913668 -0.40868289812702829 0 -0.31654643598967069 -0.38695031534805469 0 -0.31214170192878521 -0.41334048898250619 0 -0.31654643598967069 -0.38695031534805469 0 -0.33488262501913668 -0.40868289812702829 0 -0.31214170192878521 -0.41334048898250619 0 -0.31950288496992463 -0.36923728185911098 0 -0.33468256793477691 -0.37993867994153241 0 -0.31654643598967069 -0.38695031534805469 0 -0.31950288496992463 -0.36923728185911098 0 -0.31654643598967069 -0.38695031534805469 0 -0.34940092819215179 -0.41260701060950838 0 -0.33596891467132761 -0.430492581765546 0 -0.33488262501913668 -0.40868289812702829 0 -0.33596891467132761 -0.430492581765546 0 -0.33488262501913668 -0.40868289812702829 0 -0.31214170192878521 -0.41334048898250619 0 -0.33596891467132761 -0.430492581765546 0 -0.31214170192878521 -0.41334048898250619 0 -0.30773696786790111 -0.43973066261695781 0 -0.31214170192878521 -0.41334048898250619 0 -0.29030182915789932 -0.41430157553180952 0 -0.30773696786790111 -0.43973066261695781 0 -0.31214170192878521 -0.41334048898250619 0 -0.30773696786790111 -0.43973066261695781 0 -0.31214170192878521 -0.41334048898250619 0 -0.29030182915789932 -0.41430157553180952 0 -0.30334702715625711 -0.40119358893998791 0 -0.29030182915789932 -0.41430157553180952 0 -0.28021400053524298 -0.43903362819494302 0 -0.30773696786790111 -0.43973066261695781 0 -0.29973870547450249 -0.3670293059081598 0 -0.31654643598967069 -0.38695031534805469 0 -0.29439814154867328 -0.39018197589758152 0 -0.29973870547450249 -0.3670293059081598 0 -0.31654643598967069 -0.38695031534805469 0 -0.31654643598967069 -0.38695031534805469 0 -0.30334702715625711 -0.40119358893998791 0 -0.29439814154867328 -0.39018197589758152 0 -0.31654643598967069 -0.38695031534805469 0 -0.31214170192878521 -0.41334048898250619 0 -0.30334702715625711 -0.40119358893998791 0 -0.29030182915789932 -0.41430157553180952 0 -0.30334702715625711 -0.40119358893998791 0 -0.29439814154867328 -0.39018197589758152 0 -0.29030182915789932 -0.41430157553180952 0 -0.29439814154867328 -0.39018197589758152 0 -0.26825456030092998 -0.39705707369226712 0 -0.29973870547450249 -0.3670293059081598 0 -0.29439814154867328 -0.39018197589758152 0 -0.28696793062362141 -0.37687916830780172 0 -0.29439814154867328 -0.39018197589758152 0 -0.28696793062362141 -0.37687916830780172 0 -0.26825456030092998 -0.39705707369226712 0 -0.27292197199808038 -0.37206298491741918 0 -0.26825456030092998 -0.39705707369226712 0 -0.27292197199808038 -0.37206298491741918 0 -0.28696793062362141 -0.37687916830780172 0 -0.26825456030092998 -0.39705707369226712 0 -0.26825456030092998 -0.39705707369226712 0 -0.25562605699951518 -0.38151667329357147 0 -0.24209248220985749 -0.4008947970796109 0 -0.27292197199808038 -0.37206298491741918 0 -0.26825456030092998 -0.39705707369226712 0 -0.25562605699951518 -0.38151667329357147 0 -0.26358714860377958 -0.42205116246711499 0 -0.24533987795080009 -0.43245027066675962 0 -0.24209248220985749 -0.4008947970796109 0 -0.26358714860377958 -0.42205116246711499 0 -0.25891973690662912 -0.44704525124196298 0 -0.28021400053524298 -0.43903362819494302 0 -0.29030182915789932 -0.41430157553180952 0 -0.26358714860377958 -0.42205116246711499 0 -0.28021400053524298 -0.43903362819494302 0 -0.29030182915789932 -0.41430157553180952 0 -0.26825456030092998 -0.39705707369226712 0 -0.26358714860377958 -0.42205116246711499 0 -0.26825456030092998 -0.39705707369226712 0 -0.26358714860377958 -0.42205116246711499 0 -0.26825456030092998 -0.39705707369226712 0 -0.26358714860377958 -0.42205116246711499 0 -0.24209248220985749 -0.4008947970796109 0 -0.26358714860377958 -0.42205116246711499 0 -0.25891973690662912 -0.44704525124196298 0 -0.24533987795080009 -0.43245027066675962 0 -0.26358714860377958 -0.42205116246711499 0 -0.25891973690662912 -0.44704525124196298 0 -0.25891973690662912 -0.44704525124196298 0 -0.25425232520947871 -0.47203934001681092 0 -0.2402021719740291 -0.45648276358474638 0 -0.25891973690662912 -0.44704525124196298 0 -0.25425232520947871 -0.47203934001681092 0 -0.25891973690662912 -0.44704525124196298 0 -0.2665641931969861 -0.46676477845497039 0 -0.25425232520947871 -0.47203934001681092 0 -0.25891973690662912 -0.44704525124196298 0 -0.2665641931969861 -0.46676477845497039 0 -0.27505224488941371 -0.45530053328513448 0 -0.2665641931969861 -0.46676477845497039 0 -0.27505224488941371 -0.45530053328513448 0 -0.27837770533245992 -0.46733041494830979 0 -0.27505224488941371 -0.45530053328513448 0 -0.27837770533245992 -0.46733041494830979 0 -0.2889297124655309 -0.45678523365857521 0 -0.25891973690662912 -0.44704525124196298 0 -0.27505224488941371 -0.45530053328513448 0 -0.28021400053524298 -0.43903362819494302 0 -0.27505224488941371 -0.45530053328513448 0 -0.28021400053524298 -0.43903362819494302 0 -0.2889297124655309 -0.45678523365857521 0 -0.28021400053524298 -0.43903362819494302 0 -0.2889297124655309 -0.45678523365857521 0 -0.30773696786790111 -0.43973066261695781 0 -0.27837770533245992 -0.46733041494830979 0 -0.2889297124655309 -0.45678523365857521 0 -0.28886512236115153 -0.47319532665469649 0 -0.2889297124655309 -0.45678523365857521 0 -0.30333223380701679 -0.46612083625140949 0 -0.28886512236115153 -0.47319532665469649 0 -0.2889297124655309 -0.45678523365857521 0 -0.30333223380701679 -0.46612083625140949 0 -0.30773696786790111 -0.43973066261695781 0 -0.32325126658471459 -0.45588280466781639 0 -0.30333223380701679 -0.46612083625140949 0 -0.30773696786790111 -0.43973066261695781 0 -0.30333223380701679 -0.46612083625140949 0 -0.30773696786790111 -0.43973066261695781 0 -0.30917357010972779 -0.50000000000000067 0 -0.28499289578986708 -0.49006938405136918 0 -0.30917357010972779 -0.50000000000000067 0 -0.29981410949455589 -0.48289083770438002 0 -0.28499289578986708 -0.49006938405136918 0 -0.3148778572191957 -0.48040784684038479 0 -0.30917357010972779 -0.50000000000000067 0 -0.29981410949455589 -0.48289083770438002 0 -0.30333223380701679 -0.46612083625140949 0 -0.29981410949455589 -0.48289083770438002 0 -0.28886512236115153 -0.47319532665469649 0 -0.3148778572191957 -0.48040784684038479 0 -0.30333223380701679 -0.46612083625140949 0 -0.29981410949455589 -0.48289083770438002 0 -0.28886512236115153 -0.47319532665469649 0 -0.28499289578986708 -0.49006938405136918 0 -0.27548820126725843 -0.47643189338722458 0 -0.29981410949455589 -0.48289083770438002 0 -0.28886512236115153 -0.47319532665469649 0 -0.28499289578986708 -0.49006938405136918 0 -0.30917357010972779 -0.50000000000000067 0 -0.28499289578986708 -0.49006938405136918 0 -0.28112254055999719 -0.5 0 -0.28112254055999719 -0.5 0 -0.26794975686176631 -0.4922743655074065 0 -0.25307151101026648 -0.5 0 -0.28499289578986708 -0.49006938405136918 0 -0.26794975686176631 -0.4922743655074065 0 -0.26081222147000671 -0.48013876810273709 0 -0.28499289578986708 -0.49006938405136918 0 -0.26081222147000671 -0.48013876810273709 0 -0.28499289578986708 -0.49006938405136918 0 -0.28112254055999719 -0.5 0 -0.26794975686176631 -0.4922743655074065 0 -0.28499289578986708 -0.49006938405136918 0 -0.27548820126725843 -0.47643189338722458 0 -0.26081222147000671 -0.48013876810273709 0 -0.2665641931969861 -0.46676477845497039 0 -0.27837770533245992 -0.46733041494830979 0 -0.27548820126725843 -0.47643189338722458 0 -0.27837770533245992 -0.46733041494830979 0 -0.28886512236115153 -0.47319532665469649 0 -0.27548820126725843 -0.47643189338722458 0 -0.2665641931969861 -0.46676477845497039 0 -0.27548820126725843 -0.47643189338722458 0 -0.26081222147000671 -0.48013876810273709 0 -0.2665641931969861 -0.46676477845497039 0 -0.26081222147000671 -0.48013876810273709 0 -0.25425232520947871 -0.47203934001681092 0 -0.26081222147000671 -0.48013876810273709 0 -0.25425232520947871 -0.47203934001681092 0 -0.2456868940065689 -0.48568287460708431 0 -0.26794975686176631 -0.4922743655074065 0 -0.2568800958371521 -0.48952400205430702 0 -0.25307151101026648 -0.5 0 -0.26794975686176631 -0.4922743655074065 0 -0.26081222147000671 -0.48013876810273709 0 -0.2568800958371521 -0.48952400205430702 0 -0.2568800958371521 -0.48952400205430702 0 -0.25307151101026648 -0.5 0 -0.2456868940065689 -0.48568287460708431 0 -0.26081222147000671 -0.48013876810273709 0 -0.2568800958371521 -0.48952400205430702 0 -0.2456868940065689 -0.48568287460708431 0 -0.25307151101026648 -0.5 0 -0.2456868940065689 -0.48568287460708431 0 -0.22502048146053591 -0.5 0 -0.25425232520947871 -0.47203934001681092 0 -0.2456868940065689 -0.48568287460708431 0 -0.24136008721403271 -0.47211825685644732 0 -0.2456868940065689 -0.48568287460708431 0 -0.24136008721403271 -0.47211825685644732 0 -0.2266080646054501 -0.47294946119818881 0 -0.2266080646054501 -0.47294946119818881 0 -0.22502048146053591 -0.5 0 -0.2098256249934283 -0.48405703731831962 0 -0.2456868940065689 -0.48568287460708431 0 -0.2266080646054501 -0.47294946119818881 0 -0.22502048146053591 -0.5 0 -0.2402021719740291 -0.45648276358474638 0 -0.22668793987535801 -0.43858277085085978 0 -0.24533987795080009 -0.43245027066675962 0 -0.25891973690662912 -0.44704525124196298 0 -0.2402021719740291 -0.45648276358474638 0 -0.24533987795080009 -0.43245027066675962 0 -0.25425232520947871 -0.47203934001681092 0 -0.24136008721403271 -0.47211825685644732 0 -0.2402021719740291 -0.45648276358474638 0 -0.24136008721403271 -0.47211825685644732 0 -0.2266080646054501 -0.47294946119818881 0 -0.2402021719740291 -0.45648276358474638 0 -0.2266080646054501 -0.47294946119818881 0 -0.2402021719740291 -0.45648276358474638 0 -0.21005852446678769 -0.45085372008420221 0 -0.2402021719740291 -0.45648276358474638 0 -0.22668793987535801 -0.43858277085085978 0 -0.21005852446678769 -0.45085372008420221 0 -0.22668793987535801 -0.43858277085085978 0 -0.21005852446678769 -0.45085372008420221 0 -0.21038839911631099 -0.43042131210923568 0 -0.2266080646054501 -0.47294946119818881 0 -0.21005852446678769 -0.45085372008420221 0 -0.20983730427944719 -0.47011220399306269 0 -0.21005852446678769 -0.45085372008420221 0 -0.20983730427944719 -0.47011220399306269 0 -0.19285700305212289 -0.47258859737154019 0 -0.21005852446678769 -0.45085372008420221 0 -0.19285700305212289 -0.47258859737154019 0 -0.18660091951987831 -0.44549526894099439 0 -0.21005852446678769 -0.45085372008420221 0 -0.18660091951987831 -0.44549526894099439 0 -0.21038839911631099 -0.43042131210923568 0 -0.22502048146053591 -0.5 0 -0.2098256249934283 -0.48405703731831962 0 -0.1969694519108052 -0.5 0 -0.20983730427944719 -0.47011220399306269 0 -0.2098256249934283 -0.48405703731831962 0 -0.19285700305212289 -0.47258859737154019 0 -0.2266080646054501 -0.47294946119818881 0 -0.20983730427944719 -0.47011220399306269 0 -0.2098256249934283 -0.48405703731831962 0 -0.2098256249934283 -0.48405703731831962 0 -0.19285700305212289 -0.47258859737154019 0 -0.1969694519108052 -0.5 0 -0.19285700305212289 -0.47258859737154019 0 -0.1969694519108052 -0.5 0 -0.16891842236107479 -0.49999999999999251 0 -0.16891842236107479 -0.49999999999999251 0 -0.16513895760653641 -0.47267336972092222 0 -0.16891842236107479 -0.49999999999999251 0 -0.16513895760653641 -0.47267336972092222 0 -0.14782272540013591 -0.48288307219666848 0 -0.19285700305212289 -0.47258859737154019 0 -0.16891842236107479 -0.49999999999999251 0 -0.16513895760653641 -0.47267336972092222 0 -0.19285700305212289 -0.47258859737154019 0 -0.16513895760653641 -0.47267336972092222 0 -0.18660091951987831 -0.44549526894099439 0 -0.18660091951987831 -0.44549526894099439 0 -0.16135949285199691 -0.44534673944185188 0 -0.17431315279231391 -0.42697612250539291 0 -0.16513895760653641 -0.47267336972092222 0 -0.16135949285199691 -0.44534673944185188 0 -0.16513895760653641 -0.47267336972092222 0 -0.18660091951987831 -0.44549526894099439 0 -0.16135949285199691 -0.44534673944185188 0 -0.16513895760653641 -0.47267336972092222 0 -0.16135949285199691 -0.44534673944185188 0 -0.13577391542103959 -0.45987739019960588 0 -0.16135949285199691 -0.44534673944185188 0 -0.13577391542103959 -0.45987739019960588 0 -0.13803620093773211 -0.43137629061263782 0 -0.13577391542103959 -0.45987739019960588 0 -0.13803620093773211 -0.43137629061263782 0 -0.11872382667374071 -0.43964584133713308 0 -0.13577391542103959 -0.45987739019960588 0 -0.12896729501594389 -0.48186460106281431 0 -0.14782272540013591 -0.48288307219666848 0 -0.13577391542103959 -0.45987739019960588 0 -0.12896729501594389 -0.48186460106281431 0 -0.1109877335600462 -0.47305378788334362 0 -0.12896729501594389 -0.48186460106281431 0 -0.14031503659608491 -0.5 0 -0.11171165083109511 -0.5 0 -0.12896729501594389 -0.48186460106281431 0 -0.14031503659608491 -0.5 0 -0.14782272540013591 -0.48288307219666848 0 -0.16891842236107479 -0.49999999999999251 0 -0.14031503659608491 -0.5 0 -0.14782272540013591 -0.48288307219666848 0 -0.16513895760653641 -0.47267336972092222 0 -0.13577391542103959 -0.45987739019960588 0 -0.14782272540013591 -0.48288307219666848 0 -0.153800563342918 -0.39069347888371148 0 -0.12957281029114509 -0.40914772216104478 0 -0.1575800280974575 -0.41802010916278171 0 -0.153800563342918 -0.39069347888371148 0 -0.1575800280974575 -0.41802010916278171 0 -0.153800563342918 -0.39069347888371148 0 -0.13111919527464341 -0.38402542691014502 0 -0.15002109858837859 -0.3633668486046413 0 -0.153800563342918 -0.39069347888371148 0 -0.15002109858837859 -0.3633668486046413 0 -0.153800563342918 -0.39069347888371148 0 -0.13111919527464341 -0.38402542691014502 0 -0.12957281029114509 -0.40914772216104478 0 -0.12957281029114509 -0.40914772216104478 0 -0.13803620093773211 -0.43137629061263782 0 -0.11349617631517731 -0.42159282191060488 0 -0.16135949285199691 -0.44534673944185188 0 -0.13803620093773211 -0.43137629061263782 0 -0.1575800280974575 -0.41802010916278171 0 -0.12957281029114509 -0.40914772216104478 0 -0.13803620093773211 -0.43137629061263782 0 -0.1575800280974575 -0.41802010916278171 0 -0.1575800280974575 -0.41802010916278171 0 -0.17431315279231391 -0.42697612250539291 0 -0.1740752362591188 -0.39979429122124599 0 -0.16135949285199691 -0.44534673944185188 0 -0.1575800280974575 -0.41802010916278171 0 -0.16135949285199691 -0.44534673944185188 0 -0.1575800280974575 -0.41802010916278171 0 -0.17431315279231391 -0.42697612250539291 0 -0.18660091951987831 -0.44549526894099439 0 -0.17431315279231391 -0.42697612250539291 0 -0.19212796452148989 -0.41786565756269212 0 -0.17431315279231391 -0.42697612250539291 0 -0.1740752362591188 -0.39979429122124599 0 -0.19212796452148989 -0.41786565756269212 0 -0.1740752362591188 -0.39979429122124599 0 -0.1936896789342773 -0.39219667620899762 0 -0.19212796452148989 -0.41786565756269212 0 -0.153800563342918 -0.39069347888371148 0 -0.1575800280974575 -0.41802010916278171 0 -0.1740752362591188 -0.39979429122124599 0 -0.153800563342918 -0.39069347888371148 0 -0.1652913631480562 -0.37413467769965919 0 -0.15002109858837859 -0.3633668486046413 0 -0.153800563342918 -0.39069347888371148 0 -0.1740752362591188 -0.39979429122124599 0 -0.1652913631480562 -0.37413467769965919 0 -0.1740752362591188 -0.39979429122124599 0 -0.18328979851033331 -0.376650521782189 0 -0.1652913631480562 -0.37413467769965919 0 -0.1740752362591188 -0.39979429122124599 0 -0.18328979851033331 -0.376650521782189 0 -0.1936896789342773 -0.39219667620899762 0 -0.18328979851033331 -0.376650521782189 0 -0.1936896789342773 -0.39219667620899762 0 -0.20069446976265901 -0.37376867766630772 0 -0.1936896789342773 -0.39219667620899762 0 -0.21067648538916861 -0.38714916020921392 0 -0.20069446976265901 -0.37376867766630772 0 -0.1936896789342773 -0.39219667620899762 0 -0.2147748150311547 -0.40538734995193809 0 -0.19212796452148989 -0.41786565756269212 0 -0.1936896789342773 -0.39219667620899762 0 -0.2147748150311547 -0.40538734995193809 0 -0.21067648538916861 -0.38714916020921392 0 -0.2147748150311547 -0.40538734995193809 0 -0.21067648538916861 -0.38714916020921392 0 -0.22577663701451159 -0.38738102689899118 0 -0.21067648538916861 -0.38714916020921392 0 -0.22577663701451159 -0.38738102689899118 0 -0.21880762012783239 -0.37163433357834791 0 -0.21067648538916861 -0.38714916020921392 0 -0.21880762012783239 -0.37163433357834791 0 -0.20069446976265901 -0.37376867766630772 0 -0.18660091951987831 -0.44549526894099439 0 -0.19212796452148989 -0.41786565756269212 0 -0.21038839911631099 -0.43042131210923568 0 -0.2147748150311547 -0.40538734995193809 0 -0.21038839911631099 -0.43042131210923568 0 -0.22745072586886189 -0.42270578780935503 0 -0.2147748150311547 -0.40538734995193809 0 -0.19212796452148989 -0.41786565756269212 0 -0.21038839911631099 -0.43042131210923568 0 -0.22745072586886189 -0.42270578780935503 0 -0.24533987795080009 -0.43245027066675962 0 -0.24209248220985749 -0.4008947970796109 0 -0.22668793987535801 -0.43858277085085978 0 -0.22745072586886189 -0.42270578780935503 0 -0.24533987795080009 -0.43245027066675962 0 -0.22668793987535801 -0.43858277085085978 0 -0.21038839911631099 -0.43042131210923568 0 -0.22745072586886189 -0.42270578780935503 0 -0.2147748150311547 -0.40538734995193809 0 -0.22745072586886189 -0.42270578780935503 0 -0.24209248220985749 -0.4008947970796109 0 -0.22577663701451159 -0.38738102689899118 0 -0.23850542149377901 -0.37277319836461681 0 -0.21880762012783239 -0.37163433357834791 0 -0.2147748150311547 -0.40538734995193809 0 -0.22577663701451159 -0.38738102689899118 0 -0.24209248220985749 -0.4008947970796109 0 -0.22577663701451159 -0.38738102689899118 0 -0.24209248220985749 -0.4008947970796109 0 -0.23850542149377901 -0.37277319836461681 0 -0.25562605699951518 -0.38151667329357147 0 -0.24209248220985749 -0.4008947970796109 0 -0.23850542149377901 -0.37277319836461681 0 -0.25635584899492952 -0.36479531241394392 0 -0.23850542149377901 -0.37277319836461681 0 -0.24563489547392939 -0.35247447718499841 0 -0.23850542149377901 -0.37277319836461681 0 -0.21880762012783239 -0.37163433357834791 0 -0.22642208968097979 -0.35247498945294531 0 -0.23850542149377901 -0.37277319836461681 0 -0.22642208968097979 -0.35247498945294531 0 -0.24563489547392939 -0.35247447718499841 0 -0.22642208968097979 -0.35247498945294531 0 -0.24563489547392939 -0.35247447718499841 0 -0.237720636697487 -0.34112228011407308 0 -0.24563489547392939 -0.35247447718499841 0 -0.24712733145617671 -0.33863049128807332 0 -0.237720636697487 -0.34112228011407308 0 -0.2527798654172162 -0.34575467121188358 0 -0.24563489547392939 -0.35247447718499841 0 -0.24712733145617671 -0.33863049128807332 0 -0.25063194343948531 -0.33006763904785308 0 -0.24712733145617671 -0.33863049128807332 0 -0.24094362287457169 -0.3302347487648436 0 -0.24094362287457169 -0.3302347487648436 0 -0.237720636697487 -0.34112228011407308 0 -0.22854878252149971 -0.33140299421641528 0 -0.24712733145617671 -0.33863049128807332 0 -0.24094362287457169 -0.3302347487648436 0 -0.237720636697487 -0.34112228011407308 0 -0.24645108193138171 -0.32044532164139122 0 -0.23624082636370261 -0.31725897574752537 0 -0.24445686766025709 -0.31231585374876702 0 -0.25018784659082388 -0.31305552398611491 0 -0.24645108193138171 -0.32044532164139122 0 -0.24445686766025709 -0.31231585374876702 0 -0.25018784659082388 -0.31305552398611491 0 -0.25160910495539901 -0.3181674073992361 0 -0.24645108193138171 -0.32044532164139122 0 -0.25063194343948531 -0.33006763904785308 0 -0.24094362287457169 -0.3302347487648436 0 -0.24645108193138171 -0.32044532164139122 0 -0.24094362287457169 -0.3302347487648436 0 -0.24645108193138171 -0.32044532164139122 0 -0.23624082636370261 -0.31725897574752537 0 -0.24094362287457169 -0.3302347487648436 0 -0.23624082636370261 -0.31725897574752537 0 -0.22854878252149971 -0.33140299421641528 0 -0.23624082636370261 -0.31725897574752537 0 -0.22854878252149971 -0.33140299421641528 0 -0.2181426659633961 -0.31054690636838411 0 -0.22854878252149971 -0.33140299421641528 0 -0.2118228535488608 -0.33678006485072032 0 -0.2181426659633961 -0.31054690636838411 0 -0.22642208968097979 -0.35247498945294531 0 -0.237720636697487 -0.34112228011407308 0 -0.22854878252149971 -0.33140299421641528 0 -0.22642208968097979 -0.35247498945294531 0 -0.22854878252149971 -0.33140299421641528 0 -0.2118228535488608 -0.33678006485072032 0 -0.2118228535488608 -0.33678006485072032 0 -0.19233682909267419 -0.32149150229324241 0 -0.2181426659633961 -0.31054690636838411 0 -0.19233682909267419 -0.32149150229324241 0 -0.2181426659633961 -0.31054690636838411 0 -0.19233682909267419 -0.32149150229324241 0 -0.19623572110868381 -0.34323737091042172 0 -0.17767996070576081 -0.34481068671233878 0 -0.2118228535488608 -0.33678006485072032 0 -0.19233682909267419 -0.32149150229324241 0 -0.19623572110868381 -0.34323737091042172 0 -0.19623572110868381 -0.34323737091042172 0 -0.19022216786557261 -0.35908851427606742 0 -0.2082729159955477 -0.35632897581317408 0 -0.19623572110868381 -0.34323737091042172 0 -0.19022216786557261 -0.35908851427606742 0 -0.17767996070576081 -0.34481068671233878 0 -0.18328979851033331 -0.376650521782189 0 -0.19022216786557261 -0.35908851427606742 0 -0.20069446976265901 -0.37376867766630772 0 -0.19022216786557261 -0.35908851427606742 0 -0.20069446976265901 -0.37376867766630772 0 -0.2082729159955477 -0.35632897581317408 0 -0.21880762012783239 -0.37163433357834791 0 -0.20069446976265901 -0.37376867766630772 0 -0.2082729159955477 -0.35632897581317408 0 -0.21880762012783239 -0.37163433357834791 0 -0.22642208968097979 -0.35247498945294531 0 -0.2082729159955477 -0.35632897581317408 0 -0.2118228535488608 -0.33678006485072032 0 -0.19623572110868381 -0.34323737091042172 0 -0.2082729159955477 -0.35632897581317408 0 -0.22642208968097979 -0.35247498945294531 0 -0.2118228535488608 -0.33678006485072032 0 -0.2082729159955477 -0.35632897581317408 0 -0.23091907112554011 -0.25550322216676979 0 -0.2436696497673328 -0.26582093126575779 0 -0.22617588079031109 -0.27064603318513142 0 -0.23091907112554011 -0.25550322216676979 0 -0.2174722169472417 -0.26129665494036408 0 -0.2179523242608912 -0.24845533205632031 0 -0.23091907112554011 -0.25550322216676979 0 -0.22617588079031109 -0.27064603318513142 0 -0.2174722169472417 -0.26129665494036408 0 -0.23091907112554011 -0.25550322216676979 0 -0.2436696497673328 -0.26582093126575779 0 -0.25218120228073287 -0.24765507659215041 0 -0.2436696497673328 -0.26582093126575779 0 -0.22617588079031109 -0.27064603318513142 0 -0.23946366368218941 -0.28400941094249671 0 -0.25742061831072638 -0.28203843270396911 0 -0.2436696497673328 -0.26582093126575779 0 -0.23946366368218941 -0.28400941094249671 0 -0.22617588079031109 -0.27064603318513142 0 -0.2209795564606872 -0.28851948197813021 0 -0.23946366368218941 -0.28400941094249671 0 -0.2209795564606872 -0.28851948197813021 0 -0.23063359723509769 -0.29566952743313413 0 -0.23946366368218941 -0.28400941094249671 0 -0.25742061831072638 -0.28203843270396911 0 -0.25202261165186851 -0.29264279131426502 0 -0.23946366368218941 -0.28400941094249671 0 -0.25202261165186851 -0.29264279131426502 0 -0.23946366368218941 -0.28400941094249671 0 -0.24394850283411801 -0.29960231044352581 0 -0.23063359723509769 -0.29566952743313413 0 -0.23946366368218941 -0.28400941094249671 0 -0.24394850283411801 -0.29960231044352581 0 -0.23624082636370261 -0.31725897574752537 0 -0.24394850283411801 -0.29960231044352581 0 -0.24445686766025709 -0.31231585374876702 0 -0.25629685870081231 -0.30399481174304988 0 -0.24394850283411801 -0.29960231044352581 0 -0.24858438729844209 -0.30813177315994572 0 -0.24394850283411801 -0.29960231044352581 0 -0.24858438729844209 -0.30813177315994572 0 -0.24445686766025709 -0.31231585374876702 0 -0.25018784659082388 -0.31305552398611491 0 -0.24858438729844209 -0.30813177315994572 0 -0.24445686766025709 -0.31231585374876702 0 -0.23063359723509769 -0.29566952743313413 0 -0.24394850283411801 -0.29960231044352581 0 -0.2181426659633961 -0.31054690636838411 0 -0.2209795564606872 -0.28851948197813021 0 -0.23063359723509769 -0.29566952743313413 0 -0.2181426659633961 -0.31054690636838411 0 -0.23624082636370261 -0.31725897574752537 0 -0.24394850283411801 -0.29960231044352581 0 -0.2181426659633961 -0.31054690636838411 0 -0.24394850283411801 -0.29960231044352581 0 -0.2181426659633961 -0.31054690636838411 0 -0.2209795564606872 -0.28851948197813021 0 -0.2181426659633961 -0.31054690636838411 0 -0.20622298314854359 -0.29335157640145632 0 -0.2181426659633961 -0.31054690636838411 0 -0.1957495619571753 -0.30417547044209192 0 -0.20622298314854359 -0.29335157640145632 0 -0.1957495619571753 -0.30417547044209192 0 -0.18978929358213589 -0.28827480391876531 0 -0.17937197063049201 -0.30572842090364438 0 -0.19233682909267419 -0.32149150229324241 0 -0.2181426659633961 -0.31054690636838411 0 -0.1957495619571753 -0.30417547044209192 0 -0.19233682909267419 -0.32149150229324241 0 -0.1957495619571753 -0.30417547044209192 0 -0.17937197063049201 -0.30572842090364438 0 -0.1957495619571753 -0.30417547044209192 0 -0.18978929358213589 -0.28827480391876531 0 -0.20622298314854359 -0.29335157640145632 0 -0.18978929358213589 -0.28827480391876531 0 -0.20622298314854359 -0.29335157640145632 0 -0.2079363237441916 -0.27493202298220842 0 -0.2209795564606872 -0.28851948197813021 0 -0.20622298314854359 -0.29335157640145632 0 -0.2079363237441916 -0.27493202298220842 0 -0.22617588079031109 -0.27064603318513142 0 -0.2209795564606872 -0.28851948197813021 0 -0.2079363237441916 -0.27493202298220842 0 -0.22617588079031109 -0.27064603318513142 0 -0.2079363237441916 -0.27493202298220842 0 -0.2174722169472417 -0.26129665494036408 0 -0.18978929358213589 -0.28827480391876531 0 -0.2079363237441916 -0.27493202298220842 0 -0.19076038479295621 -0.26797741047830842 0 -0.2079363237441916 -0.27493202298220842 0 -0.19076038479295621 -0.26797741047830842 0 -0.20437748481527421 -0.25694666431139068 0 -0.19076038479295621 -0.26797741047830842 0 -0.1880279212736167 -0.25014340261270551 0 -0.20437748481527421 -0.25694666431139068 0 -0.2079363237441916 -0.27493202298220842 0 -0.20437748481527421 -0.25694666431139068 0 -0.2174722169472417 -0.26129665494036408 0 -0.20437748481527421 -0.25694666431139068 0 -0.2174722169472417 -0.26129665494036408 0 -0.2179523242608912 -0.24845533205632031 0 -0.15655054532119131 -0.25594852806874291 0 -0.1732428370772805 -0.25959841858885668 0 -0.1625503268871073 -0.26590827161395891 0 -0.15655054532119131 -0.25594852806874291 0 -0.1625503268871073 -0.26590827161395891 0 -0.15244743197094801 -0.27315371652195092 0 -0.15655054532119131 -0.25594852806874291 0 -0.1732428370772805 -0.25959841858885668 0 -0.15655054532119131 -0.25594852806874291 0 -0.1732428370772805 -0.25959841858885668 0 -0.17147871473588791 -0.24130402352345789 0 -0.19076038479295621 -0.26797741047830842 0 -0.1880279212736167 -0.25014340261270551 0 -0.1732428370772805 -0.25959841858885668 0 -0.1880279212736167 -0.25014340261270551 0 -0.1732428370772805 -0.25959841858885668 0 -0.17147871473588791 -0.24130402352345789 0 -0.19076038479295621 -0.26797741047830842 0 -0.1732428370772805 -0.25959841858885668 0 -0.18067268197964351 -0.27722603466820678 0 -0.18978929358213589 -0.28827480391876531 0 -0.19076038479295621 -0.26797741047830842 0 -0.18067268197964351 -0.27722603466820678 0 -0.1732428370772805 -0.25959841858885668 0 -0.18067268197964351 -0.27722603466820678 0 -0.1679604931790093 -0.2749324232762852 0 -0.18067268197964351 -0.27722603466820678 0 -0.1679604931790093 -0.2749324232762852 0 -0.17283612453368341 -0.28942742219083861 0 -0.1732428370772805 -0.25959841858885668 0 -0.1679604931790093 -0.2749324232762852 0 -0.1625503268871073 -0.26590827161395891 0 -0.1679604931790093 -0.2749324232762852 0 -0.1625503268871073 -0.26590827161395891 0 -0.15244743197094801 -0.27315371652195092 0 -0.1679604931790093 -0.2749324232762852 0 -0.15976839788960021 -0.28561556360426787 0 -0.15244743197094801 -0.27315371652195092 0 -0.15976839788960021 -0.28561556360426787 0 -0.16278737047646599 -0.29420372918243409 0 -0.15494621744832679 -0.29495785470712621 0 -0.15976839788960021 -0.28561556360426787 0 -0.16278737047646599 -0.29420372918243409 0 -0.17283612453368341 -0.28942742219083861 0 -0.16278737047646599 -0.29420372918243409 0 -0.17283612453368341 -0.28942742219083861 0 -0.16790862999613479 -0.30010339920433921 0 -0.1679604931790093 -0.2749324232762852 0 -0.15976839788960021 -0.28561556360426787 0 -0.17283612453368341 -0.28942742219083861 0 -0.18978929358213589 -0.28827480391876531 0 -0.18067268197964351 -0.27722603466820678 0 -0.17283612453368341 -0.28942742219083861 0 -0.18978929358213589 -0.28827480391876531 0 -0.17283612453368341 -0.28942742219083861 0 -0.17937197063049201 -0.30572842090364438 0 -0.17283612453368341 -0.28942742219083861 0 -0.17937197063049201 -0.30572842090364438 0 -0.16790862999613479 -0.30010339920433921 0 -0.17937197063049201 -0.30572842090364438 0 -0.16624177890124189 -0.30866209935785471 0 -0.173130857891234 -0.31701940473820189 0 -0.17937197063049201 -0.30572842090364438 0 -0.16624177890124189 -0.30866209935785471 0 -0.16790862999613479 -0.30010339920433921 0 -0.16624177890124189 -0.30866209935785471 0 -0.16790862999613479 -0.30010339920433921 0 -0.15830590543879069 -0.30249532438692411 0 -0.16278737047646599 -0.29420372918243409 0 -0.16790862999613479 -0.30010339920433921 0 -0.15830590543879069 -0.30249532438692411 0 -0.16278737047646599 -0.29420372918243409 0 -0.15830590543879069 -0.30249532438692411 0 -0.15494621744832679 -0.29495785470712621 0 -0.16624177890124189 -0.30866209935785471 0 -0.15830590543879069 -0.30249532438692411 0 -0.1563280729051657 -0.30977312572016408 0 -0.16624177890124189 -0.30866209935785471 0 -0.1563280729051657 -0.30977312572016408 0 -0.1620541590512562 -0.3166245176725363 0 -0.1463989009099233 -0.30490427433925271 0 -0.14698778975663049 -0.31074448713145703 0 -0.13097713687326751 -0.29020440782051249 0 -0.1563280729051657 -0.30977312572016408 0 -0.1515700344601266 -0.30704756192871979 0 -0.14698778975663049 -0.31074448713145703 0 -0.1563280729051657 -0.30977312572016408 0 -0.14698778975663049 -0.31074448713145703 0 -0.1620541590512562 -0.3166245176725363 0 -0.1515700344601266 -0.30704756192871979 0 -0.15059032038081069 -0.30265460827929702 0 -0.1463989009099233 -0.30490427433925271 0 -0.15830590543879069 -0.30249532438692411 0 -0.1563280729051657 -0.30977312572016408 0 -0.1515700344601266 -0.30704756192871979 0 -0.15830590543879069 -0.30249532438692411 0 -0.1515700344601266 -0.30704756192871979 0 -0.15059032038081069 -0.30265460827929702 0 -0.15830590543879069 -0.30249532438692411 0 -0.15059032038081069 -0.30265460827929702 0 -0.15494621744832679 -0.29495785470712621 0 -0.15059032038081069 -0.30265460827929702 0 -0.14932010372001761 -0.2966878906792591 0 -0.15494621744832679 -0.29495785470712621 0 -0.15059032038081069 -0.30265460827929702 0 -0.1442296581259517 -0.29746681894468541 0 -0.1463989009099233 -0.30490427433925271 0 -0.15059032038081069 -0.30265460827929702 0 -0.1442296581259517 -0.29746681894468541 0 -0.14932010372001761 -0.2966878906792591 0 -0.1515700344601266 -0.30704756192871979 0 -0.1463989009099233 -0.30490427433925271 0 -0.14698778975663049 -0.31074448713145703 0 -0.14246216907929971 -0.30871358804650079 0 -0.12686712875989051 -0.30313635815196188 0 -0.1363500007268422 -0.32102390474885473 0 -0.14698778975663049 -0.31074448713145703 0 -0.12744458729130911 -0.28905287604481639 0 -0.14246216907929971 -0.30871358804650079 0 -0.14698778975663049 -0.31074448713145703 0 -0.12744458729130911 -0.28905287604481639 0 -0.14246216907929971 -0.30871358804650079 0 -0.12686712875989051 -0.30313635815196188 0 -0.12744458729130911 -0.28905287604481639 0 -0.12686712875989051 -0.30313635815196188 0 -0.1363500007268422 -0.32102390474885473 0 -0.1442296581259517 -0.29746681894468541 0 -0.1463989009099233 -0.30490427433925271 0 -0.13097713687326751 -0.29020440782051249 0 -0.1442296581259517 -0.29746681894468541 0 -0.13097713687326751 -0.29020440782051249 0 -0.14341261091279611 -0.29189038788665089 0 -0.12744458729130911 -0.28905287604481639 0 -0.13097713687326751 -0.29020440782051249 0 -0.13541769521918459 -0.27125152268457148 0 -0.13097713687326751 -0.29020440782051249 0 -0.142205861672451 -0.28251361428813188 0 -0.13541769521918459 -0.27125152268457148 0 -0.14698778975663049 -0.31074448713145703 0 -0.12744458729130911 -0.28905287604481639 0 -0.13097713687326751 -0.29020440782051249 0 -0.13097713687326751 -0.29020440782051249 0 -0.142205861672451 -0.28251361428813188 0 -0.14341261091279611 -0.29189038788665089 0 -0.142205861672451 -0.28251361428813188 0 -0.14341261091279611 -0.29189038788665089 0 -0.14950453222893531 -0.28781495931361128 0 -0.14341261091279611 -0.29189038788665089 0 -0.14932010372001761 -0.2966878906792591 0 -0.14950453222893531 -0.28781495931361128 0 -0.1442296581259517 -0.29746681894468541 0 -0.14341261091279611 -0.29189038788665089 0 -0.14932010372001761 -0.2966878906792591 0 -0.15976839788960021 -0.28561556360426787 0 -0.15494621744832679 -0.29495785470712621 0 -0.14950453222893531 -0.28781495931361128 0 -0.14932010372001761 -0.2966878906792591 0 -0.15494621744832679 -0.29495785470712621 0 -0.14950453222893531 -0.28781495931361128 0 -0.15976839788960021 -0.28561556360426787 0 -0.14950453222893531 -0.28781495931361128 0 -0.15244743197094801 -0.27315371652195092 0 -0.142205861672451 -0.28251361428813188 0 -0.15244743197094801 -0.27315371652195092 0 -0.13541769521918459 -0.27125152268457148 0 -0.15244743197094801 -0.27315371652195092 0 -0.13541769521918459 -0.27125152268457148 0 -0.1460684815191064 -0.26316310120597391 0 -0.142205861672451 -0.28251361428813188 0 -0.14950453222893531 -0.28781495931361128 0 -0.15244743197094801 -0.27315371652195092 0 -0.12744458729130911 -0.28905287604481639 0 -0.13541769521918459 -0.27125152268457148 0 -0.12275987696257511 -0.27238067418420397 0 -0.13097713687326751 -0.29020440782051249 0 -0.13541769521918459 -0.27125152268457148 0 -0.13541769521918459 -0.27125152268457148 0 -0.12067125428484581 -0.26197281544286061 0 -0.12275987696257511 -0.27238067418420397 0 -0.13541769521918459 -0.27125152268457148 0 -0.13985825356510179 -0.25229863754863058 0 -0.1460684815191064 -0.26316310120597391 0 -0.13541769521918459 -0.27125152268457148 0 -0.13985825356510179 -0.25229863754863058 0 -0.13007594383485011 -0.2583159744489088 0 -0.13985825356510179 -0.25229863754863058 0 -0.13007594383485011 -0.2583159744489088 0 -0.12392833461937661 -0.24881544536652669 0 -0.13985825356510179 -0.25229863754863058 0 -0.12392833461937661 -0.24881544536652669 0 -0.13541769521918459 -0.27125152268457148 0 -0.13985825356510179 -0.25229863754863058 0 -0.13541769521918459 -0.27125152268457148 0 -0.13007594383485011 -0.2583159744489088 0 -0.12067125428484581 -0.26197281544286061 0 -0.15655054532119131 -0.25594852806874291 0 -0.13985825356510179 -0.25229863754863058 0 -0.1460684815191064 -0.26316310120597391 0 -0.15655054532119131 -0.25594852806874291 0 -0.13985825356510179 -0.25229863754863058 0 -0.15655054532119131 -0.25594852806874291 0 -0.15244743197094801 -0.27315371652195092 0 -0.1460684815191064 -0.26316310120597391 0 -0.16078236446877989 -0.35182678770392661 0 -0.1740241773414867 -0.35834306830569351 0 -0.16761639886824389 -0.34282967483766308 0 -0.16078236446877989 -0.35182678770392661 0 -0.1652913631480562 -0.37413467769965919 0 -0.1740241773414867 -0.35834306830569351 0 -0.16078236446877989 -0.35182678770392661 0 -0.1652913631480562 -0.37413467769965919 0 -0.15002109858837859 -0.3633668486046413 0 -0.18328979851033331 -0.376650521782189 0 -0.1652913631480562 -0.37413467769965919 0 -0.1740241773414867 -0.35834306830569351 0 -0.18328979851033331 -0.376650521782189 0 -0.19022216786557261 -0.35908851427606742 0 -0.1740241773414867 -0.35834306830569351 0 -0.19022216786557261 -0.35908851427606742 0 -0.1740241773414867 -0.35834306830569351 0 -0.17767996070576081 -0.34481068671233878 0 -0.1740241773414867 -0.35834306830569351 0 -0.17767996070576081 -0.34481068671233878 0 -0.16761639886824389 -0.34282967483766308 0 -0.19233682909267419 -0.32149150229324241 0 -0.17767996070576081 -0.34481068671233878 0 -0.16653099222195131 -0.33243609821809822 0 -0.17767996070576081 -0.34481068671233878 0 -0.16653099222195131 -0.33243609821809822 0 -0.19233682909267419 -0.32149150229324241 0 -0.16653099222195131 -0.33243609821809822 0 -0.19233682909267419 -0.32149150229324241 0 -0.17937197063049201 -0.30572842090364438 0 -0.173130857891234 -0.31701940473820189 0 -0.19233682909267419 -0.32149150229324241 0 -0.173130857891234 -0.31701940473820189 0 -0.16653099222195131 -0.33243609821809822 0 -0.14698778975663049 -0.31074448713145703 0 -0.1620541590512562 -0.3166245176725363 0 -0.16653099222195131 -0.33243609821809822 0 -0.173130857891234 -0.31701940473820189 0 -0.1620541590512562 -0.3166245176725363 0 -0.16653099222195131 -0.33243609821809822 0 -0.14698778975663049 -0.31074448713145703 0 -0.16653099222195131 -0.33243609821809822 0 -0.16624177890124189 -0.30866209935785471 0 -0.173130857891234 -0.31701940473820189 0 -0.1620541590512562 -0.3166245176725363 0 -0.16078236446877989 -0.35182678770392661 0 -0.16761639886824389 -0.34282967483766308 0 -0.1615850618015027 -0.33453373257095909 0 -0.16761639886824389 -0.34282967483766308 0 -0.16653099222195131 -0.33243609821809822 0 -0.1615850618015027 -0.33453373257095909 0 -0.17767996070576081 -0.34481068671233878 0 -0.16761639886824389 -0.34282967483766308 0 -0.16653099222195131 -0.33243609821809822 0 -0.16653099222195131 -0.33243609821809822 0 -0.1615850618015027 -0.33453373257095909 0 -0.16653099222195131 -0.33243609821809822 0 -0.1615850618015027 -0.33453373257095909 0 -0.15276328840759079 -0.32357371917413458 0 -0.16078236446877989 -0.35182678770392661 0 -0.1615850618015027 -0.33453373257095909 0 -0.14624163383383909 -0.33604021832557102 0 -0.1615850618015027 -0.33453373257095909 0 -0.14624163383383909 -0.33604021832557102 0 -0.15276328840759079 -0.32357371917413458 0 -0.14246216907929971 -0.30871358804650079 0 -0.14624163383383909 -0.33604021832557102 0 -0.14246216907929971 -0.30871358804650079 0 -0.14624163383383909 -0.33604021832557102 0 -0.15276328840759079 -0.32357371917413458 0 -0.14698778975663049 -0.31074448713145703 0 -0.16653099222195131 -0.33243609821809822 0 -0.15276328840759079 -0.32357371917413458 0 -0.14246216907929971 -0.30871358804650079 0 -0.14624163383383909 -0.33604021832557102 0 -0.1363500007268422 -0.32102390474885473 0 -0.14246216907929971 -0.30871358804650079 0 -0.14698778975663049 -0.31074448713145703 0 -0.15276328840759079 -0.32357371917413458 0 -0.12686712875989051 -0.30313635815196188 0 -0.1363500007268422 -0.32102390474885473 0 -0.12288883648924739 -0.3157348334364638 0 -0.1363500007268422 -0.32102390474885473 0 -0.12687128613383919 -0.33111054837442938 0 -0.12288883648924739 -0.3157348334364638 0 -0.14624163383383909 -0.33604021832557102 0 -0.1363500007268422 -0.32102390474885473 0 -0.12687128613383919 -0.33111054837442938 0 -0.14624163383383909 -0.33604021832557102 0 -0.12687128613383919 -0.33111054837442938 0 -0.12427614837407031 -0.3479258825153998 0 -0.14624163383383909 -0.33604021832557102 0 -0.13355319818649891 -0.36065321629738578 0 -0.12427614837407031 -0.3479258825153998 0 -0.14624163383383909 -0.33604021832557102 0 -0.15002109858837859 -0.3633668486046413 0 -0.16078236446877989 -0.35182678770392661 0 -0.14624163383383909 -0.33604021832557102 0 -0.15002109858837859 -0.3633668486046413 0 -0.14624163383383909 -0.33604021832557102 0 -0.15002109858837859 -0.3633668486046413 0 -0.13355319818649891 -0.36065321629738578 0 -0.13111919527464341 -0.38402542691014502 0 -0.15002109858837859 -0.3633668486046413 0 -0.13355319818649891 -0.36065321629738578 0 -0.13111919527464341 -0.38402542691014502 0 -0.13355319818649891 -0.36065321629738578 0 -0.1161079148615633 -0.37190770513117222 0 -0.13355319818649891 -0.36065321629738578 0 -0.1161079148615633 -0.37190770513117222 0 -0.12427614837407031 -0.3479258825153998 0 -0.1161079148615633 -0.37190770513117222 0 -0.10416430545910441 -0.3549968067000116 0 -0.099141066207919515 -0.37624812255434859 0 -0.10416430545910441 -0.3549968067000116 0 -0.088263090783689269 -0.36613754223582379 0 -0.099141066207919515 -0.37624812255434859 0 -0.10416430545910441 -0.3549968067000116 0 -0.10062137726918539 -0.33694609360430411 0 -0.08354745957996626 -0.34681903807742798 0 -0.10416430545910441 -0.3549968067000116 0 -0.113751857360376 -0.33936835802878268 0 -0.10062137726918539 -0.33694609360430411 0 -0.1161079148615633 -0.37190770513117222 0 -0.10416430545910441 -0.3549968067000116 0 -0.12427614837407031 -0.3479258825153998 0 -0.10416430545910441 -0.3549968067000116 0 -0.12427614837407031 -0.3479258825153998 0 -0.113751857360376 -0.33936835802878268 0 -0.12687128613383919 -0.33111054837442938 0 -0.12427614837407031 -0.3479258825153998 0 -0.113751857360376 -0.33936835802878268 0 -0.12687128613383919 -0.33111054837442938 0 -0.113751857360376 -0.33936835802878268 0 -0.1128261695656807 -0.32586245894976879 0 -0.12687128613383919 -0.33111054837442938 0 -0.12288883648924739 -0.3157348334364638 0 -0.1128261695656807 -0.32586245894976879 0 -0.12288883648924739 -0.3157348334364638 0 -0.1128261695656807 -0.32586245894976879 0 -0.1097109930112472 -0.31302981184260997 0 -0.1128261695656807 -0.32586245894976879 0 -0.098207907366630126 -0.31942083123976539 0 -0.10062137726918539 -0.33694609360430411 0 -0.1128261695656807 -0.32586245894976879 0 -0.1097109930112472 -0.31302981184260997 0 -0.098207907366630126 -0.31942083123976539 0 -0.098207907366630126 -0.31942083123976539 0 -0.10062137726918539 -0.33694609360430411 0 -0.082574997342810527 -0.32984560541325542 0 -0.113751857360376 -0.33936835802878268 0 -0.1128261695656807 -0.32586245894976879 0 -0.10062137726918539 -0.33694609360430411 0 -0.10062137726918539 -0.33694609360430411 0 -0.082574997342810527 -0.32984560541325542 0 -0.08354745957996626 -0.34681903807742798 0 -0.098207907366630126 -0.31942083123976539 0 -0.082574997342810527 -0.32984560541325542 0 -0.084270918660434638 -0.31067131936535741 0 -0.082574997342810527 -0.32984560541325542 0 -0.070015214384394092 -0.31838720451062669 0 -0.084270918660434638 -0.31067131936535741 0 -0.082574997342810527 -0.32984560541325542 0 -0.064084453882915421 -0.34074578992250198 0 -0.08354745957996626 -0.34681903807742798 0 -0.082574997342810527 -0.32984560541325542 0 -0.070015214384394092 -0.31838720451062669 0 -0.064084453882915421 -0.34074578992250198 0 -0.070015214384394092 -0.31838720451062669 0 -0.064084453882915421 -0.34074578992250198 0 -0.064084453882915421 -0.34074578992250198 0 -0.074172529629499093 -0.35977598013852119 0 -0.058153693381436757 -0.36310437533437728 0 -0.064084453882915421 -0.34074578992250198 0 -0.074172529629499093 -0.35977598013852119 0 -0.08354745957996626 -0.34681903807742798 0 -0.074172529629499093 -0.35977598013852119 0 -0.058153693381436757 -0.36310437533437728 0 -0.076813950519487764 -0.38207315512247447 0 -0.074172529629499093 -0.35977598013852119 0 -0.088263090783689269 -0.36613754223582379 0 -0.076813950519487764 -0.38207315512247447 0 -0.088263090783689269 -0.36613754223582379 0 -0.099141066207919515 -0.37624812255434859 0 -0.076813950519487764 -0.38207315512247447 0 -0.10416430545910441 -0.3549968067000116 0 -0.088263090783689269 -0.36613754223582379 0 -0.08354745957996626 -0.34681903807742798 0 -0.074172529629499093 -0.35977598013852119 0 -0.088263090783689269 -0.36613754223582379 0 -0.08354745957996626 -0.34681903807742798 0 -0.111590285685638 -0.25422648743766318 0 -0.1079013848259873 -0.26736126495817603 0 -0.097452039024329376 -0.24765065823633031 0 -0.1079013848259873 -0.26736126495817603 0 -0.097452039024329376 -0.24765065823633031 0 -0.099070065752275227 -0.25755910796425813 0 -0.1079013848259873 -0.26736126495817603 0 -0.097452039024329376 -0.24765065823633031 0 -0.099070065752275227 -0.25755910796425813 0 -0.090004745522084956 -0.25820572201722269 0 -0.097452039024329376 -0.24765065823633031 0 -0.099070065752275227 -0.25755910796425813 0 -0.1079013848259873 -0.26736126495817603 0 -0.095527191966038927 -0.26817412105299859 0 -0.099070065752275227 -0.25755910796425813 0 -0.095527191966038927 -0.26817412105299859 0 -0.090004745522084956 -0.25820572201722269 0 -0.099070065752275227 -0.25755910796425813 0 -0.1079013848259873 -0.26736126495817603 0 -0.13007594383485011 -0.2583159744489088 0 -0.12067125428484581 -0.26197281544286061 0 -0.12392833461937661 -0.24881544536652669 0 -0.111590285685638 -0.25422648743766318 0 -0.12067125428484581 -0.26197281544286061 0 -0.12392833461937661 -0.24881544536652669 0 -0.111590285685638 -0.25422648743766318 0 -0.12067125428484581 -0.26197281544286061 0 -0.1079013848259873 -0.26736126495817603 0 -0.103576969040994 -0.27735146343964018 0 -0.1079013848259873 -0.26736126495817603 0 -0.11738425679293869 -0.28524881155506909 0 -0.12744458729130911 -0.28905287604481639 0 -0.1079013848259873 -0.26736126495817603 0 -0.1079013848259873 -0.26736126495817603 0 -0.11738425679293869 -0.28524881155506909 0 -0.12744458729130911 -0.28905287604481639 0 -0.1079013848259873 -0.26736126495817603 0 -0.11738425679293869 -0.28524881155506909 0 -0.12744458729130911 -0.28905287604481639 0 -0.12275987696257511 -0.27238067418420397 0 -0.1079013848259873 -0.26736126495817603 0 -0.12067125428484581 -0.26197281544286061 0 -0.12275987696257511 -0.27238067418420397 0 -0.1079013848259873 -0.26736126495817603 0 -0.103576969040994 -0.27735146343964018 0 -0.1079013848259873 -0.26736126495817603 0 -0.095527191966038927 -0.26817412105299859 0 -0.103576969040994 -0.27735146343964018 0 -0.095527191966038927 -0.26817412105299859 0 -0.094527941106368668 -0.27868610332017879 0 -0.103576969040994 -0.27735146343964018 0 -0.094527941106368668 -0.27868610332017879 0 -0.1025440705136365 -0.28728701631177861 0 -0.094527941106368668 -0.27868610332017879 0 -0.1025440705136365 -0.28728701631177861 0 -0.090570175274794287 -0.28844075799243651 0 -0.1025440705136365 -0.28728701631177861 0 -0.096859342173517549 -0.30005318489526811 0 -0.090570175274794287 -0.28844075799243651 0 -0.1025440705136365 -0.28728701631177861 0 -0.111781173473776 -0.2953890800013535 0 -0.096859342173517549 -0.30005318489526811 0 -0.103576969040994 -0.27735146343964018 0 -0.1025440705136365 -0.28728701631177861 0 -0.11738425679293869 -0.28524881155506909 0 -0.12686712875989051 -0.30313635815196188 0 -0.11738425679293869 -0.28524881155506909 0 -0.12686712875989051 -0.30313635815196188 0 -0.12744458729130911 -0.28905287604481639 0 -0.11738425679293869 -0.28524881155506909 0 -0.12686712875989051 -0.30313635815196188 0 -0.11738425679293869 -0.28524881155506909 0 -0.111781173473776 -0.2953890800013535 0 -0.1025440705136365 -0.28728701631177861 0 -0.11738425679293869 -0.28524881155506909 0 -0.111781173473776 -0.2953890800013535 0 -0.12686712875989051 -0.30313635815196188 0 -0.111781173473776 -0.2953890800013535 0 -0.1177727094611601 -0.30407775069178411 0 -0.12686712875989051 -0.30313635815196188 0 -0.12288883648924739 -0.3157348334364638 0 -0.1177727094611601 -0.30407775069178411 0 -0.12288883648924739 -0.3157348334364638 0 -0.1097109930112472 -0.31302981184260997 0 -0.1177727094611601 -0.30407775069178411 0 -0.111781173473776 -0.2953890800013535 0 -0.1177727094611601 -0.30407775069178411 0 -0.096859342173517549 -0.30005318489526811 0 -0.1097109930112472 -0.31302981184260997 0 -0.1177727094611601 -0.30407775069178411 0 -0.096859342173517549 -0.30005318489526811 0 -0.1097109930112472 -0.31302981184260997 0 -0.098207907366630126 -0.31942083123976539 0 -0.096859342173517549 -0.30005318489526811 0 -0.1177727094611601 -0.30407775069178411 0 -0.096859342173517549 -0.30005318489526811 0 -0.098207907366630126 -0.31942083123976539 0 -0.096859342173517549 -0.30005318489526811 0 -0.084270918660434638 -0.31067131936535741 0 -0.096859342173517549 -0.30005318489526811 0 -0.084270918660434638 -0.31067131936535741 0 -0.07594597488587515 -0.296028619098752 0 -0.096859342173517549 -0.30005318489526811 0 -0.07594597488587515 -0.296028619098752 0 -0.070015214384394092 -0.31838720451062669 0 -0.084270918660434638 -0.31067131936535741 0 -0.07594597488587515 -0.296028619098752 0 -0.070015214384394092 -0.31838720451062669 0 -0.07594597488587515 -0.296028619098752 0 -0.070015214384394092 -0.31838720451062669 0 -0.07594597488587515 -0.296028619098752 0 -0.060697731147791333 -0.30489326026231323 0 -0.07594597488587515 -0.296028619098752 0 -0.051893481132305443 -0.29139996019604508 0 -0.060697731147791333 -0.30489326026231323 0 -0.07594597488587515 -0.296028619098752 0 -0.051893481132305443 -0.29139996019604508 0 -0.07594597488587515 -0.296028619098752 0 -0.080090233202966613 -0.28040503195027111 0 -0.071924828490649143 -0.27881092538746749 0 -0.07594597488587515 -0.296028619098752 0 -0.062841185942207986 -0.2812947373565709 0 -0.051893481132305443 -0.29139996019604508 0 -0.07594597488587515 -0.296028619098752 0 -0.062841185942207986 -0.2812947373565709 0 -0.071924828490649143 -0.27881092538746749 0 -0.07594597488587515 -0.296028619098752 0 -0.080090233202966613 -0.28040503195027111 0 -0.07594597488587515 -0.296028619098752 0 -0.083537208174602889 -0.28659648022601142 0 -0.080090233202966613 -0.28040503195027111 0 -0.096859342173517549 -0.30005318489526811 0 -0.07594597488587515 -0.296028619098752 0 -0.090570175274794287 -0.28844075799243651 0 -0.083537208174602889 -0.28659648022601142 0 -0.08754244933477548 -0.28151151186258588 0 -0.080090233202966613 -0.28040503195027111 0 -0.07594597488587515 -0.296028619098752 0 -0.083537208174602889 -0.28659648022601142 0 -0.090570175274794287 -0.28844075799243651 0 -0.094527941106368668 -0.27868610332017879 0 -0.090570175274794287 -0.28844075799243651 0 -0.08754244933477548 -0.28151151186258588 0 -0.083537208174602889 -0.28659648022601142 0 -0.090570175274794287 -0.28844075799243651 0 -0.08754244933477548 -0.28151151186258588 0 -0.095527191966038927 -0.26817412105299859 0 -0.094527941106368668 -0.27868610332017879 0 -0.088138455352306494 -0.27424467798692642 0 -0.094527941106368668 -0.27868610332017879 0 -0.08754244933477548 -0.28151151186258588 0 -0.088138455352306494 -0.27424467798692642 0 -0.095527191966038927 -0.26817412105299859 0 -0.088138455352306494 -0.27424467798692642 0 -0.08423449152006042 -0.26478144480179078 0 -0.088138455352306494 -0.27424467798692642 0 -0.080090233202966613 -0.28040503195027111 0 -0.08423449152006042 -0.26478144480179078 0 -0.079304024245341637 -0.27496872811722772 0 -0.080090233202966613 -0.28040503195027111 0 -0.08423449152006042 -0.26478144480179078 0 -0.080090233202966613 -0.28040503195027111 0 -0.08423449152006042 -0.26478144480179078 0 -0.08754244933477548 -0.28151151186258588 0 -0.088138455352306494 -0.27424467798692642 0 -0.080090233202966613 -0.28040503195027111 0 -0.079304024245341637 -0.27496872811722772 0 -0.071924828490649143 -0.27881092538746749 0 -0.066993724312258113 -0.2670932674520976 0 -0.079304024245341637 -0.27496872811722772 0 -0.080090233202966613 -0.28040503195027111 0 -0.071924828490649143 -0.27881092538746749 0 -0.062841185942207986 -0.2812947373565709 0 -0.071924828490649143 -0.27881092538746749 0 -0.066993724312258113 -0.2670932674520976 0 -0.066993724312258113 -0.2670932674520976 0 -0.073739939347721106 -0.25286327803073722 0 -0.053303352711674121 -0.25735584332364658 0 -0.079304024245341637 -0.27496872811722772 0 -0.073739939347721106 -0.25286327803073722 0 -0.073739939347721106 -0.25286327803073722 0 -0.053303352711674121 -0.25735584332364658 0 -0.079304024245341637 -0.27496872811722772 0 -0.066993724312258113 -0.2670932674520976 0 -0.073739939347721106 -0.25286327803073722 0 -0.079304024245341637 -0.27496872811722772 0 -0.073739939347721106 -0.25286327803073722 0 -0.08423449152006042 -0.26478144480179078 0 -0.073739939347721106 -0.25286327803073722 0 -0.090004745522084956 -0.25820572201722269 0 -0.097452039024329376 -0.24765065823633031 0 -0.073739939347721106 -0.25286327803073722 0 -0.08423449152006042 -0.26478144480179078 0 -0.090004745522084956 -0.25820572201722269 0 -0.073739939347721106 -0.25286327803073722 0 -0.097452039024329376 -0.24765065823633031 0 -0.095527191966038927 -0.26817412105299859 0 -0.08423449152006042 -0.26478144480179078 0 -0.090004745522084956 -0.25820572201722269 0 -0.032866766075627447 -0.26184840861655723 0 -0.053303352711674121 -0.25735584332364658 0 -0.047309779577936688 -0.27417268798260153 0 -0.032866766075627447 -0.26184840861655723 0 -0.053303352711674121 -0.25735584332364658 0 -0.033409875725189032 -0.24714682933774931 0 -0.032866766075627447 -0.26184840861655723 0 -0.053303352711674121 -0.25735584332364658 0 -0.073739939347721106 -0.25286327803073722 0 -0.053303352711674121 -0.25735584332364658 0 -0.059463529516841633 -0.2444935303323712 0 -0.062841185942207986 -0.2812947373565709 0 -0.066993724312258113 -0.2670932674520976 0 -0.047309779577936688 -0.27417268798260153 0 -0.066993724312258113 -0.2670932674520976 0 -0.053303352711674121 -0.25735584332364658 0 -0.047309779577936688 -0.27417268798260153 0 -0.032866766075627447 -0.26184840861655723 0 -0.047309779577936688 -0.27417268798260153 0 -0.027840987378735749 -0.28677130129333811 0 -0.051893481132305443 -0.29139996019604508 0 -0.037369415246219687 -0.30678561135837662 0 -0.027840987378735749 -0.28677130129333811 0 -0.047309779577936688 -0.27417268798260153 0 -0.051893481132305443 -0.29139996019604508 0 -0.027840987378735749 -0.28677130129333811 0 -0.051893481132305443 -0.29139996019604508 0 -0.027840987378735749 -0.28677130129333811 0 -0.062841185942207986 -0.2812947373565709 0 -0.047309779577936688 -0.27417268798260153 0 -0.051893481132305443 -0.29139996019604508 0 -0.060697731147791333 -0.30489326026231323 0 -0.037369415246219687 -0.30678561135837662 0 -0.051336348141894542 -0.32077923693006621 0 -0.051893481132305443 -0.29139996019604508 0 -0.060697731147791333 -0.30489326026231323 0 -0.037369415246219687 -0.30678561135837662 0 -0.037369415246219687 -0.30678561135837662 0 -0.016454122502099999 -0.3020627145310863 0 -0.019498493816837138 -0.31852792261051271 0 -0.037369415246219687 -0.30678561135837662 0 -0.016454122502099999 -0.3020627145310863 0 -0.027840987378735749 -0.28677130129333811 0 -0.0039570117367291246 -0.28663325809943901 0 -0.0050046504452801862 -0.31455039292922921 0 -0.016454122502099999 -0.3020627145310863 0 -0.0039570117367291246 -0.28663325809943901 0 -0.0050046504452801862 -0.31455039292922921 0 -0.0039570117367291246 -0.28663325809943901 0 -0.0050046504452801862 -0.31455039292922921 0 0.0014857439162202829 -0.30163961953822932 0 -0.016454122502099999 -0.3020627145310863 0 -0.019498493816837138 -0.31852792261051271 0 -0.0050046504452801862 -0.31455039292922921 0 -0.0037884936251661042 -0.28214264239063092 0 -0.0039570117367291246 -0.28663325809943901 0 -0.027840987378735749 -0.28677130129333811 0 -0.016454122502099999 -0.3020627145310863 0 -0.0039570117367291246 -0.28663325809943901 0 -0.0039570117367291246 -0.28663325809943901 0 0.0014857439162202829 -0.30163961953822932 0 0.0014310531297864919 -0.29324006875599529 0 -0.0037884936251661042 -0.28214264239063092 0 -0.0039570117367291246 -0.28663325809943901 0 0.000320648496330543 -0.28135187959247648 0 -0.0037884936251661042 -0.28214264239063092 0 0.000320648496330543 -0.28135187959247648 0 -0.0039570117367291246 -0.28663325809943901 0 0.000320648496330543 -0.28135187959247648 0 0.0015919351063143729 -0.28595620194625088 0 -0.0039570117367291246 -0.28663325809943901 0 0.000320648496330543 -0.28135187959247648 0 -0.0037884936251661042 -0.28214264239063092 0 -0.0039570117367291246 -0.28663325809943901 0 -0.0039570117367291246 -0.28663325809943901 0 0.0015919351063143729 -0.28595620194625088 0 0.0014310531297864919 -0.29324006875599529 0 -0.0037884936251661042 -0.28214264239063092 0 -0.027840987378735749 -0.28677130129333811 0 -0.016454122502099999 -0.3020627145310863 0 -0.0039570117367291246 -0.28663325809943901 0 -0.027840987378735749 -0.28677130129333811 0 -0.032866766075627447 -0.26184840861655723 0 -0.027840987378735749 -0.28677130129333811 0 -0.017039146829940899 -0.27220829649971828 0 -0.0037884936251661042 -0.28214264239063092 0 -0.027840987378735749 -0.28677130129333811 0 -0.017039146829940899 -0.27220829649971828 0 -0.0037884936251661042 -0.28214264239063092 0 -0.017039146829940899 -0.27220829649971828 0 -0.0031700831309584491 -0.26566344111058909 0 -0.0037884936251661042 -0.28214264239063092 0 -0.0031700831309584491 -0.26566344111058909 0 -0.0037884936251661042 -0.28214264239063092 0 -0.0031700831309584491 -0.26566344111058909 0 0.000320648496330543 -0.28135187959247648 0 -0.0031700831309584491 -0.26566344111058909 0 -0.002551672636748862 -0.24918423983054741 0 -0.017039146829940899 -0.27220829649971828 0 -0.0031700831309584491 -0.26566344111058909 0 -0.016464216111145132 -0.25837858969154631 0 -0.0031700831309584491 -0.26566344111058909 0 -0.016464216111145132 -0.25837858969154631 0 -0.0077953493217402248 -0.2488817209900118 0 -0.0031700831309584491 -0.26566344111058909 0 -0.0077953493217402248 -0.2488817209900118 0 -0.002551672636748862 -0.24918423983054741 0 -0.016464216111145132 -0.25837858969154631 0 -0.01512674604055105 -0.24763354146040639 0 -0.0077953493217402248 -0.2488817209900118 0 -0.032866766075627447 -0.26184840861655723 0 -0.017039146829940899 -0.27220829649971828 0 -0.016464216111145132 -0.25837858969154631 0 -0.023277962165551749 -0.25018495043514821 0 -0.016464216111145132 -0.25837858969154631 0 -0.01512674604055105 -0.24763354146040639 0 -0.032866766075627447 -0.26184840861655723 0 -0.023277962165551749 -0.25018495043514821 0 -0.016464216111145132 -0.25837858969154631 0 -0.032866766075627447 -0.26184840861655723 0 -0.023277962165551749 -0.25018495043514821 0 -0.033409875725189032 -0.24714682933774931 0 -0.034577269990089372 -0.35037677229683672 0 -0.036542548243423512 -0.37398017811882178 0 -0.034577269990089372 -0.35037677229683672 0 -0.036542548243423512 -0.37398017811882178 0 -0.058153693381436757 -0.36310437533437728 0 -0.036542548243423512 -0.37398017811882178 0 -0.058153693381436757 -0.36310437533437728 0 -0.055980648636277427 -0.38470280053580103 0 -0.034577269990089372 -0.35037677229683672 0 -0.058153693381436757 -0.36310437533437728 0 -0.048152751426618262 -0.34035590819172667 0 -0.064084453882915421 -0.34074578992250198 0 -0.058153693381436757 -0.36310437533437728 0 -0.064084453882915421 -0.34074578992250198 0 -0.058153693381436757 -0.36310437533437728 0 -0.048152751426618262 -0.34035590819172667 0 -0.064084453882915421 -0.34074578992250198 0 -0.048152751426618262 -0.34035590819172667 0 -0.051336348141894542 -0.32077923693006621 0 -0.070015214384394092 -0.31838720451062669 0 -0.060697731147791333 -0.30489326026231323 0 -0.051336348141894542 -0.32077923693006621 0 -0.070015214384394092 -0.31838720451062669 0 -0.064084453882915421 -0.34074578992250198 0 -0.051336348141894542 -0.32077923693006621 0 -0.037369415246219687 -0.30678561135837662 0 -0.051336348141894542 -0.32077923693006621 0 -0.032611991736755219 -0.32677336647485139 0 -0.048152751426618262 -0.34035590819172667 0 -0.051336348141894542 -0.32077923693006621 0 -0.032611991736755219 -0.32677336647485139 0 -0.034577269990089372 -0.35037677229683672 0 -0.032611991736755219 -0.32677336647485139 0 -0.034577269990089372 -0.35037677229683672 0 -0.048152751426618262 -0.34035590819172667 0 -0.032611991736755219 -0.32677336647485139 0 -0.034577269990089372 -0.35037677229683672 0 -0.032611991736755219 -0.32677336647485139 0 -0.006052289153830593 -0.34246752775901951 0 -0.032611991736755219 -0.32677336647485139 0 -0.019498493816837138 -0.31852792261051271 0 -0.006052289153830593 -0.34246752775901951 0 -0.037369415246219687 -0.30678561135837662 0 -0.032611991736755219 -0.32677336647485139 0 -0.019498493816837138 -0.31852792261051271 0 -0.019498493816837138 -0.31852792261051271 0 -0.0050046504452801862 -0.31455039292922921 0 -0.006052289153830593 -0.34246752775901951 0 -0.0050046504452801862 -0.31455039292922921 0 -0.006052289153830593 -0.34246752775901951 0 0.0061281706768574404 -0.3253655865646834 0 -0.0050046504452801862 -0.31455039292922921 0 -0.006052289153830593 -0.34246752775901951 0 -0.006052289153830593 -0.34246752775901951 0 -0.0070999278623810006 -0.37038466258880981 0 -0.034577269990089372 -0.35037677229683672 0 -0.006052289153830593 -0.34246752775901951 0 -0.0070999278623810006 -0.37038466258880981 0 -0.034577269990089372 -0.35037677229683672 0 -0.036542548243423512 -0.37398017811882178 0 -0.0070999278623810006 -0.37038466258880981 0 -0.0070999278623810006 -0.37038466258880981 0 -0.01216542415599588 -0.38671944024233462 0 -0.023073579713287991 -0.38803718823356548 0 -0.0070999278623810006 -0.37038466258880981 0 -0.0032689191707280219 -0.38784704684875643 0 -0.01216542415599588 -0.38671944024233462 0 -0.0032689191707280219 -0.38784704684875643 0 -0.01216542415599588 -0.38671944024233462 0 -0.014666816596663379 -0.39511527881692848 0 -0.010095241589031939 -0.4043639430644913 0 -0.0095337109306492807 -0.40272904022114497 0 0.0081381410838362658 -0.39426642413936558 0 -0.010095241589031939 -0.4043639430644913 0 0.0081381410838362658 -0.39426642413936558 0 -0.0032689191707280219 -0.38784704684875643 0 -0.0095337109306492807 -0.40272904022114497 0 0.0081381410838362658 -0.39426642413936558 0 -0.0032689191707280219 -0.38784704684875643 0 -0.014666816596663379 -0.39511527881692848 0 -0.0095337109306492807 -0.40272904022114497 0 -0.014666816596663379 -0.39511527881692848 0 -0.0095337109306492807 -0.40272904022114497 0 -0.01575745655659087 -0.40151489597590828 0 -0.010095241589031939 -0.4043639430644913 0 -0.0095337109306492807 -0.40272904022114497 0 -0.01575745655659087 -0.40151489597590828 0 -0.010095241589031939 -0.4043639430644913 0 -0.0095337109306492807 -0.40272904022114497 0 -0.010095241589031939 -0.4043639430644913 0 -0.02108549491961078 -0.40443439002349862 0 -0.01575745655659087 -0.40151489597590828 0 -0.014666816596663379 -0.39511527881692848 0 -0.01575745655659087 -0.40151489597590828 0 -0.022974710195633109 -0.39902642192949772 0 -0.02108549491961078 -0.40443439002349862 0 -0.01575745655659087 -0.40151489597590828 0 -0.022974710195633109 -0.39902642192949772 0 -0.014666816596663379 -0.39511527881692848 0 -0.022974710195633109 -0.39902642192949772 0 -0.023073579713287991 -0.38803718823356548 0 -0.022974710195633109 -0.39902642192949772 0 -0.023073579713287991 -0.38803718823356548 0 -0.038507826496757651 -0.39758358394080701 0 -0.02108549491961078 -0.40443439002349862 0 -0.022974710195633109 -0.39902642192949772 0 -0.030473632280652072 -0.40577191032583809 0 -0.022974710195633109 -0.39902642192949772 0 -0.030473632280652072 -0.40577191032583809 0 -0.038507826496757651 -0.39758358394080701 0 -0.036542548243423512 -0.37398017811882178 0 -0.0070999278623810006 -0.37038466258880981 0 -0.023073579713287991 -0.38803718823356548 0 -0.01216542415599588 -0.38671944024233462 0 -0.014666816596663379 -0.39511527881692848 0 -0.023073579713287991 -0.38803718823356548 0 -0.036542548243423512 -0.37398017811882178 0 -0.038507826496757651 -0.39758358394080701 0 -0.036542548243423512 -0.37398017811882178 0 -0.038507826496757651 -0.39758358394080701 0 -0.055980648636277427 -0.38470280053580103 0 -0.036542548243423512 -0.37398017811882178 0 -0.023073579713287991 -0.38803718823356548 0 -0.038507826496757651 -0.39758358394080701 0 -0.052706794026096647 -0.39855316680617181 0 -0.055980648636277427 -0.38470280053580103 0 -0.067103533805515758 -0.40066667366291581 0 -0.038507826496757651 -0.39758358394080701 0 -0.052706794026096647 -0.39855316680617181 0 -0.054555520476286562 -0.41266461536202148 0 -0.038507826496757651 -0.39758358394080701 0 -0.052706794026096647 -0.39855316680617181 0 -0.055980648636277427 -0.38470280053580103 0 -0.052706794026096647 -0.39855316680617181 0 -0.054555520476286562 -0.41266461536202148 0 -0.067103533805515758 -0.40066667366291581 0 -0.054803678750457642 -0.42912316072858647 0 -0.040473104750091193 -0.42118698976279212 0 -0.054803678750457642 -0.42912316072858647 0 -0.05537297556633633 -0.44169932571716342 0 -0.069134252750824632 -0.43705933169437999 0 -0.054803678750457642 -0.42912316072858647 0 -0.069134252750824632 -0.43705933169437999 0 -0.054803678750457642 -0.42912316072858647 0 -0.054555520476286562 -0.41266461536202148 0 -0.040473104750091193 -0.42118698976279212 0 -0.054803678750457642 -0.42912316072858647 0 -0.054555520476286562 -0.41266461536202148 0 -0.072750681953317242 -0.42000813505098661 0 -0.030473632280652072 -0.40577191032583809 0 -0.038507826496757651 -0.39758358394080701 0 -0.040473104750091193 -0.42118698976279212 0 -0.040473104750091193 -0.42118698976279212 0 -0.028120846759602129 -0.43004187398067562 0 -0.025284173169561299 -0.41277546641364221 0 -0.038507826496757651 -0.39758358394080701 0 -0.040473104750091193 -0.42118698976279212 0 -0.038507826496757651 -0.39758358394080701 0 -0.054555520476286562 -0.41266461536202148 0 -0.040473104750091193 -0.42118698976279212 0 -0.030473632280652072 -0.40577191032583809 0 -0.040473104750091193 -0.42118698976279212 0 -0.025284173169561299 -0.41277546641364221 0 -0.040473104750091193 -0.42118698976279212 0 -0.025284173169561299 -0.41277546641364221 0 -0.040473104750091193 -0.42118698976279212 0 -0.042369428678535548 -0.44396223961713871 0 -0.033767272479226007 -0.43922137658094368 0 -0.054803678750457642 -0.42912316072858647 0 -0.040473104750091193 -0.42118698976279212 0 -0.042369428678535548 -0.44396223961713871 0 -0.040473104750091193 -0.42118698976279212 0 -0.042369428678535548 -0.44396223961713871 0 -0.040473104750091193 -0.42118698976279212 0 -0.028120846759602129 -0.43004187398067562 0 -0.033767272479226007 -0.43922137658094368 0 -0.01652887059874477 -0.4230955264678119 0 -0.022962499608458951 -0.44182710987113188 0 -0.028120846759602129 -0.43004187398067562 0 -0.01652887059874477 -0.4230955264678119 0 -0.025284173169561299 -0.41277546641364221 0 -0.028120846759602129 -0.43004187398067562 0 -0.02840915487679058 -0.43898758023187162 0 -0.022962499608458951 -0.44182710987113188 0 -0.028120846759602129 -0.43004187398067562 0 -0.01652887059874477 -0.4230955264678119 0 -0.022962499608458951 -0.44182710987113188 0 -0.01652887059874477 -0.4230955264678119 0 -0.01099706258334647 -0.43546615713206432 0 -0.022962499608458951 -0.44182710987113188 0 -0.028120846759602129 -0.43004187398067562 0 -0.02840915487679058 -0.43898758023187162 0 -0.033767272479226007 -0.43922137658094368 0 -0.010095241589031939 -0.4043639430644913 0 -0.01652887059874477 -0.4230955264678119 0 -0.025284173169561299 -0.41277546641364221 0 -0.02108549491961078 -0.40443439002349862 0 -0.030473632280652072 -0.40577191032583809 0 -0.025284173169561299 -0.41277546641364221 0 -0.010095241589031939 -0.4043639430644913 0 -0.02108549491961078 -0.40443439002349862 0 -0.025284173169561299 -0.41277546641364221 0 -0.010095241589031939 -0.4043639430644913 0 -0.025284173169561299 -0.41277546641364221 0 -0.010095241589031939 -0.4043639430644913 0 -0.01652887059874477 -0.4230955264678119 0 -0.0074445245816875351 -0.41687716278326509 0 -0.010095241589031939 -0.4043639430644913 0 -0.01652887059874477 -0.4230955264678119 0 -0.0074445245816875351 -0.41687716278326509 0 -0.001979991684668675 -0.42759904443131869 0 0.00025612791897663132 -0.41717800300300478 0 -0.0074445245816875351 -0.41687716278326509 0 -0.0040919387093841259 -0.41132293406626153 0 0.00025612791897663132 -0.41717800300300478 0 -0.0040919387093841259 -0.41132293406626153 0 0.00025612791897663132 -0.41717800300300478 0 0.0033072375369987321 -0.40645944597256622 0 -0.010095241589031939 -0.4043639430644913 0 -0.0074445245816875351 -0.41687716278326509 0 -0.0040919387093841259 -0.41132293406626153 0 -0.010095241589031939 -0.4043639430644913 0 -0.0040919387093841259 -0.41132293406626153 0 0.0033072375369987321 -0.40645944597256622 0 -0.01652887059874477 -0.4230955264678119 0 -0.01099706258334647 -0.43546615713206432 0 -0.001979991684668675 -0.42759904443131869 0 -0.01652887059874477 -0.4230955264678119 0 -0.0074445245816875351 -0.41687716278326509 0 -0.001979991684668675 -0.42759904443131869 0 -0.01099706258334647 -0.43546615713206432 0 -0.001979991684668675 -0.42759904443131869 0 -0.0016826269874589291 -0.44126704767427422 0 -0.01099706258334647 -0.43546615713206432 0 -0.0016826269874589291 -0.44126704767427422 0 -0.009360797471870257 -0.44891814729841312 0 -0.01099706258334647 -0.43546615713206432 0 -0.009360797471870257 -0.44891814729841312 0 -0.022962499608458951 -0.44182710987113188 0 -0.009360797471870257 -0.44891814729841312 0 0.0042409046647181644 -0.45600918472569513 0 -0.0016826269874589291 -0.44126704767427422 0 -0.009360797471870257 -0.44891814729841312 0 0.0042409046647181644 -0.45600918472569513 0 -0.009360797471870257 -0.44891814729841312 0 -0.0082919734208918572 -0.46099984523745441 0 0.0042409046647181644 -0.45600918472569513 0 -0.0082919734208918572 -0.46099984523745441 0 -0.001841178523428006 -0.47575028838721822 0 0.0042409046647181644 -0.45600918472569513 0 -0.0082919734208918572 -0.46099984523745441 0 -0.01733273373154488 -0.4682277352404457 0 -0.001841178523428006 -0.47575028838721822 0 -0.0082919734208918572 -0.46099984523745441 0 -0.017166062042334319 -0.45609387053549988 0 -0.01733273373154488 -0.4682277352404457 0 -0.009360797471870257 -0.44891814729841312 0 -0.0082919734208918572 -0.46099984523745441 0 -0.017166062042334319 -0.45609387053549988 0 -0.017166062042334319 -0.45609387053549988 0 -0.02977321650088716 -0.46165658889678718 0 -0.022962499608458951 -0.44182710987113188 0 -0.017166062042334319 -0.45609387053549988 0 -0.01733273373154488 -0.4682277352404457 0 -0.02977321650088716 -0.46165658889678718 0 -0.01733273373154488 -0.4682277352404457 0 -0.02977321650088716 -0.46165658889678718 0 -0.026350202463418959 -0.47378943370535509 0 -0.02977321650088716 -0.46165658889678718 0 -0.022962499608458951 -0.44182710987113188 0 -0.02977321650088716 -0.46165658889678718 0 -0.03080108369692543 -0.45021919491933338 0 -0.022962499608458951 -0.44182710987113188 0 -0.03080108369692543 -0.45021919491933338 0 -0.029310003934035229 -0.44335311403978528 0 -0.022962499608458951 -0.44182710987113188 0 -0.029310003934035229 -0.44335311403978528 0 -0.02840915487679058 -0.43898758023187162 0 -0.033767272479226007 -0.43922137658094368 0 -0.029310003934035229 -0.44335311403978528 0 -0.02840915487679058 -0.43898758023187162 0 -0.022962499608458951 -0.44182710987113188 0 -0.02840915487679058 -0.43898758023187162 0 -0.022962499608458951 -0.44182710987113188 0 -0.009360797471870257 -0.44891814729841312 0 -0.022962499608458951 -0.44182710987113188 0 -0.009360797471870257 -0.44891814729841312 0 -0.017166062042334319 -0.45609387053549988 0 -0.022962499608458951 -0.44182710987113188 0 -0.0079232617115688429 -0.49549139204874321 0 -0.001841178523428006 -0.47575028838721822 0 -0.021710926227927169 -0.48378734276174568 0 -0.0079232617115688429 -0.49549139204874321 0 -0.001841178523428006 -0.47575028838721822 0 -0.0079232617115688429 -0.49549139204874321 0 -0.025901493536125419 -0.5 0 0.002701892228864633 -0.5 0 -0.0079232617115688429 -0.49549139204874321 0 -0.001841178523428006 -0.47575028838721822 0 0.0019752836915401168 -0.48835755068953651 0 -0.0079232617115688429 -0.49549139204874321 0 0.002701892228864633 -0.5 0 0.0019752836915401168 -0.48835755068953651 0 -0.01733273373154488 -0.4682277352404457 0 -0.001841178523428006 -0.47575028838721822 0 -0.021710926227927169 -0.48378734276174568 0 -0.02977321650088716 -0.46165658889678718 0 -0.026350202463418959 -0.47378943370535509 0 -0.036583933393316642 -0.48148606792244208 0 -0.01733273373154488 -0.4682277352404457 0 -0.026350202463418959 -0.47378943370535509 0 -0.021710926227927169 -0.48378734276174568 0 -0.026350202463418959 -0.47378943370535509 0 -0.021710926227927169 -0.48378734276174568 0 -0.036583933393316642 -0.48148606792244208 0 -0.021710926227927169 -0.48378734276174568 0 -0.025901493536125419 -0.5 0 -0.036440237788198111 -0.49153343948585387 0 -0.0079232617115688429 -0.49549139204874321 0 -0.021710926227927169 -0.48378734276174568 0 -0.025901493536125419 -0.5 0 -0.036440237788198111 -0.49153343948585387 0 -0.046162076535423043 -0.48951273932583172 0 -0.054504879301115423 -0.5 0 -0.025901493536125419 -0.5 0 -0.036440237788198111 -0.49153343948585387 0 -0.054504879301115423 -0.5 0 -0.021710926227927169 -0.48378734276174568 0 -0.036440237788198111 -0.49153343948585387 0 -0.036583933393316642 -0.48148606792244208 0 -0.036440237788198111 -0.49153343948585387 0 -0.046162076535423043 -0.48951273932583172 0 -0.036583933393316642 -0.48148606792244208 0 -0.02977321650088716 -0.46165658889678718 0 -0.036583933393316642 -0.48148606792244208 0 -0.044265752606979292 -0.46673748947148508 0 -0.02977321650088716 -0.46165658889678718 0 -0.036583933393316642 -0.48148606792244208 0 -0.046162076535423043 -0.48951273932583172 0 -0.036583933393316642 -0.48148606792244208 0 -0.044265752606979292 -0.46673748947148508 0 -0.046162076535423043 -0.48951273932583172 0 -0.044265752606979292 -0.46673748947148508 0 -0.046162076535423043 -0.48951273932583172 0 -0.053544161986655688 -0.47732536682247823 0 -0.064461401220446427 -0.48351735489433872 0 -0.046162076535423043 -0.48951273932583172 0 -0.053544161986655688 -0.47732536682247823 0 -0.044265752606979292 -0.46673748947148508 0 -0.059287417583774052 -0.46953388359825737 0 -0.053544161986655688 -0.47732536682247823 0 -0.044265752606979292 -0.46673748947148508 0 -0.059287417583774052 -0.46953388359825737 0 -0.053544161986655688 -0.47732536682247823 0 -0.064461401220446427 -0.48351735489433872 0 -0.046162076535423043 -0.48951273932583172 0 -0.054504879301115423 -0.5 0 -0.064461401220446427 -0.48351735489433872 0 -0.03080108369692543 -0.45021919491933338 0 -0.042369428678535548 -0.44396223961713871 0 -0.033767272479226007 -0.43922137658094368 0 -0.03080108369692543 -0.45021919491933338 0 -0.029310003934035229 -0.44335311403978528 0 -0.033767272479226007 -0.43922137658094368 0 -0.02977321650088716 -0.46165658889678718 0 -0.03080108369692543 -0.45021919491933338 0 -0.044265752606979292 -0.46673748947148508 0 -0.03080108369692543 -0.45021919491933338 0 -0.042369428678535548 -0.44396223961713871 0 -0.044265752606979292 -0.46673748947148508 0 -0.042369428678535548 -0.44396223961713871 0 -0.044265752606979292 -0.46673748947148508 0 -0.042369428678535548 -0.44396223961713871 0 -0.044265752606979292 -0.46673748947148508 0 -0.059237123901245872 -0.45402436462484741 0 -0.059287417583774052 -0.46953388359825737 0 -0.044265752606979292 -0.46673748947148508 0 -0.059237123901245872 -0.45402436462484741 0 -0.042369428678535548 -0.44396223961713871 0 -0.059237123901245872 -0.45402436462484741 0 -0.05537297556633633 -0.44169932571716342 0 -0.059237123901245872 -0.45402436462484741 0 -0.05537297556633633 -0.44169932571716342 0 -0.069134252750824632 -0.43705933169437999 0 -0.054803678750457642 -0.42912316072858647 0 -0.042369428678535548 -0.44396223961713871 0 -0.05537297556633633 -0.44169932571716342 0 -0.077766578236155209 -0.4509780466006591 0 -0.069134252750824632 -0.43705933169437999 0 -0.08424433749071554 -0.43518735446900042 0 -0.059237123901245872 -0.45402436462484741 0 -0.077766578236155209 -0.4509780466006591 0 -0.069134252750824632 -0.43705933169437999 0 -0.059237123901245872 -0.45402436462484741 0 -0.077766578236155209 -0.4509780466006591 0 -0.075756384525736631 -0.46814450398627572 0 -0.059287417583774052 -0.46953388359825737 0 -0.059237123901245872 -0.45402436462484741 0 -0.075756384525736631 -0.46814450398627572 0 -0.077766578236155209 -0.4509780466006591 0 -0.075756384525736631 -0.46814450398627572 0 -0.092396136558077768 -0.46262876633192968 0 -0.077766578236155209 -0.4509780466006591 0 -0.092396136558077768 -0.46262876633192968 0 -0.091934375661522044 -0.44714782161470479 0 -0.077766578236155209 -0.4509780466006591 0 -0.091934375661522044 -0.44714782161470479 0 -0.08424433749071554 -0.43518735446900042 0 -0.091934375661522044 -0.44714782161470479 0 -0.1013926998180085 -0.43630473585034479 0 -0.08424433749071554 -0.43518735446900042 0 -0.054504879301115423 -0.5 0 -0.064461401220446427 -0.48351735489433872 0 -0.083108265066105247 -0.5 0 -0.059287417583774052 -0.46953388359825737 0 -0.075756384525736631 -0.46814450398627572 0 -0.064461401220446427 -0.48351735489433872 0 -0.075756384525736631 -0.46814450398627572 0 -0.064461401220446427 -0.48351735489433872 0 -0.091921744035980926 -0.48166859949508672 0 -0.075756384525736631 -0.46814450398627572 0 -0.092396136558077768 -0.46262876633192968 0 -0.091921744035980926 -0.48166859949508672 0 -0.064461401220446427 -0.48351735489433872 0 -0.091921744035980926 -0.48166859949508672 0 -0.083108265066105247 -0.5 0 -0.091921744035980926 -0.48166859949508672 0 -0.1109877335600462 -0.47305378788334362 0 -0.11171165083109511 -0.5 0 -0.091921744035980926 -0.48166859949508672 0 -0.083108265066105247 -0.5 0 -0.11171165083109511 -0.5 0 -0.092396136558077768 -0.46262876633192968 0 -0.091921744035980926 -0.48166859949508672 0 -0.1109877335600462 -0.47305378788334362 0 -0.12896729501594389 -0.48186460106281431 0 -0.1109877335600462 -0.47305378788334362 0 -0.11171165083109511 -0.5 0 -0.091934375661522044 -0.44714782161470479 0 -0.1071222525824482 -0.45260331638971191 0 -0.1013926998180085 -0.43630473585034479 0 -0.1071222525824482 -0.45260331638971191 0 -0.11872382667374071 -0.43964584133713308 0 -0.1013926998180085 -0.43630473585034479 0 -0.092396136558077768 -0.46262876633192968 0 -0.091934375661522044 -0.44714782161470479 0 -0.1071222525824482 -0.45260331638971191 0 -0.092396136558077768 -0.46262876633192968 0 -0.1109877335600462 -0.47305378788334362 0 -0.1071222525824482 -0.45260331638971191 0 -0.13577391542103959 -0.45987739019960588 0 -0.1109877335600462 -0.47305378788334362 0 -0.1071222525824482 -0.45260331638971191 0 -0.13577391542103959 -0.45987739019960588 0 -0.1071222525824482 -0.45260331638971191 0 -0.11872382667374071 -0.43964584133713308 0 -0.11872382667374071 -0.43964584133713308 0 -0.1013926998180085 -0.43630473585034479 0 -0.11349617631517731 -0.42159282191060488 0 -0.13803620093773211 -0.43137629061263782 0 -0.11872382667374071 -0.43964584133713308 0 -0.11349617631517731 -0.42159282191060488 0 -0.1013926998180085 -0.43630473585034479 0 -0.11349617631517731 -0.42159282191060488 0 -0.092835230184447073 -0.42165125938091408 0 -0.11349617631517731 -0.42159282191060488 0 -0.10521444695570301 -0.39705663325774848 0 -0.092835230184447073 -0.42165125938091408 0 -0.10521444695570301 -0.39705663325774848 0 -0.084102881099029997 -0.40454318406603618 0 -0.092835230184447073 -0.42165125938091408 0 -0.12957281029114509 -0.40914772216104478 0 -0.11349617631517731 -0.42159282191060488 0 -0.10521444695570301 -0.39705663325774848 0 -0.13111919527464341 -0.38402542691014502 0 -0.12957281029114509 -0.40914772216104478 0 -0.10521444695570301 -0.39705663325774848 0 -0.13111919527464341 -0.38402542691014502 0 -0.1161079148615633 -0.37190770513117222 0 -0.10521444695570301 -0.39705663325774848 0 -0.1161079148615633 -0.37190770513117222 0 -0.099141066207919515 -0.37624812255434859 0 -0.10521444695570301 -0.39705663325774848 0 -0.10521444695570301 -0.39705663325774848 0 -0.084102881099029997 -0.40454318406603618 0 -0.076813950519487764 -0.38207315512247447 0 -0.099141066207919515 -0.37624812255434859 0 -0.10521444695570301 -0.39705663325774848 0 -0.076813950519487764 -0.38207315512247447 0 -0.055980648636277427 -0.38470280053580103 0 -0.076813950519487764 -0.38207315512247447 0 -0.067103533805515758 -0.40066667366291581 0 -0.058153693381436757 -0.36310437533437728 0 -0.055980648636277427 -0.38470280053580103 0 -0.076813950519487764 -0.38207315512247447 0 -0.084102881099029997 -0.40454318406603618 0 -0.076813950519487764 -0.38207315512247447 0 -0.067103533805515758 -0.40066667366291581 0 -0.084102881099029997 -0.40454318406603618 0 -0.067103533805515758 -0.40066667366291581 0 -0.072750681953317242 -0.42000813505098661 0 -0.054555520476286562 -0.41266461536202148 0 -0.067103533805515758 -0.40066667366291581 0 -0.072750681953317242 -0.42000813505098661 0 -0.054803678750457642 -0.42912316072858647 0 -0.072750681953317242 -0.42000813505098661 0 -0.069134252750824632 -0.43705933169437999 0 -0.072750681953317242 -0.42000813505098661 0 -0.069134252750824632 -0.43705933169437999 0 -0.08424433749071554 -0.43518735446900042 0 -0.072750681953317242 -0.42000813505098661 0 -0.08424433749071554 -0.43518735446900042 0 -0.092835230184447073 -0.42165125938091408 0 -0.1013926998180085 -0.43630473585034479 0 -0.08424433749071554 -0.43518735446900042 0 -0.092835230184447073 -0.42165125938091408 0 -0.084102881099029997 -0.40454318406603618 0 -0.072750681953317242 -0.42000813505098661 0 -0.092835230184447073 -0.42165125938091408 0 -0.080453507918830686 -0.084071323991046623 0 -0.083637709780514796 -0.067964454877960628 0 -0.095332560500188596 -0.085096901398002467 0 -0.080453507918830686 -0.084071323991046623 0 -0.07966438873163742 -0.091669399391028306 0 -0.092178839589099559 -0.093288406607507229 0 -0.080453507918830686 -0.084071323991046623 0 -0.092178839589099559 -0.093288406607507229 0 -0.095332560500188596 -0.085096901398002467 0 -0.083637709780514796 -0.067964454877960628 0 -0.095332560500188596 -0.085096901398002467 0 -0.099337523467208561 -0.069805298281691991 0 -0.083637709780514796 -0.067964454877960628 0 -0.095332560500188596 -0.085096901398002467 0 -0.083637709780514796 -0.067964454877960628 0 -0.065713022691063716 -0.086342030926442687 0 -0.062980515516116234 -0.060020796382159597 0 -0.065713022691063716 -0.086342030926442687 0 -0.062980515516116234 -0.060020796382159597 0 -0.080453507918830686 -0.084071323991046623 0 -0.083637709780514796 -0.067964454877960628 0 -0.065713022691063716 -0.086342030926442687 0 -0.07966438873163742 -0.091669399391028306 0 -0.065713022691063716 -0.086342030926442687 0 -0.080312184727555677 -0.1029758360391167 0 -0.080453507918830686 -0.084071323991046623 0 -0.07966438873163742 -0.091669399391028306 0 -0.065713022691063716 -0.086342030926442687 0 -0.065713022691063716 -0.086342030926442687 0 -0.06844552986601149 -0.11266326547072569 0 -0.065713022691063716 -0.086342030926442687 0 -0.06844552986601149 -0.11266326547072569 0 -0.056420316685233618 -0.1021235592443772 0 -0.065713022691063716 -0.086342030926442687 0 -0.06844552986601149 -0.11266326547072569 0 -0.080312184727555677 -0.1029758360391167 0 -0.06844552986601149 -0.11266326547072569 0 -0.080312184727555677 -0.1029758360391167 0 -0.06844552986601149 -0.11266326547072569 0 -0.070729328769619293 -0.13466225860969211 0 -0.06844552986601149 -0.11266326547072569 0 -0.050330724342698113 -0.12745141783733169 0 -0.070729328769619293 -0.13466225860969211 0 -0.06844552986601149 -0.11266326547072569 0 -0.083915119944456829 -0.1179996920943223 0 -0.070729328769619293 -0.13466225860969211 0 -0.06844552986601149 -0.11266326547072569 0 -0.083915119944456829 -0.1179996920943223 0 -0.080312184727555677 -0.1029758360391167 0 -0.083915119944456829 -0.1179996920943223 0 -0.089619269339755919 -0.1088926294269319 0 -0.1002804833808965 -0.11664823327993221 0 -0.083915119944456829 -0.1179996920943223 0 -0.1002804833808965 -0.11664823327993221 0 -0.093213328287597874 -0.13085961013338551 0 -0.083915119944456829 -0.1179996920943223 0 -0.080312184727555677 -0.1029758360391167 0 -0.089619269339755919 -0.1088926294269319 0 -0.07966438873163742 -0.091669399391028306 0 -0.092178839589099559 -0.093288406607507229 0 -0.080312184727555677 -0.1029758360391167 0 -0.092178839589099559 -0.093288406607507229 0 -0.080312184727555677 -0.1029758360391167 0 -0.089619269339755919 -0.1088926294269319 0 -0.092178839589099559 -0.093288406607507229 0 -0.089619269339755919 -0.1088926294269319 0 -0.098118140554617816 -0.1031606711844375 0 -0.092178839589099559 -0.093288406607507229 0 -0.080312184727555677 -0.1029758360391167 0 -0.092178839589099559 -0.093288406607507229 0 -0.098118140554617816 -0.1031606711844375 0 -0.1024471446333886 -0.094186844366760891 0 -0.098118140554617816 -0.1031606711844375 0 -0.10807763400774829 -0.1064421622021465 0 -0.1002804833808965 -0.11664823327993221 0 -0.098118140554617816 -0.1031606711844375 0 -0.10807763400774829 -0.1064421622021465 0 -0.1024471446333886 -0.094186844366760891 0 -0.10807763400774829 -0.1064421622021465 0 -0.1024471446333886 -0.094186844366760891 0 -0.11390386430501891 -0.095344785472267685 0 -0.1002804833808965 -0.11664823327993221 0 -0.11821568245561059 -0.1136071370108379 0 -0.1086675953805302 -0.13367601023245521 0 -0.10807763400774829 -0.1064421622021465 0 -0.1002804833808965 -0.11664823327993221 0 -0.11821568245561059 -0.1136071370108379 0 -0.089619269339755919 -0.1088926294269319 0 -0.098118140554617816 -0.1031606711844375 0 -0.1002804833808965 -0.11664823327993221 0 -0.11821568245561059 -0.1136071370108379 0 -0.11390386430501891 -0.095344785472267685 0 -0.1244918998790102 -0.098597789864215385 0 -0.10807763400774829 -0.1064421622021465 0 -0.11821568245561059 -0.1136071370108379 0 -0.11390386430501891 -0.095344785472267685 0 -0.11390386430501891 -0.095344785472267685 0 -0.1244918998790102 -0.098597789864215385 0 -0.12776216479548941 -0.088274220775726886 0 -0.11390386430501891 -0.095344785472267685 0 -0.1123104451600047 -0.07958598034044384 0 -0.10424393223372511 -0.083920027762676902 0 -0.11390386430501891 -0.095344785472267685 0 -0.1123104451600047 -0.07958598034044384 0 -0.12776216479548941 -0.088274220775726886 0 -0.1024471446333886 -0.094186844366760891 0 -0.11390386430501891 -0.095344785472267685 0 -0.10424393223372511 -0.083920027762676902 0 -0.10424393223372511 -0.083920027762676902 0 -0.095332560500188596 -0.085096901398002467 0 -0.099337523467208561 -0.069805298281691991 0 -0.1024471446333886 -0.094186844366760891 0 -0.10424393223372511 -0.083920027762676902 0 -0.095332560500188596 -0.085096901398002467 0 -0.092178839589099559 -0.093288406607507229 0 -0.1024471446333886 -0.094186844366760891 0 -0.095332560500188596 -0.085096901398002467 0 -0.1123104451600047 -0.07958598034044384 0 -0.10424393223372511 -0.083920027762676902 0 -0.099337523467208561 -0.069805298281691991 0 -0.1123104451600047 -0.07958598034044384 0 -0.099337523467208561 -0.069805298281691991 0 -0.1224892812973684 -0.065922536236909704 0 -0.1123104451600047 -0.07958598034044384 0 -0.1224892812973684 -0.065922536236909704 0 -0.12776216479548941 -0.088274220775726886 0 -0.099337523467208561 -0.069805298281691991 0 -0.1224892812973684 -0.065922536236909704 0 -0.1140844819342722 -0.051354354326794187 0 -0.1224892812973684 -0.065922536236909704 0 -0.1140844819342722 -0.051354354326794187 0 -0.13383949580465801 -0.044496257040711647 0 -0.1140844819342722 -0.051354354326794187 0 -0.11609523705097009 -0.029329697001540551 0 -0.13383949580465801 -0.044496257040711647 0 -0.1140844819342722 -0.051354354326794187 0 -0.098660872051155882 -0.047217983073117031 0 -0.11609523705097009 -0.029329697001540551 0 -0.098660872051155882 -0.047217983073117031 0 -0.11609523705097009 -0.029329697001540551 0 -0.094513941359242321 -0.02934048108520752 0 -0.099337523467208561 -0.069805298281691991 0 -0.1140844819342722 -0.051354354326794187 0 -0.098660872051155882 -0.047217983073117031 0 -0.083637709780514796 -0.067964454877960628 0 -0.099337523467208561 -0.069805298281691991 0 -0.098660872051155882 -0.047217983073117031 0 -0.11609523705097009 -0.029329697001540551 0 -0.1054185501667486 -0.01352855997925336 0 -0.12787206249873251 -0.0031963116537159961 0 -0.1054185501667486 -0.01352855997925336 0 -0.12787206249873251 -0.0031963116537159961 0 -0.10216785683878001 0.0048525866166629558 0 -0.11609523705097009 -0.029329697001540551 0 -0.094513941359242321 -0.02934048108520752 0 -0.1054185501667486 -0.01352855997925336 0 -0.1054185501667486 -0.01352855997925336 0 -0.081095530215644571 -0.01334075696485762 0 -0.10216785683878001 0.0048525866166629558 0 -0.081095530215644571 -0.01334075696485762 0 -0.10216785683878001 0.0048525866166629558 0 -0.077149446155853077 0.0072569184755020763 0 -0.081095530215644571 -0.01334075696485762 0 -0.10216785683878001 0.0048525866166629558 0 -0.094513941359242321 -0.02934048108520752 0 -0.1054185501667486 -0.01352855997925336 0 -0.081095530215644571 -0.01334075696485762 0 -0.094513941359242321 -0.02934048108520752 0 -0.081095530215644571 -0.01334075696485762 0 -0.079589511256629095 -0.030611449738942569 0 -0.081095530215644571 -0.01334075696485762 0 -0.060023203592510198 -0.031534100546379402 0 -0.057566748591418748 -0.0078719748531606328 0 -0.081095530215644571 -0.01334075696485762 0 -0.068662095828300268 -0.031209573847101421 0 -0.060023203592510198 -0.031534100546379402 0 -0.081095530215644571 -0.01334075696485762 0 -0.060023203592510198 -0.031534100546379402 0 -0.081095530215644571 -0.01334075696485762 0 -0.079589511256629095 -0.030611449738942569 0 -0.068662095828300268 -0.031209573847101421 0 -0.081095530215644571 -0.01334075696485762 0 -0.057566748591418748 -0.0078719748531606328 0 -0.077149446155853077 0.0072569184755020763 0 -0.083637709780514796 -0.067964454877960628 0 -0.083549885979118957 -0.043370369849729987 0 -0.071942859060840997 -0.050832008357918797 0 -0.083637709780514796 -0.067964454877960628 0 -0.098660872051155882 -0.047217983073117031 0 -0.083549885979118957 -0.043370369849729987 0 -0.098660872051155882 -0.047217983073117031 0 -0.094513941359242321 -0.02934048108520752 0 -0.083549885979118957 -0.043370369849729987 0 -0.094513941359242321 -0.02934048108520752 0 -0.079589511256629095 -0.030611449738942569 0 -0.083549885979118957 -0.043370369849729987 0 -0.079589511256629095 -0.030611449738942569 0 -0.083549885979118957 -0.043370369849729987 0 -0.071895285196126785 -0.038453650472282982 0 -0.071942859060840997 -0.050832008357918797 0 -0.060248008341167933 -0.03369956183787641 0 -0.071895285196126785 -0.038453650472282982 0 -0.071942859060840997 -0.050832008357918797 0 -0.060248008341167933 -0.03369956183787641 0 -0.083549885979118957 -0.043370369849729987 0 -0.071895285196126785 -0.038453650472282982 0 -0.071942859060840997 -0.050832008357918797 0 -0.079589511256629095 -0.030611449738942569 0 -0.068662095828300268 -0.031209573847101421 0 -0.071895285196126785 -0.038453650472282982 0 -0.068662095828300268 -0.031209573847101421 0 -0.060023203592510198 -0.031534100546379402 0 -0.060248008341167933 -0.03369956183787641 0 -0.068662095828300268 -0.031209573847101421 0 -0.071895285196126785 -0.038453650472282982 0 -0.060248008341167933 -0.03369956183787641 0 -0.071942859060840997 -0.050832008357918797 0 -0.062980515516116234 -0.060020796382159597 0 -0.060248008341167933 -0.03369956183787641 0 -0.083637709780514796 -0.067964454877960628 0 -0.071942859060840997 -0.050832008357918797 0 -0.062980515516116234 -0.060020796382159597 0 -0.083637709780514796 -0.067964454877960628 0 -0.071942859060840997 -0.050832008357918797 0 -0.062980515516116234 -0.060020796382159597 0 -0.053505882015831931 -0.057545009272693737 0 -0.050940698327275227 -0.066995831163940534 0 -0.062980515516116234 -0.060020796382159597 0 -0.053505882015831931 -0.057545009272693737 0 -0.052283369133884552 -0.047828854476192201 0 -0.062980515516116234 -0.060020796382159597 0 -0.052283369133884552 -0.047828854476192201 0 -0.060248008341167933 -0.03369956183787641 0 -0.053505882015831931 -0.057545009272693737 0 -0.047482009981432372 -0.055352836544679533 0 -0.050940698327275227 -0.066995831163940534 0 -0.053505882015831931 -0.057545009272693737 0 -0.047482009981432372 -0.055352836544679533 0 -0.052283369133884552 -0.047828854476192201 0 -0.060023203592510198 -0.031534100546379402 0 -0.039854569872736507 -0.041460969231238501 0 -0.04402444996085713 -0.034118483485863382 0 -0.062980515516116234 -0.060020796382159597 0 -0.060248008341167933 -0.03369956183787641 0 -0.052283369133884552 -0.047828854476192201 0 -0.060023203592510198 -0.031534100546379402 0 -0.060248008341167933 -0.03369956183787641 0 -0.060023203592510198 -0.031534100546379402 0 -0.036556236100000097 -0.051794919868476688 0 -0.052283369133884552 -0.047828854476192201 0 -0.060023203592510198 -0.031534100546379402 0 -0.036556236100000097 -0.051794919868476688 0 -0.060023203592510198 -0.031534100546379402 0 -0.060248008341167933 -0.03369956183787641 0 -0.060023203592510198 -0.031534100546379402 0 -0.039854569872736507 -0.041460969231238501 0 -0.036556236100000097 -0.051794919868476688 0 -0.04402444996085713 -0.034118483485863382 0 -0.03637601110207711 -0.035537101087416187 0 -0.039650043247066433 -0.025002983544905499 0 -0.039854569872736507 -0.041460969231238501 0 -0.04402444996085713 -0.034118483485863382 0 -0.03637601110207711 -0.035537101087416187 0 -0.03637601110207711 -0.035537101087416187 0 -0.029762631086511591 -0.030565951026801388 0 -0.031133756643264229 -0.039514543433774363 0 -0.039854569872736507 -0.041460969231238501 0 -0.03637601110207711 -0.035537101087416187 0 -0.031133756643264229 -0.039514543433774363 0 -0.035249382854796701 -0.046017504124236469 0 -0.032051717244741942 -0.049253174703526761 0 -0.031133756643264229 -0.039514543433774363 0 -0.039854569872736507 -0.041460969231238501 0 -0.035249382854796701 -0.046017504124236469 0 -0.036556236100000097 -0.051794919868476688 0 -0.039854569872736507 -0.041460969231238501 0 -0.035249382854796701 -0.046017504124236469 0 -0.031133756643264229 -0.039514543433774363 0 -0.032051717244741942 -0.049253174703526761 0 -0.050940698327275227 -0.066995831163940534 0 -0.035249382854796701 -0.046017504124236469 0 -0.032051717244741942 -0.049253174703526761 0 -0.036556236100000097 -0.051794919868476688 0 -0.032051717244741942 -0.049253174703526761 0 -0.036556236100000097 -0.051794919868476688 0 -0.050940698327275227 -0.066995831163940534 0 -0.047482009981432372 -0.055352836544679533 0 -0.052283369133884552 -0.047828854476192201 0 -0.036556236100000097 -0.051794919868476688 0 -0.032051717244741942 -0.049253174703526761 0 -0.033653420939448959 -0.061351119253756498 0 -0.050940698327275227 -0.066995831163940534 0 -0.047482009981432372 -0.055352836544679533 0 -0.036556236100000097 -0.051794919868476688 0 -0.050940698327275227 -0.066995831163940534 0 -0.057566748591418748 -0.0078719748531606328 0 -0.050834022615698547 -0.019908483110321611 0 -0.041868970084843048 -0.0131895406628828 0 -0.060023203592510198 -0.031534100546379402 0 -0.057566748591418748 -0.0078719748531606328 0 -0.060023203592510198 -0.031534100546379402 0 -0.04402444996085713 -0.034118483485863382 0 -0.048435778876728543 -0.027811228117540408 0 -0.060023203592510198 -0.031534100546379402 0 -0.057566748591418748 -0.0078719748531606328 0 -0.050834022615698547 -0.019908483110321611 0 -0.060023203592510198 -0.031534100546379402 0 -0.050834022615698547 -0.019908483110321611 0 -0.060023203592510198 -0.031534100546379402 0 -0.050834022615698547 -0.019908483110321611 0 -0.048435778876728543 -0.027811228117540408 0 -0.050834022615698547 -0.019908483110321611 0 -0.048435778876728543 -0.027811228117540408 0 -0.039650043247066433 -0.025002983544905499 0 -0.04402444996085713 -0.034118483485863382 0 -0.048435778876728543 -0.027811228117540408 0 -0.039650043247066433 -0.025002983544905499 0 -0.03637601110207711 -0.035537101087416187 0 -0.039650043247066433 -0.025002983544905499 0 -0.029762631086511591 -0.030565951026801388 0 -0.039650043247066433 -0.025002983544905499 0 -0.02919269758072621 -0.017534950840122202 0 -0.029762631086511591 -0.030565951026801388 0 -0.039650043247066433 -0.025002983544905499 0 -0.041868970084843048 -0.0131895406628828 0 -0.02919269758072621 -0.017534950840122202 0 -0.050834022615698547 -0.019908483110321611 0 -0.039650043247066433 -0.025002983544905499 0 -0.041868970084843048 -0.0131895406628828 0 -0.057566748591418748 -0.0078719748531606328 0 -0.041868970084843048 -0.0131895406628828 0 -0.037944320861429709 0.00047776945039190331 0 -0.041868970084843048 -0.0131895406628828 0 -0.02919269758072621 -0.017534950840122202 0 -0.037944320861429709 0.00047776945039190331 0 -0.01626918420181778 -0.0024443268281072392 0 -0.02919269758072621 -0.017534950840122202 0 -0.037944320861429709 0.00047776945039190331 0 -0.01626918420181778 -0.0024443268281072392 0 -0.02919269758072621 -0.017534950840122202 0 -0.01316273616220448 -0.031510518243117222 0 -0.02919269758072621 -0.017534950840122202 0 -0.029762631086511591 -0.030565951026801388 0 -0.01316273616220448 -0.031510518243117222 0 -0.01626918420181778 -0.0024443268281072392 0 -0.01316273616220448 -0.031510518243117222 0 0.0001562072125391549 -0.018999867950155999 0 -0.01626918420181778 -0.0024443268281072392 0 -0.01316273616220448 -0.031510518243117222 0 -0.01316273616220448 -0.031510518243117222 0 0.0001562072125391549 -0.018999867950155999 0 0.0029138699203563249 -0.030526754590547031 0 -0.01316273616220448 -0.031510518243117222 0 0.0001562072125391549 -0.018999867950155999 0 -0.01626918420181778 -0.0024443268281072392 0 0.0020542870866122722 -0.002457931916927811 0 0.0001562072125391549 -0.018999867950155999 0 -0.020991323271545889 -0.04919565070784554 0 -0.022944818035704698 -0.059110135847644983 0 -0.01083000976401156 -0.053337206197949343 0 -0.033653420939448959 -0.061351119253756498 0 -0.022944818035704698 -0.059110135847644983 0 -0.026998038523776479 -0.054167433962135143 0 -0.032051717244741942 -0.049253174703526761 0 -0.033653420939448959 -0.061351119253756498 0 -0.026998038523776479 -0.054167433962135143 0 -0.032051717244741942 -0.049253174703526761 0 -0.020991323271545889 -0.04919565070784554 0 -0.026998038523776479 -0.054167433962135143 0 -0.020991323271545889 -0.04919565070784554 0 -0.022944818035704698 -0.059110135847644983 0 -0.026998038523776479 -0.054167433962135143 0 -0.032051717244741942 -0.049253174703526761 0 -0.01316273616220448 -0.031510518243117222 0 -0.032051717244741942 -0.049253174703526761 0 -0.031133756643264229 -0.039514543433774363 0 -0.01316273616220448 -0.031510518243117222 0 -0.032051717244741942 -0.049253174703526761 0 -0.020991323271545889 -0.04919565070784554 0 -0.01316273616220448 -0.031510518243117222 0 -0.029762631086511591 -0.030565951026801388 0 -0.031133756643264229 -0.039514543433774363 0 -0.01316273616220448 -0.031510518243117222 0 -0.020991323271545889 -0.04919565070784554 0 -0.01316273616220448 -0.031510518243117222 0 -0.01083000976401156 -0.053337206197949343 0 -0.01316273616220448 -0.031510518243117222 0 -0.01083000976401156 -0.053337206197949343 0 -0.01316273616220448 -0.031510518243117222 0 -6.9695087766884393e-05 -0.042547024606407399 0 0.0029138699203563249 -0.030526754590547031 0 -0.01316273616220448 -0.031510518243117222 0 -6.9695087766884393e-05 -0.042547024606407399 0 -0.01083000976401156 -0.053337206197949343 0 -6.9695087766884393e-05 -0.042547024606407399 0 -0.01083000976401156 -0.053337206197949343 0 0.002974761349226791 -0.057600111844622673 0 -0.01083000976401156 -0.053337206197949343 0 -0.008497283365819109 -0.075163894152781574 0 0.002974761349226791 -0.057600111844622673 0 -0.022944818035704698 -0.059110135847644983 0 -0.01083000976401156 -0.053337206197949343 0 -0.008497283365819109 -0.075163894152781574 0 -0.01083000976401156 -0.053337206197949343 0 -0.008497283365819109 -0.075163894152781574 0 -0.008497283365819109 -0.075163894152781574 0 0.002974761349226791 -0.057600111844622673 0 -0.008497283365819109 -0.075163894152781574 0 -0.024891910687713559 -0.1002641855531199 0 -0.0063575468247982752 -0.095184828379244052 0 -0.008497283365819109 -0.075163894152781574 0 -0.0063575468247982752 -0.095184828379244052 0 -0.008497283365819109 -0.075163894152781574 0 -0.0063575468247982752 -0.095184828379244052 0 0.0093292929231258565 -0.083383488769817202 0 -0.026330557614860299 -0.083417342870486424 0 -0.031467522511207359 -0.093263716997115123 0 -0.024891910687713559 -0.1002641855531199 0 -0.008497283365819109 -0.075163894152781574 0 -0.026330557614860299 -0.083417342870486424 0 -0.024891910687713559 -0.1002641855531199 0 -0.008497283365819109 -0.075163894152781574 0 -0.024891910687713559 -0.1002641855531199 0 -0.022944818035704698 -0.059110135847644983 0 -0.008497283365819109 -0.075163894152781574 0 -0.02965234907454559 -0.070733574390658221 0 -0.008497283365819109 -0.075163894152781574 0 -0.026330557614860299 -0.083417342870486424 0 -0.02965234907454559 -0.070733574390658221 0 -0.033653420939448959 -0.061351119253756498 0 -0.022944818035704698 -0.059110135847644983 0 -0.02965234907454559 -0.070733574390658221 0 -0.033653420939448959 -0.061351119253756498 0 -0.040393798830505208 -0.072080788334064061 0 -0.050940698327275227 -0.066995831163940534 0 -0.033653420939448959 -0.061351119253756498 0 -0.02965234907454559 -0.070733574390658221 0 -0.040393798830505208 -0.072080788334064061 0 -0.040393798830505208 -0.072080788334064061 0 -0.048972475074602652 -0.079826925053822273 0 -0.050940698327275227 -0.066995831163940534 0 -0.02965234907454559 -0.070733574390658221 0 -0.040393798830505208 -0.072080788334064061 0 -0.038181223639061949 -0.082751921349188615 0 -0.026330557614860299 -0.083417342870486424 0 -0.02965234907454559 -0.070733574390658221 0 -0.038181223639061949 -0.082751921349188615 0 -0.026330557614860299 -0.083417342870486424 0 -0.038181223639061949 -0.082751921349188615 0 -0.031467522511207359 -0.093263716997115123 0 -0.038181223639061949 -0.082751921349188615 0 -0.031467522511207359 -0.093263716997115123 0 -0.040343522138522353 -0.094249036293018104 0 -0.038181223639061949 -0.082751921349188615 0 -0.049633631885107138 -0.090964053495475483 0 -0.040343522138522353 -0.094249036293018104 0 -0.038181223639061949 -0.082751921349188615 0 -0.048972475074602652 -0.079826925053822273 0 -0.049633631885107138 -0.090964053495475483 0 -0.040393798830505208 -0.072080788334064061 0 -0.038181223639061949 -0.082751921349188615 0 -0.048972475074602652 -0.079826925053822273 0 -0.065713022691063716 -0.086342030926442687 0 -0.048972475074602652 -0.079826925053822273 0 -0.049633631885107138 -0.090964053495475483 0 -0.065713022691063716 -0.086342030926442687 0 -0.049633631885107138 -0.090964053495475483 0 -0.056420316685233618 -0.1021235592443772 0 -0.065713022691063716 -0.086342030926442687 0 -0.048972475074602652 -0.079826925053822273 0 -0.050940698327275227 -0.066995831163940534 0 -0.065713022691063716 -0.086342030926442687 0 -0.062980515516116234 -0.060020796382159597 0 -0.050940698327275227 -0.066995831163940534 0 -0.06844552986601149 -0.11266326547072569 0 -0.050330724342698113 -0.12745141783733169 0 -0.06844552986601149 -0.11266326547072569 0 -0.052361271392276157 -0.1129372739394479 0 -0.050330724342698113 -0.12745141783733169 0 -0.052361271392276157 -0.1129372739394479 0 -0.041836428760536948 -0.1180803183434207 0 -0.050330724342698113 -0.12745141783733169 0 -0.06844552986601149 -0.11266326547072569 0 -0.052361271392276157 -0.1129372739394479 0 -0.056420316685233618 -0.1021235592443772 0 -0.049633631885107138 -0.090964053495475483 0 -0.056420316685233618 -0.1021235592443772 0 -0.044773357306900588 -0.1043678088013843 0 -0.052361271392276157 -0.1129372739394479 0 -0.056420316685233618 -0.1021235592443772 0 -0.044773357306900588 -0.1043678088013843 0 -0.049633631885107138 -0.090964053495475483 0 -0.044773357306900588 -0.1043678088013843 0 -0.040343522138522353 -0.094249036293018104 0 -0.044773357306900588 -0.1043678088013843 0 -0.040343522138522353 -0.094249036293018104 0 -0.035499156922514909 -0.10163125406896829 0 -0.031467522511207359 -0.093263716997115123 0 -0.035499156922514909 -0.10163125406896829 0 -0.029743983565416261 -0.10062277297473519 0 -0.031467522511207359 -0.093263716997115123 0 -0.040343522138522353 -0.094249036293018104 0 -0.035499156922514909 -0.10163125406896829 0 -0.035499156922514909 -0.10163125406896829 0 -0.034678440124800668 -0.110598474477138 0 -0.03069611822382937 -0.10574109316299619 0 -0.044773357306900588 -0.1043678088013843 0 -0.035499156922514909 -0.10163125406896829 0 -0.034678440124800668 -0.110598474477138 0 -0.035499156922514909 -0.10163125406896829 0 -0.029743983565416261 -0.10062277297473519 0 -0.03069611822382937 -0.10574109316299619 0 -0.034678440124800668 -0.110598474477138 0 -0.041836428760536948 -0.1180803183434207 0 -0.033457208023052729 -0.11964247462693819 0 -0.034678440124800668 -0.110598474477138 0 -0.033457208023052729 -0.11964247462693819 0 -0.02971407469741413 -0.1145646552802899 0 -0.044773357306900588 -0.1043678088013843 0 -0.034678440124800668 -0.110598474477138 0 -0.041836428760536948 -0.1180803183434207 0 -0.052361271392276157 -0.1129372739394479 0 -0.044773357306900588 -0.1043678088013843 0 -0.041836428760536948 -0.1180803183434207 0 -0.041836428760536948 -0.1180803183434207 0 -0.033457208023052729 -0.11964247462693819 0 -0.034242801088684521 -0.13014109678987409 0 -0.0087428495734456942 -0.1174566533529136 0 -0.034242801088684521 -0.13014109678987409 0 -0.033457208023052729 -0.11964247462693819 0 -0.025002089037425301 -0.1180565655724486 0 -0.02971407469741413 -0.1145646552802899 0 -0.025002089037425301 -0.1180565655724486 0 -0.0087428495734456942 -0.1174566533529136 0 -0.034242801088684521 -0.13014109678987409 0 -0.033457208023052729 -0.11964247462693819 0 -0.025002089037425301 -0.1180565655724486 0 -0.034242801088684521 -0.13014109678987409 0 -0.025002089037425301 -0.1180565655724486 0 -0.02571856160437783 -0.1099611064446346 0 -0.0087428495734456942 -0.1174566533529136 0 -0.034678440124800668 -0.110598474477138 0 -0.02971407469741413 -0.1145646552802899 0 -0.02571856160437783 -0.1099611064446346 0 -0.025002089037425301 -0.1180565655724486 0 -0.02971407469741413 -0.1145646552802899 0 -0.02571856160437783 -0.1099611064446346 0 -0.024891910687713559 -0.1002641855531199 0 -0.0087428495734456942 -0.1174566533529136 0 -0.02571856160437783 -0.1099611064446346 0 -0.024891910687713559 -0.1002641855531199 0 -0.0087428495734456942 -0.1174566533529136 0 -0.031467522511207359 -0.093263716997115123 0 -0.024891910687713559 -0.1002641855531199 0 -0.031467522511207359 -0.093263716997115123 0 -0.029743983565416261 -0.10062277297473519 0 -0.024891910687713559 -0.1002641855531199 0 -0.029743983565416261 -0.10062277297473519 0 -0.024891910687713559 -0.1002641855531199 0 -0.0261652094818162 -0.1022136150914764 0 -0.024891910687713559 -0.1002641855531199 0 -0.0261652094818162 -0.1022136150914764 0 -0.034678440124800668 -0.110598474477138 0 -0.02571856160437783 -0.1099611064446346 0 -0.03069611822382937 -0.10574109316299619 0 -0.02571856160437783 -0.1099611064446346 0 -0.024891910687713559 -0.1002641855531199 0 -0.0261652094818162 -0.1022136150914764 0 -0.029743983565416261 -0.10062277297473519 0 -0.0261652094818162 -0.1022136150914764 0 -0.03069611822382937 -0.10574109316299619 0 -0.02571856160437783 -0.1099611064446346 0 -0.0261652094818162 -0.1022136150914764 0 -0.03069611822382937 -0.10574109316299619 0 -0.024891910687713559 -0.1002641855531199 0 -0.0063575468247982752 -0.095184828379244052 0 -0.0087428495734456942 -0.1174566533529136 0 -0.0063575468247982752 -0.095184828379244052 0 -0.0042178102837748012 -0.1152057626057062 0 -0.0063575468247982752 -0.095184828379244052 0 -0.0087428495734456942 -0.1174566533529136 0 -0.0042178102837748012 -0.1152057626057062 0 -0.0087428495734456942 -0.1174566533529136 0 -0.003365398688040238 -0.12318154661688729 0 -0.01687790987372282 -0.12872613392754451 0 -0.0087428495734456942 -0.1174566533529136 0 -0.0042178102837748012 -0.1152057626057062 0 -0.0087428495734456942 -0.1174566533529136 0 -0.0042178102837748012 -0.1152057626057062 0 -0.003365398688040238 -0.12318154661688729 0 -0.0042178102837748012 -0.1152057626057062 0 -0.003365398688040238 -0.12318154661688729 0 -0.0087428495734456942 -0.1174566533529136 0 -0.003365398688040238 -0.12318154661688729 0 -0.003365398688040238 -0.12318154661688729 0 -0.00029321598637492558 -0.1519271265621164 0 -0.003365398688040238 -0.12318154661688729 0 -0.01401243906613432 -0.13843012333062771 0 -0.00029321598637492558 -0.1519271265621164 0 -0.003365398688040238 -0.12318154661688729 0 -0.01401243906613432 -0.13843012333062771 0 -0.01687790987372282 -0.12872613392754451 0 -0.0087428495734456942 -0.1174566533529136 0 -0.01687790987372282 -0.12872613392754451 0 -0.034242801088684521 -0.13014109678987409 0 -0.01687790987372282 -0.12872613392754451 0 -0.024026060952302759 -0.13442124954741499 0 -0.034242801088684521 -0.13014109678987409 0 -0.01401243906613432 -0.13843012333062771 0 -0.024026060952302759 -0.13442124954741499 0 -0.032215918819384501 -0.1422395702039371 0 -0.01401243906613432 -0.13843012333062771 0 -0.01687790987372282 -0.12872613392754451 0 -0.024026060952302759 -0.13442124954741499 0 -0.024026060952302759 -0.13442124954741499 0 -0.034242801088684521 -0.13014109678987409 0 -0.032215918819384501 -0.1422395702039371 0 -0.02895731266195032 -0.15335694981413719 0 -0.01410111329607132 -0.15702772257054309 0 -0.032215918819384501 -0.1422395702039371 0 -0.01401243906613432 -0.13843012333062771 0 -0.01247485438968244 -0.1475744514967848 0 -0.032215918819384501 -0.1422395702039371 0 -0.01410111329607132 -0.15702772257054309 0 -0.032215918819384501 -0.1422395702039371 0 -0.01247485438968244 -0.1475744514967848 0 -0.01410111329607132 -0.15702772257054309 0 -0.032215918819384501 -0.1422395702039371 0 -0.01247485438968244 -0.1475744514967848 0 -0.00029321598637492558 -0.1519271265621164 0 -0.01410111329607132 -0.15702772257054309 0 -0.01401243906613432 -0.13843012333062771 0 -0.01247485438968244 -0.1475744514967848 0 -0.00029321598637492558 -0.1519271265621164 0 -0.00029321598637492558 -0.1519271265621164 0 -0.01410111329607132 -0.15702772257054309 0 -0.00029321598637492558 -0.1519271265621164 0 -0.0020754700083592879 -0.16684494335252939 0 -0.01410111329607132 -0.15702772257054309 0 -0.00029321598637492558 -0.1519271265621164 0 -0.0020754700083592879 -0.16684494335252939 0 0.002326261016831655 -0.17643686212229309 0 -0.0020754700083592879 -0.16684494335252939 0 -0.01099110509921649 -0.16930144674867539 0 -0.0037559499648733901 -0.17299417869332279 0 -0.0020754700083592879 -0.16684494335252939 0 -0.01099110509921649 -0.16930144674867539 0 -0.01410111329607132 -0.15702772257054309 0 -0.0020754700083592879 -0.16684494335252939 0 -0.01410111329607132 -0.15702772257054309 0 -0.0058592016631992556 -0.1837809552243648 0 -0.0032576715288819692 -0.1901455010361584 0 0.00013481440495943361 -0.17759560879793659 0 -0.0058592016631992556 -0.1837809552243648 0 -0.0081663413867417035 -0.17676838778953061 0 0.00013481440495943361 -0.17759560879793659 0 -0.0020754700083592879 -0.16684494335252939 0 -0.0037559499648733901 -0.17299417869332279 0 0.002326261016831655 -0.17643686212229309 0 -0.0037559499648733901 -0.17299417869332279 0 -0.0081663413867417035 -0.17676838778953061 0 0.00013481440495943361 -0.17759560879793659 0 -0.0037559499648733901 -0.17299417869332279 0 0.00013481440495943361 -0.17759560879793659 0 0.002326261016831655 -0.17643686212229309 0 -0.01099110509921649 -0.16930144674867539 0 -0.0037559499648733901 -0.17299417869332279 0 -0.0081663413867417035 -0.17676838778953061 0 -0.0081663413867417035 -0.17676838778953061 0 -0.012065395130817509 -0.1835148769342258 0 -0.01624536079073606 -0.1755580562395932 0 -0.01099110509921649 -0.16930144674867539 0 -0.0081663413867417035 -0.17676838778953061 0 -0.01624536079073606 -0.1755580562395932 0 -0.0058592016631992556 -0.1837809552243648 0 -0.0081663413867417035 -0.17676838778953061 0 -0.012065395130817509 -0.1835148769342258 0 -0.0058592016631992556 -0.1837809552243648 0 -0.012065395130817509 -0.1835148769342258 0 -0.0072650254982307644 -0.19050667573254099 0 -0.012065395130817509 -0.1835148769342258 0 -0.021212840782492019 -0.18569689902199141 0 -0.01624536079073606 -0.1755580562395932 0 -0.012065395130817509 -0.1835148769342258 0 -0.021212840782492019 -0.18569689902199141 0 -0.01387755850610233 -0.19064196007471629 0 -0.021212840782492019 -0.18569689902199141 0 -0.01624536079073606 -0.1755580562395932 0 -0.02837706371744372 -0.17668369492203459 0 -0.01624536079073606 -0.1755580562395932 0 -0.02837706371744372 -0.17668369492203459 0 -0.021966406928512271 -0.1690417957144032 0 -0.021212840782492019 -0.18569689902199141 0 -0.02837706371744372 -0.17668369492203459 0 -0.031337289591171019 -0.1877528890355071 0 -0.01410111329607132 -0.15702772257054309 0 -0.021966406928512271 -0.1690417957144032 0 -0.040117391739093747 -0.16663805809116949 0 -0.02895731266195032 -0.15335694981413719 0 -0.01410111329607132 -0.15702772257054309 0 -0.030954726198497349 -0.16223848538235711 0 -0.01410111329607132 -0.15702772257054309 0 -0.030954726198497349 -0.16223848538235711 0 -0.040117391739093747 -0.16663805809116949 0 -0.02837706371744372 -0.17668369492203459 0 -0.021966406928512271 -0.1690417957144032 0 -0.040117391739093747 -0.16663805809116949 0 -0.01410111329607132 -0.15702772257054309 0 -0.040117391739093747 -0.16663805809116949 0 -0.01099110509921649 -0.16930144674867539 0 -0.01624536079073606 -0.1755580562395932 0 -0.021966406928512271 -0.1690417957144032 0 -0.01099110509921649 -0.16930144674867539 0 -0.01410111329607132 -0.15702772257054309 0 -0.021966406928512271 -0.1690417957144032 0 -0.030954726198497349 -0.16223848538235711 0 -0.051983926935862207 -0.15944986856550691 0 -0.038557492333848108 -0.1519220210997114 0 -0.030954726198497349 -0.16223848538235711 0 -0.040117391739093747 -0.16663805809116949 0 -0.051983926935862207 -0.15944986856550691 0 -0.030954726198497349 -0.16223848538235711 0 -0.051983926935862207 -0.15944986856550691 0 -0.037811074375092922 -0.17818442462078529 0 -0.048966991365686927 -0.18270086860344689 0 -0.031337289591171019 -0.1877528890355071 0 -0.040117391739093747 -0.16663805809116949 0 -0.037811074375092922 -0.17818442462078529 0 -0.048966991365686927 -0.18270086860344689 0 -0.02837706371744372 -0.17668369492203459 0 -0.037811074375092922 -0.17818442462078529 0 -0.031337289591171019 -0.1877528890355071 0 -0.02837706371744372 -0.17668369492203459 0 -0.040117391739093747 -0.16663805809116949 0 -0.037811074375092922 -0.17818442462078529 0 -0.048966991365686927 -0.18270086860344689 0 -0.060288228409170072 -0.19942122417976149 0 -0.066133670182116147 -0.17624839361179551 0 -0.040117391739093747 -0.16663805809116949 0 -0.048966991365686927 -0.18270086860344689 0 -0.066133670182116147 -0.17624839361179551 0 -0.040117391739093747 -0.16663805809116949 0 -0.051983926935862207 -0.15944986856550691 0 -0.061323652630454972 -0.1646195685307637 0 -0.040117391739093747 -0.16663805809116949 0 -0.061323652630454972 -0.1646195685307637 0 -0.066133670182116147 -0.17624839361179551 0 -0.040117391739093747 -0.16663805809116949 0 -0.066133670182116147 -0.17624839361179551 0 -0.051983926935862207 -0.15944986856550691 0 -0.061323652630454972 -0.1646195685307637 0 -0.07301312767322736 -0.15666125174865839 0 -0.051983926935862207 -0.15944986856550691 0 -0.061300587108231663 -0.14902178946925559 0 -0.07301312767322736 -0.15666125174865839 0 -0.051983926935862207 -0.15944986856550691 0 -0.048413906905979527 -0.14359238215630041 0 -0.061300587108231663 -0.14902178946925559 0 -0.048413906905979527 -0.14359238215630041 0 -0.061300587108231663 -0.14902178946925559 0 -0.070729328769619293 -0.13466225860969211 0 -0.048413906905979527 -0.14359238215630041 0 -0.050330724342698113 -0.12745141783733169 0 -0.070729328769619293 -0.13466225860969211 0 -0.050330724342698113 -0.12745141783733169 0 -0.032215918819384501 -0.1422395702039371 0 -0.048413906905979527 -0.14359238215630041 0 -0.050330724342698113 -0.12745141783733169 0 -0.032215918819384501 -0.1422395702039371 0 -0.041836428760536948 -0.1180803183434207 0 -0.050330724342698113 -0.12745141783733169 0 -0.034242801088684521 -0.13014109678987409 0 -0.050330724342698113 -0.12745141783733169 0 -0.034242801088684521 -0.13014109678987409 0 -0.032215918819384501 -0.1422395702039371 0 -0.051983926935862207 -0.15944986856550691 0 -0.048413906905979527 -0.14359238215630041 0 -0.038557492333848108 -0.1519220210997114 0 -0.048413906905979527 -0.14359238215630041 0 -0.032215918819384501 -0.1422395702039371 0 -0.038557492333848108 -0.1519220210997114 0 -0.02895731266195032 -0.15335694981413719 0 -0.032215918819384501 -0.1422395702039371 0 -0.038557492333848108 -0.1519220210997114 0 -0.02895731266195032 -0.15335694981413719 0 -0.030954726198497349 -0.16223848538235711 0 -0.038557492333848108 -0.1519220210997114 0 -0.023277962165551749 -0.25018495043514821 0 -0.025780300371818742 -0.24039847095970859 0 -0.033409875725189032 -0.24714682933774931 0 -0.025780300371818742 -0.24039847095970859 0 -0.024213451227755031 -0.23274839607840939 0 -0.033340168819619397 -0.23619700495466789 0 -0.025780300371818742 -0.24039847095970859 0 -0.033340168819619397 -0.23619700495466789 0 -0.033409875725189032 -0.24714682933774931 0 -0.025780300371818742 -0.24039847095970859 0 -0.01843719931622561 -0.23800980792100901 0 -0.019078131263328361 -0.24356427647012141 0 -0.025780300371818742 -0.24039847095970859 0 -0.01843719931622561 -0.23800980792100901 0 -0.024213451227755031 -0.23274839607840939 0 -0.01843719931622561 -0.23800980792100901 0 -0.019078131263328361 -0.24356427647012141 0 -0.01500262491169454 -0.24203803227875631 0 -0.023277962165551749 -0.25018495043514821 0 -0.019078131263328361 -0.24356427647012141 0 -0.01512674604055105 -0.24763354146040639 0 -0.023277962165551749 -0.25018495043514821 0 -0.025780300371818742 -0.24039847095970859 0 -0.019078131263328361 -0.24356427647012141 0 -0.019078131263328361 -0.24356427647012141 0 -0.01512674604055105 -0.24763354146040639 0 -0.01500262491169454 -0.24203803227875631 0 -0.01512674604055105 -0.24763354146040639 0 -0.010208434186529889 -0.24299984259821661 0 -0.01500262491169454 -0.24203803227875631 0 -0.01512674604055105 -0.24763354146040639 0 -0.010208434186529889 -0.24299984259821661 0 -0.0077953493217402248 -0.2488817209900118 0 -0.0077953493217402248 -0.2488817209900118 0 -0.0044520979039900307 -0.2451285445353388 0 -0.002551672636748862 -0.24918423983054741 0 -0.0077953493217402248 -0.2488817209900118 0 -0.0044520979039900307 -0.2451285445353388 0 -0.010208434186529889 -0.24299984259821661 0 -0.0077953493217402248 -0.2488817209900118 0 -0.0044520979039900307 -0.2451285445353388 0 -0.0044520979039900307 -0.2451285445353388 0 -0.002309199691408137 -0.24272289981668541 0 -0.002551672636748862 -0.24918423983054741 0 -0.002309199691408137 -0.24272289981668541 0 -0.002551672636748862 -0.24918423983054741 0 -0.0044520979039900307 -0.2451285445353388 0 -0.002309199691408137 -0.24272289981668541 0 -0.0044520979039900307 -0.2451285445353388 0 -0.002551672636748862 -0.24918423983054741 0 -0.002309199691408137 -0.24272289981668541 0 -0.0031065021843879131 -0.23223243465240129 0 0.0031312501796658611 -0.2366153817728677 0 -0.0044520979039900307 -0.2451285445353388 0 -0.002309199691408137 -0.24272289981668541 0 -0.0088007657175838173 -0.23584805774323811 0 -0.0044520979039900307 -0.2451285445353388 0 -0.0088007657175838173 -0.23584805774323811 0 -0.002309199691408137 -0.24272289981668541 0 -0.0031065021843879131 -0.23223243465240129 0 -0.002309199691408137 -0.24272289981668541 0 -0.004597677636665496 -0.2358919538722882 0 -0.0031065021843879131 -0.23223243465240129 0 -0.002309199691408137 -0.24272289981668541 0 -0.004597677636665496 -0.2358919538722882 0 -0.0088007657175838173 -0.23584805774323811 0 -0.004597677636665496 -0.2358919538722882 0 -0.0088007657175838173 -0.23584805774323811 0 -0.0031065021843879131 -0.23223243465240129 0 -0.010208434186529889 -0.24299984259821661 0 -0.0044520979039900307 -0.2451285445353388 0 -0.0088007657175838173 -0.23584805774323811 0 -0.0088007657175838173 -0.23584805774323811 0 -0.0121626137518378 -0.23798269294402799 0 -0.010208434186529889 -0.24299984259821661 0 -0.0088007657175838173 -0.23584805774323811 0 -0.0121626137518378 -0.23798269294402799 0 -0.01843719931622561 -0.23800980792100901 0 -0.01500262491169454 -0.24203803227875631 0 -0.0121626137518378 -0.23798269294402799 0 -0.010208434186529889 -0.24299984259821661 0 -0.01500262491169454 -0.24203803227875631 0 -0.0121626137518378 -0.23798269294402799 0 -0.0088007657175838173 -0.23584805774323811 0 -0.0121626137518378 -0.23798269294402799 0 -0.015452316087602769 -0.2315731424963926 0 -0.01843719931622561 -0.23800980792100901 0 -0.0121626137518378 -0.23798269294402799 0 -0.015452316087602769 -0.2315731424963926 0 -0.0031065021843879131 -0.23223243465240129 0 -0.0065621018957443319 -0.2254421243241593 0 -0.00087582063982097553 -0.20452668205685129 0 -0.0031065021843879131 -0.23223243465240129 0 -0.0065621018957443319 -0.2254421243241593 0 -0.014121724743390971 -0.22449260543530589 0 -0.0088007657175838173 -0.23584805774323811 0 -0.015452316087602769 -0.2315731424963926 0 -0.014121724743390971 -0.22449260543530589 0 -0.0088007657175838173 -0.23584805774323811 0 -0.014121724743390971 -0.22449260543530589 0 -0.0031065021843879131 -0.23223243465240129 0 -0.014121724743390971 -0.22449260543530589 0 -0.0088007657175838173 -0.23584805774323811 0 -0.0031065021843879131 -0.23223243465240129 0 -0.014121724743390971 -0.22449260543530589 0 -0.0088007657175838173 -0.23584805774323811 0 -0.0031065021843879131 -0.23223243465240129 0 -0.0065621018957443319 -0.2254421243241593 0 -0.014121724743390971 -0.22449260543530589 0 -0.0083484100354005251 -0.21452323437281889 0 -0.014121724743390971 -0.22449260543530589 0 -0.021598227342069159 -0.21923925236459149 0 -0.014121724743390971 -0.22449260543530589 0 -0.021598227342069159 -0.21923925236459149 0 -0.02107617633778662 -0.22644443761711819 0 -0.01843719931622561 -0.23800980792100901 0 -0.015452316087602769 -0.2315731424963926 0 -0.024213451227755031 -0.23274839607840939 0 -0.015452316087602769 -0.2315731424963926 0 -0.014121724743390971 -0.22449260543530589 0 -0.02107617633778662 -0.22644443761711819 0 -0.015452316087602769 -0.2315731424963926 0 -0.02107617633778662 -0.22644443761711819 0 -0.024213451227755031 -0.23274839607840939 0 -0.024213451227755031 -0.23274839607840939 0 -0.030589331334502132 -0.225016915240556 0 -0.033340168819619397 -0.23619700495466789 0 -0.02107617633778662 -0.22644443761711819 0 -0.024213451227755031 -0.23274839607840939 0 -0.030589331334502132 -0.225016915240556 0 -0.021598227342069159 -0.21923925236459149 0 -0.030589331334502132 -0.225016915240556 0 -0.031115110556178781 -0.21404170412966281 0 -0.021598227342069159 -0.21923925236459149 0 -0.02107617633778662 -0.22644443761711819 0 -0.030589331334502132 -0.225016915240556 0 -0.014121724743390971 -0.22449260543530589 0 -0.022729507167280869 -0.20612274723540641 0 -0.031115110556178781 -0.21404170412966281 0 -0.022729507167280869 -0.20612274723540641 0 -0.038853269744173267 -0.20247639550936339 0 -0.014121724743390971 -0.22449260543530589 0 -0.021598227342069159 -0.21923925236459149 0 -0.022729507167280869 -0.20612274723540641 0 -0.014121724743390971 -0.22449260543530589 0 -0.022729507167280869 -0.20612274723540641 0 -0.01295615817336087 -0.21148665870234271 0 -0.021598227342069159 -0.21923925236459149 0 -0.031115110556178781 -0.21404170412966281 0 -0.022729507167280869 -0.20612274723540641 0 -0.022729507167280869 -0.20612274723540641 0 -0.01295615817336087 -0.21148665870234271 0 -0.012223262880156051 -0.20243778577695659 0 -0.014121724743390971 -0.22449260543530589 0 -0.01295615817336087 -0.21148665870234271 0 -0.0083484100354005251 -0.21452323437281889 0 -0.0031065021843879131 -0.23223243465240129 0 -0.00087582063982097553 -0.20452668205685129 0 -0.0065621018957443319 -0.2254421243241593 0 -0.0083484100354005251 -0.21452323437281889 0 -0.00087582063982097553 -0.20452668205685129 0 -0.0083484100354005251 -0.21452323437281889 0 -0.00087582063982097553 -0.20452668205685129 0 -0.0078090003716520494 -0.2066155020372045 0 -0.00087582063982097553 -0.20452668205685129 0 -0.0078090003716520494 -0.2066155020372045 0 -0.0069424654494259644 -0.2010158714434846 0 -0.0078090003716520494 -0.2066155020372045 0 -0.012223262880156051 -0.20243778577695659 0 -0.0069424654494259644 -0.2010158714434846 0 -0.01295615817336087 -0.21148665870234271 0 -0.0078090003716520494 -0.2066155020372045 0 -0.012223262880156051 -0.20243778577695659 0 -0.01295615817336087 -0.21148665870234271 0 -0.0083484100354005251 -0.21452323437281889 0 -0.0078090003716520494 -0.2066155020372045 0 -0.00087582063982097553 -0.20452668205685129 0 -0.0032576715288819692 -0.1901455010361584 0 0.00013481440495943361 -0.17759560879793659 0 -0.00087582063982097553 -0.20452668205685129 0 0.00013481440495943361 -0.17759560879793659 0 -0.012223262880156051 -0.20243778577695659 0 -0.009461742257762449 -0.19585041854447749 0 -0.018425740901064389 -0.19482836899658221 0 -0.012223262880156051 -0.20243778577695659 0 -0.009461742257762449 -0.19585041854447749 0 -0.0069424654494259644 -0.2010158714434846 0 -0.00087582063982097553 -0.20452668205685129 0 -0.0069424654494259644 -0.2010158714434846 0 -0.0043425010977382961 -0.19564896880193311 0 -0.00087582063982097553 -0.20452668205685129 0 -0.0043425010977382961 -0.19564896880193311 0 -0.0032576715288819692 -0.1901455010361584 0 -0.009461742257762449 -0.19585041854447749 0 -0.0069424654494259644 -0.2010158714434846 0 -0.0043425010977382961 -0.19564896880193311 0 -0.009461742257762449 -0.19585041854447749 0 -0.0043425010977382961 -0.19564896880193311 0 -0.0072650254982307644 -0.19050667573254099 0 -0.0043425010977382961 -0.19564896880193311 0 -0.0032576715288819692 -0.1901455010361584 0 -0.0072650254982307644 -0.19050667573254099 0 -0.0058592016631992556 -0.1837809552243648 0 -0.0032576715288819692 -0.1901455010361584 0 -0.0072650254982307644 -0.19050667573254099 0 -0.009461742257762449 -0.19585041854447749 0 -0.01387755850610233 -0.19064196007471629 0 -0.018425740901064389 -0.19482836899658221 0 -0.012065395130817509 -0.1835148769342258 0 -0.0072650254982307644 -0.19050667573254099 0 -0.01387755850610233 -0.19064196007471629 0 -0.009461742257762449 -0.19585041854447749 0 -0.0072650254982307644 -0.19050667573254099 0 -0.01387755850610233 -0.19064196007471629 0 -0.022729507167280869 -0.20612274723540641 0 -0.031337289591171019 -0.1877528890355071 0 -0.022729507167280869 -0.20612274723540641 0 -0.031337289591171019 -0.1877528890355071 0 -0.038853269744173267 -0.20247639550936339 0 -0.021212840782492019 -0.18569689902199141 0 -0.01387755850610233 -0.19064196007471629 0 -0.018425740901064389 -0.19482836899658221 0 -0.022729507167280869 -0.20612274723540641 0 -0.018425740901064389 -0.19482836899658221 0 -0.031337289591171019 -0.1877528890355071 0 -0.022729507167280869 -0.20612274723540641 0 -0.012223262880156051 -0.20243778577695659 0 -0.018425740901064389 -0.19482836899658221 0 -0.021212840782492019 -0.18569689902199141 0 -0.018425740901064389 -0.19482836899658221 0 -0.031337289591171019 -0.1877528890355071 0 -0.048966991365686927 -0.18270086860344689 0 -0.031337289591171019 -0.1877528890355071 0 -0.038853269744173267 -0.20247639550936339 0 -0.048966991365686927 -0.18270086860344689 0 -0.038853269744173267 -0.20247639550936339 0 -0.060288228409170072 -0.19942122417976149 0 -0.060288228409170072 -0.19942122417976149 0 -0.051445340026487818 -0.21094352770352459 0 -0.065013419058792044 -0.2181938468079746 0 -0.038853269744173267 -0.20247639550936339 0 -0.060288228409170072 -0.19942122417976149 0 -0.051445340026487818 -0.21094352770352459 0 -0.051445340026487818 -0.21094352770352459 0 -0.05108066455899804 -0.2217938036237187 0 -0.065013419058792044 -0.2181938468079746 0 -0.051445340026487818 -0.21094352770352459 0 -0.041241205998469872 -0.21701698094810121 0 -0.05108066455899804 -0.2217938036237187 0 -0.038853269744173267 -0.20247639550936339 0 -0.051445340026487818 -0.21094352770352459 0 -0.041241205998469872 -0.21701698094810121 0 -0.030589331334502132 -0.225016915240556 0 -0.031115110556178781 -0.21404170412966281 0 -0.041241205998469872 -0.21701698094810121 0 -0.031115110556178781 -0.21404170412966281 0 -0.038853269744173267 -0.20247639550936339 0 -0.041241205998469872 -0.21701698094810121 0 -0.030589331334502132 -0.225016915240556 0 -0.041241205998469872 -0.21701698094810121 0 -0.043165724895692009 -0.22917199694421431 0 -0.030589331334502132 -0.225016915240556 0 -0.043165724895692009 -0.22917199694421431 0 -0.033340168819619397 -0.23619700495466789 0 -0.041241205998469872 -0.21701698094810121 0 -0.043165724895692009 -0.22917199694421431 0 -0.05108066455899804 -0.2217938036237187 0 -0.05108066455899804 -0.2217938036237187 0 -0.054537632815548437 -0.23364266571477851 0 -0.065013419058792044 -0.2181938468079746 0 -0.043165724895692009 -0.22917199694421431 0 -0.05108066455899804 -0.2217938036237187 0 -0.054537632815548437 -0.23364266571477851 0 -0.054537632815548437 -0.23364266571477851 0 -0.059463529516841633 -0.2444935303323712 0 -0.04599811300085048 -0.24163939515650609 0 -0.043165724895692009 -0.22917199694421431 0 -0.054537632815548437 -0.23364266571477851 0 -0.04599811300085048 -0.24163939515650609 0 -0.053303352711674121 -0.25735584332364658 0 -0.059463529516841633 -0.2444935303323712 0 -0.04599811300085048 -0.24163939515650609 0 -0.054537632815548437 -0.23364266571477851 0 -0.069738609708413973 -0.23696646943618771 0 -0.054537632815548437 -0.23364266571477851 0 -0.059463529516841633 -0.2444935303323712 0 -0.069738609708413973 -0.23696646943618771 0 -0.053303352711674121 -0.25735584332364658 0 -0.04599811300085048 -0.24163939515650609 0 -0.033409875725189032 -0.24714682933774931 0 -0.043165724895692009 -0.22917199694421431 0 -0.04599811300085048 -0.24163939515650609 0 -0.033340168819619397 -0.23619700495466789 0 -0.04599811300085048 -0.24163939515650609 0 -0.033340168819619397 -0.23619700495466789 0 -0.033409875725189032 -0.24714682933774931 0 -0.088868512691032575 -0.24114936131030601 0 -0.069738609708413973 -0.23696646943618771 0 -0.073739939347721106 -0.25286327803073722 0 -0.088868512691032575 -0.24114936131030601 0 -0.097452039024329376 -0.24765065823633031 0 -0.073739939347721106 -0.25286327803073722 0 -0.059463529516841633 -0.2444935303323712 0 -0.069738609708413973 -0.23696646943618771 0 -0.073739939347721106 -0.25286327803073722 0 -0.088868512691032575 -0.24114936131030601 0 -0.069738609708413973 -0.23696646943618771 0 -0.073739939347721106 -0.25286327803073722 0 -0.069738609708413973 -0.23696646943618771 0 -0.054537632815548437 -0.23364266571477851 0 -0.069738609708413973 -0.23696646943618771 0 -0.065013419058792044 -0.2181938468079746 0 -0.069738609708413973 -0.23696646943618771 0 -0.065013419058792044 -0.2181938468079746 0 -0.069738609708413973 -0.23696646943618771 0 -0.0814601996283362 -0.22334703532402531 0 -0.065013419058792044 -0.2181938468079746 0 -0.088868512691032575 -0.24114936131030601 0 -0.0814601996283362 -0.22334703532402531 0 -0.094473060955391264 -0.226375654220663 0 -0.088868512691032575 -0.24114936131030601 0 -0.069738609708413973 -0.23696646943618771 0 -0.0814601996283362 -0.22334703532402531 0 -0.0814601996283362 -0.22334703532402531 0 -0.092543618041914993 -0.2105929625604408 0 -0.094473060955391264 -0.226375654220663 0 -0.0814601996283362 -0.22334703532402531 0 -0.092543618041914993 -0.2105929625604408 0 -0.077382450772501221 -0.20461289927408521 0 -0.060288228409170072 -0.19942122417976149 0 -0.065013419058792044 -0.2181938468079746 0 -0.060288228409170072 -0.19942122417976149 0 -0.077382450772501221 -0.20461289927408521 0 -0.065013419058792044 -0.2181938468079746 0 -0.0814601996283362 -0.22334703532402531 0 -0.077382450772501221 -0.20461289927408521 0 -0.065013419058792044 -0.2181938468079746 0 -0.060288228409170072 -0.19942122417976149 0 -0.077382450772501221 -0.20461289927408521 0 -0.073660207747066928 -0.1911719647181935 0 -0.060288228409170072 -0.19942122417976149 0 -0.073660207747066928 -0.1911719647181935 0 -0.066133670182116147 -0.17624839361179551 0 -0.077382450772501221 -0.20461289927408521 0 -0.073660207747066928 -0.1911719647181935 0 -0.092149948625138645 -0.18585872913242149 0 -0.092543618041914993 -0.2105929625604408 0 -0.077382450772501221 -0.20461289927408521 0 -0.092149948625138645 -0.18585872913242149 0 -0.092543618041914993 -0.2105929625604408 0 -0.1063402526842615 -0.20455734236804129 0 -0.092149948625138645 -0.18585872913242149 0 -0.1128579409168646 -0.18910010024534971 0 -0.1063402526842615 -0.20455734236804129 0 -0.092149948625138645 -0.18585872913242149 0 -0.1128579409168646 -0.18910010024534971 0 -0.12093852719705719 -0.20477642003494981 0 -0.12803777364160129 -0.1922953823640553 0 -0.1128579409168646 -0.18910010024534971 0 -0.12093852719705719 -0.20477642003494981 0 -0.1063402526842615 -0.20455734236804129 0 -0.12093852719705719 -0.20477642003494981 0 -0.1165982046127521 -0.2165615571290366 0 -0.13354320637065781 -0.21301642817491459 0 -0.12093852719705719 -0.20477642003494981 0 -0.1165982046127521 -0.2165615571290366 0 -0.1063402526842615 -0.20455734236804129 0 -0.1165982046127521 -0.2165615571290366 0 -0.1063402526842615 -0.20455734236804129 0 -0.10361602631599311 -0.21953904449523809 0 -0.092543618041914993 -0.2105929625604408 0 -0.1063402526842615 -0.20455734236804129 0 -0.10361602631599311 -0.21953904449523809 0 -0.088868512691032575 -0.24114936131030601 0 -0.094473060955391264 -0.226375654220663 0 -0.1050518653979613 -0.23367539598245041 0 -0.092543618041914993 -0.2105929625604408 0 -0.094473060955391264 -0.226375654220663 0 -0.10361602631599311 -0.21953904449523809 0 -0.094473060955391264 -0.226375654220663 0 -0.1050518653979613 -0.23367539598245041 0 -0.10361602631599311 -0.21953904449523809 0 -0.1050518653979613 -0.23367539598245041 0 -0.10361602631599311 -0.21953904449523809 0 -0.1129434161665115 -0.22676301512578281 0 -0.1165982046127521 -0.2165615571290366 0 -0.1228410660181867 -0.22788514638776711 0 -0.13354320637065781 -0.21301642817491459 0 -0.1165982046127521 -0.2165615571290366 0 -0.10361602631599311 -0.21953904449523809 0 -0.1129434161665115 -0.22676301512578281 0 -0.1165982046127521 -0.2165615571290366 0 -0.1228410660181867 -0.22788514638776711 0 -0.1129434161665115 -0.22676301512578281 0 -0.1228410660181867 -0.22788514638776711 0 -0.11469525454004779 -0.2348831941912648 0 -0.1217811127749458 -0.23844541997881541 0 -0.1050518653979613 -0.23367539598245041 0 -0.1129434161665115 -0.22676301512578281 0 -0.11469525454004779 -0.2348831941912648 0 -0.1228410660181867 -0.22788514638776711 0 -0.1129434161665115 -0.22676301512578281 0 -0.11469525454004779 -0.2348831941912648 0 -0.111590285685638 -0.25422648743766318 0 -0.12392833461937661 -0.24881544536652669 0 -0.1079984156736512 -0.245332253184424 0 -0.12392833461937661 -0.24881544536652669 0 -0.1104551340193662 -0.24479219393818219 0 -0.1079984156736512 -0.245332253184424 0 -0.12392833461937661 -0.24881544536652669 0 -0.1079984156736512 -0.245332253184424 0 -0.1050518653979613 -0.23367539598245041 0 -0.1105079481693194 -0.23995091286429421 0 -0.11469525454004779 -0.2348831941912648 0 -0.1105079481693194 -0.23995091286429421 0 -0.1163545901475021 -0.24192104784080221 0 -0.11469525454004779 -0.2348831941912648 0 -0.1163545901475021 -0.24192104784080221 0 -0.11469525454004779 -0.2348831941912648 0 -0.1217811127749458 -0.23844541997881541 0 -0.1163545901475021 -0.24192104784080221 0 -0.1217811127749458 -0.23844541997881541 0 -0.12392833461937661 -0.24881544536652669 0 -0.1163545901475021 -0.24192104784080221 0 -0.12392833461937661 -0.24881544536652669 0 -0.1104551340193662 -0.24479219393818219 0 -0.1105079481693194 -0.23995091286429421 0 -0.1104551340193662 -0.24479219393818219 0 -0.1079984156736512 -0.245332253184424 0 -0.1105079481693194 -0.23995091286429421 0 -0.1163545901475021 -0.24192104784080221 0 -0.1104551340193662 -0.24479219393818219 0 -0.088868512691032575 -0.24114936131030601 0 -0.1079984156736512 -0.245332253184424 0 -0.095655273472869867 -0.24426141839027679 0 -0.088868512691032575 -0.24114936131030601 0 -0.1050518653979613 -0.23367539598245041 0 -0.1079984156736512 -0.245332253184424 0 -0.1079984156736512 -0.245332253184424 0 -0.097452039024329376 -0.24765065823633031 0 -0.088868512691032575 -0.24114936131030601 0 -0.1079984156736512 -0.245332253184424 0 -0.111590285685638 -0.25422648743766318 0 -0.1079984156736512 -0.245332253184424 0 -0.097452039024329376 -0.24765065823633031 0 -0.1104551340193662 -0.24479219393818219 0 -0.1079984156736512 -0.245332253184424 0 -0.1050518653979613 -0.23367539598245041 0 -0.1105079481693194 -0.23995091286429421 0 -0.1079984156736512 -0.245332253184424 0 -0.088868512691032575 -0.24114936131030601 0 -0.095655273472869867 -0.24426141839027679 0 -0.097452039024329376 -0.24765065823633031 0 -0.1079984156736512 -0.245332253184424 0 -0.095655273472869867 -0.24426141839027679 0 -0.097452039024329376 -0.24765065823633031 0 -0.095655273472869867 -0.24426141839027679 0 -0.097452039024329376 -0.24765065823633031 0 -0.084768767720129992 -0.1431966969956415 0 -0.093213328287597874 -0.13085961013338551 0 -0.1002706751458992 -0.1530467132686788 0 -0.084768767720129992 -0.1431966969956415 0 -0.07301312767322736 -0.15666125174865839 0 -0.1002706751458992 -0.1530467132686788 0 -0.07301312767322736 -0.15666125174865839 0 -0.1002706751458992 -0.1530467132686788 0 -0.083915119944456829 -0.1179996920943223 0 -0.093213328287597874 -0.13085961013338551 0 -0.070729328769619293 -0.13466225860969211 0 -0.084768767720129992 -0.1431966969956415 0 -0.093213328287597874 -0.13085961013338551 0 -0.070729328769619293 -0.13466225860969211 0 -0.070729328769619293 -0.13466225860969211 0 -0.07301312767322736 -0.15666125174865839 0 -0.084768767720129992 -0.1431966969956415 0 -0.070729328769619293 -0.13466225860969211 0 -0.07301312767322736 -0.15666125174865839 0 -0.061300587108231663 -0.14902178946925559 0 -0.070729328769619293 -0.13466225860969211 0 -0.07301312767322736 -0.15666125174865839 0 -0.073660455285824974 -0.16289672006668721 0 -0.066133670182116147 -0.17624839361179551 0 -0.085330847331451645 -0.16801099677977391 0 -0.051983926935862207 -0.15944986856550691 0 -0.07301312767322736 -0.15666125174865839 0 -0.061323652630454972 -0.1646195685307637 0 -0.07301312767322736 -0.15666125174865839 0 -0.073660455285824974 -0.16289672006668721 0 -0.061323652630454972 -0.1646195685307637 0 -0.073660455285824974 -0.16289672006668721 0 -0.066133670182116147 -0.17624839361179551 0 -0.07301312767322736 -0.15666125174865839 0 -0.073660455285824974 -0.16289672006668721 0 -0.085330847331451645 -0.16801099677977391 0 -0.07301312767322736 -0.15666125174865839 0 -0.073660455285824974 -0.16289672006668721 0 -0.073660207747066928 -0.1911719647181935 0 -0.066133670182116147 -0.17624839361179551 0 -0.092149948625138645 -0.18585872913242149 0 -0.066133670182116147 -0.17624839361179551 0 -0.092149948625138645 -0.18585872913242149 0 -0.066133670182116147 -0.17624839361179551 0 -0.092149948625138645 -0.18585872913242149 0 -0.085330847331451645 -0.16801099677977391 0 -0.07301312767322736 -0.15666125174865839 0 -0.085330847331451645 -0.16801099677977391 0 -0.1002706751458992 -0.1530467132686788 0 -0.1052895902586205 -0.17270678190518429 0 -0.1178890420936653 -0.16378792846729379 0 -0.1002706751458992 -0.1530467132686788 0 -0.085330847331451645 -0.16801099677977391 0 -0.1052895902586205 -0.17270678190518429 0 -0.1002706751458992 -0.1530467132686788 0 -0.092149948625138645 -0.18585872913242149 0 -0.085330847331451645 -0.16801099677977391 0 -0.1052895902586205 -0.17270678190518429 0 -0.1128579409168646 -0.18910010024534971 0 -0.092149948625138645 -0.18585872913242149 0 -0.1052895902586205 -0.17270678190518429 0 -0.1128579409168646 -0.18910010024534971 0 -0.1052895902586205 -0.17270678190518429 0 -0.1229263216757949 -0.1773604230389085 0 -0.1128579409168646 -0.18910010024534971 0 -0.1229263216757949 -0.1773604230389085 0 -0.12803777364160129 -0.1922953823640553 0 -0.1052895902586205 -0.17270678190518429 0 -0.1229263216757949 -0.1773604230389085 0 -0.1178890420936653 -0.16378792846729379 0 -0.1229263216757949 -0.1773604230389085 0 -0.1178890420936653 -0.16378792846729379 0 -0.13343040076944029 -0.16639354933499639 0 -0.1178890420936653 -0.16378792846729379 0 -0.1002706751458992 -0.1530467132686788 0 -0.12752822261857141 -0.1494321747887008 0 -0.1002706751458992 -0.1530467132686788 0 -0.1086675953805302 -0.13367601023245521 0 -0.12752822261857141 -0.1494321747887008 0 -0.1002706751458992 -0.1530467132686788 0 -0.12752822261857141 -0.1494321747887008 0 -0.1002804833808965 -0.11664823327993221 0 -0.093213328287597874 -0.13085961013338551 0 -0.1086675953805302 -0.13367601023245521 0 -0.093213328287597874 -0.13085961013338551 0 -0.1002706751458992 -0.1530467132686788 0 -0.1086675953805302 -0.13367601023245521 0 -0.1086675953805302 -0.13367601023245521 0 -0.1251917416359716 -0.13051157050874909 0 -0.12752822261857141 -0.1494321747887008 0 -0.11821568245561059 -0.1136071370108379 0 -0.1086675953805302 -0.13367601023245521 0 -0.1251917416359716 -0.13051157050874909 0 -0.1251917416359716 -0.13051157050874909 0 -0.13692065148046401 -0.13613203077077099 0 -0.13462655624468181 -0.11971049974098059 0 -0.13692065148046401 -0.13613203077077099 0 -0.14830316583950101 -0.12602600163290989 0 -0.13462655624468181 -0.11971049974098059 0 -0.1251917416359716 -0.13051157050874909 0 -0.13692065148046401 -0.13613203077077099 0 -0.12752822261857141 -0.1494321747887008 0 -0.13692065148046401 -0.13613203077077099 0 -0.14830316583950101 -0.12602600163290989 0 -0.15028403452590289 -0.14046665024937119 0 -0.13692065148046401 -0.13613203077077099 0 -0.15028403452590289 -0.14046665024937119 0 -0.14397180753590261 -0.15340815894959781 0 -0.15028403452590289 -0.14046665024937119 0 -0.14397180753590261 -0.15340815894959781 0 -0.16278066249216999 -0.14811231437191549 0 -0.13692065148046401 -0.13613203077077099 0 -0.14397180753590261 -0.15340815894959781 0 -0.12752822261857141 -0.1494321747887008 0 -0.14397180753590261 -0.15340815894959781 0 -0.12752822261857141 -0.1494321747887008 0 -0.13343040076944029 -0.16639354933499639 0 -0.1178890420936653 -0.16378792846729379 0 -0.12752822261857141 -0.1494321747887008 0 -0.13343040076944029 -0.16639354933499639 0 -0.13343040076944029 -0.16639354933499639 0 -0.13568451278876739 -0.1816649557061589 0 -0.15226973214103159 -0.17363185456063901 0 -0.1229263216757949 -0.1773604230389085 0 -0.13568451278876739 -0.1816649557061589 0 -0.12803777364160129 -0.1922953823640553 0 -0.1229263216757949 -0.1773604230389085 0 -0.13343040076944029 -0.16639354933499639 0 -0.13568451278876739 -0.1816649557061589 0 -0.13568451278876739 -0.1816649557061589 0 -0.15226973214103159 -0.17363185456063901 0 -0.14175880178989331 -0.19915139474936261 0 -0.15226973214103159 -0.17363185456063901 0 -0.14175880178989331 -0.19915139474936261 0 -0.14397180753590261 -0.15340815894959781 0 -0.15226973214103159 -0.17363185456063901 0 -0.16278066249216999 -0.14811231437191549 0 -0.14397180753590261 -0.15340815894959781 0 -0.13343040076944029 -0.16639354933499639 0 -0.15226973214103159 -0.17363185456063901 0 -0.15226973214103159 -0.17363185456063901 0 -0.17451704290679881 -0.1653332090914392 0 -0.16278066249216999 -0.14811231437191549 0 -0.15226973214103159 -0.17363185456063901 0 -0.16278066249216999 -0.14811231437191549 0 -0.15226973214103159 -0.17363185456063901 0 -0.16456216552100711 -0.1828551966254589 0 -0.17451704290679881 -0.1653332090914392 0 -0.15226973214103159 -0.17363185456063901 0 -0.16456216552100711 -0.1828551966254589 0 -0.1533770647469275 -0.1945985792351986 0 -0.16456216552100711 -0.1828551966254589 0 -0.17782050055730461 -0.1829673475842433 0 -0.16927289151329589 -0.19623005858244111 0 -0.17782050055730461 -0.1829673475842433 0 -0.19441026159111671 -0.1685669266028583 0 -0.16456216552100711 -0.1828551966254589 0 -0.17782050055730461 -0.1829673475842433 0 -0.17451704290679881 -0.1653332090914392 0 -0.17782050055730461 -0.1829673475842433 0 -0.17451704290679881 -0.1653332090914392 0 -0.19441026159111671 -0.1685669266028583 0 -0.17451704290679881 -0.1653332090914392 0 -0.19103288441533481 -0.15504220637101929 0 -0.19441026159111671 -0.1685669266028583 0 -0.17451704290679881 -0.1653332090914392 0 -0.18096629575978859 -0.1453991504872737 0 -0.19103288441533481 -0.15504220637101929 0 -0.17451704290679881 -0.1653332090914392 0 -0.18096629575978859 -0.1453991504872737 0 -0.16278066249216999 -0.14811231437191549 0 -0.18096629575978859 -0.1453991504872737 0 -0.19972217829856401 -0.1245951864467454 0 -0.1732915928433085 -0.12259277418319189 0 -0.18096629575978859 -0.1453991504872737 0 -0.16278066249216999 -0.14811231437191549 0 -0.1732915928433085 -0.12259277418319189 0 -0.16278066249216999 -0.14811231437191549 0 -0.1732915928433085 -0.12259277418319189 0 -0.14830316583950101 -0.12602600163290989 0 -0.15028403452590289 -0.14046665024937119 0 -0.1732915928433085 -0.12259277418319189 0 -0.15028403452590289 -0.14046665024937119 0 -0.16278066249216999 -0.14811231437191549 0 -0.1732915928433085 -0.12259277418319189 0 -0.15655054532119131 -0.25594852806874291 0 -0.13985825356510179 -0.25229863754863058 0 -0.1555506051919201 -0.2395575461362964 0 -0.13985825356510179 -0.25229863754863058 0 -0.1555506051919201 -0.2395575461362964 0 -0.14661765915601471 -0.2234486083919146 0 -0.13985825356510179 -0.25229863754863058 0 -0.14661765915601471 -0.2234486083919146 0 -0.13985825356510179 -0.25229863754863058 0 -0.13108631854961611 -0.23872226610771649 0 -0.14661765915601471 -0.2234486083919146 0 -0.13985825356510179 -0.25229863754863058 0 -0.12392833461937661 -0.24881544536652669 0 -0.13108631854961611 -0.23872226610771649 0 -0.1228410660181867 -0.22788514638776711 0 -0.1217811127749458 -0.23844541997881541 0 -0.13108631854961611 -0.23872226610771649 0 -0.1217811127749458 -0.23844541997881541 0 -0.12392833461937661 -0.24881544536652669 0 -0.13108631854961611 -0.23872226610771649 0 -0.1228410660181867 -0.22788514638776711 0 -0.14661765915601471 -0.2234486083919146 0 -0.13354320637065781 -0.21301642817491459 0 -0.1228410660181867 -0.22788514638776711 0 -0.13108631854961611 -0.23872226610771649 0 -0.14661765915601471 -0.2234486083919146 0 -0.1555506051919201 -0.2395575461362964 0 -0.14661765915601471 -0.2234486083919146 0 -0.16362970412737671 -0.2248803397138443 0 -0.14661765915601471 -0.2234486083919146 0 -0.1533770647469275 -0.1945985792351986 0 -0.14175880178989331 -0.19915139474936261 0 -0.14661765915601471 -0.2234486083919146 0 -0.1533770647469275 -0.1945985792351986 0 -0.14661765915601471 -0.2234486083919146 0 -0.13354320637065781 -0.21301642817491459 0 -0.14175880178989331 -0.19915139474936261 0 -0.14661765915601471 -0.2234486083919146 0 -0.1533770647469275 -0.1945985792351986 0 -0.16153614477637171 -0.2100090462304719 0 -0.12093852719705719 -0.20477642003494981 0 -0.13354320637065781 -0.21301642817491459 0 -0.13106957724980239 -0.20230990633082049 0 -0.13354320637065781 -0.21301642817491459 0 -0.13106957724980239 -0.20230990633082049 0 -0.14175880178989331 -0.19915139474936261 0 -0.13106957724980239 -0.20230990633082049 0 -0.12803777364160129 -0.1922953823640553 0 -0.14175880178989331 -0.19915139474936261 0 -0.13568451278876739 -0.1816649557061589 0 -0.12803777364160129 -0.1922953823640553 0 -0.14175880178989331 -0.19915139474936261 0 -0.12093852719705719 -0.20477642003494981 0 -0.13106957724980239 -0.20230990633082049 0 -0.12803777364160129 -0.1922953823640553 0 -0.15226973214103159 -0.17363185456063901 0 -0.1533770647469275 -0.1945985792351986 0 -0.14175880178989331 -0.19915139474936261 0 -0.1533770647469275 -0.1945985792351986 0 -0.16927289151329589 -0.19623005858244111 0 -0.16153614477637171 -0.2100090462304719 0 -0.16456216552100711 -0.1828551966254589 0 -0.1533770647469275 -0.1945985792351986 0 -0.16927289151329589 -0.19623005858244111 0 -0.16927289151329589 -0.19623005858244111 0 -0.18663001683737199 -0.19950531036418279 0 -0.17536331493959681 -0.211122109272981 0 -0.17782050055730461 -0.1829673475842433 0 -0.16927289151329589 -0.19623005858244111 0 -0.18663001683737199 -0.19950531036418279 0 -0.18663001683737199 -0.19950531036418279 0 -0.17536331493959681 -0.211122109272981 0 -0.19133106578394851 -0.21644294818789489 0 -0.17536331493959681 -0.211122109272981 0 -0.17774219185290721 -0.22541619970041701 0 -0.19133106578394851 -0.21644294818789489 0 -0.17536331493959681 -0.211122109272981 0 -0.16153614477637171 -0.2100090462304719 0 -0.16362970412737671 -0.2248803397138443 0 -0.16927289151329589 -0.19623005858244111 0 -0.17536331493959681 -0.211122109272981 0 -0.16153614477637171 -0.2100090462304719 0 -0.14661765915601471 -0.2234486083919146 0 -0.16153614477637171 -0.2100090462304719 0 -0.16362970412737671 -0.2248803397138443 0 -0.16362970412737671 -0.2248803397138443 0 -0.17774219185290721 -0.22541619970041701 0 -0.17147871473588791 -0.24130402352345789 0 -0.17536331493959681 -0.211122109272981 0 -0.16362970412737671 -0.2248803397138443 0 -0.17774219185290721 -0.22541619970041701 0 -0.17774219185290721 -0.22541619970041701 0 -0.17147871473588791 -0.24130402352345789 0 -0.19068773296012631 -0.2333969854059588 0 -0.17774219185290721 -0.22541619970041701 0 -0.19068773296012631 -0.2333969854059588 0 -0.19133106578394851 -0.21644294818789489 0 -0.1880279212736167 -0.25014340261270551 0 -0.17147871473588791 -0.24130402352345789 0 -0.19068773296012631 -0.2333969854059588 0 -0.15655054532119131 -0.25594852806874291 0 -0.1555506051919201 -0.2395575461362964 0 -0.17147871473588791 -0.24130402352345789 0 -0.1555506051919201 -0.2395575461362964 0 -0.16362970412737671 -0.2248803397138443 0 -0.17147871473588791 -0.24130402352345789 0 -0.20437748481527421 -0.25694666431139068 0 -0.2179523242608912 -0.24845533205632031 0 -0.20598248785940701 -0.24054144766818461 0 -0.2179523242608912 -0.24845533205632031 0 -0.20598248785940701 -0.24054144766818461 0 -0.2220524822324195 -0.23606006563144649 0 -0.1880279212736167 -0.25014340261270551 0 -0.20437748481527421 -0.25694666431139068 0 -0.20598248785940701 -0.24054144766818461 0 -0.1880279212736167 -0.25014340261270551 0 -0.20598248785940701 -0.24054144766818461 0 -0.19068773296012631 -0.2333969854059588 0 -0.19068773296012631 -0.2333969854059588 0 -0.20617161790729341 -0.22566188038004159 0 -0.19133106578394851 -0.21644294818789489 0 -0.20598248785940701 -0.24054144766818461 0 -0.19068773296012631 -0.2333969854059588 0 -0.20617161790729341 -0.22566188038004159 0 -0.20598248785940701 -0.24054144766818461 0 -0.20617161790729341 -0.22566188038004159 0 -0.2220524822324195 -0.23606006563144649 0 -0.20617161790729341 -0.22566188038004159 0 -0.219028192610533 -0.22060657509247369 0 -0.2220524822324195 -0.23606006563144649 0 -0.20488005176876911 -0.20530040945736611 0 -0.21649604131031799 -0.1961873016553875 0 -0.22523357544213429 -0.20808837068868019 0 -0.20488005176876911 -0.20530040945736611 0 -0.22523357544213429 -0.20808837068868019 0 -0.20617161790729341 -0.22566188038004159 0 -0.20488005176876911 -0.20530040945736611 0 -0.219028192610533 -0.22060657509247369 0 -0.20488005176876911 -0.20530040945736611 0 -0.22523357544213429 -0.20808837068868019 0 -0.219028192610533 -0.22060657509247369 0 -0.18663001683737199 -0.19950531036418279 0 -0.20488005176876911 -0.20530040945736611 0 -0.19133106578394851 -0.21644294818789489 0 -0.20617161790729341 -0.22566188038004159 0 -0.20488005176876911 -0.20530040945736611 0 -0.19133106578394851 -0.21644294818789489 0 -0.17782050055730461 -0.1829673475842433 0 -0.18663001683737199 -0.19950531036418279 0 -0.20016738251935079 -0.18785864468644961 0 -0.18663001683737199 -0.19950531036418279 0 -0.20488005176876911 -0.20530040945736611 0 -0.20016738251935079 -0.18785864468644961 0 -0.20488005176876911 -0.20530040945736611 0 -0.20016738251935079 -0.18785864468644961 0 -0.21649604131031799 -0.1961873016553875 0 -0.20016738251935079 -0.18785864468644961 0 -0.21649604131031799 -0.1961873016553875 0 -0.2184996775905052 -0.1815597458617294 0 -0.21649604131031799 -0.1961873016553875 0 -0.23491939453818711 -0.1958230071233078 0 -0.2184996775905052 -0.1815597458617294 0 -0.21649604131031799 -0.1961873016553875 0 -0.23491939453818711 -0.1958230071233078 0 -0.22523357544213429 -0.20808837068868019 0 -0.23491939453818711 -0.1958230071233078 0 -0.24699794624001389 -0.17924373397363971 0 -0.25670202753065169 -0.19898255864041631 0 -0.23491939453818711 -0.1958230071233078 0 -0.24558709911549961 -0.21087633191999369 0 -0.25670202753065169 -0.19898255864041631 0 -0.24558709911549961 -0.21087633191999369 0 -0.22523357544213429 -0.20808837068868019 0 -0.2338197906739595 -0.22346819877572 0 -0.23491939453818711 -0.1958230071233078 0 -0.24558709911549961 -0.21087633191999369 0 -0.22523357544213429 -0.20808837068868019 0 -0.24558709911549961 -0.21087633191999369 0 -0.22523357544213429 -0.20808837068868019 0 -0.24558709911549961 -0.21087633191999369 0 -0.2338197906739595 -0.22346819877572 0 -0.24911422868170541 -0.22017811325298789 0 -0.24558709911549961 -0.21087633191999369 0 -0.2338197906739595 -0.22346819877572 0 -0.22523357544213429 -0.20808837068868019 0 -0.219028192610533 -0.22060657509247369 0 -0.2338197906739595 -0.22346819877572 0 -0.219028192610533 -0.22060657509247369 0 -0.2338197906739595 -0.22346819877572 0 -0.2220524822324195 -0.23606006563144649 0 -0.2338197906739595 -0.22346819877572 0 -0.23325897415184541 -0.23532115938694359 0 -0.2220524822324195 -0.23606006563144649 0 -0.2338197906739595 -0.22346819877572 0 -0.2220524822324195 -0.23606006563144649 0 -0.2338197906739595 -0.22346819877572 0 -0.24911422868170541 -0.22017811325298789 0 -0.24830814250465799 -0.23009345510381779 0 -0.2338197906739595 -0.22346819877572 0 -0.24830814250465799 -0.23009345510381779 0 -0.23325897415184541 -0.23532115938694359 0 -0.24830814250465799 -0.23009345510381779 0 -0.23325897415184541 -0.23532115938694359 0 -0.25218120228073287 -0.24765507659215041 0 -0.23127281081028589 -0.2445989711667261 0 -0.23325897415184541 -0.23532115938694359 0 -0.25218120228073287 -0.24765507659215041 0 -0.23091907112554011 -0.25550322216676979 0 -0.23127281081028589 -0.2445989711667261 0 -0.25218120228073287 -0.24765507659215041 0 -0.23325897415184541 -0.23532115938694359 0 -0.25218120228073287 -0.24765507659215041 0 -0.23091907112554011 -0.25550322216676979 0 -0.2179523242608912 -0.24845533205632031 0 -0.23127281081028589 -0.2445989711667261 0 -0.23127281081028589 -0.2445989711667261 0 -0.23325897415184541 -0.23532115938694359 0 -0.2220524822324195 -0.23606006563144649 0 -0.2179523242608912 -0.24845533205632031 0 -0.23127281081028589 -0.2445989711667261 0 -0.2220524822324195 -0.23606006563144649 0 -0.21100002262492881 -0.15416650562147319 0 -0.2144834031818883 -0.14064963439898101 0 -0.22758978365873919 -0.139766084640086 0 -0.21100002262492881 -0.15416650562147319 0 -0.2144834031818883 -0.14064963439898101 0 -0.19944095685610089 -0.14397053666509849 0 -0.2144834031818883 -0.14064963439898101 0 -0.21737421239473059 -0.1236632837885074 0 -0.19972217829856401 -0.1245951864467454 0 -0.2144834031818883 -0.14064963439898101 0 -0.19944095685610089 -0.14397053666509849 0 -0.19972217829856401 -0.1245951864467454 0 -0.18096629575978859 -0.1453991504872737 0 -0.19944095685610089 -0.14397053666509849 0 -0.19972217829856401 -0.1245951864467454 0 -0.18096629575978859 -0.1453991504872737 0 -0.19972217829856401 -0.1245951864467454 0 -0.18096629575978859 -0.1453991504872737 0 -0.19103288441533481 -0.15504220637101929 0 -0.19944095685610089 -0.14397053666509849 0 -0.21100002262492881 -0.15416650562147319 0 -0.19103288441533481 -0.15504220637101929 0 -0.19944095685610089 -0.14397053666509849 0 -0.21100002262492881 -0.15416650562147319 0 -0.19441026159111671 -0.1685669266028583 0 -0.21100002262492881 -0.15416650562147319 0 -0.19103288441533481 -0.15504220637101929 0 -0.19441026159111671 -0.1685669266028583 0 -0.17782050055730461 -0.1829673475842433 0 -0.20016738251935079 -0.18785864468644961 0 -0.19441026159111671 -0.1685669266028583 0 -0.20016738251935079 -0.18785864468644961 0 -0.19441026159111671 -0.1685669266028583 0 -0.2184996775905052 -0.1815597458617294 0 -0.21100002262492881 -0.15416650562147319 0 -0.2184996775905052 -0.1815597458617294 0 -0.2261451005368981 -0.16728287650766879 0 -0.21100002262492881 -0.15416650562147319 0 -0.19441026159111671 -0.1685669266028583 0 -0.2184996775905052 -0.1815597458617294 0 -0.21100002262492881 -0.15416650562147319 0 -0.2261451005368981 -0.16728287650766879 0 -0.22485113780916971 -0.15336726115100999 0 -0.2261451005368981 -0.16728287650766879 0 -0.23729386494937629 -0.15950490930686301 0 -0.22485113780916971 -0.15336726115100999 0 -0.2184996775905052 -0.1815597458617294 0 -0.2261451005368981 -0.16728287650766879 0 -0.24699794624001389 -0.17924373397363971 0 -0.23491939453818711 -0.1958230071233078 0 -0.2184996775905052 -0.1815597458617294 0 -0.24699794624001389 -0.17924373397363971 0 -0.24699794624001389 -0.17924373397363971 0 -0.23729386494937629 -0.15950490930686301 0 -0.251064607594914 -0.16497388850394279 0 -0.23729386494937629 -0.15950490930686301 0 -0.24606608051875911 -0.14598770838649369 0 -0.251064607594914 -0.16497388850394279 0 -0.2261451005368981 -0.16728287650766879 0 -0.24699794624001389 -0.17924373397363971 0 -0.23729386494937629 -0.15950490930686301 0 -0.24699794624001389 -0.17924373397363971 0 -0.23729386494937629 -0.15950490930686301 0 -0.23729386494937629 -0.15950490930686301 0 -0.24606608051875911 -0.14598770838649369 0 -0.22758978365873919 -0.139766084640086 0 -0.21100002262492881 -0.15416650562147319 0 -0.22485113780916971 -0.15336726115100999 0 -0.22758978365873919 -0.139766084640086 0 -0.21100002262492881 -0.15416650562147319 0 -0.22758978365873919 -0.139766084640086 0 -0.23729386494937629 -0.15950490930686301 0 -0.22485113780916971 -0.15336726115100999 0 -0.22758978365873919 -0.139766084640086 0 -0.23729386494937629 -0.15950490930686301 0 -0.22758978365873919 -0.139766084640086 0 -0.22465971514282959 -0.13380610687764011 0 -0.22758978365873919 -0.139766084640086 0 -0.2436798139825718 -0.12579944522954009 0 -0.2144834031818883 -0.14064963439898101 0 -0.22465971514282959 -0.13380610687764011 0 -0.21737421239473059 -0.1236632837885074 0 -0.22465971514282959 -0.13380610687764011 0 -0.2436798139825718 -0.12579944522954009 0 -0.2295277045130312 -0.1154742688129534 0 -0.2144834031818883 -0.14064963439898101 0 -0.22465971514282959 -0.13380610687764011 0 -0.22758978365873919 -0.139766084640086 0 -0.22465971514282959 -0.13380610687764011 0 -0.22758978365873919 -0.139766084640086 0 -0.24606608051875911 -0.14598770838649369 0 -0.2436798139825718 -0.12579944522954009 0 -0.26013140884650421 -0.1371804659279291 0 -0.24606608051875911 -0.14598770838649369 0 -0.22758978365873919 -0.139766084640086 0 -0.2436798139825718 -0.12579944522954009 0 -0.22758978365873919 -0.139766084640086 0 -0.2436798139825718 -0.12579944522954009 0 -0.2436798139825718 -0.12579944522954009 0 -0.24308289196064389 -0.1078683283926664 0 -0.2295277045130312 -0.1154742688129534 0 -0.2436798139825718 -0.12579944522954009 0 -0.24308289196064389 -0.1078683283926664 0 -0.25976984430640249 -0.1118328058189921 0 -0.24308289196064389 -0.1078683283926664 0 -0.23257824536631549 -0.099139001506213048 0 -0.2295277045130312 -0.1154742688129534 0 -0.24308289196064389 -0.1078683283926664 0 -0.24221187145694759 -0.097322295862043107 0 -0.25091980139663123 -0.09890296816179335 0 -0.24221187145694759 -0.097322295862043107 0 -0.2455175823904838 -0.091115928542589611 0 -0.25091980139663123 -0.09890296816179335 0 -0.24308289196064389 -0.1078683283926664 0 -0.24221187145694759 -0.097322295862043107 0 -0.23257824536631549 -0.099139001506213048 0 -0.24221187145694759 -0.097322295862043107 0 -0.23257824536631549 -0.099139001506213048 0 -0.2379382131263556 -0.090211591795872806 0 -0.23257824536631549 -0.099139001506213048 0 -0.23723394337611489 -0.082987258365688821 0 -0.21847806083733959 -0.1037912224062171 0 -0.23257824536631549 -0.099139001506213048 0 -0.2295277045130312 -0.1154742688129534 0 -0.21847806083733959 -0.1037912224062171 0 -0.2295277045130312 -0.1154742688129534 0 -0.21737421239473059 -0.1236632837885074 0 -0.21847806083733959 -0.1037912224062171 0 -0.22465971514282959 -0.13380610687764011 0 -0.2295277045130312 -0.1154742688129534 0 -0.21737421239473059 -0.1236632837885074 0 -0.24009845831519849 -0.079809947691927244 0 -0.25812862611481419 -0.073978427002453717 0 -0.2401822080263325 -0.066208697425509583 0 -0.24009845831519849 -0.079809947691927244 0 -0.25316805942387588 -0.065313188559061319 0 -0.24009845831519849 -0.079809947691927244 0 -0.25316805942387588 -0.065313188559061319 0 -0.2401822080263325 -0.066208697425509583 0 -0.2363150994346859 -0.08103360438955684 0 -0.24009845831519849 -0.079809947691927244 0 -0.23257824536631549 -0.099139001506213048 0 -0.23723394337611489 -0.082987258365688821 0 -0.2379382131263556 -0.090211591795872806 0 -0.2363150994346859 -0.08103360438955684 0 -0.23723394337611489 -0.082987258365688821 0 -0.2363150994346859 -0.08103360438955684 0 -0.24009845831519849 -0.079809947691927244 0 -0.2363150994346859 -0.08103360438955684 0 -0.23723394337611489 -0.082987258365688821 0 -0.24009845831519849 -0.079809947691927244 0 -0.23808813151529201 -0.084803440612995967 0 -0.23723394337611489 -0.082987258365688821 0 -0.23808813151529201 -0.084803440612995967 0 -0.23723394337611489 -0.082987258365688821 0 -0.24021066326607629 -0.082960694581743502 0 -0.23808813151529201 -0.084803440612995967 0 -0.24021066326607629 -0.082960694581743502 0 -0.2420667073110517 -0.085990379249522964 0 -0.24021066326607629 -0.082960694581743502 0 -0.24009845831519849 -0.079809947691927244 0 -0.24429465424558799 -0.082705907046128346 0 -0.23723394337611489 -0.082987258365688821 0 -0.24021066326607629 -0.082960694581743502 0 -0.24009845831519849 -0.079809947691927244 0 -0.23723394337611489 -0.082987258365688821 0 -0.24009845831519849 -0.079809947691927244 0 -0.24009845831519849 -0.079809947691927244 0 -0.24429465424558799 -0.082705907046128346 0 -0.25189407492121679 -0.079475402485211358 0 -0.24720336741439641 -0.085293111222236262 0 -0.24429465424558799 -0.082705907046128346 0 -0.25189407492121679 -0.079475402485211358 0 -0.24720336741439641 -0.085293111222236262 0 -0.24429465424558799 -0.082705907046128346 0 -0.2420667073110517 -0.085990379249522964 0 -0.24021066326607629 -0.082960694581743502 0 -0.24429465424558799 -0.082705907046128346 0 -0.2420667073110517 -0.085990379249522964 0 -0.24720336741439641 -0.085293111222236262 0 -0.2455175823904838 -0.091115928542589611 0 -0.2420667073110517 -0.085990379249522964 0 -0.2455175823904838 -0.091115928542589611 0 -0.25276553363752058 -0.088975224964069191 0 -0.25091980139663123 -0.09890296816179335 0 -0.24720336741439641 -0.085293111222236262 0 -0.2455175823904838 -0.091115928542589611 0 -0.25276553363752058 -0.088975224964069191 0 -0.24221187145694759 -0.097322295862043107 0 -0.2455175823904838 -0.091115928542589611 0 -0.2379382131263556 -0.090211591795872806 0 -0.2455175823904838 -0.091115928542589611 0 -0.2420667073110517 -0.085990379249522964 0 -0.2379382131263556 -0.090211591795872806 0 -0.23808813151529201 -0.084803440612995967 0 -0.2420667073110517 -0.085990379249522964 0 -0.2379382131263556 -0.090211591795872806 0 -0.23808813151529201 -0.084803440612995967 0 -0.23723394337611489 -0.082987258365688821 0 -0.2379382131263556 -0.090211591795872806 0 -0.23723394337611489 -0.082987258365688821 0 -0.21847806083733959 -0.1037912224062171 0 -0.23723394337611489 -0.082987258365688821 0 -0.22632942380937821 -0.084263284482084574 0 -0.21847806083733959 -0.1037912224062171 0 -0.2363150994346859 -0.08103360438955684 0 -0.22632942380937821 -0.084263284482084574 0 -0.21910570965623541 -0.074568706566803908 0 -0.2363150994346859 -0.08103360438955684 0 -0.22632942380937821 -0.084263284482084574 0 -0.2363150994346859 -0.08103360438955684 0 -0.23723394337611489 -0.082987258365688821 0 -0.22632942380937821 -0.084263284482084574 0 -0.2363150994346859 -0.08103360438955684 0 -0.22466476587360679 -0.056262563891128353 0 -0.2401822080263325 -0.066208697425509583 0 -0.2363150994346859 -0.08103360438955684 0 -0.22466476587360679 -0.056262563891128353 0 -0.2363150994346859 -0.08103360438955684 0 -0.21910570965623541 -0.074568706566803908 0 -0.22466476587360679 -0.056262563891128353 0 -0.21910570965623541 -0.074568706566803908 0 -0.20523074089733229 -0.08712271144699256 0 -0.2029885182661737 -0.064161368624257281 0 -0.21910570965623541 -0.074568706566803908 0 -0.2029885182661737 -0.064161368624257281 0 -0.22466476587360679 -0.056262563891128353 0 -0.22632942380937821 -0.084263284482084574 0 -0.21910570965623541 -0.074568706566803908 0 -0.20523074089733229 -0.08712271144699256 0 -0.22632942380937821 -0.084263284482084574 0 -0.20523074089733229 -0.08712271144699256 0 -0.21847806083733959 -0.1037912224062171 0 -0.20523074089733229 -0.08712271144699256 0 -0.18732659778249849 -0.1031157529861986 0 -0.1854760688456249 -0.079180188213145639 0 -0.20523074089733229 -0.08712271144699256 0 -0.2029885182661737 -0.064161368624257281 0 -0.1854760688456249 -0.079180188213145639 0 -0.2029885182661737 -0.064161368624257281 0 -0.1854760688456249 -0.079180188213145639 0 -0.17664085954406611 -0.06344637277368731 0 -0.21737421239473059 -0.1236632837885074 0 -0.21847806083733959 -0.1037912224062171 0 -0.19972217829856401 -0.1245951864467454 0 -0.21847806083733959 -0.1037912224062171 0 -0.19972217829856401 -0.1245951864467454 0 -0.21847806083733959 -0.1037912224062171 0 -0.2029217861226863 -0.102556173671147 0 -0.19972217829856401 -0.1245951864467454 0 -0.20523074089733229 -0.08712271144699256 0 -0.21847806083733959 -0.1037912224062171 0 -0.2029217861226863 -0.102556173671147 0 -0.20523074089733229 -0.08712271144699256 0 -0.2029217861226863 -0.102556173671147 0 -0.18732659778249849 -0.1031157529861986 0 -0.2029217861226863 -0.102556173671147 0 -0.19972217829856401 -0.1245951864467454 0 -0.18732659778249849 -0.1031157529861986 0 -0.19972217829856401 -0.1245951864467454 0 -0.1732915928433085 -0.12259277418319189 0 -0.18732659778249849 -0.1031157529861986 0 -0.14830316583950101 -0.12602600163290989 0 -0.1732915928433085 -0.12259277418319189 0 -0.15074871113799179 -0.1096552244084366 0 -0.1732915928433085 -0.12259277418319189 0 -0.1658892083747813 -0.096853727721791918 0 -0.15074871113799179 -0.1096552244084366 0 -0.1732915928433085 -0.12259277418319189 0 -0.1658892083747813 -0.096853727721791918 0 -0.18732659778249849 -0.1031157529861986 0 -0.1658892083747813 -0.096853727721791918 0 -0.18732659778249849 -0.1031157529861986 0 -0.1854760688456249 -0.079180188213145639 0 -0.1854760688456249 -0.079180188213145639 0 -0.17664085954406611 -0.06344637277368731 0 -0.15944534420669951 -0.075260465116129466 0 -0.17664085954406611 -0.06344637277368731 0 -0.15944534420669951 -0.075260465116129466 0 -0.1530140320565562 -0.053861210212861207 0 -0.1658892083747813 -0.096853727721791918 0 -0.15944534420669951 -0.075260465116129466 0 -0.14593510235219631 -0.095037602496780976 0 -0.1658892083747813 -0.096853727721791918 0 -0.1854760688456249 -0.079180188213145639 0 -0.15944534420669951 -0.075260465116129466 0 -0.15944534420669951 -0.075260465116129466 0 -0.14091651509436859 -0.07943342675695525 0 -0.14593510235219631 -0.095037602496780976 0 -0.15944534420669951 -0.075260465116129466 0 -0.14091651509436859 -0.07943342675695525 0 -0.13950308642355899 -0.063451238307080118 0 -0.15944534420669951 -0.075260465116129466 0 -0.13950308642355899 -0.063451238307080118 0 -0.1530140320565562 -0.053861210212861207 0 -0.1224892812973684 -0.065922536236909704 0 -0.14091651509436859 -0.07943342675695525 0 -0.12776216479548941 -0.088274220775726886 0 -0.1224892812973684 -0.065922536236909704 0 -0.14091651509436859 -0.07943342675695525 0 -0.13950308642355899 -0.063451238307080118 0 -0.14091651509436859 -0.07943342675695525 0 -0.12776216479548941 -0.088274220775726886 0 -0.14593510235219631 -0.095037602496780976 0 -0.1244918998790102 -0.098597789864215385 0 -0.12776216479548941 -0.088274220775726886 0 -0.13392168469180829 -0.1046565159495511 0 -0.12776216479548941 -0.088274220775726886 0 -0.13392168469180829 -0.1046565159495511 0 -0.14593510235219631 -0.095037602496780976 0 -0.11821568245561059 -0.1136071370108379 0 -0.1244918998790102 -0.098597789864215385 0 -0.13392168469180829 -0.1046565159495511 0 -0.11821568245561059 -0.1136071370108379 0 -0.1251917416359716 -0.13051157050874909 0 -0.13462655624468181 -0.11971049974098059 0 -0.11821568245561059 -0.1136071370108379 0 -0.13392168469180829 -0.1046565159495511 0 -0.13462655624468181 -0.11971049974098059 0 -0.13392168469180829 -0.1046565159495511 0 -0.13462655624468181 -0.11971049974098059 0 -0.15074871113799179 -0.1096552244084366 0 -0.14830316583950101 -0.12602600163290989 0 -0.13462655624468181 -0.11971049974098059 0 -0.15074871113799179 -0.1096552244084366 0 -0.13392168469180829 -0.1046565159495511 0 -0.15074871113799179 -0.1096552244084366 0 -0.14593510235219631 -0.095037602496780976 0 -0.1658892083747813 -0.096853727721791918 0 -0.15074871113799179 -0.1096552244084366 0 -0.14593510235219631 -0.095037602496780976 0 -0.15606723565920699 -0.02699709753395475 0 -0.13859889405508499 -0.020830469616994269 0 -0.1591204392618577 -0.00013298485504840629 0 -0.15606723565920699 -0.02699709753395475 0 -0.13859889405508499 -0.020830469616994269 0 -0.13383949580465801 -0.044496257040711647 0 -0.12787206249873251 -0.0031963116537159961 0 -0.13859889405508499 -0.020830469616994269 0 -0.1591204392618577 -0.00013298485504840629 0 -0.11609523705097009 -0.029329697001540551 0 -0.12787206249873251 -0.0031963116537159961 0 -0.13859889405508499 -0.020830469616994269 0 -0.11609523705097009 -0.029329697001540551 0 -0.13859889405508499 -0.020830469616994269 0 -0.13383949580465801 -0.044496257040711647 0 -0.1224892812973684 -0.065922536236909704 0 -0.13950308642355899 -0.063451238307080118 0 -0.13383949580465801 -0.044496257040711647 0 -0.13950308642355899 -0.063451238307080118 0 -0.13383949580465801 -0.044496257040711647 0 -0.1530140320565562 -0.053861210212861207 0 -0.15606723565920699 -0.02699709753395475 0 -0.1530140320565562 -0.053861210212861207 0 -0.15606723565920699 -0.02699709753395475 0 -0.13383949580465801 -0.044496257040711647 0 -0.1530140320565562 -0.053861210212861207 0 -0.15606723565920699 -0.02699709753395475 0 -0.1530140320565562 -0.053861210212861207 0 -0.18228033434527641 -0.044768631702042982 0 -0.17664085954406611 -0.06344637277368731 0 -0.1530140320565562 -0.053861210212861207 0 -0.18228033434527641 -0.044768631702042982 0 -0.2029885182661737 -0.064161368624257281 0 -0.17664085954406611 -0.06344637277368731 0 -0.18228033434527641 -0.044768631702042982 0 -0.15606723565920699 -0.02699709753395475 0 -0.18228033434527641 -0.044768631702042982 0 -0.18608545933040499 -0.02342381034277605 0 -0.15606723565920699 -0.02699709753395475 0 -0.18608545933040499 -0.02342381034277605 0 -0.18056157430543551 -0.001379124261014261 0 -0.15606723565920699 -0.02699709753395475 0 -0.1591204392618577 -0.00013298485504840629 0 -0.15606723565920699 -0.02699709753395475 0 -0.1591204392618577 -0.00013298485504840629 0 -0.18056157430543551 -0.001379124261014261 0 -0.18608545933040499 -0.02342381034277605 0 -0.18056157430543551 -0.001379124261014261 0 -0.20136409875144851 -0.0067204828942713842 0 -0.18608545933040499 -0.02342381034277605 0 -0.20136409875144851 -0.0067204828942713842 0 -0.2130144323125277 -0.031491523392699873 0 -0.20136409875144851 -0.0067204828942713842 0 -0.2130144323125277 -0.031491523392699873 0 -0.2244252935352663 -0.01285869911836935 0 -0.20136409875144851 -0.0067204828942713842 0 -0.2130144323125277 -0.031491523392699873 0 -0.20136409875144851 -0.0067204828942713842 0 -0.2244252935352663 -0.01285869911836935 0 -0.21631877362206239 0.001625407428068355 0 -0.2029885182661737 -0.064161368624257281 0 -0.18228033434527641 -0.044768631702042982 0 -0.2130144323125277 -0.031491523392699873 0 -0.2029885182661737 -0.064161368624257281 0 -0.2130144323125277 -0.031491523392699873 0 -0.22466476587360679 -0.056262563891128353 0 -0.18228033434527641 -0.044768631702042982 0 -0.18608545933040499 -0.02342381034277605 0 -0.2130144323125277 -0.031491523392699873 0 -0.2130144323125277 -0.031491523392699873 0 -0.22466476587360679 -0.056262563891128353 0 -0.2130144323125277 -0.031491523392699873 0 -0.22466476587360679 -0.056262563891128353 0 -0.23462570898078669 -0.032180744015881307 0 -0.23462570898078669 -0.032180744015881307 0 -0.2476418689072212 -0.033052400000039922 0 -0.24666465708429461 -0.048624182595873679 0 -0.22466476587360679 -0.056262563891128353 0 -0.23462570898078669 -0.032180744015881307 0 -0.24666465708429461 -0.048624182595873679 0 -0.2401822080263325 -0.066208697425509583 0 -0.22466476587360679 -0.056262563891128353 0 -0.24666465708429461 -0.048624182595873679 0 -0.2401822080263325 -0.066208697425509583 0 -0.24666465708429461 -0.048624182595873679 0 -0.25316805942387588 -0.065313188559061319 0 -0.2244252935352663 -0.01285869911836935 0 -0.21631877362206239 0.001625407428068355 0 -0.23269332792851949 0.0073657786636318751 0 -0.2130144323125277 -0.031491523392699873 0 -0.23462570898078669 -0.032180744015881307 0 -0.2244252935352663 -0.01285869911836935 0 -0.23462570898078669 -0.032180744015881307 0 -0.2476418689072212 -0.033052400000039922 0 -0.24732347916410771 -0.01467963157492426 0 -0.23462570898078669 -0.032180744015881307 0 -0.2244252935352663 -0.01285869911836935 0 -0.24732347916410771 -0.01467963157492426 0 -0.24732347916410771 -0.01467963157492426 0 -0.23269332792851949 0.0073657786636318751 0 -0.2244252935352663 -0.01285869911836935 0 -0.24732347916410771 -0.01467963157492426 0 -0.23269332792851949 0.0073657786636318751 0 -0.24732347916410771 -0.01467963157492426 0 -0.26308809303082348 -0.0061578822087555102 0 -0.26314563906708738 -0.021464649856099031 0 -0.24732347916410771 -0.01467963157492426 0 -0.26308809303082348 -0.0061578822087555102 0 -0.25634800387939422 0.010446769574923199 0 -0.24732347916410771 -0.01467963157492426 0 -0.26314563906708738 -0.021464649856099031 0 -0.26195363039969588 -0.036725041813480422 0 -0.2476418689072212 -0.033052400000039922 0 -0.24732347916410771 -0.01467963157492426 0 -0.26195363039969588 -0.036725041813480422 0 -0.24732347916410771 -0.01467963157492426 0 -0.26195363039969588 -0.036725041813480422 0 -0.27804777409022702 -0.017967962980187799 0 -0.27727982269183199 -0.038367853988106632 0 -0.27804777409022702 -0.017967962980187799 0 -0.28800640170776598 -0.029684003402906532 0 -0.27727982269183199 -0.038367853988106632 0 -0.26314563906708738 -0.021464649856099031 0 -0.27804777409022702 -0.017967962980187799 0 -0.27727982269183199 -0.038367853988106632 0 -0.26308809303082348 -0.0061578822087555102 0 -0.27804777409022702 -0.017967962980187799 0 -0.27881572548862182 0.0024319280277310261 0 -0.27804777409022702 -0.017967962980187799 0 -0.27881572548862182 0.0024319280277310261 0 -0.26308809303082348 -0.0061578822087555102 0 -0.26314563906708738 -0.021464649856099031 0 -0.27804777409022702 -0.017967962980187799 0 -0.30132554700541658 -0.018951858364780961 0 -0.28853647752776818 0.0069181716844335106 0 -0.27804777409022702 -0.017967962980187799 0 -0.27881572548862182 0.0024319280277310261 0 -0.28853647752776818 0.0069181716844335106 0 -0.27804777409022702 -0.017967962980187799 0 -0.30132554700541658 -0.018951858364780961 0 -0.28853647752776818 0.0069181716844335106 0 -0.27804777409022702 -0.017967962980187799 0 -0.28800640170776598 -0.029684003402906532 0 -0.30132554700541658 -0.018951858364780961 0 -0.28800640170776598 -0.029684003402906532 0 -0.30132554700541658 -0.018951858364780961 0 -0.29537246304358838 -0.043448338278550713 0 -0.30132554700541658 -0.018951858364780961 0 -0.31721456152409722 -0.026819779637135239 0 -0.3141146164830651 -0.044821888413995419 0 -0.30132554700541658 -0.018951858364780961 0 -0.30418814435295449 -0.0017308923959753141 0 -0.31946808805463989 -0.01181948638859691 0 -0.30132554700541658 -0.018951858364780961 0 -0.30418814435295449 -0.0017308923959753141 0 -0.28853647752776818 0.0069181716844335106 0 -0.3070847924470555 -0.058144470268572682 0 -0.29537246304358838 -0.043448338278550713 0 -0.3141146164830651 -0.044821888413995419 0 -0.3070847924470555 -0.058144470268572682 0 -0.29537246304358838 -0.043448338278550713 0 -0.29162179318074288 -0.063145688290776811 0 -0.3070847924470555 -0.058144470268572682 0 -0.29162179318074288 -0.063145688290776811 0 -0.30132554700541658 -0.018951858364780961 0 -0.29537246304358838 -0.043448338278550713 0 -0.3141146164830651 -0.044821888413995419 0 -0.30132554700541658 -0.018951858364780961 0 -0.3141146164830651 -0.044821888413995419 0 -0.28800640170776598 -0.029684003402906532 0 -0.29537246304358838 -0.043448338278550713 0 -0.27727982269183199 -0.038367853988106632 0 -0.29537246304358838 -0.043448338278550713 0 -0.28410615978640569 -0.048813908489164913 0 -0.27727982269183199 -0.038367853988106632 0 -0.29537246304358838 -0.043448338278550713 0 -0.28410615978640569 -0.048813908489164913 0 -0.29162179318074288 -0.063145688290776811 0 -0.28410615978640569 -0.048813908489164913 0 -0.27658378163528402 -0.058770452052036598 0 -0.29162179318074288 -0.063145688290776811 0 -0.28410615978640569 -0.048813908489164913 0 -0.27658378163528402 -0.058770452052036598 0 -0.27727982269183199 -0.038367853988106632 0 -0.27658378163528402 -0.058770452052036598 0 -0.27727982269183199 -0.038367853988106632 0 -0.27658378163528402 -0.058770452052036598 0 -0.26623766053255282 -0.050816429426194923 0 -0.26195363039969588 -0.036725041813480422 0 -0.27658378163528402 -0.058770452052036598 0 -0.26195363039969588 -0.036725041813480422 0 -0.27658378163528402 -0.058770452052036598 0 -0.26623766053255282 -0.050816429426194923 0 -0.27142740887988909 -0.062531119575351471 0 -0.26623766053255282 -0.050816429426194923 0 -0.26496115090150069 -0.064314528541153715 0 -0.27142740887988909 -0.062531119575351471 0 -0.26314563906708738 -0.021464649856099031 0 -0.27727982269183199 -0.038367853988106632 0 -0.26195363039969588 -0.036725041813480422 0 -0.27658378163528402 -0.058770452052036598 0 -0.27727982269183199 -0.038367853988106632 0 -0.26195363039969588 -0.036725041813480422 0 -0.24666465708429461 -0.048624182595873679 0 -0.26623766053255282 -0.050816429426194923 0 -0.26195363039969588 -0.036725041813480422 0 -0.2476418689072212 -0.033052400000039922 0 -0.24666465708429461 -0.048624182595873679 0 -0.26195363039969588 -0.036725041813480422 0 -0.24666465708429461 -0.048624182595873679 0 -0.26623766053255282 -0.050816429426194923 0 -0.25316805942387588 -0.065313188559061319 0 -0.26623766053255282 -0.050816429426194923 0 -0.25316805942387588 -0.065313188559061319 0 -0.26623766053255282 -0.050816429426194923 0 -0.25316805942387588 -0.065313188559061319 0 -0.26496115090150069 -0.064314528541153715 0 -0.24009845831519849 -0.079809947691927244 0 -0.25316805942387588 -0.065313188559061319 0 -0.25812862611481419 -0.073978427002453717 0 -0.24009845831519849 -0.079809947691927244 0 -0.25812862611481419 -0.073978427002453717 0 -0.25189407492121679 -0.079475402485211358 0 -0.25316805942387588 -0.065313188559061319 0 -0.26496115090150069 -0.064314528541153715 0 -0.25812862611481419 -0.073978427002453717 0 -0.24720336741439641 -0.085293111222236262 0 -0.25189407492121679 -0.079475402485211358 0 -0.25276553363752058 -0.088975224964069191 0 -0.25812862611481419 -0.073978427002453717 0 -0.25189407492121679 -0.079475402485211358 0 -0.2596926086273964 -0.083489971529615459 0 -0.25189407492121679 -0.079475402485211358 0 -0.25276553363752058 -0.088975224964069191 0 -0.2596926086273964 -0.083489971529615459 0 -0.2596926086273964 -0.083489971529615459 0 -0.26713595882166008 -0.087950517337585979 0 -0.26210501120326513 -0.095332217561340526 0 -0.25276553363752058 -0.088975224964069191 0 -0.2596926086273964 -0.083489971529615459 0 -0.26210501120326513 -0.095332217561340526 0 -0.2596926086273964 -0.083489971529615459 0 -0.26806884706336848 -0.078885312857366177 0 -0.26713595882166008 -0.087950517337585979 0 -0.25812862611481419 -0.073978427002453717 0 -0.2596926086273964 -0.083489971529615459 0 -0.26806884706336848 -0.078885312857366177 0 -0.26806884706336848 -0.078885312857366177 0 -0.26713595882166008 -0.087950517337585979 0 -0.27514744335541469 -0.084963085636920954 0 -0.26806884706336848 -0.078885312857366177 0 -0.27514744335541469 -0.084963085636920954 0 -0.27585009018042328 -0.076347324387116514 0 -0.26713595882166008 -0.087950517337585979 0 -0.27514744335541469 -0.084963085636920954 0 -0.27312613975623001 -0.094036204044909449 0 -0.26713595882166008 -0.087950517337585979 0 -0.26210501120326513 -0.095332217561340526 0 -0.27312613975623001 -0.094036204044909449 0 -0.27514744335541469 -0.084963085636920954 0 -0.27312613975623001 -0.094036204044909449 0 -0.28126992402043499 -0.091237035212696785 0 -0.27514744335541469 -0.084963085636920954 0 -0.28375978112886768 -0.082380840750552631 0 -0.28126992402043499 -0.091237035212696785 0 -0.27514744335541469 -0.084963085636920954 0 -0.27585009018042328 -0.076347324387116514 0 -0.28375978112886768 -0.082380840750552631 0 -0.26496115090150069 -0.064314528541153715 0 -0.25812862611481419 -0.073978427002453717 0 -0.2761587939144301 -0.068146906312980635 0 -0.27585009018042328 -0.076347324387116514 0 -0.2761587939144301 -0.068146906312980635 0 -0.28636738811785373 -0.073004255911461202 0 -0.25812862611481419 -0.073978427002453717 0 -0.26806884706336848 -0.078885312857366177 0 -0.2761587939144301 -0.068146906312980635 0 -0.27585009018042328 -0.076347324387116514 0 -0.2761587939144301 -0.068146906312980635 0 -0.25812862611481419 -0.073978427002453717 0 -0.2761587939144301 -0.068146906312980635 0 -0.27658378163528402 -0.058770452052036598 0 -0.2761587939144301 -0.068146906312980635 0 -0.27658378163528402 -0.058770452052036598 0 -0.2761587939144301 -0.068146906312980635 0 -0.27142740887988909 -0.062531119575351471 0 -0.26496115090150069 -0.064314528541153715 0 -0.2761587939144301 -0.068146906312980635 0 -0.27142740887988909 -0.062531119575351471 0 -0.26806884706336848 -0.078885312857366177 0 -0.27585009018042328 -0.076347324387116514 0 -0.2761587939144301 -0.068146906312980635 0 -0.2436798139825718 -0.12579944522954009 0 -0.25976984430640249 -0.1118328058189921 0 -0.26013140884650421 -0.1371804659279291 0 -0.2436798139825718 -0.12579944522954009 0 -0.25976984430640249 -0.1118328058189921 0 -0.25976984430640249 -0.1118328058189921 0 -0.25091980139663123 -0.09890296816179335 0 -0.26210501120326513 -0.095332217561340526 0 -0.25976984430640249 -0.1118328058189921 0 -0.26210501120326513 -0.095332217561340526 0 -0.27097372977637468 -0.1034608709225272 0 -0.24308289196064389 -0.1078683283926664 0 -0.25976984430640249 -0.1118328058189921 0 -0.25091980139663123 -0.09890296816179335 0 -0.25276553363752058 -0.088975224964069191 0 -0.25091980139663123 -0.09890296816179335 0 -0.26210501120326513 -0.095332217561340526 0 -0.26210501120326513 -0.095332217561340526 0 -0.27312613975623001 -0.094036204044909449 0 -0.27097372977637468 -0.1034608709225272 0 -0.27312613975623001 -0.094036204044909449 0 -0.28212477136023018 -0.1012734975983853 0 -0.28126992402043499 -0.091237035212696785 0 -0.27312613975623001 -0.094036204044909449 0 -0.27097372977637468 -0.1034608709225272 0 -0.28212477136023018 -0.1012734975983853 0 -0.27097372977637468 -0.1034608709225272 0 -0.27772654384344769 -0.1140175693778288 0 -0.28212477136023018 -0.1012734975983853 0 -0.25976984430640249 -0.1118328058189921 0 -0.27097372977637468 -0.1034608709225272 0 -0.27772654384344769 -0.1140175693778288 0 -0.25976984430640249 -0.1118328058189921 0 -0.27772654384344769 -0.1140175693778288 0 -0.27389855975733329 -0.12728610436067861 0 -0.27772654384344769 -0.1140175693778288 0 -0.2875618097775286 -0.120778785147376 0 -0.27389855975733329 -0.12728610436067861 0 -0.2875618097775286 -0.120778785147376 0 -0.29719690223397133 -0.1182404986265662 0 -0.29673161151198951 -0.12761573601248671 0 -0.27772654384344769 -0.1140175693778288 0 -0.2875618097775286 -0.120778785147376 0 -0.28891109345432958 -0.1112047556647002 0 -0.28891109345432958 -0.1112047556647002 0 -0.2970043510740441 -0.1097981188159861 0 -0.29719690223397133 -0.1182404986265662 0 -0.2875618097775286 -0.120778785147376 0 -0.28891109345432958 -0.1112047556647002 0 -0.29719690223397133 -0.1182404986265662 0 -0.28891109345432958 -0.1112047556647002 0 -0.2921847370939446 -0.1027237642028436 0 -0.2970043510740441 -0.1097981188159861 0 -0.28891109345432958 -0.1112047556647002 0 -0.2921847370939446 -0.1027237642028436 0 -0.28212477136023018 -0.1012734975983853 0 -0.27772654384344769 -0.1140175693778288 0 -0.28891109345432958 -0.1112047556647002 0 -0.28212477136023018 -0.1012734975983853 0 -0.2921847370939446 -0.1027237642028436 0 -0.28212477136023018 -0.1012734975983853 0 -0.28997331019322009 -0.093243929811965304 0 -0.28212477136023018 -0.1012734975983853 0 -0.28126992402043499 -0.091237035212696785 0 -0.28997331019322009 -0.093243929811965304 0 -0.2921847370939446 -0.1027237642028436 0 -0.28997331019322009 -0.093243929811965304 0 -0.29968186408758529 -0.093610842996288163 0 -0.2921847370939446 -0.1027237642028436 0 -0.30330065382253768 -0.1036745169248415 0 -0.29968186408758529 -0.093610842996288163 0 -0.31015325702911828 -0.095625964339458913 0 -0.30330065382253768 -0.1036745169248415 0 -0.29968186408758529 -0.093610842996288163 0 -0.31015325702911828 -0.095625964339458913 0 -0.30330065382253768 -0.1036745169248415 0 -0.31365438427178938 -0.1052526069136427 0 -0.30330065382253768 -0.1036745169248415 0 -0.30636304145808602 -0.1136520566307031 0 -0.31365438427178938 -0.1052526069136427 0 -0.30330065382253768 -0.1036745169248415 0 -0.2970043510740441 -0.1097981188159861 0 -0.30636304145808602 -0.1136520566307031 0 -0.2921847370939446 -0.1027237642028436 0 -0.30330065382253768 -0.1036745169248415 0 -0.2970043510740441 -0.1097981188159861 0 -0.2970043510740441 -0.1097981188159861 0 -0.30636304145808602 -0.1136520566307031 0 -0.29719690223397133 -0.1182404986265662 0 -0.30636304145808602 -0.1136520566307031 0 -0.31246568441631228 -0.1171068142960809 0 -0.31365438427178938 -0.1052526069136427 0 -0.30636304145808602 -0.1136520566307031 0 -0.31246568441631228 -0.1171068142960809 0 -0.30501241601462709 -0.1230728154596903 0 -0.31246568441631228 -0.1171068142960809 0 -0.30501241601462709 -0.1230728154596903 0 -0.31190542547158567 -0.12611780418129509 0 -0.30501241601462709 -0.1230728154596903 0 -0.29719690223397133 -0.1182404986265662 0 -0.29673161151198951 -0.12761573601248671 0 -0.30636304145808602 -0.1136520566307031 0 -0.30501241601462709 -0.1230728154596903 0 -0.29719690223397133 -0.1182404986265662 0 -0.28636738811785373 -0.073004255911461202 0 -0.29474129527700399 -0.08289435915579367 0 -0.29987553562178848 -0.07196264014920678 0 -0.29162179318074288 -0.063145688290776811 0 -0.28636738811785373 -0.073004255911461202 0 -0.29987553562178848 -0.07196264014920678 0 -0.2761587939144301 -0.068146906312980635 0 -0.29162179318074288 -0.063145688290776811 0 -0.27658378163528402 -0.058770452052036598 0 -0.2761587939144301 -0.068146906312980635 0 -0.29162179318074288 -0.063145688290776811 0 -0.2761587939144301 -0.068146906312980635 0 -0.29162179318074288 -0.063145688290776811 0 -0.28636738811785373 -0.073004255911461202 0 -0.27585009018042328 -0.076347324387116514 0 -0.28636738811785373 -0.073004255911461202 0 -0.28375978112886768 -0.082380840750552631 0 -0.28636738811785373 -0.073004255911461202 0 -0.28375978112886768 -0.082380840750552631 0 -0.29474129527700399 -0.08289435915579367 0 -0.28375978112886768 -0.082380840750552631 0 -0.28126992402043499 -0.091237035212696785 0 -0.28997331019322009 -0.093243929811965304 0 -0.28997331019322009 -0.093243929811965304 0 -0.29474129527700399 -0.08289435915579367 0 -0.29968186408758529 -0.093610842996288163 0 -0.28375978112886768 -0.082380840750552631 0 -0.28997331019322009 -0.093243929811965304 0 -0.29474129527700399 -0.08289435915579367 0 -0.29474129527700399 -0.08289435915579367 0 -0.30743261659146531 -0.08483754081906128 0 -0.29987553562178848 -0.07196264014920678 0 -0.29474129527700399 -0.08289435915579367 0 -0.29968186408758529 -0.093610842996288163 0 -0.30743261659146531 -0.08483754081906128 0 -0.31015325702911828 -0.095625964339458913 0 -0.29968186408758529 -0.093610842996288163 0 -0.30743261659146531 -0.08483754081906128 0 -0.3070847924470555 -0.058144470268572682 0 -0.31158023474555219 -0.07511321175367347 0 -0.31815612534719628 -0.064320442769649447 0 -0.3070847924470555 -0.058144470268572682 0 -0.31158023474555219 -0.07511321175367347 0 -0.29987553562178848 -0.07196264014920678 0 -0.30743261659146531 -0.08483754081906128 0 -0.31158023474555219 -0.07511321175367347 0 -0.29987553562178848 -0.07196264014920678 0 -0.3070847924470555 -0.058144470268572682 0 -0.29162179318074288 -0.063145688290776811 0 -0.29987553562178848 -0.07196264014920678 0 -0.31815612534719628 -0.064320442769649447 0 -0.32637903320084011 -0.085799286739695363 0 -0.33162194985946858 -0.057723356672310308 0 -0.31158023474555219 -0.07511321175367347 0 -0.31815612534719628 -0.064320442769649447 0 -0.32637903320084011 -0.085799286739695363 0 -0.30743261659146531 -0.08483754081906128 0 -0.31158023474555219 -0.07511321175367347 0 -0.32637903320084011 -0.085799286739695363 0 -0.31015325702911828 -0.095625964339458913 0 -0.30743261659146531 -0.08483754081906128 0 -0.32637903320084011 -0.085799286739695363 0 -0.34098611195057937 -0.077197903652815536 0 -0.32750020649577849 -0.1027316276716182 0 -0.32637903320084011 -0.085799286739695363 0 -0.34098611195057937 -0.077197903652815536 0 -0.32750020649577849 -0.1027316276716182 0 -0.34098611195057937 -0.077197903652815536 0 -0.32750020649577849 -0.1027316276716182 0 -0.34372830023849199 -0.094974442858687252 0 -0.32637903320084011 -0.085799286739695363 0 -0.34098611195057937 -0.077197903652815536 0 -0.33162194985946858 -0.057723356672310308 0 -0.32637903320084011 -0.085799286739695363 0 -0.33162194985946858 -0.057723356672310308 0 -0.32113611654221152 -0.1138752168070804 0 -0.31190542547158567 -0.12611780418129509 0 -0.31354397338132639 -0.1344069233588733 0 -0.32113611654221152 -0.1138752168070804 0 -0.32407542189213578 -0.1301292893403144 0 -0.32932524266715801 -0.12572742906770129 0 -0.32113611654221152 -0.1138752168070804 0 -0.33333008640029899 -0.11345012137750191 0 -0.32932524266715801 -0.12572742906770129 0 -0.31246568441631228 -0.1171068142960809 0 -0.32113611654221152 -0.1138752168070804 0 -0.31190542547158567 -0.12611780418129509 0 -0.31246568441631228 -0.1171068142960809 0 -0.32113611654221152 -0.1138752168070804 0 -0.31365438427178938 -0.1052526069136427 0 -0.32113611654221152 -0.1138752168070804 0 -0.32750020649577849 -0.1027316276716182 0 -0.33333008640029899 -0.11345012137750191 0 -0.32637903320084011 -0.085799286739695363 0 -0.32113611654221152 -0.1138752168070804 0 -0.32750020649577849 -0.1027316276716182 0 -0.32637903320084011 -0.085799286739695363 0 -0.32113611654221152 -0.1138752168070804 0 -0.31365438427178938 -0.1052526069136427 0 -0.31015325702911828 -0.095625964339458913 0 -0.32637903320084011 -0.085799286739695363 0 -0.31365438427178938 -0.1052526069136427 0 -0.32637903320084011 -0.085799286739695363 0 -0.32113611654221152 -0.1138752168070804 0 -0.32750020649577849 -0.1027316276716182 0 -0.34372830023849199 -0.094974442858687252 0 -0.33744844826583847 -0.1056269800088044 0 -0.34372830023849199 -0.094974442858687252 0 -0.33744844826583847 -0.1056269800088044 0 -0.3452351999287846 -0.1113517281274104 0 -0.32750020649577849 -0.1027316276716182 0 -0.33744844826583847 -0.1056269800088044 0 -0.33333008640029899 -0.11345012137750191 0 -0.33744844826583847 -0.1056269800088044 0 -0.33333008640029899 -0.11345012137750191 0 -0.3452351999287846 -0.1113517281274104 0 -0.33333008640029899 -0.11345012137750191 0 -0.34137201608007789 -0.1246756993789075 0 -0.3452351999287846 -0.1113517281274104 0 -0.33333008640029899 -0.11345012137750191 0 -0.34137201608007789 -0.1246756993789075 0 -0.32932524266715801 -0.12572742906770129 0 -0.35307643793722832 -0.1196084156075037 0 -0.36498890652998722 -0.11982427007552281 0 -0.35361906204481541 -0.133930851263666 0 -0.34137201608007789 -0.1246756993789075 0 -0.35307643793722832 -0.1196084156075037 0 -0.3452351999287846 -0.1113517281274104 0 -0.35307643793722832 -0.1196084156075037 0 -0.3452351999287846 -0.1113517281274104 0 -0.35942150800038108 -0.1046743665651431 0 -0.35307643793722832 -0.1196084156075037 0 -0.35942150800038108 -0.1046743665651431 0 -0.36498890652998722 -0.11982427007552281 0 -0.34372830023849199 -0.094974442858687252 0 -0.3452351999287846 -0.1113517281274104 0 -0.35942150800038108 -0.1046743665651431 0 -0.34372830023849199 -0.094974442858687252 0 -0.35942150800038108 -0.1046743665651431 0 -0.35318680977740979 -0.086997625940830103 0 -0.37094449256260992 -0.099372935251941033 0 -0.35942150800038108 -0.1046743665651431 0 -0.36528613045035813 -0.088361620833482382 0 -0.37094449256260992 -0.099372935251941033 0 -0.35942150800038108 -0.1046743665651431 0 -0.37942546501910679 -0.10976488385335979 0 -0.37094449256260992 -0.099372935251941033 0 -0.36528613045035813 -0.088361620833482382 0 -0.37964486678059328 -0.094690869755778839 0 -0.36498890652998722 -0.11982427007552281 0 -0.37729099561403823 -0.12889833791531941 0 -0.37942546501910679 -0.10976488385335979 0 -0.35942150800038108 -0.1046743665651431 0 -0.36498890652998722 -0.11982427007552281 0 -0.37942546501910679 -0.10976488385335979 0 -0.36498890652998722 -0.11982427007552281 0 -0.37942546501910679 -0.10976488385335979 0 -0.34098611195057937 -0.077197903652815536 0 -0.35883811200077581 -0.071932121829837645 0 -0.3544720174053802 -0.051664179634012861 0 -0.34098611195057937 -0.077197903652815536 0 -0.3544720174053802 -0.051664179634012861 0 -0.34098611195057937 -0.077197903652815536 0 -0.34372830023849199 -0.094974442858687252 0 -0.35318680977740979 -0.086997625940830103 0 -0.35883811200077581 -0.071932121829837645 0 -0.35318680977740979 -0.086997625940830103 0 -0.36528613045035813 -0.088361620833482382 0 -0.35942150800038108 -0.1046743665651431 0 -0.35318680977740979 -0.086997625940830103 0 -0.36528613045035813 -0.088361620833482382 0 -0.34098611195057937 -0.077197903652815536 0 -0.35883811200077581 -0.071932121829837645 0 -0.35318680977740979 -0.086997625940830103 0 -0.36528613045035813 -0.088361620833482382 0 -0.37236779851361068 -0.070972408819564667 0 -0.3766707962849673 -0.082841217428955172 0 -0.36528613045035813 -0.088361620833482382 0 -0.3766707962849673 -0.082841217428955172 0 -0.37964486678059328 -0.094690869755778839 0 -0.35883811200077581 -0.071932121829837645 0 -0.36528613045035813 -0.088361620833482382 0 -0.37236779851361068 -0.070972408819564667 0 -0.35883811200077581 -0.071932121829837645 0 -0.37236779851361068 -0.070972408819564667 0 -0.368161404256522 -0.056797864533857767 0 -0.368161404256522 -0.056797864533857767 0 -0.3544720174053802 -0.051664179634012861 0 -0.37039764751197168 -0.041496099240644888 0 -0.368161404256522 -0.056797864533857767 0 -0.37039764751197168 -0.041496099240644888 0 -0.3847314458508716 -0.047924513145228803 0 -0.35883811200077581 -0.071932121829837645 0 -0.368161404256522 -0.056797864533857767 0 -0.3544720174053802 -0.051664179634012861 0 -0.3544720174053802 -0.051664179634012861 0 -0.35242824688827279 -0.028037929082583891 0 -0.33686486651809711 -0.02964742660492525 0 -0.3544720174053802 -0.051664179634012861 0 -0.36795792286018109 -0.026130455615210189 0 -0.35242824688827279 -0.028037929082583891 0 -0.3544720174053802 -0.051664179634012861 0 -0.36795792286018109 -0.026130455615210189 0 -0.3544720174053802 -0.051664179634012861 0 -0.37039764751197168 -0.041496099240644888 0 -0.36795792286018109 -0.026130455615210189 0 -0.37039764751197168 -0.041496099240644888 0 -0.36795792286018109 -0.026130455615210189 0 -0.37693399065934052 -0.024286192692544568 0 -0.36795792286018109 -0.026130455615210189 0 -0.36584859458541752 -0.01386254039818546 0 -0.37693399065934052 -0.024286192692544568 0 -0.36122324399748151 -0.01988370512602896 0 -0.36584859458541752 -0.01386254039818546 0 -0.3552766676943816 -0.01348386446461605 0 -0.36795792286018109 -0.026130455615210189 0 -0.36122324399748151 -0.01988370512602896 0 -0.36584859458541752 -0.01386254039818546 0 -0.36795792286018109 -0.026130455615210189 0 -0.36122324399748151 -0.01988370512602896 0 -0.35242824688827279 -0.028037929082583891 0 -0.36913653546780928 -0.00064787223986029208 0 -0.36584859458541752 -0.01386254039818546 0 -0.37693399065934052 -0.024286192692544568 0 -0.36913653546780928 -0.00064787223986029208 0 -0.37693399065934052 -0.024286192692544568 0 -0.36584859458541752 -0.01386254039818546 0 -0.35902896314898358 -0.0017027207110311359 0 -0.3552766676943816 -0.01348386446461605 0 -0.36913653546780928 -0.00064787223986029208 0 -0.36584859458541752 -0.01386254039818546 0 -0.35902896314898358 -0.0017027207110311359 0 -0.35902896314898358 -0.0017027207110311359 0 -0.3552766676943816 -0.01348386446461605 0 -0.34210778317672558 -0.001571496537540198 0 -0.3552766676943816 -0.01348386446461605 0 -0.33686486651809711 -0.02964742660492525 0 -0.34210778317672558 -0.001571496537540198 0 -0.3552766676943816 -0.01348386446461605 0 -0.35242824688827279 -0.028037929082583891 0 -0.33686486651809711 -0.02964742660492525 0 -0.36122324399748151 -0.01988370512602896 0 -0.3552766676943816 -0.01348386446461605 0 -0.35242824688827279 -0.028037929082583891 0 -0.33686486651809711 -0.02964742660492525 0 -0.34210778317672558 -0.001571496537540198 0 -0.33686486651809711 -0.02964742660492525 0 -0.34210778317672558 -0.001571496537540198 0 -0.31946808805463989 -0.01181948638859691 0 -0.34210778317672558 -0.001571496537540198 0 -0.31946808805463989 -0.01181948638859691 0 -0.3155368564668059 0.00791962896903276 0 -0.30418814435295449 -0.0017308923959753141 0 -0.31946808805463989 -0.01181948638859691 0 -0.3155368564668059 0.00791962896903276 0 -0.30132554700541658 -0.018951858364780961 0 -0.31946808805463989 -0.01181948638859691 0 -0.31721456152409722 -0.026819779637135239 0 -0.33686486651809711 -0.02964742660492525 0 -0.31946808805463989 -0.01181948638859691 0 -0.31721456152409722 -0.026819779637135239 0 -0.33686486651809711 -0.02964742660492525 0 -0.3141146164830651 -0.044821888413995419 0 -0.33162194985946858 -0.057723356672310308 0 -0.33686486651809711 -0.02964742660492525 0 -0.31721456152409722 -0.026819779637135239 0 -0.3141146164830651 -0.044821888413995419 0 -0.31815612534719628 -0.064320442769649447 0 -0.3141146164830651 -0.044821888413995419 0 -0.33162194985946858 -0.057723356672310308 0 -0.3070847924470555 -0.058144470268572682 0 -0.31815612534719628 -0.064320442769649447 0 -0.3141146164830651 -0.044821888413995419 0 -0.34098611195057937 -0.077197903652815536 0 -0.3544720174053802 -0.051664179634012861 0 -0.33162194985946858 -0.057723356672310308 0 -0.3544720174053802 -0.051664179634012861 0 -0.33686486651809711 -0.02964742660492525 0 -0.33162194985946858 -0.057723356672310308 0 -0.33686486651809711 -0.02964742660492525 0 -0.33162194985946858 -0.057723356672310308 0 -0.29526051877429971 -0.25243959245627218 0 -0.29842504581110352 -0.2354934829591154 0 -0.30656167854946192 -0.24082003241795111 0 -0.29842504581110352 -0.2354934829591154 0 -0.30656167854946192 -0.24082003241795111 0 -0.30524469928948339 -0.22846824781556621 0 -0.29526051877429971 -0.25243959245627218 0 -0.307075691851949 -0.25012133063229841 0 -0.30656167854946192 -0.24082003241795111 0 -0.307075691851949 -0.25012133063229841 0 -0.30656167854946192 -0.24082003241795111 0 -0.31927486322503718 -0.24452010099714019 0 -0.30656167854946192 -0.24082003241795111 0 -0.30524469928948339 -0.22846824781556621 0 -0.31408925234489671 -0.23387743964731361 0 -0.29842504581110352 -0.2354934829591154 0 -0.30158957284790477 -0.2185473734619581 0 -0.29842504581110352 -0.2354934829591154 0 -0.30524469928948339 -0.22846824781556621 0 -0.30158957284790477 -0.2185473734619581 0 -0.29842504581110352 -0.2354934829591154 0 -0.29199105075532672 -0.22738359332890551 0 -0.30158957284790477 -0.2185473734619581 0 -0.30524469928948339 -0.22846824781556621 0 -0.31473610879951402 -0.22440799353969271 0 -0.31408925234489671 -0.23387743964731361 0 -0.30647245128427247 -0.21921621469044439 0 -0.31472739505410291 -0.21683490162393429 0 -0.31473610879951402 -0.22440799353969271 0 -0.30524469928948339 -0.22846824781556621 0 -0.30647245128427247 -0.21921621469044439 0 -0.31473610879951402 -0.22440799353969271 0 -0.30524469928948339 -0.22846824781556621 0 -0.30647245128427247 -0.21921621469044439 0 -0.30158957284790477 -0.2185473734619581 0 -0.30647245128427247 -0.21921621469044439 0 -0.30158957284790477 -0.2185473734619581 0 -0.29842504581110352 -0.2354934829591154 0 -0.29199105075532672 -0.22738359332890551 0 -0.28426874970581822 -0.23758243454477779 0 -0.29199105075532672 -0.22738359332890551 0 -0.28698779017963227 -0.219982653840401 0 -0.30158957284790477 -0.2185473734619581 0 -0.29199105075532672 -0.22738359332890551 0 -0.28698779017963227 -0.219982653840401 0 -0.28315167862201318 -0.22643196303254931 0 -0.28698779017963227 -0.219982653840401 0 -0.28315167862201318 -0.22643196303254931 0 -0.27924926585259158 -0.2213543721344213 0 -0.29199105075532672 -0.22738359332890551 0 -0.28315167862201318 -0.22643196303254931 0 -0.28426874970581822 -0.23758243454477779 0 -0.29526051877429971 -0.25243959245627218 0 -0.29842504581110352 -0.2354934829591154 0 -0.29526051877429971 -0.25243959245627218 0 -0.29842504581110352 -0.2354934829591154 0 -0.28426874970581822 -0.23758243454477779 0 -0.29526051877429971 -0.25243959245627218 0 -0.28426874970581822 -0.23758243454477779 0 -0.2827280564874855 -0.25085307071156082 0 -0.29526051877429971 -0.25243959245627218 0 -0.28426874970581822 -0.23758243454477779 0 -0.2827280564874855 -0.25085307071156082 0 -0.28426874970581822 -0.23758243454477779 0 -0.27523815199516338 -0.24593723721268851 0 -0.28426874970581822 -0.23758243454477779 0 -0.27523815199516338 -0.24593723721268851 0 -0.27242967310262911 -0.2360250962955443 0 -0.27242967310262911 -0.2360250962955443 0 -0.26566085027026393 -0.24523659071420251 0 -0.26264397679354201 -0.2309070948957212 0 -0.27523815199516338 -0.24593723721268851 0 -0.27242967310262911 -0.2360250962955443 0 -0.26566085027026393 -0.24523659071420251 0 -0.24830814250465799 -0.23009345510381779 0 -0.25218120228073287 -0.24765507659215041 0 -0.26264397679354201 -0.2309070948957212 0 -0.26566085027026393 -0.24523659071420251 0 -0.25218120228073287 -0.24765507659215041 0 -0.26264397679354201 -0.2309070948957212 0 -0.24911422868170541 -0.22017811325298789 0 -0.24830814250465799 -0.23009345510381779 0 -0.25885379267416658 -0.21815211419563479 0 -0.24830814250465799 -0.23009345510381779 0 -0.26264397679354201 -0.2309070948957212 0 -0.25885379267416658 -0.21815211419563479 0 -0.26264397679354201 -0.2309070948957212 0 -0.2669773534118749 -0.22071912668525531 0 -0.25885379267416658 -0.21815211419563479 0 -0.2732769806373393 -0.22272527663328129 0 -0.2669773534118749 -0.22071912668525531 0 -0.27358833598170251 -0.2147118526909739 0 -0.26264397679354201 -0.2309070948957212 0 -0.2732769806373393 -0.22272527663328129 0 -0.2669773534118749 -0.22071912668525531 0 -0.27242967310262911 -0.2360250962955443 0 -0.26264397679354201 -0.2309070948957212 0 -0.2732769806373393 -0.22272527663328129 0 -0.28315167862201318 -0.22643196303254931 0 -0.28426874970581822 -0.23758243454477779 0 -0.2732769806373393 -0.22272527663328129 0 -0.28426874970581822 -0.23758243454477779 0 -0.27242967310262911 -0.2360250962955443 0 -0.2732769806373393 -0.22272527663328129 0 -0.28426874970581822 -0.23758243454477779 0 -0.2732769806373393 -0.22272527663328129 0 -0.28315167862201318 -0.22643196303254931 0 -0.2732769806373393 -0.22272527663328129 0 -0.27924926585259158 -0.2213543721344213 0 -0.2732769806373393 -0.22272527663328129 0 -0.27924926585259158 -0.2213543721344213 0 -0.27358833598170251 -0.2147118526909739 0 -0.28698779017963227 -0.219982653840401 0 -0.27924926585259158 -0.2213543721344213 0 -0.27358833598170251 -0.2147118526909739 0 -0.28045243871569658 -0.20743969809253171 0 -0.27123324897967283 -0.20552095966041301 0 -0.27570048257116803 -0.19881230601184979 0 -0.27358833598170251 -0.2147118526909739 0 -0.28045243871569658 -0.20743969809253171 0 -0.27123324897967283 -0.20552095966041301 0 -0.27123324897967283 -0.20552095966041301 0 -0.26057125708013029 -0.2068528599482134 0 -0.2658537305496666 -0.19978808155849639 0 -0.27358833598170251 -0.2147118526909739 0 -0.27123324897967283 -0.20552095966041301 0 -0.26057125708013029 -0.2068528599482134 0 -0.2669773534118749 -0.22071912668525531 0 -0.27358833598170251 -0.2147118526909739 0 -0.25885379267416658 -0.21815211419563479 0 -0.24558709911549961 -0.21087633191999369 0 -0.27358833598170251 -0.2147118526909739 0 -0.26057125708013029 -0.2068528599482134 0 -0.24558709911549961 -0.21087633191999369 0 -0.27358833598170251 -0.2147118526909739 0 -0.25885379267416658 -0.21815211419563479 0 -0.24558709911549961 -0.21087633191999369 0 -0.27358833598170251 -0.2147118526909739 0 -0.24558709911549961 -0.21087633191999369 0 -0.25670202753065169 -0.19898255864041631 0 -0.24558709911549961 -0.21087633191999369 0 -0.26057125708013029 -0.2068528599482134 0 -0.25670202753065169 -0.19898255864041631 0 -0.24558709911549961 -0.21087633191999369 0 -0.24911422868170541 -0.22017811325298789 0 -0.25885379267416658 -0.21815211419563479 0 -0.24699794624001389 -0.17924373397363971 0 -0.25670202753065169 -0.19898255864041631 0 -0.24699794624001389 -0.17924373397363971 0 -0.25670202753065169 -0.19898255864041631 0 -0.26763218554371732 -0.18728650298790031 0 -0.26057125708013029 -0.2068528599482134 0 -0.25670202753065169 -0.19898255864041631 0 -0.2658537305496666 -0.19978808155849639 0 -0.26057125708013029 -0.2068528599482134 0 -0.25670202753065169 -0.19898255864041631 0 -0.25670202753065169 -0.19898255864041631 0 -0.2658537305496666 -0.19978808155849639 0 -0.26763218554371732 -0.18728650298790031 0 -0.25670202753065169 -0.19898255864041631 0 -0.26763218554371732 -0.18728650298790031 0 -0.27570048257116803 -0.19881230601184979 0 -0.28539914484343248 -0.18818534812050169 0 -0.26763218554371732 -0.18728650298790031 0 -0.2658537305496666 -0.19978808155849639 0 -0.27570048257116803 -0.19881230601184979 0 -0.26763218554371732 -0.18728650298790031 0 -0.27123324897967283 -0.20552095966041301 0 -0.2658537305496666 -0.19978808155849639 0 -0.27570048257116803 -0.19881230601184979 0 -0.28539914484343248 -0.18818534812050169 0 -0.28903065898709518 -0.20179460469286539 0 -0.30635744852646429 -0.19301529793279401 0 -0.27570048257116803 -0.19881230601184979 0 -0.28539914484343248 -0.18818534812050169 0 -0.28903065898709518 -0.20179460469286539 0 -0.28045243871569658 -0.20743969809253171 0 -0.27570048257116803 -0.19881230601184979 0 -0.28903065898709518 -0.20179460469286539 0 -0.27358833598170251 -0.2147118526909739 0 -0.28045243871569658 -0.20743969809253171 0 -0.30158957284790477 -0.2185473734619581 0 -0.28698779017963227 -0.219982653840401 0 -0.27358833598170251 -0.2147118526909739 0 -0.30158957284790477 -0.2185473734619581 0 -0.28045243871569658 -0.20743969809253171 0 -0.28903065898709518 -0.20179460469286539 0 -0.30158957284790477 -0.2185473734619581 0 -0.27358833598170251 -0.2147118526909739 0 -0.30158957284790477 -0.2185473734619581 0 -0.30158957284790477 -0.2185473734619581 0 -0.30635744852646429 -0.19301529793279401 0 -0.28903065898709518 -0.20179460469286539 0 -0.30158957284790477 -0.2185473734619581 0 -0.30635744852646429 -0.19301529793279401 0 -0.30158957284790477 -0.2185473734619581 0 -0.30635744852646429 -0.19301529793279401 0 -0.31481525144795292 -0.2060788851649813 0 -0.30647245128427247 -0.21921621469044439 0 -0.31481525144795292 -0.2060788851649813 0 -0.31472739505410291 -0.21683490162393429 0 -0.30647245128427247 -0.21921621469044439 0 -0.30158957284790477 -0.2185473734619581 0 -0.31481525144795292 -0.2060788851649813 0 -0.30635744852646429 -0.19301529793279401 0 -0.31112532420502359 -0.16748322240362981 0 -0.29511174987536792 -0.17261292976221651 0 -0.30635744852646429 -0.19301529793279401 0 -0.31112532420502359 -0.16748322240362981 0 -0.31112532420502359 -0.16748322240362981 0 -0.29511174987536792 -0.17261292976221651 0 -0.30557820876316699 -0.153912769923953 0 -0.28801005250051498 -0.15844750365784879 0 -0.29511174987536792 -0.17261292976221651 0 -0.27856234355678272 -0.17559044733538429 0 -0.28801005250051498 -0.15844750365784879 0 -0.29511174987536792 -0.17261292976221651 0 -0.30557820876316699 -0.153912769923953 0 -0.28539914484343248 -0.18818534812050169 0 -0.30635744852646429 -0.19301529793279401 0 -0.29511174987536792 -0.17261292976221651 0 -0.28539914484343248 -0.18818534812050169 0 -0.29511174987536792 -0.17261292976221651 0 -0.27856234355678272 -0.17559044733538429 0 -0.27856234355678272 -0.17559044733538429 0 -0.26763218554371732 -0.18728650298790031 0 -0.26306429532772918 -0.17139500447097281 0 -0.28539914484343248 -0.18818534812050169 0 -0.27856234355678272 -0.17559044733538429 0 -0.26763218554371732 -0.18728650298790031 0 -0.27856234355678272 -0.17559044733538429 0 -0.26763218554371732 -0.18728650298790031 0 -0.24699794624001389 -0.17924373397363971 0 -0.251064607594914 -0.16497388850394279 0 -0.26306429532772918 -0.17139500447097281 0 -0.24699794624001389 -0.17924373397363971 0 -0.26763218554371732 -0.18728650298790031 0 -0.26306429532772918 -0.17139500447097281 0 -0.251064607594914 -0.16497388850394279 0 -0.26306429532772918 -0.17139500447097281 0 -0.2610775330216541 -0.15582566590558261 0 -0.26306429532772918 -0.17139500447097281 0 -0.27303651197794948 -0.1632295561390073 0 -0.2610775330216541 -0.15582566590558261 0 -0.28801005250051498 -0.15844750365784879 0 -0.27856234355678272 -0.17559044733538429 0 -0.27303651197794948 -0.1632295561390073 0 -0.27303651197794948 -0.1632295561390073 0 -0.27455494239743777 -0.15226632212070501 0 -0.2610775330216541 -0.15582566590558261 0 -0.27856234355678272 -0.17559044733538429 0 -0.26306429532772918 -0.17139500447097281 0 -0.27303651197794948 -0.1632295561390073 0 -0.28801005250051498 -0.15844750365784879 0 -0.27303651197794948 -0.1632295561390073 0 -0.27455494239743777 -0.15226632212070501 0 -0.27455494239743777 -0.15226632212070501 0 -0.26013140884650421 -0.1371804659279291 0 -0.27843439307571322 -0.13897901274378269 0 -0.27455494239743777 -0.15226632212070501 0 -0.27843439307571322 -0.13897901274378269 0 -0.28741217025826299 -0.14433701373388461 0 -0.27455494239743777 -0.15226632212070501 0 -0.2610775330216541 -0.15582566590558261 0 -0.26013140884650421 -0.1371804659279291 0 -0.24606608051875911 -0.14598770838649369 0 -0.2610775330216541 -0.15582566590558261 0 -0.26013140884650421 -0.1371804659279291 0 -0.24606608051875911 -0.14598770838649369 0 -0.251064607594914 -0.16497388850394279 0 -0.2610775330216541 -0.15582566590558261 0 -0.25976984430640249 -0.1118328058189921 0 -0.26013140884650421 -0.1371804659279291 0 -0.27389855975733329 -0.12728610436067861 0 -0.26013140884650421 -0.1371804659279291 0 -0.27843439307571322 -0.13897901274378269 0 -0.27389855975733329 -0.12728610436067861 0 -0.27843439307571322 -0.13897901274378269 0 -0.27389855975733329 -0.12728610436067861 0 -0.28716833410126591 -0.13280293843081981 0 -0.2875618097775286 -0.120778785147376 0 -0.27389855975733329 -0.12728610436067861 0 -0.28716833410126591 -0.13280293843081981 0 -0.2875618097775286 -0.120778785147376 0 -0.28716833410126591 -0.13280293843081981 0 -0.29673161151198951 -0.12761573601248671 0 -0.28716833410126591 -0.13280293843081981 0 -0.29673161151198951 -0.12761573601248671 0 -0.29747655536843209 -0.1370538883901477 0 -0.28716833410126591 -0.13280293843081981 0 -0.28741217025826299 -0.14433701373388461 0 -0.29747655536843209 -0.1370538883901477 0 -0.27843439307571322 -0.13897901274378269 0 -0.28716833410126591 -0.13280293843081981 0 -0.28741217025826299 -0.14433701373388461 0 -0.28801005250051498 -0.15844750365784879 0 -0.27455494239743777 -0.15226632212070501 0 -0.28741217025826299 -0.14433701373388461 0 -0.28801005250051498 -0.15844750365784879 0 -0.28741217025826299 -0.14433701373388461 0 -0.29882874410621463 -0.1464724170600038 0 -0.28741217025826299 -0.14433701373388461 0 -0.29882874410621463 -0.1464724170600038 0 -0.29747655536843209 -0.1370538883901477 0 -0.31112532420502359 -0.16748322240362981 0 -0.30557820876316699 -0.153912769923953 0 -0.31589319988358172 -0.14195114687446531 0 -0.28801005250051498 -0.15844750365784879 0 -0.29882874410621463 -0.1464724170600038 0 -0.30557820876316699 -0.153912769923953 0 -0.29882874410621463 -0.1464724170600038 0 -0.30674294927751822 -0.14534982886907899 0 -0.30569479710247283 -0.13939603685940419 0 -0.29882874410621463 -0.1464724170600038 0 -0.30569479710247283 -0.13939603685940419 0 -0.29747655536843209 -0.1370538883901477 0 -0.29882874410621463 -0.1464724170600038 0 -0.30557820876316699 -0.153912769923953 0 -0.30674294927751822 -0.14534982886907899 0 -0.30557820876316699 -0.153912769923953 0 -0.31446692397789522 -0.14225436471312319 0 -0.31589319988358172 -0.14195114687446531 0 -0.30557820876316699 -0.153912769923953 0 -0.30674294927751822 -0.14534982886907899 0 -0.31446692397789522 -0.14225436471312319 0 -0.30674294927751822 -0.14534982886907899 0 -0.309723415400536 -0.14069776643868731 0 -0.30569479710247283 -0.13939603685940419 0 -0.309723415400536 -0.14069776643868731 0 -0.31257540941979178 -0.13984775964306501 0 -0.31446692397789522 -0.14225436471312319 0 -0.30674294927751822 -0.14534982886907899 0 -0.309723415400536 -0.14069776643868731 0 -0.31446692397789522 -0.14225436471312319 0 -0.309723415400536 -0.14069776643868731 0 -0.31036490726141552 -0.13739671825967359 0 -0.30569479710247283 -0.13939603685940419 0 -0.309723415400536 -0.14069776643868731 0 -0.31036490726141552 -0.13739671825967359 0 -0.31257540941979178 -0.13984775964306501 0 -0.31036490726141552 -0.13739671825967359 0 -0.31406778074957842 -0.1383312286316081 0 -0.31257540941979178 -0.13984775964306501 0 -0.31036490726141552 -0.13739671825967359 0 -0.30569479710247283 -0.13939603685940419 0 -0.30657130270750038 -0.13185021379973319 0 -0.31036490726141552 -0.13739671825967359 0 -0.30657130270750038 -0.13185021379973319 0 -0.31354397338132639 -0.1344069233588733 0 -0.30501241601462709 -0.1230728154596903 0 -0.31190542547158567 -0.12611780418129509 0 -0.30657130270750038 -0.13185021379973319 0 -0.31190542547158567 -0.12611780418129509 0 -0.30657130270750038 -0.13185021379973319 0 -0.31354397338132639 -0.1344069233588733 0 -0.30501241601462709 -0.1230728154596903 0 -0.29673161151198951 -0.12761573601248671 0 -0.30657130270750038 -0.13185021379973319 0 -0.29673161151198951 -0.12761573601248671 0 -0.30657130270750038 -0.13185021379973319 0 -0.29747655536843209 -0.1370538883901477 0 -0.30569479710247283 -0.13939603685940419 0 -0.30657130270750038 -0.13185021379973319 0 -0.29747655536843209 -0.1370538883901477 0 -0.32113611654221152 -0.1138752168070804 0 -0.31589319988358172 -0.14195114687446531 0 -0.32113611654221152 -0.1138752168070804 0 -0.31354397338132639 -0.1344069233588733 0 -0.31589319988358172 -0.14195114687446531 0 -0.32113611654221152 -0.1138752168070804 0 -0.32407542189213578 -0.1301292893403144 0 -0.31589319988358172 -0.14195114687446531 0 -0.31589319988358172 -0.14195114687446531 0 -0.3299471284755921 -0.13896336461201039 0 -0.32407542189213578 -0.1301292893403144 0 -0.31589319988358172 -0.14195114687446531 0 -0.3299471284755921 -0.13896336461201039 0 -0.32407542189213578 -0.1301292893403144 0 -0.3299471284755921 -0.13896336461201039 0 -0.32932524266715801 -0.12572742906770129 0 -0.31354397338132639 -0.1344069233588733 0 -0.31406778074957842 -0.1383312286316081 0 -0.31589319988358172 -0.14195114687446531 0 -0.31036490726141552 -0.13739671825967359 0 -0.31354397338132639 -0.1344069233588733 0 -0.31406778074957842 -0.1383312286316081 0 -0.31406778074957842 -0.1383312286316081 0 -0.31425401970953371 -0.14055872017223309 0 -0.31589319988358172 -0.14195114687446531 0 -0.31406778074957842 -0.1383312286316081 0 -0.31257540941979178 -0.13984775964306501 0 -0.31425401970953371 -0.14055872017223309 0 -0.31112532420502359 -0.16748322240362981 0 -0.31589319988358172 -0.14195114687446531 0 -0.32199070558441389 -0.15242742533267739 0 -0.31112532420502359 -0.16748322240362981 0 -0.31589319988358172 -0.14195114687446531 0 -0.31257540941979178 -0.13984775964306501 0 -0.31425401970953371 -0.14055872017223309 0 -0.31446692397789522 -0.14225436471312319 0 -0.32199070558441389 -0.15242742533267739 0 -0.3299471284755921 -0.13896336461201039 0 -0.33099716977345839 -0.16131196744060389 0 -0.31425401970953371 -0.14055872017223309 0 -0.31446692397789522 -0.14225436471312319 0 -0.31589319988358172 -0.14195114687446531 0 -0.31446692397789522 -0.14225436471312319 0 -0.31589319988358172 -0.14195114687446531 0 -0.31589319988358172 -0.14195114687446531 0 -0.32199070558441389 -0.15242742533267739 0 -0.3299471284755921 -0.13896336461201039 0 -0.3299471284755921 -0.13896336461201039 0 -0.34454084556209208 -0.14941901231803811 0 -0.33099716977345839 -0.16131196744060389 0 -0.3299471284755921 -0.13896336461201039 0 -0.33099716977345839 -0.16131196744060389 0 -0.3299471284755921 -0.13896336461201039 0 -0.35361906204481541 -0.133930851263666 0 -0.34454084556209208 -0.14941901231803811 0 -0.34137201608007789 -0.1246756993789075 0 -0.3299471284755921 -0.13896336461201039 0 -0.35361906204481541 -0.133930851263666 0 -0.3299471284755921 -0.13896336461201039 0 -0.35361906204481541 -0.133930851263666 0 -0.3299471284755921 -0.13896336461201039 0 -0.32932524266715801 -0.12572742906770129 0 -0.34137201608007789 -0.1246756993789075 0 -0.3299471284755921 -0.13896336461201039 0 -0.32932524266715801 -0.12572742906770129 0 -0.34137201608007789 -0.1246756993789075 0 -0.35307643793722832 -0.1196084156075037 0 -0.35361906204481541 -0.133930851263666 0 -0.35361906204481541 -0.133930851263666 0 -0.37729099561403823 -0.12889833791531941 0 -0.36498890652998722 -0.11982427007552281 0 -0.35361906204481541 -0.133930851263666 0 -0.37729099561403823 -0.12889833791531941 0 -0.35361906204481541 -0.133930851263666 0 -0.37188938379582309 -0.14468672267800631 0 -0.37729099561403823 -0.12889833791531941 0 -0.35361906204481541 -0.133930851263666 0 -0.37188938379582309 -0.14468672267800631 0 -0.35946169825150859 -0.15265514424548191 0 -0.37188938379582309 -0.14468672267800631 0 -0.35946169825150859 -0.15265514424548191 0 -0.37355341533807679 -0.15970729828915231 0 -0.35361906204481541 -0.133930851263666 0 -0.35946169825150859 -0.15265514424548191 0 -0.34454084556209208 -0.14941901231803811 0 -0.35946169825150859 -0.15265514424548191 0 -0.34454084556209208 -0.14941901231803811 0 -0.34942456728790039 -0.16131505410932101 0 -0.34942456728790039 -0.16131505410932101 0 -0.36141592244074427 -0.168183244328625 0 -0.34801041601813121 -0.1757147097058146 0 -0.35946169825150859 -0.15265514424548191 0 -0.34942456728790039 -0.16131505410932101 0 -0.36141592244074427 -0.168183244328625 0 -0.35946169825150859 -0.15265514424548191 0 -0.36141592244074427 -0.168183244328625 0 -0.37355341533807679 -0.15970729828915231 0 -0.36141592244074427 -0.168183244328625 0 -0.37355341533807679 -0.15970729828915231 0 -0.37510807876285279 -0.17496250536680411 0 -0.36293735898599588 -0.18474475425517661 0 -0.37779025821724282 -0.1915363362940995 0 -0.37510807876285279 -0.17496250536680411 0 -0.36141592244074427 -0.168183244328625 0 -0.36293735898599588 -0.18474475425517661 0 -0.37510807876285279 -0.17496250536680411 0 -0.36293735898599588 -0.18474475425517661 0 -0.34801041601813121 -0.1757147097058146 0 -0.348255428918956 -0.1940874593267502 0 -0.36141592244074427 -0.168183244328625 0 -0.36293735898599588 -0.18474475425517661 0 -0.34801041601813121 -0.1757147097058146 0 -0.34801041601813121 -0.1757147097058146 0 -0.33204721107132501 -0.18366057026919741 0 -0.348255428918956 -0.1940874593267502 0 -0.33204721107132501 -0.18366057026919741 0 -0.33099716977345839 -0.16131196744060389 0 -0.34801041601813121 -0.1757147097058146 0 -0.33204721107132501 -0.18366057026919741 0 -0.33099716977345839 -0.16131196744060389 0 -0.34942456728790039 -0.16131505410932101 0 -0.34801041601813121 -0.1757147097058146 0 -0.33099716977345839 -0.16131196744060389 0 -0.34454084556209208 -0.14941901231803811 0 -0.34942456728790039 -0.16131505410932101 0 -0.33099716977345839 -0.16131196744060389 0 -0.31112532420502359 -0.16748322240362981 0 -0.33204721107132501 -0.18366057026919741 0 -0.33099716977345839 -0.16131196744060389 0 -0.31112532420502359 -0.16748322240362981 0 -0.32199070558441389 -0.15242742533267739 0 -0.33099716977345839 -0.16131196744060389 0 -0.30635744852646429 -0.19301529793279401 0 -0.31112532420502359 -0.16748322240362981 0 -0.33204721107132501 -0.18366057026919741 0 -0.33204721107132501 -0.18366057026919741 0 -0.31481525144795292 -0.2060788851649813 0 -0.33309725236919152 -0.20600917309779079 0 -0.30635744852646429 -0.19301529793279401 0 -0.33204721107132501 -0.18366057026919741 0 -0.31481525144795292 -0.2060788851649813 0 -0.31481525144795292 -0.2060788851649813 0 -0.32288576868467211 -0.21763651310061891 0 -0.33309725236919152 -0.20600917309779079 0 -0.31481525144795292 -0.2060788851649813 0 -0.31472739505410291 -0.21683490162393429 0 -0.32288576868467211 -0.21763651310061891 0 -0.33309725236919152 -0.20600917309779079 0 -0.35010237461149102 -0.20879592922003359 0 -0.33795857308980931 -0.2205733703874008 0 -0.32288576868467211 -0.21763651310061891 0 -0.33309725236919152 -0.20600917309779079 0 -0.33795857308980931 -0.2205733703874008 0 -0.33204721107132501 -0.18366057026919741 0 -0.33309725236919152 -0.20600917309779079 0 -0.348255428918956 -0.1940874593267502 0 -0.33204721107132501 -0.18366057026919741 0 -0.33309725236919152 -0.20600917309779079 0 -0.33309725236919152 -0.20600917309779079 0 -0.348255428918956 -0.1940874593267502 0 -0.35010237461149102 -0.20879592922003359 0 -0.348255428918956 -0.1940874593267502 0 -0.3643472651644809 -0.20469307800092479 0 -0.35010237461149102 -0.20879592922003359 0 -0.36293735898599588 -0.18474475425517661 0 -0.348255428918956 -0.1940874593267502 0 -0.3643472651644809 -0.20469307800092479 0 -0.36293735898599588 -0.18474475425517661 0 -0.3643472651644809 -0.20469307800092479 0 -0.37779025821724282 -0.1915363362940995 0 -0.3643472651644809 -0.20469307800092479 0 -0.37416790128274602 -0.22634429062424319 0 -0.38423512137933552 -0.20886252837845279 0 -0.3643472651644809 -0.20469307800092479 0 -0.353867430275979 -0.22244454757068069 0 -0.37416790128274602 -0.22634429062424319 0 -0.3643472651644809 -0.20469307800092479 0 -0.35010237461149102 -0.20879592922003359 0 -0.353867430275979 -0.22244454757068069 0 -0.35010237461149102 -0.20879592922003359 0 -0.353867430275979 -0.22244454757068069 0 -0.33795857308980931 -0.2205733703874008 0 -0.353867430275979 -0.22244454757068069 0 -0.35990219531396977 -0.2394160439223523 0 -0.3429900586711308 -0.2352913154614785 0 -0.353867430275979 -0.22244454757068069 0 -0.3429900586711308 -0.2352913154614785 0 -0.33795857308980931 -0.2205733703874008 0 -0.353867430275979 -0.22244454757068069 0 -0.37416790128274602 -0.22634429062424319 0 -0.35990219531396977 -0.2394160439223523 0 -0.36338572988622991 -0.25681459894990649 0 -0.35990219531396977 -0.2394160439223523 0 -0.37582382025708527 -0.246023115539172 0 -0.37416790128274602 -0.22634429062424319 0 -0.35990219531396977 -0.2394160439223523 0 -0.37582382025708527 -0.246023115539172 0 -0.36338572988622991 -0.25681459894990649 0 -0.35990219531396977 -0.2394160439223523 0 -0.34917823151064831 -0.24957839538863319 0 -0.35990219531396977 -0.2394160439223523 0 -0.34917823151064831 -0.24957839538863319 0 -0.3429900586711308 -0.2352913154614785 0 -0.33368442547674693 -0.24785125579902459 0 -0.3429900586711308 -0.2352913154614785 0 -0.32548293711330401 -0.23231729798997819 0 -0.34917823151064831 -0.24957839538863319 0 -0.33368442547674693 -0.24785125579902459 0 -0.3429900586711308 -0.2352913154614785 0 -0.3429900586711308 -0.2352913154614785 0 -0.33795857308980931 -0.2205733703874008 0 -0.32548293711330401 -0.23231729798997819 0 -0.32288576868467211 -0.21763651310061891 0 -0.33795857308980931 -0.2205733703874008 0 -0.32548293711330401 -0.23231729798997819 0 -0.32288576868467211 -0.21763651310061891 0 -0.32548293711330401 -0.23231729798997819 0 -0.31473610879951402 -0.22440799353969271 0 -0.31472739505410291 -0.21683490162393429 0 -0.32288576868467211 -0.21763651310061891 0 -0.31473610879951402 -0.22440799353969271 0 -0.32548293711330401 -0.23231729798997819 0 -0.31473610879951402 -0.22440799353969271 0 -0.31408925234489671 -0.23387743964731361 0 -0.30656167854946192 -0.24082003241795111 0 -0.31408925234489671 -0.23387743964731361 0 -0.31927486322503718 -0.24452010099714019 0 -0.32548293711330401 -0.23231729798997819 0 -0.31408925234489671 -0.23387743964731361 0 -0.31927486322503718 -0.24452010099714019 0 -0.31594769265599698 -0.25376434042267809 0 -0.307075691851949 -0.25012133063229841 0 -0.31927486322503718 -0.24452010099714019 0 -0.33368442547674693 -0.24785125579902459 0 -0.32548293711330401 -0.23231729798997819 0 -0.31927486322503718 -0.24452010099714019 0 -0.43978426832496842 -0.25595267217095202 0 -0.43202000049662648 -0.2295353026501564 0 -0.42707331057603581 -0.24532875095080739 0 -0.43202000049662648 -0.2295353026501564 0 -0.41966924173429149 -0.23474975895620631 0 -0.43978426832496842 -0.25595267217095202 0 -0.42707331057603581 -0.24532875095080739 0 -0.43202000049662648 -0.2295353026501564 0 -0.43202000049662648 -0.2295353026501564 0 -0.41324014892828598 -0.2229854671260591 0 -0.41966924173429149 -0.23474975895620631 0 -0.41324014892828598 -0.2229854671260591 0 -0.41966924173429149 -0.23474975895620631 0 -0.40705479724394628 -0.24188849849308219 0 -0.420661486853942 -0.25882728147332812 0 -0.42707331057603581 -0.24532875095080739 0 -0.40705479724394628 -0.24188849849308219 0 -0.42707331057603581 -0.24532875095080739 0 -0.41966924173429149 -0.23474975895620631 0 -0.40705479724394628 -0.24188849849308219 0 -0.39186305465216531 -0.25425052695649591 0 -0.40705479724394628 -0.24188849849308219 0 -0.38983080214586269 -0.2395811594697729 0 -0.40705479724394628 -0.24188849849308219 0 -0.38983080214586269 -0.2395811594697729 0 -0.39344810763395061 -0.22494971551283621 0 -0.37416790128274602 -0.22634429062424319 0 -0.38983080214586269 -0.2395811594697729 0 -0.37582382025708527 -0.246023115539172 0 -0.39186305465216531 -0.25425052695649591 0 -0.38983080214586269 -0.2395811594697729 0 -0.37582382025708527 -0.246023115539172 0 -0.37416790128274602 -0.22634429062424319 0 -0.39344810763395061 -0.22494971551283621 0 -0.38423512137933552 -0.20886252837845279 0 -0.37416790128274602 -0.22634429062424319 0 -0.38983080214586269 -0.2395811594697729 0 -0.39344810763395061 -0.22494971551283621 0 -0.40705479724394628 -0.24188849849308219 0 -0.39344810763395061 -0.22494971551283621 0 -0.41324014892828598 -0.2229854671260591 0 -0.39344810763395061 -0.22494971551283621 0 -0.40231054485997231 -0.2100525876791999 0 -0.41324014892828598 -0.2229854671260591 0 -0.40705479724394628 -0.24188849849308219 0 -0.39344810763395061 -0.22494971551283621 0 -0.40231054485997231 -0.2100525876791999 0 -0.38423512137933552 -0.20886252837845279 0 -0.39364125420039969 -0.1950671513775232 0 -0.39344810763395061 -0.22494971551283621 0 -0.40231054485997231 -0.2100525876791999 0 -0.38423512137933552 -0.20886252837845279 0 -0.38423512137933552 -0.20886252837845279 0 -0.37779025821724282 -0.1915363362940995 0 -0.39364125420039969 -0.1950671513775232 0 -0.3643472651644809 -0.20469307800092479 0 -0.38423512137933552 -0.20886252837845279 0 -0.37779025821724282 -0.1915363362940995 0 -0.37779025821724282 -0.1915363362940995 0 -0.39364125420039969 -0.1950671513775232 0 -0.38841275020019828 -0.17931143967027791 0 -0.40231054485997231 -0.2100525876791999 0 -0.39364125420039969 -0.1950671513775232 0 -0.40780022411296279 -0.19320281491484359 0 -0.39364125420039969 -0.1950671513775232 0 -0.40780022411296279 -0.19320281491484359 0 -0.40230212399621479 -0.18107583877956901 0 -0.40780022411296279 -0.19320281491484359 0 -0.42425573266828448 -0.20311793312936069 0 -0.41649146483994259 -0.17670056360856509 0 -0.40231054485997231 -0.2100525876791999 0 -0.40780022411296279 -0.19320281491484359 0 -0.42425573266828448 -0.20311793312936069 0 -0.42425573266828448 -0.20311793312936069 0 -0.41649146483994259 -0.17670056360856509 0 -0.41324014892828598 -0.2229854671260591 0 -0.40231054485997231 -0.2100525876791999 0 -0.42425573266828448 -0.20311793312936069 0 -0.43202000049662648 -0.2295353026501564 0 -0.42425573266828448 -0.20311793312936069 0 -0.44750182369702118 -0.21426213307432929 0 -0.43202000049662648 -0.2295353026501564 0 -0.41324014892828598 -0.2229854671260591 0 -0.42425573266828448 -0.20311793312936069 0 -0.43202000049662648 -0.2295353026501564 0 -0.42425573266828448 -0.20311793312936069 0 -0.42425573266828448 -0.20311793312936069 0 -0.43306883517049211 -0.1793893031513803 0 -0.4487884323068379 -0.19233694919214431 0 -0.43306883517049211 -0.1793893031513803 0 -0.42353624856406508 -0.16556293992758719 0 -0.41649146483994259 -0.17670056360856509 0 -0.42425573266828448 -0.20311793312936069 0 -0.43306883517049211 -0.1793893031513803 0 -0.41649146483994259 -0.17670056360856509 0 -0.43306883517049211 -0.1793893031513803 0 -0.42353624856406508 -0.16556293992758719 0 -0.43935444537578588 -0.16150746967356819 0 -0.42353624856406508 -0.16556293992758719 0 -0.43017037753414972 -0.15002336677940911 0 -0.43935444537578588 -0.16150746967356819 0 -0.42353624856406508 -0.16556293992758719 0 -0.41649146483994259 -0.17670056360856509 0 -0.40872719701160071 -0.15028319408776949 0 -0.41649146483994259 -0.17670056360856509 0 -0.40872719701160071 -0.15028319408776949 0 -0.41649146483994259 -0.17670056360856509 0 -0.40574183023188648 -0.1619832577582567 0 -0.40872719701160071 -0.15028319408776949 0 -0.41649146483994259 -0.17670056360856509 0 -0.40554240537349051 -0.17216943429625009 0 -0.40574183023188648 -0.1619832577582567 0 -0.41649146483994259 -0.17670056360856509 0 -0.40230212399621479 -0.18107583877956901 0 -0.40554240537349051 -0.17216943429625009 0 -0.40780022411296279 -0.19320281491484359 0 -0.41649146483994259 -0.17670056360856509 0 -0.40230212399621479 -0.18107583877956901 0 -0.39364125420039969 -0.1950671513775232 0 -0.40230212399621479 -0.18107583877956901 0 -0.38841275020019828 -0.17931143967027791 0 -0.40230212399621479 -0.18107583877956901 0 -0.40554240537349051 -0.17216943429625009 0 -0.39763420242591813 -0.16891807703860959 0 -0.40230212399621479 -0.18107583877956901 0 -0.38841275020019828 -0.17931143967027791 0 -0.39763420242591813 -0.16891807703860959 0 -0.37779025821724282 -0.1915363362940995 0 -0.38841275020019828 -0.17931143967027791 0 -0.37510807876285279 -0.17496250536680411 0 -0.38841275020019828 -0.17931143967027791 0 -0.37510807876285279 -0.17496250536680411 0 -0.38537385117305861 -0.16544148656857161 0 -0.37355341533807679 -0.15970729828915231 0 -0.38537385117305861 -0.16544148656857161 0 -0.38419835455786761 -0.1525427470687544 0 -0.37355341533807679 -0.15970729828915231 0 -0.37510807876285279 -0.17496250536680411 0 -0.38537385117305861 -0.16544148656857161 0 -0.38841275020019828 -0.17931143967027791 0 -0.38537385117305861 -0.16544148656857161 0 -0.39763420242591813 -0.16891807703860959 0 -0.38537385117305861 -0.16544148656857161 0 -0.39639310018077739 -0.15511052255376739 0 -0.38419835455786761 -0.1525427470687544 0 -0.38537385117305861 -0.16544148656857161 0 -0.39763420242591813 -0.16891807703860959 0 -0.39639310018077739 -0.15511052255376739 0 -0.40554240537349051 -0.17216943429625009 0 -0.39763420242591813 -0.16891807703860959 0 -0.40574183023188648 -0.1619832577582567 0 -0.39763420242591813 -0.16891807703860959 0 -0.40574183023188648 -0.1619832577582567 0 -0.39639310018077739 -0.15511052255376739 0 -0.39974533788639183 -0.1424609512738072 0 -0.39639310018077739 -0.15511052255376739 0 -0.40872719701160071 -0.15028319408776949 0 -0.40574183023188648 -0.1619832577582567 0 -0.39639310018077739 -0.15511052255376739 0 -0.40872719701160071 -0.15028319408776949 0 -0.39974533788639183 -0.1424609512738072 0 -0.39639310018077739 -0.15511052255376739 0 -0.392898125169928 -0.14058426388671891 0 -0.39639310018077739 -0.15511052255376739 0 -0.38419835455786761 -0.1525427470687544 0 -0.392898125169928 -0.14058426388671891 0 -0.38419835455786761 -0.1525427470687544 0 -0.38156921478441419 -0.14167801788719969 0 -0.392898125169928 -0.14058426388671891 0 -0.37188938379582309 -0.14468672267800631 0 -0.38419835455786761 -0.1525427470687544 0 -0.38156921478441419 -0.14167801788719969 0 -0.37188938379582309 -0.14468672267800631 0 -0.37355341533807679 -0.15970729828915231 0 -0.38419835455786761 -0.1525427470687544 0 -0.37729099561403823 -0.12889833791531941 0 -0.392898125169928 -0.14058426388671891 0 -0.4009629291832611 -0.12386582456697311 0 -0.37188938379582309 -0.14468672267800631 0 -0.38156921478441419 -0.14167801788719969 0 -0.37729099561403823 -0.12889833791531941 0 -0.37729099561403823 -0.12889833791531941 0 -0.4009629291832611 -0.12386582456697311 0 -0.38156921478441419 -0.14167801788719969 0 -0.37729099561403823 -0.12889833791531941 0 -0.392898125169928 -0.14058426388671891 0 -0.40872719701160071 -0.15028319408776949 0 -0.4009629291832611 -0.12386582456697311 0 -0.39974533788639183 -0.1424609512738072 0 -0.40872719701160071 -0.15028319408776949 0 -0.4009629291832611 -0.12386582456697311 0 -0.39974533788639183 -0.1424609512738072 0 -0.392898125169928 -0.14058426388671891 0 -0.4009629291832611 -0.12386582456697311 0 -0.41637007942813792 -0.14383839027744461 0 -0.4009629291832611 -0.12386582456697311 0 -0.40920391029221093 -0.122113840627302 0 -0.40872719701160071 -0.15028319408776949 0 -0.41637007942813792 -0.14383839027744461 0 -0.4009629291832611 -0.12386582456697311 0 -0.41637007942813792 -0.14383839027744461 0 -0.40920391029221093 -0.122113840627302 0 -0.42092805186964272 -0.13020502700165629 0 -0.41637007942813792 -0.14383839027744461 0 -0.40920391029221093 -0.122113840627302 0 -0.42353624856406508 -0.16556293992758719 0 -0.40872719701160071 -0.15028319408776949 0 -0.41637007942813792 -0.14383839027744461 0 -0.42353624856406508 -0.16556293992758719 0 -0.41637007942813792 -0.14383839027744461 0 -0.42353624856406508 -0.16556293992758719 0 -0.41637007942813792 -0.14383839027744461 0 -0.43017037753414972 -0.15002336677940911 0 -0.41637007942813792 -0.14383839027744461 0 -0.43017037753414972 -0.15002336677940911 0 -0.43133827787148588 -0.13575030520140099 0 -0.43017037753414972 -0.15002336677940911 0 -0.43133827787148588 -0.13575030520140099 0 -0.44545086730546768 -0.1442035216626488 0 -0.42092805186964272 -0.13020502700165629 0 -0.43133827787148588 -0.13575030520140099 0 -0.43198043737197539 -0.1172716854132916 0 -0.43133827787148588 -0.13575030520140099 0 -0.44636766464781669 -0.12780616101946399 0 -0.43198043737197539 -0.1172716854132916 0 -0.42092805186964272 -0.13020502700165629 0 -0.41637007942813792 -0.14383839027744461 0 -0.43133827787148588 -0.13575030520140099 0 -0.43133827787148588 -0.13575030520140099 0 -0.44636766464781669 -0.12780616101946399 0 -0.44545086730546768 -0.1442035216626488 0 -0.44636766464781669 -0.12780616101946399 0 -0.44545086730546768 -0.1442035216626488 0 -0.46607648064170581 -0.13208324853690259 0 -0.44545086730546768 -0.1442035216626488 0 -0.45756216947195177 -0.15818341851843989 0 -0.43935444537578588 -0.16150746967356819 0 -0.43017037753414972 -0.15002336677940911 0 -0.44545086730546768 -0.1442035216626488 0 -0.43935444537578588 -0.16150746967356819 0 -0.44545086730546768 -0.1442035216626488 0 -0.46607648064170581 -0.13208324853690259 0 -0.45756216947195177 -0.15818341851843989 0 -0.46607648064170581 -0.13208324853690259 0 -0.48085960131626487 -0.15193045745878031 0 -0.45756216947195177 -0.15818341851843989 0 -0.46607648064170581 -0.13208324853690259 0 -0.48565596786896659 -0.12604806504480931 0 -0.48085960131626487 -0.15193045745878031 0 -0.48565596786896659 -0.12604806504480931 0 -0.5 -0.14093090455833729 0 -0.48085960131626487 -0.15193045745878031 0 -0.48565596786896659 -0.12604806504480931 0 -0.5 -0.14093090455833729 0 -0.5 -0.1113831015004856 0 -0.5 -0.14093090455833729 0 -0.48085960131626487 -0.15193045745878031 0 -0.5 -0.170478707616189 0 -0.48085960131626487 -0.15193045745878031 0 -0.46973476017287141 -0.16794308735306529 0 -0.45756216947195177 -0.15818341851843989 0 -0.48085960131626487 -0.15193045745878031 0 -0.46973476017287141 -0.16794308735306529 0 -0.48300025145156161 -0.18065341125775089 0 -0.48085960131626487 -0.15193045745878031 0 -0.5 -0.170478707616189 0 -0.48300025145156161 -0.18065341125775089 0 -0.5 -0.170478707616189 0 -0.48300025145156161 -0.18065341125775089 0 -0.5 -0.20002651067404081 0 -0.48300025145156161 -0.18065341125775089 0 -0.4603598952704735 -0.18050311645781961 0 -0.47513418538114649 -0.19613670525034249 0 -0.46973476017287141 -0.16794308735306529 0 -0.48300025145156161 -0.18065341125775089 0 -0.4603598952704735 -0.18050311645781961 0 -0.4603598952704735 -0.18050311645781961 0 -0.45756216947195177 -0.15818341851843989 0 -0.44633817420858929 -0.171682268001944 0 -0.46973476017287141 -0.16794308735306529 0 -0.4603598952704735 -0.18050311645781961 0 -0.45756216947195177 -0.15818341851843989 0 -0.45756216947195177 -0.15818341851843989 0 -0.43935444537578588 -0.16150746967356819 0 -0.44633817420858929 -0.171682268001944 0 -0.43306883517049211 -0.1793893031513803 0 -0.43935444537578588 -0.16150746967356819 0 -0.44633817420858929 -0.171682268001944 0 -0.4603598952704735 -0.18050311645781961 0 -0.44633817420858929 -0.171682268001944 0 -0.4487884323068379 -0.19233694919214431 0 -0.43306883517049211 -0.1793893031513803 0 -0.44633817420858929 -0.171682268001944 0 -0.4487884323068379 -0.19233694919214431 0 -0.4487884323068379 -0.19233694919214431 0 -0.44750182369702118 -0.21426213307432929 0 -0.4487884323068379 -0.19233694919214431 0 -0.44750182369702118 -0.21426213307432929 0 -0.46042121654948948 -0.203563283093502 0 -0.42425573266828448 -0.20311793312936069 0 -0.4487884323068379 -0.19233694919214431 0 -0.44750182369702118 -0.21426213307432929 0 -0.46042121654948948 -0.203563283093502 0 -0.47892766724433239 -0.21355590426914239 0 -0.46018620744453809 -0.22076477085630999 0 -0.44750182369702118 -0.21426213307432929 0 -0.46042121654948948 -0.203563283093502 0 -0.46018620744453809 -0.22076477085630999 0 -0.4603598952704735 -0.18050311645781961 0 -0.4487884323068379 -0.19233694919214431 0 -0.46042121654948948 -0.203563283093502 0 -0.4603598952704735 -0.18050311645781961 0 -0.46042121654948948 -0.203563283093502 0 -0.47513418538114649 -0.19613670525034249 0 -0.48300025145156161 -0.18065341125775089 0 -0.47513418538114649 -0.19613670525034249 0 -0.5 -0.20002651067404081 0 -0.5 -0.20002651067404081 0 -0.47892766724433239 -0.21355590426914239 0 -0.5 -0.22957431373189241 0 -0.47513418538114649 -0.19613670525034249 0 -0.5 -0.20002651067404081 0 -0.47892766724433239 -0.21355590426914239 0 -0.46042121654948948 -0.203563283093502 0 -0.47513418538114649 -0.19613670525034249 0 -0.47892766724433239 -0.21355590426914239 0 -0.47892766724433239 -0.21355590426914239 0 -0.47782439409082111 -0.2312698420087673 0 -0.46018620744453809 -0.22076477085630999 0 -0.47892766724433239 -0.21355590426914239 0 -0.47782439409082111 -0.2312698420087673 0 -0.5 -0.22957431373189241 0 -0.47782439409082111 -0.2312698420087673 0 -0.5 -0.22957431373189241 0 -0.48614690839338193 -0.24626533862775701 0 -0.5 -0.25912211678974428 0 -0.5 -0.22957431373189241 0 -0.48614690839338193 -0.24626533862775701 0 -0.47782439409082111 -0.2312698420087673 0 -0.48614690839338193 -0.24626533862775701 0 -0.46804319132689648 -0.246018173434604 0 -0.44856495240922428 -0.25209074898137163 0 -0.45717515575802498 -0.25173532694221612 0 -0.45560036135097159 -0.24325595257704549 0 -0.45717515575802498 -0.25173532694221612 0 -0.46804319132689648 -0.246018173434604 0 -0.45560036135097159 -0.24325595257704549 0 -0.46804319132689648 -0.246018173434604 0 -0.45560036135097159 -0.24325595257704549 0 -0.45550935978132628 -0.23209766937976059 0 -0.46804319132689648 -0.246018173434604 0 -0.46018620744453809 -0.22076477085630999 0 -0.44750182369702118 -0.21426213307432929 0 -0.46018620744453809 -0.22076477085630999 0 -0.45550935978132628 -0.23209766937976059 0 -0.47782439409082111 -0.2312698420087673 0 -0.46804319132689648 -0.246018173434604 0 -0.46018620744453809 -0.22076477085630999 0 -0.46804319132689648 -0.246018173434604 0 -0.46018620744453809 -0.22076477085630999 0 -0.45550935978132628 -0.23209766937976059 0 -0.43202000049662648 -0.2295353026501564 0 -0.44750182369702118 -0.21426213307432929 0 -0.44621521508720452 -0.23618731695651429 0 -0.44750182369702118 -0.21426213307432929 0 -0.44621521508720452 -0.23618731695651429 0 -0.44750182369702118 -0.21426213307432929 0 -0.45550935978132628 -0.23209766937976059 0 -0.44621521508720452 -0.23618731695651429 0 -0.44492860647738708 -0.2581125008386993 0 -0.44621521508720452 -0.23618731695651429 0 -0.44856495240922428 -0.25209074898137163 0 -0.45560036135097159 -0.24325595257704549 0 -0.44621521508720452 -0.23618731695651429 0 -0.43978426832496842 -0.25595267217095202 0 -0.43202000049662648 -0.2295353026501564 0 -0.44621521508720452 -0.23618731695651429 0 -0.44856495240922428 -0.25209074898137163 0 -0.44492860647738708 -0.2581125008386993 0 -0.44621521508720452 -0.23618731695651429 0 -0.45560036135097159 -0.24325595257704549 0 -0.45550935978132628 -0.23209766937976059 0 -0.44621521508720452 -0.23618731695651429 0 -0.42092813200641971 -0.046736947896220141 0 -0.40777063509683581 -0.033924454059109613 0 -0.42014112847889412 -0.025771953523232589 0 -0.42092813200641971 -0.046736947896220141 0 -0.40777063509683581 -0.033924454059109613 0 -0.40318032111001451 -0.047439370479043327 0 -0.42092813200641971 -0.046736947896220141 0 -0.411193977930709 -0.061222971465780297 0 -0.40318032111001451 -0.047439370479043327 0 -0.42092813200641971 -0.046736947896220141 0 -0.411193977930709 -0.061222971465780297 0 -0.42556378613350992 -0.061770648574362617 0 -0.42092813200641971 -0.046736947896220141 0 -0.42556378613350992 -0.061770648574362617 0 -0.43979090961297729 -0.057538978545256941 0 -0.42092813200641971 -0.046736947896220141 0 -0.4384817319502689 -0.036349626810617437 0 -0.43979090961297729 -0.057538978545256941 0 -0.42092813200641971 -0.046736947896220141 0 -0.42014112847889412 -0.025771953523232589 0 -0.4384817319502689 -0.036349626810617437 0 -0.4347471527390982 -0.015930199706157281 0 -0.42014112847889412 -0.025771953523232589 0 -0.4384817319502689 -0.036349626810617437 0 -0.4347471527390982 -0.015930199706157281 0 -0.417246584304724 -0.0047950850409023494 0 -0.4341451012022296 0.00028732052076382142 0 -0.4347471527390982 -0.015930199706157281 0 -0.417246584304724 -0.0047950850409023494 0 -0.42014112847889412 -0.025771953523232589 0 -0.417246584304724 -0.0047950850409023494 0 -0.42014112847889412 -0.025771953523232589 0 -0.40093270166223199 -0.016918342473457391 0 -0.40777063509683581 -0.033924454059109613 0 -0.42014112847889412 -0.025771953523232589 0 -0.40093270166223199 -0.016918342473457391 0 -0.40777063509683581 -0.033924454059109613 0 -0.40093270166223199 -0.016918342473457391 0 -0.39367089222661839 -0.032755655923594598 0 -0.40093270166223199 -0.016918342473457391 0 -0.38871777476375879 -0.022869078480443939 0 -0.39367089222661839 -0.032755655923594598 0 -0.40093270166223199 -0.016918342473457391 0 -0.38875902912346832 -0.013657647543360929 0 -0.38871777476375879 -0.022869078480443939 0 -0.39178021248303041 -0.004980771230133265 0 -0.38086869050235261 0.00024865887516311441 0 -0.39985494521273601 0.0035144738199298399 0 -0.40093270166223199 -0.016918342473457391 0 -0.39178021248303041 -0.004980771230133265 0 -0.39985494521273601 0.0035144738199298399 0 -0.417246584304724 -0.0047950850409023494 0 -0.40093270166223199 -0.016918342473457391 0 -0.39985494521273601 0.0035144738199298399 0 -0.40093270166223199 -0.016918342473457391 0 -0.39178021248303041 -0.004980771230133265 0 -0.38875902912346832 -0.013657647543360929 0 -0.36913653546780928 -0.00064787223986029208 0 -0.37693399065934052 -0.024286192692544568 0 -0.38086869050235261 0.00024865887516311441 0 -0.38875902912346832 -0.013657647543360929 0 -0.37693399065934052 -0.024286192692544568 0 -0.38086869050235261 0.00024865887516311441 0 -0.39178021248303041 -0.004980771230133265 0 -0.38875902912346832 -0.013657647543360929 0 -0.38086869050235261 0.00024865887516311441 0 -0.38871777476375879 -0.022869078480443939 0 -0.37693399065934052 -0.024286192692544568 0 -0.39367089222661839 -0.032755655923594598 0 -0.38875902912346832 -0.013657647543360929 0 -0.38871777476375879 -0.022869078480443939 0 -0.37693399065934052 -0.024286192692544568 0 -0.37039764751197168 -0.041496099240644888 0 -0.37693399065934052 -0.024286192692544568 0 -0.3847314458508716 -0.047924513145228803 0 -0.37693399065934052 -0.024286192692544568 0 -0.3847314458508716 -0.047924513145228803 0 -0.37693399065934052 -0.024286192692544568 0 -0.39367089222661839 -0.032755655923594598 0 -0.3847314458508716 -0.047924513145228803 0 -0.39367089222661839 -0.032755655923594598 0 -0.40318032111001451 -0.047439370479043327 0 -0.3847314458508716 -0.047924513145228803 0 -0.40777063509683581 -0.033924454059109613 0 -0.39367089222661839 -0.032755655923594598 0 -0.40318032111001451 -0.047439370479043327 0 -0.39903451089719377 -0.059801199781147597 0 -0.40318032111001451 -0.047439370479043327 0 -0.3847314458508716 -0.047924513145228803 0 -0.39903451089719377 -0.059801199781147597 0 -0.3847314458508716 -0.047924513145228803 0 -0.39252890104240279 -0.071562833597912989 0 -0.411193977930709 -0.061222971465780297 0 -0.39903451089719377 -0.059801199781147597 0 -0.40318032111001451 -0.047439370479043327 0 -0.37236779851361068 -0.070972408819564667 0 -0.368161404256522 -0.056797864533857767 0 -0.3847314458508716 -0.047924513145228803 0 -0.3847314458508716 -0.047924513145228803 0 -0.39252890104240279 -0.071562833597912989 0 -0.37236779851361068 -0.070972408819564667 0 -0.3847314458508716 -0.047924513145228803 0 -0.38273885535634777 -0.074585353899597306 0 -0.3847314458508716 -0.047924513145228803 0 -0.38273885535634777 -0.074585353899597306 0 -0.39252890104240279 -0.071562833597912989 0 -0.38273885535634777 -0.074585353899597306 0 -0.3888878231578472 -0.082781134428946829 0 -0.39252890104240279 -0.071562833597912989 0 -0.37236779851361068 -0.070972408819564667 0 -0.38273885535634777 -0.074585353899597306 0 -0.3766707962849673 -0.082841217428955172 0 -0.38273885535634777 -0.074585353899597306 0 -0.3766707962849673 -0.082841217428955172 0 -0.3888878231578472 -0.082781134428946829 0 -0.3888878231578472 -0.082781134428946829 0 -0.37964486678059328 -0.094690869755778839 0 -0.39386202350822619 -0.099705497631196294 0 -0.3766707962849673 -0.082841217428955172 0 -0.3888878231578472 -0.082781134428946829 0 -0.37964486678059328 -0.094690869755778839 0 -0.3888878231578472 -0.082781134428946829 0 -0.39386202350822619 -0.099705497631196294 0 -0.3888878231578472 -0.082781134428946829 0 -0.39386202350822619 -0.099705497631196294 0 -0.4003263562339332 -0.095201154050597425 0 -0.40500371927583739 -0.079424866500496072 0 -0.39252890104240279 -0.071562833597912989 0 -0.4003263562339332 -0.095201154050597425 0 -0.3888878231578472 -0.082781134428946829 0 -0.39252890104240279 -0.071562833597912989 0 -0.4003263562339332 -0.095201154050597425 0 -0.39252890104240279 -0.071562833597912989 0 -0.4003263562339332 -0.095201154050597425 0 -0.40500371927583739 -0.079424866500496072 0 -0.404357682313227 -0.069251862988790311 0 -0.39252890104240279 -0.071562833597912989 0 -0.39903451089719377 -0.059801199781147597 0 -0.404357682313227 -0.069251862988790311 0 -0.39252890104240279 -0.071562833597912989 0 -0.411193977930709 -0.061222971465780297 0 -0.39903451089719377 -0.059801199781147597 0 -0.404357682313227 -0.069251862988790311 0 -0.37729099561403823 -0.12889833791531941 0 -0.38722509804457161 -0.1187528876273901 0 -0.37942546501910679 -0.10976488385335979 0 -0.37729099561403823 -0.12889833791531941 0 -0.38722509804457161 -0.1187528876273901 0 -0.4009629291832611 -0.12386582456697311 0 -0.38722509804457161 -0.1187528876273901 0 -0.37942546501910679 -0.10976488385335979 0 -0.3903251823594891 -0.1121192720190448 0 -0.37942546501910679 -0.10976488385335979 0 -0.3903251823594891 -0.1121192720190448 0 -0.39386202350822619 -0.099705497631196294 0 -0.37942546501910679 -0.10976488385335979 0 -0.39386202350822619 -0.099705497631196294 0 -0.37094449256260992 -0.099372935251941033 0 -0.37942546501910679 -0.10976488385335979 0 -0.37964486678059328 -0.094690869755778839 0 -0.37942546501910679 -0.10976488385335979 0 -0.37964486678059328 -0.094690869755778839 0 -0.39386202350822619 -0.099705497631196294 0 -0.39386202350822619 -0.099705497631196294 0 -0.4003263562339332 -0.095201154050597425 0 -0.40920391029221093 -0.122113840627302 0 -0.4003263562339332 -0.095201154050597425 0 -0.40920391029221093 -0.122113840627302 0 -0.39386202350822619 -0.099705497631196294 0 -0.4003263562339332 -0.095201154050597425 0 -0.39386202350822619 -0.099705497631196294 0 -0.4009629291832611 -0.12386582456697311 0 -0.3903251823594891 -0.1121192720190448 0 -0.39386202350822619 -0.099705497631196294 0 -0.4009629291832611 -0.12386582456697311 0 -0.39386202350822619 -0.099705497631196294 0 -0.4009629291832611 -0.12386582456697311 0 -0.40920391029221093 -0.122113840627302 0 -0.4009629291832611 -0.12386582456697311 0 -0.40920391029221093 -0.122113840627302 0 -0.38722509804457161 -0.1187528876273901 0 -0.3903251823594891 -0.1121192720190448 0 -0.4009629291832611 -0.12386582456697311 0 -0.42092805186964272 -0.13020502700165629 0 -0.40920391029221093 -0.122113840627302 0 -0.43198043737197539 -0.1172716854132916 0 -0.40920391029221093 -0.122113840627302 0 -0.41880293320144529 -0.10311611480355649 0 -0.43198043737197539 -0.1172716854132916 0 -0.40920391029221093 -0.122113840627302 0 -0.43198043737197539 -0.1172716854132916 0 -0.4003263562339332 -0.095201154050597425 0 -0.41880293320144529 -0.10311611480355649 0 -0.41459812813088748 -0.08525659103758304 0 -0.4003263562339332 -0.095201154050597425 0 -0.40920391029221093 -0.122113840627302 0 -0.41880293320144529 -0.10311611480355649 0 -0.41880293320144529 -0.10311611480355649 0 -0.43198043737197539 -0.1172716854132916 0 -0.43984882439842049 -0.092839281978585583 0 -0.41493119896866892 -0.072039828098597158 0 -0.41459812813088748 -0.08525659103758304 0 -0.42886990002784298 -0.075312028024570626 0 -0.411193977930709 -0.061222971465780297 0 -0.42556378613350992 -0.061770648574362617 0 -0.41493119896866892 -0.072039828098597158 0 -0.411193977930709 -0.061222971465780297 0 -0.404357682313227 -0.069251862988790311 0 -0.41493119896866892 -0.072039828098597158 0 -0.40500371927583739 -0.079424866500496072 0 -0.404357682313227 -0.069251862988790311 0 -0.41493119896866892 -0.072039828098597158 0 -0.40500371927583739 -0.079424866500496072 0 -0.41493119896866892 -0.072039828098597158 0 -0.41459812813088748 -0.08525659103758304 0 -0.40500371927583739 -0.079424866500496072 0 -0.4003263562339332 -0.095201154050597425 0 -0.41459812813088748 -0.08525659103758304 0 -0.4003263562339332 -0.095201154050597425 0 -0.41459812813088748 -0.08525659103758304 0 -0.41459812813088748 -0.08525659103758304 0 -0.42886990002784298 -0.075312028024570626 0 -0.41459812813088748 -0.08525659103758304 0 -0.42886990002784298 -0.075312028024570626 0 -0.43984882439842049 -0.092839281978585583 0 -0.41880293320144529 -0.10311611480355649 0 -0.41459812813088748 -0.08525659103758304 0 -0.43984882439842049 -0.092839281978585583 0 -0.42556378613350992 -0.061770648574362617 0 -0.42886990002784298 -0.075312028024570626 0 -0.43979090961297729 -0.057538978545256941 0 -0.42556378613350992 -0.061770648574362617 0 -0.41493119896866892 -0.072039828098597158 0 -0.42886990002784298 -0.075312028024570626 0 -0.44570181937220099 -0.07165208004111645 0 -0.45995054971207078 -0.064211822405253208 0 -0.43979090961297729 -0.057538978545256941 0 -0.42886990002784298 -0.075312028024570626 0 -0.44570181937220099 -0.07165208004111645 0 -0.43979090961297729 -0.057538978545256941 0 -0.44570181937220099 -0.07165208004111645 0 -0.43984882439842049 -0.092839281978585583 0 -0.46061485573723893 -0.080272409178196974 0 -0.42886990002784298 -0.075312028024570626 0 -0.44570181937220099 -0.07165208004111645 0 -0.43984882439842049 -0.092839281978585583 0 -0.43984882439842049 -0.092839281978585583 0 -0.46061485573723893 -0.080272409178196974 0 -0.46346555689403363 -0.097403817131087145 0 -0.46061485573723893 -0.080272409178196974 0 -0.46346555689403363 -0.097403817131087145 0 -0.48000475835729639 -0.087970011571378876 0 -0.44570181937220099 -0.07165208004111645 0 -0.46061485573723893 -0.080272409178196974 0 -0.45995054971207078 -0.064211822405253208 0 -0.46061485573723893 -0.080272409178196974 0 -0.45995054971207078 -0.064211822405253208 0 -0.47735924258662882 -0.063809146401063679 0 -0.43198043737197539 -0.1172716854132916 0 -0.45475696445174019 -0.1124295301992823 0 -0.44636766464781669 -0.12780616101946399 0 -0.43198043737197539 -0.1172716854132916 0 -0.45475696445174019 -0.1124295301992823 0 -0.43984882439842049 -0.092839281978585583 0 -0.46346555689403363 -0.097403817131087145 0 -0.45475696445174019 -0.1124295301992823 0 -0.43198043737197539 -0.1172716854132916 0 -0.43984882439842049 -0.092839281978585583 0 -0.45475696445174019 -0.1124295301992823 0 -0.46346555689403363 -0.097403817131087145 0 -0.45475696445174019 -0.1124295301992823 0 -0.47753349153150487 -0.1075873749852731 0 -0.46607648064170581 -0.13208324853690259 0 -0.45475696445174019 -0.1124295301992823 0 -0.47753349153150487 -0.1075873749852731 0 -0.44636766464781669 -0.12780616101946399 0 -0.46607648064170581 -0.13208324853690259 0 -0.45475696445174019 -0.1124295301992823 0 -0.45475696445174019 -0.1124295301992823 0 -0.47753349153150487 -0.1075873749852731 0 -0.46607648064170581 -0.13208324853690259 0 -0.48565596786896659 -0.12604806504480931 0 -0.47753349153150487 -0.1075873749852731 0 -0.46346555689403363 -0.097403817131087145 0 -0.47753349153150487 -0.1075873749852731 0 -0.48000475835729639 -0.087970011571378876 0 -0.47753349153150487 -0.1075873749852731 0 -0.5 -0.1113831015004856 0 -0.48000475835729639 -0.087970011571378876 0 -0.48565596786896659 -0.12604806504480931 0 -0.47753349153150487 -0.1075873749852731 0 -0.5 -0.1113831015004856 0 -0.46061485573723893 -0.080272409178196974 0 -0.47735924258662882 -0.063809146401063679 0 -0.48000475835729639 -0.087970011571378876 0 -0.5 -0.1113831015004856 0 -0.48000475835729639 -0.087970011571378876 0 -0.5 -0.08183529844263393 0 -0.47735924258662882 -0.063809146401063679 0 -0.5 -0.08183529844263393 0 -0.5 -0.052287495384782168 0 -0.47735924258662882 -0.063809146401063679 0 -0.48000475835729639 -0.087970011571378876 0 -0.5 -0.08183529844263393 0 -0.47735924258662882 -0.063809146401063679 0 -0.5 -0.052287495384782168 0 -0.48140193087367189 -0.042271835393501662 0 -0.5 -0.052287495384782168 0 -0.48140193087367189 -0.042271835393501662 0 -0.5 -0.022739692326930409 0 -0.48140193087367189 -0.042271835393501662 0 -0.45886415204159281 -0.047263182045768792 0 -0.47078625974013782 -0.02525966080896325 0 -0.47735924258662882 -0.063809146401063679 0 -0.48140193087367189 -0.042271835393501662 0 -0.45886415204159281 -0.047263182045768792 0 -0.45995054971207078 -0.064211822405253208 0 -0.47735924258662882 -0.063809146401063679 0 -0.45886415204159281 -0.047263182045768792 0 -0.45886415204159281 -0.047263182045768792 0 -0.45288736724508111 -0.026787180924565331 0 -0.47078625974013782 -0.02525966080896325 0 -0.45886415204159281 -0.047263182045768792 0 -0.4384817319502689 -0.036349626810617437 0 -0.45288736724508111 -0.026787180924565331 0 -0.45886415204159281 -0.047263182045768792 0 -0.4384817319502689 -0.036349626810617437 0 -0.43979090961297729 -0.057538978545256941 0 -0.45995054971207078 -0.064211822405253208 0 -0.45886415204159281 -0.047263182045768792 0 -0.43979090961297729 -0.057538978545256941 0 -0.4347471527390982 -0.015930199706157281 0 -0.45649810182606543 -0.0083507628937977314 0 -0.4347471527390982 -0.015930199706157281 0 -0.45649810182606543 -0.0083507628937977314 0 -0.4341451012022296 0.00028732052076382142 0 -0.4347471527390982 -0.015930199706157281 0 -0.4384817319502689 -0.036349626810617437 0 -0.45288736724508111 -0.026787180924565331 0 -0.4347471527390982 -0.015930199706157281 0 -0.45288736724508111 -0.026787180924565331 0 -0.45649810182606543 -0.0083507628937977314 0 -0.45288736724508111 -0.026787180924565331 0 -0.45649810182606543 -0.0083507628937977314 0 -0.47078625974013782 -0.02525966080896325 0 -0.45649810182606543 -0.0083507628937977314 0 -0.4782490509130326 -0.0007713260814381992 0 -0.45649810182606543 -0.0083507628937977314 0 -0.4782490509130326 -0.0007713260814381992 0 -0.47078625974013782 -0.02525966080896325 0 -0.48140193087367189 -0.042271835393501662 0 -0.47078625974013782 -0.02525966080896325 0 -0.5 -0.022739692326930409 0 -0.4782490509130326 -0.0007713260814381992 0 -0.47078625974013782 -0.02525966080896325 0 -0.5 -0.022739692326930409 0 -0.4782490509130326 -0.0007713260814381992 0 -0.5 -0.022739692326930409 0 -0.49999999999999989 0.0068081107309213027 0 -0.4782490509130326 -0.0007713260814381992 0 -0.49999999999999989 0.0068081107309213027 0 -0.4782490509130326 -0.0007713260814381992 0 -0.49999999999999989 0.0068081107309213027 0 -0.4832302994820068 0.016404646853477409 0 -0.49999999999999989 0.0068081107309213027 0 -0.4832302994820068 0.016404646853477409 0 -0.5 0.036375486822679437 0 -0.46942861793881591 0.031112679857753209 0 -0.4832302994820068 0.016404646853477409 0 -0.46551800707546132 0.0099235135186449362 0 -0.46942861793881591 0.031112679857753209 0 -0.4832302994820068 0.016404646853477409 0 -0.5 0.036375486822679437 0 -0.4782490509130326 -0.0007713260814381992 0 -0.4832302994820068 0.016404646853477409 0 -0.46551800707546132 0.0099235135186449362 0 -0.4848580405601659 0.05148110160183493 0 -0.5 0.036375486822679437 0 -0.50000000000000078 0.065942862914437461 0 -0.46942861793881591 0.031112679857753209 0 -0.4848580405601659 0.05148110160183493 0 -0.5 0.036375486822679437 0 -0.46942861793881591 0.031112679857753209 0 -0.4848580405601659 0.05148110160183493 0 -0.46552817349695469 0.052403934598396602 0 -0.4848580405601659 0.05148110160183493 0 -0.46552817349695469 0.052403934598396602 0 -0.47436300781350521 0.076144478842300273 0 -0.46942861793881591 0.031112679857753209 0 -0.46552817349695469 0.052403934598396602 0 -0.44270247258515888 0.039536093979575637 0 -0.44270247258515888 0.039536093979575637 0 -0.42871982900566891 0.064652719629256353 0 -0.4502750030120819 0.065195838306442627 0 -0.46552817349695469 0.052403934598396602 0 -0.44270247258515888 0.039536093979575637 0 -0.4502750030120819 0.065195838306442627 0 -0.45649810182606543 -0.0083507628937977314 0 -0.4782490509130326 -0.0007713260814381992 0 -0.46551800707546132 0.0099235135186449362 0 -0.45649810182606543 -0.0083507628937977314 0 -0.46551800707546132 0.0099235135186449362 0 -0.44455746846542232 0.01346210215923683 0 -0.46942861793881591 0.031112679857753209 0 -0.46551800707546132 0.0099235135186449362 0 -0.44455746846542232 0.01346210215923683 0 -0.46942861793881591 0.031112679857753209 0 -0.44270247258515888 0.039536093979575637 0 -0.44455746846542232 0.01346210215923683 0 -0.45649810182606543 -0.0083507628937977314 0 -0.44455746846542232 0.01346210215923683 0 -0.4341451012022296 0.00028732052076382142 0 -0.44455746846542232 0.01346210215923683 0 -0.4341451012022296 0.00028732052076382142 0 -0.42020520201796763 0.01557287694761776 0 -0.417246584304724 -0.0047950850409023494 0 -0.4341451012022296 0.00028732052076382142 0 -0.42020520201796763 0.01557287694761776 0 -0.417246584304724 -0.0047950850409023494 0 -0.42020520201796763 0.01557287694761776 0 -0.39985494521273601 0.0035144738199298399 0 -0.42020520201796763 0.01557287694761776 0 -0.41677263444045842 0.040617269085249381 0 -0.38987128007464278 0.028474933410388509 0 -0.44270247258515888 0.039536093979575637 0 -0.44455746846542232 0.01346210215923683 0 -0.42020520201796763 0.01557287694761776 0 -0.44270247258515888 0.039536093979575637 0 -0.42020520201796763 0.01557287694761776 0 -0.41677263444045842 0.040617269085249381 0 -0.44270247258515888 0.039536093979575637 0 -0.41677263444045842 0.040617269085249381 0 -0.42871982900566891 0.064652719629256353 0 -0.41677263444045842 0.040617269085249381 0 -0.398873869646933 0.056701207945613993 0 -0.42871982900566891 0.064652719629256353 0 -0.398873869646933 0.056701207945613993 0 -0.38987128007464278 0.028474933410388509 0 -0.41677263444045842 0.040617269085249381 0 -0.398873869646933 0.056701207945613993 0 -0.38987128007464278 0.028474933410388509 0 -0.398873869646933 0.056701207945613993 0 -0.37572270983714429 0.048872920353502949 0 -0.38503139596208391 0.070056563675861508 0 -0.37572270983714429 0.048872920353502949 0 -0.38503139596208391 0.070056563675861508 0 -0.36646259154152272 0.065038684961889331 0 -0.398873869646933 0.056701207945613993 0 -0.37572270983714429 0.048872920353502949 0 -0.38987128007464278 0.028474933410388509 0 -0.37572270983714429 0.048872920353502949 0 -0.38987128007464278 0.028474933410388509 0 -0.3745175543435747 0.032412733095474107 0 -0.38987128007464278 0.028474933410388509 0 -0.37573497748791151 0.01108081694060346 0 -0.37358602706579958 0.019684991208363731 0 -0.38987128007464278 0.028474933410388509 0 -0.37358602706579958 0.019684991208363731 0 -0.3745175543435747 0.032412733095474107 0 -0.38987128007464278 0.028474933410388509 0 -0.37573497748791151 0.01108081694060346 0 -0.38086869050235261 0.00024865887516311441 0 -0.38987128007464278 0.028474933410388509 0 -0.38086869050235261 0.00024865887516311441 0 -0.38987128007464278 0.028474933410388509 0 -0.38086869050235261 0.00024865887516311441 0 -0.39985494521273601 0.0035144738199298399 0 -0.36913653546780928 -0.00064787223986029208 0 -0.37573497748791151 0.01108081694060346 0 -0.38086869050235261 0.00024865887516311441 0 -0.42020520201796763 0.01557287694761776 0 -0.38987128007464278 0.028474933410388509 0 -0.39985494521273601 0.0035144738199298399 0 -0.40583870300786168 0.1129520271102431 0 -0.38966860486041699 0.1010221889350168 0 -0.40787645921922322 0.084927482480839478 0 -0.40583870300786168 0.1129520271102431 0 -0.38463230277678639 0.116186697035543 0 -0.3942400301772398 0.1342828402430527 0 -0.40583870300786168 0.1129520271102431 0 -0.38463230277678639 0.116186697035543 0 -0.38966860486041699 0.1010221889350168 0 -0.38463230277678639 0.116186697035543 0 -0.37922935614630698 0.13437690567525251 0 -0.3644920967513347 0.11829697810106619 0 -0.38463230277678639 0.116186697035543 0 -0.38966860486041699 0.1010221889350168 0 -0.3758661085835856 0.10053044475925529 0 -0.38966860486041699 0.1010221889350168 0 -0.3758661085835856 0.10053044475925529 0 -0.38551528765648169 0.086582812329141834 0 -0.3758661085835856 0.10053044475925529 0 -0.38551528765648169 0.086582812329141834 0 -0.36999097683252652 0.082046784558081981 0 -0.38551528765648169 0.086582812329141834 0 -0.38503139596208391 0.070056563675861508 0 -0.36999097683252652 0.082046784558081981 0 -0.398873869646933 0.056701207945613993 0 -0.40787645921922322 0.084927482480839478 0 -0.398873869646933 0.056701207945613993 0 -0.38503139596208391 0.070056563675861508 0 -0.40787645921922322 0.084927482480839478 0 -0.38551528765648169 0.086582812329141834 0 -0.38503139596208391 0.070056563675861508 0 -0.40787645921922322 0.084927482480839478 0 -0.38966860486041699 0.1010221889350168 0 -0.38551528765648169 0.086582812329141834 0 -0.40787645921922322 0.084927482480839478 0 -0.40787645921922322 0.084927482480839478 0 -0.42871982900566891 0.064652719629256353 0 -0.42773584199730641 0.095587519838837454 0 -0.398873869646933 0.056701207945613993 0 -0.40787645921922322 0.084927482480839478 0 -0.42871982900566891 0.064652719629256353 0 -0.42871982900566891 0.064652719629256353 0 -0.42773584199730641 0.095587519838837454 0 -0.44872601562700931 0.086346094770162848 0 -0.40583870300786168 0.1129520271102431 0 -0.42773584199730641 0.095587519838837454 0 -0.42460677859801532 0.1186291890060085 0 -0.40583870300786168 0.1129520271102431 0 -0.40787645921922322 0.084927482480839478 0 -0.42773584199730641 0.095587519838837454 0 -0.40583870300786168 0.1129520271102431 0 -0.42460677859801532 0.1186291890060085 0 -0.41418570800388699 0.13758571035592509 0 -0.42773584199730641 0.095587519838837454 0 -0.42460677859801532 0.1186291890060085 0 -0.44805695009367807 0.11436898267917039 0 -0.42460677859801532 0.1186291890060085 0 -0.44805695009367807 0.11436898267917039 0 -0.43752835560722741 0.13148030609849859 0 -0.42773584199730641 0.095587519838837454 0 -0.44805695009367807 0.11436898267917039 0 -0.44872601562700931 0.086346094770162848 0 -0.44805695009367807 0.11436898267917039 0 -0.44872601562700931 0.086346094770162848 0 -0.4731790028920897 0.103770780436285 0 -0.44805695009367807 0.11436898267917039 0 -0.47078678666502749 0.12394957325677031 0 -0.4731790028920897 0.103770780436285 0 -0.42871982900566891 0.064652719629256353 0 -0.4502750030120819 0.065195838306442627 0 -0.44872601562700931 0.086346094770162848 0 -0.44872601562700931 0.086346094770162848 0 -0.47436300781350521 0.076144478842300273 0 -0.44872601562700931 0.086346094770162848 0 -0.47436300781350521 0.076144478842300273 0 -0.4731790028920897 0.103770780436285 0 -0.46552817349695469 0.052403934598396602 0 -0.4502750030120819 0.065195838306442627 0 -0.47436300781350521 0.076144478842300273 0 -0.4502750030120819 0.065195838306442627 0 -0.44872601562700931 0.086346094770162848 0 -0.47436300781350521 0.076144478842300273 0 -0.47436300781350521 0.076144478842300273 0 -0.4731790028920897 0.103770780436285 0 -0.5 0.094496953942109108 0 -0.47436300781350521 0.076144478842300273 0 -0.50000000000000078 0.065942862914437461 0 -0.5 0.094496953942109108 0 -0.47436300781350521 0.076144478842300273 0 -0.50000000000000078 0.065942862914437461 0 -0.4848580405601659 0.05148110160183493 0 -0.47436300781350521 0.076144478842300273 0 -0.50000000000000078 0.065942862914437461 0 -0.47078678666502749 0.12394957325677031 0 -0.4731790028920897 0.103770780436285 0 -0.5 0.12305104496978091 0 -0.4731790028920897 0.103770780436285 0 -0.5 0.094496953942109108 0 -0.5 0.12305104496978091 0 -0.5 0.12305104496978091 0 -0.47757089225090787 0.1404798010810899 0 -0.48848495018587301 0.147322231169319 0 -0.47078678666502749 0.12394957325677031 0 -0.5 0.12305104496978091 0 -0.47757089225090787 0.1404798010810899 0 -0.47757089225090787 0.1404798010810899 0 -0.48848495018587301 0.147322231169319 0 -0.47458193242396629 0.15856484020243489 0 -0.47757089225090787 0.1404798010810899 0 -0.47458193242396629 0.15856484020243489 0 -0.45512708808846208 0.138077257117525 0 -0.5 0.12305104496978091 0 -0.48848495018587301 0.147322231169319 0 -0.5 0.15160513599745279 0 -0.48848495018587301 0.147322231169319 0 -0.5 0.15160513599745279 0 -0.49027192625449068 0.1629103335958367 0 -0.48848495018587301 0.147322231169319 0 -0.49027192625449068 0.1629103335958367 0 -0.47458193242396629 0.15856484020243489 0 -0.5 0.15160513599745279 0 -0.49027192625449068 0.1629103335958367 0 -0.5 0.1801592270251248 0 -0.49027192625449068 0.1629103335958367 0 -0.5 0.1801592270251248 0 -0.48279847434161832 0.18740485568868351 0 -0.49027192625449068 0.1629103335958367 0 -0.48279847434161832 0.18740485568868351 0 -0.46829703916888321 0.17358347316306741 0 -0.49027192625449068 0.1629103335958367 0 -0.46829703916888321 0.17358347316306741 0 -0.49027192625449068 0.1629103335958367 0 -0.47458193242396629 0.15856484020243489 0 -0.46829703916888321 0.17358347316306741 0 -0.47458193242396629 0.15856484020243489 0 -0.46829703916888321 0.17358347316306741 0 -0.45092056481310588 0.1627437871156979 0 -0.46829703916888321 0.17358347316306741 0 -0.44632215208327569 0.18425661273029811 0 -0.45092056481310588 0.1627437871156979 0 -0.46829703916888321 0.17358347316306741 0 -0.44632215208327569 0.18425661273029811 0 -0.46905753894739161 0.20310783945658389 0 -0.46829703916888321 0.17358347316306741 0 -0.44632215208327569 0.18425661273029811 0 -0.44632215208327569 0.18425661273029811 0 -0.45092056481310588 0.1627437871156979 0 -0.42868351575901842 0.17238758789713829 0 -0.45092056481310588 0.1627437871156979 0 -0.45512708808846208 0.138077257117525 0 -0.43251166135502978 0.14959295158372371 0 -0.45512708808846208 0.138077257117525 0 -0.43251166135502978 0.14959295158372371 0 -0.43752835560722741 0.13148030609849859 0 -0.45512708808846208 0.138077257117525 0 -0.43251166135502978 0.14959295158372371 0 -0.44805695009367807 0.11436898267917039 0 -0.43752835560722741 0.13148030609849859 0 -0.45512708808846208 0.138077257117525 0 -0.44805695009367807 0.11436898267917039 0 -0.47078678666502749 0.12394957325677031 0 -0.45512708808846208 0.138077257117525 0 -0.47078678666502749 0.12394957325677031 0 -0.47757089225090787 0.1404798010810899 0 -0.45512708808846208 0.138077257117525 0 -0.47458193242396629 0.15856484020243489 0 -0.45092056481310588 0.1627437871156979 0 -0.45512708808846208 0.138077257117525 0 -0.47270440485640153 0.24030257685668199 0 -0.48066999489751339 0.25852732013788748 0 -0.45574066329194513 0.25003258838346459 0 -0.47270440485640153 0.24030257685668199 0 -0.5 0.23726740908046881 0 -0.48066999489751339 0.25852732013788748 0 -0.5 0.23726740908046881 0 -0.48173840038224941 0.22131352525649431 0 -0.5 0.2087133180527968 0 -0.47270440485640153 0.24030257685668199 0 -0.5 0.23726740908046881 0 -0.48173840038224941 0.22131352525649431 0 -0.47270440485640153 0.24030257685668199 0 -0.48173840038224941 0.22131352525649431 0 -0.45197045005162251 0.2261622464473019 0 -0.48173840038224941 0.22131352525649431 0 -0.5 0.2087133180527968 0 -0.46905753894739161 0.20310783945658389 0 -0.5 0.1801592270251248 0 -0.48279847434161832 0.18740485568868351 0 -0.5 0.2087133180527968 0 -0.48279847434161832 0.18740485568868351 0 -0.5 0.2087133180527968 0 -0.46905753894739161 0.20310783945658389 0 -0.48279847434161832 0.18740485568868351 0 -0.46829703916888321 0.17358347316306741 0 -0.46905753894739161 0.20310783945658389 0 -0.44632215208327569 0.18425661273029811 0 -0.46905753894739161 0.20310783945658389 0 -0.44120658029497539 0.20684002971290111 0 -0.48173840038224941 0.22131352525649431 0 -0.46905753894739161 0.20310783945658389 0 -0.45197045005162251 0.2261622464473019 0 -0.46905753894739161 0.20310783945658389 0 -0.44120658029497539 0.20684002971290111 0 -0.45197045005162251 0.2261622464473019 0 -0.44120658029497539 0.20684002971290111 0 -0.45197045005162251 0.2261622464473019 0 -0.43155170666471421 0.22801356138262319 0 -0.45197045005162251 0.2261622464473019 0 -0.43680818869299493 0.24410097083118909 0 -0.43155170666471421 0.22801356138262319 0 -0.45197045005162251 0.2261622464473019 0 -0.43680818869299493 0.24410097083118909 0 -0.45574066329194513 0.25003258838346459 0 -0.47270440485640153 0.24030257685668199 0 -0.45197045005162251 0.2261622464473019 0 -0.45574066329194513 0.25003258838346459 0 -0.41882121896155328 0.24890347203934621 0 -0.41688075780333422 0.23434273274439121 0 -0.40561910075761998 0.24135040249912559 0 -0.41688075780333422 0.23434273274439121 0 -0.40375541215413402 0.23075393127945579 0 -0.40561910075761998 0.24135040249912559 0 -0.41882121896155328 0.24890347203934621 0 -0.4260154680306491 0.23884018424938741 0 -0.41688075780333422 0.23434273274439121 0 -0.43680818869299493 0.24410097083118909 0 -0.4260154680306491 0.23884018424938741 0 -0.43155170666471421 0.22801356138262319 0 -0.41882121896155328 0.24890347203934621 0 -0.43680818869299493 0.24410097083118909 0 -0.4260154680306491 0.23884018424938741 0 -0.4260154680306491 0.23884018424938741 0 -0.43155170666471421 0.22801356138262319 0 -0.41688075780333422 0.23434273274439121 0 -0.41688075780333422 0.23434273274439121 0 -0.41526564195581528 0.21631274728658931 0 -0.40375541215413402 0.23075393127945579 0 -0.43155170666471421 0.22801356138262319 0 -0.41688075780333422 0.23434273274439121 0 -0.41526564195581528 0.21631274728658931 0 -0.41526564195581528 0.21631274728658931 0 -0.42434726499766823 0.19492975229752879 0 -0.4023723779120606 0.20560289186475961 0 -0.44120658029497539 0.20684002971290111 0 -0.43155170666471421 0.22801356138262319 0 -0.41526564195581528 0.21631274728658931 0 -0.44120658029497539 0.20684002971290111 0 -0.41526564195581528 0.21631274728658931 0 -0.42434726499766823 0.19492975229752879 0 -0.44632215208327569 0.18425661273029811 0 -0.42434726499766823 0.19492975229752879 0 -0.44632215208327569 0.18425661273029811 0 -0.44120658029497539 0.20684002971290111 0 -0.42434726499766823 0.19492975229752879 0 -0.42434726499766823 0.19492975229752879 0 -0.4023723779120606 0.20560289186475961 0 -0.42434726499766823 0.19492975229752879 0 -0.4023723779120606 0.20560289186475961 0 -0.4094966623953592 0.18154083354754119 0 -0.39422598592507391 0.1908276543046423 0 -0.3835598467298138 0.19855673644498781 0 -0.4023723779120606 0.20560289186475961 0 -0.39422598592507391 0.1908276543046423 0 -0.4023723779120606 0.20560289186475961 0 -0.4094966623953592 0.18154083354754119 0 -0.39422598592507391 0.1908276543046423 0 -0.38500085637543058 0.18862520516751771 0 -0.3835598467298138 0.19855673644498781 0 -0.38500085637543058 0.18862520516751771 0 -0.3760914519314511 0.19076299683388651 0 -0.3835598467298138 0.19855673644498781 0 -0.3760914519314511 0.19076299683388651 0 -0.3835598467298138 0.19855673644498781 0 -0.36839083600486 0.2021088386476641 0 -0.3835598467298138 0.19855673644498781 0 -0.38039749082645302 0.2162760314319904 0 -0.4023723779120606 0.20560289186475961 0 -0.3835598467298138 0.19855673644498781 0 -0.38039749082645302 0.2162760314319904 0 -0.36839083600486 0.2021088386476641 0 -0.38039749082645302 0.2162760314319904 0 -0.4023723779120606 0.20560289186475961 0 -0.41526564195581528 0.21631274728658931 0 -0.4023723779120606 0.20560289186475961 0 -0.39531400495239227 0.22072680658980789 0 -0.38039749082645302 0.2162760314319904 0 -0.4023723779120606 0.20560289186475961 0 -0.39531400495239227 0.22072680658980789 0 -0.41526564195581528 0.21631274728658931 0 -0.40375541215413402 0.23075393127945579 0 -0.39531400495239227 0.22072680658980789 0 -0.40375541215413402 0.23075393127945579 0 -0.389388262611015 0.23260301391291011 0 -0.39585635211503889 0.23966136001776611 0 -0.40375541215413402 0.23075393127945579 0 -0.39531400495239227 0.22072680658980789 0 -0.389388262611015 0.23260301391291011 0 -0.38039749082645302 0.2162760314319904 0 -0.389388262611015 0.23260301391291011 0 -0.3764761072459768 0.23446319673484939 0 -0.38039749082645302 0.2162760314319904 0 -0.39531400495239227 0.22072680658980789 0 -0.389388262611015 0.23260301391291011 0 -0.389388262611015 0.23260301391291011 0 -0.38667860140357319 0.24093324761214741 0 -0.3764761072459768 0.23446319673484939 0 -0.37828296759451591 0.24648715286559111 0 -0.39293825125378617 0.2502368242740497 0 -0.37406840350984721 0.2512088980308913 0 -0.38667860140357319 0.24093324761214741 0 -0.3764761072459768 0.23446319673484939 0 -0.37828296759451591 0.24648715286559111 0 -0.38667860140357319 0.24093324761214741 0 -0.37828296759451591 0.24648715286559111 0 -0.39293825125378617 0.2502368242740497 0 -0.37828296759451591 0.24648715286559111 0 -0.39293825125378617 0.2502368242740497 0 -0.38667860140357319 0.24093324761214741 0 -0.39585635211503889 0.23966136001776611 0 -0.39293825125378617 0.2502368242740497 0 -0.41882121896155328 0.24890347203934621 0 -0.39293825125378617 0.2502368242740497 0 -0.41882121896155328 0.24890347203934621 0 -0.40561910075761998 0.24135040249912559 0 -0.39293825125378617 0.2502368242740497 0 -0.39585635211503889 0.23966136001776611 0 -0.40561910075761998 0.24135040249912559 0 -0.39293825125378617 0.2502368242740497 0 -0.389388262611015 0.23260301391291011 0 -0.38667860140357319 0.24093324761214741 0 -0.39585635211503889 0.23966136001776611 0 -0.40375541215413402 0.23075393127945579 0 -0.39585635211503889 0.23966136001776611 0 -0.40561910075761998 0.24135040249912559 0 -0.43251166135502978 0.14959295158372371 0 -0.40989623462159752 0.16110864604992239 0 -0.41418570800388699 0.13758571035592509 0 -0.43251166135502978 0.14959295158372371 0 -0.40989623462159752 0.16110864604992239 0 -0.41418570800388699 0.13758571035592509 0 -0.40989623462159752 0.16110864604992239 0 -0.40088431700101862 0.14700810081911919 0 -0.43752835560722741 0.13148030609849859 0 -0.41418570800388699 0.13758571035592509 0 -0.43251166135502978 0.14959295158372371 0 -0.42460677859801532 0.1186291890060085 0 -0.43752835560722741 0.13148030609849859 0 -0.41418570800388699 0.13758571035592509 0 -0.45092056481310588 0.1627437871156979 0 -0.43251166135502978 0.14959295158372371 0 -0.42868351575901842 0.17238758789713829 0 -0.43251166135502978 0.14959295158372371 0 -0.42868351575901842 0.17238758789713829 0 -0.40989623462159752 0.16110864604992239 0 -0.44632215208327569 0.18425661273029811 0 -0.42434726499766823 0.19492975229752879 0 -0.42868351575901842 0.17238758789713829 0 -0.42434726499766823 0.19492975229752879 0 -0.42868351575901842 0.17238758789713829 0 -0.4094966623953592 0.18154083354754119 0 -0.4094966623953592 0.18154083354754119 0 -0.40989623462159752 0.16110864604992239 0 -0.40279607636393311 0.17339977450768559 0 -0.42868351575901842 0.17238758789713829 0 -0.4094966623953592 0.18154083354754119 0 -0.40989623462159752 0.16110864604992239 0 -0.40989623462159752 0.16110864604992239 0 -0.40279607636393311 0.17339977450768559 0 -0.39230485564852319 0.17406517818015349 0 -0.40989623462159752 0.16110864604992239 0 -0.39727675264542239 0.15855943888986071 0 -0.38728080788816532 0.17262434051612141 0 -0.40989623462159752 0.16110864604992239 0 -0.38728080788816532 0.17262434051612141 0 -0.40989623462159752 0.16110864604992239 0 -0.39230485564852319 0.17406517818015349 0 -0.38728080788816532 0.17262434051612141 0 -0.39422598592507391 0.1908276543046423 0 -0.4094966623953592 0.18154083354754119 0 -0.39733752639613917 0.17998073022432959 0 -0.4094966623953592 0.18154083354754119 0 -0.40279607636393311 0.17339977450768559 0 -0.39733752639613917 0.17998073022432959 0 -0.39230485564852319 0.17406517818015349 0 -0.39733752639613917 0.17998073022432959 0 -0.38786405164780657 0.18007021058162531 0 -0.40279607636393311 0.17339977450768559 0 -0.39230485564852319 0.17406517818015349 0 -0.39733752639613917 0.17998073022432959 0 -0.39422598592507391 0.1908276543046423 0 -0.39733752639613917 0.17998073022432959 0 -0.38786405164780657 0.18007021058162531 0 -0.38500085637543058 0.18862520516751771 0 -0.38786405164780657 0.18007021058162531 0 -0.38046242796889918 0.18106877015989661 0 -0.39422598592507391 0.1908276543046423 0 -0.38500085637543058 0.18862520516751771 0 -0.38786405164780657 0.18007021058162531 0 -0.38786405164780657 0.18007021058162531 0 -0.38728080788816532 0.17262434051612141 0 -0.38046242796889918 0.18106877015989661 0 -0.39230485564852319 0.17406517818015349 0 -0.38728080788816532 0.17262434051612141 0 -0.39230485564852319 0.17406517818015349 0 -0.38786405164780657 0.18007021058162531 0 -0.38728080788816532 0.17262434051612141 0 -0.38728080788816532 0.17262434051612141 0 -0.38046242796889918 0.18106877015989661 0 -0.37345183806867488 0.17966600252412179 0 -0.38728080788816532 0.17262434051612141 0 -0.37345183806867488 0.17966600252412179 0 -0.38728080788816532 0.17262434051612141 0 -0.38124832888552901 0.17089429666122999 0 -0.37345183806867488 0.17966600252412179 0 -0.38500085637543058 0.18862520516751771 0 -0.3760914519314511 0.19076299683388651 0 -0.38046242796889918 0.18106877015989661 0 -0.39727675264542239 0.15855943888986071 0 -0.3865625706867562 0.16569779216274549 0 -0.38459809467692102 0.1561956428510855 0 -0.39727675264542239 0.15855943888986071 0 -0.38728080788816532 0.17262434051612141 0 -0.3865625706867562 0.16569779216274549 0 -0.38728080788816532 0.17262434051612141 0 -0.38124832888552901 0.17089429666122999 0 -0.38728080788816532 0.17262434051612141 0 -0.3865625706867562 0.16569779216274549 0 -0.38124832888552901 0.17089429666122999 0 -0.3865625706867562 0.16569779216274549 0 -0.38124832888552901 0.17089429666122999 0 -0.3865625706867562 0.16569779216274549 0 -0.38124832888552901 0.17089429666122999 0 -0.37504034410299431 0.15923008185823059 0 -0.3865625706867562 0.16569779216274549 0 -0.37504034410299431 0.15923008185823059 0 -0.38459809467692102 0.1561956428510855 0 -0.37504034410299431 0.15923008185823059 0 -0.37840750718518401 0.14799283354603371 0 -0.38459809467692102 0.1561956428510855 0 -0.37840750718518401 0.14799283354603371 0 -0.38869788931212201 0.14655806605992799 0 -0.37922935614630698 0.13437690567525251 0 -0.39727675264542239 0.15855943888986071 0 -0.38869788931212201 0.14655806605992799 0 -0.38459809467692102 0.1561956428510855 0 -0.37840750718518401 0.14799283354603371 0 -0.38869788931212201 0.14655806605992799 0 -0.38459809467692102 0.1561956428510855 0 -0.39727675264542239 0.15855943888986071 0 -0.38869788931212201 0.14655806605992799 0 -0.40088431700101862 0.14700810081911919 0 -0.38869788931212201 0.14655806605992799 0 -0.40088431700101862 0.14700810081911919 0 -0.3942400301772398 0.1342828402430527 0 -0.40989623462159752 0.16110864604992239 0 -0.39727675264542239 0.15855943888986071 0 -0.40088431700101862 0.14700810081911919 0 -0.41418570800388699 0.13758571035592509 0 -0.40088431700101862 0.14700810081911919 0 -0.3942400301772398 0.1342828402430527 0 -0.40583870300786168 0.1129520271102431 0 -0.41418570800388699 0.13758571035592509 0 -0.3942400301772398 0.1342828402430527 0 -0.38463230277678639 0.116186697035543 0 -0.3942400301772398 0.1342828402430527 0 -0.37922935614630698 0.13437690567525251 0 -0.38869788931212201 0.14655806605992799 0 -0.3942400301772398 0.1342828402430527 0 -0.37922935614630698 0.13437690567525251 0 -0.35479205013033921 0.12890720630666769 0 -0.36490631067517509 0.1429440190658911 0 -0.3644920967513347 0.11829697810106619 0 -0.37922935614630698 0.13437690567525251 0 -0.36490631067517509 0.1429440190658911 0 -0.3644920967513347 0.11829697810106619 0 -0.35479205013033921 0.12890720630666769 0 -0.35284114559022739 0.138834833842164 0 -0.36490631067517509 0.1429440190658911 0 -0.35479205013033921 0.12890720630666769 0 -0.35284114559022739 0.138834833842164 0 -0.34702903982506211 0.13141836406696181 0 -0.35284114559022739 0.138834833842164 0 -0.34702903982506211 0.13141836406696181 0 -0.34357223232268652 0.13739307355826691 0 -0.34702903982506211 0.13141836406696181 0 -0.34189496946591552 0.13278985824030121 0 -0.34357223232268652 0.13739307355826691 0 -0.34702903982506211 0.13141836406696181 0 -0.34129577494332308 0.12608128486744111 0 -0.34777806649788068 0.1245039275869301 0 -0.35479205013033921 0.12890720630666769 0 -0.34702903982506211 0.13141836406696181 0 -0.34777806649788068 0.1245039275869301 0 -0.34593979080592269 0.16076822422847989 0 -0.34357223232268652 0.13739307355826691 0 -0.35417070784794769 0.1491542822279307 0 -0.34593979080592269 0.16076822422847989 0 -0.34357223232268652 0.13739307355826691 0 -0.35284114559022739 0.138834833842164 0 -0.35417070784794769 0.1491542822279307 0 -0.34357223232268652 0.13739307355826691 0 -0.35284114559022739 0.138834833842164 0 -0.35417070784794769 0.1491542822279307 0 -0.36490631067517509 0.1429440190658911 0 -0.37504034410299431 0.15923008185823059 0 -0.36490631067517509 0.1429440190658911 0 -0.36359405984572613 0.16583126044485441 0 -0.35417070784794769 0.1491542822279307 0 -0.36490631067517509 0.1429440190658911 0 -0.36359405984572613 0.16583126044485441 0 -0.37504034410299431 0.15923008185823059 0 -0.37840750718518401 0.14799283354603371 0 -0.36490631067517509 0.1429440190658911 0 -0.37840750718518401 0.14799283354603371 0 -0.37922935614630698 0.13437690567525251 0 -0.36490631067517509 0.1429440190658911 0 -0.38124832888552901 0.17089429666122999 0 -0.36359405984572613 0.16583126044485441 0 -0.38124832888552901 0.17089429666122999 0 -0.37504034410299431 0.15923008185823059 0 -0.36359405984572613 0.16583126044485441 0 -0.38124832888552901 0.17089429666122999 0 -0.36541382004222112 0.18637799113981321 0 -0.38124832888552901 0.17089429666122999 0 -0.37345183806867488 0.17966600252412179 0 -0.36541382004222112 0.18637799113981321 0 -0.38124832888552901 0.17089429666122999 0 -0.36359405984572613 0.16583126044485441 0 -0.36541382004222112 0.18637799113981321 0 -0.38046242796889918 0.18106877015989661 0 -0.37345183806867488 0.17966600252412179 0 -0.36541382004222112 0.18637799113981321 0 -0.3760914519314511 0.19076299683388651 0 -0.38046242796889918 0.18106877015989661 0 -0.36541382004222112 0.18637799113981321 0 -0.38046242796889918 0.18106877015989661 0 -0.36541382004222112 0.18637799113981321 0 -0.34752792830128021 0.1764480705773192 0 -0.34911606579663818 0.19212791692615841 0 -0.36541382004222112 0.18637799113981321 0 -0.34752792830128021 0.1764480705773192 0 -0.34911606579663818 0.19212791692615841 0 -0.36359405984572613 0.16583126044485441 0 -0.36541382004222112 0.18637799113981321 0 -0.34752792830128021 0.1764480705773192 0 -0.34752792830128021 0.1764480705773192 0 -0.33934578106182189 0.18474014059780619 0 -0.34911606579663818 0.19212791692615841 0 -0.34752792830128021 0.1764480705773192 0 -0.34593979080592269 0.16076822422847989 0 -0.34188080404753718 0.17144761049537949 0 -0.36359405984572613 0.16583126044485441 0 -0.34752792830128021 0.1764480705773192 0 -0.34593979080592269 0.16076822422847989 0 -0.36359405984572613 0.16583126044485441 0 -0.34593979080592269 0.16076822422847989 0 -0.34752792830128021 0.1764480705773192 0 -0.34593979080592269 0.16076822422847989 0 -0.35417070784794769 0.1491542822279307 0 -0.36359405984572613 0.16583126044485441 0 -0.34593979080592269 0.16076822422847989 0 -0.34593979080592269 0.16076822422847989 0 -0.34188080404753718 0.17144761049537949 0 -0.33313444774496198 0.15928375568978079 0 -0.34593979080592269 0.16076822422847989 0 -0.33336045005990111 0.15716061761323549 0 -0.34048977364881311 0.15156429715605829 0 -0.34188080404753718 0.17144761049537949 0 -0.33313444774496198 0.15928375568978079 0 -0.33128695969483379 0.17663964970453411 0 -0.33313444774496198 0.15928375568978079 0 -0.33128695969483379 0.17663964970453411 0 -0.33313444774496198 0.15928375568978079 0 -0.33128695969483379 0.17663964970453411 0 -0.32313258086698488 0.163293033803597 0 -0.34593979080592269 0.16076822422847989 0 -0.33313444774496198 0.15928375568978079 0 -0.33336045005990111 0.15716061761323549 0 -0.34593979080592269 0.16076822422847989 0 -0.33336045005990111 0.15716061761323549 0 -0.34188080404753718 0.17144761049537949 0 -0.33313444774496198 0.15928375568978079 0 -0.33115250899467852 0.15652740614740471 0 -0.33313444774496198 0.15928375568978079 0 -0.32313258086698488 0.163293033803597 0 -0.33313444774496198 0.15928375568978079 0 -0.33336045005990111 0.15716061761323549 0 -0.33115250899467852 0.15652740614740471 0 -0.33336045005990111 0.15716061761323549 0 -0.33115250899467852 0.15652740614740471 0 -0.33313444774496198 0.15928375568978079 0 -0.33115250899467852 0.15652740614740471 0 -0.33313444774496198 0.15928375568978079 0 -0.33336045005990111 0.15716061761323549 0 -0.33934578106182189 0.18474014059780619 0 -0.33128695969483379 0.17663964970453411 0 -0.32459354091855519 0.2007795811995304 0 -0.34752792830128021 0.1764480705773192 0 -0.34188080404753718 0.17144761049537949 0 -0.33934578106182189 0.18474014059780619 0 -0.34188080404753718 0.17144761049537949 0 -0.33934578106182189 0.18474014059780619 0 -0.33128695969483379 0.17663964970453411 0 -0.33128695969483379 0.17663964970453411 0 -0.31489417627300131 0.17493131289193259 0 -0.32459354091855519 0.2007795811995304 0 -0.33115250899467852 0.15652740614740471 0 -0.32313258086698488 0.163293033803597 0 -0.30519481162744982 0.149083044584334 0 -0.33128695969483379 0.17663964970453411 0 -0.31489417627300131 0.17493131289193259 0 -0.32313258086698488 0.163293033803597 0 -0.31489417627300131 0.17493131289193259 0 -0.32313258086698488 0.163293033803597 0 -0.30519481162744982 0.149083044584334 0 -0.33115250899467852 0.15652740614740471 0 -0.30519481162744982 0.149083044584334 0 -0.33115250899467852 0.15652740614740471 0 -0.31885284022203109 0.1394218389910083 0 -0.33115250899467852 0.15652740614740471 0 -0.31885284022203109 0.1394218389910083 0 -0.30519481162744982 0.149083044584334 0 -0.31885284022203109 0.1394218389910083 0 -0.32617091320368358 0.12648479797181461 0 -0.31807351005499201 0.1236561856628164 0 -0.31885284022203109 0.1394218389910083 0 -0.30655317144938349 0.12231627183461199 0 -0.31807351005499201 0.1236561856628164 0 -0.31885284022203109 0.1394218389910083 0 -0.32617091320368358 0.12648479797181461 0 -0.33560055169287167 0.13611638594881939 0 -0.31885284022203109 0.1394218389910083 0 -0.30655317144938349 0.12231627183461199 0 -0.33560055169287167 0.13611638594881939 0 -0.33784065332584229 0.1150721542844033 0 -0.33560055169287167 0.13611638594881939 0 -0.34129577494332308 0.12608128486744111 0 -0.33784065332584229 0.1150721542844033 0 -0.32617091320368358 0.12648479797181461 0 -0.33560055169287167 0.13611638594881939 0 -0.33205797715154362 0.12084499274016861 0 -0.33560055169287167 0.13611638594881939 0 -0.34189496946591552 0.13278985824030121 0 -0.34129577494332308 0.12608128486744111 0 -0.34702903982506211 0.13141836406696181 0 -0.34189496946591552 0.13278985824030121 0 -0.34129577494332308 0.12608128486744111 0 -0.33560055169287167 0.13611638594881939 0 -0.34357223232268652 0.13739307355826691 0 -0.33836803158994277 0.14628517190087309 0 -0.33560055169287167 0.13611638594881939 0 -0.34189496946591552 0.13278985824030121 0 -0.34357223232268652 0.13739307355826691 0 -0.34357223232268652 0.13739307355826691 0 -0.33836803158994277 0.14628517190087309 0 -0.34048977364881311 0.15156429715605829 0 -0.33115250899467852 0.15652740614740471 0 -0.33336045005990111 0.15716061761323549 0 -0.33560055169287167 0.13611638594881939 0 -0.33336045005990111 0.15716061761323549 0 -0.33560055169287167 0.13611638594881939 0 -0.33836803158994277 0.14628517190087309 0 -0.33336045005990111 0.15716061761323549 0 -0.33560055169287167 0.13611638594881939 0 -0.33115250899467852 0.15652740614740471 0 -0.31885284022203109 0.1394218389910083 0 -0.33560055169287167 0.13611638594881939 0 -0.34593979080592269 0.16076822422847989 0 -0.34357223232268652 0.13739307355826691 0 -0.34048977364881311 0.15156429715605829 0 -0.33336045005990111 0.15716061761323549 0 -0.33836803158994277 0.14628517190087309 0 -0.34048977364881311 0.15156429715605829 0 -0.33784686720994228 0.23609895999049049 0 -0.34409613407375822 0.25275290924641147 0 -0.35519855576590831 0.25218097178773291 0 -0.35262670526004247 0.22678882477149739 0 -0.33784686720994228 0.23609895999049049 0 -0.35519855576590831 0.25218097178773291 0 -0.36414828862742121 0.23622484297030719 0 -0.35262670526004247 0.22678882477149739 0 -0.35519855576590831 0.25218097178773291 0 -0.35262670526004247 0.22678882477149739 0 -0.35519855576590831 0.25218097178773291 0 -0.36963486454873362 0.2441130124778744 0 -0.35519855576590831 0.25218097178773291 0 -0.37406840350984721 0.2512088980308913 0 -0.36963486454873362 0.2441130124778744 0 -0.36414828862742121 0.23622484297030719 0 -0.35519855576590831 0.25218097178773291 0 -0.37828296759451591 0.24648715286559111 0 -0.36963486454873362 0.2441130124778744 0 -0.37406840350984721 0.2512088980308913 0 -0.3764761072459768 0.23446319673484939 0 -0.36963486454873362 0.2441130124778744 0 -0.36414828862742121 0.23622484297030719 0 -0.3764761072459768 0.23446319673484939 0 -0.37828296759451591 0.24648715286559111 0 -0.36963486454873362 0.2441130124778744 0 -0.36414828862742121 0.23622484297030719 0 -0.36534904711982219 0.21954306871859511 0 -0.35262670526004247 0.22678882477149739 0 -0.3764761072459768 0.23446319673484939 0 -0.36414828862742121 0.23622484297030719 0 -0.36534904711982219 0.21954306871859511 0 -0.38039749082645302 0.2162760314319904 0 -0.3764761072459768 0.23446319673484939 0 -0.36534904711982219 0.21954306871859511 0 -0.35262670526004247 0.22678882477149739 0 -0.35005485475417958 0.20139667775526171 0 -0.35262670526004247 0.22678882477149739 0 -0.35005485475417958 0.20139667775526171 0 -0.33159760034612612 0.21944501073456979 0 -0.36534904711982219 0.21954306871859511 0 -0.35262670526004247 0.22678882477149739 0 -0.35005485475417958 0.20139667775526171 0 -0.38039749082645302 0.2162760314319904 0 -0.36534904711982219 0.21954306871859511 0 -0.36839083600486 0.2021088386476641 0 -0.36534904711982219 0.21954306871859511 0 -0.36839083600486 0.2021088386476641 0 -0.35005485475417958 0.20139667775526171 0 -0.3760914519314511 0.19076299683388651 0 -0.36541382004222112 0.18637799113981321 0 -0.36839083600486 0.2021088386476641 0 -0.36541382004222112 0.18637799113981321 0 -0.36839083600486 0.2021088386476641 0 -0.35005485475417958 0.20139667775526171 0 -0.36541382004222112 0.18637799113981321 0 -0.35005485475417958 0.20139667775526171 0 -0.35005485475417958 0.20139667775526171 0 -0.34911606579663818 0.19212791692615841 0 -0.34045477879513802 0.20809498165798249 0 -0.36541382004222112 0.18637799113981321 0 -0.35005485475417958 0.20139667775526171 0 -0.34911606579663818 0.19212791692615841 0 -0.36541382004222112 0.18637799113981321 0 -0.34911606579663818 0.19212791692615841 0 -0.35005485475417958 0.20139667775526171 0 -0.34911606579663818 0.19212791692615841 0 -0.34911606579663818 0.19212791692615841 0 -0.32459354091855519 0.2007795811995304 0 -0.34045477879513802 0.20809498165798249 0 -0.33934578106182189 0.18474014059780619 0 -0.34911606579663818 0.19212791692615841 0 -0.32459354091855519 0.2007795811995304 0 -0.34911606579663818 0.19212791692615841 0 -0.32459354091855519 0.2007795811995304 0 -0.31489417627300131 0.17493131289193259 0 -0.32459354091855519 0.2007795811995304 0 -0.29986840644034368 0.19444400665379261 0 -0.31489417627300131 0.17493131289193259 0 -0.32459354091855519 0.2007795811995304 0 -0.32048326099787039 0.2109831967138992 0 -0.31018745987552759 0.22287519556074101 0 -0.31013867106201393 0.2058793285434867 0 -0.32459354091855519 0.2007795811995304 0 -0.32865905665115519 0.21161395492453411 0 -0.32459354091855519 0.2007795811995304 0 -0.32048326099787039 0.2109831967138992 0 -0.32865905665115519 0.21161395492453411 0 -0.32048326099787039 0.2109831967138992 0 -0.32883757648209949 0.2137679233412034 0 -0.31018745987552759 0.22287519556074101 0 -0.32459354091855519 0.2007795811995304 0 -0.32865905665115519 0.21161395492453411 0 -0.328249070177973 0.20666717724820791 0 -0.32883757648209949 0.2137679233412034 0 -0.31018745987552759 0.22287519556074101 0 -0.32459354091855519 0.2007795811995304 0 -0.32048326099787039 0.2109831967138992 0 -0.31013867106201393 0.2058793285434867 0 -0.32459354091855519 0.2007795811995304 0 -0.31013867106201393 0.2058793285434867 0 -0.32048326099787039 0.2109831967138992 0 -0.32883757648209949 0.2137679233412034 0 -0.32865905665115519 0.21161395492453411 0 -0.35005485475417958 0.20139667775526171 0 -0.34045477879513802 0.20809498165798249 0 -0.33159760034612612 0.21944501073456979 0 -0.35005485475417958 0.20139667775526171 0 -0.33159760034612612 0.21944501073456979 0 -0.32883757648209949 0.2137679233412034 0 -0.329479729879123 0.2215159596715261 0 -0.32883757648209949 0.2137679233412034 0 -0.33159760034612612 0.21944501073456979 0 -0.32459354091855519 0.2007795811995304 0 -0.328249070177973 0.20666717724820791 0 -0.34045477879513802 0.20809498165798249 0 -0.32883757648209949 0.2137679233412034 0 -0.33159760034612612 0.21944501073456979 0 -0.329479729879123 0.2215159596715261 0 -0.32883757648209949 0.2137679233412034 0 -0.32865905665115519 0.21161395492453411 0 -0.34045477879513802 0.20809498165798249 0 -0.32883757648209949 0.2137679233412034 0 -0.34045477879513802 0.20809498165798249 0 -0.33159760034612612 0.21944501073456979 0 -0.32883757648209949 0.2137679233412034 0 -0.32865905665115519 0.21161395492453411 0 -0.32865905665115519 0.21161395492453411 0 -0.328249070177973 0.20666717724820791 0 -0.34045477879513802 0.20809498165798249 0 -0.32865905665115519 0.21161395492453411 0 -0.328249070177973 0.20666717724820791 0 -0.32883757648209949 0.2137679233412034 0 -0.34045477879513802 0.20809498165798249 0 -0.35262670526004247 0.22678882477149739 0 -0.33159760034612612 0.21944501073456979 0 -0.33784686720994228 0.23609895999049049 0 -0.329479729879123 0.2215159596715261 0 -0.33121304248314659 0.24242960599044419 0 -0.33159760034612612 0.21944501073456979 0 -0.33784686720994228 0.23609895999049049 0 -0.33159760034612612 0.21944501073456979 0 -0.329479729879123 0.2215159596715261 0 -0.33784686720994228 0.23609895999049049 0 -0.329479729879123 0.2215159596715261 0 -0.33784686720994228 0.23609895999049049 0 -0.33121304248314659 0.24242960599044419 0 -0.33159760034612612 0.21944501073456979 0 -0.329479729879123 0.2215159596715261 0 -0.329479729879123 0.2215159596715261 0 -0.3225898406062408 0.22825320309020589 0 -0.33121304248314659 0.24242960599044419 0 -0.32883757648209949 0.2137679233412034 0 -0.329479729879123 0.2215159596715261 0 -0.3225898406062408 0.22825320309020589 0 -0.32883757648209949 0.2137679233412034 0 -0.3225898406062408 0.22825320309020589 0 -0.31018745987552759 0.22287519556074101 0 -0.329479729879123 0.2215159596715261 0 -0.3225898406062408 0.22825320309020589 0 -0.3225898406062408 0.22825320309020589 0 -0.30853649538476002 0.237738658308662 0 -0.31018745987552759 0.22287519556074101 0 -0.3225898406062408 0.22825320309020589 0 -0.31881650602159739 0.24108672056554031 0 -0.33121304248314659 0.24242960599044419 0 -0.31881650602159739 0.24108672056554031 0 -0.30853649538476002 0.237738658308662 0 -0.31292664561224232 0.25592541487284931 0 -0.31881650602159739 0.24108672056554031 0 -0.33121304248314659 0.24242960599044419 0 -0.31292664561224232 0.25592541487284931 0 -0.3225898406062408 0.22825320309020589 0 -0.31881650602159739 0.24108672056554031 0 -0.30853649538476002 0.237738658308662 0 -0.33784686720994228 0.23609895999049049 0 -0.34409613407375822 0.25275290924641147 0 -0.33784686720994228 0.23609895999049049 0 -0.34409613407375822 0.25275290924641147 0 -0.3379494868404348 0.25306955167772099 0 -0.33784686720994228 0.23609895999049049 0 -0.33121304248314659 0.24242960599044419 0 -0.3379494868404348 0.25306955167772099 0 -0.29290693613731411 0.24850757743633481 0 -0.29153734326895669 0.23198246778028039 0 -0.27288722666238591 0.24108973999982011 0 -0.29153734326895669 0.23198246778028039 0 -0.27288722666238591 0.24108973999982011 0 -0.29290693613731411 0.24850757743633481 0 -0.27288722666238591 0.24108973999982011 0 -0.29290693613731411 0.24850757743633481 0 -0.30853649538476002 0.237738658308662 0 -0.31292664561224232 0.25592541487284931 0 -0.29290693613731411 0.24850757743633481 0 -0.30853649538476002 0.237738658308662 0 -0.29153734326895669 0.23198246778028039 0 -0.30853649538476002 0.237738658308662 0 -0.31018745987552759 0.22287519556074101 0 -0.29153734326895669 0.23198246778028039 0 -0.31018745987552759 0.22287519556074101 0 -0.29153734326895669 0.23198246778028039 0 -0.31018745987552759 0.22287519556074101 0 -0.29153734326895669 0.23198246778028039 0 -0.29568380120547261 0.21097907588744291 0 -0.29153734326895669 0.23198246778028039 0 -0.29568380120547261 0.21097907588744291 0 -0.27631695907674753 0.21726858605765129 0 -0.29568380120547261 0.21097907588744291 0 -0.28057878005774478 0.1983635310851978 0 -0.27631695907674753 0.21726858605765129 0 -0.29568380120547261 0.21097907588744291 0 -0.31013867106201393 0.2058793285434867 0 -0.29986840644034368 0.19444400665379261 0 -0.31018745987552759 0.22287519556074101 0 -0.29568380120547261 0.21097907588744291 0 -0.31013867106201393 0.2058793285434867 0 -0.29568380120547261 0.21097907588744291 0 -0.31013867106201393 0.2058793285434867 0 -0.32459354091855519 0.2007795811995304 0 -0.31013867106201393 0.2058793285434867 0 -0.29986840644034368 0.19444400665379261 0 -0.29986840644034368 0.19444400665379261 0 -0.28057878005774478 0.1983635310851978 0 -0.28583789091812312 0.18033156556271909 0 -0.29568380120547261 0.21097907588744291 0 -0.29986840644034368 0.19444400665379261 0 -0.28057878005774478 0.1983635310851978 0 -0.28057878005774478 0.1983635310851978 0 -0.26241158266142728 0.2035212326105251 0 -0.26596910576257399 0.18461147854214779 0 -0.28057878005774478 0.1983635310851978 0 -0.28583789091812312 0.18033156556271909 0 -0.26596910576257399 0.18461147854214779 0 -0.26241158266142728 0.2035212326105251 0 -0.26596910576257399 0.18461147854214779 0 -0.24857413935887121 0.1938346731499348 0 -0.26241158266142728 0.2035212326105251 0 -0.25011019429849579 0.20945026987687509 0 -0.24857413935887121 0.1938346731499348 0 -0.25011019429849579 0.20945026987687509 0 -0.25997233925852359 0.21888794906974049 0 -0.24393802492032279 0.2219519397728941 0 -0.26241158266142728 0.2035212326105251 0 -0.25011019429849579 0.20945026987687509 0 -0.25997233925852359 0.21888794906974049 0 -0.26241158266142728 0.2035212326105251 0 -0.27631695907674753 0.21726858605765129 0 -0.25997233925852359 0.21888794906974049 0 -0.28057878005774478 0.1983635310851978 0 -0.26241158266142728 0.2035212326105251 0 -0.27631695907674753 0.21726858605765129 0 -0.27631695907674753 0.21726858605765129 0 -0.2700529186456998 0.22964549279823729 0 -0.25997233925852359 0.21888794906974049 0 -0.29153734326895669 0.23198246778028039 0 -0.2700529186456998 0.22964549279823729 0 -0.27288722666238591 0.24108973999982011 0 -0.29153734326895669 0.23198246778028039 0 -0.27631695907674753 0.21726858605765129 0 -0.2700529186456998 0.22964549279823729 0 -0.25997233925852359 0.21888794906974049 0 -0.25564953007324148 0.23090544455198059 0 -0.24393802492032279 0.2219519397728941 0 -0.2700529186456998 0.22964549279823729 0 -0.25997233925852359 0.21888794906974049 0 -0.25564953007324148 0.23090544455198059 0 -0.2700529186456998 0.22964549279823729 0 -0.25564953007324148 0.23090544455198059 0 -0.26347546649134179 0.23760243130397241 0 -0.27288722666238591 0.24108973999982011 0 -0.25359680925970529 0.25050968552728381 0 -0.27288722666238591 0.24108973999982011 0 -0.26542126265953442 0.25470793440585782 0 -0.25359680925970529 0.25050968552728381 0 -0.26347546649134179 0.23760243130397241 0 -0.27288722666238591 0.24108973999982011 0 -0.25359680925970529 0.25050968552728381 0 -0.25564953007324148 0.23090544455198059 0 -0.25162939880835072 0.24125374225886609 0 -0.24368027941200501 0.23576390084582491 0 -0.25564953007324148 0.23090544455198059 0 -0.26347546649134179 0.23760243130397241 0 -0.25162939880835072 0.24125374225886609 0 -0.26347546649134179 0.23760243130397241 0 -0.25162939880835072 0.24125374225886609 0 -0.25359680925970529 0.25050968552728381 0 -0.29290693613731411 0.24850757743633481 0 -0.27288722666238591 0.24108973999982011 0 -0.27650373764531211 0.25956298974931619 0 -0.26347546649134179 0.23760243130397241 0 -0.27288722666238591 0.24108973999982011 0 -0.2700529186456998 0.22964549279823729 0 -0.26347546649134179 0.23760243130397241 0 -0.27288722666238591 0.24108973999982011 0 -0.28383263286614863 0.1429566235761707 0 -0.30519481162744982 0.149083044584334 0 -0.29137488182862031 0.16139913198361691 0 -0.28383263286614863 0.1429566235761707 0 -0.29137488182862031 0.16139913198361691 0 -0.27166712248419872 0.16220009768498209 0 -0.28383263286614863 0.1429566235761707 0 -0.30519481162744982 0.149083044584334 0 -0.28383263286614863 0.1429566235761707 0 -0.28926944493458551 0.1250750389119854 0 -0.27284487120628759 0.12777343588798021 0 -0.28383263286614863 0.1429566235761707 0 -0.28926944493458551 0.1250750389119854 0 -0.30177152152121789 0.13996016649961901 0 -0.31885284022203109 0.1394218389910083 0 -0.30177152152121789 0.13996016649961901 0 -0.30655317144938349 0.12231627183461199 0 -0.28926944493458551 0.1250750389119854 0 -0.30177152152121789 0.13996016649961901 0 -0.30655317144938349 0.12231627183461199 0 -0.28383263286614863 0.1429566235761707 0 -0.30177152152121789 0.13996016649961901 0 -0.30519481162744982 0.149083044584334 0 -0.31885284022203109 0.1394218389910083 0 -0.30177152152121789 0.13996016649961901 0 -0.30519481162744982 0.149083044584334 0 -0.30177152152121789 0.13996016649961901 0 -0.30519481162744982 0.149083044584334 0 -0.31489417627300131 0.17493131289193259 0 -0.30519481162744982 0.149083044584334 0 -0.29137488182862031 0.16139913198361691 0 -0.31489417627300131 0.17493131289193259 0 -0.30519481162744982 0.149083044584334 0 -0.31489417627300131 0.17493131289193259 0 -0.28583789091812312 0.18033156556271909 0 -0.29137488182862031 0.16139913198361691 0 -0.31489417627300131 0.17493131289193259 0 -0.29986840644034368 0.19444400665379261 0 -0.28583789091812312 0.18033156556271909 0 -0.28583789091812312 0.18033156556271909 0 -0.29137488182862031 0.16139913198361691 0 -0.27166712248419872 0.16220009768498209 0 -0.28583789091812312 0.18033156556271909 0 -0.27166712248419872 0.16220009768498209 0 -0.26596910576257399 0.18461147854214779 0 -0.27166712248419872 0.16220009768498209 0 -0.26596910576257399 0.18461147854214779 0 -0.25137100051351241 0.17126033524202469 0 -0.26596910576257399 0.18461147854214779 0 -0.25137100051351241 0.17126033524202469 0 -0.24857413935887121 0.1938346731499348 0 -0.27166712248419872 0.16220009768498209 0 -0.25137100051351241 0.17126033524202469 0 -0.25557465584018968 0.14338654667308429 0 -0.28383263286614863 0.1429566235761707 0 -0.27166712248419872 0.16220009768498209 0 -0.25557465584018968 0.14338654667308429 0 -0.28383263286614863 0.1429566235761707 0 -0.25557465584018968 0.14338654667308429 0 -0.27284487120628759 0.12777343588798021 0 -0.25557465584018968 0.14338654667308429 0 -0.25856821657022228 0.1162694354221659 0 -0.24138835164683159 0.1223831451018326 0 -0.25557465584018968 0.14338654667308429 0 -0.27284487120628759 0.12777343588798021 0 -0.25856821657022228 0.1162694354221659 0 -0.25856821657022228 0.1162694354221659 0 -0.25895491275748472 0.096660090682144206 0 -0.2752979966821591 0.10686119118117569 0 -0.25856821657022228 0.1162694354221659 0 -0.25895491275748472 0.096660090682144206 0 -0.2401659045882438 0.097821620661967645 0 -0.25895491275748472 0.096660090682144206 0 -0.2752979966821591 0.10686119118117569 0 -0.27030017083997232 0.082810548335021869 0 -0.28926944493458551 0.1250750389119854 0 -0.27284487120628759 0.12777343588798021 0 -0.2752979966821591 0.10686119118117569 0 -0.27284487120628759 0.12777343588798021 0 -0.25856821657022228 0.1162694354221659 0 -0.2752979966821591 0.10686119118117569 0 -0.28926944493458551 0.1250750389119854 0 -0.29425350267673611 0.10521070467821581 0 -0.30655317144938349 0.12231627183461199 0 -0.28926944493458551 0.1250750389119854 0 -0.2752979966821591 0.10686119118117569 0 -0.29425350267673611 0.10521070467821581 0 -0.2752979966821591 0.10686119118117569 0 -0.29425350267673611 0.10521070467821581 0 -0.28652887010179362 0.090943016020021555 0 -0.29425350267673611 0.10521070467821581 0 -0.3015661496665315 0.088679399320652164 0 -0.28652887010179362 0.090943016020021555 0 -0.29425350267673611 0.10521070467821581 0 -0.30833934501231719 0.1057362034842368 0 -0.3015661496665315 0.088679399320652164 0 -0.30833934501231719 0.1057362034842368 0 -0.3015661496665315 0.088679399320652164 0 -0.31680928515935092 0.095856311715039555 0 -0.30833934501231719 0.1057362034842368 0 -0.30655317144938349 0.12231627183461199 0 -0.31584582057886479 0.1141864407106782 0 -0.29425350267673611 0.10521070467821581 0 -0.30655317144938349 0.12231627183461199 0 -0.29425350267673611 0.10521070467821581 0 -0.30833934501231719 0.1057362034842368 0 -0.30655317144938349 0.12231627183461199 0 -0.2948875524394774 0.068732661598678885 0 -0.31580827006023948 0.053949206886910288 0 -0.32007940561707338 0.073198602179848776 0 -0.3015661496665315 0.088679399320652164 0 -0.2948875524394774 0.068732661598678885 0 -0.32007940561707338 0.073198602179848776 0 -0.2948875524394774 0.068732661598678885 0 -0.32007940561707338 0.073198602179848776 0 -0.3015661496665315 0.088679399320652164 0 -0.28652887010179362 0.090943016020021555 0 -0.2948875524394774 0.068732661598678885 0 -0.28652887010179362 0.090943016020021555 0 -0.2948875524394774 0.068732661598678885 0 -0.27030017083997232 0.082810548335021869 0 -0.2948875524394774 0.068732661598678885 0 -0.27030017083997232 0.082810548335021869 0 -0.27760064380829619 0.058123340855494948 0 -0.27030017083997232 0.082810548335021869 0 -0.25440848379326342 0.059602881396810997 0 -0.27760064380829619 0.058123340855494948 0 -0.2752979966821591 0.10686119118117569 0 -0.28652887010179362 0.090943016020021555 0 -0.27030017083997232 0.082810548335021869 0 -0.25895491275748472 0.096660090682144206 0 -0.27030017083997232 0.082810548335021869 0 -0.25044227510682571 0.079537657810389961 0 -0.27030017083997232 0.082810548335021869 0 -0.25044227510682571 0.079537657810389961 0 -0.25440848379326342 0.059602881396810997 0 -0.25440848379326342 0.059602881396810997 0 -0.27574740805011982 0.032788201733647757 0 -0.25192898378361739 0.030380811532505918 0 -0.25440848379326342 0.059602881396810997 0 -0.27574740805011982 0.032788201733647757 0 -0.27760064380829619 0.058123340855494948 0 -0.26308809303082348 -0.0061578822087555102 0 -0.25634800387939422 0.010446769574923199 0 -0.26740120420284308 0.0059329096692866236 0 -0.25634800387939422 0.010446769574923199 0 -0.27135299441253291 0.017010823283247791 0 -0.26740120420284308 0.0059329096692866236 0 -0.25634800387939422 0.010446769574923199 0 -0.25192898378361739 0.030380811532505918 0 -0.27135299441253291 0.017010823283247791 0 -0.27574740805011982 0.032788201733647757 0 -0.27135299441253291 0.017010823283247791 0 -0.28853647752776818 0.0069181716844335106 0 -0.27574740805011982 0.032788201733647757 0 -0.25192898378361739 0.030380811532505918 0 -0.27135299441253291 0.017010823283247791 0 -0.26308809303082348 -0.0061578822087555102 0 -0.27881572548862182 0.0024319280277310261 0 -0.26740120420284308 0.0059329096692866236 0 -0.27135299441253291 0.017010823283247791 0 -0.27881572548862182 0.0024319280277310261 0 -0.28853647752776818 0.0069181716844335106 0 -0.27135299441253291 0.017010823283247791 0 -0.27881572548862182 0.0024319280277310261 0 -0.26740120420284308 0.0059329096692866236 0 -0.28853647752776818 0.0069181716844335106 0 -0.30141269447713948 0.02040695743548197 0 -0.30028364258201701 0.0084003729508178721 0 -0.27574740805011982 0.032788201733647757 0 -0.28853647752776818 0.0069181716844335106 0 -0.27574740805011982 0.032788201733647757 0 -0.28853647752776818 0.0069181716844335106 0 -0.30141269447713948 0.02040695743548197 0 -0.30141269447713948 0.02040695743548197 0 -0.31377106770342977 0.034528578112579533 0 -0.3146516730449494 0.021378986672248891 0 -0.30141269447713948 0.02040695743548197 0 -0.3155368564668059 0.00791962896903276 0 -0.3146516730449494 0.021378986672248891 0 -0.30418814435295449 -0.0017308923959753141 0 -0.28853647752776818 0.0069181716844335106 0 -0.30028364258201701 0.0084003729508178721 0 -0.30141269447713948 0.02040695743548197 0 -0.30028364258201701 0.0084003729508178721 0 -0.3155368564668059 0.00791962896903276 0 -0.30418814435295449 -0.0017308923959753141 0 -0.30028364258201701 0.0084003729508178721 0 -0.3155368564668059 0.00791962896903276 0 -0.2948875524394774 0.068732661598678885 0 -0.27760064380829619 0.058123340855494948 0 -0.29623960592277332 0.044903100342992462 0 -0.27574740805011982 0.032788201733647757 0 -0.27760064380829619 0.058123340855494948 0 -0.29623960592277332 0.044903100342992462 0 -0.27574740805011982 0.032788201733647757 0 -0.30141269447713948 0.02040695743548197 0 -0.29623960592277332 0.044903100342992462 0 -0.30141269447713948 0.02040695743548197 0 -0.29623960592277332 0.044903100342992462 0 -0.31377106770342977 0.034528578112579533 0 -0.29623960592277332 0.044903100342992462 0 -0.31580827006023948 0.053949206886910288 0 -0.31377106770342977 0.034528578112579533 0 -0.2948875524394774 0.068732661598678885 0 -0.29623960592277332 0.044903100342992462 0 -0.31580827006023948 0.053949206886910288 0 -0.31580827006023948 0.053949206886910288 0 -0.33269442469291077 0.043768853267798488 0 -0.33502350706113521 0.062185790285478861 0 -0.31580827006023948 0.053949206886910288 0 -0.31377106770342977 0.034528578112579533 0 -0.33269442469291077 0.043768853267798488 0 -0.31377106770342977 0.034528578112579533 0 -0.33269442469291077 0.043768853267798488 0 -0.32788607353242222 0.02266078217190132 0 -0.33269442469291077 0.043768853267798488 0 -0.33502350706113521 0.062185790285478861 0 -0.35259361649398552 0.054580363597229363 0 -0.3155368564668059 0.00791962896903276 0 -0.32788607353242222 0.02266078217190132 0 -0.3146516730449494 0.021378986672248891 0 -0.31377106770342977 0.034528578112579533 0 -0.32788607353242222 0.02266078217190132 0 -0.3146516730449494 0.021378986672248891 0 -0.34210778317672558 -0.001571496537540198 0 -0.32788607353242222 0.02266078217190132 0 -0.34735069983535422 0.02650443352984479 0 -0.33269442469291077 0.043768853267798488 0 -0.32788607353242222 0.02266078217190132 0 -0.34735069983535422 0.02650443352984479 0 -0.34210778317672558 -0.001571496537540198 0 -0.3155368564668059 0.00791962896903276 0 -0.32788607353242222 0.02266078217190132 0 -0.35902896314898358 -0.0017027207110311359 0 -0.34210778317672558 -0.001571496537540198 0 -0.35659184364061491 0.01170607592505294 0 -0.34210778317672558 -0.001571496537540198 0 -0.34735069983535422 0.02650443352984479 0 -0.34210778317672558 -0.001571496537540198 0 -0.35659184364061491 0.01170607592505294 0 -0.34735069983535422 0.02650443352984479 0 -0.34735069983535422 0.02650443352984479 0 -0.36309688450263999 0.02124667988455908 0 -0.35994777681948481 0.031395924715099041 0 -0.35659184364061491 0.01170607592505294 0 -0.34735069983535422 0.02650443352984479 0 -0.36309688450263999 0.02124667988455908 0 -0.36309688450263999 0.02124667988455908 0 -0.35994777681948481 0.031395924715099041 0 -0.3745175543435747 0.032412733095474107 0 -0.37358602706579958 0.019684991208363731 0 -0.36309688450263999 0.02124667988455908 0 -0.3745175543435747 0.032412733095474107 0 -0.37358602706579958 0.019684991208363731 0 -0.36309688450263999 0.02124667988455908 0 -0.36591486686943397 0.0094895318196663286 0 -0.35659184364061491 0.01170607592505294 0 -0.36309688450263999 0.02124667988455908 0 -0.36591486686943397 0.0094895318196663286 0 -0.37573497748791151 0.01108081694060346 0 -0.37358602706579958 0.019684991208363731 0 -0.36591486686943397 0.0094895318196663286 0 -0.36913653546780928 -0.00064787223986029208 0 -0.37573497748791151 0.01108081694060346 0 -0.36591486686943397 0.0094895318196663286 0 -0.36913653546780928 -0.00064787223986029208 0 -0.35902896314898358 -0.0017027207110311359 0 -0.36591486686943397 0.0094895318196663286 0 -0.35902896314898358 -0.0017027207110311359 0 -0.35659184364061491 0.01170607592505294 0 -0.36591486686943397 0.0094895318196663286 0 -0.33269442469291077 0.043768853267798488 0 -0.34735069983535422 0.02650443352984479 0 -0.35259361649398552 0.054580363597229363 0 -0.35259361649398552 0.054580363597229363 0 -0.35994777681948481 0.031395924715099041 0 -0.34735069983535422 0.02650443352984479 0 -0.35259361649398552 0.054580363597229363 0 -0.35994777681948481 0.031395924715099041 0 -0.34735069983535422 0.02650443352984479 0 -0.35259361649398552 0.054580363597229363 0 -0.37572270983714429 0.048872920353502949 0 -0.35259361649398552 0.054580363597229363 0 -0.35994777681948481 0.031395924715099041 0 -0.37572270983714429 0.048872920353502949 0 -0.35994777681948481 0.031395924715099041 0 -0.3745175543435747 0.032412733095474107 0 -0.37572270983714429 0.048872920353502949 0 -0.35259361649398552 0.054580363597229363 0 -0.36646259154152272 0.065038684961889331 0 -0.36646259154152272 0.065038684961889331 0 -0.35730266849660441 0.079797437092297405 0 -0.36999097683252652 0.082046784558081981 0 -0.38503139596208391 0.070056563675861508 0 -0.36646259154152272 0.065038684961889331 0 -0.36999097683252652 0.082046784558081981 0 -0.35259361649398552 0.054580363597229363 0 -0.34527125879466941 0.077664542761018612 0 -0.35259361649398552 0.054580363597229363 0 -0.36646259154152272 0.065038684961889331 0 -0.35730266849660441 0.079797437092297405 0 -0.33502350706113521 0.062185790285478861 0 -0.35259361649398552 0.054580363597229363 0 -0.34527125879466941 0.077664542761018612 0 -0.35259361649398552 0.054580363597229363 0 -0.34527125879466941 0.077664542761018612 0 -0.35730266849660441 0.079797437092297405 0 -0.35259361649398552 0.054580363597229363 0 -0.35730266849660441 0.079797437092297405 0 -0.34963430903372589 0.088053423035538994 0 -0.35730266849660441 0.079797437092297405 0 -0.3608973826239672 0.099047207596682271 0 -0.34527125879466941 0.077664542761018612 0 -0.34963430903372589 0.088053423035538994 0 -0.3400807549588134 0.094027922619987228 0 -0.35730266849660441 0.079797437092297405 0 -0.3608973826239672 0.099047207596682271 0 -0.34963430903372589 0.088053423035538994 0 -0.34871735711010982 0.096738339487153574 0 -0.3400807549588134 0.094027922619987228 0 -0.34527125879466941 0.077664542761018612 0 -0.35730266849660441 0.079797437092297405 0 -0.34527125879466941 0.077664542761018612 0 -0.34963430903372589 0.088053423035538994 0 -0.35730266849660441 0.079797437092297405 0 -0.35730266849660441 0.079797437092297405 0 -0.36999097683252652 0.082046784558081981 0 -0.3608973826239672 0.099047207596682271 0 -0.35730266849660441 0.079797437092297405 0 -0.36999097683252652 0.082046784558081981 0 -0.3608973826239672 0.099047207596682271 0 -0.3644920967513347 0.11829697810106619 0 -0.3758661085835856 0.10053044475925529 0 -0.3608973826239672 0.099047207596682271 0 -0.3644920967513347 0.11829697810106619 0 -0.3758661085835856 0.10053044475925529 0 -0.36999097683252652 0.082046784558081981 0 -0.3608973826239672 0.099047207596682271 0 -0.38463230277678639 0.116186697035543 0 -0.3758661085835856 0.10053044475925529 0 -0.3644920967513347 0.11829697810106619 0 -0.3608973826239672 0.099047207596682271 0 -0.3644920967513347 0.11829697810106619 0 -0.35113465807578892 0.1169466899203369 0 -0.35479205013033921 0.12890720630666769 0 -0.3644920967513347 0.11829697810106619 0 -0.35113465807578892 0.1169466899203369 0 -0.3448824286281959 0.1140834346244366 0 -0.35113465807578892 0.1169466899203369 0 -0.3459978726759807 0.1052991260394785 0 -0.3448824286281959 0.1140834346244366 0 -0.35113465807578892 0.1169466899203369 0 -0.34455653043517159 0.1190157682535275 0 -0.35479205013033921 0.12890720630666769 0 -0.35113465807578892 0.1169466899203369 0 -0.34777806649788068 0.1245039275869301 0 -0.35113465807578892 0.1169466899203369 0 -0.34455653043517159 0.1190157682535275 0 -0.34777806649788068 0.1245039275869301 0 -0.34129577494332308 0.12608128486744111 0 -0.34455653043517159 0.1190157682535275 0 -0.34777806649788068 0.1245039275869301 0 -0.3608973826239672 0.099047207596682271 0 -0.35113465807578892 0.1169466899203369 0 -0.3459978726759807 0.1052991260394785 0 -0.34963430903372589 0.088053423035538994 0 -0.3608973826239672 0.099047207596682271 0 -0.34871735711010982 0.096738339487153574 0 -0.3608973826239672 0.099047207596682271 0 -0.3459978726759807 0.1052991260394785 0 -0.34871735711010982 0.096738339487153574 0 -0.3459978726759807 0.1052991260394785 0 -0.34871735711010982 0.096738339487153574 0 -0.3400807549588134 0.094027922619987228 0 -0.3459978726759807 0.1052991260394785 0 -0.3400807549588134 0.094027922619987228 0 -0.33784065332584229 0.1150721542844033 0 -0.3400807549588134 0.094027922619987228 0 -0.32969368388928011 0.1049087988893203 0 -0.33419651050672528 0.1125783620758689 0 -0.3400807549588134 0.094027922619987228 0 -0.33784065332584229 0.1150721542844033 0 -0.33419651050672528 0.1125783620758689 0 -0.3400807549588134 0.094027922619987228 0 -0.33784065332584229 0.1150721542844033 0 -0.3400807549588134 0.094027922619987228 0 -0.33419651050672528 0.1125783620758689 0 -0.3400807549588134 0.094027922619987228 0 -0.32969368388928011 0.1049087988893203 0 -0.32730847478462011 0.098064143688394917 0 -0.33560055169287167 0.13611638594881939 0 -0.33784065332584229 0.1150721542844033 0 -0.33205797715154362 0.12084499274016861 0 -0.34129577494332308 0.12608128486744111 0 -0.34455653043517159 0.1190157682535275 0 -0.33784065332584229 0.1150721542844033 0 -0.3448824286281959 0.1140834346244366 0 -0.3459978726759807 0.1052991260394785 0 -0.33784065332584229 0.1150721542844033 0 -0.3448824286281959 0.1140834346244366 0 -0.34455653043517159 0.1190157682535275 0 -0.33784065332584229 0.1150721542844033 0 -0.32969368388928011 0.1049087988893203 0 -0.33419651050672528 0.1125783620758689 0 -0.32556901223611889 0.1152321344365401 0 -0.33419651050672528 0.1125783620758689 0 -0.33205797715154362 0.12084499274016861 0 -0.32556901223611889 0.1152321344365401 0 -0.33784065332584229 0.1150721542844033 0 -0.33419651050672528 0.1125783620758689 0 -0.33205797715154362 0.12084499274016861 0 -0.32617091320368358 0.12648479797181461 0 -0.32556901223611889 0.1152321344365401 0 -0.31807351005499201 0.1236561856628164 0 -0.32617091320368358 0.12648479797181461 0 -0.33205797715154362 0.12084499274016861 0 -0.32556901223611889 0.1152321344365401 0 -0.32556901223611889 0.1152321344365401 0 -0.31584582057886479 0.1141864407106782 0 -0.32068253388475132 0.10542846413990099 0 -0.32556901223611889 0.1152321344365401 0 -0.31584582057886479 0.1141864407106782 0 -0.31807351005499201 0.1236561856628164 0 -0.30655317144938349 0.12231627183461199 0 -0.31584582057886479 0.1141864407106782 0 -0.31807351005499201 0.1236561856628164 0 -0.32730847478462011 0.098064143688394917 0 -0.31680928515935092 0.095856311715039555 0 -0.32906877180057698 0.089183954699540852 0 -0.32730847478462011 0.098064143688394917 0 -0.32068253388475132 0.10542846413990099 0 -0.31680928515935092 0.095856311715039555 0 -0.32969368388928011 0.1049087988893203 0 -0.32556901223611889 0.1152321344365401 0 -0.32068253388475132 0.10542846413990099 0 -0.32969368388928011 0.1049087988893203 0 -0.32730847478462011 0.098064143688394917 0 -0.32068253388475132 0.10542846413990099 0 -0.30833934501231719 0.1057362034842368 0 -0.32068253388475132 0.10542846413990099 0 -0.31680928515935092 0.095856311715039555 0 -0.30833934501231719 0.1057362034842368 0 -0.31584582057886479 0.1141864407106782 0 -0.32068253388475132 0.10542846413990099 0 -0.3015661496665315 0.088679399320652164 0 -0.31680928515935092 0.095856311715039555 0 -0.32007940561707338 0.073198602179848776 0 -0.31680928515935092 0.095856311715039555 0 -0.32007940561707338 0.073198602179848776 0 -0.32906877180057698 0.089183954699540852 0 -0.31580827006023948 0.053949206886910288 0 -0.33502350706113521 0.062185790285478861 0 -0.32007940561707338 0.073198602179848776 0 -0.34527125879466941 0.077664542761018612 0 -0.32007940561707338 0.073198602179848776 0 -0.33502350706113521 0.062185790285478861 0 -0.34527125879466941 0.077664542761018612 0 -0.32007940561707338 0.073198602179848776 0 -0.34527125879466941 0.077664542761018612 0 -0.3400807549588134 0.094027922619987228 0 -0.34527125879466941 0.077664542761018612 0 -0.3400807549588134 0.094027922619987228 0 -0.34106593848302719 0.084772793294433796 0 -0.32007940561707338 0.073198602179848776 0 -0.34106593848302719 0.084772793294433796 0 -0.32906877180057698 0.089183954699540852 0 -0.34527125879466941 0.077664542761018612 0 -0.32007940561707338 0.073198602179848776 0 -0.34106593848302719 0.084772793294433796 0 -0.3400807549588134 0.094027922619987228 0 -0.34106593848302719 0.084772793294433796 0 -0.3400807549588134 0.094027922619987228 0 -0.34106593848302719 0.084772793294433796 0 -0.32906877180057698 0.089183954699540852 0 -0.3400807549588134 0.094027922619987228 0 -0.32730847478462011 0.098064143688394917 0 -0.32906877180057698 0.089183954699540852 0 -0.39434395026331071 0.47779347008593193 0 -0.40714832453319699 0.46448701685076532 0 -0.41562967847157362 0.47213136248463111 0 -0.39024968796281212 0.48142090832308859 0 -0.41562967847157362 0.47213136248463111 0 -0.40560226685632422 0.48677968859304599 0 -0.39024968796281212 0.48142090832308859 0 -0.41562967847157362 0.47213136248463111 0 -0.39434395026331071 0.47779347008593193 0 -0.39024968796281212 0.48142090832308859 0 -0.41562967847157362 0.47213136248463111 0 -0.39434395026331071 0.47779347008593193 0 -0.39277142524151792 0.47165021676647118 0 -0.38849784736498622 0.47156157293376311 0 -0.39434395026331071 0.47779347008593193 0 -0.39277142524151792 0.47165021676647118 0 -0.3964961410284823 0.46849443223709192 0 -0.39277142524151792 0.47165021676647118 0 -0.38849784736498622 0.47156157293376311 0 -0.39193303577126309 0.46846132409760682 0 -0.39277142524151792 0.47165021676647118 0 -0.3964961410284823 0.46849443223709192 0 -0.39193303577126309 0.46846132409760682 0 -0.39434395026331071 0.47779347008593193 0 -0.3964961410284823 0.46849443223709192 0 -0.40714832453319699 0.46448701685076532 0 -0.40560226685632422 0.48677968859304599 0 -0.39932518772944192 0.5 0 -0.39024968796281212 0.48142090832308859 0 -0.39932518772944192 0.5 0 -0.39024968796281212 0.48142090832308859 0 -0.36940744733736541 0.5 0 -0.39024968796281212 0.48142090832308859 0 -0.36486969745405118 0.49071045416154729 0 -0.39024968796281212 0.48142090832308859 0 -0.38321256863770647 0.47653276635862801 0 -0.37284258001029952 0.4792311464255623 0 -0.39024968796281212 0.48142090832308859 0 -0.37284258001029952 0.4792311464255623 0 -0.36486969745405118 0.49071045416154729 0 -0.39434395026331071 0.47779347008593193 0 -0.39024968796281212 0.48142090832308859 0 -0.38321256863770647 0.47653276635862801 0 -0.39434395026331071 0.47779347008593193 0 -0.37957362181831039 0.46646410460957188 0 -0.39434395026331071 0.47779347008593193 0 -0.38281900935997681 0.47209772395228972 0 -0.37957362181831039 0.46646410460957188 0 -0.39434395026331071 0.47779347008593193 0 -0.38849784736498622 0.47156157293376311 0 -0.37957362181831039 0.46646410460957188 0 -0.39434395026331071 0.47779347008593193 0 -0.38321256863770647 0.47653276635862801 0 -0.38281900935997681 0.47209772395228972 0 -0.38849784736498622 0.47156157293376311 0 -0.38844368689226128 0.46678245511872341 0 -0.38525775881178898 0.46805018967201012 0 -0.38849784736498622 0.47156157293376311 0 -0.38844368689226128 0.46678245511872341 0 -0.39193303577126309 0.46846132409760682 0 -0.38321256863770647 0.47653276635862801 0 -0.37727068166745942 0.47264893556906828 0 -0.37284258001029952 0.4792311464255623 0 -0.38281900935997681 0.47209772395228972 0 -0.37727068166745942 0.47264893556906828 0 -0.37957362181831039 0.46646410460957188 0 -0.38321256863770647 0.47653276635862801 0 -0.38281900935997681 0.47209772395228972 0 -0.37727068166745942 0.47264893556906828 0 -0.37727068166745942 0.47264893556906828 0 -0.37957362181831039 0.46646410460957188 0 -0.37177404296113059 0.46843018538421222 0 -0.37957362181831039 0.46646410460957188 0 -0.37477896583113562 0.44319746245818942 0 -0.37957362181831039 0.46646410460957188 0 -0.38175903504851177 0.4592131427674675 0 -0.37477896583113562 0.44319746245818942 0 -0.37957362181831039 0.46646410460957188 0 -0.38525775881178898 0.46805018967201012 0 -0.38288360332517202 0.46655206594269139 0 -0.37957362181831039 0.46646410460957188 0 -0.38144465480983453 0.46564645072704702 0 -0.38288360332517202 0.46655206594269139 0 -0.38144465480983453 0.46564645072704702 0 -0.38174985636075581 0.46398249256542717 0 -0.38288360332517202 0.46655206594269139 0 -0.37957362181831039 0.46646410460957188 0 -0.38144465480983453 0.46564645072704702 0 -0.38174985636075581 0.46398249256542717 0 -0.37957362181831039 0.46646410460957188 0 -0.38174985636075581 0.46398249256542717 0 -0.38175903504851177 0.4592131427674675 0 -0.38174985636075581 0.46398249256542717 0 -0.38175903504851177 0.4592131427674675 0 -0.38377874631464798 0.46341140187061702 0 -0.38175903504851177 0.4592131427674675 0 -0.38613353313860482 0.45993032321677829 0 -0.38377874631464798 0.46341140187061702 0 -0.38503501187249578 0.45240001445280231 0 -0.39349656380716619 0.4493436321088492 0 -0.39064356579812398 0.45772863621219773 0 -0.38175903504851177 0.4592131427674675 0 -0.38613353313860482 0.45993032321677829 0 -0.38503501187249578 0.45240001445280231 0 -0.38613353313860482 0.45993032321677829 0 -0.38503501187249578 0.45240001445280231 0 -0.39064356579812398 0.45772863621219773 0 -0.38613353313860482 0.45993032321677829 0 -0.38885486965304511 0.46240585205278228 0 -0.39064356579812398 0.45772863621219773 0 -0.38613353313860482 0.45993032321677829 0 -0.38885486965304511 0.46240585205278228 0 -0.38666871865183411 0.46426696783253169 0 -0.38849784736498622 0.47156157293376311 0 -0.37957362181831039 0.46646410460957188 0 -0.38525775881178898 0.46805018967201012 0 -0.38885486965304511 0.46240585205278228 0 -0.38844368689226128 0.46678245511872341 0 -0.39333777091600891 0.46333438533976889 0 -0.38885486965304511 0.46240585205278228 0 -0.38844368689226128 0.46678245511872341 0 -0.38666871865183411 0.46426696783253169 0 -0.38844368689226128 0.46678245511872341 0 -0.38500748008868829 0.46595369394948971 0 -0.38666871865183411 0.46426696783253169 0 -0.38844368689226128 0.46678245511872341 0 -0.38500748008868829 0.46595369394948971 0 -0.38525775881178898 0.46805018967201012 0 -0.38500748008868829 0.46595369394948971 0 -0.38525775881178898 0.46805018967201012 0 -0.38288360332517202 0.46655206594269139 0 -0.38174985636075581 0.46398249256542717 0 -0.38500748008868829 0.46595369394948971 0 -0.38288360332517202 0.46655206594269139 0 -0.38613353313860482 0.45993032321677829 0 -0.38377874631464798 0.46341140187061702 0 -0.38666871865183411 0.46426696783253169 0 -0.38174985636075581 0.46398249256542717 0 -0.38500748008868829 0.46595369394948971 0 -0.38377874631464798 0.46341140187061702 0 -0.38500748008868829 0.46595369394948971 0 -0.38377874631464798 0.46341140187061702 0 -0.38666871865183411 0.46426696783253169 0 -0.38175903504851177 0.4592131427674675 0 -0.38503501187249578 0.45240001445280231 0 -0.37477896583113562 0.44319746245818942 0 -0.3856886260903214 0.44297597697938262 0 -0.38441080564905672 0.43065320780626543 0 -0.37477896583113562 0.44319746245818942 0 -0.38503501187249578 0.45240001445280231 0 -0.3856886260903214 0.44297597697938262 0 -0.37477896583113562 0.44319746245818942 0 -0.38503501187249578 0.45240001445280231 0 -0.3856886260903214 0.44297597697938262 0 -0.39349656380716619 0.4493436321088492 0 -0.3856886260903214 0.44297597697938262 0 -0.39700779200613018 0.44043732119473827 0 -0.38441080564905672 0.43065320780626543 0 -0.39700779200613018 0.44043732119473827 0 -0.41382071108215762 0.44750945593888058 0 -0.39977824891931257 0.42801053716093629 0 -0.39700779200613018 0.44043732119473827 0 -0.40311357181934032 0.45083729470001338 0 -0.41382071108215762 0.44750945593888058 0 -0.3856886260903214 0.44297597697938262 0 -0.39700779200613018 0.44043732119473827 0 -0.39349656380716619 0.4493436321088492 0 -0.39349656380716619 0.4493436321088492 0 -0.40311357181934032 0.45083729470001338 0 -0.39793676571944658 0.45786525838509162 0 -0.39700779200613018 0.44043732119473827 0 -0.39349656380716619 0.4493436321088492 0 -0.40311357181934032 0.45083729470001338 0 -0.39333777091600891 0.46333438533976889 0 -0.39793676571944658 0.45786525838509162 0 -0.39866917880462138 0.46349428742654641 0 -0.3964961410284823 0.46849443223709192 0 -0.39333777091600891 0.46333438533976889 0 -0.39866917880462138 0.46349428742654641 0 -0.38844368689226128 0.46678245511872341 0 -0.39193303577126309 0.46846132409760682 0 -0.39333777091600891 0.46333438533976889 0 -0.3964961410284823 0.46849443223709192 0 -0.39193303577126309 0.46846132409760682 0 -0.39333777091600891 0.46333438533976889 0 -0.38885486965304511 0.46240585205278228 0 -0.39333777091600891 0.46333438533976889 0 -0.39064356579812398 0.45772863621219773 0 -0.39349656380716619 0.4493436321088492 0 -0.39064356579812398 0.45772863621219773 0 -0.39793676571944658 0.45786525838509162 0 -0.39333777091600891 0.46333438533976889 0 -0.39064356579812398 0.45772863621219773 0 -0.39793676571944658 0.45786525838509162 0 -0.40311357181934032 0.45083729470001338 0 -0.39793676571944658 0.45786525838509162 0 -0.40714832453319699 0.46448701685076532 0 -0.3964961410284823 0.46849443223709192 0 -0.39866917880462138 0.46349428742654641 0 -0.40714832453319699 0.46448701685076532 0 -0.39793676571944658 0.45786525838509162 0 -0.39866917880462138 0.46349428742654641 0 -0.40714832453319699 0.46448701685076532 0 -0.40311357181934032 0.45083729470001338 0 -0.40714832453319699 0.46448701685076532 0 -0.41382071108215762 0.44750945593888058 0 -0.40714832453319699 0.46448701685076532 0 -0.41382071108215762 0.44750945593888058 0 -0.41562967847157362 0.47213136248463111 0 -0.41382071108215762 0.44750945593888058 0 -0.41562967847157362 0.47213136248463111 0 -0.41382071108215762 0.44750945593888058 0 -0.42885073075022412 0.46729221287451461 0 -0.41562967847157362 0.47213136248463111 0 -0.41382071108215762 0.44750945593888058 0 -0.42855389758430812 0.44253744215658058 0 -0.41201174369273708 0.42288754939313039 0 -0.41382071108215762 0.44750945593888058 0 -0.42855389758430812 0.44253744215658058 0 -0.42885073075022412 0.46729221287451461 0 -0.42855389758430812 0.44253744215658058 0 -0.42885073075022412 0.46729221287451461 0 -0.447662405913063 0.46040679191019029 0 -0.42855389758430812 0.44253744215658058 0 -0.42885073075022412 0.46729221287451461 0 -0.42885073075022412 0.46729221287451461 0 -0.42904682943587102 0.48364610643725903 0 -0.42885073075022412 0.46729221287451461 0 -0.42904682943587102 0.48364610643725903 0 -0.41562967847157362 0.47213136248463111 0 -0.42885073075022412 0.46729221287451461 0 -0.42904682943587102 0.48364610643725903 0 -0.44333173088923111 0.47571023635040249 0 -0.42885073075022412 0.46729221287451461 0 -0.41562967847157362 0.47213136248463111 0 -0.41562967847157362 0.47213136248463111 0 -0.41720451326146968 0.49356648356446592 0 -0.40560226685632422 0.48677968859304599 0 -0.41562967847157362 0.47213136248463111 0 -0.41720451326146968 0.49356648356446592 0 -0.42904682943587102 0.48364610643725903 0 -0.41562967847157362 0.47213136248463111 0 -0.41720451326146968 0.49356648356446592 0 -0.40560226685632422 0.48677968859304599 0 -0.39932518772944192 0.5 0 -0.41720451326146968 0.49356648356446592 0 -0.39932518772944192 0.5 0 -0.41720451326146968 0.49356648356446592 0 -0.4292429281215181 0.50000000000000333 0 -0.42904682943587102 0.48364610643725903 0 -0.4292429281215181 0.50000000000000333 0 -0.42904682943587102 0.48364610643725903 0 -0.4292429281215181 0.50000000000000333 0 -0.44333173088923111 0.47571023635040249 0 -0.42904682943587102 0.48364610643725903 0 -0.41720451326146968 0.49356648356446592 0 -0.4292429281215181 0.50000000000000333 0 -0.4292429281215181 0.50000000000000333 0 -0.46583114591273073 0.47943025521157367 0 -0.5 0.5 0 -0.4292429281215181 0.50000000000000333 0 -0.44333173088923111 0.47571023635040249 0 -0.46583114591273073 0.47943025521157367 0 -0.44333173088923111 0.47571023635040249 0 -0.46583114591273073 0.47943025521157367 0 -0.45935634520197999 0.46348605166887441 0 -0.46583114591273073 0.47943025521157367 0 -0.5 0.5 0 -0.48467092542610962 0.4759064233209005 0 -0.5 0.5 0 -0.48467092542610962 0.4759064233209005 0 -0.50000000000000555 0.44125026467754541 0 -0.46583114591273073 0.47943025521157367 0 -0.48467092542610962 0.4759064233209005 0 -0.47857619370934762 0.46144652308181922 0 -0.48467092542610962 0.4759064233209005 0 -0.50000000000000555 0.44125026467754541 0 -0.47857619370934762 0.46144652308181922 0 -0.50000000000000555 0.44125026467754541 0 -0.48323704053795402 0.44738581781170639 0 -0.50000000000000555 0.44125026467754541 0 -0.48323704053795402 0.44738581781170639 0 -0.48516331910766192 0.42991938013392311 0 -0.50000000000000555 0.44125026467754541 0 -0.47857619370934762 0.46144652308181922 0 -0.48323704053795402 0.44738581781170639 0 -0.47857619370934762 0.46144652308181922 0 -0.48323704053795402 0.44738581781170639 0 -0.46647408107590171 0.45352137094586559 0 -0.48323704053795402 0.44738581781170639 0 -0.47214081574576688 0.4359832515207111 0 -0.48516331910766192 0.42991938013392311 0 -0.48323704053795402 0.44738581781170639 0 -0.46647408107590171 0.45352137094586559 0 -0.48323704053795402 0.44738581781170639 0 -0.46647408107590171 0.45352137094586559 0 -0.47214081574576688 0.4359832515207111 0 -0.46647408107590171 0.45352137094586559 0 -0.45450385945471272 0.42595785431964639 0 -0.47214081574576688 0.4359832515207111 0 -0.46647408107590171 0.45352137094586559 0 -0.447662405913063 0.46040679191019029 0 -0.44759895091819413 0.44123113647447909 0 -0.46647408107590171 0.45352137094586559 0 -0.44759895091819413 0.44123113647447909 0 -0.45450385945471272 0.42595785431964639 0 -0.46647408107590171 0.45352137094586559 0 -0.45450385945471272 0.42595785431964639 0 -0.45935634520197999 0.46348605166887441 0 -0.46647408107590171 0.45352137094586559 0 -0.447662405913063 0.46040679191019029 0 -0.47857619370934762 0.46144652308181922 0 -0.45935634520197999 0.46348605166887441 0 -0.46647408107590171 0.45352137094586559 0 -0.46583114591273073 0.47943025521157367 0 -0.47857619370934762 0.46144652308181922 0 -0.45935634520197999 0.46348605166887441 0 -0.46647408107590171 0.45352137094586559 0 -0.447662405913063 0.46040679191019029 0 -0.42885073075022412 0.46729221287451461 0 -0.447662405913063 0.46040679191019029 0 -0.44333173088923111 0.47571023635040249 0 -0.45935634520197999 0.46348605166887441 0 -0.447662405913063 0.46040679191019029 0 -0.42885073075022412 0.46729221287451461 0 -0.44333173088923111 0.47571023635040249 0 -0.447662405913063 0.46040679191019029 0 -0.42855389758430812 0.44253744215658058 0 -0.447662405913063 0.46040679191019029 0 -0.44759895091819413 0.44123113647447909 0 -0.42855389758430812 0.44253744215658058 0 -0.44759895091819413 0.44123113647447909 0 -0.440538201062181 0.42753626010714468 0 -0.44759895091819413 0.44123113647447909 0 -0.440538201062181 0.42753626010714468 0 -0.45450385945471272 0.42595785431964639 0 -0.440538201062181 0.42753626010714468 0 -0.44377723293529753 0.4101721961463709 0 -0.45450385945471272 0.42595785431964639 0 -0.440538201062181 0.42753626010714468 0 -0.44377723293529753 0.4101721961463709 0 -0.42825706441839229 0.41778267143864672 0 -0.45707202217347648 0.40869434447945652 0 -0.45450385945471272 0.42595785431964639 0 -0.44253363783352362 0.39839433769342741 0 -0.45450385945471272 0.42595785431964639 0 -0.44253363783352362 0.39839433769342741 0 -0.44377723293529753 0.4101721961463709 0 -0.45450385945471272 0.42595785431964639 0 -0.44253363783352362 0.39839433769342741 0 -0.45707202217347648 0.40869434447945652 0 -0.45450385945471272 0.42595785431964639 0 -0.47004951276413892 0.42288255505927053 0 -0.45707202217347648 0.40869434447945652 0 -0.48248950770578769 0.41310748359842242 0 -0.45656713332128279 0.40356196055656668 0 -0.45450385945471272 0.42595785431964639 0 -0.47214081574576688 0.4359832515207111 0 -0.47004951276413892 0.42288255505927053 0 -0.47004951276413892 0.42288255505927053 0 -0.48248950770578769 0.41310748359842242 0 -0.48516331910766192 0.42991938013392311 0 -0.47214081574576688 0.4359832515207111 0 -0.47004951276413892 0.42288255505927053 0 -0.48516331910766192 0.42991938013392311 0 -0.48248950770578769 0.41310748359842242 0 -0.45656713332128279 0.40356196055656668 0 -0.45707202217347648 0.40869434447945652 0 -0.47004951276413892 0.42288255505927053 0 -0.48248950770578769 0.41310748359842242 0 -0.48248950770578769 0.41310748359842242 0 -0.5 0.41830863773633681 0 -0.49999999999999661 0.39536701079512809 0 -0.48248950770578769 0.41310748359842242 0 -0.5 0.41830863773633681 0 -0.48516331910766192 0.42991938013392311 0 -0.50000000000000555 0.44125026467754541 0 -0.5 0.41830863773633681 0 -0.48516331910766192 0.42991938013392311 0 -0.48459088128462358 0.37640258866550569 0 -0.49999999999999661 0.39536701079512809 0 -0.5 0.37342539199314218 0 -0.48459088128462358 0.37640258866550569 0 -0.49999999999999661 0.39536701079512809 0 -0.47726700896274898 0.38913079666161798 0 -0.49999999999999661 0.39536701079512809 0 -0.47726700896274898 0.38913079666161798 0 -0.48248950770578769 0.41310748359842242 0 -0.49999999999999661 0.39536701079512809 0 -0.47726700896274898 0.38913079666161798 0 -0.48248950770578769 0.41310748359842242 0 -0.47726700896274898 0.38913079666161798 0 -0.45656713332128279 0.40356196055656668 0 -0.48459088128462358 0.37640258866550569 0 -0.47726700896274898 0.38913079666161798 0 -0.46967153096785208 0.37493025056239182 0 -0.47726700896274898 0.38913079666161798 0 -0.45453401792550202 0.38289458252810671 0 -0.46967153096785208 0.37493025056239182 0 -0.47726700896274898 0.38913079666161798 0 -0.45453401792550202 0.38289458252810671 0 -0.45453401792550202 0.38289458252810671 0 -0.45474765059128519 0.36778856812317662 0 -0.46967153096785208 0.37493025056239182 0 -0.45453401792550202 0.38289458252810671 0 -0.45656713332128279 0.40356196055656668 0 -0.47726700896274898 0.38913079666161798 0 -0.45453401792550202 0.38289458252810671 0 -0.45656713332128279 0.40356196055656668 0 -0.45707202217347648 0.40869434447945652 0 -0.45656713332128279 0.40356196055656668 0 -0.44377723293529753 0.4101721961463709 0 -0.44253363783352362 0.39839433769342741 0 -0.43190583480743089 0.39448080966682442 0 -0.45453401792550202 0.38289458252810671 0 -0.45656713332128279 0.40356196055656668 0 -0.44381900182638301 0.38699409892108227 0 -0.45656713332128279 0.40356196055656668 0 -0.44253363783352362 0.39839433769342741 0 -0.44381900182638301 0.38699409892108227 0 -0.44377723293529753 0.4101721961463709 0 -0.43190583480743089 0.39448080966682442 0 -0.45656713332128279 0.40356196055656668 0 -0.44253363783352362 0.39839433769342741 0 -0.45707202217347648 0.40869434447945652 0 -0.45656713332128279 0.40356196055656668 0 -0.44253363783352362 0.39839433769342741 0 -0.45453401792550202 0.38289458252810671 0 -0.43461093013760199 0.38015092564876851 0 -0.42775062160123278 0.37554724339322842 0 -0.45453401792550202 0.38289458252810671 0 -0.42775062160123278 0.37554724339322842 0 -0.43409247381110522 0.36923562140634048 0 -0.44253363783352362 0.39839433769342741 0 -0.44381900182638301 0.38699409892108227 0 -0.43461093013760199 0.38015092564876851 0 -0.44253363783352362 0.39839433769342741 0 -0.43461093013760199 0.38015092564876851 0 -0.45453401792550202 0.38289458252810671 0 -0.44381900182638301 0.38699409892108227 0 -0.43461093013760199 0.38015092564876851 0 -0.45453401792550202 0.38289458252810671 0 -0.42775062160123278 0.37554724339322842 0 -0.42791439099818629 0.38920499575277528 0 -0.40982139219256553 0.3863485470615603 0 -0.42796023125247817 0.3930279007207127 0 -0.42791439099818629 0.38920499575277528 0 -0.42775062160123278 0.37554724339322842 0 -0.41491831209466801 0.37202702778326568 0 -0.43461093013760199 0.38015092564876851 0 -0.42791439099818629 0.38920499575277528 0 -0.42775062160123278 0.37554724339322842 0 -0.43461093013760199 0.38015092564876851 0 -0.42791439099818629 0.38920499575277528 0 -0.43190583480743089 0.39448080966682442 0 -0.42791439099818629 0.38920499575277528 0 -0.42775062160123278 0.37554724339322842 0 -0.40982139219256553 0.3863485470615603 0 -0.42796023125247817 0.3930279007207127 0 -0.42791439099818629 0.38920499575277528 0 -0.40982139219256553 0.3863485470615603 0 -0.41491831209466801 0.37202702778326568 0 -0.42791439099818629 0.38920499575277528 0 -0.41491831209466801 0.37202702778326568 0 -0.40982139219256553 0.3863485470615603 0 -0.40348115077865171 0.37632354287301201 0 -0.41491831209466801 0.37202702778326568 0 -0.40982139219256553 0.3863485470615603 0 -0.41020277630331647 0.39826564284738042 0 -0.42796023125247817 0.3930279007207127 0 -0.41020277630331647 0.39826564284738042 0 -0.42796023125247817 0.3930279007207127 0 -0.41960795391673061 0.40799094109996747 0 -0.44253363783352362 0.39839433769342741 0 -0.43461093013760199 0.38015092564876851 0 -0.43190583480743089 0.39448080966682442 0 -0.42796023125247817 0.3930279007207127 0 -0.42825706441839229 0.41778267143864672 0 -0.41960795391673061 0.40799094109996747 0 -0.42796023125247817 0.3930279007207127 0 -0.42825706441839229 0.41778267143864672 0 -0.42796023125247817 0.3930279007207127 0 -0.43190583480743089 0.39448080966682442 0 -0.42825706441839229 0.41778267143864672 0 -0.42791439099818629 0.38920499575277528 0 -0.42796023125247817 0.3930279007207127 0 -0.43190583480743089 0.39448080966682442 0 -0.42791439099818629 0.38920499575277528 0 -0.42796023125247817 0.3930279007207127 0 -0.44253363783352362 0.39839433769342741 0 -0.43190583480743089 0.39448080966682442 0 -0.42791439099818629 0.38920499575277528 0 -0.43190583480743089 0.39448080966682442 0 -0.42796023125247817 0.3930279007207127 0 -0.43190583480743089 0.39448080966682442 0 -0.44377723293529753 0.4101721961463709 0 -0.43190583480743089 0.39448080966682442 0 -0.42825706441839229 0.41778267143864672 0 -0.42855389758430812 0.44253744215658058 0 -0.42825706441839229 0.41778267143864672 0 -0.41201174369273708 0.42288754939313039 0 -0.42855389758430812 0.44253744215658058 0 -0.440538201062181 0.42753626010714468 0 -0.42825706441839229 0.41778267143864672 0 -0.42855389758430812 0.44253744215658058 0 -0.42825706441839229 0.41778267143864672 0 -0.41382071108215762 0.44750945593888058 0 -0.41201174369273708 0.42288754939313039 0 -0.39977824891931257 0.42801053716093629 0 -0.41382071108215762 0.44750945593888058 0 -0.41201174369273708 0.42288754939313039 0 -0.41020277630331647 0.39826564284738042 0 -0.41201174369273708 0.42288754939313039 0 -0.41020277630331647 0.39826564284738042 0 -0.41201174369273708 0.42288754939313039 0 -0.40032031383484462 0.41164510905342561 0 -0.42825706441839229 0.41778267143864672 0 -0.41201174369273708 0.42288754939313039 0 -0.41960795391673061 0.40799094109996747 0 -0.41020277630331647 0.39826564284738042 0 -0.41201174369273708 0.42288754939313039 0 -0.41960795391673061 0.40799094109996747 0 -0.40032031383484462 0.41164510905342561 0 -0.39977824891931257 0.42801053716093629 0 -0.39011227118362551 0.41777791253147362 0 -0.41201174369273708 0.42288754939313039 0 -0.40032031383484462 0.41164510905342561 0 -0.39977824891931257 0.42801053716093629 0 -0.40032031383484462 0.41164510905342561 0 -0.39041560395238001 0.40753124705200189 0 -0.39011227118362551 0.41777791253147362 0 -0.39977824891931257 0.42801053716093629 0 -0.38441080564905672 0.43065320780626543 0 -0.39011227118362551 0.41777791253147362 0 -0.39700779200613018 0.44043732119473827 0 -0.39977824891931257 0.42801053716093629 0 -0.38441080564905672 0.43065320780626543 0 -0.38441080564905672 0.43065320780626543 0 -0.36998430984396169 0.41993082030680662 0 -0.37477896583113562 0.44319746245818942 0 -0.38441080564905672 0.43065320780626543 0 -0.39011227118362551 0.41777791253147362 0 -0.38131901671393797 0.41999900640245891 0 -0.38441080564905672 0.43065320780626543 0 -0.38131901671393797 0.41999900640245891 0 -0.36998430984396169 0.41993082030680662 0 -0.39041560395238001 0.40753124705200189 0 -0.39011227118362551 0.41777791253147362 0 -0.38076868017910809 0.41163408496528991 0 -0.39011227118362551 0.41777791253147362 0 -0.38131901671393797 0.41999900640245891 0 -0.38076868017910809 0.41163408496528991 0 -0.38131901671393797 0.41999900640245891 0 -0.38076868017910809 0.41163408496528991 0 -0.36998430984396169 0.41993082030680662 0 -0.38076868017910809 0.41163408496528991 0 -0.38248163558547921 0.39914243916989428 0 -0.37073110605172371 0.40553545312138989 0 -0.38248163558547921 0.39914243916989428 0 -0.37564579323536912 0.39255488417451251 0 -0.37073110605172371 0.40553545312138989 0 -0.39041560395238001 0.40753124705200189 0 -0.38248163558547921 0.39914243916989428 0 -0.39839511897884239 0.39745668953992619 0 -0.39041560395238001 0.40753124705200189 0 -0.38076868017910809 0.41163408496528991 0 -0.38248163558547921 0.39914243916989428 0 -0.38248163558547921 0.39914243916989428 0 -0.37564579323536912 0.39255488417451251 0 -0.38033016278502008 0.38777501049138707 0 -0.38248163558547921 0.39914243916989428 0 -0.38033016278502008 0.38777501049138707 0 -0.39169149597464442 0.37964490770353643 0 -0.38248163558547921 0.39914243916989428 0 -0.39169149597464442 0.37964490770353643 0 -0.37817043039509712 0.38053108116313378 0 -0.38623040449959323 0.36503840079262367 0 -0.3695517893427171 0.38357097244323451 0 -0.37564579323536912 0.39255488417451251 0 -0.37513427241190511 0.38675054564665617 0 -0.38033016278502008 0.38777501049138707 0 -0.37513427241190511 0.38675054564665617 0 -0.38033016278502008 0.38777501049138707 0 -0.37817043039509712 0.38053108116313378 0 -0.38033016278502008 0.38777501049138707 0 -0.37817043039509712 0.38053108116313378 0 -0.38339908752388541 0.38114985384892353 0 -0.37817043039509712 0.38053108116313378 0 -0.38341320378277322 0.37662413033876052 0 -0.38339908752388541 0.38114985384892353 0 -0.38341320378277322 0.37662413033876052 0 -0.39169149597464442 0.37964490770353643 0 -0.38341320378277322 0.37662413033876052 0 -0.38339908752388541 0.38114985384892353 0 -0.39169149597464442 0.37964490770353643 0 -0.38033016278502008 0.38777501049138707 0 -0.38339908752388541 0.38114985384892353 0 -0.39169149597464442 0.37964490770353643 0 -0.40982139219256553 0.3863485470615603 0 -0.39169149597464442 0.37964490770353643 0 -0.40982139219256553 0.3863485470615603 0 -0.39169149597464442 0.37964490770353643 0 -0.40348115077865171 0.37632354287301201 0 -0.39169149597464442 0.37964490770353643 0 -0.39839511897884239 0.39745668953992619 0 -0.40982139219256553 0.3863485470615603 0 -0.39169149597464442 0.37964490770353643 0 -0.39839511897884239 0.39745668953992619 0 -0.40982139219256553 0.3863485470615603 0 -0.41020277630331647 0.39826564284738042 0 -0.39839511897884239 0.39745668953992619 0 -0.38248163558547921 0.39914243916989428 0 -0.39169149597464442 0.37964490770353643 0 -0.39839511897884239 0.39745668953992619 0 -0.41020277630331647 0.39826564284738042 0 -0.40032031383484462 0.41164510905342561 0 -0.39839511897884239 0.39745668953992619 0 -0.40032031383484462 0.41164510905342561 0 -0.39041560395238001 0.40753124705200189 0 -0.39839511897884239 0.39745668953992619 0 -0.39760478478441208 0.349142339272003 0 -0.39894363130603427 0.35091200093959152 0 -0.38623040449959323 0.36503840079262367 0 -0.39894363130603427 0.35091200093959152 0 -0.4027976119743229 0.3560061187089929 0 -0.41206189043698049 0.33633554630059159 0 -0.39760478478441208 0.349142339272003 0 -0.38623040449959323 0.36503840079262367 0 -0.39069117682594462 0.34257888208226628 0 -0.39894363130603427 0.35091200093959152 0 -0.4027976119743229 0.3560061187089929 0 -0.38915161705172452 0.36495859461767932 0 -0.39894363130603427 0.35091200093959152 0 -0.38623040449959323 0.36503840079262367 0 -0.39760478478441208 0.349142339272003 0 -0.39794985496066532 0.34349739842305299 0 -0.39069117682594462 0.34257888208226628 0 -0.39760478478441208 0.349142339272003 0 -0.39894363130603427 0.35091200093959152 0 -0.39794985496066532 0.34349739842305299 0 -0.39760478478441208 0.349142339272003 0 -0.39894363130603427 0.35091200093959152 0 -0.39894363130603427 0.35091200093959152 0 -0.39794985496066532 0.34349739842305299 0 -0.40218319867212038 0.33974730087293881 0 -0.39894363130603427 0.35091200093959152 0 -0.4027976119743229 0.3560061187089929 0 -0.40348115077865171 0.37632354287301201 0 -0.39750234569472243 0.3672494032448087 0 -0.41491831209466801 0.37202702778326568 0 -0.4027976119743229 0.3560061187089929 0 -0.39750234569472243 0.3672494032448087 0 -0.41491831209466801 0.37202702778326568 0 -0.4027976119743229 0.3560061187089929 0 -0.39750234569472243 0.3672494032448087 0 -0.39750234569472243 0.3672494032448087 0 -0.41491831209466801 0.37202702778326568 0 -0.39169149597464442 0.37964490770353643 0 -0.40348115077865171 0.37632354287301201 0 -0.39750234569472243 0.3672494032448087 0 -0.39169149597464442 0.37964490770353643 0 -0.39750234569472243 0.3672494032448087 0 -0.39169149597464442 0.37964490770353643 0 -0.39750234569472243 0.3672494032448087 0 -0.38915161705172452 0.36495859461767932 0 -0.39894363130603427 0.35091200093959152 0 -0.38915161705172452 0.36495859461767932 0 -0.38623040449959323 0.36503840079262367 0 -0.4027976119743229 0.3560061187089929 0 -0.39750234569472243 0.3672494032448087 0 -0.38915161705172452 0.36495859461767932 0 -0.39750234569472243 0.3672494032448087 0 -0.38915161705172452 0.36495859461767932 0 -0.38623040449959323 0.36503840079262367 0 -0.37342124140163752 0.36916697188085651 0 -0.3695517893427171 0.38357097244323451 0 -0.38623040449959323 0.36503840079262367 0 -0.3695517893427171 0.38357097244323451 0 -0.39169149597464442 0.37964490770353643 0 -0.38915161705172452 0.36495859461767932 0 -0.38623040449959323 0.36503840079262367 0 -0.38341320378277322 0.37662413033876052 0 -0.39169149597464442 0.37964490770353643 0 -0.38623040449959323 0.36503840079262367 0 -0.39169149597464442 0.37964490770353643 0 -0.38623040449959323 0.36503840079262367 0 -0.37817043039509712 0.38053108116313378 0 -0.38341320378277322 0.37662413033876052 0 -0.38623040449959323 0.36503840079262367 0 -0.38623040449959323 0.36503840079262367 0 -0.37626286886354471 0.35719234904210811 0 -0.37342124140163752 0.36916697188085651 0 -0.38623040449959323 0.36503840079262367 0 -0.37575078440700571 0.33711079503556779 0 -0.38623040449959323 0.36503840079262367 0 -0.37575078440700571 0.33711079503556779 0 -0.39069117682594462 0.34257888208226628 0 -0.38623040449959323 0.36503840079262367 0 -0.37626286886354471 0.35719234904210811 0 -0.37575078440700571 0.33711079503556779 0 -0.37575078440700571 0.33711079503556779 0 -0.38602451026342521 0.33345756233540869 0 -0.38440729521230721 0.32205560894411378 0 -0.38602451026342521 0.33345756233540869 0 -0.39017603084007968 0.32771922114051111 0 -0.39478451638687923 0.33178920626682268 0 -0.38602451026342521 0.33345756233540869 0 -0.39069117682594462 0.34257888208226628 0 -0.39478451638687923 0.33178920626682268 0 -0.37575078440700571 0.33711079503556779 0 -0.38602451026342521 0.33345756233540869 0 -0.39069117682594462 0.34257888208226628 0 -0.38440729521230721 0.32205560894411378 0 -0.38054818181112288 0.30817221377971671 0 -0.36527116431441742 0.30918318927851229 0 -0.37575078440700571 0.33711079503556779 0 -0.38440729521230721 0.32205560894411378 0 -0.36527116431441742 0.30918318927851229 0 -0.38602451026342521 0.33345756233540869 0 -0.38440729521230721 0.32205560894411378 0 -0.39017603084007968 0.32771922114051111 0 -0.38440729521230721 0.32205560894411378 0 -0.39017603084007968 0.32771922114051111 0 -0.39548780149770751 0.32357450701569918 0 -0.38440729521230721 0.32205560894411378 0 -0.39070082007018547 0.30841337705662958 0 -0.38054818181112288 0.30817221377971671 0 -0.38440729521230721 0.32205560894411378 0 -0.39641931005929698 0.31530433823597831 0 -0.39070082007018547 0.30841337705662958 0 -0.38440729521230721 0.32205560894411378 0 -0.39641931005929698 0.31530433823597831 0 -0.39548780149770751 0.32357450701569918 0 -0.39017603084007968 0.32771922114051111 0 -0.39548780149770751 0.32357450701569918 0 -0.39478451638687923 0.33178920626682268 0 -0.39548780149770751 0.32357450701569918 0 -0.39926946126211871 0.32746592166863497 0 -0.39478451638687923 0.33178920626682268 0 -0.40345101757558077 0.32277137794760541 0 -0.40335450958830738 0.33172859544441269 0 -0.40882053521354061 0.32838621346144881 0 -0.39641931005929698 0.31530433823597831 0 -0.39548780149770751 0.32357450701569918 0 -0.40345101757558077 0.32277137794760541 0 -0.39926946126211871 0.32746592166863497 0 -0.40345101757558077 0.32277137794760541 0 -0.40335450958830738 0.33172859544441269 0 -0.39548780149770751 0.32357450701569918 0 -0.39926946126211871 0.32746592166863497 0 -0.40345101757558077 0.32277137794760541 0 -0.39641931005929698 0.31530433823597831 0 -0.40345101757558077 0.32277137794760541 0 -0.40577568074148063 0.31331425589318318 0 -0.3975945416829213 0.33769727951369499 0 -0.39069117682594462 0.34257888208226628 0 -0.39478451638687923 0.33178920626682268 0 -0.3975945416829213 0.33769727951369499 0 -0.39794985496066532 0.34349739842305299 0 -0.39069117682594462 0.34257888208226628 0 -0.39926946126211871 0.32746592166863497 0 -0.39478451638687923 0.33178920626682268 0 -0.40335450958830738 0.33172859544441269 0 -0.40335450958830738 0.33172859544441269 0 -0.40218319867212038 0.33974730087293881 0 -0.41206189043698049 0.33633554630059159 0 -0.3975945416829213 0.33769727951369499 0 -0.39478451638687923 0.33178920626682268 0 -0.40335450958830738 0.33172859544441269 0 -0.3975945416829213 0.33769727951369499 0 -0.40335450958830738 0.33172859544441269 0 -0.40218319867212038 0.33974730087293881 0 -0.39894363130603427 0.35091200093959152 0 -0.40218319867212038 0.33974730087293881 0 -0.41206189043698049 0.33633554630059159 0 -0.39894363130603427 0.35091200093959152 0 -0.41206189043698049 0.33633554630059159 0 -0.3975945416829213 0.33769727951369499 0 -0.39794985496066532 0.34349739842305299 0 -0.40218319867212038 0.33974730087293881 0 -0.40335450958830738 0.33172859544441269 0 -0.41206189043698049 0.33633554630059159 0 -0.40882053521354061 0.32838621346144881 0 -0.41206189043698049 0.33633554630059159 0 -0.40882053521354061 0.32838621346144881 0 -0.41498723601133869 0.33012424531563478 0 -0.41206189043698049 0.33633554630059159 0 -0.41498723601133869 0.33012424531563478 0 -0.41206189043698049 0.33633554630059159 0 -0.41498723601133869 0.33012424531563478 0 -0.42538259075343349 0.32153414757959442 0 -0.41206189043698049 0.33633554630059159 0 -0.42538259075343349 0.32153414757959442 0 -0.42603597053219239 0.33525820926241168 0 -0.41206189043698049 0.33633554630059159 0 -0.42538259075343349 0.32153414757959442 0 -0.41206189043698049 0.33633554630059159 0 -0.42603597053219239 0.33525820926241168 0 -0.42230703970239791 0.34382632046549899 0 -0.40345101757558077 0.32277137794760541 0 -0.40577568074148063 0.31331425589318318 0 -0.41340882676895052 0.31945884172436267 0 -0.40577568074148063 0.31331425589318318 0 -0.41340882676895052 0.31945884172436267 0 -0.41335788929563788 0.30717700771415601 0 -0.40345101757558077 0.32277137794760541 0 -0.40882053521354061 0.32838621346144881 0 -0.41340882676895052 0.31945884172436267 0 -0.40882053521354061 0.32838621346144881 0 -0.41498723601133869 0.33012424531563478 0 -0.41340882676895052 0.31945884172436267 0 -0.41498723601133869 0.33012424531563478 0 -0.41340882676895052 0.31945884172436267 0 -0.42538259075343349 0.32153414757959442 0 -0.41340882676895052 0.31945884172436267 0 -0.42538259075343349 0.32153414757959442 0 -0.42182432547229198 0.31230017906904139 0 -0.41340882676895052 0.31945884172436267 0 -0.42182432547229198 0.31230017906904139 0 -0.41335788929563788 0.30717700771415601 0 -0.42538259075343349 0.32153414757959442 0 -0.43407604488207069 0.31468332821357953 0 -0.42182432547229198 0.31230017906904139 0 -0.42538259075343349 0.32153414757959442 0 -0.43407604488207069 0.31468332821357953 0 -0.43534218188903251 0.33013130148721009 0 -0.42603597053219239 0.33525820926241168 0 -0.43238516268859539 0.34195497587961732 0 -0.42230703970239791 0.34382632046549899 0 -0.42538259075343349 0.32153414757959442 0 -0.42603597053219239 0.33525820926241168 0 -0.43534218188903251 0.33013130148721009 0 -0.42603597053219239 0.33525820926241168 0 -0.43534218188903251 0.33013130148721009 0 -0.43238516268859539 0.34195497587961732 0 -0.43534218188903251 0.33013130148721009 0 -0.43238516268859539 0.34195497587961732 0 -0.44221762840643197 0.34032168644592659 0 -0.43238516268859539 0.34195497587961732 0 -0.42925700547697831 0.35087534442687007 0 -0.43915115012453942 0.35131699318978632 0 -0.43370421661393582 0.35697903907922851 0 -0.42925700547697831 0.35087534442687007 0 -0.43915115012453942 0.35131699318978632 0 -0.43370421661393582 0.35697903907922851 0 -0.42925700547697831 0.35087534442687007 0 -0.42752866071475593 0.36121726420224859 0 -0.42925700547697831 0.35087534442687007 0 -0.41631932137501321 0.3540999903152684 0 -0.42752866071475593 0.36121726420224859 0 -0.43238516268859539 0.34195497587961732 0 -0.42925700547697831 0.35087534442687007 0 -0.42230703970239791 0.34382632046549899 0 -0.42925700547697831 0.35087534442687007 0 -0.42230703970239791 0.34382632046549899 0 -0.41631932137501321 0.3540999903152684 0 -0.4027976119743229 0.3560061187089929 0 -0.41206189043698049 0.33633554630059159 0 -0.41631932137501321 0.3540999903152684 0 -0.41206189043698049 0.33633554630059159 0 -0.42230703970239791 0.34382632046549899 0 -0.41631932137501321 0.3540999903152684 0 -0.4027976119743229 0.3560061187089929 0 -0.41206189043698049 0.33633554630059159 0 -0.41631932137501321 0.3540999903152684 0 -0.41723685500906921 0.36224292648396922 0 -0.42752866071475593 0.36121726420224859 0 -0.4027976119743229 0.3560061187089929 0 -0.41631932137501321 0.3540999903152684 0 -0.41723685500906921 0.36224292648396922 0 -0.4027976119743229 0.3560061187089929 0 -0.41491831209466801 0.37202702778326568 0 -0.4027976119743229 0.3560061187089929 0 -0.41723685500906921 0.36224292648396922 0 -0.41491831209466801 0.37202702778326568 0 -0.41723685500906921 0.36224292648396922 0 -0.41491831209466801 0.37202702778326568 0 -0.42462036888658672 0.36786423141006919 0 -0.42775062160123278 0.37554724339322842 0 -0.41491831209466801 0.37202702778326568 0 -0.42462036888658672 0.36786423141006919 0 -0.42772005428128462 0.37299804376306722 0 -0.43409247381110522 0.36923562140634048 0 -0.41491831209466801 0.37202702778326568 0 -0.42462036888658672 0.36786423141006919 0 -0.42772005428128462 0.37299804376306722 0 -0.42775062160123278 0.37554724339322842 0 -0.41491831209466801 0.37202702778326568 0 -0.42772005428128462 0.37299804376306722 0 -0.42775062160123278 0.37554724339322842 0 -0.42772005428128462 0.37299804376306722 0 -0.42462036888658672 0.36786423141006919 0 -0.42752866071475593 0.36121726420224859 0 -0.43409247381110522 0.36923562140634048 0 -0.41723685500906921 0.36224292648396922 0 -0.42462036888658672 0.36786423141006919 0 -0.42752866071475593 0.36121726420224859 0 -0.42752866071475593 0.36121726420224859 0 -0.43409342430063169 0.36248865140564568 0 -0.43409247381110522 0.36923562140634048 0 -0.43370421661393582 0.35697903907922851 0 -0.42752866071475593 0.36121726420224859 0 -0.43409342430063169 0.36248865140564568 0 -0.43409342430063169 0.36248865140564568 0 -0.43409247381110522 0.36923562140634048 0 -0.44104834606273002 0.36252268093476531 0 -0.43370421661393582 0.35697903907922851 0 -0.43409342430063169 0.36248865140564568 0 -0.44104834606273002 0.36252268093476531 0 -0.42775062160123278 0.37554724339322842 0 -0.42772005428128462 0.37299804376306722 0 -0.43409247381110522 0.36923562140634048 0 -0.45453401792550202 0.38289458252810671 0 -0.44104834606273002 0.36252268093476531 0 -0.45171490062311509 0.35423720129140529 0 -0.45453401792550202 0.38289458252810671 0 -0.43409247381110522 0.36923562140634048 0 -0.44104834606273002 0.36252268093476531 0 -0.43238516268859539 0.34195497587961732 0 -0.43915115012453942 0.35131699318978632 0 -0.44221762840643197 0.34032168644592659 0 -0.43915115012453942 0.35131699318978632 0 -0.45171490062311509 0.35423720129140529 0 -0.44221762840643197 0.34032168644592659 0 -0.44104834606273002 0.36252268093476531 0 -0.43915115012453942 0.35131699318978632 0 -0.45171490062311509 0.35423720129140529 0 -0.43370421661393582 0.35697903907922851 0 -0.44104834606273002 0.36252268093476531 0 -0.43915115012453942 0.35131699318978632 0 -0.45171490062311509 0.35423720129140529 0 -0.4773738252956421 0.35963617065716619 0 -0.46779345204775941 0.33707023963406407 0 -0.45453401792550202 0.38289458252810671 0 -0.45171490062311509 0.35423720129140529 0 -0.45453401792550202 0.38289458252810671 0 -0.45171490062311509 0.35423720129140529 0 -0.45474765059128519 0.36778856812317662 0 -0.45171490062311509 0.35423720129140529 0 -0.45474765059128519 0.36778856812317662 0 -0.4773738252956421 0.35963617065716619 0 -0.45474765059128519 0.36778856812317662 0 -0.4773738252956421 0.35963617065716619 0 -0.45474765059128519 0.36778856812317662 0 -0.46967153096785208 0.37493025056239182 0 -0.4773738252956421 0.35963617065716619 0 -0.48459088128462358 0.37640258866550569 0 -0.46967153096785208 0.37493025056239182 0 -0.4773738252956421 0.35963617065716619 0 -0.4773738252956421 0.35963617065716619 0 -0.4862597303894628 0.33716487791562488 0 -0.46779345204775941 0.33707023963406407 0 -0.4773738252956421 0.35963617065716619 0 -0.49999999999999911 0.3514837731911562 0 -0.4773738252956421 0.35963617065716619 0 -0.49999999999999911 0.3514837731911562 0 -0.4862597303894628 0.33716487791562488 0 -0.4773738252956421 0.35963617065716619 0 -0.49999999999999911 0.3514837731911562 0 -0.5 0.37342539199314218 0 -0.48459088128462358 0.37640258866550569 0 -0.4773738252956421 0.35963617065716619 0 -0.5 0.37342539199314218 0 -0.5 0.32292968216348428 0 -0.4862597303894628 0.33716487791562488 0 -0.47553697458777783 0.31433959401027223 0 -0.49999999999999911 0.3514837731911562 0 -0.5 0.32292968216348428 0 -0.4862597303894628 0.33716487791562488 0 -0.4862597303894628 0.33716487791562488 0 -0.47553697458777783 0.31433959401027223 0 -0.46779345204775941 0.33707023963406407 0 -0.47553697458777783 0.31433959401027223 0 -0.46779345204775941 0.33707023963406407 0 -0.4488957833207271 0.32557982005470387 0 -0.45171490062311509 0.35423720129140529 0 -0.46779345204775941 0.33707023963406407 0 -0.4488957833207271 0.32557982005470387 0 -0.45171490062311509 0.35423720129140529 0 -0.4488957833207271 0.32557982005470387 0 -0.45171490062311509 0.35423720129140529 0 -0.44221762840643197 0.34032168644592659 0 -0.4488957833207271 0.32557982005470387 0 -0.43534218188903251 0.33013130148721009 0 -0.44221762840643197 0.34032168644592659 0 -0.4488957833207271 0.32557982005470387 0 -0.43407604488207069 0.31468332821357953 0 -0.43534218188903251 0.33013130148721009 0 -0.4488957833207271 0.32557982005470387 0 -0.47553697458777783 0.31433959401027223 0 -0.44607666601833912 0.2969224388180024 0 -0.47851823620786549 0.28629265858851849 0 -0.4488957833207271 0.32557982005470387 0 -0.44607666601833912 0.2969224388180024 0 -0.43407604488207069 0.31468332821357953 0 -0.4488957833207271 0.32557982005470387 0 -0.44607666601833912 0.2969224388180024 0 -0.44607666601833912 0.2969224388180024 0 -0.47851823620786549 0.28629265858851849 0 -0.46409093376866289 0.26844180654966732 0 -0.44607666601833912 0.2969224388180024 0 -0.44462505654103679 0.27776524193284791 0 -0.42795925344677449 0.2833232432392605 0 -0.47553697458777783 0.31433959401027223 0 -0.4488957833207271 0.32557982005470387 0 -0.44607666601833912 0.2969224388180024 0 -0.47851823620786549 0.28629265858851849 0 -0.5 0.29437559113581252 0 -0.5 0.26582150010814071 0 -0.47553697458777783 0.31433959401027223 0 -0.47851823620786549 0.28629265858851849 0 -0.5 0.29437559113581252 0 -0.5 0.32292968216348428 0 -0.47553697458777783 0.31433959401027223 0 -0.5 0.29437559113581252 0 -0.5 0.23726740908046881 0 -0.5 0.26582150010814071 0 -0.48066999489751339 0.25852732013788748 0 -0.47851823620786549 0.28629265858851849 0 -0.5 0.26582150010814071 0 -0.48066999489751339 0.25852732013788748 0 -0.47851823620786549 0.28629265858851849 0 -0.48066999489751339 0.25852732013788748 0 -0.46409093376866289 0.26844180654966732 0 -0.48066999489751339 0.25852732013788748 0 -0.45574066329194513 0.25003258838346459 0 -0.46409093376866289 0.26844180654966732 0 -0.45574066329194513 0.25003258838346459 0 -0.46409093376866289 0.26844180654966732 0 -0.44037337293037071 0.26237347912446141 0 -0.44462505654103679 0.27776524193284791 0 -0.44037337293037071 0.26237347912446141 0 -0.42795925344677449 0.2833232432392605 0 -0.44607666601833912 0.2969224388180024 0 -0.46409093376866289 0.26844180654966732 0 -0.44462505654103679 0.27776524193284791 0 -0.46409093376866289 0.26844180654966732 0 -0.44462505654103679 0.27776524193284791 0 -0.44037337293037071 0.26237347912446141 0 -0.43680818869299493 0.24410097083118909 0 -0.45574066329194513 0.25003258838346459 0 -0.44037337293037071 0.26237347912446141 0 -0.46409093376866289 0.26844180654966732 0 -0.44037337293037071 0.26237347912446141 0 -0.41882121896155328 0.24890347203934621 0 -0.43680818869299493 0.24410097083118909 0 -0.44037337293037071 0.26237347912446141 0 -0.44037337293037071 0.26237347912446141 0 -0.41665581209207853 0.25630515169925561 0 -0.41839189543763361 0.27040813782112871 0 -0.41882121896155328 0.24890347203934621 0 -0.44037337293037071 0.26237347912446141 0 -0.41665581209207853 0.25630515169925561 0 -0.44037337293037071 0.26237347912446141 0 -0.41665581209207853 0.25630515169925561 0 -0.41882121896155328 0.24890347203934621 0 -0.41665581209207853 0.25630515169925561 0 -0.39293825125378617 0.2502368242740497 0 -0.41665581209207853 0.25630515169925561 0 -0.41058953422092348 0.26428066329482042 0 -0.41839189543763361 0.27040813782112871 0 -0.41665581209207853 0.25630515169925561 0 -0.41058953422092348 0.26428066329482042 0 -0.40338799354876531 0.25896493643055479 0 -0.41839189543763361 0.27040813782112871 0 -0.41240141367407179 0.28209056442258928 0 -0.40615112027779288 0.27254421019779868 0 -0.41240141367407179 0.28209056442258928 0 -0.40615112027779288 0.27254421019779868 0 -0.40244968961238847 0.28093017919245888 0 -0.41058953422092348 0.26428066329482042 0 -0.41839189543763361 0.27040813782112871 0 -0.40615112027779288 0.27254421019779868 0 -0.41839189543763361 0.27040813782112871 0 -0.42795925344677449 0.2833232432392605 0 -0.41240141367407179 0.28209056442258928 0 -0.44037337293037071 0.26237347912446141 0 -0.41839189543763361 0.27040813782112871 0 -0.42795925344677449 0.2833232432392605 0 -0.44607666601833912 0.2969224388180024 0 -0.42795925344677449 0.2833232432392605 0 -0.42693472183860071 0.30163208227292532 0 -0.42795925344677449 0.2833232432392605 0 -0.42693472183860071 0.30163208227292532 0 -0.41634819144757251 0.29429923276961589 0 -0.43407604488207069 0.31468332821357953 0 -0.44607666601833912 0.2969224388180024 0 -0.42693472183860071 0.30163208227292532 0 -0.43407604488207069 0.31468332821357953 0 -0.42693472183860071 0.30163208227292532 0 -0.42182432547229198 0.31230017906904139 0 -0.42693472183860071 0.30163208227292532 0 -0.42182432547229198 0.31230017906904139 0 -0.41335788929563788 0.30717700771415601 0 -0.42693472183860071 0.30163208227292532 0 -0.41335788929563788 0.30717700771415601 0 -0.41634819144757251 0.29429923276961589 0 -0.41335788929563788 0.30717700771415601 0 -0.41634819144757251 0.29429923276961589 0 -0.40535941710686951 0.30165301483172768 0 -0.40577568074148063 0.31331425589318318 0 -0.41335788929563788 0.30717700771415601 0 -0.40535941710686951 0.30165301483172768 0 -0.42795925344677449 0.2833232432392605 0 -0.41634819144757251 0.29429923276961589 0 -0.41240141367407179 0.28209056442258928 0 -0.41634819144757251 0.29429923276961589 0 -0.41240141367407179 0.28209056442258928 0 -0.40289364632853369 0.29094345317180459 0 -0.41634819144757251 0.29429923276961589 0 -0.40289364632853369 0.29094345317180459 0 -0.40535941710686951 0.30165301483172768 0 -0.40289364632853369 0.29094345317180459 0 -0.39341881518664867 0.28348927493355952 0 -0.40244968961238847 0.28093017919245888 0 -0.41240141367407179 0.28209056442258928 0 -0.40289364632853369 0.29094345317180459 0 -0.40244968961238847 0.28093017919245888 0 -0.39385551932748092 0.29247594426434648 0 -0.39341881518664867 0.28348927493355952 0 -0.3848683527113575 0.29290229198813561 0 -0.40289364632853369 0.29094345317180459 0 -0.39385551932748092 0.29247594426434648 0 -0.39607386022220059 0.30065501758476781 0 -0.40289364632853369 0.29094345317180459 0 -0.39385551932748092 0.29247594426434648 0 -0.39341881518664867 0.28348927493355952 0 -0.39641931005929698 0.31530433823597831 0 -0.40577568074148063 0.31331425589318318 0 -0.39886581764000661 0.30786800072045728 0 -0.40577568074148063 0.31331425589318318 0 -0.39886581764000661 0.30786800072045728 0 -0.40535941710686951 0.30165301483172768 0 -0.40289364632853369 0.29094345317180459 0 -0.40535941710686951 0.30165301483172768 0 -0.39607386022220059 0.30065501758476781 0 -0.39886581764000661 0.30786800072045728 0 -0.40535941710686951 0.30165301483172768 0 -0.39607386022220059 0.30065501758476781 0 -0.39385551932748092 0.29247594426434648 0 -0.39607386022220059 0.30065501758476781 0 -0.38652333743834438 0.30111415663486141 0 -0.39607386022220059 0.30065501758476781 0 -0.39070082007018547 0.30841337705662958 0 -0.38652333743834438 0.30111415663486141 0 -0.39886581764000661 0.30786800072045728 0 -0.39607386022220059 0.30065501758476781 0 -0.39070082007018547 0.30841337705662958 0 -0.39641931005929698 0.31530433823597831 0 -0.39886581764000661 0.30786800072045728 0 -0.39070082007018547 0.30841337705662958 0 -0.39070082007018547 0.30841337705662958 0 -0.38652333743834438 0.30111415663486141 0 -0.38054818181112288 0.30817221377971671 0 -0.38652333743834438 0.30111415663486141 0 -0.37662671737014292 0.29820034360802372 0 -0.3848683527113575 0.29290229198813561 0 -0.38652333743834438 0.30111415663486141 0 -0.37662671737014292 0.29820034360802372 0 -0.38054818181112288 0.30817221377971671 0 -0.39341881518664867 0.28348927493355952 0 -0.3836948730370604 0.2835697523009712 0 -0.3848683527113575 0.29290229198813561 0 -0.39385551932748092 0.29247594426434648 0 -0.38652333743834438 0.30111415663486141 0 -0.3848683527113575 0.29290229198813561 0 -0.37662671737014292 0.29820034360802372 0 -0.3848683527113575 0.29290229198813561 0 -0.37915024460326729 0.28914095894694369 0 -0.37662671737014292 0.29820034360802372 0 -0.37915024460326729 0.28914095894694369 0 -0.37264379992894958 0.29023317886314642 0 -0.3836948730370604 0.2835697523009712 0 -0.3848683527113575 0.29290229198813561 0 -0.37915024460326729 0.28914095894694369 0 -0.37915024460326729 0.28914095894694369 0 -0.37430789959613919 0.2835178153812663 0 -0.37264379992894958 0.29023317886314642 0 -0.3836948730370604 0.2835697523009712 0 -0.37915024460326729 0.28914095894694369 0 -0.37430789959613919 0.2835178153812663 0 -0.3836948730370604 0.2835697523009712 0 -0.37663035468755812 0.27553453209175438 0 -0.38663594890360459 0.27329230202367899 0 -0.3836948730370604 0.2835697523009712 0 -0.37663035468755812 0.27553453209175438 0 -0.37430789959613919 0.2835178153812663 0 -0.39341881518664867 0.28348927493355952 0 -0.3836948730370604 0.2835697523009712 0 -0.38663594890360459 0.27329230202367899 0 -0.38663594890360459 0.27329230202367899 0 -0.38401094264450758 0.26057666355384279 0 -0.39264447540738201 0.26662697095049692 0 -0.38663594890360459 0.27329230202367899 0 -0.37848868081655052 0.2675105835208007 0 -0.38401094264450758 0.26057666355384279 0 -0.37663035468755812 0.27553453209175438 0 -0.38663594890360459 0.27329230202367899 0 -0.37848868081655052 0.2675105835208007 0 -0.37663035468755812 0.27553453209175438 0 -0.37848868081655052 0.2675105835208007 0 -0.37037682723861959 0.26727391500207881 0 -0.37848868081655052 0.2675105835208007 0 -0.38401094264450758 0.26057666355384279 0 -0.37486325442501678 0.26073283313956191 0 -0.38401094264450758 0.26057666355384279 0 -0.39293825125378617 0.2502368242740497 0 -0.37406840350984721 0.2512088980308913 0 -0.39293825125378617 0.2502368242740497 0 -0.37406840350984721 0.2512088980308913 0 -0.38401094264450758 0.26057666355384279 0 -0.37406840350984721 0.2512088980308913 0 -0.37486325442501678 0.26073283313956191 0 -0.38401094264450758 0.26057666355384279 0 -0.39495934991628462 0.26005324173829247 0 -0.39264447540738201 0.26662697095049692 0 -0.41665581209207853 0.25630515169925561 0 -0.39293825125378617 0.2502368242740497 0 -0.39495934991628462 0.26005324173829247 0 -0.40084064564293442 0.26592065812435339 0 -0.39264447540738201 0.26662697095049692 0 -0.41665581209207853 0.25630515169925561 0 -0.39293825125378617 0.2502368242740497 0 -0.40338799354876531 0.25896493643055479 0 -0.39495934991628462 0.26005324173829247 0 -0.39293825125378617 0.2502368242740497 0 -0.40338799354876531 0.25896493643055479 0 -0.38401094264450758 0.26057666355384279 0 -0.39495934991628462 0.26005324173829247 0 -0.39293825125378617 0.2502368242740497 0 -0.39495934991628462 0.26005324173829247 0 -0.40338799354876531 0.25896493643055479 0 -0.40084064564293442 0.26592065812435339 0 -0.41058953422092348 0.26428066329482042 0 -0.40338799354876531 0.25896493643055479 0 -0.40084064564293442 0.26592065812435339 0 -0.41058953422092348 0.26428066329482042 0 -0.40615112027779288 0.27254421019779868 0 -0.40084064564293442 0.26592065812435339 0 -0.40615112027779288 0.27254421019779868 0 -0.40084064564293442 0.26592065812435339 0 -0.39682417994443542 0.27408384845507489 0 -0.40615112027779288 0.27254421019779868 0 -0.40244968961238847 0.28093017919245888 0 -0.39682417994443542 0.27408384845507489 0 -0.39341881518664867 0.28348927493355952 0 -0.38663594890360459 0.27329230202367899 0 -0.39682417994443542 0.27408384845507489 0 -0.39341881518664867 0.28348927493355952 0 -0.40244968961238847 0.28093017919245888 0 -0.39682417994443542 0.27408384845507489 0 -0.40084064564293442 0.26592065812435339 0 -0.39682417994443542 0.27408384845507489 0 -0.39264447540738201 0.26662697095049692 0 -0.38663594890360459 0.27329230202367899 0 -0.39682417994443542 0.27408384845507489 0 -0.39264447540738201 0.26662697095049692 0 -0.35173936824764668 0.2731217039957694 0 -0.35729057909371892 0.27283573526643079 0 -0.35519855576590831 0.25218097178773291 0 -0.35173936824764668 0.2731217039957694 0 -0.35729057909371892 0.27283573526643079 0 -0.35938260242153269 0.29349049874512828 0 -0.35173936824764668 0.2731217039957694 0 -0.34567540571331978 0.27579181334323138 0 -0.34759360099627762 0.28653950875448547 0 -0.35173936824764668 0.2731217039957694 0 -0.34085362917079071 0.26627310869872423 0 -0.34143470612516769 0.26050274255936218 0 -0.35173936824764668 0.2731217039957694 0 -0.34567540571331978 0.27579181334323138 0 -0.34085362917079071 0.26627310869872423 0 -0.35173936824764668 0.2731217039957694 0 -0.34409613407375822 0.25275290924641147 0 -0.35519855576590831 0.25218097178773291 0 -0.35729057909371892 0.27283573526643079 0 -0.35519855576590831 0.25218097178773291 0 -0.35173936824764668 0.2731217039957694 0 -0.34409613407375822 0.25275290924641147 0 -0.34143470612516769 0.26050274255936218 0 -0.35173936824764668 0.2731217039957694 0 -0.34409613407375822 0.25275290924641147 0 -0.34409613407375822 0.25275290924641147 0 -0.35519855576590831 0.25218097178773291 0 -0.35519855576590831 0.25218097178773291 0 -0.37406840350984721 0.2512088980308913 0 -0.35729057909371892 0.27283573526643079 0 -0.35519855576590831 0.25218097178773291 0 -0.36672600020735052 0.25892223693520039 0 -0.35519855576590831 0.25218097178773291 0 -0.36672600020735052 0.25892223693520039 0 -0.37406840350984721 0.2512088980308913 0 -0.36672600020735052 0.25892223693520039 0 -0.37406840350984721 0.2512088980308913 0 -0.37486325442501678 0.26073283313956191 0 -0.36672600020735052 0.25892223693520039 0 -0.37486325442501678 0.26073283313956191 0 -0.37037682723861959 0.26727391500207881 0 -0.37848868081655052 0.2675105835208007 0 -0.37486325442501678 0.26073283313956191 0 -0.37037682723861959 0.26727391500207881 0 -0.37663035468755812 0.27553453209175438 0 -0.37037682723861959 0.26727391500207881 0 -0.3675382700360969 0.27561032731831903 0 -0.35729057909371892 0.27283573526643079 0 -0.36672600020735052 0.25892223693520039 0 -0.37037682723861959 0.26727391500207881 0 -0.35729057909371892 0.27283573526643079 0 -0.37037682723861959 0.26727391500207881 0 -0.3675382700360969 0.27561032731831903 0 -0.35729057909371892 0.27283573526643079 0 -0.3675382700360969 0.27561032731831903 0 -0.36638973218867571 0.28538528258850482 0 -0.37663035468755812 0.27553453209175438 0 -0.3675382700360969 0.27561032731831903 0 -0.37430789959613919 0.2835178153812663 0 -0.37430789959613919 0.2835178153812663 0 -0.37264379992894958 0.29023317886314642 0 -0.36638973218867571 0.28538528258850482 0 -0.3675382700360969 0.27561032731831903 0 -0.37430789959613919 0.2835178153812663 0 -0.36638973218867571 0.28538528258850482 0 -0.35729057909371892 0.27283573526643079 0 -0.35938260242153269 0.29349049874512828 0 -0.36638973218867571 0.28538528258850482 0 -0.37264379992894958 0.29023317886314642 0 -0.36633046318323331 0.29523325840186843 0 -0.36638973218867571 0.28538528258850482 0 -0.37662671737014292 0.29820034360802372 0 -0.37264379992894958 0.29023317886314642 0 -0.36633046318323331 0.29523325840186843 0 -0.36633046318323331 0.29523325840186843 0 -0.35938260242153269 0.29349049874512828 0 -0.36638973218867571 0.28538528258850482 0 -0.36633046318323331 0.29523325840186843 0 -0.35938260242153269 0.29349049874512828 0 -0.36527116431441742 0.30918318927851229 0 -0.35938260242153269 0.29349049874512828 0 -0.36140583790278652 0.31346611267422742 0 -0.35938260242153269 0.29349049874512828 0 -0.36527116431441742 0.30918318927851229 0 -0.35938260242153269 0.29349049874512828 0 -0.36527116431441742 0.30918318927851229 0 -0.36140583790278652 0.31346611267422742 0 -0.37662671737014292 0.29820034360802372 0 -0.38054818181112288 0.30817221377971671 0 -0.36527116431441742 0.30918318927851229 0 -0.37662671737014292 0.29820034360802372 0 -0.36633046318323331 0.29523325840186843 0 -0.36527116431441742 0.30918318927851229 0 -0.36633046318323331 0.29523325840186843 0 -0.36527116431441742 0.30918318927851229 0 -0.35938260242153269 0.29349049874512828 0 -0.34796839334054391 0.3080742640220086 0 -0.36140583790278652 0.31346611267422742 0 -0.35938260242153269 0.29349049874512828 0 -0.34796839334054391 0.3080742640220086 0 -0.34524932995517738 0.29601166707325599 0 -0.34796839334054391 0.3080742640220086 0 -0.33745571547703201 0.31068572242090708 0 -0.34968832810868122 0.31718648723179599 0 -0.35173936824764668 0.2731217039957694 0 -0.35938260242153269 0.29349049874512828 0 -0.34759360099627762 0.28653950875448547 0 -0.35173936824764668 0.2731217039957694 0 -0.35938260242153269 0.29349049874512828 0 -0.35729057909371892 0.27283573526643079 0 -0.35938260242153269 0.29349049874512828 0 -0.35938260242153269 0.29349049874512828 0 -0.34524932995517738 0.29601166707325599 0 -0.34759360099627762 0.28653950875448547 0 -0.34567540571331978 0.27579181334323138 0 -0.3353213806594873 0.29199962087348452 0 -0.34567540571331978 0.27579181334323138 0 -0.34759360099627762 0.28653950875448547 0 -0.3353213806594873 0.29199962087348452 0 -0.34524932995517738 0.29601166707325599 0 -0.3353213806594873 0.29199962087348452 0 -0.33598067235804779 0.2999544429711728 0 -0.34524932995517738 0.29601166707325599 0 -0.34759360099627762 0.28653950875448547 0 -0.3353213806594873 0.29199962087348452 0 -0.3353213806594873 0.29199962087348452 0 -0.33598067235804779 0.2999544429711728 0 -0.3353213806594873 0.29199962087348452 0 -0.33598067235804779 0.2999544429711728 0 -0.31997976884931401 0.31601481207983839 0 -0.33745571547703201 0.31068572242090708 0 -0.33598067235804779 0.2999544429711728 0 -0.31997976884931401 0.31601481207983839 0 -0.34796839334054391 0.3080742640220086 0 -0.33745571547703201 0.31068572242090708 0 -0.33598067235804779 0.2999544429711728 0 -0.34796839334054391 0.3080742640220086 0 -0.34524932995517738 0.29601166707325599 0 -0.33598067235804779 0.2999544429711728 0 -0.3353213806594873 0.29199962087348452 0 -0.31997976884931401 0.31601481207983839 0 -0.31274844065177482 0.29422045014397891 0 -0.30555696277876099 0.30893275765005251 0 -0.31997976884931401 0.31601481207983839 0 -0.3353213806594873 0.29199962087348452 0 -0.31274844065177482 0.29422045014397891 0 -0.31997976884931401 0.31601481207983839 0 -0.3353213806594873 0.29199962087348452 0 -0.31274844065177482 0.29422045014397891 0 -0.31898614301051648 0.27676953845067642 0 -0.3353213806594873 0.29199962087348452 0 -0.31898614301051648 0.27676953845067642 0 -0.33294635508717108 0.26334325230936212 0 -0.34567540571331978 0.27579181334323138 0 -0.3353213806594873 0.29199962087348452 0 -0.33294635508717108 0.26334325230936212 0 -0.3353213806594873 0.29199962087348452 0 -0.33294635508717108 0.26334325230936212 0 -0.34567540571331978 0.27579181334323138 0 -0.34085362917079071 0.26627310869872423 0 -0.33294635508717108 0.26334325230936212 0 -0.33121304248314659 0.24242960599044419 0 -0.3379494868404348 0.25306955167772099 0 -0.33294635508717108 0.26334325230936212 0 -0.33121304248314659 0.24242960599044419 0 -0.33294635508717108 0.26334325230936212 0 -0.34409613407375822 0.25275290924641147 0 -0.3379494868404348 0.25306955167772099 0 -0.34409613407375822 0.25275290924641147 0 -0.3379494868404348 0.25306955167772099 0 -0.34143470612516769 0.26050274255936218 0 -0.3379494868404348 0.25306955167772099 0 -0.34143470612516769 0.26050274255936218 0 -0.33294635508717108 0.26334325230936212 0 -0.34085362917079071 0.26627310869872423 0 -0.33294635508717108 0.26334325230936212 0 -0.34085362917079071 0.26627310869872423 0 -0.34143470612516769 0.26050274255936218 0 -0.33294635508717108 0.26334325230936212 0 -0.33294635508717108 0.26334325230936212 0 -0.31292664561224232 0.25592541487284931 0 -0.31898614301051648 0.27676953845067642 0 -0.33294635508717108 0.26334325230936212 0 -0.31292664561224232 0.25592541487284931 0 -0.33121304248314659 0.24242960599044419 0 -0.33294635508717108 0.26334325230936212 0 -0.31292664561224232 0.25592541487284931 0 -0.29290693613731411 0.24850757743633481 0 -0.31292664561224232 0.25592541487284931 0 -0.29290693613731411 0.24850757743633481 0 -0.31292664561224232 0.25592541487284931 0 -0.29186641398752 0.2644150317449242 0 -0.31292664561224232 0.25592541487284931 0 -0.30098789304190632 0.27835895405370709 0 -0.29186641398752 0.2644150317449242 0 -0.31898614301051648 0.27676953845067642 0 -0.31292664561224232 0.25592541487284931 0 -0.30098789304190632 0.27835895405370709 0 -0.30098789304190632 0.27835895405370709 0 -0.29186641398752 0.2644150317449242 0 -0.2761282923790106 0.28398773365473151 0 -0.29186641398752 0.2644150317449242 0 -0.27650373764531211 0.25956298974931619 0 -0.2761282923790106 0.28398773365473151 0 -0.29290693613731411 0.24850757743633481 0 -0.29186641398752 0.2644150317449242 0 -0.27650373764531211 0.25956298974931619 0 -0.27288722666238591 0.24108973999982011 0 -0.27650373764531211 0.25956298974931619 0 -0.26542126265953442 0.25470793440585782 0 -0.27650373764531211 0.25956298974931619 0 -0.2586972770707342 0.26766932234701102 0 -0.26542126265953442 0.25470793440585782 0 -0.27650373764531211 0.25956298974931619 0 -0.2586972770707342 0.26766932234701102 0 -0.2761282923790106 0.28398773365473151 0 -0.2586972770707342 0.26766932234701102 0 -0.2761282923790106 0.28398773365473151 0 -0.2586972770707342 0.26766932234701102 0 -0.25790854374248068 0.2850424150972381 0 -0.24900133351229239 0.27563227110277427 0 -0.2586972770707342 0.26766932234701102 0 -0.25790854374248068 0.2850424150972381 0 -0.2761282923790106 0.28398773365473151 0 -0.2586972770707342 0.26766932234701102 0 -0.25359680925970529 0.25050968552728381 0 -0.2412662617624578 0.25135091103929058 0 -0.2586972770707342 0.26766932234701102 0 -0.26542126265953442 0.25470793440585782 0 -0.25359680925970529 0.25050968552728381 0 -0.2620852301748845 0.30979072126604001 0 -0.24531862700545601 0.31417757358992798 0 -0.2620852301748845 0.30979072126604001 0 -0.25196061543158332 0.30526051510166191 0 -0.24531862700545601 0.31417757358992798 0 -0.25929942729798539 0.30077276878191911 0 -0.2620852301748845 0.30979072126604001 0 -0.266962910861614 0.30285448817196953 0 -0.25929942729798539 0.30077276878191911 0 -0.26761515262927288 0.29545059369776572 0 -0.266962910861614 0.30285448817196953 0 -0.25929942729798539 0.30077276878191911 0 -0.2620852301748845 0.30979072126604001 0 -0.25196061543158332 0.30526051510166191 0 -0.25929942729798539 0.30077276878191911 0 -0.25196061543158332 0.30526051510166191 0 -0.24993271077240739 0.29678087560504302 0 -0.25929942729798539 0.30077276878191911 0 -0.25790854374248068 0.2850424150972381 0 -0.26761515262927288 0.29545059369776572 0 -0.25929942729798539 0.30077276878191911 0 -0.25790854374248068 0.2850424150972381 0 -0.24993271077240739 0.29678087560504302 0 -0.25790854374248068 0.2850424150972381 0 -0.2469496641305429 0.28552353553695498 0 -0.24993271077240739 0.29678087560504302 0 -0.25790854374248068 0.2850424150972381 0 -0.2469496641305429 0.28552353553695498 0 -0.24900133351229239 0.27563227110277427 0 -0.26761515262927288 0.29545059369776572 0 -0.2761282923790106 0.28398773365473151 0 -0.27885183334431329 0.30540386894215321 0 -0.25790854374248068 0.2850424150972381 0 -0.26761515262927288 0.29545059369776572 0 -0.2761282923790106 0.28398773365473151 0 -0.2620852301748845 0.30979072126604001 0 -0.27885183334431329 0.30540386894215321 0 -0.2620852301748845 0.30979072126604001 0 -0.27898457963342771 0.31107572379960768 0 -0.26409695872260142 0.31448921566092092 0 -0.2620852301748845 0.30979072126604001 0 -0.27885183334431329 0.30540386894215321 0 -0.27898457963342771 0.31107572379960768 0 -0.2620852301748845 0.30979072126604001 0 -0.266962910861614 0.30285448817196953 0 -0.27885183334431329 0.30540386894215321 0 -0.26761515262927288 0.29545059369776572 0 -0.266962910861614 0.30285448817196953 0 -0.27885183334431329 0.30540386894215321 0 -0.27898457963342771 0.31107572379960768 0 -0.28742919147196921 0.30826929759074478 0 -0.284829507903546 0.31434772196399818 0 -0.28742919147196921 0.30826929759074478 0 -0.29346307855137582 0.31282029158276708 0 -0.284829507903546 0.31434772196399818 0 -0.27885183334431329 0.30540386894215321 0 -0.27898457963342771 0.31107572379960768 0 -0.28742919147196921 0.30826929759074478 0 -0.27885183334431329 0.30540386894215321 0 -0.28742919147196921 0.30826929759074478 0 -0.293559307687287 0.30030614496245178 0 -0.28742919147196921 0.30826929759074478 0 -0.293559307687287 0.30030614496245178 0 -0.29346307855137582 0.31282029158276708 0 -0.2761282923790106 0.28398773365473151 0 -0.293559307687287 0.30030614496245178 0 -0.2761282923790106 0.28398773365473151 0 -0.27885183334431329 0.30540386894215321 0 -0.293559307687287 0.30030614496245178 0 -0.30098789304190632 0.27835895405370709 0 -0.2761282923790106 0.28398773365473151 0 -0.293559307687287 0.30030614496245178 0 -0.31274844065177482 0.29422045014397891 0 -0.30098789304190632 0.27835895405370709 0 -0.293559307687287 0.30030614496245178 0 -0.31274844065177482 0.29422045014397891 0 -0.31898614301051648 0.27676953845067642 0 -0.30098789304190632 0.27835895405370709 0 -0.31274844065177482 0.29422045014397891 0 -0.293559307687287 0.30030614496245178 0 -0.30555696277876099 0.30893275765005251 0 -0.293559307687287 0.30030614496245178 0 -0.30555696277876099 0.30893275765005251 0 -0.29346307855137582 0.31282029158276708 0 -0.30555696277876099 0.30893275765005251 0 -0.30035013090832391 0.32267963823667911 0 -0.31997976884931401 0.31601481207983839 0 -0.30035013090832391 0.32267963823667911 0 -0.30463815703914032 0.34003000328619198 0 -0.31997976884931401 0.31601481207983839 0 -0.30463815703914032 0.34003000328619198 0 -0.31997976884931401 0.31601481207983839 0 -0.30555696277876099 0.30893275765005251 0 -0.30035013090832391 0.32267963823667911 0 -0.29346307855137582 0.31282029158276708 0 -0.30035013090832391 0.32267963823667911 0 -0.30463815703914032 0.34003000328619198 0 -0.28588889919231653 0.34540343495234982 0 -0.30035013090832391 0.32267963823667911 0 -0.28588889919231653 0.34540343495234982 0 -0.30035013090832391 0.32267963823667911 0 -0.28619062419134078 0.33602346985936649 0 -0.28588889919231653 0.34540343495234982 0 -0.28619062419134078 0.33602346985936649 0 -0.28282685966038068 0.32761399890220488 0 -0.2811532956342323 0.33301169002177489 0 -0.28619062419134078 0.33602346985936649 0 -0.2811532956342323 0.33301169002177489 0 -0.27791489012668941 0.33759140917954122 0 -0.28619062419134078 0.33602346985936649 0 -0.28905337055836788 0.3223861890926763 0 -0.28282685966038068 0.32761399890220488 0 -0.28619062419134078 0.33602346985936649 0 -0.2837319019792367 0.34055729630791443 0 -0.27791489012668941 0.33759140917954122 0 -0.28619062419134078 0.33602346985936649 0 -0.2837319019792367 0.34055729630791443 0 -0.28588889919231653 0.34540343495234982 0 -0.2837319019792367 0.34055729630791443 0 -0.28250858319164701 0.34300180804643282 0 -0.27791489012668941 0.33759140917954122 0 -0.2837319019792367 0.34055729630791443 0 -0.28250858319164701 0.34300180804643282 0 -0.28588889919231653 0.34540343495234982 0 -0.29346307855137582 0.31282029158276708 0 -0.28905337055836788 0.3223861890926763 0 -0.284829507903546 0.31434772196399818 0 -0.30035013090832391 0.32267963823667911 0 -0.29346307855137582 0.31282029158276708 0 -0.28905337055836788 0.3223861890926763 0 -0.30035013090832391 0.32267963823667911 0 -0.28619062419134078 0.33602346985936649 0 -0.28905337055836788 0.3223861890926763 0 -0.28905337055836788 0.3223861890926763 0 -0.28282685966038068 0.32761399890220488 0 -0.28263812119581422 0.32043468164821548 0 -0.28282685966038068 0.32761399890220488 0 -0.28263812119581422 0.32043468164821548 0 -0.27872373862396088 0.32398267441155021 0 -0.28905337055836788 0.3223861890926763 0 -0.28263812119581422 0.32043468164821548 0 -0.284829507903546 0.31434772196399818 0 -0.28263812119581422 0.32043468164821548 0 -0.284829507903546 0.31434772196399818 0 -0.27779811460791348 0.3175096728721376 0 -0.27898457963342771 0.31107572379960768 0 -0.284829507903546 0.31434772196399818 0 -0.27779811460791348 0.3175096728721376 0 -0.27779811460791348 0.3175096728721376 0 -0.27195319508714522 0.31749365904947402 0 -0.27357579967644258 0.32165806218324028 0 -0.27898457963342771 0.31107572379960768 0 -0.27779811460791348 0.3175096728721376 0 -0.27195319508714522 0.31749365904947402 0 -0.27898457963342771 0.31107572379960768 0 -0.26409695872260142 0.31448921566092092 0 -0.27195319508714522 0.31749365904947402 0 -0.26717392677520457 0.32265335496689668 0 -0.26409695872260142 0.31448921566092092 0 -0.27898457963342771 0.31107572379960768 0 -0.27195319508714522 0.31749365904947402 0 -0.26409695872260142 0.31448921566092092 0 -0.26717392677520457 0.32265335496689668 0 -0.27357579967644258 0.32165806218324028 0 -0.27534158298246147 0.32928856756701702 0 -0.27195319508714522 0.31749365904947402 0 -0.26717392677520457 0.32265335496689668 0 -0.27357579967644258 0.32165806218324028 0 -0.27357579967644258 0.32165806218324028 0 -0.27872373862396088 0.32398267441155021 0 -0.27534158298246147 0.32928856756701702 0 -0.27779811460791348 0.3175096728721376 0 -0.27357579967644258 0.32165806218324028 0 -0.27872373862396088 0.32398267441155021 0 -0.28263812119581422 0.32043468164821548 0 -0.27779811460791348 0.3175096728721376 0 -0.27872373862396088 0.32398267441155021 0 -0.28282685966038068 0.32761399890220488 0 -0.27872373862396088 0.32398267441155021 0 -0.27534158298246147 0.32928856756701702 0 -0.26509629863538747 0.33311356738596459 0 -0.26321499514493513 0.3480403108657884 0 -0.2809832594589996 0.34832442724969598 0 -0.28282685966038068 0.32761399890220488 0 -0.2811532956342323 0.33301169002177489 0 -0.27534158298246147 0.32928856756701702 0 -0.27791489012668941 0.33759140917954122 0 -0.26509629863538747 0.33311356738596459 0 -0.2809832594589996 0.34832442724969598 0 -0.26509629863538747 0.33311356738596459 0 -0.2809832594589996 0.34832442724969598 0 -0.2811532956342323 0.33301169002177489 0 -0.27534158298246147 0.32928856756701702 0 -0.27791489012668941 0.33759140917954122 0 -0.28250858319164701 0.34300180804643282 0 -0.27791489012668941 0.33759140917954122 0 -0.2809832594589996 0.34832442724969598 0 -0.26717392677520457 0.32265335496689668 0 -0.27534158298246147 0.32928856756701702 0 -0.26509629863538747 0.33311356738596459 0 -0.27534158298246147 0.32928856756701702 0 -0.27791489012668941 0.33759140917954122 0 -0.26509629863538747 0.33311356738596459 0 -0.26509629863538747 0.33311356738596459 0 -0.25295152442094759 0.34275484078600282 0 -0.26321499514493513 0.3480403108657884 0 -0.26509629863538747 0.33311356738596459 0 -0.25295152442094759 0.34275484078600282 0 -0.2502134517074236 0.33182082943189928 0 -0.2620852301748845 0.30979072126604001 0 -0.24531862700545601 0.31417757358992798 0 -0.24920933781177501 0.31790270752223371 0 -0.26509629863538747 0.33311356738596459 0 -0.24920933781177501 0.31790270752223371 0 -0.26509629863538747 0.33311356738596459 0 -0.2613941304862421 0.322039711384004 0 -0.24920933781177501 0.31790270752223371 0 -0.26509629863538747 0.33311356738596459 0 -0.2502134517074236 0.33182082943189928 0 -0.24920933781177501 0.31790270752223371 0 -0.26409695872260142 0.31448921566092092 0 -0.24920933781177501 0.31790270752223371 0 -0.2620852301748845 0.30979072126604001 0 -0.26409695872260142 0.31448921566092092 0 -0.24920933781177501 0.31790270752223371 0 -0.26409695872260142 0.31448921566092092 0 -0.2613941304862421 0.322039711384004 0 -0.24920933781177501 0.31790270752223371 0 -0.26717392677520457 0.32265335496689668 0 -0.26409695872260142 0.31448921566092092 0 -0.2613941304862421 0.322039711384004 0 -0.26717392677520457 0.32265335496689668 0 -0.26509629863538747 0.33311356738596459 0 -0.2613941304862421 0.322039711384004 0 -0.2714276674763087 0.36812723166802019 0 -0.2460231000790786 0.37393075161917277 0 -0.2519383555078234 0.35644269101866738 0 -0.26271747553342911 0.3589730824842689 0 -0.2460231000790786 0.37393075161917277 0 -0.26271747553342911 0.3589730824842689 0 -0.2714276674763087 0.36812723166802019 0 -0.2460231000790786 0.37393075161917277 0 -0.25295152442094759 0.34275484078600282 0 -0.2519383555078234 0.35644269101866738 0 -0.26321499514493513 0.3480403108657884 0 -0.2519383555078234 0.35644269101866738 0 -0.26321499514493513 0.3480403108657884 0 -0.26271747553342911 0.3589730824842689 0 -0.2714276674763087 0.36812723166802019 0 -0.28588889919231653 0.34540343495234982 0 -0.2809832594589996 0.34832442724969598 0 -0.2714276674763087 0.36812723166802019 0 -0.28588889919231653 0.34540343495234982 0 -0.26321499514493513 0.3480403108657884 0 -0.26271747553342911 0.3589730824842689 0 -0.2809832594589996 0.34832442724969598 0 -0.26271747553342911 0.3589730824842689 0 -0.2809832594589996 0.34832442724969598 0 -0.2714276674763087 0.36812723166802019 0 -0.2714276674763087 0.36812723166802019 0 -0.28929654522896753 0.36404519449254619 0 -0.27892727185264499 0.38027687118235598 0 -0.2714276674763087 0.36812723166802019 0 -0.28929654522896753 0.36404519449254619 0 -0.28929654522896753 0.36404519449254619 0 -0.29714222675297419 0.38022222088325419 0 -0.27892727185264499 0.38027687118235598 0 -0.28929654522896753 0.36404519449254619 0 -0.27892727185264499 0.38027687118235598 0 -0.30463815703914032 0.34003000328619198 0 -0.28929654522896753 0.36404519449254619 0 -0.28588889919231653 0.34540343495234982 0 -0.2714276674763087 0.36812723166802019 0 -0.28929654522896753 0.36404519449254619 0 -0.28588889919231653 0.34540343495234982 0 -0.28250858319164701 0.34300180804643282 0 -0.2809832594589996 0.34832442724969598 0 -0.28588889919231653 0.34540343495234982 0 -0.30463815703914032 0.34003000328619198 0 -0.30521538674455001 0.36040863131513251 0 -0.31781716973334451 0.34833101400278987 0 -0.30463815703914032 0.34003000328619198 0 -0.28929654522896753 0.36404519449254619 0 -0.30463815703914032 0.34003000328619198 0 -0.28929654522896753 0.36404519449254619 0 -0.30521538674455001 0.36040863131513251 0 -0.28929654522896753 0.36404519449254619 0 -0.30521538674455001 0.36040863131513251 0 -0.29714222675297419 0.38022222088325419 0 -0.30521538674455001 0.36040863131513251 0 -0.31287229142242762 0.37290820290685051 0 -0.29714222675297419 0.38022222088325419 0 -0.28929654522896753 0.36404519449254619 0 -0.30521538674455001 0.36040863131513251 0 -0.31287229142242762 0.37290820290685051 0 -0.3303427200115881 0.36236864927801288 0 -0.318788832180598 0.3886333101510025 0 -0.30521538674455001 0.36040863131513251 0 -0.31287229142242762 0.37290820290685051 0 -0.3303427200115881 0.36236864927801288 0 -0.3303427200115881 0.36236864927801288 0 -0.34468508758991351 0.36820356904013629 0 -0.34734068501163851 0.35815363948044621 0 -0.3303427200115881 0.36236864927801288 0 -0.34468508758991351 0.36820356904013629 0 -0.34013642781369169 0.38214078500880921 0 -0.3303427200115881 0.36236864927801288 0 -0.34269621637719128 0.34762612794026221 0 -0.33079504511066787 0.34312027716800758 0 -0.3303427200115881 0.36236864927801288 0 -0.34269621637719128 0.34762612794026221 0 -0.34734068501163851 0.35815363948044621 0 -0.3303427200115881 0.36236864927801288 0 -0.31781716973334451 0.34833101400278987 0 -0.33079504511066787 0.34312027716800758 0 -0.30521538674455001 0.36040863131513251 0 -0.3303427200115881 0.36236864927801288 0 -0.31781716973334451 0.34833101400278987 0 -0.30463815703914032 0.34003000328619198 0 -0.32076957035826997 0.33516718586289612 0 -0.31997976884931401 0.31601481207983839 0 -0.30463815703914032 0.34003000328619198 0 -0.31781716973334451 0.34833101400278987 0 -0.32076957035826997 0.33516718586289612 0 -0.32076957035826997 0.33516718586289612 0 -0.33079504511066787 0.34312027716800758 0 -0.33061771105888299 0.32833982277765228 0 -0.31781716973334451 0.34833101400278987 0 -0.32076957035826997 0.33516718586289612 0 -0.33079504511066787 0.34312027716800758 0 -0.32076957035826997 0.33516718586289612 0 -0.31997976884931401 0.31601481207983839 0 -0.33061771105888299 0.32833982277765228 0 -0.31997976884931401 0.31601481207983839 0 -0.3323057781465753 0.31931332326285877 0 -0.33061771105888299 0.32833982277765228 0 -0.33745571547703201 0.31068572242090708 0 -0.31997976884931401 0.31601481207983839 0 -0.3323057781465753 0.31931332326285877 0 -0.3323057781465753 0.31931332326285877 0 -0.34116991720107209 0.32221293577303761 0 -0.33061771105888299 0.32833982277765228 0 -0.33745571547703201 0.31068572242090708 0 -0.3323057781465753 0.31931332326285877 0 -0.34116991720107209 0.32221293577303761 0 -0.33745571547703201 0.31068572242090708 0 -0.34116991720107209 0.32221293577303761 0 -0.34968832810868122 0.31718648723179599 0 -0.33079504511066787 0.34312027716800758 0 -0.33061771105888299 0.32833982277765228 0 -0.34215987806229609 0.33433737758583321 0 -0.34116991720107209 0.32221293577303761 0 -0.33061771105888299 0.32833982277765228 0 -0.34215987806229609 0.33433737758583321 0 -0.34269621637719128 0.34762612794026221 0 -0.33079504511066787 0.34312027716800758 0 -0.34215987806229609 0.33433737758583321 0 -0.34269621637719128 0.34762612794026221 0 -0.34215987806229609 0.33433737758583321 0 -0.35324484427075559 0.33870055971271179 0 -0.34215987806229609 0.33433737758583321 0 -0.35324484427075559 0.33870055971271179 0 -0.35304844161899462 0.32582942797146552 0 -0.35324484427075559 0.33870055971271179 0 -0.35304844161899462 0.32582942797146552 0 -0.36342907338404029 0.33344172660332649 0 -0.35304844161899462 0.32582942797146552 0 -0.36140583790278652 0.31346611267422742 0 -0.36342907338404029 0.33344172660332649 0 -0.34116991720107209 0.32221293577303761 0 -0.34215987806229609 0.33433737758583321 0 -0.35304844161899462 0.32582942797146552 0 -0.34116991720107209 0.32221293577303761 0 -0.34968832810868122 0.31718648723179599 0 -0.35304844161899462 0.32582942797146552 0 -0.34796839334054391 0.3080742640220086 0 -0.34968832810868122 0.31718648723179599 0 -0.36140583790278652 0.31346611267422742 0 -0.34968832810868122 0.31718648723179599 0 -0.35304844161899462 0.32582942797146552 0 -0.36140583790278652 0.31346611267422742 0 -0.36527116431441742 0.30918318927851229 0 -0.36342907338404029 0.33344172660332649 0 -0.37575078440700571 0.33711079503556779 0 -0.36527116431441742 0.30918318927851229 0 -0.36342907338404029 0.33344172660332649 0 -0.37575078440700571 0.33711079503556779 0 -0.36527116431441742 0.30918318927851229 0 -0.36527116431441742 0.30918318927851229 0 -0.36140583790278652 0.31346611267422742 0 -0.36342907338404029 0.33344172660332649 0 -0.36140583790278652 0.31346611267422742 0 -0.36342907338404029 0.33344172660332649 0 -0.36342907338404029 0.33344172660332649 0 -0.36191203562682522 0.35341963130368392 0 -0.35324484427075559 0.33870055971271179 0 -0.36342907338404029 0.33344172660332649 0 -0.36191203562682522 0.35341963130368392 0 -0.37575078440700571 0.33711079503556779 0 -0.36342907338404029 0.33344172660332649 0 -0.37124039397333702 0.34711761920430378 0 -0.36342907338404029 0.33344172660332649 0 -0.36191203562682522 0.35341963130368392 0 -0.36586308427326919 0.35747296877601409 0 -0.36342907338404029 0.33344172660332649 0 -0.36586308427326919 0.35747296877601409 0 -0.37626286886354471 0.35719234904210811 0 -0.37575078440700571 0.33711079503556779 0 -0.37124039397333702 0.34711761920430378 0 -0.36342907338404029 0.33344172660332649 0 -0.37124039397333702 0.34711761920430378 0 -0.36586308427326919 0.35747296877601409 0 -0.37626286886354471 0.35719234904210811 0 -0.37124039397333702 0.34711761920430378 0 -0.36586308427326919 0.35747296877601409 0 -0.36191203562682522 0.35341963130368392 0 -0.36039499786961282 0.37339753600404141 0 -0.35681992107018468 0.35604904785837649 0 -0.36586308427326919 0.35747296877601409 0 -0.36829709516249642 0.38150421094870202 0 -0.36191203562682522 0.35341963130368392 0 -0.36586308427326919 0.35747296877601409 0 -0.36039499786961282 0.37339753600404141 0 -0.36191203562682522 0.35341963130368392 0 -0.36039499786961282 0.37339753600404141 0 -0.37626286886354471 0.35719234904210811 0 -0.36586308427326919 0.35747296877601409 0 -0.37342124140163752 0.36916697188085651 0 -0.36586308427326919 0.35747296877601409 0 -0.36039499786961282 0.37339753600404141 0 -0.36829709516249642 0.38150421094870202 0 -0.36586308427326919 0.35747296877601409 0 -0.37342124140163752 0.36916697188085651 0 -0.36829709516249642 0.38150421094870202 0 -0.36039499786961282 0.37339753600404141 0 -0.35681992107018468 0.35604904785837649 0 -0.36039499786961282 0.37339753600404141 0 -0.35214887931753242 0.36600430832439862 0 -0.35681992107018468 0.35604904785837649 0 -0.35214887931753242 0.36600430832439862 0 -0.34734068501163851 0.35815363948044621 0 -0.35681992107018468 0.35604904785837649 0 -0.36039499786961282 0.37339753600404141 0 -0.35214887931753242 0.36600430832439862 0 -0.3515037050463124 0.37421774923899259 0 -0.3515037050463124 0.37421774923899259 0 -0.34468508758991351 0.36820356904013629 0 -0.34013642781369169 0.38214078500880921 0 -0.35214887931753242 0.36600430832439862 0 -0.3515037050463124 0.37421774923899259 0 -0.34468508758991351 0.36820356904013629 0 -0.35214887931753242 0.36600430832439862 0 -0.34468508758991351 0.36820356904013629 0 -0.34734068501163851 0.35815363948044621 0 -0.35324484427075559 0.33870055971271179 0 -0.35002541668244253 0.35013234374794922 0 -0.35681992107018468 0.35604904785837649 0 -0.34269621637719128 0.34762612794026221 0 -0.34734068501163851 0.35815363948044621 0 -0.35002541668244253 0.35013234374794922 0 -0.35324484427075559 0.33870055971271179 0 -0.35681992107018468 0.35604904785837649 0 -0.34734068501163851 0.35815363948044621 0 -0.35002541668244253 0.35013234374794922 0 -0.35681992107018468 0.35604904785837649 0 -0.35324484427075559 0.33870055971271179 0 -0.36191203562682522 0.35341963130368392 0 -0.35681992107018468 0.35604904785837649 0 -0.34269621637719128 0.34762612794026221 0 -0.35324484427075559 0.33870055971271179 0 -0.35002541668244253 0.35013234374794922 0 -0.34973976012165853 0.39226128455568121 0 -0.34139453523964791 0.39962176895020229 0 -0.34013642781369169 0.38214078500880921 0 -0.35884246762940158 0.39384284201957082 0 -0.35629430285151992 0.40253832776501308 0 -0.34973976012165853 0.39226128455568121 0 -0.35629430285151992 0.40253832776501308 0 -0.35307711352818322 0.41295577425543772 0 -0.34139453523964791 0.39962176895020229 0 -0.35629430285151992 0.40253832776501308 0 -0.34973976012165853 0.39226128455568121 0 -0.34139453523964791 0.39962176895020229 0 -0.34973976012165853 0.39226128455568121 0 -0.35203106707403109 0.38316269903481032 0 -0.34013642781369169 0.38214078500880921 0 -0.36039499786961282 0.37339753600404141 0 -0.35884246762940158 0.39384284201957082 0 -0.35203106707403109 0.38316269903481032 0 -0.3515037050463124 0.37421774923899259 0 -0.35203106707403109 0.38316269903481032 0 -0.34013642781369169 0.38214078500880921 0 -0.36039499786961282 0.37339753600404141 0 -0.3515037050463124 0.37421774923899259 0 -0.35203106707403109 0.38316269903481032 0 -0.35884246762940158 0.39384284201957082 0 -0.34973976012165853 0.39226128455568121 0 -0.35203106707403109 0.38316269903481032 0 -0.36039499786961282 0.37339753600404141 0 -0.35884246762940158 0.39384284201957082 0 -0.3651896538567877 0.39666417815542387 0 -0.36039499786961282 0.37339753600404141 0 -0.36829709516249642 0.38150421094870202 0 -0.3651896538567877 0.39666417815542387 0 -0.36039499786961282 0.37339753600404141 0 -0.3651896538567877 0.39666417815542387 0 -0.36829709516249642 0.38150421094870202 0 -0.3695517893427171 0.38357097244323451 0 -0.37073110605172371 0.40553545312138989 0 -0.36039499786961282 0.37339753600404141 0 -0.35884246762940158 0.39384284201957082 0 -0.37342124140163752 0.36916697188085651 0 -0.36829709516249642 0.38150421094870202 0 -0.3695517893427171 0.38357097244323451 0 -0.37513427241190511 0.38675054564665617 0 -0.37817043039509712 0.38053108116313378 0 -0.3695517893427171 0.38357097244323451 0 -0.37564579323536912 0.39255488417451251 0 -0.37513427241190511 0.38675054564665617 0 -0.3695517893427171 0.38357097244323451 0 -0.37564579323536912 0.39255488417451251 0 -0.3695517893427171 0.38357097244323451 0 -0.37073110605172371 0.40553545312138989 0 -0.36829709516249642 0.38150421094870202 0 -0.3651896538567877 0.39666417815542387 0 -0.37073110605172371 0.40553545312138989 0 -0.36829709516249642 0.38150421094870202 0 -0.37073110605172371 0.40553545312138989 0 -0.35884246762940158 0.39384284201957082 0 -0.35629430285151992 0.40253832776501308 0 -0.3651896538567877 0.39666417815542387 0 -0.35629430285151992 0.40253832776501308 0 -0.3651896538567877 0.39666417815542387 0 -0.36998430984396169 0.41993082030680662 0 -0.38076868017910809 0.41163408496528991 0 -0.37073110605172371 0.40553545312138989 0 -0.36998430984396169 0.41993082030680662 0 -0.3651896538567877 0.39666417815542387 0 -0.36998430984396169 0.41993082030680662 0 -0.35629430285151992 0.40253832776501308 0 -0.36998430984396169 0.41993082030680662 0 -0.35307711352818322 0.41295577425543772 0 -0.3651896538567877 0.39666417815542387 0 -0.37073110605172371 0.40553545312138989 0 -0.36998430984396169 0.41993082030680662 0 -0.36998430984396169 0.41993082030680662 0 -0.36105981966045209 0.43691742854601529 0 -0.37477896583113562 0.44319746245818942 0 -0.36998430984396169 0.41993082030680662 0 -0.36105981966045209 0.43691742854601529 0 -0.35442559374386451 0.42651165881884551 0 -0.36998430984396169 0.41993082030680662 0 -0.37477896583113562 0.44319746245818942 0 -0.35442559374386451 0.42651165881884551 0 -0.34011651291796019 0.41814170448196952 0 -0.34294597407948457 0.43836940046553158 0 -0.36105981966045209 0.43691742854601529 0 -0.35442559374386451 0.42651165881884551 0 -0.34294597407948457 0.43836940046553158 0 -0.36998430984396169 0.41993082030680662 0 -0.35442559374386451 0.42651165881884551 0 -0.35307711352818322 0.41295577425543772 0 -0.35307711352818322 0.41295577425543772 0 -0.34011651291796019 0.41814170448196952 0 -0.34139453523964791 0.39962176895020229 0 -0.35442559374386451 0.42651165881884551 0 -0.35307711352818322 0.41295577425543772 0 -0.34011651291796019 0.41814170448196952 0 -0.34011651291796019 0.41814170448196952 0 -0.32643339497957707 0.40912336060013571 0 -0.34139453523964791 0.39962176895020229 0 -0.34011651291796019 0.41814170448196952 0 -0.32463215021007141 0.4243220483935119 0 -0.32643339497957707 0.40912336060013571 0 -0.32463215021007141 0.4243220483935119 0 -0.32300101249223689 0.44836779041384189 0 -0.34294597407948457 0.43836940046553158 0 -0.32463215021007141 0.4243220483935119 0 -0.34294597407948457 0.43836940046553158 0 -0.34011651291796019 0.41814170448196952 0 -0.32463215021007141 0.4243220483935119 0 -0.34294597407948457 0.43836940046553158 0 -0.32463215021007141 0.4243220483935119 0 -0.32643339497957707 0.40912336060013571 0 -0.30723494434960802 0.41489797102399201 0 -0.318788832180598 0.3886333101510025 0 -0.30723494434960802 0.41489797102399201 0 -0.32643339497957707 0.40912336060013571 0 -0.318788832180598 0.3886333101510025 0 -0.30723494434960802 0.41489797102399201 0 -0.32643339497957707 0.40912336060013571 0 -0.34139453523964791 0.39962176895020229 0 -0.318788832180598 0.3886333101510025 0 -0.34139453523964791 0.39962176895020229 0 -0.34013642781369169 0.38214078500880921 0 -0.318788832180598 0.3886333101510025 0 -0.3303427200115881 0.36236864927801288 0 -0.34013642781369169 0.38214078500880921 0 -0.318788832180598 0.3886333101510025 0 -0.3303427200115881 0.36236864927801288 0 -0.318788832180598 0.3886333101510025 0 -0.318788832180598 0.3886333101510025 0 -0.29714222675297419 0.38022222088325419 0 -0.29406718781665198 0.40009523058057211 0 -0.31287229142242762 0.37290820290685051 0 -0.318788832180598 0.3886333101510025 0 -0.29714222675297419 0.38022222088325419 0 -0.318788832180598 0.3886333101510025 0 -0.29406718781665198 0.40009523058057211 0 -0.30723494434960802 0.41489797102399201 0 -0.29714222675297419 0.38022222088325419 0 -0.29406718781665198 0.40009523058057211 0 -0.28269293765559822 0.39250193033824932 0 -0.29406718781665198 0.40009523058057211 0 -0.28269293765559822 0.39250193033824932 0 -0.27989382862225559 0.40545005626101432 0 -0.29714222675297419 0.38022222088325419 0 -0.28269293765559822 0.39250193033824932 0 -0.27892727185264499 0.38027687118235598 0 -0.27892727185264499 0.38027687118235598 0 -0.26855799847632411 0.39650854787216683 0 -0.28269293765559822 0.39250193033824932 0 -0.27892727185264499 0.38027687118235598 0 -0.26855799847632411 0.39650854787216683 0 -0.27892727185264499 0.38027687118235598 0 -0.26855799847632411 0.39650854787216683 0 -0.25613283422923111 0.39216091623459232 0 -0.2714276674763087 0.36812723166802019 0 -0.27892727185264499 0.38027687118235598 0 -0.25613283422923111 0.39216091623459232 0 -0.27989382862225559 0.40545005626101432 0 -0.26855799847632411 0.39650854787216683 0 -0.25615819412295449 0.41591874258652223 0 -0.28269293765559822 0.39250193033824932 0 -0.27989382862225559 0.40545005626101432 0 -0.26855799847632411 0.39650854787216683 0 -0.26855799847632411 0.39650854787216683 0 -0.25613283422923111 0.39216091623459232 0 -0.26855799847632411 0.39650854787216683 0 -0.25613283422923111 0.39216091623459232 0 -0.25615819412295449 0.41591874258652223 0 -0.26855799847632411 0.39650854787216683 0 -0.25615819412295449 0.41591874258652223 0 -0.2714276674763087 0.36812723166802019 0 -0.25613283422923111 0.39216091623459232 0 -0.2714276674763087 0.36812723166802019 0 -0.25613283422923111 0.39216091623459232 0 -0.2460231000790786 0.37393075161917277 0 -0.25615819412295449 0.41591874258652223 0 -0.25388069913311828 0.43903117891158872 0 -0.24375838976958461 0.43532893730087752 0 -0.25615819412295449 0.41591874258652223 0 -0.27036935360048192 0.43509565088004087 0 -0.25388069913311828 0.43903117891158872 0 -0.25613283422923111 0.39216091623459232 0 -0.25615819412295449 0.41591874258652223 0 -0.2438222341296708 0.4115052971009005 0 -0.27989382862225559 0.40545005626101432 0 -0.25615819412295449 0.41591874258652223 0 -0.27979675290022998 0.4185835597421656 0 -0.25615819412295449 0.41591874258652223 0 -0.27979675290022998 0.4185835597421656 0 -0.27036935360048192 0.43509565088004087 0 -0.27979675290022998 0.4185835597421656 0 -0.27036935360048192 0.43509565088004087 0 -0.29568105651861781 0.44116263189698168 0 -0.27979675290022998 0.4185835597421656 0 -0.30723494434960802 0.41489797102399201 0 -0.29568105651861781 0.44116263189698168 0 -0.29406718781665198 0.40009523058057211 0 -0.27989382862225559 0.40545005626101432 0 -0.27979675290022998 0.4185835597421656 0 -0.29406718781665198 0.40009523058057211 0 -0.27979675290022998 0.4185835597421656 0 -0.30723494434960802 0.41489797102399201 0 -0.32463215021007141 0.4243220483935119 0 -0.30723494434960802 0.41489797102399201 0 -0.29568105651861781 0.44116263189698168 0 -0.30723494434960802 0.41489797102399201 0 -0.29568105651861781 0.44116263189698168 0 -0.30766393081679339 0.46094382928779271 0 -0.29568105651861781 0.44116263189698168 0 -0.32300101249223689 0.44836779041384189 0 -0.30766393081679339 0.46094382928779271 0 -0.29568105651861781 0.44116263189698168 0 -0.28907918761623452 0.47021265101363813 0 -0.29568105651861781 0.44116263189698168 0 -0.27524501219726433 0.45214308988390811 0 -0.28907918761623452 0.47021265101363813 0 -0.27036935360048192 0.43509565088004087 0 -0.27524501219726433 0.45214308988390811 0 -0.26187144954376662 0.44861552423962098 0 -0.27036935360048192 0.43509565088004087 0 -0.29568105651861781 0.44116263189698168 0 -0.27524501219726433 0.45214308988390811 0 -0.27524501219726433 0.45214308988390811 0 -0.25939778154599591 0.46766266721448391 0 -0.28907918761623452 0.47021265101363813 0 -0.27524501219726433 0.45214308988390811 0 -0.25939778154599591 0.46766266721448391 0 -0.26187144954376662 0.44861552423962098 0 -0.25939778154599591 0.46766266721448391 0 -0.2415702072466622 0.46716176464722592 0 -0.25939778154599591 0.46766266721448391 0 -0.25084783260578469 0.45446288578966038 0 -0.2415702072466622 0.46716176464722592 0 -0.25939778154599591 0.46766266721448391 0 -0.25084783260578469 0.45446288578966038 0 -0.26187144954376662 0.44861552423962098 0 -0.25084783260578469 0.45446288578966038 0 -0.25388069913311828 0.43903117891158872 0 -0.24579279240924831 0.44545550951065738 0 -0.27036935360048192 0.43509565088004087 0 -0.25388069913311828 0.43903117891158872 0 -0.26187144954376662 0.44861552423962098 0 -0.25084783260578469 0.45446288578966038 0 -0.25388069913311828 0.43903117891158872 0 -0.26187144954376662 0.44861552423962098 0 -0.26319955483105661 0.5 0 -0.25120879073843522 0.48318033184719511 0 -0.27307791593346281 0.48244649368578502 0 -0.26319955483105661 0.5 0 -0.25120879073843522 0.48318033184719511 0 -0.23776950412631251 0.5 0 -0.25939778154599591 0.46766266721448391 0 -0.25120879073843522 0.48318033184719511 0 -0.2415702072466622 0.46716176464722592 0 -0.25939778154599591 0.46766266721448391 0 -0.25120879073843522 0.48318033184719511 0 -0.27307791593346281 0.48244649368578502 0 -0.25939778154599591 0.46766266721448391 0 -0.27307791593346281 0.48244649368578502 0 -0.28907918761623452 0.47021265101363813 0 -0.26319955483105661 0.5 0 -0.27307791593346281 0.48244649368578502 0 -0.28862960553580069 0.5 0 -0.28862960553580069 0.5 0 -0.28907918761623452 0.47021265101363813 0 -0.30863638686201023 0.48017506648785191 0 -0.27307791593346281 0.48244649368578502 0 -0.28862960553580069 0.5 0 -0.28907918761623452 0.47021265101363813 0 -0.30766393081679339 0.46094382928779271 0 -0.28907918761623452 0.47021265101363813 0 -0.30863638686201023 0.48017506648785191 0 -0.28862960553580069 0.5 0 -0.30863638686201023 0.48017506648785191 0 -0.31405965624054499 0.5 0 -0.32635147252958457 0.48587390449087747 0 -0.31405965624054499 0.5 0 -0.33948970694528913 0.50000000000000322 0 -0.30863638686201023 0.48017506648785191 0 -0.32635147252958457 0.48587390449087747 0 -0.31405965624054499 0.5 0 -0.32635147252958457 0.48587390449087747 0 -0.33948970694528913 0.50000000000000322 0 -0.34364993491160939 0.48008538547189089 0 -0.34364993491160939 0.48008538547189089 0 -0.32592167768846858 0.46910907049463912 0 -0.34451329815875659 0.46123354141004591 0 -0.32635147252958457 0.48587390449087747 0 -0.34364993491160939 0.48008538547189089 0 -0.32592167768846858 0.46910907049463912 0 -0.30766393081679339 0.46094382928779271 0 -0.30863638686201023 0.48017506648785191 0 -0.32592167768846858 0.46910907049463912 0 -0.30863638686201023 0.48017506648785191 0 -0.32635147252958457 0.48587390449087747 0 -0.32592167768846858 0.46910907049463912 0 -0.30766393081679339 0.46094382928779271 0 -0.32592167768846858 0.46910907049463912 0 -0.32300101249223689 0.44836779041384189 0 -0.32463215021007141 0.4243220483935119 0 -0.29568105651861781 0.44116263189698168 0 -0.32300101249223689 0.44836779041384189 0 -0.32300101249223689 0.44836779041384189 0 -0.34294597407948457 0.43836940046553158 0 -0.34451329815875659 0.46123354141004591 0 -0.32592167768846858 0.46910907049463912 0 -0.32300101249223689 0.44836779041384189 0 -0.34451329815875659 0.46123354141004591 0 -0.34451329815875659 0.46123354141004591 0 -0.36125979794889779 0.45241675253755148 0 -0.36033054763016931 0.47271488894376829 0 -0.34294597407948457 0.43836940046553158 0 -0.34451329815875659 0.46123354141004591 0 -0.36125979794889779 0.45241675253755148 0 -0.36105981966045209 0.43691742854601529 0 -0.34294597407948457 0.43836940046553158 0 -0.36125979794889779 0.45241675253755148 0 -0.34294597407948457 0.43836940046553158 0 -0.36125979794889779 0.45241675253755148 0 -0.36105981966045209 0.43691742854601529 0 -0.36125979794889779 0.45241675253755148 0 -0.37477896583113562 0.44319746245818942 0 -0.36125979794889779 0.45241675253755148 0 -0.37177404296113059 0.46843018538421222 0 -0.36033054763016931 0.47271488894376829 0 -0.37957362181831039 0.46646410460957188 0 -0.36125979794889779 0.45241675253755148 0 -0.37477896583113562 0.44319746245818942 0 -0.37957362181831039 0.46646410460957188 0 -0.36125979794889779 0.45241675253755148 0 -0.37177404296113059 0.46843018538421222 0 -0.37957362181831039 0.46646410460957188 0 -0.36125979794889779 0.45241675253755148 0 -0.36033054763016931 0.47271488894376829 0 -0.37284258001029952 0.4792311464255623 0 -0.36486969745405118 0.49071045416154729 0 -0.37727068166745942 0.47264893556906828 0 -0.37177404296113059 0.46843018538421222 0 -0.37284258001029952 0.4792311464255623 0 -0.37177404296113059 0.46843018538421222 0 -0.36033054763016931 0.47271488894376829 0 -0.37284258001029952 0.4792311464255623 0 -0.39024968796281212 0.48142090832308859 0 -0.36486969745405118 0.49071045416154729 0 -0.36940744733736541 0.5 0 -0.33948970694528913 0.50000000000000322 0 -0.36486969745405118 0.49071045416154729 0 -0.33948970694528913 0.50000000000000322 0 -0.36486969745405118 0.49071045416154729 0 -0.36940744733736541 0.5 0 -0.33948970694528913 0.50000000000000322 0 -0.34364993491160939 0.48008538547189089 0 -0.36486969745405118 0.49071045416154729 0 -0.34364993491160939 0.48008538547189089 0 -0.36033054763016931 0.47271488894376829 0 -0.36486969745405118 0.49071045416154729 0 -0.34364993491160939 0.48008538547189089 0 -0.34451329815875659 0.46123354141004591 0 -0.36033054763016931 0.47271488894376829 0 -0.1436782136542058 0.48422003666886559 0 -0.1506278400545599 0.47137287873976452 0 -0.13637930753563751 0.46988132563563528 0 -0.1506278400545599 0.47137287873976452 0 -0.15576298995963361 0.4803094215542113 0 -0.16214206079105339 0.47257270675073282 0 -0.1436782136542058 0.48422003666886559 0 -0.1506278400545599 0.47137287873976452 0 -0.15576298995963361 0.4803094215542113 0 -0.1436782136542058 0.48422003666886559 0 -0.1560104876583992 0.5 0 -0.1327934268760522 0.5 0 -0.1436782136542058 0.48422003666886559 0 -0.15576298995963361 0.4803094215542113 0 -0.1560104876583992 0.5 0 -0.1327934268760522 0.5 0 -0.13017353272746671 0.48330266525784871 0 -0.1181650350127386 0.48610645367248878 0 -0.1436782136542058 0.48422003666886559 0 -0.1327934268760522 0.5 0 -0.13017353272746671 0.48330266525784871 0 -0.13017353272746671 0.48330266525784871 0 -0.13637930753563751 0.46988132563563528 0 -0.12056819344390191 0.47241642683652102 0 -0.13637930753563751 0.46988132563563528 0 -0.12056819344390191 0.47241642683652102 0 -0.1436782136542058 0.48422003666886559 0 -0.13017353272746671 0.48330266525784871 0 -0.13637930753563751 0.46988132563563528 0 -0.13637930753563751 0.46988132563563528 0 -0.13620869205332259 0.45486918018778089 0 -0.1226927361633857 0.46018933214745478 0 -0.13620869205332259 0.45486918018778089 0 -0.120577686077101 0.44550746276719849 0 -0.1226927361633857 0.46018933214745478 0 -0.13637930753563751 0.46988132563563528 0 -0.1226927361633857 0.46018933214745478 0 -0.12056819344390191 0.47241642683652102 0 -0.13637930753563751 0.46988132563563528 0 -0.13620869205332259 0.45486918018778089 0 -0.1449880195903212 0.46187935591239893 0 -0.13620869205332259 0.45486918018778089 0 -0.14293894296835419 0.44275479514115462 0 -0.120577686077101 0.44550746276719849 0 -0.14293894296835419 0.44275479514115462 0 -0.13847433957310029 0.4268537492911661 0 -0.120577686077101 0.44550746276719849 0 -0.13620869205332259 0.45486918018778089 0 -0.14293894296835419 0.44275479514115462 0 -0.15076141868469839 0.45251643539627828 0 -0.14293894296835419 0.44275479514115462 0 -0.15076141868469839 0.45251643539627828 0 -0.15742609518037559 0.44345904886881499 0 -0.15076141868469839 0.45251643539627828 0 -0.15742609518037559 0.44345904886881499 0 -0.15833661622082759 0.45245514969510758 0 -0.14293894296835419 0.44275479514115462 0 -0.15742609518037559 0.44345904886881499 0 -0.15418542624152709 0.43332289433568888 0 -0.1506278400545599 0.47137287873976452 0 -0.13637930753563751 0.46988132563563528 0 -0.1449880195903212 0.46187935591239893 0 -0.13620869205332259 0.45486918018778089 0 -0.15076141868469839 0.45251643539627828 0 -0.1449880195903212 0.46187935591239893 0 -0.15076141868469839 0.45251643539627828 0 -0.15900881155023111 0.4604068165871042 0 -0.15833661622082759 0.45245514969510758 0 -0.15076141868469839 0.45251643539627828 0 -0.1449880195903212 0.46187935591239893 0 -0.15900881155023111 0.4604068165871042 0 -0.1506278400545599 0.47137287873976452 0 -0.1449880195903212 0.46187935591239893 0 -0.15900881155023111 0.4604068165871042 0 -0.15900881155023111 0.4604068165871042 0 -0.16944693403642369 0.46513531213588222 0 -0.16214206079105339 0.47257270675073282 0 -0.1506278400545599 0.47137287873976452 0 -0.15900881155023111 0.4604068165871042 0 -0.16214206079105339 0.47257270675073282 0 -0.15900881155023111 0.4604068165871042 0 -0.16648901584093229 0.45768596378464121 0 -0.15833661622082759 0.45245514969510758 0 -0.16648901584093229 0.45768596378464121 0 -0.15833661622082759 0.45245514969510758 0 -0.16567536555905049 0.45057628519778598 0 -0.16648901584093229 0.45768596378464121 0 -0.16567536555905049 0.45057628519778598 0 -0.17488604659981169 0.45481602994646458 0 -0.16648901584093229 0.45768596378464121 0 -0.16944693403642369 0.46513531213588222 0 -0.17488604659981169 0.45481602994646458 0 -0.15900881155023111 0.4604068165871042 0 -0.16648901584093229 0.45768596378464121 0 -0.16944693403642369 0.46513531213588222 0 -0.15742609518037559 0.44345904886881499 0 -0.1657535245793747 0.44317131439874968 0 -0.16541551973491761 0.43582437834574372 0 -0.15742609518037559 0.44345904886881499 0 -0.16541551973491761 0.43582437834574372 0 -0.15418542624152709 0.43332289433568888 0 -0.15742609518037559 0.44345904886881499 0 -0.16567536555905049 0.45057628519778598 0 -0.1657535245793747 0.44317131439874968 0 -0.15742609518037559 0.44345904886881499 0 -0.15833661622082759 0.45245514969510758 0 -0.16567536555905049 0.45057628519778598 0 -0.16567536555905049 0.45057628519778598 0 -0.1657535245793747 0.44317131439874968 0 -0.1737576873371813 0.44301398294784111 0 -0.16567536555905049 0.45057628519778598 0 -0.1737576873371813 0.44301398294784111 0 -0.17488604659981169 0.45481602994646458 0 -0.1657535245793747 0.44317131439874968 0 -0.1737576873371813 0.44301398294784111 0 -0.16541551973491761 0.43582437834574372 0 -0.1737576873371813 0.44301398294784111 0 -0.18390790890541231 0.44670438243721489 0 -0.17488604659981169 0.45481602994646458 0 -0.18390790890541231 0.44670438243721489 0 -0.18370406953841961 0.45683416585590408 0 -0.193684674658574 0.45161701765203333 0 -0.18390790890541231 0.44670438243721489 0 -0.17488604659981169 0.45481602994646458 0 -0.18370406953841961 0.45683416585590408 0 -0.18390790890541231 0.44670438243721489 0 -0.19304597632205919 0.44176960087071421 0 -0.18284098386406331 0.43169642736569558 0 -0.1737576873371813 0.44301398294784111 0 -0.18390790890541231 0.44670438243721489 0 -0.18284098386406331 0.43169642736569558 0 -0.16944693403642369 0.46513531213588222 0 -0.19659478349187609 0.46589808710792507 0 -0.16944693403642369 0.46513531213588222 0 -0.17728298677033019 0.46788400211347009 0 -0.19659478349187609 0.46589808710792507 0 -0.16944693403642369 0.46513531213588222 0 -0.18370406953841961 0.45683416585590408 0 -0.19659478349187609 0.46589808710792507 0 -0.16944693403642369 0.46513531213588222 0 -0.17488604659981169 0.45481602994646458 0 -0.18370406953841961 0.45683416585590408 0 -0.17728298677033019 0.46788400211347009 0 -0.19169030190198569 0.48108285945759688 0 -0.17728298677033019 0.46788400211347009 0 -0.1783948859090406 0.48082933086716578 0 -0.19169030190198569 0.48108285945759688 0 -0.1783948859090406 0.48082933086716578 0 -0.17088750322528229 0.47380966518303058 0 -0.16711828592019029 0.48440214630440442 0 -0.17728298677033019 0.46788400211347009 0 -0.1783948859090406 0.48082933086716578 0 -0.17088750322528229 0.47380966518303058 0 -0.16944693403642369 0.46513531213588222 0 -0.17728298677033019 0.46788400211347009 0 -0.17088750322528229 0.47380966518303058 0 -0.16944693403642369 0.46513531213588222 0 -0.17088750322528229 0.47380966518303058 0 -0.16214206079105339 0.47257270675073282 0 -0.17088750322528229 0.47380966518303058 0 -0.16214206079105339 0.47257270675073282 0 -0.16711828592019029 0.48440214630440442 0 -0.15576298995963361 0.4803094215542113 0 -0.16214206079105339 0.47257270675073282 0 -0.16711828592019029 0.48440214630440442 0 -0.1560104876583992 0.5 0 -0.16711828592019029 0.48440214630440442 0 -0.17922754844074629 0.5 0 -0.15576298995963361 0.4803094215542113 0 -0.1560104876583992 0.5 0 -0.16711828592019029 0.48440214630440442 0 -0.1783948859090406 0.48082933086716578 0 -0.16711828592019029 0.48440214630440442 0 -0.17922754844074629 0.5 0 -0.1783948859090406 0.48082933086716578 0 -0.17922754844074629 0.5 0 -0.19169030190198569 0.48108285945759688 0 -0.17922754844074629 0.5 0 -0.2024446092230934 0.50000000000000044 0 -0.19169030190198569 0.48108285945759688 0 -0.2024446092230934 0.50000000000000044 0 -0.19169030190198569 0.48108285945759688 0 -0.2060976170336411 0.49428171680172378 0 -0.19169030190198569 0.48108285945759688 0 -0.2060976170336411 0.49428171680172378 0 -0.19169030190198569 0.48108285945759688 0 -0.20232570685449691 0.48043348820202292 0 -0.2060976170336411 0.49428171680172378 0 -0.17728298677033019 0.46788400211347009 0 -0.19169030190198569 0.48108285945759688 0 -0.19659478349187609 0.46589808710792507 0 -0.19169030190198569 0.48108285945759688 0 -0.20232570685449691 0.48043348820202292 0 -0.19659478349187609 0.46589808710792507 0 -0.21492012499048499 0.48047128944084622 0 -0.22374263294732849 0.46666086207996832 0 -0.19659478349187609 0.46589808710792507 0 -0.20232570685449691 0.48043348820202292 0 -0.21492012499048499 0.48047128944084622 0 -0.19659478349187609 0.46589808710792507 0 -0.2060976170336411 0.49428171680172378 0 -0.2123394534215684 0.50000000000000056 0 -0.2227817955754906 0.49144506008682348 0 -0.21492012499048499 0.48047128944084622 0 -0.2060976170336411 0.49428171680172378 0 -0.2227817955754906 0.49144506008682348 0 -0.2024446092230934 0.50000000000000044 0 -0.2060976170336411 0.49428171680172378 0 -0.2123394534215684 0.50000000000000056 0 -0.2060976170336411 0.49428171680172378 0 -0.2123394534215684 0.50000000000000056 0 -0.2024446092230934 0.50000000000000044 0 -0.2060976170336411 0.49428171680172378 0 -0.20232570685449691 0.48043348820202292 0 -0.21492012499048499 0.48047128944084622 0 -0.2060976170336411 0.49428171680172378 0 -0.21492012499048499 0.48047128944084622 0 -0.2060976170336411 0.49428171680172378 0 -0.2227817955754906 0.49144506008682348 0 -0.2322377807471214 0.48181106553567538 0 -0.23776950412631251 0.5 0 -0.2123394534215684 0.50000000000000056 0 -0.2227817955754906 0.49144506008682348 0 -0.23776950412631251 0.5 0 -0.21492012499048499 0.48047128944084622 0 -0.2227817955754906 0.49144506008682348 0 -0.2322377807471214 0.48181106553567538 0 -0.21492012499048499 0.48047128944084622 0 -0.2322377807471214 0.48181106553567538 0 -0.22374263294732849 0.46666086207996832 0 -0.2322377807471214 0.48181106553567538 0 -0.2415702072466622 0.46716176464722592 0 -0.22374263294732849 0.46666086207996832 0 -0.21492012499048499 0.48047128944084622 0 -0.22374263294732849 0.46666086207996832 0 -0.25120879073843522 0.48318033184719511 0 -0.2322377807471214 0.48181106553567538 0 -0.2415702072466622 0.46716176464722592 0 -0.25120879073843522 0.48318033184719511 0 -0.2322377807471214 0.48181106553567538 0 -0.23776950412631251 0.5 0 -0.23375051135845731 0.45099489969042322 0 -0.2315116340301086 0.43084967796720741 0 -0.24375838976958461 0.43532893730087752 0 -0.25084783260578469 0.45446288578966038 0 -0.24579279240924831 0.44545550951065738 0 -0.23375051135845731 0.45099489969042322 0 -0.24579279240924831 0.44545550951065738 0 -0.23375051135845731 0.45099489969042322 0 -0.24375838976958461 0.43532893730087752 0 -0.23375051135845731 0.45099489969042322 0 -0.24375838976958461 0.43532893730087752 0 -0.25388069913311828 0.43903117891158872 0 -0.24579279240924831 0.44545550951065738 0 -0.24375838976958461 0.43532893730087752 0 -0.25084783260578469 0.45446288578966038 0 -0.2415702072466622 0.46716176464722592 0 -0.23375051135845731 0.45099489969042322 0 -0.2415702072466622 0.46716176464722592 0 -0.22374263294732849 0.46666086207996832 0 -0.22374263294732849 0.46666086207996832 0 -0.22152472570462661 0.44654270322695011 0 -0.23375051135845731 0.45099489969042322 0 -0.22374263294732849 0.46666086207996832 0 -0.22152472570462661 0.44654270322695011 0 -0.21153781737914451 0.46223572848669281 0 -0.2415702072466622 0.46716176464722592 0 -0.22374263294732849 0.46666086207996832 0 -0.23375051135845731 0.45099489969042322 0 -0.22374263294732849 0.46666086207996832 0 -0.23375051135845731 0.45099489969042322 0 -0.22152472570462661 0.44654270322695011 0 -0.23375051135845731 0.45099489969042322 0 -0.2315116340301086 0.43084967796720741 0 -0.22152472570462661 0.44654270322695011 0 -0.21296546783708459 0.43821923963809328 0 -0.2315116340301086 0.43084967796720741 0 -0.22152472570462661 0.44654270322695011 0 -0.2315116340301086 0.43084967796720741 0 -0.22152472570462661 0.44654270322695011 0 -0.2101176524450262 0.45016870951513782 0 -0.21153781737914451 0.46223572848669281 0 -0.22152472570462661 0.44654270322695011 0 -0.21296546783708459 0.43821923963809328 0 -0.2101176524450262 0.45016870951513782 0 -0.2101176524450262 0.45016870951513782 0 -0.2028061792924935 0.45607699340380697 0 -0.20243213544421379 0.44535152801554317 0 -0.21296546783708459 0.43821923963809328 0 -0.20243213544421379 0.44535152801554317 0 -0.19821672856980191 0.43249327143079208 0 -0.21296546783708459 0.43821923963809328 0 -0.2101176524450262 0.45016870951513782 0 -0.20243213544421379 0.44535152801554317 0 -0.22374263294732849 0.46666086207996832 0 -0.19659478349187609 0.46589808710792507 0 -0.22152472570462661 0.44654270322695011 0 -0.21153781737914451 0.46223572848669281 0 -0.22374263294732849 0.46666086207996832 0 -0.21153781737914451 0.46223572848669281 0 -0.19659478349187609 0.46589808710792507 0 -0.2101176524450262 0.45016870951513782 0 -0.21153781737914451 0.46223572848669281 0 -0.2028061792924935 0.45607699340380697 0 -0.21153781737914451 0.46223572848669281 0 -0.19659478349187609 0.46589808710792507 0 -0.2028061792924935 0.45607699340380697 0 -0.19659478349187609 0.46589808710792507 0 -0.2028061792924935 0.45607699340380697 0 -0.193684674658574 0.45161701765203333 0 -0.18370406953841961 0.45683416585590408 0 -0.19659478349187609 0.46589808710792507 0 -0.193684674658574 0.45161701765203333 0 -0.20243213544421379 0.44535152801554317 0 -0.19304597632205919 0.44176960087071421 0 -0.19821672856980191 0.43249327143079208 0 -0.2028061792924935 0.45607699340380697 0 -0.20243213544421379 0.44535152801554317 0 -0.193684674658574 0.45161701765203333 0 -0.20243213544421379 0.44535152801554317 0 -0.193684674658574 0.45161701765203333 0 -0.19304597632205919 0.44176960087071421 0 -0.18390790890541231 0.44670438243721489 0 -0.193684674658574 0.45161701765203333 0 -0.19304597632205919 0.44176960087071421 0 -0.19821672856980191 0.43249327143079208 0 -0.18817332729089051 0.41499866247406858 0 -0.20984248066049971 0.42292417022063772 0 -0.19821672856980191 0.43249327143079208 0 -0.18817332729089051 0.41499866247406858 0 -0.18284098386406331 0.43169642736569558 0 -0.19304597632205919 0.44176960087071421 0 -0.19821672856980191 0.43249327143079208 0 -0.18284098386406331 0.43169642736569558 0 -0.18817332729089051 0.41499866247406858 0 -0.20984248066049971 0.42292417022063772 0 -0.2080778918139721 0.40621147672409791 0 -0.18817332729089051 0.41499866247406858 0 -0.2080778918139721 0.40621147672409791 0 -0.1933275139795135 0.40140124271617361 0 -0.18817332729089051 0.41499866247406858 0 -0.20984248066049971 0.42292417022063772 0 -0.20984248066049971 0.42292417022063772 0 -0.22491423432169641 0.41423233859347469 0 -0.2080778918139721 0.40621147672409791 0 -0.22491423432169641 0.41423233859347469 0 -0.2227593928087834 0.40037379806053641 0 -0.2080778918139721 0.40621147672409791 0 -0.21296546783708459 0.43821923963809328 0 -0.20984248066049971 0.42292417022063772 0 -0.2315116340301086 0.43084967796720741 0 -0.21296546783708459 0.43821923963809328 0 -0.19821672856980191 0.43249327143079208 0 -0.20984248066049971 0.42292417022063772 0 -0.20984248066049971 0.42292417022063772 0 -0.2315116340301086 0.43084967796720741 0 -0.22491423432169641 0.41423233859347469 0 -0.20984248066049971 0.42292417022063772 0 -0.2315116340301086 0.43084967796720741 0 -0.2315116340301086 0.43084967796720741 0 -0.22491423432169641 0.41423233859347469 0 -0.2438222341296708 0.4115052971009005 0 -0.2315116340301086 0.43084967796720741 0 -0.2438222341296708 0.4115052971009005 0 -0.25615819412295449 0.41591874258652223 0 -0.2438222341296708 0.4115052971009005 0 -0.24375838976958461 0.43532893730087752 0 -0.22491423432169641 0.41423233859347469 0 -0.2438222341296708 0.4115052971009005 0 -0.23597913251922281 0.39914365332922241 0 -0.25615819412295449 0.41591874258652223 0 -0.24375838976958461 0.43532893730087752 0 -0.2315116340301086 0.43084967796720741 0 -0.2438222341296708 0.4115052971009005 0 -0.24375838976958461 0.43532893730087752 0 -0.25388069913311828 0.43903117891158872 0 -0.24375838976958461 0.43532893730087752 0 -0.2315116340301086 0.43084967796720741 0 -0.24375838976958461 0.43532893730087752 0 -0.25613283422923111 0.39216091623459232 0 -0.23837568345553989 0.3859475939024577 0 -0.23837568345553989 0.3859475939024577 0 -0.22061853268184831 0.37973427157032458 0 -0.2460231000790786 0.37393075161917277 0 -0.25613283422923111 0.39216091623459232 0 -0.23837568345553989 0.3859475939024577 0 -0.2460231000790786 0.37393075161917277 0 -0.25613283422923111 0.39216091623459232 0 -0.23837568345553989 0.3859475939024577 0 -0.23597913251922281 0.39914365332922241 0 -0.25613283422923111 0.39216091623459232 0 -0.2438222341296708 0.4115052971009005 0 -0.25613283422923111 0.39216091623459232 0 -0.2438222341296708 0.4115052971009005 0 -0.23597913251922281 0.39914365332922241 0 -0.23597913251922281 0.39914365332922241 0 -0.2227593928087834 0.40037379806053641 0 -0.22462253518840089 0.39066436965899032 0 -0.23837568345553989 0.3859475939024577 0 -0.23597913251922281 0.39914365332922241 0 -0.22462253518840089 0.39066436965899032 0 -0.22491423432169641 0.41423233859347469 0 -0.23597913251922281 0.39914365332922241 0 -0.2227593928087834 0.40037379806053641 0 -0.2227593928087834 0.40037379806053641 0 -0.22462253518840089 0.39066436965899032 0 -0.21458830996996259 0.39299096005305401 0 -0.22462253518840089 0.39066436965899032 0 -0.2173157160084658 0.38564624331732489 0 -0.21458830996996259 0.39299096005305401 0 -0.22462253518840089 0.39066436965899032 0 -0.22061853268184831 0.37973427157032458 0 -0.2173157160084658 0.38564624331732489 0 -0.22946160045274969 0.37555038649799571 0 -0.22061853268184831 0.37973427157032458 0 -0.2460231000790786 0.37393075161917277 0 -0.22061853268184831 0.37973427157032458 0 -0.2460231000790786 0.37393075161917277 0 -0.23837568345553989 0.3859475939024577 0 -0.22061853268184831 0.37973427157032458 0 -0.23837568345553989 0.3859475939024577 0 -0.22462253518840089 0.39066436965899032 0 -0.22061853268184831 0.37973427157032458 0 -0.22061853268184831 0.37973427157032458 0 -0.21792025010357241 0.38035067792482202 0 -0.22061853268184831 0.37973427157032458 0 -0.21792025010357241 0.38035067792482202 0 -0.2037700009656972 0.37383887992164022 0 -0.22061853268184831 0.37973427157032458 0 -0.2037700009656972 0.37383887992164022 0 -0.22061853268184831 0.37973427157032458 0 -0.21792025010357241 0.38035067792482202 0 -0.2173157160084658 0.38564624331732489 0 -0.21792025010357241 0.38035067792482202 0 -0.2173157160084658 0.38564624331732489 0 -0.20882895209854449 0.38449093737943468 0 -0.2173157160084658 0.38564624331732489 0 -0.20882895209854449 0.38449093737943468 0 -0.21458830996996259 0.39299096005305401 0 -0.20882895209854449 0.38449093737943468 0 -0.20352166581004799 0.39328585865271493 0 -0.20025696601511639 0.38530181315882578 0 -0.20882895209854449 0.38449093737943468 0 -0.21458830996996259 0.39299096005305401 0 -0.20352166581004799 0.39328585865271493 0 -0.21792025010357241 0.38035067792482202 0 -0.20882895209854449 0.38449093737943468 0 -0.2037700009656972 0.37383887992164022 0 -0.20882895209854449 0.38449093737943468 0 -0.20025696601511639 0.38530181315882578 0 -0.2037700009656972 0.37383887992164022 0 -0.2227593928087834 0.40037379806053641 0 -0.21458830996996259 0.39299096005305401 0 -0.2080778918139721 0.40621147672409791 0 -0.21458830996996259 0.39299096005305401 0 -0.20352166581004799 0.39328585865271493 0 -0.2080778918139721 0.40621147672409791 0 -0.20352166581004799 0.39328585865271493 0 -0.2080778918139721 0.40621147672409791 0 -0.1933275139795135 0.40140124271617361 0 -0.20352166581004799 0.39328585865271493 0 -0.19423353983585909 0.39157888812920189 0 -0.1933275139795135 0.40140124271617361 0 -0.19423353983585909 0.39157888812920189 0 -0.1933275139795135 0.40140124271617361 0 -0.18404541465797819 0.39148981957069617 0 -0.20025696601511639 0.38530181315882578 0 -0.191171337851958 0.38249839517522638 0 -0.2037700009656972 0.37383887992164022 0 -0.20352166581004799 0.39328585865271493 0 -0.19423353983585909 0.39157888812920189 0 -0.20025696601511639 0.38530181315882578 0 -0.19423353983585909 0.39157888812920189 0 -0.191171337851958 0.38249839517522638 0 -0.18404541465797819 0.39148981957069617 0 -0.19423353983585909 0.39157888812920189 0 -0.20025696601511639 0.38530181315882578 0 -0.191171337851958 0.38249839517522638 0 -0.191171337851958 0.38249839517522638 0 -0.18827341652571961 0.37482666901638878 0 -0.2037700009656972 0.37383887992164022 0 -0.191171337851958 0.38249839517522638 0 -0.17842853968084141 0.37850222178096282 0 -0.18827341652571961 0.37482666901638878 0 -0.191171337851958 0.38249839517522638 0 -0.17842853968084141 0.37850222178096282 0 -0.18404541465797819 0.39148981957069617 0 -0.17842853968084141 0.37850222178096282 0 -0.17171947397181661 0.38686736691741641 0 -0.18404541465797819 0.39148981957069617 0 -0.16184006952959709 0.37586212036549399 0 -0.17171947397181661 0.38686736691741641 0 -0.16237158390748591 0.39248234874691201 0 -0.17842853968084141 0.37850222178096282 0 -0.16184006952959709 0.37586212036549399 0 -0.17171947397181661 0.38686736691741641 0 -0.1626015871720416 0.4009575932343058 0 -0.16061471352705051 0.40749780870363761 0 -0.15363698222674221 0.39870045317569591 0 -0.1626015871720416 0.4009575932343058 0 -0.16650417392128139 0.40707315472749939 0 -0.16061471352705051 0.40749780870363761 0 -0.1626015871720416 0.4009575932343058 0 -0.16237158390748591 0.39248234874691201 0 -0.15363698222674221 0.39870045317569591 0 -0.1626015871720416 0.4009575932343058 0 -0.16237158390748591 0.39248234874691201 0 -0.16891916242552249 0.39944635973781462 0 -0.16237158390748591 0.39248234874691201 0 -0.16891916242552249 0.39944635973781462 0 -0.17394484985388789 0.39485280082274749 0 -0.17171947397181661 0.38686736691741641 0 -0.16237158390748591 0.39248234874691201 0 -0.17394484985388789 0.39485280082274749 0 -0.16891916242552249 0.39944635973781462 0 -0.17917361727291531 0.40186590115760801 0 -0.16650417392128139 0.40707315472749939 0 -0.1626015871720416 0.4009575932343058 0 -0.16891916242552249 0.39944635973781462 0 -0.16650417392128139 0.40707315472749939 0 -0.16891916242552249 0.39944635973781462 0 -0.17917361727291531 0.40186590115760801 0 -0.17394484985388789 0.39485280082274749 0 -0.17917361727291531 0.40186590115760801 0 -0.17394484985388789 0.39485280082274749 0 -0.18404541465797819 0.39148981957069617 0 -0.17171947397181661 0.38686736691741641 0 -0.17394484985388789 0.39485280082274749 0 -0.18404541465797819 0.39148981957069617 0 -0.1933275139795135 0.40140124271617361 0 -0.17917361727291531 0.40186590115760801 0 -0.18404541465797819 0.39148981957069617 0 -0.18817332729089051 0.41499866247406858 0 -0.1933275139795135 0.40140124271617361 0 -0.17917361727291531 0.40186590115760801 0 -0.18817332729089051 0.41499866247406858 0 -0.16650417392128139 0.40707315472749939 0 -0.18817332729089051 0.41499866247406858 0 -0.17741268235950911 0.4238888247322018 0 -0.1717572381778322 0.41661956236072972 0 -0.18817332729089051 0.41499866247406858 0 -0.17917361727291531 0.40186590115760801 0 -0.16650417392128139 0.40707315472749939 0 -0.18817332729089051 0.41499866247406858 0 -0.16650417392128139 0.40707315472749939 0 -0.1717572381778322 0.41661956236072972 0 -0.18817332729089051 0.41499866247406858 0 -0.18284098386406331 0.43169642736569558 0 -0.17741268235950911 0.4238888247322018 0 -0.18284098386406331 0.43169642736569558 0 -0.17741268235950911 0.4238888247322018 0 -0.17354025424257441 0.43206780744654688 0 -0.17741268235950911 0.4238888247322018 0 -0.16827439791720081 0.42591542384125242 0 -0.1717572381778322 0.41661956236072972 0 -0.17741268235950911 0.4238888247322018 0 -0.17354025424257441 0.43206780744654688 0 -0.16827439791720081 0.42591542384125242 0 -0.1737576873371813 0.44301398294784111 0 -0.18284098386406331 0.43169642736569558 0 -0.17354025424257441 0.43206780744654688 0 -0.1737576873371813 0.44301398294784111 0 -0.17354025424257441 0.43206780744654688 0 -0.16541551973491761 0.43582437834574372 0 -0.16541551973491761 0.43582437834574372 0 -0.16827439791720081 0.42591542384125242 0 -0.1618211354566505 0.42960455317514229 0 -0.17354025424257441 0.43206780744654688 0 -0.16541551973491761 0.43582437834574372 0 -0.16827439791720081 0.42591542384125242 0 -0.16827439791720081 0.42591542384125242 0 -0.1618211354566505 0.42960455317514229 0 -0.15816158949860951 0.42441348555952502 0 -0.16827439791720081 0.42591542384125242 0 -0.15816158949860951 0.42441348555952502 0 -0.16364451541950709 0.41919738588473288 0 -0.1618211354566505 0.42960455317514229 0 -0.15816158949860951 0.42441348555952502 0 -0.15418542624152709 0.43332289433568888 0 -0.16541551973491761 0.43582437834574372 0 -0.1618211354566505 0.42960455317514229 0 -0.15418542624152709 0.43332289433568888 0 -0.16650417392128139 0.40707315472749939 0 -0.1717572381778322 0.41661956236072972 0 -0.16334387444018439 0.41241971768421348 0 -0.1717572381778322 0.41661956236072972 0 -0.16364451541950709 0.41919738588473288 0 -0.16334387444018439 0.41241971768421348 0 -0.16827439791720081 0.42591542384125242 0 -0.1717572381778322 0.41661956236072972 0 -0.16364451541950709 0.41919738588473288 0 -0.16364451541950709 0.41919738588473288 0 -0.15668547706370831 0.41661873997794352 0 -0.16334387444018439 0.41241971768421348 0 -0.15816158949860951 0.42441348555952502 0 -0.16364451541950709 0.41919738588473288 0 -0.15668547706370831 0.41661873997794352 0 -0.15668547706370831 0.41661873997794352 0 -0.15925376452501069 0.41118407554523212 0 -0.16334387444018439 0.41241971768421348 0 -0.15668547706370831 0.41661873997794352 0 -0.15925376452501069 0.41118407554523212 0 -0.15637099306909971 0.4082000358151337 0 -0.15925376452501069 0.41118407554523212 0 -0.16334387444018439 0.41241971768421348 0 -0.16061471352705051 0.40749780870363761 0 -0.16650417392128139 0.40707315472749939 0 -0.16334387444018439 0.41241971768421348 0 -0.16061471352705051 0.40749780870363761 0 -0.15925376452501069 0.41118407554523212 0 -0.16061471352705051 0.40749780870363761 0 -0.15637099306909971 0.4082000358151337 0 -0.15637099306909971 0.4082000358151337 0 -0.13847433957310029 0.4268537492911661 0 -0.14346653966216041 0.40345905553614209 0 -0.15637099306909971 0.4082000358151337 0 -0.13847433957310029 0.4268537492911661 0 -0.16061471352705051 0.40749780870363761 0 -0.15637099306909971 0.4082000358151337 0 -0.14346653966216041 0.40345905553614209 0 -0.15668547706370831 0.41661873997794352 0 -0.15637099306909971 0.4082000358151337 0 -0.13847433957310029 0.4268537492911661 0 -0.15816158949860951 0.42441348555952502 0 -0.15668547706370831 0.41661873997794352 0 -0.13847433957310029 0.4268537492911661 0 -0.15816158949860951 0.42441348555952502 0 -0.15418542624152709 0.43332289433568888 0 -0.13847433957310029 0.4268537492911661 0 -0.14293894296835419 0.44275479514115462 0 -0.15418542624152709 0.43332289433568888 0 -0.13847433957310029 0.4268537492911661 0 -0.13847433957310029 0.4268537492911661 0 -0.12633325125609221 0.41404438953313022 0 -0.1136270340742794 0.42670956174220592 0 -0.13847433957310029 0.4268537492911661 0 -0.120577686077101 0.44550746276719849 0 -0.13847433957310029 0.4268537492911661 0 -0.12633325125609221 0.41404438953313022 0 -0.14346653966216041 0.40345905553614209 0 -0.12633325125609221 0.41404438953313022 0 -0.12631836579727029 0.3994203023686459 0 -0.14346653966216041 0.40345905553614209 0 -0.12631836579727029 0.3994203023686459 0 -0.14407921766343351 0.38764121136706953 0 -0.12631836579727029 0.3994203023686459 0 -0.14407921766343351 0.38764121136706953 0 -0.14346653966216041 0.40345905553614209 0 -0.12631836579727029 0.3994203023686459 0 -0.14346653966216041 0.40345905553614209 0 -0.12631836579727029 0.3994203023686459 0 -0.12530638115733009 0.37861469596271691 0 -0.14407921766343351 0.38764121136706953 0 -0.12530638115733009 0.37861469596271691 0 -0.14407921766343351 0.38764121136706953 0 -0.14064382367780179 0.37123678973703811 0 -0.16184006952959709 0.37586212036549399 0 -0.16237158390748591 0.39248234874691201 0 -0.14407921766343351 0.38764121136706953 0 -0.16184006952959709 0.37586212036549399 0 -0.14407921766343351 0.38764121136706953 0 -0.14064382367780179 0.37123678973703811 0 -0.16184006952959709 0.37586212036549399 0 -0.14407921766343351 0.38764121136706953 0 -0.16061471352705051 0.40749780870363761 0 -0.14346653966216041 0.40345905553614209 0 -0.15363698222674221 0.39870045317569591 0 -0.14407921766343351 0.38764121136706953 0 -0.14346653966216041 0.40345905553614209 0 -0.15363698222674221 0.39870045317569591 0 -0.16237158390748591 0.39248234874691201 0 -0.14407921766343351 0.38764121136706953 0 -0.15363698222674221 0.39870045317569591 0 -0.16061471352705051 0.40749780870363761 0 -0.14346653966216041 0.40345905553614209 0 -0.15263620149840521 0.34559532630957362 0 -0.14873012954908091 0.35902717545622448 0 -0.12843269758859041 0.34852080366790061 0 -0.15263620149840521 0.34559532630957362 0 -0.14873012954908091 0.35902717545622448 0 -0.16231402649499721 0.35854044204207991 0 -0.16184006952959709 0.37586212036549399 0 -0.14873012954908091 0.35902717545622448 0 -0.14064382367780179 0.37123678973703811 0 -0.14873012954908091 0.35902717545622448 0 -0.14064382367780179 0.37123678973703811 0 -0.12843269758859041 0.34852080366790061 0 -0.12530638115733009 0.37861469596271691 0 -0.14064382367780179 0.37123678973703811 0 -0.12843269758859041 0.34852080366790061 0 -0.12843269758859041 0.34852080366790061 0 -0.14826046000850521 0.33087516718336252 0 -0.1245297280895879 0.33029818763029228 0 -0.12843269758859041 0.34852080366790061 0 -0.14826046000850521 0.33087516718336252 0 -0.1346367300102593 0.31958270839691688 0 -0.14826046000850521 0.33087516718336252 0 -0.1245297280895879 0.33029818763029228 0 -0.1346367300102593 0.31958270839691688 0 -0.14625573389748439 0.31808577253244968 0 -0.14088890766651041 0.30255832207272548 0 -0.1346367300102593 0.31958270839691688 0 -0.121013000012014 0.30829024961047058 0 -0.1346367300102593 0.31958270839691688 0 -0.121013000012014 0.30829024961047058 0 -0.1219008421362526 0.31580467385102828 0 -0.1346367300102593 0.31958270839691688 0 -0.1219008421362526 0.31580467385102828 0 -0.1245297280895879 0.33029818763029228 0 -0.14625573389748439 0.31808577253244968 0 -0.16123683790466309 0.31932689247679358 0 -0.14088890766651041 0.30255832207272548 0 -0.1346367300102593 0.31958270839691688 0 -0.14826046000850521 0.33087516718336252 0 -0.1346367300102593 0.31958270839691688 0 -0.14625573389748439 0.31808577253244968 0 -0.14826046000850521 0.33087516718336252 0 -0.14625573389748439 0.31808577253244968 0 -0.14826046000850521 0.33087516718336252 0 -0.16123683790466309 0.31932689247679358 0 -0.14826046000850521 0.33087516718336252 0 -0.16123683790466309 0.31932689247679358 0 -0.15263620149840521 0.34559532630957362 0 -0.14826046000850521 0.33087516718336252 0 -0.16755032121442859 0.34686417773276529 0 -0.15263620149840521 0.34559532630957362 0 -0.12843269758859041 0.34852080366790061 0 -0.14826046000850521 0.33087516718336252 0 -0.14826046000850521 0.33087516718336252 0 -0.16510289805330131 0.33718696048106628 0 -0.16755032121442859 0.34686417773276529 0 -0.14826046000850521 0.33087516718336252 0 -0.16510289805330131 0.33718696048106628 0 -0.16123683790466309 0.31932689247679358 0 -0.16510289805330131 0.33718696048106628 0 -0.16123683790466309 0.31932689247679358 0 -0.17903341924719679 0.33399291618049981 0 -0.14826046000850521 0.33087516718336252 0 -0.16755032121442859 0.34686417773276529 0 -0.16510289805330131 0.33718696048106628 0 -0.17446627127186959 0.34220626244336227 0 -0.16755032121442859 0.34686417773276529 0 -0.16123683790466309 0.31932689247679358 0 -0.17903341924719679 0.33399291618049981 0 -0.1716345267548989 0.31007351159371721 0 -0.16123683790466309 0.31932689247679358 0 -0.17903341924719679 0.33399291618049981 0 -0.16123683790466309 0.31932689247679358 0 -0.1716345267548989 0.31007351159371721 0 -0.16123683790466309 0.31932689247679358 0 -0.1716345267548989 0.31007351159371721 0 -0.17077755675466941 0.30857201773175691 0 -0.1845628143512105 0.33272511487775458 0 -0.19193644689038281 0.32780269276328461 0 -0.1716345267548989 0.31007351159371721 0 -0.19193644689038281 0.32780269276328461 0 -0.17077755675466941 0.30857201773175691 0 -0.17903341924719679 0.33399291618049981 0 -0.1845628143512105 0.33272511487775458 0 -0.1716345267548989 0.31007351159371721 0 -0.1845628143512105 0.33272511487775458 0 -0.1716345267548989 0.31007351159371721 0 -0.19193644689038281 0.32780269276328461 0 -0.19193123229020809 0.31830056414075331 0 -0.17077755675466941 0.30857201773175691 0 -0.19193644689038281 0.32780269276328461 0 -0.1716345267548989 0.31007351159371721 0 -0.17077755675466941 0.30857201773175691 0 -0.17903341924719679 0.33399291618049981 0 -0.1958428129823814 0.34784540628633132 0 -0.18756605885428329 0.33798708809283362 0 -0.17903341924719679 0.33399291618049981 0 -0.1958428129823814 0.34784540628633132 0 -0.16510289805330131 0.33718696048106628 0 -0.17446627127186959 0.34220626244336227 0 -0.17903341924719679 0.33399291618049981 0 -0.17446627127186959 0.34220626244336227 0 -0.17903341924719679 0.33399291618049981 0 -0.1816215216896902 0.34951863202477362 0 -0.16510289805330131 0.33718696048106628 0 -0.17903341924719679 0.33399291618049981 0 -0.17903341924719679 0.33399291618049981 0 -0.1845628143512105 0.33272511487775458 0 -0.17903341924719679 0.33399291618049981 0 -0.1845628143512105 0.33272511487775458 0 -0.18756605885428329 0.33798708809283362 0 -0.1845628143512105 0.33272511487775458 0 -0.18756605885428329 0.33798708809283362 0 -0.1816215216896902 0.34951863202477362 0 -0.16755032121442859 0.34686417773276529 0 -0.18684018242035241 0.36285318828216773 0 -0.16755032121442859 0.34686417773276529 0 -0.17371126289566949 0.36032263094025829 0 -0.18684018242035241 0.36285318828216773 0 -0.16755032121442859 0.34686417773276529 0 -0.18684018242035241 0.36285318828216773 0 -0.17903341924719679 0.33399291618049981 0 -0.1816215216896902 0.34951863202477362 0 -0.1958428129823814 0.34784540628633132 0 -0.1816215216896902 0.34951863202477362 0 -0.18684018242035241 0.36285318828216773 0 -0.18962449830652259 0.35443445546310193 0 -0.17446627127186959 0.34220626244336227 0 -0.1816215216896902 0.34951863202477362 0 -0.16755032121442859 0.34686417773276529 0 -0.16755032121442859 0.34686417773276529 0 -0.16231402649499721 0.35854044204207991 0 -0.17371126289566949 0.36032263094025829 0 -0.15263620149840521 0.34559532630957362 0 -0.16755032121442859 0.34686417773276529 0 -0.16231402649499721 0.35854044204207991 0 -0.17842853968084141 0.37850222178096282 0 -0.16184006952959709 0.37586212036549399 0 -0.17220198338173681 0.36789254927065118 0 -0.16184006952959709 0.37586212036549399 0 -0.16231402649499721 0.35854044204207991 0 -0.17220198338173681 0.36789254927065118 0 -0.16184006952959709 0.37586212036549399 0 -0.14873012954908091 0.35902717545622448 0 -0.16231402649499721 0.35854044204207991 0 -0.16231402649499721 0.35854044204207991 0 -0.17220198338173681 0.36789254927065118 0 -0.17371126289566949 0.36032263094025829 0 -0.17220198338173681 0.36789254927065118 0 -0.1796498009668325 0.36546279737362769 0 -0.18107573488055589 0.37135035993115778 0 -0.17842853968084141 0.37850222178096282 0 -0.17220198338173681 0.36789254927065118 0 -0.18107573488055589 0.37135035993115778 0 -0.17220198338173681 0.36789254927065118 0 -0.17371126289566949 0.36032263094025829 0 -0.1796498009668325 0.36546279737362769 0 -0.17371126289566949 0.36032263094025829 0 -0.1796498009668325 0.36546279737362769 0 -0.18684018242035241 0.36285318828216773 0 -0.1796498009668325 0.36546279737362769 0 -0.18684018242035241 0.36285318828216773 0 -0.1869214692495457 0.3679434882729567 0 -0.17842853968084141 0.37850222178096282 0 -0.18107573488055589 0.37135035993115778 0 -0.18827341652571961 0.37482666901638878 0 -0.1796498009668325 0.36546279737362769 0 -0.18107573488055589 0.37135035993115778 0 -0.1869214692495457 0.3679434882729567 0 -0.18107573488055589 0.37135035993115778 0 -0.1869214692495457 0.3679434882729567 0 -0.18827341652571961 0.37482666901638878 0 -0.1995834246955637 0.36464448774947539 0 -0.19419347613366661 0.35752059525913499 0 -0.2126522067175656 0.36169789639216349 0 -0.1869214692495457 0.3679434882729567 0 -0.2037700009656972 0.37383887992164022 0 -0.1869214692495457 0.3679434882729567 0 -0.18827341652571961 0.37482666901638878 0 -0.2037700009656972 0.37383887992164022 0 -0.1869214692495457 0.3679434882729567 0 -0.19426171069296511 0.365360127897075 0 -0.2037700009656972 0.37383887992164022 0 -0.18684018242035241 0.36285318828216773 0 -0.19426171069296511 0.365360127897075 0 -0.19419347613366661 0.35752059525913499 0 -0.18684018242035241 0.36285318828216773 0 -0.1869214692495457 0.3679434882729567 0 -0.19426171069296511 0.365360127897075 0 -0.19426171069296511 0.365360127897075 0 -0.1995834246955637 0.36464448774947539 0 -0.19419347613366661 0.35752059525913499 0 -0.19426171069296511 0.365360127897075 0 -0.1995834246955637 0.36464448774947539 0 -0.2037700009656972 0.37383887992164022 0 -0.19419347613366661 0.35752059525913499 0 -0.1958428129823814 0.34784540628633132 0 -0.2126522067175656 0.36169789639216349 0 -0.1816215216896902 0.34951863202477362 0 -0.18962449830652259 0.35443445546310193 0 -0.1958428129823814 0.34784540628633132 0 -0.18684018242035241 0.36285318828216773 0 -0.19419347613366661 0.35752059525913499 0 -0.18962449830652259 0.35443445546310193 0 -0.19419347613366661 0.35752059525913499 0 -0.18962449830652259 0.35443445546310193 0 -0.1958428129823814 0.34784540628633132 0 -0.1958428129823814 0.34784540628633132 0 -0.2126522067175656 0.36169789639216349 0 -0.20839400866849861 0.34545044773425898 0 -0.2162073520689349 0.35019581436373121 0 -0.2126522067175656 0.36169789639216349 0 -0.1958428129823814 0.34784540628633132 0 -0.20839400866849861 0.34545044773425898 0 -0.2126522067175656 0.36169789639216349 0 -0.2162073520689349 0.35019581436373121 0 -0.2126522067175656 0.36169789639216349 0 -0.22338197389726949 0.35303046682255729 0 -0.20839400866849861 0.34545044773425898 0 -0.2162073520689349 0.35019581436373121 0 -0.22040121899240589 0.34060444650594512 0 -0.22061853268184831 0.37973427157032458 0 -0.2037700009656972 0.37383887992164022 0 -0.2126522067175656 0.36169789639216349 0 -0.1995834246955637 0.36464448774947539 0 -0.2037700009656972 0.37383887992164022 0 -0.2126522067175656 0.36169789639216349 0 -0.22946160045274969 0.37555038649799571 0 -0.2126522067175656 0.36169789639216349 0 -0.22654179478788089 0.36278319824958188 0 -0.22946160045274969 0.37555038649799571 0 -0.2126522067175656 0.36169789639216349 0 -0.22946160045274969 0.37555038649799571 0 -0.22061853268184831 0.37973427157032458 0 -0.2126522067175656 0.36169789639216349 0 -0.22946160045274969 0.37555038649799571 0 -0.22654179478788089 0.36278319824958188 0 -0.23515027717374909 0.36628383574832551 0 -0.22654179478788089 0.36278319824958188 0 -0.2332178236105972 0.35688723387610333 0 -0.23515027717374909 0.36628383574832551 0 -0.2126522067175656 0.36169789639216349 0 -0.22654179478788089 0.36278319824958188 0 -0.22338197389726949 0.35303046682255729 0 -0.2162073520689349 0.35019581436373121 0 -0.22338197389726949 0.35303046682255729 0 -0.22040121899240589 0.34060444650594512 0 -0.22338197389726949 0.35303046682255729 0 -0.23148160852098179 0.34588231342874959 0 -0.22040121899240589 0.34060444650594512 0 -0.22338197389726949 0.35303046682255729 0 -0.23148160852098179 0.34588231342874959 0 -0.2332178236105972 0.35688723387610333 0 -0.22654179478788089 0.36278319824958188 0 -0.22338197389726949 0.35303046682255729 0 -0.2332178236105972 0.35688723387610333 0 -0.2332178236105972 0.35688723387610333 0 -0.24183276682984731 0.3501776489879026 0 -0.24163246464021909 0.36074443225003427 0 -0.23148160852098179 0.34588231342874959 0 -0.2332178236105972 0.35688723387610333 0 -0.24183276682984731 0.3501776489879026 0 -0.23148160852098179 0.34588231342874959 0 -0.24183276682984731 0.3501776489879026 0 -0.24166459948645791 0.33842239868436452 0 -0.25295152442094759 0.34275484078600282 0 -0.2519383555078234 0.35644269101866738 0 -0.24183276682984731 0.3501776489879026 0 -0.25295152442094759 0.34275484078600282 0 -0.24183276682984731 0.3501776489879026 0 -0.24166459948645791 0.33842239868436452 0 -0.2519383555078234 0.35644269101866738 0 -0.24183276682984731 0.3501776489879026 0 -0.24163246464021909 0.36074443225003427 0 -0.2519383555078234 0.35644269101866738 0 -0.2460231000790786 0.37393075161917277 0 -0.24163246464021909 0.36074443225003427 0 -0.22946160045274969 0.37555038649799571 0 -0.2460231000790786 0.37393075161917277 0 -0.23515027717374909 0.36628383574832551 0 -0.2460231000790786 0.37393075161917277 0 -0.24163246464021909 0.36074443225003427 0 -0.23515027717374909 0.36628383574832551 0 -0.2332178236105972 0.35688723387610333 0 -0.24163246464021909 0.36074443225003427 0 -0.23515027717374909 0.36628383574832551 0 -0.24004983439012589 0.32741641671094018 0 -0.24920933781177501 0.31790270752223371 0 -0.22766049665825361 0.32284350997407413 0 -0.24531862700545601 0.31417757358992798 0 -0.24920933781177501 0.31790270752223371 0 -0.22766049665825361 0.32284350997407413 0 -0.24920933781177501 0.31790270752223371 0 -0.22766049665825361 0.32284350997407413 0 -0.24531862700545601 0.31417757358992798 0 -0.24920933781177501 0.31790270752223371 0 -0.2502134517074236 0.33182082943189928 0 -0.24004983439012589 0.32741641671094018 0 -0.24920933781177501 0.31790270752223371 0 -0.2502134517074236 0.33182082943189928 0 -0.24004983439012589 0.32741641671094018 0 -0.24166459948645791 0.33842239868436452 0 -0.25295152442094759 0.34275484078600282 0 -0.2502134517074236 0.33182082943189928 0 -0.24166459948645791 0.33842239868436452 0 -0.23148160852098179 0.34588231342874959 0 -0.24166459948645791 0.33842239868436452 0 -0.23178607492953529 0.33502274977818403 0 -0.24004983439012589 0.32741641671094018 0 -0.24166459948645791 0.33842239868436452 0 -0.23178607492953529 0.33502274977818403 0 -0.24004983439012589 0.32741641671094018 0 -0.231310396623265 0.32907375513111609 0 -0.23178607492953529 0.33502274977818403 0 -0.231310396623265 0.32907375513111609 0 -0.23178607492953529 0.33502274977818403 0 -0.22574518051514531 0.33101234406126617 0 -0.23148160852098179 0.34588231342874959 0 -0.23178607492953529 0.33502274977818403 0 -0.22040121899240589 0.34060444650594512 0 -0.22574518051514531 0.33101234406126617 0 -0.22766049665825361 0.32284350997407413 0 -0.21800884705687781 0.33116782827681318 0 -0.23178607492953529 0.33502274977818403 0 -0.22040121899240589 0.34060444650594512 0 -0.22574518051514531 0.33101234406126617 0 -0.22040121899240589 0.34060444650594512 0 -0.22574518051514531 0.33101234406126617 0 -0.21800884705687781 0.33116782827681318 0 -0.24531862700545601 0.31417757358992798 0 -0.22018097431705769 0.32075464641730961 0 -0.24531862700545601 0.31417757358992798 0 -0.22018097431705769 0.32075464641730961 0 -0.23085825844438049 0.31212554691684141 0 -0.24531862700545601 0.31417757358992798 0 -0.22018097431705769 0.32075464641730961 0 -0.22766049665825361 0.32284350997407413 0 -0.24004983439012589 0.32741641671094018 0 -0.231310396623265 0.32907375513111609 0 -0.22766049665825361 0.32284350997407413 0 -0.231310396623265 0.32907375513111609 0 -0.22574518051514531 0.33101234406126617 0 -0.22766049665825361 0.32284350997407413 0 -0.22018097431705769 0.32075464641730961 0 -0.2136925883704284 0.31391756777481078 0 -0.2242479183957275 0.31053043694497212 0 -0.22018097431705769 0.32075464641730961 0 -0.2242479183957275 0.31053043694497212 0 -0.23085825844438049 0.31212554691684141 0 -0.22018097431705769 0.32075464641730961 0 -0.19504332162865959 0.32733171924469229 0 -0.22018097431705769 0.32075464641730961 0 -0.2061116555047319 0.32778431242591421 0 -0.19504332162865959 0.32733171924469229 0 -0.22018097431705769 0.32075464641730961 0 -0.2136925883704284 0.31391756777481078 0 -0.2000137605996454 0.32094496901559372 0 -0.22766049665825361 0.32284350997407413 0 -0.2061116555047319 0.32778431242591421 0 -0.21800884705687781 0.33116782827681318 0 -0.22018097431705769 0.32075464641730961 0 -0.22766049665825361 0.32284350997407413 0 -0.2061116555047319 0.32778431242591421 0 -0.22766049665825361 0.32284350997407413 0 -0.2061116555047319 0.32778431242591421 0 -0.22018097431705769 0.32075464641730961 0 -0.2000137605996454 0.32094496901559372 0 -0.19504332162865959 0.32733171924469229 0 -0.2136925883704284 0.31391756777481078 0 -0.20526564392848781 0.31416889030157441 0 -0.2000137605996454 0.32094496901559372 0 -0.20839400866849861 0.34545044773425898 0 -0.22040121899240589 0.34060444650594512 0 -0.2104738722434551 0.33620124202474733 0 -0.22040121899240589 0.34060444650594512 0 -0.21800884705687781 0.33116782827681318 0 -0.2104738722434551 0.33620124202474733 0 -0.2061116555047319 0.32778431242591421 0 -0.21800884705687781 0.33116782827681318 0 -0.2104738722434551 0.33620124202474733 0 -0.2061116555047319 0.32778431242591421 0 -0.2104738722434551 0.33620124202474733 0 -0.1989913799212536 0.33679834323541941 0 -0.20839400866849861 0.34545044773425898 0 -0.2104738722434551 0.33620124202474733 0 -0.1989913799212536 0.33679834323541941 0 -0.1845628143512105 0.33272511487775458 0 -0.2061116555047319 0.32778431242591421 0 -0.1989913799212536 0.33679834323541941 0 -0.1845628143512105 0.33272511487775458 0 -0.2061116555047319 0.32778431242591421 0 -0.19504332162865959 0.32733171924469229 0 -0.1845628143512105 0.33272511487775458 0 -0.2061116555047319 0.32778431242591421 0 -0.1958428129823814 0.34784540628633132 0 -0.20839400866849861 0.34545044773425898 0 -0.1989913799212536 0.33679834323541941 0 -0.1845628143512105 0.33272511487775458 0 -0.19504332162865959 0.32733171924469229 0 -0.19193644689038281 0.32780269276328461 0 -0.1845628143512105 0.33272511487775458 0 -0.1989913799212536 0.33679834323541941 0 -0.18756605885428329 0.33798708809283362 0 -0.1958428129823814 0.34784540628633132 0 -0.1989913799212536 0.33679834323541941 0 -0.18756605885428329 0.33798708809283362 0 -0.20526564392848781 0.31416889030157441 0 -0.2000137605996454 0.32094496901559372 0 -0.2001909095757535 0.31152888140895119 0 -0.2000137605996454 0.32094496901559372 0 -0.19193123229020809 0.31830056414075331 0 -0.2001909095757535 0.31152888140895119 0 -0.2000137605996454 0.32094496901559372 0 -0.19607933533903549 0.32319339494374538 0 -0.19193123229020809 0.31830056414075331 0 -0.2000137605996454 0.32094496901559372 0 -0.19607933533903549 0.32319339494374538 0 -0.19504332162865959 0.32733171924469229 0 -0.19396649863368259 0.32428174036485619 0 -0.19193644689038281 0.32780269276328461 0 -0.19193123229020809 0.31830056414075331 0 -0.19607933533903549 0.32319339494374538 0 -0.19396649863368259 0.32428174036485619 0 -0.19193123229020809 0.31830056414075331 0 -0.19607933533903549 0.32319339494374538 0 -0.19504332162865959 0.32733171924469229 0 -0.19396649863368259 0.32428174036485619 0 -0.19504332162865959 0.32733171924469229 0 -0.19396649863368259 0.32428174036485619 0 -0.19193644689038281 0.32780269276328461 0 -0.19193123229020809 0.31830056414075331 0 -0.19133952298317719 0.30706297170608421 0 -0.2001909095757535 0.31152888140895119 0 -0.19133952298317719 0.30706297170608421 0 -0.19089313019369389 0.29293439582845748 0 -0.2032822404671665 0.30106613218529132 0 -0.19133952298317719 0.30706297170608421 0 -0.2001909095757535 0.31152888140895119 0 -0.2032822404671665 0.30106613218529132 0 -0.19089313019369389 0.29293439582845748 0 -0.20895375010362069 0.2917349484950964 0 -0.2032822404671665 0.30106613218529132 0 -0.19089313019369389 0.29293439582845748 0 -0.2097500138959639 0.27615278890808398 0 -0.19089313019369389 0.29293439582845748 0 -0.20895375010362069 0.2917349484950964 0 -0.2097500138959639 0.27615278890808398 0 -0.20895375010362069 0.2917349484950964 0 -0.2220524011131062 0.2919014878403835 0 -0.2097500138959639 0.27615278890808398 0 -0.20895375010362069 0.2917349484950964 0 -0.21709812799793979 0.30250367926078231 0 -0.2220524011131062 0.2919014878403835 0 -0.2001909095757535 0.31152888140895119 0 -0.2079059020679552 0.30863703018628202 0 -0.2032822404671665 0.30106613218529132 0 -0.2136925883704284 0.31391756777481078 0 -0.20526564392848781 0.31416889030157441 0 -0.2079059020679552 0.30863703018628202 0 -0.20526564392848781 0.31416889030157441 0 -0.2001909095757535 0.31152888140895119 0 -0.2079059020679552 0.30863703018628202 0 -0.2079059020679552 0.30863703018628202 0 -0.2032822404671665 0.30106613218529132 0 -0.21709812799793979 0.30250367926078231 0 -0.20895375010362069 0.2917349484950964 0 -0.2032822404671665 0.30106613218529132 0 -0.21709812799793979 0.30250367926078231 0 -0.2136925883704284 0.31391756777481078 0 -0.2079059020679552 0.30863703018628202 0 -0.21709812799793979 0.30250367926078231 0 -0.2136925883704284 0.31391756777481078 0 -0.21709812799793979 0.30250367926078231 0 -0.2242479183957275 0.31053043694497212 0 -0.21709812799793979 0.30250367926078231 0 -0.2336855140592809 0.30303953071515599 0 -0.2220524011131062 0.2919014878403835 0 -0.21709812799793979 0.30250367926078231 0 -0.2242479183957275 0.31053043694497212 0 -0.2336855140592809 0.30303953071515599 0 -0.2242479183957275 0.31053043694497212 0 -0.23085825844438049 0.31212554691684141 0 -0.2336855140592809 0.30303953071515599 0 -0.2336855140592809 0.30303953071515599 0 -0.2220524011131062 0.2919014878403835 0 -0.2220524011131062 0.2919014878403835 0 -0.23143413006861821 0.28415779857199458 0 -0.23851627210711129 0.29169288467305271 0 -0.2220524011131062 0.2919014878403835 0 -0.23143413006861821 0.28415779857199458 0 -0.22577838653583249 0.27456759056787572 0 -0.2336855140592809 0.30303953071515599 0 -0.2220524011131062 0.2919014878403835 0 -0.23851627210711129 0.29169288467305271 0 -0.23851627210711129 0.29169288467305271 0 -0.2469496641305429 0.28552353553695498 0 -0.23938946051842269 0.27846923120666672 0 -0.23143413006861821 0.28415779857199458 0 -0.23851627210711129 0.29169288467305271 0 -0.23938946051842269 0.27846923120666672 0 -0.23851627210711129 0.29169288467305271 0 -0.2469496641305429 0.28552353553695498 0 -0.24993271077240739 0.29678087560504302 0 -0.23851627210711129 0.29169288467305271 0 -0.24993271077240739 0.29678087560504302 0 -0.24394705832367131 0.30210937893478851 0 -0.25196061543158332 0.30526051510166191 0 -0.24993271077240739 0.29678087560504302 0 -0.24394705832367131 0.30210937893478851 0 -0.25196061543158332 0.30526051510166191 0 -0.24531862700545601 0.31417757358992798 0 -0.24394705832367131 0.30210937893478851 0 -0.24531862700545601 0.31417757358992798 0 -0.2336855140592809 0.30303953071515599 0 -0.24394705832367131 0.30210937893478851 0 -0.24531862700545601 0.31417757358992798 0 -0.2336855140592809 0.30303953071515599 0 -0.24531862700545601 0.31417757358992798 0 -0.23085825844438049 0.31212554691684141 0 -0.2336855140592809 0.30303953071515599 0 -0.2336855140592809 0.30303953071515599 0 -0.23851627210711129 0.29169288467305271 0 -0.24394705832367131 0.30210937893478851 0 -0.2586972770707342 0.26766932234701102 0 -0.24101650654197371 0.26495773080611251 0 -0.2412662617624578 0.25135091103929058 0 -0.2586972770707342 0.26766932234701102 0 -0.2412662617624578 0.25135091103929058 0 -0.24101650654197371 0.26495773080611251 0 -0.2412662617624578 0.25135091103929058 0 -0.22860689759823391 0.25937118198771048 0 -0.24101650654197371 0.26495773080611251 0 -0.24900133351229239 0.27563227110277427 0 -0.23938946051842269 0.27846923120666672 0 -0.2586972770707342 0.26766932234701102 0 -0.24101650654197371 0.26495773080611251 0 -0.24900133351229239 0.27563227110277427 0 -0.2469496641305429 0.28552353553695498 0 -0.24900133351229239 0.27563227110277427 0 -0.23938946051842269 0.27846923120666672 0 -0.24101650654197371 0.26495773080611251 0 -0.23938946051842269 0.27846923120666672 0 -0.22577838653583249 0.27456759056787572 0 -0.22577838653583249 0.27456759056787572 0 -0.22860689759823391 0.25937118198771048 0 -0.2097500138959639 0.27615278890808398 0 -0.22860689759823391 0.25937118198771048 0 -0.2097500138959639 0.27615278890808398 0 -0.24101650654197371 0.26495773080611251 0 -0.22577838653583249 0.27456759056787572 0 -0.22860689759823391 0.25937118198771048 0 -0.2220524011131062 0.2919014878403835 0 -0.22577838653583249 0.27456759056787572 0 -0.2097500138959639 0.27615278890808398 0 -0.23143413006861821 0.28415779857199458 0 -0.23938946051842269 0.27846923120666672 0 -0.22577838653583249 0.27456759056787572 0 -0.22860689759823391 0.25937118198771048 0 -0.20870061172448501 0.25598841172981152 0 -0.2202348875839712 0.24837544522908411 0 -0.2412662617624578 0.25135091103929058 0 -0.22860689759823391 0.25937118198771048 0 -0.2202348875839712 0.24837544522908411 0 -0.22860689759823391 0.25937118198771048 0 -0.20870061172448501 0.25598841172981152 0 -0.2097500138959639 0.27615278890808398 0 -0.20870061172448501 0.25598841172981152 0 -0.2097500138959639 0.27615278890808398 0 -0.1894562499965381 0.27117621434258821 0 -0.19089313019369389 0.29293439582845748 0 -0.2097500138959639 0.27615278890808398 0 -0.1894562499965381 0.27117621434258821 0 -0.20870061172448501 0.25598841172981152 0 -0.1894562499965381 0.27117621434258821 0 -0.191131830424698 0.24603646340069529 0 -0.1894562499965381 0.27117621434258821 0 -0.17478515048514501 0.25599795249760859 0 -0.191131830424698 0.24603646340069529 0 -0.17478515048514501 0.25599795249760859 0 -0.15734776493634059 0.25305341113509328 0 -0.1694085852426517 0.27284506752678872 0 -0.15734776493634059 0.25305341113509328 0 -0.1694085852426517 0.27284506752678872 0 -0.1694085852426517 0.27284506752678872 0 -0.16464279406600299 0.28225580988223992 0 -0.15103173324624 0.27397543583352568 0 -0.15734776493634059 0.25305341113509328 0 -0.1694085852426517 0.27284506752678872 0 -0.15103173324624 0.27397543583352568 0 -0.1694085852426517 0.27284506752678872 0 -0.1746328351802594 0.28638516241504358 0 -0.16464279406600299 0.28225580988223992 0 -0.1894562499965381 0.27117621434258821 0 -0.1694085852426517 0.27284506752678872 0 -0.1746328351802594 0.28638516241504358 0 -0.1894562499965381 0.27117621434258821 0 -0.17478515048514501 0.25599795249760859 0 -0.1694085852426517 0.27284506752678872 0 -0.19089313019369389 0.29293439582845748 0 -0.1746328351802594 0.28638516241504358 0 -0.1692572999944458 0.30099854791074609 0 -0.19089313019369389 0.29293439582845748 0 -0.1894562499965381 0.27117621434258821 0 -0.1746328351802594 0.28638516241504358 0 -0.19089313019369389 0.29293439582845748 0 -0.17077755675466941 0.30857201773175691 0 -0.1692572999944458 0.30099854791074609 0 -0.19089313019369389 0.29293439582845748 0 -0.17077755675466941 0.30857201773175691 0 -0.19133952298317719 0.30706297170608421 0 -0.19089313019369389 0.29293439582845748 0 -0.17077755675466941 0.30857201773175691 0 -0.19193123229020809 0.31830056414075331 0 -0.19133952298317719 0.30706297170608421 0 -0.17077755675466941 0.30857201773175691 0 -0.17077755675466941 0.30857201773175691 0 -0.1522061911105467 0.29169306541889678 0 -0.17077755675466941 0.30857201773175691 0 -0.16349802259486129 0.29581757375360113 0 -0.1522061911105467 0.29169306541889678 0 -0.17077755675466941 0.30857201773175691 0 -0.15655503752864841 0.30556438309509398 0 -0.1522061911105467 0.29169306541889678 0 -0.1716345267548989 0.31007351159371721 0 -0.17077755675466941 0.30857201773175691 0 -0.17077755675466941 0.30857201773175691 0 -0.1692572999944458 0.30099854791074609 0 -0.16349802259486129 0.29581757375360113 0 -0.17077755675466941 0.30857201773175691 0 -0.16349802259486129 0.29581757375360113 0 -0.1692572999944458 0.30099854791074609 0 -0.16349802259486129 0.29581757375360113 0 -0.16123683790466309 0.31932689247679358 0 -0.17077755675466941 0.30857201773175691 0 -0.15655503752864841 0.30556438309509398 0 -0.16349802259486129 0.29581757375360113 0 -0.15103173324624 0.27397543583352568 0 -0.16464279406600299 0.28225580988223992 0 -0.16349802259486129 0.29581757375360113 0 -0.15103173324624 0.27397543583352568 0 -0.1746328351802594 0.28638516241504358 0 -0.16464279406600299 0.28225580988223992 0 -0.16349802259486129 0.29581757375360113 0 -0.1746328351802594 0.28638516241504358 0 -0.1692572999944458 0.30099854791074609 0 -0.16349802259486129 0.29581757375360113 0 -0.1522061911105467 0.29169306541889678 0 -0.13681772541796011 0.28871381306657862 0 -0.13363482546642469 0.27481411310603598 0 -0.1522061911105467 0.29169306541889678 0 -0.13363482546642469 0.27481411310603598 0 -0.16349802259486129 0.29581757375360113 0 -0.14710247929570269 0.28106834737818148 0 -0.16349802259486129 0.29581757375360113 0 -0.14710247929570269 0.28106834737818148 0 -0.15103173324624 0.27397543583352568 0 -0.16349802259486129 0.29581757375360113 0 -0.1522061911105467 0.29169306541889678 0 -0.14710247929570269 0.28106834737818148 0 -0.1522061911105467 0.29169306541889678 0 -0.13363482546642469 0.27481411310603598 0 -0.14710247929570269 0.28106834737818148 0 -0.1522061911105467 0.29169306541889678 0 -0.14088890766651041 0.30255832207272548 0 -0.13681772541796011 0.28871381306657862 0 -0.15655503752864841 0.30556438309509398 0 -0.1522061911105467 0.29169306541889678 0 -0.14088890766651041 0.30255832207272548 0 -0.16123683790466309 0.31932689247679358 0 -0.14088890766651041 0.30255832207272548 0 -0.16123683790466309 0.31932689247679358 0 -0.15655503752864841 0.30556438309509398 0 -0.14088890766651041 0.30255832207272548 0 -0.14088890766651041 0.30255832207272548 0 -0.1205409774283587 0.28578975166865611 0 -0.121013000012014 0.30829024961047058 0 -0.1346367300102593 0.31958270839691688 0 -0.14088890766651041 0.30255832207272548 0 -0.121013000012014 0.30829024961047058 0 -0.13681772541796011 0.28871381306657862 0 -0.13363482546642469 0.27481411310603598 0 -0.1205409774283587 0.28578975166865611 0 -0.14088890766651041 0.30255832207272548 0 -0.1205409774283587 0.28578975166865611 0 -0.14088890766651041 0.30255832207272548 0 -0.13681772541796011 0.28871381306657862 0 -0.1205409774283587 0.28578975166865611 0 -0.13363482546642469 0.27481411310603598 0 -0.13070693599654359 0.26631912100276239 0 -0.115063459822302 0.25793516079317591 0 -0.13363482546642469 0.27481411310603598 0 -0.13070693599654359 0.26631912100276239 0 -0.14710247929570269 0.28106834737818148 0 -0.13070693599654359 0.26631912100276239 0 -0.14710247929570269 0.28106834737818148 0 -0.13070693599654359 0.26631912100276239 0 -0.13856544389761921 0.25213329791345018 0 -0.15103173324624 0.27397543583352568 0 -0.13070693599654359 0.26631912100276239 0 -0.1275845452889372 0.25235475329170443 0 -0.13856544389761921 0.25213329791345018 0 -0.13856544389761921 0.25213329791345018 0 -0.15103173324624 0.27397543583352568 0 -0.15734776493634059 0.25305341113509328 0 -0.13856544389761921 0.25213329791345018 0 -0.15103173324624 0.27397543583352568 0 -0.13070693599654359 0.26631912100276239 0 -0.14710247929570269 0.28106834737818148 0 -0.15103173324624 0.27397543583352568 0 -0.10578562797140451 0.27165129245416281 0 -0.084305440690359529 0.27786403000363902 0 -0.091622045209149655 0.26169434310012119 0 -0.10578562797140451 0.27165129245416281 0 -0.1026592203511866 0.29307713980705502 0 -0.084305440690359529 0.27786403000363902 0 -0.10578562797140451 0.27165129245416281 0 -0.1017460216861063 0.25652835057549389 0 -0.091622045209149655 0.26169434310012119 0 -0.1017460216861063 0.25652835057549389 0 -0.115063459822302 0.25793516079317591 0 -0.096087350700184732 0.240688349379646 0 -0.115063459822302 0.25793516079317591 0 -0.1143113926973838 0.25156989462734419 0 -0.096087350700184732 0.240688349379646 0 -0.094495146754203743 0.25185255969015358 0 -0.1017460216861063 0.25652835057549389 0 -0.091622045209149655 0.26169434310012119 0 -0.10578562797140451 0.27165129245416281 0 -0.1017460216861063 0.25652835057549389 0 -0.115063459822302 0.25793516079317591 0 -0.13070693599654359 0.26631912100276239 0 -0.1275845452889372 0.25235475329170443 0 -0.1143113926973838 0.25156989462734419 0 -0.13070693599654359 0.26631912100276239 0 -0.1143113926973838 0.25156989462734419 0 -0.13070693599654359 0.26631912100276239 0 -0.115063459822302 0.25793516079317591 0 -0.1143113926973838 0.25156989462734419 0 -0.115063459822302 0.25793516079317591 0 -0.1143113926973838 0.25156989462734419 0 -0.13363482546642469 0.27481411310603598 0 -0.115063459822302 0.25793516079317591 0 -0.1180382299171578 0.28311270520182319 0 -0.13363482546642469 0.27481411310603598 0 -0.115063459822302 0.25793516079317591 0 -0.115063459822302 0.25793516079317591 0 -0.1180382299171578 0.28311270520182319 0 -0.10578562797140451 0.27165129245416281 0 -0.115063459822302 0.25793516079317591 0 -0.1180382299171578 0.28311270520182319 0 -0.13363482546642469 0.27481411310603598 0 -0.1180382299171578 0.28311270520182319 0 -0.1205409774283587 0.28578975166865611 0 -0.1180382299171578 0.28311270520182319 0 -0.121013000012014 0.30829024961047058 0 -0.1026592203511866 0.29307713980705502 0 -0.1180382299171578 0.28311270520182319 0 -0.121013000012014 0.30829024961047058 0 -0.1180382299171578 0.28311270520182319 0 -0.1205409774283587 0.28578975166865611 0 -0.121013000012014 0.30829024961047058 0 -0.121013000012014 0.30829024961047058 0 -0.1086148371465807 0.3120457746516207 0 -0.1026592203511866 0.29307713980705502 0 -0.121013000012014 0.30829024961047058 0 -0.1026592203511866 0.29307713980705502 0 -0.121013000012014 0.30829024961047058 0 -0.1219008421362526 0.31580467385102828 0 -0.121013000012014 0.30829024961047058 0 -0.1086148371465807 0.3120457746516207 0 -0.1219008421362526 0.31580467385102828 0 -0.094756184604245855 0.30816888558186428 0 -0.1026592203511866 0.29307713980705502 0 -0.084482102723374392 0.29805087676785391 0 -0.1086148371465807 0.3120457746516207 0 -0.094756184604245855 0.30816888558186428 0 -0.1026592203511866 0.29307713980705502 0 -0.10578562797140451 0.27165129245416281 0 -0.1180382299171578 0.28311270520182319 0 -0.1026592203511866 0.29307713980705502 0 -0.1026592203511866 0.29307713980705502 0 -0.084482102723374392 0.29805087676785391 0 -0.084305440690359529 0.27786403000363902 0 -0.1026592203511866 0.29307713980705502 0 -0.084305440690359529 0.27786403000363902 0 -0.084482102723374392 0.29805087676785391 0 -0.073808382102627024 0.29197163039904778 0 -0.084305440690359529 0.27786403000363902 0 -0.084482102723374392 0.29805087676785391 0 -0.071398027565389974 0.30521973710211298 0 -0.081047592594279252 0.31574949162203442 0 -0.094756184604245855 0.30816888558186428 0 -0.084482102723374392 0.29805087676785391 0 -0.081047592594279252 0.31574949162203442 0 -0.084482102723374392 0.29805087676785391 0 -0.071398027565389974 0.30521973710211298 0 -0.073808382102627024 0.29197163039904778 0 -0.071398027565389974 0.30521973710211298 0 -0.061753835485322463 0.29693832943332588 0 -0.060085825210174651 0.30962118335297217 0 -0.071398027565389974 0.30521973710211298 0 -0.073808382102627024 0.29197163039904778 0 -0.061753835485322463 0.29693832943332588 0 -0.071398027565389974 0.30521973710211298 0 -0.060085825210174651 0.30962118335297217 0 -0.067427806087430986 0.31859149421785748 0 -0.073808382102627024 0.29197163039904778 0 -0.065362226653552152 0.28334347988246189 0 -0.084305440690359529 0.27786403000363902 0 -0.073808382102627024 0.29197163039904778 0 -0.065362226653552152 0.28334347988246189 0 -0.061753835485322463 0.29693832943332588 0 -0.065362226653552152 0.28334347988246189 0 -0.075292610695983322 0.26418475758369098 0 -0.053461246808093311 0.26708620644702308 0 -0.065362226653552152 0.28334347988246189 0 -0.084305440690359529 0.27786403000363902 0 -0.075292610695983322 0.26418475758369098 0 -0.084305440690359529 0.27786403000363902 0 -0.091622045209149655 0.26169434310012119 0 -0.075292610695983322 0.26418475758369098 0 -0.091622045209149655 0.26169434310012119 0 -0.075292610695983322 0.26418475758369098 0 -0.085686930434730663 0.24908917197524849 0 -0.094495146754203743 0.25185255969015358 0 -0.091622045209149655 0.26169434310012119 0 -0.085686930434730663 0.24908917197524849 0 -0.075292610695983322 0.26418475758369098 0 -0.071317774380014659 0.24603131409365209 0 -0.085686930434730663 0.24908917197524849 0 -0.075292610695983322 0.26418475758369098 0 -0.053461246808093311 0.26708620644702308 0 -0.071317774380014659 0.24603131409365209 0 -0.053461246808093311 0.26708620644702308 0 -0.071317774380014659 0.24603131409365209 0 -0.053461246808093311 0.26708620644702308 0 -0.071317774380014659 0.24603131409365209 0 -0.042601251696290851 0.24851914262292679 0 -0.065362226653552152 0.28334347988246189 0 -0.053461246808093311 0.26708620644702308 0 -0.049969781233192907 0.2903532209529916 0 -0.053461246808093311 0.26708620644702308 0 -0.035604719236169938 0.28814109880039229 0 -0.053461246808093311 0.26708620644702308 0 -0.034353754366247963 0.27332186567887917 0 -0.03031676770567342 0.26219310003034302 0 -0.053461246808093311 0.26708620644702308 0 -0.034353754366247963 0.27332186567887917 0 -0.035604719236169938 0.28814109880039229 0 -0.053461246808093311 0.26708620644702308 0 -0.03031676770567342 0.26219310003034302 0 -0.042601251696290851 0.24851914262292679 0 -0.03031676770567342 0.26219310003034302 0 -0.042601251696290851 0.24851914262292679 0 -0.03031676770567342 0.26219310003034302 0 -0.015235597441373641 0.25512395430086182 0 -0.02439618885725248 0.23804590227776701 0 -0.03031676770567342 0.26219310003034302 0 -0.018032283715055081 0.27586705743775819 0 -0.015235597441373641 0.25512395430086182 0 -0.034353754366247963 0.27332186567887917 0 -0.018032283715055081 0.27586705743775819 0 -0.035604719236169938 0.28814109880039229 0 -0.03031676770567342 0.26219310003034302 0 -0.018032283715055081 0.27586705743775819 0 -0.034353754366247963 0.27332186567887917 0 -0.03031676770567342 0.26219310003034302 0 -0.018032283715055081 0.27586705743775819 0 -0.018032283715055081 0.27586705743775819 0 -0.0012214697552497889 0.26412499552299018 0 -0.018032283715055081 0.27586705743775819 0 -0.0061017399293258126 0.27805625422800428 0 -0.0012214697552497889 0.26412499552299018 0 -0.018032283715055081 0.27586705743775819 0 -0.0061017399293258126 0.27805625422800428 0 -0.0059603187066722824 0.28930445826587109 0 -0.0061017399293258126 0.27805625422800428 0 -0.001695392528938093 0.28323646968268817 0 0.0022106927435165528 0.27736271093562509 0 -0.0061017399293258126 0.27805625422800428 0 -0.0012214697552497889 0.26412499552299018 0 0.0022106927435165528 0.27736271093562509 0 -0.018032283715055081 0.27586705743775819 0 -0.015235597441373641 0.25512395430086182 0 -0.0012214697552497889 0.26412499552299018 0 -0.015235597441373641 0.25512395430086182 0 -0.0012214697552497889 0.26412499552299018 0 -0.0011779531814362859 0.24237928671812051 0 -0.00081914683292831376 0.31084436128580528 0 -0.01709135852765974 0.29724061000946189 0 -0.018988337149120831 0.31108095057935231 0 -0.00081914683292831376 0.31084436128580528 0 -0.0059603187066722824 0.28930445826587109 0 -0.01709135852765974 0.29724061000946189 0 -0.00081914683292831376 0.31084436128580528 0 -0.0059603187066722824 0.28930445826587109 0 -0.018032283715055081 0.27586705743775819 0 -0.0059603187066722824 0.28930445826587109 0 -0.01709135852765974 0.29724061000946189 0 -0.0061017399293258126 0.27805625422800428 0 -0.0059603187066722824 0.28930445826587109 0 -0.001695392528938093 0.28323646968268817 0 -0.0059603187066722824 0.28930445826587109 0 -0.001695392528938093 0.28323646968268817 0 -0.0014572192683853351 0.2876382609864131 0 -0.018032283715055081 0.27586705743775819 0 -0.0059603187066722824 0.28930445826587109 0 -0.018032283715055081 0.27586705743775819 0 -0.035604719236169938 0.28814109880039229 0 -0.018032283715055081 0.27586705743775819 0 -0.031046980582975611 0.29351519498630341 0 -0.035604719236169938 0.28814109880039229 0 -0.018032283715055081 0.27586705743775819 0 -0.031046980582975611 0.29351519498630341 0 -0.01709135852765974 0.29724061000946189 0 -0.031046980582975611 0.29351519498630341 0 -0.027701084179206571 0.30283163750168213 0 -0.01709135852765974 0.29724061000946189 0 -0.027701084179206571 0.30283163750168213 0 -0.01709135852765974 0.29724061000946189 0 -0.018988337149120831 0.31108095057935231 0 -0.027701084179206571 0.30283163750168213 0 -0.018988337149120831 0.31108095057935231 0 -0.028843050718704879 0.31706619842142009 0 -0.027701084179206571 0.30283163750168213 0 -0.039442921010605349 0.30869891368481778 0 -0.028843050718704879 0.31706619842142009 0 -0.031046980582975611 0.29351519498630341 0 -0.027701084179206571 0.30283163750168213 0 -0.036642824978262142 0.29822131638887528 0 -0.027701084179206571 0.30283163750168213 0 -0.036642824978262142 0.29822131638887528 0 -0.039442921010605349 0.30869891368481778 0 -0.043860090327832557 0.29866509867747698 0 -0.039442921010605349 0.30869891368481778 0 -0.050729826761116197 0.30378794465888759 0 -0.036642824978262142 0.29822131638887528 0 -0.043860090327832557 0.29866509867747698 0 -0.039442921010605349 0.30869891368481778 0 -0.039442921010605349 0.30869891368481778 0 -0.050729826761116197 0.30378794465888759 0 -0.048964748496688061 0.31506829389253688 0 -0.053461246808093311 0.26708620644702308 0 -0.035604719236169938 0.28814109880039229 0 -0.049969781233192907 0.2903532209529916 0 -0.035604719236169938 0.28814109880039229 0 -0.036194092546274752 0.29303094490891562 0 -0.041481845387691341 0.29224616946009169 0 -0.035604719236169938 0.28814109880039229 0 -0.041481845387691341 0.29224616946009169 0 -0.031046980582975611 0.29351519498630341 0 -0.035604719236169938 0.28814109880039229 0 -0.036194092546274752 0.29303094490891562 0 -0.031046980582975611 0.29351519498630341 0 -0.035604719236169938 0.28814109880039229 0 -0.031046980582975611 0.29351519498630341 0 -0.036642824978262142 0.29822131638887528 0 -0.036194092546274752 0.29303094490891562 0 -0.036642824978262142 0.29822131638887528 0 -0.036194092546274752 0.29303094490891562 0 -0.041481845387691341 0.29224616946009169 0 -0.043860090327832557 0.29866509867747698 0 -0.041481845387691341 0.29224616946009169 0 -0.049969781233192907 0.2903532209529916 0 -0.035604719236169938 0.28814109880039229 0 -0.041481845387691341 0.29224616946009169 0 -0.049969781233192907 0.2903532209529916 0 -0.036642824978262142 0.29822131638887528 0 -0.043860090327832557 0.29866509867747698 0 -0.041481845387691341 0.29224616946009169 0 -0.065362226653552152 0.28334347988246189 0 -0.049969781233192907 0.2903532209529916 0 -0.061753835485322463 0.29693832943332588 0 -0.050729826761116197 0.30378794465888759 0 -0.060085825210174651 0.30962118335297217 0 -0.048964748496688061 0.31506829389253688 0 -0.043860090327832557 0.29866509867747698 0 -0.049969781233192907 0.2903532209529916 0 -0.050729826761116197 0.30378794465888759 0 -0.049969781233192907 0.2903532209529916 0 -0.050729826761116197 0.30378794465888759 0 -0.061753835485322463 0.29693832943332588 0 -0.050729826761116197 0.30378794465888759 0 -0.061753835485322463 0.29693832943332588 0 -0.060085825210174651 0.30962118335297217 0 -0.060085825210174651 0.30962118335297217 0 -0.056623830703110917 0.32527983544307482 0 -0.048964748496688061 0.31506829389253688 0 -0.060085825210174651 0.30962118335297217 0 -0.056623830703110917 0.32527983544307482 0 -0.067427806087430986 0.31859149421785748 0 -0.056623830703110917 0.32527983544307482 0 -0.048964748496688061 0.31506829389253688 0 -0.040120086304121449 0.32458487491411392 0 -0.056623830703110917 0.32527983544307482 0 -0.048724079226891051 0.33584482562087897 0 -0.040120086304121449 0.32458487491411392 0 -0.056623830703110917 0.32527983544307482 0 -0.060740886131594382 0.33768143367107029 0 -0.048724079226891051 0.33584482562087897 0 -0.060740886131594382 0.33768143367107029 0 -0.048724079226891051 0.33584482562087897 0 -0.053799274081061173 0.34920765103999629 0 -0.048724079226891051 0.33584482562087897 0 -0.034534090582385359 0.34360885043228961 0 -0.053799274081061173 0.34920765103999629 0 -0.048724079226891051 0.33584482562087897 0 -0.034534090582385359 0.34360885043228961 0 -0.040120086304121449 0.32458487491411392 0 -0.034534090582385359 0.34360885043228961 0 -0.040120086304121449 0.32458487491411392 0 -0.019815377256264401 0.3289722040326683 0 -0.039442921010605349 0.30869891368481778 0 -0.048964748496688061 0.31506829389253688 0 -0.040120086304121449 0.32458487491411392 0 -0.039442921010605349 0.30869891368481778 0 -0.040120086304121449 0.32458487491411392 0 -0.028843050718704879 0.31706619842142009 0 -0.018988337149120831 0.31108095057935231 0 -0.028843050718704879 0.31706619842142009 0 -0.019815377256264401 0.3289722040326683 0 -0.040120086304121449 0.32458487491411392 0 -0.028843050718704879 0.31706619842142009 0 -0.019815377256264401 0.3289722040326683 0 -0.034534090582385359 0.34360885043228961 0 -0.019815377256264401 0.3289722040326683 0 -0.01265077148324322 0.34847087810117439 0 -0.019815377256264401 0.3289722040326683 0 -0.01265077148324322 0.34847087810117439 0 0.0043220250408161527 0.3323842643057392 0 -0.01265077148324322 0.34847087810117439 0 0.0043220250408161527 0.3323842643057392 0 -0.00081914683292831376 0.31084436128580528 0 -0.018988337149120831 0.31108095057935231 0 -0.019815377256264401 0.3289722040326683 0 -0.00081914683292831376 0.31084436128580528 0 -0.019815377256264401 0.3289722040326683 0 0.0043220250408161527 0.3323842643057392 0 -0.0071869989943903478 0.37136237685342322 0 -0.01265077148324322 0.34847087810117439 0 0.00038183190451733198 0.35944236195763829 0 -0.01265077148324322 0.34847087810117439 0 0.008419854407455879 0.34955288836992632 0 0.00038183190451733198 0.35944236195763829 0 -0.01265077148324322 0.34847087810117439 0 -0.029623568007303772 0.36455749189660852 0 -0.034534090582385359 0.34360885043228961 0 -0.01265077148324322 0.34847087810117439 0 -0.029623568007303772 0.36455749189660852 0 -0.0071869989943903478 0.37136237685342322 0 -0.02689168176287695 0.37600324127273371 0 -0.0071869989943903478 0.37136237685342322 0 -0.029623568007303772 0.36455749189660852 0 -0.02689168176287695 0.37600324127273371 0 -0.0071869989943903478 0.37136237685342322 0 -0.01265077148324322 0.34847087810117439 0 -0.029623568007303772 0.36455749189660852 0 -0.029623568007303772 0.36455749189660852 0 -0.046596364531363697 0.3806441056920431 0 -0.029623568007303772 0.36455749189660852 0 -0.046596364531363697 0.3806441056920431 0 -0.02689168176287695 0.37600324127273371 0 -0.029623568007303772 0.36455749189660852 0 -0.04616116626413673 0.36347290093465678 0 -0.046596364531363697 0.3806441056920431 0 -0.034534090582385359 0.34360885043228961 0 -0.029623568007303772 0.36455749189660852 0 -0.04616116626413673 0.36347290093465678 0 -0.034534090582385359 0.34360885043228961 0 -0.04616116626413673 0.36347290093465678 0 -0.053799274081061173 0.34920765103999629 0 -0.060740886131594382 0.33768143367107029 0 -0.053799274081061173 0.34920765103999629 0 -0.071516445117433255 0.34726658118514953 0 -0.04616116626413673 0.36347290093465678 0 -0.053799274081061173 0.34920765103999629 0 -0.063976211523688098 0.36637590201296988 0 -0.04616116626413673 0.36347290093465678 0 -0.063976211523688098 0.36637590201296988 0 -0.046596364531363697 0.3806441056920431 0 -0.087971997459184076 0.36078857119772079 0 -0.095531071462878966 0.37571992166702689 0 -0.082676106477277772 0.37848627165990689 0 -0.063976211523688098 0.36637590201296988 0 -0.087971997459184076 0.36078857119772079 0 -0.082676106477277772 0.37848627165990689 0 -0.087971997459184076 0.36078857119772079 0 -0.071516445117433255 0.34726658118514953 0 -0.0901665235563886 0.33934124049236047 0 -0.063976211523688098 0.36637590201296988 0 -0.087971997459184076 0.36078857119772079 0 -0.071516445117433255 0.34726658118514953 0 -0.053799274081061173 0.34920765103999629 0 -0.063976211523688098 0.36637590201296988 0 -0.071516445117433255 0.34726658118514953 0 -0.060740886131594382 0.33768143367107029 0 -0.071516445117433255 0.34726658118514953 0 -0.073040801529475494 0.33080827506625149 0 -0.056623830703110917 0.32527983544307482 0 -0.060740886131594382 0.33768143367107029 0 -0.073040801529475494 0.33080827506625149 0 -0.056623830703110917 0.32527983544307482 0 -0.073040801529475494 0.33080827506625149 0 -0.067427806087430986 0.31859149421785748 0 -0.073040801529475494 0.33080827506625149 0 -0.067427806087430986 0.31859149421785748 0 -0.081047592594279252 0.31574949162203442 0 -0.071398027565389974 0.30521973710211298 0 -0.067427806087430986 0.31859149421785748 0 -0.081047592594279252 0.31574949162203442 0 -0.094756184604245855 0.30816888558186428 0 -0.081047592594279252 0.31574949162203442 0 -0.096977170205808413 0.3219211450607572 0 -0.081047592594279252 0.31574949162203442 0 -0.08545714362692669 0.32707136906731132 0 -0.096977170205808413 0.3219211450607572 0 -0.073040801529475494 0.33080827506625149 0 -0.081047592594279252 0.31574949162203442 0 -0.08545714362692669 0.32707136906731132 0 -0.071516445117433255 0.34726658118514953 0 -0.073040801529475494 0.33080827506625149 0 -0.0901665235563886 0.33934124049236047 0 -0.08545714362692669 0.32707136906731132 0 -0.0901665235563886 0.33934124049236047 0 -0.096977170205808413 0.3219211450607572 0 -0.073040801529475494 0.33080827506625149 0 -0.08545714362692669 0.32707136906731132 0 -0.0901665235563886 0.33934124049236047 0 -0.0901665235563886 0.33934124049236047 0 -0.096977170205808413 0.3219211450607572 0 -0.11006388290160619 0.33533934461292347 0 -0.0901665235563886 0.33934124049236047 0 -0.11006388290160619 0.33533934461292347 0 -0.10504800733488941 0.35003128002466932 0 -0.1086148371465807 0.3120457746516207 0 -0.094756184604245855 0.30816888558186428 0 -0.096977170205808413 0.3219211450607572 0 -0.096977170205808413 0.3219211450607572 0 -0.1124172920959671 0.32308182516132439 0 -0.11006388290160619 0.33533934461292347 0 -0.1086148371465807 0.3120457746516207 0 -0.096977170205808413 0.3219211450607572 0 -0.1124172920959671 0.32308182516132439 0 -0.1086148371465807 0.3120457746516207 0 -0.1124172920959671 0.32308182516132439 0 -0.1219008421362526 0.31580467385102828 0 -0.1124172920959671 0.32308182516132439 0 -0.1219008421362526 0.31580467385102828 0 -0.1245297280895879 0.33029818763029228 0 -0.12843269758859041 0.34852080366790061 0 -0.11006388290160619 0.33533934461292347 0 -0.1245297280895879 0.33029818763029228 0 -0.1124172920959671 0.32308182516132439 0 -0.11006388290160619 0.33533934461292347 0 -0.1245297280895879 0.33029818763029228 0 -0.12843269758859041 0.34852080366790061 0 -0.1086049351686781 0.36616644015244149 0 -0.12843269758859041 0.34852080366790061 0 -0.11006388290160619 0.33533934461292347 0 -0.10504800733488941 0.35003128002466932 0 -0.12843269758859041 0.34852080366790061 0 -0.1086049351686781 0.36616644015244149 0 -0.10504800733488941 0.35003128002466932 0 -0.12530638115733009 0.37861469596271691 0 -0.12843269758859041 0.34852080366790061 0 -0.1086049351686781 0.36616644015244149 0 -0.087971997459184076 0.36078857119772079 0 -0.1086049351686781 0.36616644015244149 0 -0.095531071462878966 0.37571992166702689 0 -0.1086049351686781 0.36616644015244149 0 -0.095531071462878966 0.37571992166702689 0 -0.1122800256286538 0.38232700039929379 0 -0.087971997459184076 0.36078857119772079 0 -0.1086049351686781 0.36616644015244149 0 -0.10504800733488941 0.35003128002466932 0 -0.087971997459184076 0.36078857119772079 0 -0.0901665235563886 0.33934124049236047 0 -0.10504800733488941 0.35003128002466932 0 -0.1074150980231133 0.39496818792191818 0 -0.088511830248956813 0.3905160734751883 0 -0.1074150980231133 0.39496818792191818 0 -0.099926113972008457 0.40260788909871281 0 -0.088511830248956813 0.3905160734751883 0 -0.099926113972008457 0.40260788909871281 0 -0.093234897693004831 0.41506444106453538 0 -0.088511830248956813 0.3905160734751883 0 -0.1074150980231133 0.39496818792191818 0 -0.099926113972008457 0.40260788909871281 0 -0.1105426299229583 0.40988285393320972 0 -0.097391398468283014 0.38614940702790501 0 -0.095531071462878966 0.37571992166702689 0 -0.1122800256286538 0.38232700039929379 0 -0.1074150980231133 0.39496818792191818 0 -0.097391398468283014 0.38614940702790501 0 -0.088511830248956813 0.3905160734751883 0 -0.097391398468283014 0.38614940702790501 0 -0.095531071462878966 0.37571992166702689 0 -0.09173183424712314 0.38292391059129249 0 -0.1074150980231133 0.39496818792191818 0 -0.097391398468283014 0.38614940702790501 0 -0.1122800256286538 0.38232700039929379 0 -0.12530638115733009 0.37861469596271691 0 -0.1086049351686781 0.36616644015244149 0 -0.1122800256286538 0.38232700039929379 0 -0.12631836579727029 0.3994203023686459 0 -0.12530638115733009 0.37861469596271691 0 -0.1122800256286538 0.38232700039929379 0 -0.12631836579727029 0.3994203023686459 0 -0.1074150980231133 0.39496818792191818 0 -0.1105426299229583 0.40988285393320972 0 -0.12631836579727029 0.3994203023686459 0 -0.1074150980231133 0.39496818792191818 0 -0.1122800256286538 0.38232700039929379 0 -0.12631836579727029 0.3994203023686459 0 -0.1074150980231133 0.39496818792191818 0 -0.12631836579727029 0.3994203023686459 0 -0.1105426299229583 0.40988285393320972 0 -0.12633325125609221 0.41404438953313022 0 -0.1105426299229583 0.40988285393320972 0 -0.1136270340742794 0.42670956174220592 0 -0.12633325125609221 0.41404438953313022 0 -0.12631836579727029 0.3994203023686459 0 -0.1105426299229583 0.40988285393320972 0 -0.13847433957310029 0.4268537492911661 0 -0.1136270340742794 0.42670956174220592 0 -0.120577686077101 0.44550746276719849 0 -0.1136270340742794 0.42670956174220592 0 -0.09795796513705228 0.43961280865388269 0 -0.120577686077101 0.44550746276719849 0 -0.1136270340742794 0.42670956174220592 0 -0.094269364115482479 0.42044112947702528 0 -0.09795796513705228 0.43961280865388269 0 -0.094269364115482479 0.42044112947702528 0 -0.09795796513705228 0.43961280865388269 0 -0.099926113972008457 0.40260788909871281 0 -0.1105426299229583 0.40988285393320972 0 -0.093234897693004831 0.41506444106453538 0 -0.1105426299229583 0.40988285393320972 0 -0.094269364115482479 0.42044112947702528 0 -0.093234897693004831 0.41506444106453538 0 -0.1105426299229583 0.40988285393320972 0 -0.094269364115482479 0.42044112947702528 0 -0.1105426299229583 0.40988285393320972 0 -0.1136270340742794 0.42670956174220592 0 -0.094269364115482479 0.42044112947702528 0 -0.094269364115482479 0.42044112947702528 0 -0.093234897693004831 0.41506444106453538 0 -0.094269364115482479 0.42044112947702528 0 -0.093234897693004831 0.41506444106453538 0 -0.077836263580530723 0.42991166252297602 0 -0.093234897693004831 0.41506444106453538 0 -0.077836263580530723 0.42991166252297602 0 -0.074177394822197429 0.41576441653891433 0 -0.093234897693004831 0.41506444106453538 0 -0.074177394822197429 0.41576441653891433 0 -0.07514300221947301 0.40031859223552829 0 -0.094269364115482479 0.42044112947702528 0 -0.077836263580530723 0.42991166252297602 0 -0.09795796513705228 0.43961280865388269 0 -0.077836263580530723 0.42991166252297602 0 -0.062703828757911542 0.42458088005858752 0 -0.062317743981298433 0.44127807173467659 0 -0.077836263580530723 0.42991166252297602 0 -0.062703828757911542 0.42458088005858752 0 -0.074177394822197429 0.41576441653891433 0 -0.062703828757911542 0.42458088005858752 0 -0.074177394822197429 0.41576441653891433 0 -0.06014891979874918 0.40997598054248119 0 -0.074177394822197429 0.41576441653891433 0 -0.07514300221947301 0.40031859223552829 0 -0.06014891979874918 0.40997598054248119 0 -0.07514300221947301 0.40031859223552829 0 -0.061085198656637002 0.39629803042450867 0 -0.06014891979874918 0.40997598054248119 0 -0.07514300221947301 0.40031859223552829 0 -0.088511830248956813 0.3905160734751883 0 -0.067554097390159953 0.38558008958361678 0 -0.07514300221947301 0.40031859223552829 0 -0.067554097390159953 0.38558008958361678 0 -0.061085198656637002 0.39629803042450867 0 -0.093234897693004831 0.41506444106453538 0 -0.07514300221947301 0.40031859223552829 0 -0.088511830248956813 0.3905160734751883 0 -0.093234897693004831 0.41506444106453538 0 -0.088511830248956813 0.3905160734751883 0 -0.088511830248956813 0.3905160734751883 0 -0.082676106477277772 0.37848627165990689 0 -0.067554097390159953 0.38558008958361678 0 -0.095531071462878966 0.37571992166702689 0 -0.09173183424712314 0.38292391059129249 0 -0.082676106477277772 0.37848627165990689 0 -0.09173183424712314 0.38292391059129249 0 -0.088511830248956813 0.3905160734751883 0 -0.082676106477277772 0.37848627165990689 0 -0.097391398468283014 0.38614940702790501 0 -0.09173183424712314 0.38292391059129249 0 -0.088511830248956813 0.3905160734751883 0 -0.063976211523688098 0.36637590201296988 0 -0.082676106477277772 0.37848627165990689 0 -0.067554097390159953 0.38558008958361678 0 -0.088511830248956813 0.3905160734751883 0 -0.067554097390159953 0.38558008958361678 0 -0.067554097390159953 0.38558008958361678 0 -0.046596364531363697 0.3806441056920431 0 -0.063976211523688098 0.36637590201296988 0 -0.067554097390159953 0.38558008958361678 0 -0.046596364531363697 0.3806441056920431 0 -0.067554097390159953 0.38558008958361678 0 -0.052628021349217048 0.38636083797230308 0 -0.046596364531363697 0.3806441056920431 0 -0.067554097390159953 0.38558008958361678 0 -0.052628021349217048 0.38636083797230308 0 -0.061085198656637002 0.39629803042450867 0 -0.052628021349217048 0.38636083797230308 0 -0.046596364531363697 0.3806441056920431 0 -0.044348528308899231 0.38929456166912668 0 -0.052628021349217048 0.38636083797230308 0 -0.046596364531363697 0.3806441056920431 0 -0.061085198656637002 0.39629803042450867 0 -0.049951952525585819 0.39925465178861441 0 -0.06014891979874918 0.40997598054248119 0 -0.052628021349217048 0.38636083797230308 0 -0.061085198656637002 0.39629803042450867 0 -0.049951952525585819 0.39925465178861441 0 -0.052628021349217048 0.38636083797230308 0 -0.049951952525585819 0.39925465178861441 0 -0.044348528308899231 0.38929456166912668 0 -0.049951952525585819 0.39925465178861441 0 -0.041607190280047827 0.40520976422072191 0 -0.046648175768505828 0.41361321189197259 0 -0.049951952525585819 0.39925465178861441 0 -0.041607190280047827 0.40520976422072191 0 -0.038348024160056372 0.39567048416298439 0 -0.049951952525585819 0.39925465178861441 0 -0.038348024160056372 0.39567048416298439 0 -0.044348528308899231 0.38929456166912668 0 -0.038348024160056372 0.39567048416298439 0 -0.035096647127906208 0.38535472655547492 0 -0.026958007141132719 0.39224186102134939 0 -0.038348024160056372 0.39567048416298439 0 -0.026958007141132719 0.39224186102134939 0 -0.029178124195383171 0.40747529438647662 0 -0.041607190280047827 0.40520976422072191 0 -0.038348024160056372 0.39567048416298439 0 -0.029178124195383171 0.40747529438647662 0 -0.046596364531363697 0.3806441056920431 0 -0.035096647127906208 0.38535472655547492 0 -0.02689168176287695 0.37600324127273371 0 -0.046596364531363697 0.3806441056920431 0 -0.02689168176287695 0.37600324127273371 0 -0.038348024160056372 0.39567048416298439 0 -0.044348528308899231 0.38929456166912668 0 -0.035096647127906208 0.38535472655547492 0 -0.046596364531363697 0.3806441056920431 0 -0.044348528308899231 0.38929456166912668 0 -0.035096647127906208 0.38535472655547492 0 -0.035096647127906208 0.38535472655547492 0 -0.02689168176287695 0.37600324127273371 0 -0.026958007141132719 0.39224186102134939 0 -0.02689168176287695 0.37600324127273371 0 -0.026958007141132719 0.39224186102134939 0 -0.01054863134232744 0.39406755212993583 0 -0.026958007141132719 0.39224186102134939 0 -0.01054863134232744 0.39406755212993583 0 -0.029178124195383171 0.40747529438647662 0 -0.01054863134232744 0.39406755212993583 0 -0.0002355237070055895 0.41457280431765953 0 0.0045512962674828534 0.39931916271626461 0 -0.01054863134232744 0.39406755212993583 0 0.0035438281903425049 0.38455553050149388 0 0.0045512962674828534 0.39931916271626461 0 -0.0071869989943903478 0.37136237685342322 0 -0.02689168176287695 0.37600324127273371 0 -0.01054863134232744 0.39406755212993583 0 -0.0071869989943903478 0.37136237685342322 0 -0.01054863134232744 0.39406755212993583 0 0.0035438281903425049 0.38455553050149388 0 -0.0002355237070055895 0.41457280431765953 0 -0.01710022300717675 0.4194468438535473 0 0.0017946831326668151 0.43318892200657833 0 -0.01710022300717675 0.4194468438535473 0 -0.016324796021224719 0.44112805835273772 0 0.0017946831326668151 0.43318892200657833 0 -0.01054863134232744 0.39406755212993583 0 -0.0002355237070055895 0.41457280431765953 0 -0.01710022300717675 0.4194468438535473 0 -0.01710022300717675 0.4194468438535473 0 -0.029178124195383171 0.40747529438647662 0 -0.034878510944833803 0.41745245163063022 0 -0.01710022300717675 0.4194468438535473 0 -0.030229917936003981 0.42786222080599701 0 -0.034878510944833803 0.41745245163063022 0 -0.01054863134232744 0.39406755212993583 0 -0.01710022300717675 0.4194468438535473 0 -0.029178124195383171 0.40747529438647662 0 -0.01710022300717675 0.4194468438535473 0 -0.030229917936003981 0.42786222080599701 0 -0.016324796021224719 0.44112805835273772 0 -0.030229917936003981 0.42786222080599701 0 -0.030922915700726541 0.44037456397288077 0 -0.016324796021224719 0.44112805835273772 0 -0.030229917936003981 0.42786222080599701 0 -0.040971451869048173 0.43558327389609502 0 -0.030922915700726541 0.44037456397288077 0 -0.030229917936003981 0.42786222080599701 0 -0.042789857161961577 0.42461823983729208 0 -0.040971451869048173 0.43558327389609502 0 -0.030229917936003981 0.42786222080599701 0 -0.042789857161961577 0.42461823983729208 0 -0.034878510944833803 0.41745245163063022 0 -0.042789857161961577 0.42461823983729208 0 -0.040971451869048173 0.43558327389609502 0 -0.051123476961934797 0.43132342979301608 0 -0.041607190280047827 0.40520976422072191 0 -0.029178124195383171 0.40747529438647662 0 -0.034878510944833803 0.41745245163063022 0 -0.042789857161961577 0.42461823983729208 0 -0.034878510944833803 0.41745245163063022 0 -0.046648175768505828 0.41361321189197259 0 -0.041607190280047827 0.40520976422072191 0 -0.034878510944833803 0.41745245163063022 0 -0.046648175768505828 0.41361321189197259 0 -0.049951952525585819 0.39925465178861441 0 -0.046648175768505828 0.41361321189197259 0 -0.06014891979874918 0.40997598054248119 0 -0.042789857161961577 0.42461823983729208 0 -0.046648175768505828 0.41361321189197259 0 -0.052252918432626597 0.42213721839342028 0 -0.046648175768505828 0.41361321189197259 0 -0.06014891979874918 0.40997598054248119 0 -0.052252918432626597 0.42213721839342028 0 -0.062703828757911542 0.42458088005858752 0 -0.06014891979874918 0.40997598054248119 0 -0.052252918432626597 0.42213721839342028 0 -0.062703828757911542 0.42458088005858752 0 -0.051123476961934797 0.43132342979301608 0 -0.062317743981298433 0.44127807173467659 0 -0.040971451869048173 0.43558327389609502 0 -0.051123476961934797 0.43132342979301608 0 -0.050343283882534007 0.44225501223364111 0 -0.042789857161961577 0.42461823983729208 0 -0.051123476961934797 0.43132342979301608 0 -0.052252918432626597 0.42213721839342028 0 -0.062703828757911542 0.42458088005858752 0 -0.051123476961934797 0.43132342979301608 0 -0.052252918432626597 0.42213721839342028 0 -0.062317743981298433 0.44127807173467659 0 -0.052213991752271927 0.45385963824072328 0 -0.066504599106466347 0.45813999272498729 0 -0.062317743981298433 0.44127807173467659 0 -0.050343283882534007 0.44225501223364111 0 -0.052213991752271927 0.45385963824072328 0 -0.050343283882534007 0.44225501223364111 0 -0.052213991752271927 0.45385963824072328 0 -0.040196779978340313 0.44733408120549051 0 -0.051123476961934797 0.43132342979301608 0 -0.062317743981298433 0.44127807173467659 0 -0.050343283882534007 0.44225501223364111 0 -0.053409898097032088 0.4651060891928504 0 -0.06607598157950495 0.47335151247929702 0 -0.066504599106466347 0.45813999272498729 0 -0.052213991752271927 0.45385963824072328 0 -0.053409898097032088 0.4651060891928504 0 -0.066504599106466347 0.45813999272498729 0 -0.052213991752271927 0.45385963824072328 0 -0.053409898097032088 0.4651060891928504 0 -0.041427916225176387 0.46063599009370448 0 -0.053409898097032088 0.4651060891928504 0 -0.041427916225176387 0.46063599009370448 0 -0.042495351235533649 0.47577738699326499 0 -0.052213991752271927 0.45385963824072328 0 -0.041427916225176387 0.46063599009370448 0 -0.040196779978340313 0.44733408120549051 0 -0.041427916225176387 0.46063599009370448 0 -0.028564830173135509 0.45217240103739043 0 -0.029321152491084579 0.46502089790910739 0 -0.041427916225176387 0.46063599009370448 0 -0.040196779978340313 0.44733408120549051 0 -0.028564830173135509 0.45217240103739043 0 -0.041427916225176387 0.46063599009370448 0 -0.029321152491084579 0.46502089790910739 0 -0.042495351235533649 0.47577738699326499 0 -0.040971451869048173 0.43558327389609502 0 -0.050343283882534007 0.44225501223364111 0 -0.040196779978340313 0.44733408120549051 0 -0.040196779978340313 0.44733408120549051 0 -0.030922915700726541 0.44037456397288077 0 -0.028564830173135509 0.45217240103739043 0 -0.040971451869048173 0.43558327389609502 0 -0.040196779978340313 0.44733408120549051 0 -0.030922915700726541 0.44037456397288077 0 -0.030922915700726541 0.44037456397288077 0 -0.016324796021224719 0.44112805835273772 0 -0.028564830173135509 0.45217240103739043 0 -0.016324796021224719 0.44112805835273772 0 -0.028564830173135509 0.45217240103739043 0 -0.015202943930014959 0.45831544991394368 0 -0.029321152491084579 0.46502089790910739 0 -0.015202943930014959 0.45831544991394368 0 -0.018914720891562421 0.47820326150723308 0 -0.028564830173135509 0.45217240103739043 0 -0.029321152491084579 0.46502089790910739 0 -0.015202943930014959 0.45831544991394368 0 -0.0027201110069152092 0.46645824183213258 0 -0.015202943930014959 0.45831544991394368 0 -0.018914720891562421 0.47820326150723308 0 -0.0027201110069152092 0.46645824183213258 0 -0.015202943930014959 0.45831544991394368 0 0.00076964137276068554 0.45088725606244762 0 -0.016324796021224719 0.44112805835273772 0 -0.015202943930014959 0.45831544991394368 0 0.00076964137276068554 0.45088725606244762 0 -0.016324796021224719 0.44112805835273772 0 0.00076964137276068554 0.45088725606244762 0 0.0017946831326668151 0.43318892200657833 0 -0.0071306613158194669 0.48970809938210857 0 -0.021771123938011169 0.5 0 0.0074972901138868342 0.5 0 -0.018914720891562421 0.47820326150723308 0 0.004665909452408884 0.48062913602120122 0 -0.0027201110069152092 0.46645824183213258 0 -0.018914720891562421 0.47820326150723308 0 0.004665909452408884 0.48062913602120122 0 -0.0071306613158194669 0.48970809938210857 0 -0.018914720891562421 0.47820326150723308 0 0.004665909452408884 0.48062913602120122 0 -0.029321152491084579 0.46502089790910739 0 -0.018914720891562421 0.47820326150723308 0 -0.042495351235533649 0.47577738699326499 0 -0.018914720891562421 0.47820326150723308 0 -0.042495351235533649 0.47577738699326499 0 -0.018914720891562421 0.47820326150723308 0 -0.021771123938011169 0.5 0 -0.03741829193451289 0.48857345697931492 0 -0.0071306613158194669 0.48970809938210857 0 -0.018914720891562421 0.47820326150723308 0 -0.021771123938011169 0.5 0 -0.021771123938011169 0.5 0 -0.03741829193451289 0.48857345697931492 0 -0.051039537989909123 0.5 0 -0.03741829193451289 0.48857345697931492 0 -0.042495351235533649 0.47577738699326499 0 -0.054896647558653547 0.48294598306334818 0 -0.018914720891562421 0.47820326150723308 0 -0.03741829193451289 0.48857345697931492 0 -0.042495351235533649 0.47577738699326499 0 -0.042495351235533649 0.47577738699326499 0 -0.054896647558653547 0.48294598306334818 0 -0.06607598157950495 0.47335151247929702 0 -0.053409898097032088 0.4651060891928504 0 -0.042495351235533649 0.47577738699326499 0 -0.06607598157950495 0.47335151247929702 0 -0.042495351235533649 0.47577738699326499 0 -0.06607598157950495 0.47335151247929702 0 -0.03741829193451289 0.48857345697931492 0 -0.054896647558653547 0.48294598306334818 0 -0.051039537989909123 0.5 0 -0.054896647558653547 0.48294598306334818 0 -0.051039537989909123 0.5 0 -0.06651775026144495 0.49047368465343139 0 -0.06651775026144495 0.49047368465343139 0 -0.080307952041807185 0.5 0 -0.07982686345540993 0.47894875555037753 0 -0.051039537989909123 0.5 0 -0.06651775026144495 0.49047368465343139 0 -0.080307952041807185 0.5 0 -0.080307952041807185 0.5 0 -0.093617065235772706 0.48847507089694658 0 -0.07982686345540993 0.47894875555037753 0 -0.07982686345540993 0.47894875555037753 0 -0.1047570793521663 0.47495152803740659 0 -0.093617065235772706 0.48847507089694658 0 -0.07982686345540993 0.47894875555037753 0 -0.1047570793521663 0.47495152803740659 0 -0.07982686345540993 0.47894875555037753 0 -0.088303567864659149 0.46828075239173678 0 -0.1047570793521663 0.47495152803740659 0 -0.07982686345540993 0.47894875555037753 0 -0.075836032027654834 0.46906344434831748 0 -0.088303567864659149 0.46828075239173678 0 -0.07982686345540993 0.47894875555037753 0 -0.075836032027654834 0.46906344434831748 0 -0.06607598157950495 0.47335151247929702 0 -0.054896647558653547 0.48294598306334818 0 -0.07982686345540993 0.47894875555037753 0 -0.054896647558653547 0.48294598306334818 0 -0.06651775026144495 0.49047368465343139 0 -0.07982686345540993 0.47894875555037753 0 -0.054896647558653547 0.48294598306334818 0 -0.07982686345540993 0.47894875555037753 0 -0.06607598157950495 0.47335151247929702 0 -0.075836032027654834 0.46906344434831748 0 -0.06607598157950495 0.47335151247929702 0 -0.066504599106466347 0.45813999272498729 0 -0.066504599106466347 0.45813999272498729 0 -0.079245324255425534 0.44786537586118819 0 -0.079108463449144475 0.46012087546330821 0 -0.075836032027654834 0.46906344434831748 0 -0.066504599106466347 0.45813999272498729 0 -0.079108463449144475 0.46012087546330821 0 -0.077836263580530723 0.42991166252297602 0 -0.062317743981298433 0.44127807173467659 0 -0.079245324255425534 0.44786537586118819 0 -0.062317743981298433 0.44127807173467659 0 -0.066504599106466347 0.45813999272498729 0 -0.079245324255425534 0.44786537586118819 0 -0.079245324255425534 0.44786537586118819 0 -0.091746910278061006 0.45812884406729848 0 -0.09795796513705228 0.43961280865388269 0 -0.077836263580530723 0.42991166252297602 0 -0.079245324255425534 0.44786537586118819 0 -0.09795796513705228 0.43961280865388269 0 -0.075836032027654834 0.46906344434831748 0 -0.079108463449144475 0.46012087546330821 0 -0.088303567864659149 0.46828075239173678 0 -0.079245324255425534 0.44786537586118819 0 -0.079108463449144475 0.46012087546330821 0 -0.091746910278061006 0.45812884406729848 0 -0.079108463449144475 0.46012087546330821 0 -0.091746910278061006 0.45812884406729848 0 -0.088303567864659149 0.46828075239173678 0 -0.091746910278061006 0.45812884406729848 0 -0.088303567864659149 0.46828075239173678 0 -0.098546058625515437 0.46847106688371332 0 -0.091746910278061006 0.45812884406729848 0 -0.1026810325811006 0.46416117624322989 0 -0.09795796513705228 0.43961280865388269 0 -0.091746910278061006 0.45812884406729848 0 -0.098546058625515437 0.46847106688371332 0 -0.1026810325811006 0.46416117624322989 0 -0.098546058625515437 0.46847106688371332 0 -0.1026810325811006 0.46416117624322989 0 -0.1026810325811006 0.46416117624322989 0 -0.09795796513705228 0.43961280865388269 0 -0.1026810325811006 0.46416117624322989 0 -0.09795796513705228 0.43961280865388269 0 -0.120577686077101 0.44550746276719849 0 -0.1026810325811006 0.46416117624322989 0 -0.1226927361633857 0.46018933214745478 0 -0.12056819344390191 0.47241642683652102 0 -0.1026810325811006 0.46416117624322989 0 -0.120577686077101 0.44550746276719849 0 -0.1226927361633857 0.46018933214745478 0 -0.1026810325811006 0.46416117624322989 0 -0.120577686077101 0.44550746276719849 0 -0.12056819344390191 0.47241642683652102 0 -0.1047570793521663 0.47495152803740659 0 -0.12056819344390191 0.47241642683652102 0 -0.1181650350127386 0.48610645367248878 0 -0.1047570793521663 0.47495152803740659 0 -0.13017353272746671 0.48330266525784871 0 -0.12056819344390191 0.47241642683652102 0 -0.1181650350127386 0.48610645367248878 0 -0.1327934268760522 0.5 0 -0.10957636609370509 0.50000000000000289 0 -0.1181650350127386 0.48610645367248878 0 -0.10957636609370509 0.50000000000000289 0 -0.1181650350127386 0.48610645367248878 0 -0.1047570793521663 0.47495152803740659 0 -0.080307952041807185 0.5 0 -0.093617065235772706 0.48847507089694658 0 -0.10957636609370509 0.50000000000000289 0 -0.093617065235772706 0.48847507089694658 0 -0.10957636609370509 0.50000000000000289 0 -0.1047570793521663 0.47495152803740659 0 -0.10957636609370509 0.50000000000000289 0 -0.1047570793521663 0.47495152803740659 0 -0.1026810325811006 0.46416117624322989 0 -0.12056819344390191 0.47241642683652102 0 -0.1047570793521663 0.47495152803740659 0 -0.088303567864659149 0.46828075239173678 0 -0.098546058625515437 0.46847106688371332 0 -0.1047570793521663 0.47495152803740659 0 -0.1026810325811006 0.46416117624322989 0 -0.1047570793521663 0.47495152803740659 0 -0.098546058625515437 0.46847106688371332 0 -0.1026810325811006 0.46416117624322989 0 -0.1047570793521663 0.47495152803740659 0 -0.16455528876719641 0.086999194064148591 0 -0.1730388026916885 0.076017651157435112 0 -0.17652645965057001 0.092000696858485581 0 -0.16455528876719641 0.086999194064148591 0 -0.1587567262103502 0.074486302013052258 0 -0.1730388026916885 0.076017651157435112 0 -0.16455528876719641 0.086999194064148591 0 -0.17652645965057001 0.092000696858485581 0 -0.16805532927388889 0.098464052387510687 0 -0.16455528876719641 0.086999194064148591 0 -0.15850013928289239 0.09590485017823247 0 -0.1525557115856094 0.085992230677488776 0 -0.16455528876719641 0.086999194064148591 0 -0.1587567262103502 0.074486302013052258 0 -0.1525557115856094 0.085992230677488776 0 -0.16316650185895959 0.063575751776150324 0 -0.1730388026916885 0.076017651157435112 0 -0.17581763702439249 0.057326315907041681 0 -0.1587567262103502 0.074486302013052258 0 -0.16316650185895959 0.063575751776150324 0 -0.15106604332030099 0.065662431787167547 0 -0.1587567262103502 0.074486302013052258 0 -0.16316650185895959 0.063575751776150324 0 -0.1730388026916885 0.076017651157435112 0 -0.1730388026916885 0.076017651157435112 0 -0.17581763702439249 0.057326315907041681 0 -0.18880287422175501 0.073502009379300154 0 -0.17652645965057001 0.092000696858485581 0 -0.18880287422175501 0.073502009379300154 0 -0.1846247431844768 0.094897640265541455 0 -0.18880287422175501 0.073502009379300154 0 -0.1730388026916885 0.076017651157435112 0 -0.17652645965057001 0.092000696858485581 0 -0.18880287422175501 0.073502009379300154 0 -0.17652645965057001 0.092000696858485581 0 -0.1846247431844768 0.094897640265541455 0 -0.18880287422175501 0.073502009379300154 0 -0.1846247431844768 0.094897640265541455 0 -0.17995635351994921 0.11880381774159871 0 -0.1846247431844768 0.094897640265541455 0 -0.17995635351994921 0.11880381774159871 0 -0.18970916580253691 0.099594795296980482 0 -0.1846247431844768 0.094897640265541455 0 -0.17995635351994921 0.11880381774159871 0 -0.1750715183136459 0.1099291645048561 0 -0.1748030604304816 0.1011866062858762 0 -0.1750715183136459 0.1099291645048561 0 -0.17048339849946509 0.10674582879357419 0 -0.1846247431844768 0.094897640265541455 0 -0.1748030604304816 0.1011866062858762 0 -0.1750715183136459 0.1099291645048561 0 -0.17652645965057001 0.092000696858485581 0 -0.1748030604304816 0.1011866062858762 0 -0.16805532927388889 0.098464052387510687 0 -0.17652645965057001 0.092000696858485581 0 -0.1846247431844768 0.094897640265541455 0 -0.1748030604304816 0.1011866062858762 0 -0.18522113750955341 0.1221740471154176 0 -0.17995635351994921 0.11880381774159871 0 -0.18970916580253691 0.099594795296980482 0 -0.18522113750955341 0.1221740471154176 0 -0.18970916580253691 0.099594795296980482 0 -0.17995635351994921 0.11880381774159871 0 -0.1750715183136459 0.1099291645048561 0 -0.17250653470983621 0.1213716645240282 0 -0.1750715183136459 0.1099291645048561 0 -0.17250653470983621 0.1213716645240282 0 -0.1691668794371361 0.1160070802709197 0 -0.17995635351994921 0.11880381774159871 0 -0.17250653470983621 0.1213716645240282 0 -0.1719692165511989 0.12950554805286199 0 -0.1691668794371361 0.1160070802709197 0 -0.1620844976615837 0.1246137265311604 0 -0.16187854495544071 0.10733265796957669 0 -0.17250653470983621 0.1213716645240282 0 -0.1691668794371361 0.1160070802709197 0 -0.1620844976615837 0.1246137265311604 0 -0.1691668794371361 0.1160070802709197 0 -0.17048339849946509 0.10674582879357419 0 -0.16187854495544071 0.10733265796957669 0 -0.1750715183136459 0.1099291645048561 0 -0.1691668794371361 0.1160070802709197 0 -0.17048339849946509 0.10674582879357419 0 -0.1748030604304816 0.1011866062858762 0 -0.16805532927388889 0.098464052387510687 0 -0.17048339849946509 0.10674582879357419 0 -0.16805532927388889 0.098464052387510687 0 -0.17048339849946509 0.10674582879357419 0 -0.16187854495544071 0.10733265796957669 0 -0.16455528876719641 0.086999194064148591 0 -0.16805532927388889 0.098464052387510687 0 -0.15850013928289239 0.09590485017823247 0 -0.16805532927388889 0.098464052387510687 0 -0.16187854495544071 0.10733265796957669 0 -0.15850013928289239 0.09590485017823247 0 -0.15850013928289239 0.09590485017823247 0 -0.1417293288851392 0.10358147428944491 0 -0.1525557115856094 0.085992230677488776 0 -0.16187854495544071 0.10733265796957669 0 -0.15850013928289239 0.09590485017823247 0 -0.1417293288851392 0.10358147428944491 0 -0.1620844976615837 0.1246137265311604 0 -0.1417293288851392 0.10358147428944491 0 -0.1620844976615837 0.1246137265311604 0 -0.16187854495544071 0.10733265796957669 0 -0.1417293288851392 0.10358147428944491 0 -0.1620844976615837 0.1246137265311604 0 -0.1417293288851392 0.10358147428944491 0 -0.1470909288768201 0.1209563670492638 0 -0.1417293288851392 0.10358147428944491 0 -0.1470909288768201 0.1209563670492638 0 -0.13279184602529889 0.12676322617348859 0 -0.1417293288851392 0.10358147428944491 0 -0.13279184602529889 0.12676322617348859 0 -0.1180803208823529 0.10110932699178039 0 -0.1417293288851392 0.10358147428944491 0 -0.1213741601086947 0.082549222047729312 0 -0.1180803208823529 0.10110932699178039 0 -0.14067827877505959 0.081359085993513255 0 -0.13050547102356161 0.073507565727731899 0 -0.1213741601086947 0.082549222047729312 0 -0.1417293288851392 0.10358147428944491 0 -0.1213741601086947 0.082549222047729312 0 -0.1417293288851392 0.10358147428944491 0 -0.14067827877505959 0.081359085993513255 0 -0.1213741601086947 0.082549222047729312 0 -0.1587567262103502 0.074486302013052258 0 -0.14067827877505959 0.081359085993513255 0 -0.1525557115856094 0.085992230677488776 0 -0.1417293288851392 0.10358147428944491 0 -0.14067827877505959 0.081359085993513255 0 -0.1525557115856094 0.085992230677488776 0 -0.1587567262103502 0.074486302013052258 0 -0.14067827877505959 0.081359085993513255 0 -0.15106604332030099 0.065662431787167547 0 -0.14067827877505959 0.081359085993513255 0 -0.15106604332030099 0.065662431787167547 0 -0.1369384890790131 0.062383327923228218 0 -0.13050547102356161 0.073507565727731899 0 -0.1369384890790131 0.062383327923228218 0 -0.12045977336379469 0.063302700443571031 0 -0.14067827877505959 0.081359085993513255 0 -0.13050547102356161 0.073507565727731899 0 -0.1369384890790131 0.062383327923228218 0 -0.1369384890790131 0.062383327923228218 0 -0.12843145491598579 0.047453341903202537 0 -0.144312510085051 0.041239273779704343 0 -0.1369384890790131 0.062383327923228218 0 -0.12843145491598579 0.047453341903202537 0 -0.12045977336379469 0.063302700443571031 0 -0.144312510085051 0.041239273779704343 0 -0.1232401834619155 0.023045930198183621 0 -0.12843145491598579 0.047453341903202537 0 -0.144312510085051 0.041239273779704343 0 -0.1232401834619155 0.023045930198183621 0 -0.144312510085051 0.041239273779704343 0 -0.14476038885686299 0.021005973058180579 0 -0.1563348404483558 0.036760728187491737 0 -0.144312510085051 0.041239273779704343 0 -0.15745252829630699 0.049570112072790273 0 -0.1563348404483558 0.036760728187491737 0 -0.15106604332030099 0.065662431787167547 0 -0.1369384890790131 0.062383327923228218 0 -0.15745252829630699 0.049570112072790273 0 -0.1369384890790131 0.062383327923228218 0 -0.15745252829630699 0.049570112072790273 0 -0.1369384890790131 0.062383327923228218 0 -0.144312510085051 0.041239273779704343 0 -0.15745252829630699 0.049570112072790273 0 -0.12787206249873251 -0.0031963116537159961 0 -0.14476038885686299 0.021005973058180579 0 -0.1232401834619155 0.023045930198183621 0 -0.144312510085051 0.041239273779704343 0 -0.14476038885686299 0.021005973058180579 0 -0.1232401834619155 0.023045930198183621 0 -0.14476038885686299 0.021005973058180579 0 -0.1621736428645085 0.02673112782385793 0 -0.1563348404483558 0.036760728187491737 0 -0.1591204392618577 -0.00013298485504840629 0 -0.14476038885686299 0.021005973058180579 0 -0.1621736428645085 0.02673112782385793 0 -0.12787206249873251 -0.0031963116537159961 0 -0.1591204392618577 -0.00013298485504840629 0 -0.14476038885686299 0.021005973058180579 0 -0.1591204392618577 -0.00013298485504840629 0 -0.18056157430543551 -0.001379124261014261 0 -0.17392244170171081 0.01367045871087162 0 -0.1591204392618577 -0.00013298485504840629 0 -0.1621736428645085 0.02673112782385793 0 -0.17392244170171081 0.01367045871087162 0 -0.1591204392618577 -0.00013298485504840629 0 -0.1621736428645085 0.02673112782385793 0 -0.1621736428645085 0.02673112782385793 0 -0.18045140480021701 0.0238305441466308 0 -0.17796656751360099 0.036756896222352307 0 -0.18045140480021701 0.0238305441466308 0 -0.17796656751360099 0.036756896222352307 0 -0.19848060673089529 0.023943680371915011 0 -0.18045140480021701 0.0238305441466308 0 -0.17392244170171081 0.01367045871087162 0 -0.18971376519036939 0.018050557604157112 0 -0.1621736428645085 0.02673112782385793 0 -0.18045140480021701 0.0238305441466308 0 -0.17392244170171081 0.01367045871087162 0 -0.18056157430543551 -0.001379124261014261 0 -0.17392244170171081 0.01367045871087162 0 -0.18971376519036939 0.018050557604157112 0 -0.16316650185895959 0.063575751776150324 0 -0.15106604332030099 0.065662431787167547 0 -0.15745252829630699 0.049570112072790273 0 -0.15745252829630699 0.049570112072790273 0 -0.17796656751360099 0.036756896222352307 0 -0.17581763702439249 0.057326315907041681 0 -0.16316650185895959 0.063575751776150324 0 -0.15745252829630699 0.049570112072790273 0 -0.17581763702439249 0.057326315907041681 0 -0.15745252829630699 0.049570112072790273 0 -0.17796656751360099 0.036756896222352307 0 -0.1621736428645085 0.02673112782385793 0 -0.1563348404483558 0.036760728187491737 0 -0.17796656751360099 0.036756896222352307 0 -0.15745252829630699 0.049570112072790273 0 -0.1563348404483558 0.036760728187491737 0 -0.17796656751360099 0.036756896222352307 0 -0.17796656751360099 0.036756896222352307 0 -0.17581763702439249 0.057326315907041681 0 -0.19364174047632571 0.048722844875607643 0 -0.17581763702439249 0.057326315907041681 0 -0.19364174047632571 0.048722844875607643 0 -0.18880287422175501 0.073502009379300154 0 -0.19364174047632571 0.048722844875607643 0 -0.20343302545734321 0.051456599140744123 0 -0.18880287422175501 0.073502009379300154 0 -0.19364174047632571 0.048722844875607643 0 -0.18880287422175501 0.073502009379300154 0 -0.20343302545734321 0.051456599140744123 0 -0.18880287422175501 0.073502009379300154 0 -0.17796656751360099 0.036756896222352307 0 -0.19364174047632571 0.048722844875607643 0 -0.19848060673089529 0.023943680371915011 0 -0.19364174047632571 0.048722844875607643 0 -0.20157091192291091 0.033031694604453453 0 -0.20474128908588199 0.037784189760403743 0 -0.19364174047632571 0.048722844875607643 0 -0.19848060673089529 0.023943680371915011 0 -0.19364174047632571 0.048722844875607643 0 -0.20157091192291091 0.033031694604453453 0 -0.19848060673089529 0.023943680371915011 0 -0.19364174047632571 0.048722844875607643 0 -0.20474128908588199 0.037784189760403743 0 -0.20343302545734321 0.051456599140744123 0 -0.21463172495051369 0.054543742003842058 0 -0.20343302545734321 0.051456599140744123 0 -0.2180631766929314 0.029411188902187989 0 -0.20343302545734321 0.051456599140744123 0 -0.2180631766929314 0.029411188902187989 0 -0.20474128908588199 0.037784189760403743 0 -0.20343302545734321 0.051456599140744123 0 -0.2180631766929314 0.029411188902187989 0 -0.20474128908588199 0.037784189760403743 0 -0.20768799101057289 0.028768748490806469 0 -0.2180631766929314 0.029411188902187989 0 -0.20157091192291091 0.033031694604453453 0 -0.20474128908588199 0.037784189760403743 0 -0.20768799101057289 0.028768748490806469 0 -0.21463172495051369 0.054543742003842058 0 -0.22538380663845139 0.050146690631453189 0 -0.2138957348568456 0.066136827873339063 0 -0.21463172495051369 0.054543742003842058 0 -0.20343302545734321 0.051456599140744123 0 -0.2138957348568456 0.066136827873339063 0 -0.20136409875144851 -0.0067204828942713842 0 -0.19921696005866421 0.020172916874502369 0 -0.18971376519036939 0.018050557604157112 0 -0.20136409875144851 -0.0067204828942713842 0 -0.18971376519036939 0.018050557604157112 0 -0.18056157430543551 -0.001379124261014261 0 -0.20136409875144851 -0.0067204828942713842 0 -0.18971376519036939 0.018050557604157112 0 -0.18045140480021701 0.0238305441466308 0 -0.18971376519036939 0.018050557604157112 0 -0.19848060673089529 0.023943680371915011 0 -0.17796656751360099 0.036756896222352307 0 -0.19848060673089529 0.023943680371915011 0 -0.19921696005866421 0.020172916874502369 0 -0.18971376519036939 0.018050557604157112 0 -0.19848060673089529 0.023943680371915011 0 -0.19921696005866421 0.020172916874502369 0 -0.19848060673089529 0.023943680371915011 0 -0.2091081470067892 0.017305642583653739 0 -0.19921696005866421 0.020172916874502369 0 -0.19848060673089529 0.023943680371915011 0 -0.20157091192291091 0.033031694604453453 0 -0.19848060673089529 0.023943680371915011 0 -0.20363419392054091 0.025874662580813119 0 -0.20363419392054091 0.025874662580813119 0 -0.20768799101057289 0.028768748490806469 0 -0.2091081470067892 0.017305642583653739 0 -0.20157091192291091 0.033031694604453453 0 -0.20363419392054091 0.025874662580813119 0 -0.20768799101057289 0.028768748490806469 0 -0.20768799101057289 0.028768748490806469 0 -0.2180631766929314 0.029411188902187989 0 -0.2091081470067892 0.017305642583653739 0 -0.19848060673089529 0.023943680371915011 0 -0.20363419392054091 0.025874662580813119 0 -0.2091081470067892 0.017305642583653739 0 -0.19848060673089529 0.023943680371915011 0 -0.2091081470067892 0.017305642583653739 0 -0.20136409875144851 -0.0067204828942713842 0 -0.2091081470067892 0.017305642583653739 0 -0.21631877362206239 0.001625407428068355 0 -0.20136409875144851 -0.0067204828942713842 0 -0.19921696005866421 0.020172916874502369 0 -0.2091081470067892 0.017305642583653739 0 -0.2091081470067892 0.017305642583653739 0 -0.21631877362206239 0.001625407428068355 0 -0.23269332792851949 0.0073657786636318751 0 -0.2180631766929314 0.029411188902187989 0 -0.2091081470067892 0.017305642583653739 0 -0.23269332792851949 0.0073657786636318751 0 -0.2180631766929314 0.029411188902187989 0 -0.23269332792851949 0.0073657786636318751 0 -0.2180631766929314 0.029411188902187989 0 -0.23269332792851949 0.0073657786636318751 0 -0.23397605946203401 0.033260364970976078 0 -0.25634800387939422 0.010446769574923199 0 -0.25192898378361739 0.030380811532505918 0 -0.23269332792851949 0.0073657786636318751 0 -0.25192898378361739 0.030380811532505918 0 -0.23269332792851949 0.0073657786636318751 0 -0.23397605946203401 0.033260364970976078 0 -0.24732347916410771 -0.01467963157492426 0 -0.25634800387939422 0.010446769574923199 0 -0.23269332792851949 0.0073657786636318751 0 -0.22538380663845139 0.050146690631453189 0 -0.24006665359061921 0.048964751400238579 0 -0.23114723692366779 0.071367801019721094 0 -0.21463172495051369 0.054543742003842058 0 -0.2180631766929314 0.029411188902187989 0 -0.22538380663845139 0.050146690631453189 0 -0.2180631766929314 0.029411188902187989 0 -0.22538380663845139 0.050146690631453189 0 -0.23397605946203401 0.033260364970976078 0 -0.22538380663845139 0.050146690631453189 0 -0.23397605946203401 0.033260364970976078 0 -0.24006665359061921 0.048964751400238579 0 -0.25440848379326342 0.059602881396810997 0 -0.25192898378361739 0.030380811532505918 0 -0.24006665359061921 0.048964751400238579 0 -0.25192898378361739 0.030380811532505918 0 -0.23397605946203401 0.033260364970976078 0 -0.24006665359061921 0.048964751400238579 0 -0.25440848379326342 0.059602881396810997 0 -0.24006665359061921 0.048964751400238579 0 -0.23114723692366779 0.071367801019721094 0 -0.25044227510682571 0.079537657810389961 0 -0.25440848379326342 0.059602881396810997 0 -0.23114723692366779 0.071367801019721094 0 -0.25440848379326342 0.059602881396810997 0 -0.23114723692366779 0.071367801019721094 0 -0.25044227510682571 0.079537657810389961 0 -0.23114723692366779 0.071367801019721094 0 -0.2401659045882438 0.097821620661967645 0 -0.25895491275748472 0.096660090682144206 0 -0.25044227510682571 0.079537657810389961 0 -0.2401659045882438 0.097821620661967645 0 -0.2221653668776967 0.093337698934528604 0 -0.23114723692366779 0.071367801019721094 0 -0.2401659045882438 0.097821620661967645 0 -0.2221653668776967 0.093337698934528604 0 -0.23114723692366779 0.071367801019721094 0 -0.20788599005407221 0.083132720642631192 0 -0.22538380663845139 0.050146690631453189 0 -0.23114723692366779 0.071367801019721094 0 -0.2138957348568456 0.066136827873339063 0 -0.23114723692366779 0.071367801019721094 0 -0.20788599005407221 0.083132720642631192 0 -0.23114723692366779 0.071367801019721094 0 -0.2138957348568456 0.066136827873339063 0 -0.20788599005407221 0.083132720642631192 0 -0.2138957348568456 0.066136827873339063 0 -0.20788599005407221 0.083132720642631192 0 -0.18880287422175501 0.073502009379300154 0 -0.2221653668776967 0.093337698934528604 0 -0.20788599005407221 0.083132720642631192 0 -0.20529714237859059 0.098540340703450635 0 -0.1846247431844768 0.094897640265541455 0 -0.20788599005407221 0.083132720642631192 0 -0.18880287422175501 0.073502009379300154 0 -0.20788599005407221 0.083132720642631192 0 -0.18970916580253691 0.099594795296980482 0 -0.20529714237859059 0.098540340703450635 0 -0.1846247431844768 0.094897640265541455 0 -0.20788599005407221 0.083132720642631192 0 -0.18970916580253691 0.099594795296980482 0 -0.1846247431844768 0.094897640265541455 0 -0.20788599005407221 0.083132720642631192 0 -0.20343302545734321 0.051456599140744123 0 -0.2138957348568456 0.066136827873339063 0 -0.18880287422175501 0.073502009379300154 0 -0.18522113750955341 0.1221740471154176 0 -0.19471154152636999 0.11325121061083621 0 -0.18970916580253691 0.099594795296980482 0 -0.19471154152636999 0.11325121061083621 0 -0.19842010626931711 0.1064088704546554 0 -0.20396257536977089 0.1142491352073545 0 -0.19704835404434221 0.1244438215738717 0 -0.19471154152636999 0.11325121061083621 0 -0.20396257536977089 0.1142491352073545 0 -0.18522113750955341 0.1221740471154176 0 -0.19704835404434221 0.1244438215738717 0 -0.19471154152636999 0.11325121061083621 0 -0.19471154152636999 0.11325121061083621 0 -0.18970916580253691 0.099594795296980482 0 -0.19842010626931711 0.1064088704546554 0 -0.19842010626931711 0.1064088704546554 0 -0.20529714237859059 0.098540340703450635 0 -0.20396257536977089 0.1142491352073545 0 -0.18970916580253691 0.099594795296980482 0 -0.19842010626931711 0.1064088704546554 0 -0.20529714237859059 0.098540340703450635 0 -0.20529714237859059 0.098540340703450635 0 -0.20396257536977089 0.1142491352073545 0 -0.22246627449383 0.1135342502149887 0 -0.2221653668776967 0.093337698934528604 0 -0.20529714237859059 0.098540340703450635 0 -0.22246627449383 0.1135342502149887 0 -0.19704835404434221 0.1244438215738717 0 -0.20396257536977089 0.1142491352073545 0 -0.2121450465195166 0.12996964699786359 0 -0.20396257536977089 0.1142491352073545 0 -0.22246627449383 0.1135342502149887 0 -0.2121450465195166 0.12996964699786359 0 -0.2221653668776967 0.093337698934528604 0 -0.22246627449383 0.1135342502149887 0 -0.2401659045882438 0.097821620661967645 0 -0.22246627449383 0.1135342502149887 0 -0.2401659045882438 0.097821620661967645 0 -0.24138835164683159 0.1223831451018326 0 -0.25856821657022228 0.1162694354221659 0 -0.2401659045882438 0.097821620661967645 0 -0.24138835164683159 0.1223831451018326 0 -0.25557465584018968 0.14338654667308429 0 -0.24138835164683159 0.1223831451018326 0 -0.2326756957403372 0.1393496310814939 0 -0.22246627449383 0.1135342502149887 0 -0.2326756957403372 0.1393496310814939 0 -0.2121450465195166 0.12996964699786359 0 -0.22246627449383 0.1135342502149887 0 -0.24138835164683159 0.1223831451018326 0 -0.2326756957403372 0.1393496310814939 0 -0.2326756957403372 0.1393496310814939 0 -0.22782503674786711 0.16242465647263471 0 -0.20427907298222181 0.15358897770324481 0 -0.25557465584018968 0.14338654667308429 0 -0.2326756957403372 0.1393496310814939 0 -0.22782503674786711 0.16242465647263471 0 -0.25137100051351241 0.17126033524202469 0 -0.22782503674786711 0.16242465647263471 0 -0.25137100051351241 0.17126033524202469 0 -0.25557465584018968 0.14338654667308429 0 -0.22782503674786711 0.16242465647263471 0 -0.25137100051351241 0.17126033524202469 0 -0.22692626183464151 0.1856289083383334 0 -0.22782503674786711 0.16242465647263471 0 -0.25137100051351241 0.17126033524202469 0 -0.22692626183464151 0.1856289083383334 0 -0.24857413935887121 0.1938346731499348 0 -0.22692626183464151 0.1856289083383334 0 -0.22782503674786711 0.16242465647263471 0 -0.2082360945938585 0.17095539510797039 0 -0.22782503674786711 0.16242465647263471 0 -0.20427907298222181 0.15358897770324481 0 -0.22782503674786711 0.16242465647263471 0 -0.2082360945938585 0.17095539510797039 0 -0.20427907298222181 0.15358897770324481 0 -0.22692626183464151 0.1856289083383334 0 -0.2082360945938585 0.17095539510797039 0 -0.2048095002263155 0.18803998098643829 0 -0.2082360945938585 0.17095539510797039 0 -0.18975293240789781 0.18034993493684029 0 -0.2048095002263155 0.18803998098643829 0 -0.2082360945938585 0.17095539510797039 0 -0.18975293240789781 0.18034993493684029 0 -0.18875005446824489 0.1591804997641007 0 -0.2082360945938585 0.17095539510797039 0 -0.18875005446824489 0.1591804997641007 0 -0.20427907298222181 0.15358897770324481 0 -0.19198433242359839 0.14090287736054949 0 -0.19839178025873641 0.13561201509757589 0 -0.20427907298222181 0.15358897770324481 0 -0.20427907298222181 0.15358897770324481 0 -0.18073310921657629 0.14475329893385591 0 -0.18875005446824489 0.1591804997641007 0 -0.20427907298222181 0.15358897770324481 0 -0.18073310921657629 0.14475329893385591 0 -0.19198433242359839 0.14090287736054949 0 -0.20427907298222181 0.15358897770324481 0 -0.18073310921657629 0.14475329893385591 0 -0.19198433242359839 0.14090287736054949 0 -0.18990402239406781 0.13151688705943579 0 -0.18073310921657629 0.14475329893385591 0 -0.19198433242359839 0.14090287736054949 0 -0.18990402239406781 0.13151688705943579 0 -0.19839178025873641 0.13561201509757589 0 -0.19704835404434221 0.1244438215738717 0 -0.18990402239406781 0.13151688705943579 0 -0.19839178025873641 0.13561201509757589 0 -0.18522113750955341 0.1221740471154176 0 -0.19704835404434221 0.1244438215738717 0 -0.18990402239406781 0.13151688705943579 0 -0.19704835404434221 0.1244438215738717 0 -0.19839178025873641 0.13561201509757589 0 -0.2121450465195166 0.12996964699786359 0 -0.19839178025873641 0.13561201509757589 0 -0.2121450465195166 0.12996964699786359 0 -0.20427907298222181 0.15358897770324481 0 -0.2326756957403372 0.1393496310814939 0 -0.2121450465195166 0.12996964699786359 0 -0.20427907298222181 0.15358897770324481 0 -0.2412662617624578 0.25135091103929058 0 -0.2238352464541814 0.2350324997315702 0 -0.2412662617624578 0.25135091103929058 0 -0.2238352464541814 0.2350324997315702 0 -0.2202348875839712 0.24837544522908411 0 -0.2412662617624578 0.25135091103929058 0 -0.2238352464541814 0.2350324997315702 0 -0.24368027941200501 0.23576390084582491 0 -0.25162939880835072 0.24125374225886609 0 -0.2412662617624578 0.25135091103929058 0 -0.24368027941200501 0.23576390084582491 0 -0.25162939880835072 0.24125374225886609 0 -0.25359680925970529 0.25050968552728381 0 -0.2412662617624578 0.25135091103929058 0 -0.2238352464541814 0.2350324997315702 0 -0.24368027941200501 0.23576390084582491 0 -0.24393802492032279 0.2219519397728941 0 -0.25564953007324148 0.23090544455198059 0 -0.24368027941200501 0.23576390084582491 0 -0.24393802492032279 0.2219519397728941 0 -0.2238352464541814 0.2350324997315702 0 -0.24393802492032279 0.2219519397728941 0 -0.234542648519072 0.20836824583224101 0 -0.2238352464541814 0.2350324997315702 0 -0.234542648519072 0.20836824583224101 0 -0.21490817461572151 0.20539535526803701 0 -0.25011019429849579 0.20945026987687509 0 -0.24393802492032279 0.2219519397728941 0 -0.234542648519072 0.20836824583224101 0 -0.25011019429849579 0.20945026987687509 0 -0.234542648519072 0.20836824583224101 0 -0.24857413935887121 0.1938346731499348 0 -0.22692626183464151 0.1856289083383334 0 -0.234542648519072 0.20836824583224101 0 -0.24857413935887121 0.1938346731499348 0 -0.22692626183464151 0.1856289083383334 0 -0.234542648519072 0.20836824583224101 0 -0.21490817461572151 0.20539535526803701 0 -0.2048095002263155 0.18803998098643829 0 -0.19033516526224881 0.20300450953651769 0 -0.21490817461572151 0.20539535526803701 0 -0.22692626183464151 0.1856289083383334 0 -0.2048095002263155 0.18803998098643829 0 -0.21490817461572151 0.20539535526803701 0 -0.18975293240789781 0.18034993493684029 0 -0.2048095002263155 0.18803998098643829 0 -0.19033516526224881 0.20300450953651769 0 -0.19033516526224881 0.20300450953651769 0 -0.20443718155086241 0.2216829477694259 0 -0.186689626166504 0.22912033395086309 0 -0.19033516526224881 0.20300450953651769 0 -0.21490817461572151 0.20539535526803701 0 -0.20443718155086241 0.2216829477694259 0 -0.2238352464541814 0.2350324997315702 0 -0.20443718155086241 0.2216829477694259 0 -0.20649740409834891 0.23896232437933371 0 -0.2238352464541814 0.2350324997315702 0 -0.21490817461572151 0.20539535526803701 0 -0.20443718155086241 0.2216829477694259 0 -0.20443718155086241 0.2216829477694259 0 -0.20649740409834891 0.23896232437933371 0 -0.186689626166504 0.22912033395086309 0 -0.191131830424698 0.24603646340069529 0 -0.20649740409834891 0.23896232437933371 0 -0.186689626166504 0.22912033395086309 0 -0.20870061172448501 0.25598841172981152 0 -0.191131830424698 0.24603646340069529 0 -0.20649740409834891 0.23896232437933371 0 -0.2238352464541814 0.2350324997315702 0 -0.2202348875839712 0.24837544522908411 0 -0.20649740409834891 0.23896232437933371 0 -0.20870061172448501 0.25598841172981152 0 -0.2202348875839712 0.24837544522908411 0 -0.20649740409834891 0.23896232437933371 0 -0.17478515048514501 0.25599795249760859 0 -0.15734776493634059 0.25305341113509328 0 -0.1714999341223786 0.23876074985587981 0 -0.15734776493634059 0.25305341113509328 0 -0.1714999341223786 0.23876074985587981 0 -0.14528694463002961 0.23326175474339769 0 -0.17478515048514501 0.25599795249760859 0 -0.191131830424698 0.24603646340069529 0 -0.1714999341223786 0.23876074985587981 0 -0.191131830424698 0.24603646340069529 0 -0.1714999341223786 0.23876074985587981 0 -0.186689626166504 0.22912033395086309 0 -0.1714999341223786 0.23876074985587981 0 -0.186689626166504 0.22912033395086309 0 -0.1660092811152292 0.21882881734163881 0 -0.1714999341223786 0.23876074985587981 0 -0.1660092811152292 0.21882881734163881 0 -0.14528694463002961 0.23326175474339769 0 -0.1660092811152292 0.21882881734163881 0 -0.17091722381567609 0.19413697787237741 0 -0.1660092811152292 0.21882881734163881 0 -0.17091722381567609 0.19413697787237741 0 -0.15132890621986689 0.2023554668109106 0 -0.19033516526224881 0.20300450953651769 0 -0.186689626166504 0.22912033395086309 0 -0.1660092811152292 0.21882881734163881 0 -0.19033516526224881 0.20300450953651769 0 -0.1660092811152292 0.21882881734163881 0 -0.17091722381567609 0.19413697787237741 0 -0.18975293240789781 0.18034993493684029 0 -0.19033516526224881 0.20300450953651769 0 -0.17091722381567609 0.19413697787237741 0 -0.15653828758161059 0.18819203387869779 0 -0.17091722381567609 0.19413697787237741 0 -0.15132890621986689 0.2023554668109106 0 -0.15132890621986689 0.2023554668109106 0 -0.13682183104184811 0.19824820433711629 0 -0.14156698960639941 0.18348881022584551 0 -0.15653828758161059 0.18819203387869779 0 -0.15132890621986689 0.2023554668109106 0 -0.14156698960639941 0.18348881022584551 0 -0.13682183104184811 0.19824820433711629 0 -0.14156698960639941 0.18348881022584551 0 -0.1211653040174074 0.1936784419600068 0 -0.14156698960639941 0.18348881022584551 0 -0.1211653040174074 0.1936784419600068 0 -0.13682183104184811 0.19824820433711629 0 -0.1332261243237185 0.2134700983517023 0 -0.1211653040174074 0.1936784419600068 0 -0.15132890621986689 0.2023554668109106 0 -0.13682183104184811 0.19824820433711629 0 -0.1332261243237185 0.2134700983517023 0 -0.1332261243237185 0.2134700983517023 0 -0.1211653040174074 0.1936784419600068 0 -0.1332261243237185 0.2134700983517023 0 -0.1246635076556106 0.22394125084985261 0 -0.11971246994741459 0.21141597243634161 0 -0.15132890621986689 0.2023554668109106 0 -0.1332261243237185 0.2134700983517023 0 -0.14896281407221099 0.2169790343119124 0 -0.1660092811152292 0.21882881734163881 0 -0.15132890621986689 0.2023554668109106 0 -0.14896281407221099 0.2169790343119124 0 -0.1660092811152292 0.21882881734163881 0 -0.14896281407221099 0.2169790343119124 0 -0.14528694463002961 0.23326175474339769 0 -0.1332261243237185 0.2134700983517023 0 -0.14896281407221099 0.2169790343119124 0 -0.14528694463002961 0.23326175474339769 0 -0.1332261243237185 0.2134700983517023 0 -0.14528694463002961 0.23326175474339769 0 -0.1332261243237185 0.2134700983517023 0 -0.14528694463002961 0.23326175474339769 0 -0.1246635076556106 0.22394125084985261 0 -0.14528694463002961 0.23326175474339769 0 -0.12675440856420331 0.23939669962326091 0 -0.1246635076556106 0.22394125084985261 0 -0.13856544389761921 0.25213329791345018 0 -0.14528694463002961 0.23326175474339769 0 -0.12675440856420331 0.23939669962326091 0 -0.1275845452889372 0.25235475329170443 0 -0.13856544389761921 0.25213329791345018 0 -0.12675440856420331 0.23939669962326091 0 -0.15734776493634059 0.25305341113509328 0 -0.14528694463002961 0.23326175474339769 0 -0.15734776493634059 0.25305341113509328 0 -0.13856544389761921 0.25213329791345018 0 -0.14528694463002961 0.23326175474339769 0 -0.16493670928229651 0.146492663074278 0 -0.1582672888307903 0.15037356760637349 0 -0.15403990494035871 0.1347366106955723 0 -0.16680932318498209 0.15577363542434369 0 -0.1752879638554187 0.14270999521765559 0 -0.17104197359893211 0.16445312377535021 0 -0.16493670928229651 0.146492663074278 0 -0.1752879638554187 0.14270999521765559 0 -0.15403990494035871 0.1347366106955723 0 -0.16493670928229651 0.146492663074278 0 -0.16680932318498209 0.15577363542434369 0 -0.1752879638554187 0.14270999521765559 0 -0.16680932318498209 0.15577363542434369 0 -0.1582672888307903 0.15037356760637349 0 -0.1600583562538955 0.1610662385102036 0 -0.16493670928229651 0.146492663074278 0 -0.16680932318498209 0.15577363542434369 0 -0.1582672888307903 0.15037356760637349 0 -0.1719692165511989 0.12950554805286199 0 -0.1752879638554187 0.14270999521765559 0 -0.15403990494035871 0.1347366106955723 0 -0.1752879638554187 0.14270999521765559 0 -0.15403990494035871 0.1347366106955723 0 -0.1620844976615837 0.1246137265311604 0 -0.1719692165511989 0.12950554805286199 0 -0.15403990494035871 0.1347366106955723 0 -0.17250653470983621 0.1213716645240282 0 -0.1620844976615837 0.1246137265311604 0 -0.1719692165511989 0.12950554805286199 0 -0.17995635351994921 0.11880381774159871 0 -0.1719692165511989 0.12950554805286199 0 -0.1752879638554187 0.14270999521765559 0 -0.18522113750955341 0.1221740471154176 0 -0.18073310921657629 0.14475329893385591 0 -0.18522113750955341 0.1221740471154176 0 -0.17995635351994921 0.11880381774159871 0 -0.1752879638554187 0.14270999521765559 0 -0.17995635351994921 0.11880381774159871 0 -0.1752879638554187 0.14270999521765559 0 -0.18522113750955341 0.1221740471154176 0 -0.18073310921657629 0.14475329893385591 0 -0.1752879638554187 0.14270999521765559 0 -0.18522113750955341 0.1221740471154176 0 -0.18990402239406781 0.13151688705943579 0 -0.18073310921657629 0.14475329893385591 0 -0.18073310921657629 0.14475329893385591 0 -0.1752879638554187 0.14270999521765559 0 -0.17104197359893211 0.16445312377535021 0 -0.1752879638554187 0.14270999521765559 0 -0.17104197359893211 0.16445312377535021 0 -0.18073310921657629 0.14475329893385591 0 -0.1752879638554187 0.14270999521765559 0 -0.18073310921657629 0.14475329893385591 0 -0.17582516651612301 0.16944513840311609 0 -0.18975293240789781 0.18034993493684029 0 -0.18875005446824489 0.1591804997641007 0 -0.17582516651612301 0.16944513840311609 0 -0.18875005446824489 0.1591804997641007 0 -0.18073310921657629 0.14475329893385591 0 -0.17582516651612301 0.16944513840311609 0 -0.18073310921657629 0.14475329893385591 0 -0.17582516651612301 0.16944513840311609 0 -0.17104197359893211 0.16445312377535021 0 -0.18975293240789781 0.18034993493684029 0 -0.17091722381567609 0.19413697787237741 0 -0.17582516651612301 0.16944513840311609 0 -0.17091722381567609 0.19413697787237741 0 -0.17582516651612301 0.16944513840311609 0 -0.17091722381567609 0.19413697787237741 0 -0.17582516651612301 0.16944513840311609 0 -0.16196867519539149 0.17329917849168411 0 -0.15653828758161059 0.18819203387869779 0 -0.17091722381567609 0.19413697787237741 0 -0.16196867519539149 0.17329917849168411 0 -0.16680932318498209 0.15577363542434369 0 -0.17104197359893211 0.16445312377535021 0 -0.1600583562538955 0.1610662385102036 0 -0.16196867519539149 0.17329917849168411 0 -0.17104197359893211 0.16445312377535021 0 -0.1600583562538955 0.1610662385102036 0 -0.17582516651612301 0.16944513840311609 0 -0.16196867519539149 0.17329917849168411 0 -0.17104197359893211 0.16445312377535021 0 -0.16196867519539149 0.17329917849168411 0 -0.1600583562538955 0.1610662385102036 0 -0.15058654738868271 0.16692285717757399 0 -0.1600583562538955 0.1610662385102036 0 -0.15058654738868271 0.16692285717757399 0 -0.14893284115272579 0.15614598145465081 0 -0.15058654738868271 0.16692285717757399 0 -0.14156698960639941 0.18348881022584551 0 -0.13942890778002201 0.16316639075987571 0 -0.15058654738868271 0.16692285717757399 0 -0.13942890778002201 0.16316639075987571 0 -0.14893284115272579 0.15614598145465081 0 -0.13942890778002201 0.16316639075987571 0 -0.1372067456203217 0.1498659214755077 0 -0.14893284115272579 0.15614598145465081 0 -0.16196867519539149 0.17329917849168411 0 -0.15058654738868271 0.16692285717757399 0 -0.14156698960639941 0.18348881022584551 0 -0.16196867519539149 0.17329917849168411 0 -0.14156698960639941 0.18348881022584551 0 -0.15653828758161059 0.18819203387869779 0 -0.16196867519539149 0.17329917849168411 0 -0.14156698960639941 0.18348881022584551 0 -0.14156698960639941 0.18348881022584551 0 -0.1212356254850179 0.17772098389286661 0 -0.1211653040174074 0.1936784419600068 0 -0.14156698960639941 0.18348881022584551 0 -0.1292359491093828 0.16803570062978621 0 -0.1212356254850179 0.17772098389286661 0 -0.14156698960639941 0.18348881022584551 0 -0.13942890778002201 0.16316639075987571 0 -0.1292359491093828 0.16803570062978621 0 -0.13942890778002201 0.16316639075987571 0 -0.126379387278066 0.15597478529925399 0 -0.1372067456203217 0.1498659214755077 0 -0.13942890778002201 0.16316639075987571 0 -0.1292359491093828 0.16803570062978621 0 -0.126379387278066 0.15597478529925399 0 -0.1292359491093828 0.16803570062978621 0 -0.126379387278066 0.15597478529925399 0 -0.12032793539161341 0.1646437059605354 0 -0.1372067456203217 0.1498659214755077 0 -0.13882554850675161 0.1383506728622356 0 -0.12055833464411039 0.1379425794840464 0 -0.126379387278066 0.15597478529925399 0 -0.1372067456203217 0.1498659214755077 0 -0.12055833464411039 0.1379425794840464 0 -0.1582672888307903 0.15037356760637349 0 -0.14804920104264299 0.14548091319836989 0 -0.15403990494035871 0.1347366106955723 0 -0.1372067456203217 0.1498659214755077 0 -0.14804920104264299 0.14548091319836989 0 -0.14893284115272579 0.15614598145465081 0 -0.1372067456203217 0.1498659214755077 0 -0.14804920104264299 0.14548091319836989 0 -0.13882554850675161 0.1383506728622356 0 -0.1582672888307903 0.15037356760637349 0 -0.14804920104264299 0.14548091319836989 0 -0.14893284115272579 0.15614598145465081 0 -0.1582672888307903 0.15037356760637349 0 -0.1600583562538955 0.1610662385102036 0 -0.14893284115272579 0.15614598145465081 0 -0.15403990494035871 0.1347366106955723 0 -0.13279184602529889 0.12676322617348859 0 -0.13882554850675161 0.1383506728622356 0 -0.1470909288768201 0.1209563670492638 0 -0.15403990494035871 0.1347366106955723 0 -0.13279184602529889 0.12676322617348859 0 -0.15403990494035871 0.1347366106955723 0 -0.13279184602529889 0.12676322617348859 0 -0.1620844976615837 0.1246137265311604 0 -0.1470909288768201 0.1209563670492638 0 -0.15403990494035871 0.1347366106955723 0 -0.14804920104264299 0.14548091319836989 0 -0.15403990494035871 0.1347366106955723 0 -0.13882554850675161 0.1383506728622356 0 -0.13279184602529889 0.12676322617348859 0 -0.13882554850675161 0.1383506728622356 0 -0.12055833464411039 0.1379425794840464 0 -0.12055833464411039 0.1379425794840464 0 -0.1023088465637346 0.12791043533215449 0 -0.1115437871102391 0.1187898416514048 0 -0.13279184602529889 0.12676322617348859 0 -0.12055833464411039 0.1379425794840464 0 -0.1115437871102391 0.1187898416514048 0 -0.12055833464411039 0.1379425794840464 0 -0.1023088465637346 0.12791043533215449 0 -0.1046935792554477 0.14276705382981919 0 -0.1023088465637346 0.12791043533215449 0 -0.094962951494757253 0.1365399359344949 0 -0.1046935792554477 0.14276705382981919 0 -0.1023088465637346 0.12791043533215449 0 -0.094962951494757253 0.1365399359344949 0 -0.090489411448067963 0.12704359689220629 0 -0.1046935792554477 0.14276705382981919 0 -0.1041248896475066 0.15551828672862411 0 -0.093004616703312795 0.14955646627746921 0 -0.094962951494757253 0.1365399359344949 0 -0.1046935792554477 0.14276705382981919 0 -0.093004616703312795 0.14955646627746921 0 -0.1046935792554477 0.14276705382981919 0 -0.1041248896475066 0.15551828672862411 0 -0.11445282865732979 0.15334905662196921 0 -0.126379387278066 0.15597478529925399 0 -0.12055833464411039 0.1379425794840464 0 -0.11445282865732979 0.15334905662196921 0 -0.12055833464411039 0.1379425794840464 0 -0.1046935792554477 0.14276705382981919 0 -0.11445282865732979 0.15334905662196921 0 -0.126379387278066 0.15597478529925399 0 -0.11445282865732979 0.15334905662196921 0 -0.12032793539161341 0.1646437059605354 0 -0.1292359491093828 0.16803570062978621 0 -0.12032793539161341 0.1646437059605354 0 -0.1212356254850179 0.17772098389286661 0 -0.12032793539161341 0.1646437059605354 0 -0.11033588642827059 0.16813800335880069 0 -0.1212356254850179 0.17772098389286661 0 -0.11445282865732979 0.15334905662196921 0 -0.12032793539161341 0.1646437059605354 0 -0.11033588642827059 0.16813800335880069 0 -0.1041248896475066 0.15551828672862411 0 -0.11445282865732979 0.15334905662196921 0 -0.11033588642827059 0.16813800335880069 0 -0.1212356254850179 0.17772098389286661 0 -0.1162405620239744 0.18559700148777139 0 -0.1211653040174074 0.1936784419600068 0 -0.11033588642827059 0.16813800335880069 0 -0.1212356254850179 0.17772098389286661 0 -0.11040529035695 0.18033161209543469 0 -0.1212356254850179 0.17772098389286661 0 -0.1162405620239744 0.18559700148777139 0 -0.11040529035695 0.18033161209543469 0 -0.1162405620239744 0.18559700148777139 0 -0.11040529035695 0.18033161209543469 0 -0.1107279914488204 0.18922386021274351 0 -0.11040529035695 0.18033161209543469 0 -0.10404301441471039 0.18549735888335431 0 -0.1015273448004774 0.1757087477555371 0 -0.11040529035695 0.18033161209543469 0 -0.10404301441471039 0.18549735888335431 0 -0.1107279914488204 0.18922386021274351 0 -0.11033588642827059 0.16813800335880069 0 -0.11040529035695 0.18033161209543469 0 -0.1015273448004774 0.1757087477555371 0 -0.1015273448004774 0.1757087477555371 0 -0.096120419389573414 0.1819157133133634 0 -0.090121921020187831 0.1745889453272072 0 -0.10404301441471039 0.18549735888335431 0 -0.1015273448004774 0.1757087477555371 0 -0.096120419389573414 0.1819157133133634 0 -0.096120419389573414 0.1819157133133634 0 -0.098521912497115088 0.18755926016654281 0 -0.093454227826185121 0.1900729672677221 0 -0.10404301441471039 0.18549735888335431 0 -0.096120419389573414 0.1819157133133634 0 -0.098521912497115088 0.18755926016654281 0 -0.1041248896475066 0.15551828672862411 0 -0.11033588642827059 0.16813800335880069 0 -0.09813753719317217 0.16378085355506239 0 -0.11033588642827059 0.16813800335880069 0 -0.1015273448004774 0.1757087477555371 0 -0.09813753719317217 0.16378085355506239 0 -0.1015273448004774 0.1757087477555371 0 -0.09813753719317217 0.16378085355506239 0 -0.090121921020187831 0.1745889453272072 0 -0.1041248896475066 0.15551828672862411 0 -0.09813753719317217 0.16378085355506239 0 -0.093004616703312795 0.14955646627746921 0 -0.09813753719317217 0.16378085355506239 0 -0.086587312603767272 0.16309195023576811 0 -0.093004616703312795 0.14955646627746921 0 -0.086587312603767272 0.16309195023576811 0 -0.082973046392991398 0.1706584588125197 0 -0.090121921020187831 0.1745889453272072 0 -0.09813753719317217 0.16378085355506239 0 -0.086587312603767272 0.16309195023576811 0 -0.090121921020187831 0.1745889453272072 0 -0.082973046392991398 0.1706584588125197 0 -0.07811847801966379 0.1770057215936105 0 -0.07752658832453202 0.16525770793357411 0 -0.086587312603767272 0.16309195023576811 0 -0.082973046392991398 0.1706584588125197 0 -0.07752658832453202 0.16525770793357411 0 -0.086587312603767272 0.16309195023576811 0 -0.07752658832453202 0.16525770793357411 0 -0.080367244808656924 0.1529172126962475 0 -0.096120419389573414 0.1819157133133634 0 -0.086135128176650894 0.1836910291739027 0 -0.093454227826185121 0.1900729672677221 0 -0.096120419389573414 0.1819157133133634 0 -0.086135128176650894 0.1836910291739027 0 -0.090121921020187831 0.1745889453272072 0 -0.086135128176650894 0.1836910291739027 0 -0.090121921020187831 0.1745889453272072 0 -0.07811847801966379 0.1770057215936105 0 -0.082973046392991398 0.1706584588125197 0 -0.090121921020187831 0.1745889453272072 0 -0.07811847801966379 0.1770057215936105 0 -0.086135128176650894 0.1836910291739027 0 -0.07811847801966379 0.1770057215936105 0 -0.078568494552088156 0.18995854463341791 0 -0.07811847801966379 0.1770057215936105 0 -0.070440232651571177 0.18603836763265619 0 -0.069666944161983949 0.16915157594975791 0 -0.070440232651571177 0.18603836763265619 0 -0.069666944161983949 0.16915157594975791 0 -0.061976771616508088 0.17793726929052989 0 -0.07811847801966379 0.1770057215936105 0 -0.070440232651571177 0.18603836763265619 0 -0.078568494552088156 0.18995854463341791 0 -0.071534386433757091 0.1568463474886605 0 -0.069666944161983949 0.16915157594975791 0 -0.060272218829533868 0.15278116043754611 0 -0.069666944161983949 0.16915157594975791 0 -0.060272218829533868 0.15278116043754611 0 -0.061976771616508088 0.17793726929052989 0 -0.071534386433757091 0.1568463474886605 0 -0.07752658832453202 0.16525770793357411 0 -0.069666944161983949 0.16915157594975791 0 -0.071534386433757091 0.1568463474886605 0 -0.07752658832453202 0.16525770793357411 0 -0.080367244808656924 0.1529172126962475 0 -0.07811847801966379 0.1770057215936105 0 -0.07752658832453202 0.16525770793357411 0 -0.069666944161983949 0.16915157594975791 0 -0.071534386433757091 0.1568463474886605 0 -0.069838936044078759 0.14412408042617711 0 -0.060272218829533868 0.15278116043754611 0 -0.069838936044078759 0.14412408042617711 0 -0.058567666042563638 0.12762505158456211 0 -0.060272218829533868 0.15278116043754611 0 -0.071534386433757091 0.1568463474886605 0 -0.069838936044078759 0.14412408042617711 0 -0.080367244808656924 0.1529172126962475 0 -0.080214435715148857 0.12723075560730329 0 -0.058567666042563638 0.12762505158456211 0 -0.069838936044078759 0.14412408042617711 0 -0.080214435715148857 0.12723075560730329 0 -0.058567666042563638 0.12762505158456211 0 -0.069838936044078759 0.14412408042617711 0 -0.080214435715148857 0.12723075560730329 0 -0.069838936044078759 0.14412408042617711 0 -0.085578639646156002 0.13958384249386671 0 -0.080214435715148857 0.12723075560730329 0 -0.085578639646156002 0.13958384249386671 0 -0.080214435715148857 0.12723075560730329 0 -0.090489411448067963 0.12704359689220629 0 -0.080214435715148857 0.12723075560730329 0 -0.090489411448067963 0.12704359689220629 0 -0.094962951494757253 0.1365399359344949 0 -0.085578639646156002 0.13958384249386671 0 -0.090489411448067963 0.12704359689220629 0 -0.094962951494757253 0.1365399359344949 0 -0.085578639646156002 0.13958384249386671 0 -0.093004616703312795 0.14955646627746921 0 -0.069838936044078759 0.14412408042617711 0 -0.085578639646156002 0.13958384249386671 0 -0.080367244808656924 0.1529172126962475 0 -0.085578639646156002 0.13958384249386671 0 -0.093004616703312795 0.14955646627746921 0 -0.080367244808656924 0.1529172126962475 0 -0.086587312603767272 0.16309195023576811 0 -0.093004616703312795 0.14955646627746921 0 -0.080367244808656924 0.1529172126962475 0 -0.1143113926973838 0.25156989462734419 0 -0.096087350700184732 0.240688349379646 0 -0.102030440132303 0.24052210278640651 0 -0.094495146754203743 0.25185255969015358 0 -0.1017460216861063 0.25652835057549389 0 -0.096087350700184732 0.240688349379646 0 -0.115063459822302 0.25793516079317591 0 -0.096087350700184732 0.240688349379646 0 -0.1143113926973838 0.25156989462734419 0 -0.102030440132303 0.24052210278640651 0 -0.11127293547923971 0.22585332188249679 0 -0.096087350700184732 0.240688349379646 0 -0.102030440132303 0.24052210278640651 0 -0.098765955052213292 0.23013300678645029 0 -0.1143113926973838 0.25156989462734419 0 -0.102030440132303 0.24052210278640651 0 -0.1143113926973838 0.25156989462734419 0 -0.12675440856420331 0.23939669962326091 0 -0.11127293547923971 0.22585332188249679 0 -0.1143113926973838 0.25156989462734419 0 -0.11127293547923971 0.22585332188249679 0 -0.1275845452889372 0.25235475329170443 0 -0.1143113926973838 0.25156989462734419 0 -0.12675440856420331 0.23939669962326091 0 -0.12675440856420331 0.23939669962326091 0 -0.1246635076556106 0.22394125084985261 0 -0.11127293547923971 0.22585332188249679 0 -0.1246635076556106 0.22394125084985261 0 -0.11127293547923971 0.22585332188249679 0 -0.11971246994741459 0.21141597243634161 0 -0.11127293547923971 0.22585332188249679 0 -0.098765955052213292 0.23013300678645029 0 -0.099403123719583278 0.2194981638476495 0 -0.11127293547923971 0.22585332188249679 0 -0.099403123719583278 0.2194981638476495 0 -0.1032133663009204 0.21319072645576551 0 -0.096087350700184732 0.240688349379646 0 -0.098765955052213292 0.23013300678645029 0 -0.089174301951935986 0.22497642174028121 0 -0.102030440132303 0.24052210278640651 0 -0.11127293547923971 0.22585332188249679 0 -0.098765955052213292 0.23013300678645029 0 -0.098765955052213292 0.23013300678645029 0 -0.099403123719583278 0.2194981638476495 0 -0.089174301951935986 0.22497642174028121 0 -0.11127293547923971 0.22585332188249679 0 -0.1032133663009204 0.21319072645576551 0 -0.10823447826109681 0.20013674913764931 0 -0.099403123719583278 0.2194981638476495 0 -0.093942927743761853 0.2072746709552663 0 -0.089174301951935986 0.22497642174028121 0 -0.099403123719583278 0.2194981638476495 0 -0.093942927743761853 0.2072746709552663 0 -0.1032133663009204 0.21319072645576551 0 -0.093942927743761853 0.2072746709552663 0 -0.10823447826109681 0.20013674913764931 0 -0.093942927743761853 0.2072746709552663 0 -0.1032133663009204 0.21319072645576551 0 -0.10823447826109681 0.20013674913764931 0 -0.1332261243237185 0.2134700983517023 0 -0.11971246994741459 0.21141597243634161 0 -0.1211653040174074 0.1936784419600068 0 -0.11127293547923971 0.22585332188249679 0 -0.10823447826109681 0.20013674913764931 0 -0.11127293547923971 0.22585332188249679 0 -0.11971246994741459 0.21141597243634161 0 -0.10823447826109681 0.20013674913764931 0 -0.1211653040174074 0.1936784419600068 0 -0.10783071841121269 0.19671944923657281 0 -0.10823447826109681 0.20013674913764931 0 -0.1211653040174074 0.1936784419600068 0 -0.10823447826109681 0.20013674913764931 0 -0.11971246994741459 0.21141597243634161 0 -0.1211653040174074 0.1936784419600068 0 -0.10823447826109681 0.20013674913764931 0 -0.1162405620239744 0.18559700148777139 0 -0.1211653040174074 0.1936784419600068 0 -0.1211653040174074 0.1936784419600068 0 -0.1107279914488204 0.18922386021274351 0 -0.10783071841121269 0.19671944923657281 0 -0.1162405620239744 0.18559700148777139 0 -0.1211653040174074 0.1936784419600068 0 -0.1107279914488204 0.18922386021274351 0 -0.10404301441471039 0.18549735888335431 0 -0.1107279914488204 0.18922386021274351 0 -0.10580975568052479 0.1921238543751409 0 -0.10404301441471039 0.18549735888335431 0 -0.10580975568052479 0.1921238543751409 0 -0.101016019526602 0.19258821893667841 0 -0.10580975568052479 0.1921238543751409 0 -0.1043089176782664 0.19587440225332001 0 -0.101016019526602 0.19258821893667841 0 -0.10580975568052479 0.1921238543751409 0 -0.10783071841121269 0.19671944923657281 0 -0.1043089176782664 0.19587440225332001 0 -0.1107279914488204 0.18922386021274351 0 -0.10580975568052479 0.1921238543751409 0 -0.10783071841121269 0.19671944923657281 0 -0.10783071841121269 0.19671944923657281 0 -0.10823447826109681 0.20013674913764931 0 -0.10783071841121269 0.19671944923657281 0 -0.10551361141012799 0.19797730776781849 0 -0.10823447826109681 0.20013674913764931 0 -0.10783071841121269 0.19671944923657281 0 -0.10551361141012799 0.19797730776781849 0 -0.1043089176782664 0.19587440225332001 0 -0.1043089176782664 0.19587440225332001 0 -0.101680331289936 0.1991786304437321 0 -0.101016019526602 0.19258821893667841 0 -0.10551361141012799 0.19797730776781849 0 -0.10823447826109681 0.20013674913764931 0 -0.101680331289936 0.1991786304437321 0 -0.10551361141012799 0.19797730776781849 0 -0.1043089176782664 0.19587440225332001 0 -0.101680331289936 0.1991786304437321 0 -0.093942927743761853 0.2072746709552663 0 -0.10823447826109681 0.20013674913764931 0 -0.101680331289936 0.1991786304437321 0 -0.101680331289936 0.1991786304437321 0 -0.096760937716955819 0.19398658921821479 0 -0.093419937684856555 0.1983725290706562 0 -0.093942927743761853 0.2072746709552663 0 -0.101680331289936 0.1991786304437321 0 -0.093419937684856555 0.1983725290706562 0 -0.096760937716955819 0.19398658921821479 0 -0.093454227826185121 0.1900729672677221 0 -0.093419937684856555 0.1983725290706562 0 -0.096760937716955819 0.19398658921821479 0 -0.098521912497115088 0.18755926016654281 0 -0.093454227826185121 0.1900729672677221 0 -0.10404301441471039 0.18549735888335431 0 -0.098521912497115088 0.18755926016654281 0 -0.101016019526602 0.19258821893667841 0 -0.096760937716955819 0.19398658921821479 0 -0.098521912497115088 0.18755926016654281 0 -0.101016019526602 0.19258821893667841 0 -0.101680331289936 0.1991786304437321 0 -0.096760937716955819 0.19398658921821479 0 -0.101016019526602 0.19258821893667841 0 -0.093942927743761853 0.2072746709552663 0 -0.085296442607823902 0.19667172641663069 0 -0.076347048742859164 0.20214908266065459 0 -0.086805563888076739 0.1901954400800677 0 -0.093454227826185121 0.1900729672677221 0 -0.093419937684856555 0.1983725290706562 0 -0.086805563888076739 0.1901954400800677 0 -0.093419937684856555 0.1983725290706562 0 -0.085296442607823902 0.19667172641663069 0 -0.086135128176650894 0.1836910291739027 0 -0.086805563888076739 0.1901954400800677 0 -0.093454227826185121 0.1900729672677221 0 -0.093942927743761853 0.2072746709552663 0 -0.093419937684856555 0.1983725290706562 0 -0.085296442607823902 0.19667172641663069 0 -0.085296442607823902 0.19667172641663069 0 -0.078568494552088156 0.18995854463341791 0 -0.076347048742859164 0.20214908266065459 0 -0.086805563888076739 0.1901954400800677 0 -0.085296442607823902 0.19667172641663069 0 -0.078568494552088156 0.18995854463341791 0 -0.086135128176650894 0.1836910291739027 0 -0.086805563888076739 0.1901954400800677 0 -0.078568494552088156 0.18995854463341791 0 -0.070440232651571177 0.18603836763265619 0 -0.063681324403482314 0.2030933781435138 0 -0.061976771616508088 0.17793726929052989 0 -0.063681324403482314 0.2030933781435138 0 -0.061976771616508088 0.17793726929052989 0 -0.070440232651571177 0.18603836763265619 0 -0.078568494552088156 0.18995854463341791 0 -0.070877788220717552 0.19600448512796459 0 -0.070440232651571177 0.18603836763265619 0 -0.063681324403482314 0.2030933781435138 0 -0.070877788220717552 0.19600448512796459 0 -0.063681324403482314 0.2030933781435138 0 -0.070050675897007905 0.20232718432473959 0 -0.070877788220717552 0.19600448512796459 0 -0.078568494552088156 0.18995854463341791 0 -0.070877788220717552 0.19600448512796459 0 -0.076347048742859164 0.20214908266065459 0 -0.070050675897007905 0.20232718432473959 0 -0.070877788220717552 0.19600448512796459 0 -0.076347048742859164 0.20214908266065459 0 -0.076347048742859164 0.20214908266065459 0 -0.06929654222097259 0.20806179136682529 0 -0.079651377226426429 0.21441259277288249 0 -0.070050675897007905 0.20232718432473959 0 -0.076347048742859164 0.20214908266065459 0 -0.06929654222097259 0.20806179136682529 0 -0.063681324403482314 0.2030933781435138 0 -0.06929654222097259 0.20806179136682529 0 -0.060821736410159692 0.20957285381734769 0 -0.063681324403482314 0.2030933781435138 0 -0.070050675897007905 0.20232718432473959 0 -0.06929654222097259 0.20806179136682529 0 -0.06929654222097259 0.20806179136682529 0 -0.066545055093713473 0.21806140965476059 0 -0.060821736410159692 0.20957285381734769 0 -0.06929654222097259 0.20806179136682529 0 -0.066545055093713473 0.21806140965476059 0 -0.079651377226426429 0.21441259277288249 0 -0.093942927743761853 0.2072746709552663 0 -0.076347048742859164 0.20214908266065459 0 -0.079651377226426429 0.21441259277288249 0 -0.093942927743761853 0.2072746709552663 0 -0.079651377226426429 0.21441259277288249 0 -0.089174301951935986 0.22497642174028121 0 -0.093942927743761853 0.2072746709552663 0 -0.079651377226426429 0.21441259277288249 0 -0.079651377226426429 0.21441259277288249 0 -0.089174301951935986 0.22497642174028121 0 -0.073751098795286477 0.2264243582656626 0 -0.073751098795286477 0.2264243582656626 0 -0.063264856487562235 0.22905848221642339 0 -0.071317774380014659 0.24603131409365209 0 -0.089174301951935986 0.22497642174028121 0 -0.073751098795286477 0.2264243582656626 0 -0.071317774380014659 0.24603131409365209 0 -0.066545055093713473 0.21806140965476059 0 -0.079651377226426429 0.21441259277288249 0 -0.073751098795286477 0.2264243582656626 0 -0.066545055093713473 0.21806140965476059 0 -0.073751098795286477 0.2264243582656626 0 -0.063264856487562235 0.22905848221642339 0 -0.089174301951935986 0.22497642174028121 0 -0.071317774380014659 0.24603131409365209 0 -0.085686930434730663 0.24908917197524849 0 -0.089174301951935986 0.22497642174028121 0 -0.071317774380014659 0.24603131409365209 0 -0.096087350700184732 0.240688349379646 0 -0.089174301951935986 0.22497642174028121 0 -0.085686930434730663 0.24908917197524849 0 -0.094495146754203743 0.25185255969015358 0 -0.096087350700184732 0.240688349379646 0 -0.085686930434730663 0.24908917197524849 0 -0.03031676770567342 0.26219310003034302 0 -0.042601251696290851 0.24851914262292679 0 -0.02439618885725248 0.23804590227776701 0 -0.038915848347792131 0.23476553538692749 0 -0.042601251696290851 0.24851914262292679 0 -0.02439618885725248 0.23804590227776701 0 -0.038915848347792131 0.23476553538692749 0 -0.042601251696290851 0.24851914262292679 0 -0.052224393108926327 0.23531723610910921 0 -0.063264856487562235 0.22905848221642339 0 -0.071317774380014659 0.24603131409365209 0 -0.052224393108926327 0.23531723610910921 0 -0.071317774380014659 0.24603131409365209 0 -0.042601251696290851 0.24851914262292679 0 -0.052224393108926327 0.23531723610910921 0 -0.052224393108926327 0.23531723610910921 0 -0.055359610213602507 0.2218426094486709 0 -0.043455599343809853 0.22480703773394281 0 -0.063264856487562235 0.22905848221642339 0 -0.052224393108926327 0.23531723610910921 0 -0.055359610213602507 0.2218426094486709 0 -0.066545055093713473 0.21806140965476059 0 -0.063264856487562235 0.22905848221642339 0 -0.055359610213602507 0.2218426094486709 0 -0.055359610213602507 0.2218426094486709 0 -0.043455599343809853 0.22480703773394281 0 -0.047813892044217758 0.2126072130422853 0 -0.038915848347792131 0.23476553538692749 0 -0.052224393108926327 0.23531723610910921 0 -0.043455599343809853 0.22480703773394281 0 -0.038915848347792131 0.23476553538692749 0 -0.032121945489278353 0.22672071163702079 0 -0.02439618885725248 0.23804590227776701 0 -0.038915848347792131 0.23476553538692749 0 -0.043455599343809853 0.22480703773394281 0 -0.032121945489278353 0.22672071163702079 0 -0.043455599343809853 0.22480703773394281 0 -0.032121945489278353 0.22672071163702079 0 -0.033965245911058053 0.21304655190743019 0 -0.033965245911058053 0.21304655190743019 0 -0.042562536403856377 0.20115747198643921 0 -0.02970602521131651 0.19529787552911321 0 -0.033965245911058053 0.21304655190743019 0 -0.047813892044217758 0.2126072130422853 0 -0.042562536403856377 0.20115747198643921 0 -0.043455599343809853 0.22480703773394281 0 -0.033965245911058053 0.21304655190743019 0 -0.047813892044217758 0.2126072130422853 0 -0.055359610213602507 0.2218426094486709 0 -0.047813892044217758 0.2126072130422853 0 -0.060821736410159692 0.20957285381734769 0 -0.066545055093713473 0.21806140965476059 0 -0.055359610213602507 0.2218426094486709 0 -0.060821736410159692 0.20957285381734769 0 -0.047813892044217758 0.2126072130422853 0 -0.050394626664956407 0.20401592939644289 0 -0.042562536403856377 0.20115747198643921 0 -0.047813892044217758 0.2126072130422853 0 -0.060821736410159692 0.20957285381734769 0 -0.050394626664956407 0.20401592939644289 0 -0.063681324403482314 0.2030933781435138 0 -0.060821736410159692 0.20957285381734769 0 -0.05225869450968397 0.18239920960847611 0 -0.050394626664956407 0.20401592939644289 0 -0.049482818621640848 0.19575394334148929 0 -0.042562536403856377 0.20115747198643921 0 -0.063681324403482314 0.2030933781435138 0 -0.061976771616508088 0.17793726929052989 0 -0.05225869450968397 0.18239920960847611 0 -0.060821736410159692 0.20957285381734769 0 -0.050394626664956407 0.20401592939644289 0 -0.049482818621640848 0.19575394334148929 0 -0.060821736410159692 0.20957285381734769 0 -0.049482818621640848 0.19575394334148929 0 -0.05225869450968397 0.18239920960847611 0 -0.060821736410159692 0.20957285381734769 0 -0.05225869450968397 0.18239920960847611 0 -0.049482818621640848 0.19575394334148929 0 -0.039581452759645808 0.1876797811023202 0 -0.05225869450968397 0.18239920960847611 0 -0.049482818621640848 0.19575394334148929 0 -0.039581452759645808 0.1876797811023202 0 -0.042562536403856377 0.20115747198643921 0 -0.039581452759645808 0.1876797811023202 0 -0.042562536403856377 0.20115747198643921 0 -0.02970602521131651 0.19529787552911321 0 -0.039581452759645808 0.1876797811023202 0 -0.02970602521131651 0.19529787552911321 0 -0.025786339067978101 0.18102804467473599 0 -0.02970602521131651 0.19529787552911321 0 -0.01625420318409055 0.19123369758156741 0 -0.022440014655045429 0.20737937599030229 0 -0.02970602521131651 0.19529787552911321 0 -0.01625420318409055 0.19123369758156741 0 -0.025786339067978101 0.18102804467473599 0 -0.01625420318409055 0.19123369758156741 0 -0.022440014655045429 0.20737937599030229 0 0.0048510686023909609 0.19474681946249009 0 -0.022440014655045429 0.20737937599030229 0 0.0048510686023909609 0.19474681946249009 0 -0.01625420318409055 0.19123369758156741 0 -0.0081897055885035482 0.1777163722511958 0 0.0048510686023909609 0.19474681946249009 0 -0.022440014655045429 0.20737937599030229 0 -0.019876844986479208 0.22293853087903651 0 -0.0041296839451902198 0.223765609316179 0 -0.022440014655045429 0.20737937599030229 0 -0.0041296839451902198 0.223765609316179 0 0.00093659522194888183 0.20943444516334939 0 -0.022440014655045429 0.20737937599030229 0 0.00093659522194888183 0.20943444516334939 0 0.0048510686023909609 0.19474681946249009 0 -0.033965245911058053 0.21304655190743019 0 -0.02970602521131651 0.19529787552911321 0 -0.022440014655045429 0.20737937599030229 0 -0.033965245911058053 0.21304655190743019 0 -0.022440014655045429 0.20737937599030229 0 -0.019876844986479208 0.22293853087903651 0 -0.019876844986479208 0.22293853087903651 0 -0.0041296839451902198 0.223765609316179 0 -0.02439618885725248 0.23804590227776701 0 -0.032121945489278353 0.22672071163702079 0 -0.033965245911058053 0.21304655190743019 0 -0.019876844986479208 0.22293853087903651 0 -0.032121945489278353 0.22672071163702079 0 -0.019876844986479208 0.22293853087903651 0 -0.02439618885725248 0.23804590227776701 0 -0.0041296839451902198 0.223765609316179 0 -0.02439618885725248 0.23804590227776701 0 -0.015235597441373641 0.25512395430086182 0 -0.0011779531814362859 0.24237928671812051 0 -0.02439618885725248 0.23804590227776701 0 -0.0041296839451902198 0.223765609316179 0 -0.0011779531814362859 0.24237928671812051 0 -0.02439618885725248 0.23804590227776701 0 -0.043695652609208248 0.15522556539960461 0 -0.035132610708736432 0.1280519211907318 0 -0.023383249736738859 0.14393859938412981 0 -0.043695652609208248 0.15522556539960461 0 -0.035132610708736432 0.1280519211907318 0 -0.050042626099724957 0.14083850359137121 0 -0.043695652609208248 0.15522556539960461 0 -0.035132610708736432 0.1280519211907318 0 -0.035132610708736432 0.1280519211907318 0 -0.058567666042563638 0.12762505158456211 0 -0.058567666042563638 0.12762505158456211 0 -0.060272218829533868 0.15278116043754611 0 -0.058567666042563638 0.12762505158456211 0 -0.050042626099724957 0.14083850359137121 0 -0.060272218829533868 0.15278116043754611 0 -0.035132610708736432 0.1280519211907318 0 -0.058567666042563638 0.12762505158456211 0 -0.050042626099724957 0.14083850359137121 0 -0.043695652609208248 0.15522556539960461 0 -0.050042626099724957 0.14083850359137121 0 -0.060272218829533868 0.15278116043754611 0 -0.060272218829533868 0.15278116043754611 0 -0.054316981025072493 0.16673560067325319 0 -0.061976771616508088 0.17793726929052989 0 -0.043695652609208248 0.15522556539960461 0 -0.05225869450968397 0.18239920960847611 0 -0.043695652609208248 0.15522556539960461 0 -0.054316981025072493 0.16673560067325319 0 -0.05225869450968397 0.18239920960847611 0 -0.043695652609208248 0.15522556539960461 0 -0.060272218829533868 0.15278116043754611 0 -0.054316981025072493 0.16673560067325319 0 -0.060272218829533868 0.15278116043754611 0 -0.061976771616508088 0.17793726929052989 0 -0.054316981025072493 0.16673560067325319 0 -0.061976771616508088 0.17793726929052989 0 -0.05225869450968397 0.18239920960847611 0 -0.039581452759645808 0.1876797811023202 0 -0.05225869450968397 0.18239920960847611 0 -0.036794779563448142 0.17346990607545729 0 -0.039581452759645808 0.1876797811023202 0 -0.036794779563448142 0.17346990607545729 0 -0.025786339067978101 0.18102804467473599 0 -0.043695652609208248 0.15522556539960461 0 -0.05225869450968397 0.18239920960847611 0 -0.036794779563448142 0.17346990607545729 0 -0.043695652609208248 0.15522556539960461 0 -0.036794779563448142 0.17346990607545729 0 -0.021230479779397009 0.1606859250399007 0 -0.036794779563448142 0.17346990607545729 0 -0.021230479779397009 0.1606859250399007 0 -0.025786339067978101 0.18102804467473599 0 -0.021230479779397009 0.1606859250399007 0 -0.025786339067978101 0.18102804467473599 0 -0.0081897055885035482 0.1777163722511958 0 -0.01625420318409055 0.19123369758156741 0 -0.025786339067978101 0.18102804467473599 0 -0.0081897055885035482 0.1777163722511958 0 -0.0081897055885035482 0.1777163722511958 0 0.0048510686023909609 0.19474681946249009 0 -0.0081897055885035482 0.1777163722511958 0 -0.001583642327711904 0.16382029868089459 0 0.005511857122819471 0.178660602672958 0 -0.021230479779397009 0.1606859250399007 0 -0.0081897055885035482 0.1777163722511958 0 -0.001583642327711904 0.16382029868089459 0 -0.021230479779397009 0.1606859250399007 0 -0.0081897055885035482 0.1777163722511958 0 -0.021230479779397009 0.1606859250399007 0 -0.001583642327711904 0.16382029868089459 0 -0.0048217962445874923 0.14621403901726021 0 -0.021230479779397009 0.1606859250399007 0 -0.0048217962445874923 0.14621403901726021 0 -0.023383249736738859 0.14393859938412981 0 -0.043695652609208248 0.15522556539960461 0 -0.021230479779397009 0.1606859250399007 0 -0.023383249736738859 0.14393859938412981 0 -0.035132610708736432 0.1280519211907318 0 -0.0085113348658469937 0.12853682781343281 0 -0.035132610708736432 0.1280519211907318 0 -0.023383249736738859 0.14393859938412981 0 -0.0085113348658469937 0.12853682781343281 0 -0.0048217962445874923 0.14621403901726021 0 -0.023383249736738859 0.14393859938412981 0 -0.0085113348658469937 0.12853682781343281 0 -0.0085113348658469937 0.12853682781343281 0 -5.2145860693967462e-05 0.1081691216564979 0 -0.029724027766035319 0.1108885217507658 0 -5.2145860693967462e-05 0.1081691216564979 0 -0.029724027766035319 0.1108885217507658 0 -5.2145860693967462e-05 0.1081691216564979 0 -0.0095615119239251187 0.090588010783922757 0 0.0056820048922009026 0.089621195735828191 0 -5.2145860693967462e-05 0.1081691216564979 0 -0.025397649602952051 0.097159351406508915 0 -0.0095615119239251187 0.090588010783922757 0 -5.2145860693967462e-05 0.1081691216564979 0 -0.025397649602952051 0.097159351406508915 0 -0.029724027766035319 0.1108885217507658 0 -0.025397649602952051 0.097159351406508915 0 -0.029724027766035319 0.1108885217507658 0 -0.025397649602952051 0.097159351406508915 0 -0.03075078846554943 0.099262967092623583 0 -0.029724027766035319 0.1108885217507658 0 -0.035132610708736432 0.1280519211907318 0 -0.0085113348658469937 0.12853682781343281 0 -0.029724027766035319 0.1108885217507658 0 -0.0090417612651353396 0.071859252947126251 0 -0.021695025109976569 0.079809728562271476 0 -0.01263926175440337 0.060356490031919632 0 -0.0058116390471834693 0.066342585932693973 0 -0.0090417612651353396 0.071859252947126251 0 -0.01263926175440337 0.060356490031919632 0 -0.0058116390471834693 0.066342585932693973 0 -0.01263926175440337 0.060356490031919632 0 0.0006883626110090747 0.063991539003696141 0 -0.0058116390471834693 0.066342585932693973 0 -0.0022538957802038652 0.069163061748034063 0 0.0006883626110090747 0.063991539003696141 0 -0.0058116390471834693 0.066342585932693973 0 -0.0022538957802038652 0.069163061748034063 0 -0.0090417612651353396 0.071859252947126251 0 -0.0022538957802038652 0.069163061748034063 0 -0.0007351078596584071 0.077732459062844192 0 -0.0090417612651353396 0.071859252947126251 0 -0.0007351078596584071 0.077732459062844192 0 -0.0090417612651353396 0.071859252947126251 0 -0.01106953569815001 0.080239518225839232 0 -0.0090417612651353396 0.071859252947126251 0 -0.01106953569815001 0.080239518225839232 0 -0.021695025109976569 0.079809728562271476 0 -0.01106953569815001 0.080239518225839232 0 -0.0095615119239251187 0.090588010783922757 0 -0.021695025109976569 0.079809728562271476 0 -0.0007351078596584071 0.077732459062844192 0 -0.01106953569815001 0.080239518225839232 0 -0.0095615119239251187 0.090588010783922757 0 -0.0007351078596584071 0.077732459062844192 0 -0.0095615119239251187 0.090588010783922757 0 0.0056820048922009026 0.089621195735828191 0 -0.025397649602952051 0.097159351406508915 0 -0.0095615119239251187 0.090588010783922757 0 -0.021695025109976569 0.079809728562271476 0 -0.03075078846554943 0.099262967092623583 0 -0.021695025109976569 0.079809728562271476 0 -0.025397649602952051 0.097159351406508915 0 -0.03075078846554943 0.099262967092623583 0 -0.021695025109976569 0.079809728562271476 0 -0.03075078846554943 0.099262967092623583 0 -0.021695025109976569 0.079809728562271476 0 -0.037789379024866621 0.091113325023970515 0 -0.021695025109976569 0.079809728562271476 0 -0.02065543679346496 0.060252849891301502 0 -0.01263926175440337 0.060356490031919632 0 -0.021695025109976569 0.079809728562271476 0 -0.01263926175440337 0.060356490031919632 0 -0.021695025109976569 0.079809728562271476 0 -0.031610987861261708 0.067012067738679945 0 -0.02065543679346496 0.060252849891301502 0 -0.021695025109976569 0.079809728562271476 0 -0.031610987861261708 0.067012067738679945 0 -0.035025459879457273 0.078979311309893038 0 -0.031610987861261708 0.067012067738679945 0 -0.02065543679346496 0.060252849891301502 0 -0.031610987861261708 0.067012067738679945 0 -0.041420668380779867 0.070933576279379101 0 -0.045992179784487948 0.059925274259072132 0 -0.031610987861261708 0.067012067738679945 0 -0.041420668380779867 0.070933576279379101 0 -0.035025459879457273 0.078979311309893038 0 -0.041420668380779867 0.070933576279379101 0 -0.035025459879457273 0.078979311309893038 0 -0.047302491518104117 0.076942639515163933 0 -0.021695025109976569 0.079809728562271476 0 -0.035025459879457273 0.078979311309893038 0 -0.037789379024866621 0.091113325023970515 0 -0.035025459879457273 0.078979311309893038 0 -0.047059271482884073 0.08705789039025448 0 -0.047302491518104117 0.076942639515163933 0 -0.035025459879457273 0.078979311309893038 0 -0.037789379024866621 0.091113325023970515 0 -0.047059271482884073 0.08705789039025448 0 -0.037789379024866621 0.091113325023970515 0 -0.047059271482884073 0.08705789039025448 0 -0.056571228895482079 0.098161258750672289 0 -0.047059271482884073 0.08705789039025448 0 -0.056123539016281837 0.09155416777655348 0 -0.055239962045791513 0.081579684743167791 0 -0.047059271482884073 0.08705789039025448 0 -0.056123539016281837 0.09155416777655348 0 -0.056571228895482079 0.098161258750672289 0 -0.056123539016281837 0.09155416777655348 0 -0.055239962045791513 0.081579684743167791 0 -0.063760750341387382 0.085488070111810754 0 -0.055239962045791513 0.081579684743167791 0 -0.063760750341387382 0.085488070111810754 0 -0.063778282787889023 0.076298565349425557 0 -0.047059271482884073 0.08705789039025448 0 -0.055239962045791513 0.081579684743167791 0 -0.047302491518104117 0.076942639515163933 0 -0.053881406184709518 0.071092711316421781 0 -0.071328922775511019 0.059597698626844609 0 -0.045992179784487948 0.059925274259072132 0 -0.041420668380779867 0.070933576279379101 0 -0.053881406184709518 0.071092711316421781 0 -0.047302491518104117 0.076942639515163933 0 -0.055239962045791513 0.081579684743167791 0 -0.053881406184709518 0.071092711316421781 0 -0.047302491518104117 0.076942639515163933 0 -0.055239962045791513 0.081579684743167791 0 -0.053881406184709518 0.071092711316421781 0 -0.063778282787889023 0.076298565349425557 0 -0.041420668380779867 0.070933576279379101 0 -0.053881406184709518 0.071092711316421781 0 -0.045992179784487948 0.059925274259072132 0 -0.029724027766035319 0.1108885217507658 0 -0.055672276270778899 0.11326665434292781 0 -0.035132610708736432 0.1280519211907318 0 -0.029724027766035319 0.1108885217507658 0 -0.055672276270778899 0.11326665434292781 0 -0.035132610708736432 0.1280519211907318 0 -0.029724027766035319 0.1108885217507658 0 -0.029724027766035319 0.1108885217507658 0 -0.043234659717962143 0.10622365241741839 0 -0.055672276270778899 0.11326665434292781 0 -0.029724027766035319 0.1108885217507658 0 -0.035881109011586011 0.10400591111568119 0 -0.043234659717962143 0.10622365241741839 0 -0.03075078846554943 0.099262967092623583 0 -0.029724027766035319 0.1108885217507658 0 -0.035881109011586011 0.10400591111568119 0 -0.037789379024866621 0.091113325023970515 0 -0.039814960096797157 0.09964850320191708 0 -0.056571228895482079 0.098161258750672289 0 -0.039814960096797157 0.09964850320191708 0 -0.043234659717962143 0.10622365241741839 0 -0.056571228895482079 0.098161258750672289 0 -0.03075078846554943 0.099262967092623583 0 -0.035881109011586011 0.10400591111568119 0 -0.039814960096797157 0.09964850320191708 0 -0.03075078846554943 0.099262967092623583 0 -0.037789379024866621 0.091113325023970515 0 -0.039814960096797157 0.09964850320191708 0 -0.035881109011586011 0.10400591111568119 0 -0.039814960096797157 0.09964850320191708 0 -0.043234659717962143 0.10622365241741839 0 -0.043234659717962143 0.10622365241741839 0 -0.056571228895482079 0.098161258750672289 0 -0.055672276270778899 0.11326665434292781 0 -0.037789379024866621 0.091113325023970515 0 -0.056571228895482079 0.098161258750672289 0 -0.056123539016281837 0.09155416777655348 0 -0.056571228895482079 0.098161258750672289 0 -0.06771836717753614 0.094087226808256416 0 -0.056123539016281837 0.09155416777655348 0 -0.056571228895482079 0.098161258750672289 0 -0.058567666042563638 0.12762505158456211 0 -0.056571228895482079 0.098161258750672289 0 -0.035132610708736432 0.1280519211907318 0 -0.058567666042563638 0.12762505158456211 0 -0.055672276270778899 0.11326665434292781 0 -0.058567666042563638 0.12762505158456211 0 -0.056571228895482079 0.098161258750672289 0 -0.070167283480495571 0.11650045856880981 0 -0.058567666042563638 0.12762505158456211 0 -0.056571228895482079 0.098161258750672289 0 -0.055672276270778899 0.11326665434292781 0 -0.070167283480495571 0.11650045856880981 0 -0.090295728195179392 0.11081645712932051 0 -0.073433478545330111 0.1044888579399981 0 -0.080214435715148857 0.12723075560730329 0 -0.058567666042563638 0.12762505158456211 0 -0.070167283480495571 0.11650045856880981 0 -0.080214435715148857 0.12723075560730329 0 -0.090489411448067963 0.12704359689220629 0 -0.090295728195179392 0.11081645712932051 0 -0.080214435715148857 0.12723075560730329 0 -0.070167283480495571 0.11650045856880981 0 -0.090295728195179392 0.11081645712932051 0 -0.080214435715148857 0.12723075560730329 0 -0.090295728195179392 0.11081645712932051 0 -0.090295728195179392 0.11081645712932051 0 -0.083751882812288458 0.094070818206339307 0 -0.073433478545330111 0.1044888579399981 0 -0.090295728195179392 0.11081645712932051 0 -0.083751882812288458 0.094070818206339307 0 -0.10061877063977839 0.094008542844291915 0 -0.090295728195179392 0.11081645712932051 0 -0.073433478545330111 0.1044888579399981 0 -0.056571228895482079 0.098161258750672289 0 -0.073433478545330111 0.1044888579399981 0 -0.06771836717753614 0.094087226808256416 0 -0.056571228895482079 0.098161258750672289 0 -0.073433478545330111 0.1044888579399981 0 -0.056571228895482079 0.098161258750672289 0 -0.070167283480495571 0.11650045856880981 0 -0.073433478545330111 0.1044888579399981 0 -0.083751882812288458 0.094070818206339307 0 -0.073433478545330111 0.1044888579399981 0 -0.06771836717753614 0.094087226808256416 0 -0.083751882812288458 0.094070818206339307 0 -0.06771836717753614 0.094087226808256416 0 -0.076875538792452139 0.081832577882896981 0 -0.06771836717753614 0.094087226808256416 0 -0.063760750341387382 0.085488070111810754 0 -0.076875538792452139 0.081832577882896981 0 -0.056123539016281837 0.09155416777655348 0 -0.06771836717753614 0.094087226808256416 0 -0.063760750341387382 0.085488070111810754 0 -0.063760750341387382 0.085488070111810754 0 -0.076875538792452139 0.081832577882896981 0 -0.063778282787889023 0.076298565349425557 0 -0.076875538792452139 0.081832577882896981 0 -0.084833319951556921 0.066961207541715986 0 -0.071328922775511019 0.059597698626844609 0 -0.076875538792452139 0.081832577882896981 0 -0.063778282787889023 0.076298565349425557 0 -0.071328922775511019 0.059597698626844609 0 -0.053881406184709518 0.071092711316421781 0 -0.063778282787889023 0.076298565349425557 0 -0.071328922775511019 0.059597698626844609 0 -0.076875538792452139 0.081832577882896981 0 -0.084833319951556921 0.066961207541715986 0 -0.093569413523454825 0.079191246633271511 0 -0.084833319951556921 0.066961207541715986 0 -0.093569413523454825 0.079191246633271511 0 -0.1010189913322503 0.06151696980601376 0 -0.083751882812288458 0.094070818206339307 0 -0.093569413523454825 0.079191246633271511 0 -0.10061877063977839 0.094008542844291915 0 -0.083751882812288458 0.094070818206339307 0 -0.076875538792452139 0.081832577882896981 0 -0.093569413523454825 0.079191246633271511 0 -0.11094181308438 0.077200628559264933 0 -0.112378029267481 0.088820619954392679 0 -0.10061877063977839 0.094008542844291915 0 -0.093569413523454825 0.079191246633271511 0 -0.11094181308438 0.077200628559264933 0 -0.10061877063977839 0.094008542844291915 0 -0.11094181308438 0.077200628559264933 0 -0.10061877063977839 0.094008542844291915 0 -0.093569413523454825 0.079191246633271511 0 -0.11094181308438 0.077200628559264933 0 -0.1010189913322503 0.06151696980601376 0 -0.11094181308438 0.077200628559264933 0 -0.1213741601086947 0.082549222047729312 0 -0.1010189913322503 0.06151696980601376 0 -0.12045977336379469 0.063302700443571031 0 -0.1213741601086947 0.082549222047729312 0 -0.1010189913322503 0.06151696980601376 0 -0.13050547102356161 0.073507565727731899 0 -0.12045977336379469 0.063302700443571031 0 -0.1213741601086947 0.082549222047729312 0 -0.1213741601086947 0.082549222047729312 0 -0.1010189913322503 0.06151696980601376 0 -0.112378029267481 0.088820619954392679 0 -0.1213741601086947 0.082549222047729312 0 -0.1180803208823529 0.10110932699178039 0 -0.11094181308438 0.077200628559264933 0 -0.112378029267481 0.088820619954392679 0 -0.1213741601086947 0.082549222047729312 0 -0.1180803208823529 0.10110932699178039 0 -0.1115437871102391 0.1187898416514048 0 -0.10061877063977839 0.094008542844291915 0 -0.112378029267481 0.088820619954392679 0 -0.1180803208823529 0.10110932699178039 0 -0.10061877063977839 0.094008542844291915 0 -0.13279184602529889 0.12676322617348859 0 -0.1180803208823529 0.10110932699178039 0 -0.1115437871102391 0.1187898416514048 0 -0.13279184602529889 0.12676322617348859 0 -0.1115437871102391 0.1187898416514048 0 -0.090295728195179392 0.11081645712932051 0 -0.1115437871102391 0.1187898416514048 0 -0.1023088465637346 0.12791043533215449 0 -0.090295728195179392 0.11081645712932051 0 -0.1115437871102391 0.1187898416514048 0 -0.1023088465637346 0.12791043533215449 0 -0.090489411448067963 0.12704359689220629 0 -0.090295728195179392 0.11081645712932051 0 -0.090295728195179392 0.11081645712932051 0 -0.10061877063977839 0.094008542844291915 0 -0.090295728195179392 0.11081645712932051 0 -0.1115437871102391 0.1187898416514048 0 -0.10061877063977839 0.094008542844291915 0 -0.10395887662022189 0.029681927278880881 0 -0.10216785683878001 0.0048525866166629558 0 -0.089996851261149702 0.020735761335734439 0 -0.10395887662022189 0.029681927278880881 0 -0.091302508634044599 0.037824024919591172 0 -0.089996851261149702 0.020735761335734439 0 -0.12787206249873251 -0.0031963116537159961 0 -0.10216785683878001 0.0048525866166629558 0 -0.1232401834619155 0.023045930198183621 0 -0.10216785683878001 0.0048525866166629558 0 -0.1232401834619155 0.023045930198183621 0 -0.10395887662022189 0.029681927278880881 0 -0.10216785683878001 0.0048525866166629558 0 -0.1232401834619155 0.023045930198183621 0 -0.12843145491598579 0.047453341903202537 0 -0.1232401834619155 0.023045930198183621 0 -0.1128885927323366 0.044871732470588468 0 -0.10395887662022189 0.029681927278880881 0 -0.1232401834619155 0.023045930198183621 0 -0.1128885927323366 0.044871732470588468 0 -0.12045977336379469 0.063302700443571031 0 -0.1128885927323366 0.044871732470588468 0 -0.1010189913322503 0.06151696980601376 0 -0.12843145491598579 0.047453341903202537 0 -0.12045977336379469 0.063302700443571031 0 -0.1128885927323366 0.044871732470588468 0 -0.1128885927323366 0.044871732470588468 0 -0.1010189913322503 0.06151696980601376 0 -0.099157763183430475 0.045352615124993167 0 -0.10395887662022189 0.029681927278880881 0 -0.1128885927323366 0.044871732470588468 0 -0.099157763183430475 0.045352615124993167 0 -0.10395887662022189 0.029681927278880881 0 -0.099157763183430475 0.045352615124993167 0 -0.091302508634044599 0.037824024919591172 0 -0.091302508634044599 0.037824024919591172 0 -0.08052965001613159 0.039723932070200203 0 -0.074753022003465633 0.024266652380998149 0 -0.099157763183430475 0.045352615124993167 0 -0.091302508634044599 0.037824024919591172 0 -0.08052965001613159 0.039723932070200203 0 -0.091302508634044599 0.037824024919591172 0 -0.08052965001613159 0.039723932070200203 0 -0.1010189913322503 0.06151696980601376 0 -0.099157763183430475 0.045352615124993167 0 -0.08052965001613159 0.039723932070200203 0 -0.1010189913322503 0.06151696980601376 0 -0.08052965001613159 0.039723932070200203 0 -0.1010189913322503 0.06151696980601376 0 -0.08052965001613159 0.039723932070200203 0 -0.080336948074272413 0.054245595410348887 0 -0.084833319951556921 0.066961207541715986 0 -0.1010189913322503 0.06151696980601376 0 -0.080336948074272413 0.054245595410348887 0 -0.084833319951556921 0.066961207541715986 0 -0.080336948074272413 0.054245595410348887 0 -0.071328922775511019 0.059597698626844609 0 -0.080336948074272413 0.054245595410348887 0 -0.071328922775511019 0.059597698626844609 0 -0.063839683756238122 0.042667383512871963 0 -0.08052965001613159 0.039723932070200203 0 -0.063839683756238122 0.042667383512871963 0 -0.063839683756238122 0.042667383512871963 0 -0.074753022003465633 0.024266652380998149 0 -0.061114033776150892 0.02872414049568469 0 -0.08052965001613159 0.039723932070200203 0 -0.080336948074272413 0.054245595410348887 0 -0.063839683756238122 0.042667383512871963 0 -0.08052965001613159 0.039723932070200203 0 -0.063839683756238122 0.042667383512871963 0 -0.074753022003465633 0.024266652380998149 0 -0.074753022003465633 0.024266652380998149 0 -0.05511029359032639 0.01579015084005805 0 -0.061114033776150892 0.02872414049568469 0 -0.074753022003465633 0.024266652380998149 0 -0.077149446155853077 0.0072569184755020763 0 -0.05511029359032639 0.01579015084005805 0 -0.091302508634044599 0.037824024919591172 0 -0.074753022003465633 0.024266652380998149 0 -0.089996851261149702 0.020735761335734439 0 -0.074753022003465633 0.024266652380998149 0 -0.089996851261149702 0.020735761335734439 0 -0.077149446155853077 0.0072569184755020763 0 -0.10216785683878001 0.0048525866166629558 0 -0.089996851261149702 0.020735761335734439 0 -0.077149446155853077 0.0072569184755020763 0 -0.057566748591418748 -0.0078719748531606328 0 -0.077149446155853077 0.0072569184755020763 0 -0.05511029359032639 0.01579015084005805 0 -0.057566748591418748 -0.0078719748531606328 0 -0.05511029359032639 0.01579015084005805 0 -0.037944320861429709 0.00047776945039190331 0 -0.057566748591418748 -0.0078719748531606328 0 -0.05511029359032639 0.01579015084005805 0 -0.05511029359032639 0.01579015084005805 0 -0.061114033776150892 0.02872414049568469 0 -0.047276728659206492 0.031360800109292278 0 -0.05511029359032639 0.01579015084005805 0 -0.034675623720908447 0.017406099635870531 0 -0.047276728659206492 0.031360800109292278 0 -0.034675623720908447 0.017406099635870531 0 -0.047276728659206492 0.031360800109292278 0 -0.032077582771235777 0.032630339656685908 0 -0.05511029359032639 0.01579015084005805 0 -0.034675623720908447 0.017406099635870531 0 -0.037944320861429709 0.00047776945039190331 0 -0.071328922775511019 0.059597698626844609 0 -0.045992179784487948 0.059925274259072132 0 -0.071328922775511019 0.059597698626844609 0 -0.063839683756238122 0.042667383512871963 0 -0.045992179784487948 0.059925274259072132 0 -0.063839683756238122 0.042667383512871963 0 -0.036376858878431589 0.047510742106152769 0 -0.045992179784487948 0.059925274259072132 0 -0.063839683756238122 0.042667383512871963 0 -0.047276728659206492 0.031360800109292278 0 -0.036376858878431589 0.047510742106152769 0 -0.063839683756238122 0.042667383512871963 0 -0.061114033776150892 0.02872414049568469 0 -0.047276728659206492 0.031360800109292278 0 -0.063839683756238122 0.042667383512871963 0 -0.036376858878431589 0.047510742106152769 0 -0.047276728659206492 0.031360800109292278 0 -0.032077582771235777 0.032630339656685908 0 -0.036376858878431589 0.047510742106152769 0 -0.031610987861261708 0.067012067738679945 0 -0.045992179784487948 0.059925274259072132 0 -0.02065543679346496 0.060252849891301502 0 -0.036376858878431589 0.047510742106152769 0 -0.045992179784487948 0.059925274259072132 0 -0.02065543679346496 0.060252849891301502 0 -0.045992179784487948 0.059925274259072132 0 -0.02065543679346496 0.060252849891301502 0 -0.036376858878431589 0.047510742106152769 0 -0.0089140340006251574 0.052354100699434261 0 -0.036376858878431589 0.047510742106152769 0 -0.02065543679346496 0.060252849891301502 0 -0.0089140340006251574 0.052354100699434261 0 -0.02065543679346496 0.060252849891301502 0 -0.01263926175440337 0.060356490031919632 0 -0.036376858878431589 0.047510742106152769 0 -0.021010579084967101 0.039460921851699873 0 -0.0089140340006251574 0.052354100699434261 0 -0.032077582771235777 0.032630339656685908 0 -0.036376858878431589 0.047510742106152769 0 -0.021010579084967101 0.039460921851699873 0 -0.032077582771235777 0.032630339656685908 0 -0.021010579084967101 0.039460921851699873 0 -0.019375632241434619 0.0266218645869023 0 -0.021010579084967101 0.039460921851699873 0 -0.01165082943358511 0.036462192965389911 0 -0.019375632241434619 0.0266218645869023 0 -0.0089140340006251574 0.052354100699434261 0 0.0026969275926862681 0.02741188472352311 0 0.00021432710999182619 0.04260488491200063 0 -0.021010579084967101 0.039460921851699873 0 -0.01165082943358511 0.036462192965389911 0 -0.0089140340006251574 0.052354100699434261 0 -0.01165082943358511 0.036462192965389911 0 -0.0089140340006251574 0.052354100699434261 0 0.0026969275926862681 0.02741188472352311 0 -0.0089140340006251574 0.052354100699434261 0 0.0026969275926862681 0.02741188472352311 0 -0.0054195724137374238 0.052970385827822507 0 -0.01263926175440337 0.060356490031919632 0 0.0031750736837875809 0.056565721673206497 0 -0.0089140340006251574 0.052354100699434261 0 -0.0054195724137374238 0.052970385827822507 0 -0.02065543679346496 0.060252849891301502 0 -0.0089140340006251574 0.052354100699434261 0 -0.01263926175440337 0.060356490031919632 0 -0.0089140340006251574 0.052354100699434261 0 -0.0054195724137374238 0.052970385827822507 0 -0.01263926175440337 0.060356490031919632 0 -0.02065543679346496 0.060252849891301502 0 -0.0089140340006251574 0.052354100699434261 0 -0.0089140340006251574 0.052354100699434261 0 -0.01263926175440337 0.060356490031919632 0 -0.01626918420181778 -0.0024443268281072392 0 -0.034675623720908447 0.017406099635870531 0 -0.037944320861429709 0.00047776945039190331 0 -0.01626918420181778 -0.0024443268281072392 0 -0.019375632241434619 0.0266218645869023 0 -0.01626918420181778 -0.0024443268281072392 0 -0.034675623720908447 0.017406099635870531 0 -0.019375632241434619 0.0266218645869023 0 -0.034675623720908447 0.017406099635870531 0 -0.032077582771235777 0.032630339656685908 0 -0.019375632241434619 0.0266218645869023 0 -0.01165082943358511 0.036462192965389911 0 -0.019375632241434619 0.0266218645869023 0 0.0026969275926862681 0.02741188472352311 0 -0.019375632241434619 0.0266218645869023 0 -0.002867750401564726 0.010213757536984929 0 0.0026969275926862681 0.02741188472352311 0 -0.01626918420181778 -0.0024443268281072392 0 -0.019375632241434619 0.0266218645869023 0 -0.002867750401564726 0.010213757536984929 0 -0.01626918420181778 -0.0024443268281072392 0 -0.002867750401564726 0.010213757536984929 0 0.0020542870866122722 -0.002457931916927811 0 0.01430788918599761 0.002469668747611693 0 0.0026969275926862681 0.02741188472352311 0 -0.002867750401564726 0.010213757536984929 0 0.01430788918599761 0.002469668747611693 0 0.0020542870866122722 -0.002457931916927811 0 -0.002867750401564726 0.010213757536984929 0 0.01430788918599761 0.002469668747611693 0 0.0026969275926862681 0.02741188472352311 0 0.01430788918599761 0.002469668747611693 0 0.0026969275926862681 0.02741188472352311 0 0.01980313381508654 0.012818962061987609 0 0.0026969275926862681 0.02741188472352311 0 0.02230212094342383 0.022074675857413909 0 0.01980313381508654 0.012818962061987609 0 0.0026969275926862681 0.02741188472352311 0 0.02230212094342383 0.022074675857413909 0 0.015163208215489421 0.03815391364290275 0 0.015163208215489421 0.03815391364290275 0 0.038415209798561931 0.023808186703662339 0 0.02230212094342383 0.022074675857413909 0 0.031274662762090469 0.0097153961523452504 0 0.038415209798561931 0.023808186703662339 0 0.02230212094342383 0.022074675857413909 0 0.015163208215489421 0.03815391364290275 0 0.038415209798561931 0.023808186703662339 0 0.02489961239455241 0.001425054730708031 0 0.01980313381508654 0.012818962061987609 0 0.031274662762090469 0.0097153961523452504 0 0.02230212094342383 0.022074675857413909 0 0.01980313381508654 0.012818962061987609 0 0.031274662762090469 0.0097153961523452504 0 0.02489961239455241 0.001425054730708031 0 0.031274662762090469 0.0097153961523452504 0 0.033373904277048422 -0.0035952080332354152 0 0.01430788918599761 0.002469668747611693 0 0.02489961239455241 0.001425054730708031 0 0.01980313381508654 0.012818962061987609 0 -0.01263926175440337 0.060356490031919632 0 0.0031750736837875809 0.056565721673206497 0 0.016682508991915271 0.060735587597604543 0 -0.01263926175440337 0.060356490031919632 0 0.016682508991915271 0.060735587597604543 0 -0.0089140340006251574 0.052354100699434261 0 -0.0054195724137374238 0.052970385827822507 0 0.015163208215489421 0.03815391364290275 0 -0.0054195724137374238 0.052970385827822507 0 0.0094185374806422442 0.049882363002409683 0 0.015163208215489421 0.03815391364290275 0 -0.01263926175440337 0.060356490031919632 0 0.016682508991915271 0.060735587597604543 0 0.0006883626110090747 0.063991539003696141 0 0.0103087337608268 0.057047705563666999 0 0.0031750736837875809 0.056565721673206497 0 0.016682508991915271 0.060735587597604543 0 0.0143821537064645 0.056369408960849882 0 0.0103087337608268 0.057047705563666999 0 0.016682508991915271 0.060735587597604543 0 0.0143821537064645 0.056369408960849882 0 0.0103087337608268 0.057047705563666999 0 0.011377329488594689 0.054133266306847033 0 0.0103087337608268 0.057047705563666999 0 0.0076309216284032259 0.054514702246186937 0 0.011377329488594689 0.054133266306847033 0 0.0031750736837875809 0.056565721673206497 0 0.0076309216284032259 0.054514702246186937 0 0.0024871118897213679 0.053769458772038613 0 0.0103087337608268 0.057047705563666999 0 0.0031750736837875809 0.056565721673206497 0 0.0076309216284032259 0.054514702246186937 0 0.0076309216284032259 0.054514702246186937 0 0.0024871118897213679 0.053769458772038613 0 0.0094185374806422442 0.049882363002409683 0 -0.0054195724137374238 0.052970385827822507 0 0.0024871118897213679 0.053769458772038613 0 0.0094185374806422442 0.049882363002409683 0 -0.0054195724137374238 0.052970385827822507 0 0.0031750736837875809 0.056565721673206497 0 0.0024871118897213679 0.053769458772038613 0 0.0076309216284032259 0.054514702246186937 0 0.0094185374806422442 0.049882363002409683 0 0.011377329488594689 0.054133266306847033 0 0.0143821537064645 0.056369408960849882 0 0.011377329488594689 0.054133266306847033 0 0.01598862360271364 0.0530593975828033 0 0.0094185374806422442 0.049882363002409683 0 0.011377329488594689 0.054133266306847033 0 0.01598862360271364 0.0530593975828033 0 0.0094185374806422442 0.049882363002409683 0 0.016522362374046921 0.04594540673616257 0 0.01598862360271364 0.0530593975828033 0 -0.0089140340006251574 0.052354100699434261 0 0.015163208215489421 0.03815391364290275 0 -0.0089140340006251574 0.052354100699434261 0 0.00021432710999182619 0.04260488491200063 0 0.015163208215489421 0.03815391364290275 0 0.0094185374806422442 0.049882363002409683 0 0.015163208215489421 0.03815391364290275 0 0.016522362374046921 0.04594540673616257 0 0.0026969275926862681 0.02741188472352311 0 0.00021432710999182619 0.04260488491200063 0 0.015163208215489421 0.03815391364290275 0 0.015163208215489421 0.03815391364290275 0 0.02921354490420551 0.041282424364473741 0 0.038415209798561931 0.023808186703662339 0 0.02921354490420551 0.041282424364473741 0 0.016522362374046921 0.04594540673616257 0 0.022477686136830381 0.050010435661114613 0 0.015163208215489421 0.03815391364290275 0 0.02921354490420551 0.041282424364473741 0 0.016522362374046921 0.04594540673616257 0 0.03097643939707179 0.057091142786065717 0 0.016682508991915271 0.060735587597604543 0 0.046004279738233927 0.061114685163288447 0 0.016522362374046921 0.04594540673616257 0 0.01598862360271364 0.0530593975828033 0 0.022477686136830381 0.050010435661114613 0 0.01598862360271364 0.0530593975828033 0 0.022477686136830381 0.050010435661114613 0 0.021841075278871112 0.055284038078556863 0 0.02921354490420551 0.041282424364473741 0 0.022477686136830381 0.050010435661114613 0 0.033880023343979167 0.049678224999118323 0 0.022477686136830381 0.050010435661114613 0 0.027229188369296411 0.053573633932837122 0 0.033880023343979167 0.049678224999118323 0 0.027229188369296411 0.053573633932837122 0 0.03097643939707179 0.057091142786065717 0 0.033880023343979167 0.049678224999118323 0 0.022477686136830381 0.050010435661114613 0 0.027229188369296411 0.053573633932837122 0 0.021841075278871112 0.055284038078556863 0 0.027229188369296411 0.053573633932837122 0 0.03097643939707179 0.057091142786065717 0 0.021841075278871112 0.055284038078556863 0 0.03097643939707179 0.057091142786065717 0 0.021841075278871112 0.055284038078556863 0 0.016682508991915271 0.060735587597604543 0 0.0143821537064645 0.056369408960849882 0 0.017223590394991131 0.056362108054953647 0 0.016682508991915271 0.060735587597604543 0 0.01598862360271364 0.0530593975828033 0 0.021841075278871112 0.055284038078556863 0 0.017223590394991131 0.056362108054953647 0 0.021841075278871112 0.055284038078556863 0 0.017223590394991131 0.056362108054953647 0 0.016682508991915271 0.060735587597604543 0 0.0143821537064645 0.056369408960849882 0 0.01598862360271364 0.0530593975828033 0 0.017223590394991131 0.056362108054953647 0 0.016682508991915271 0.060735587597604543 0 0.046004279738233927 0.061114685163288447 0 0.046004279738233927 0.061114685163288447 0 0.038968794258416463 0.054985379814936092 0 0.044702439524787987 0.051703188767874241 0 0.03097643939707179 0.057091142786065717 0 0.046004279738233927 0.061114685163288447 0 0.038968794258416463 0.054985379814936092 0 0.03097643939707179 0.057091142786065717 0 0.038968794258416463 0.054985379814936092 0 0.033880023343979167 0.049678224999118323 0 0.038968794258416463 0.054985379814936092 0 0.033880023343979167 0.049678224999118323 0 0.044702439524787987 0.051703188767874241 0 0.02921354490420551 0.041282424364473741 0 0.043629122233467939 0.038781602721788641 0 0.038415209798561931 0.023808186703662339 0 0.033880023343979167 0.049678224999118323 0 0.044702439524787987 0.051703188767874241 0 0.043629122233467939 0.038781602721788641 0 0.02921354490420551 0.041282424364473741 0 0.033880023343979167 0.049678224999118323 0 0.043629122233467939 0.038781602721788641 0 0.043629122233467939 0.038781602721788641 0 0.057157390903567751 0.040844040160452733 0 0.056501424687433778 0.026628661649946699 0 0.044702439524787987 0.051703188767874241 0 0.043629122233467939 0.038781602721788641 0 0.057157390903567751 0.040844040160452733 0 0.046004279738233927 0.061114685163288447 0 0.060014245004670418 0.056598485748422731 0 0.075326050484552681 0.061493782728971769 0 0.046004279738233927 0.061114685163288447 0 0.075326050484552681 0.061493782728971769 0 0.044702439524787987 0.051703188767874241 0 0.057157390903567751 0.040844040160452733 0 0.060014245004670418 0.056598485748422731 0 0.044702439524787987 0.051703188767874241 0 0.060014245004670418 0.056598485748422731 0 0.046004279738233927 0.061114685163288447 0 0.044702439524787987 0.051703188767874241 0 0.060014245004670418 0.056598485748422731 0 0.031274662762090469 0.0097153961523452504 0 0.038415209798561931 0.023808186703662339 0 0.048853995343869742 0.0017607055935350299 0 0.031274662762090469 0.0097153961523452504 0 0.048853995343869742 0.0017607055935350299 0 0.033373904277048422 -0.0035952080332354152 0 0.043629122233467939 0.038781602721788641 0 0.038415209798561931 0.023808186703662339 0 0.056501424687433778 0.026628661649946699 0 0.038415209798561931 0.023808186703662339 0 0.056501424687433778 0.026628661649946699 0 0.061667211381634501 0.0094624597644218846 0 0.038415209798561931 0.023808186703662339 0 0.061667211381634501 0.0094624597644218846 0 0.061667211381634501 0.0094624597644218846 0 0.048853995343869742 0.0017607055935350299 0 0.066681340165404196 -0.0086072927627725351 0 0.038415209798561931 0.023808186703662339 0 0.061667211381634501 0.0094624597644218846 0 0.048853995343869742 0.0017607055935350299 0 0.061667211381634501 0.0094624597644218846 0 0.084919212964707058 -0.0048832671748185591 0 0.061667211381634501 0.0094624597644218846 0 0.082764540065135464 0.0133176040010196 0 0.084919212964707058 -0.0048832671748185591 0 0.082764540065135464 0.0133176040010196 0 0.098844404307482883 0.0099372200349232241 0 0.084919212964707058 -0.0048832671748185591 0 0.082764540065135464 0.0133176040010196 0 0.073993204118280018 0.027972080618738449 0 0.094398667553572846 0.024099526761832999 0 0.082764540065135464 0.0133176040010196 0 0.098844404307482883 0.0099372200349232241 0 0.094398667553572846 0.024099526761832999 0 0.056501424687433778 0.026628661649946699 0 0.061667211381634501 0.0094624597644218846 0 0.073993204118280018 0.027972080618738449 0 0.061667211381634501 0.0094624597644218846 0 0.082764540065135464 0.0133176040010196 0 0.073993204118280018 0.027972080618738449 0 0.057157390903567751 0.040844040160452733 0 0.056501424687433778 0.026628661649946699 0 0.073993204118280018 0.027972080618738449 0 0.057157390903567751 0.040844040160452733 0 0.073993204118280018 0.027972080618738449 0 0.07181838145242983 0.046006990476640107 0 0.057157390903567751 0.040844040160452733 0 0.060014245004670418 0.056598485748422731 0 0.07181838145242983 0.046006990476640107 0 0.060014245004670418 0.056598485748422731 0 0.075326050484552681 0.061493782728971769 0 0.060014245004670418 0.056598485748422731 0 0.07181838145242983 0.046006990476640107 0 0.075326050484552681 0.061493782728971769 0 0.07181838145242983 0.046006990476640107 0 0.075326050484552681 0.061493782728971769 0 0.080670855964157032 0.053166456817568472 0 0.075326050484552681 0.061493782728971769 0 0.080726926640824662 0.061563609992172703 0 0.07181838145242983 0.046006990476640107 0 0.080670855964157032 0.053166456817568472 0 0.091375922810811791 0.043375307902098537 0 0.080726926640824662 0.061563609992172703 0 0.090407510619417 0.055570241636125783 0 0.097535692645078345 0.068594368897619301 0 0.080726926640824662 0.061563609992172703 0 0.080670855964157032 0.053166456817568472 0 0.090407510619417 0.055570241636125783 0 0.075326050484552681 0.061493782728971769 0 0.080726926640824662 0.061563609992172703 0 0.080670855964157032 0.053166456817568472 0 0.080670855964157032 0.053166456817568472 0 0.090407510619417 0.055570241636125783 0 0.091375922810811791 0.043375307902098537 0 0.073993204118280018 0.027972080618738449 0 0.091375922810811791 0.043375307902098537 0 0.094398667553572846 0.024099526761832999 0 0.07181838145242983 0.046006990476640107 0 0.091375922810811791 0.043375307902098537 0 0.073993204118280018 0.027972080618738449 0 0.07181838145242983 0.046006990476640107 0 0.091375922810811791 0.043375307902098537 0 0.091375922810811791 0.043375307902098537 0 0.1109334641691935 0.040743625327555169 0 0.094398667553572846 0.024099526761832999 0 0.091375922810811791 0.043375307902098537 0 0.1109334641691935 0.040743625327555169 0 0.1109334641691935 0.040743625327555169 0 0.094398667553572846 0.024099526761832999 0 0.091375922810811791 0.043375307902098537 0 0.10139660125581069 0.051764840253997087 0 0.1109334641691935 0.040743625327555169 0 0.090407510619417 0.055570241636125783 0 0.10139660125581069 0.051764840253997087 0 0.097535692645078345 0.068594368897619301 0 0.10139660125581069 0.051764840253997087 0 0.1120196999225935 0.059255499208194631 0 0.1109334641691935 0.040743625327555169 0 0.10139660125581069 0.051764840253997087 0 0.1120196999225935 0.059255499208194631 0 0.097535692645078345 0.068594368897619301 0 0.090407510619417 0.055570241636125783 0 0.091375922810811791 0.043375307902098537 0 0.10139660125581069 0.051764840253997087 0 0.1109334641691935 0.040743625327555169 0 0.13015585295687879 0.060093082178361373 0 0.1120196999225935 0.059255499208194631 0 0.1109334641691935 0.040743625327555169 0 0.13015585295687879 0.060093082178361373 0 0.1109334641691935 0.040743625327555169 0 0.13115230097712521 0.048321390725121649 0 0.13015585295687879 0.060093082178361373 0 0.1109334641691935 0.040743625327555169 0 0.1246911642888517 0.030588679905005661 0 0.11870493309546321 0.023465044623483849 0 0.1109334641691935 0.040743625327555169 0 0.13089627769248219 0.038057408920015287 0 0.13115230097712521 0.048321390725121649 0 0.1109334641691935 0.040743625327555169 0 0.13089627769248219 0.038057408920015287 0 0.1109334641691935 0.040743625327555169 0 0.1246911642888517 0.030588679905005661 0 0.13089627769248219 0.038057408920015287 0 0.1109334641691935 0.040743625327555169 0 0.11870493309546321 0.023465044623483849 0 0.10753554564840739 0.021560737699259269 0 0.1246911642888517 0.030588679905005661 0 0.11870493309546321 0.023465044623483849 0 0.12927460035918831 0.02094691615923621 0 0.11870493309546321 0.023465044623483849 0 0.11595629957018259 0.010605459873976609 0 0.10753554564840739 0.021560737699259269 0 0.11870493309546321 0.023465044623483849 0 0.123838524536956 0.016344848775870151 0 0.11595629957018259 0.010605459873976609 0 0.11870493309546321 0.023465044623483849 0 0.123838524536956 0.016344848775870151 0 0.12927460035918831 0.02094691615923621 0 0.11595629957018259 0.010605459873976609 0 0.1229139003049859 -0.0047206540506318957 0 0.10695025709943851 -0.005097154849052799 0 0.123838524536956 0.016344848775870151 0 0.11595629957018259 0.010605459873976609 0 0.13029881915510391 0.0097775885375725874 0 0.11595629957018259 0.010605459873976609 0 0.13029881915510391 0.0097775885375725874 0 0.1229139003049859 -0.0047206540506318957 0 0.11595629957018259 0.010605459873976609 0 0.098844404307482883 0.0099372200349232241 0 0.10753554564840739 0.021560737699259269 0 0.11595629957018259 0.010605459873976609 0 0.098844404307482883 0.0099372200349232241 0 0.10695025709943851 -0.005097154849052799 0 0.098844404307482883 0.0099372200349232241 0 0.094398667553572846 0.024099526761832999 0 0.10753554564840739 0.021560737699259269 0 0.1109334641691935 0.040743625327555169 0 0.094398667553572846 0.024099526761832999 0 0.10753554564840739 0.021560737699259269 0 0.10058175499049681 0.099337940779930647 0 0.09940249052805275 0.11203926609639681 0 0.1154306430338268 0.10537377445345859 0 0.10058175499049681 0.099337940779930647 0 0.1154306430338268 0.10537377445345859 0 0.1076786809518291 0.08816627691182137 0 0.10058175499049681 0.099337940779930647 0 0.092504914437511979 0.086239797873832 0 0.089041368402531754 0.098984595868277486 0 0.10058175499049681 0.099337940779930647 0 0.09940249052805275 0.11203926609639681 0 0.089041368402531754 0.098984595868277486 0 0.09940249052805275 0.11203926609639681 0 0.090017338394525775 0.12109301885651889 0 0.1004598089468441 0.12856388265809721 0 0.09940249052805275 0.11203926609639681 0 0.11046001507298921 0.1202303391194051 0 0.1154306430338268 0.10537377445345859 0 0.09940249052805275 0.11203926609639681 0 0.11046001507298921 0.1202303391194051 0 0.1004598089468441 0.12856388265809721 0 0.11046001507298921 0.1202303391194051 0 0.12400789559134399 0.1189051747164452 0 0.1154306430338268 0.10537377445345859 0 0.12400789559134399 0.1189051747164452 0 0.1154306430338268 0.10537377445345859 0 0.1282086201577767 0.10745729352807019 0 0.1154306430338268 0.10537377445345859 0 0.1076786809518291 0.08816627691182137 0 0.12659824411460241 0.09227426183717688 0 0.1154306430338268 0.10537377445345859 0 0.12659824411460241 0.09227426183717688 0 0.1282086201577767 0.10745729352807019 0 0.1197453348056038 0.075694955066267361 0 0.1076786809518291 0.08816627691182137 0 0.12659824411460241 0.09227426183717688 0 0.1120196999225935 0.059255499208194631 0 0.1197453348056038 0.075694955066267361 0 0.097535692645078345 0.068594368897619301 0 0.1120196999225935 0.059255499208194631 0 0.1197453348056038 0.075694955066267361 0 0.13015585295687879 0.060093082178361373 0 0.1197453348056038 0.075694955066267361 0 0.097535692645078345 0.068594368897619301 0 0.1197453348056038 0.075694955066267361 0 0.097535692645078345 0.068594368897619301 0 0.1076786809518291 0.08816627691182137 0 0.097535692645078345 0.068594368897619301 0 0.1076786809518291 0.08816627691182137 0 0.092504914437511979 0.086239797873832 0 0.10058175499049681 0.099337940779930647 0 0.1076786809518291 0.08816627691182137 0 0.092504914437511979 0.086239797873832 0 0.092504914437511979 0.086239797873832 0 0.082598173912327599 0.090228543802898742 0 0.089041368402531754 0.098984595868277486 0 0.092504914437511979 0.086239797873832 0 0.080743006172920045 0.080427745395527439 0 0.088316441932231426 0.076777518409092985 0 0.080743006172920045 0.080427745395527439 0 0.082598173912327599 0.090228543802898742 0 0.071913221454390067 0.083564763587309909 0 0.092504914437511979 0.086239797873832 0 0.080743006172920045 0.080427745395527439 0 0.082598173912327599 0.090228543802898742 0 0.075326050484552681 0.061493782728971769 0 0.080726926640824662 0.061563609992172703 0 0.097535692645078345 0.068594368897619301 0 0.075326050484552681 0.061493782728971769 0 0.097535692645078345 0.068594368897619301 0 0.081285645630405412 0.071319077526461577 0 0.097535692645078345 0.068594368897619301 0 0.088316441932231426 0.076777518409092985 0 0.081285645630405412 0.071319077526461577 0 0.097535692645078345 0.068594368897619301 0 0.092504914437511979 0.086239797873832 0 0.088316441932231426 0.076777518409092985 0 0.075326050484552681 0.061493782728971769 0 0.097535692645078345 0.068594368897619301 0 0.080743006172920045 0.080427745395527439 0 0.088316441932231426 0.076777518409092985 0 0.081285645630405412 0.071319077526461577 0 0.075326050484552681 0.061493782728971769 0 0.073424547919452202 0.067835534758308558 0 0.065236146021109762 0.066431719226113004 0 0.075326050484552681 0.061493782728971769 0 0.081285645630405412 0.071319077526461577 0 0.073424547919452202 0.067835534758308558 0 0.081285645630405412 0.071319077526461577 0 0.073424547919452202 0.067835534758308558 0 0.07123692836727584 0.073050300760299669 0 0.080743006172920045 0.080427745395527439 0 0.081285645630405412 0.071319077526461577 0 0.07123692836727584 0.073050300760299669 0 0.07123692836727584 0.073050300760299669 0 0.063661188495043305 0.076857070168898173 0 0.059805535361993553 0.06925975597507894 0 0.07123692836727584 0.073050300760299669 0 0.063661188495043305 0.076857070168898173 0 0.071913221454390067 0.083564763587309909 0 0.07123692836727584 0.073050300760299669 0 0.065236146021109762 0.066431719226113004 0 0.059805535361993553 0.06925975597507894 0 0.073424547919452202 0.067835534758308558 0 0.07123692836727584 0.073050300760299669 0 0.065236146021109762 0.066431719226113004 0 0.082598173912327599 0.090228543802898742 0 0.071913221454390067 0.083564763587309909 0 0.073497915779106499 0.096006131904715408 0 0.080743006172920045 0.080427745395527439 0 0.07123692836727584 0.073050300760299669 0 0.071913221454390067 0.083564763587309909 0 0.063661188495043305 0.076857070168898173 0 0.071913221454390067 0.083564763587309909 0 0.059408769785234197 0.084929192492015235 0 0.073497915779106499 0.096006131904715408 0 0.060215062846789458 0.097880477648194908 0 0.059408769785234197 0.084929192492015235 0 0.071913221454390067 0.083564763587309909 0 0.073497915779106499 0.096006131904715408 0 0.059408769785234197 0.084929192492015235 0 0.068357270027288183 0.1083382869129354 0 0.073497915779106499 0.096006131904715408 0 0.060215062846789458 0.097880477648194908 0 0.068357270027288183 0.1083382869129354 0 0.073497915779106499 0.096006131904715408 0 0.083157669767092379 0.10931903473291719 0 0.09940249052805275 0.11203926609639681 0 0.083157669767092379 0.10931903473291719 0 0.089041368402531754 0.098984595868277486 0 0.073497915779106499 0.096006131904715408 0 0.083157669767092379 0.10931903473291719 0 0.089041368402531754 0.098984595868277486 0 0.082598173912327599 0.090228543802898742 0 0.073497915779106499 0.096006131904715408 0 0.089041368402531754 0.098984595868277486 0 0.09940249052805275 0.11203926609639681 0 0.083157669767092379 0.10931903473291719 0 0.090017338394525775 0.12109301885651889 0 0.083157669767092379 0.10931903473291719 0 0.090017338394525775 0.12109301885651889 0 0.078629635471049314 0.11945290875865899 0 0.068357270027288183 0.1083382869129354 0 0.050688930776729563 0.10996680935339059 0 0.068794341769487538 0.1333673768890109 0 0.068357270027288183 0.1083382869129354 0 0.078629635471049314 0.11945290875865899 0 0.068794341769487538 0.1333673768890109 0 0.068357270027288183 0.1083382869129354 0 0.083157669767092379 0.10931903473291719 0 0.078629635471049314 0.11945290875865899 0 0.050688930776729563 0.10996680935339059 0 0.044731216819931717 0.12950664105883711 0 0.068794341769487538 0.1333673768890109 0 0.050688930776729563 0.10996680935339059 0 0.068794341769487538 0.1333673768890109 0 0.068357270027288183 0.1083382869129354 0 0.050688930776729563 0.10996680935339059 0 0.060215062846789458 0.097880477648194908 0 0.050688930776729563 0.10996680935339059 0 0.060215062846789458 0.097880477648194908 0 0.049892542398490829 0.091743794249520866 0 0.050688930776729563 0.10996680935339059 0 0.049892542398490829 0.091743794249520866 0 0.032583519783971553 0.086566241817770201 0 0.050688930776729563 0.10996680935339059 0 0.032583519783971553 0.086566241817770201 0 0.050688930776729563 0.10996680935339059 0 0.032583519783971553 0.086566241817770201 0 0.029619736044647332 0.1054497215622302 0 0.050688930776729563 0.10996680935339059 0 0.038197349683182058 0.1168362862421389 0 0.029619736044647332 0.1054497215622302 0 0.050688930776729563 0.10996680935339059 0 0.038197349683182058 0.1168362862421389 0 0.044731216819931717 0.12950664105883711 0 0.046004279738233927 0.061114685163288447 0 0.075326050484552681 0.061493782728971769 0 0.065236146021109762 0.066431719226113004 0 0.046004279738233927 0.061114685163288447 0 0.065236146021109762 0.066431719226113004 0 0.059805535361993553 0.06925975597507894 0 0.046004279738233927 0.061114685163288447 0 0.059805535361993553 0.06925975597507894 0 0.050180023362719033 0.070902096025884001 0 0.059805535361993553 0.06925975597507894 0 0.056064565459536461 0.074970940167449929 0 0.050180023362719033 0.070902096025884001 0 0.063661188495043305 0.076857070168898173 0 0.059805535361993553 0.06925975597507894 0 0.056064565459536461 0.074970940167449929 0 0.056064565459536461 0.074970940167449929 0 0.050180023362719033 0.070902096025884001 0 0.047907481250923839 0.079094272915554278 0 0.047907481250923839 0.079094272915554278 0 0.059408769785234197 0.084929192492015235 0 0.049892542398490829 0.091743794249520866 0 0.056064565459536461 0.074970940167449929 0 0.047907481250923839 0.079094272915554278 0 0.059408769785234197 0.084929192492015235 0 0.063661188495043305 0.076857070168898173 0 0.056064565459536461 0.074970940167449929 0 0.059408769785234197 0.084929192492015235 0 0.060215062846789458 0.097880477648194908 0 0.059408769785234197 0.084929192492015235 0 0.049892542398490829 0.091743794249520866 0 0.047907481250923839 0.079094272915554278 0 0.032583519783971553 0.086566241817770201 0 0.041163312080485598 0.070506333139198504 0 0.047907481250923839 0.079094272915554278 0 0.049892542398490829 0.091743794249520866 0 0.032583519783971553 0.086566241817770201 0 0.032583519783971553 0.086566241817770201 0 0.041163312080485598 0.070506333139198504 0 0.03012652724277334 0.068176985909949944 0 0.046004279738233927 0.061114685163288447 0 0.041163312080485598 0.070506333139198504 0 0.03012652724277334 0.068176985909949944 0 0.050180023362719033 0.070902096025884001 0 0.047907481250923839 0.079094272915554278 0 0.041163312080485598 0.070506333139198504 0 0.046004279738233927 0.061114685163288447 0 0.050180023362719033 0.070902096025884001 0 0.041163312080485598 0.070506333139198504 0 0.016682508991915271 0.060735587597604543 0 0.03012652724277334 0.068176985909949944 0 0.0144781087912136 0.06316567428214992 0 0.032583519783971553 0.086566241817770201 0 0.0144781087912136 0.06316567428214992 0 0.032583519783971553 0.086566241817770201 0 0.03012652724277334 0.068176985909949944 0 0.0144781087912136 0.06316567428214992 0 0.032583519783971553 0.086566241817770201 0 0.016390525773347119 0.080390518852192588 0 0.0144781087912136 0.06316567428214992 0 0.016682508991915271 0.060735587597604543 0 0.046004279738233927 0.061114685163288447 0 0.03012652724277334 0.068176985909949944 0 0.032583519783971553 0.086566241817770201 0 0.016390525773347119 0.080390518852192588 0 0.01778860844982676 0.094150482367672372 0 0.016390525773347119 0.080390518852192588 0 0.0056820048922009026 0.089621195735828191 0 0.01778860844982676 0.094150482367672372 0 -0.0007351078596584071 0.077732459062844192 0 0.0056820048922009026 0.089621195735828191 0 0.0073722667114625414 0.080318369230618442 0 0.016390525773347119 0.080390518852192588 0 0.0056820048922009026 0.089621195735828191 0 0.0073722667114625414 0.080318369230618442 0 0.016682508991915271 0.060735587597604543 0 0.0006883626110090747 0.063991539003696141 0 0.0076511646922165283 0.064712840278504324 0 0.016390525773347119 0.080390518852192588 0 0.011496887775772331 0.069211268973188855 0 0.0144781087912136 0.06316567428214992 0 0.016390525773347119 0.080390518852192588 0 0.0077727454464789486 0.073286524647561871 0 0.011496887775772331 0.069211268973188855 0 0.016390525773347119 0.080390518852192588 0 0.0073722667114625414 0.080318369230618442 0 0.0077727454464789486 0.073286524647561871 0 -0.0007351078596584071 0.077732459062844192 0 0.0073722667114625414 0.080318369230618442 0 0.0077727454464789486 0.073286524647561871 0 -0.0007351078596584071 0.077732459062844192 0 0.0077727454464789486 0.073286524647561871 0 0.0037449372657645899 0.068453086377103664 0 -0.0022538957802038652 0.069163061748034063 0 -0.0007351078596584071 0.077732459062844192 0 0.0037449372657645899 0.068453086377103664 0 0.0077727454464789486 0.073286524647561871 0 0.0037449372657645899 0.068453086377103664 0 0.0076511646922165283 0.064712840278504324 0 -0.0022538957802038652 0.069163061748034063 0 0.0037449372657645899 0.068453086377103664 0 0.0006883626110090747 0.063991539003696141 0 0.0037449372657645899 0.068453086377103664 0 0.0006883626110090747 0.063991539003696141 0 0.0076511646922165283 0.064712840278504324 0 0.0076511646922165283 0.064712840278504324 0 0.01155249220433672 0.064489217661774234 0 0.011496887775772331 0.069211268973188855 0 0.016682508991915271 0.060735587597604543 0 0.0076511646922165283 0.064712840278504324 0 0.01155249220433672 0.064489217661774234 0 0.0077727454464789486 0.073286524647561871 0 0.0076511646922165283 0.064712840278504324 0 0.011496887775772331 0.069211268973188855 0 0.016682508991915271 0.060735587597604543 0 0.01155249220433672 0.064489217661774234 0 0.0144781087912136 0.06316567428214992 0 0.01155249220433672 0.064489217661774234 0 0.011496887775772331 0.069211268973188855 0 0.0144781087912136 0.06316567428214992 0 -5.2145860693967462e-05 0.1081691216564979 0 0.029619736044647332 0.1054497215622302 0 0.018109940977042459 0.1290217344361349 0 0.038197349683182058 0.1168362862421389 0 0.029619736044647332 0.1054497215622302 0 0.018109940977042459 0.1290217344361349 0 0.032583519783971553 0.086566241817770201 0 0.029619736044647332 0.1054497215622302 0 0.01778860844982676 0.094150482367672372 0 -5.2145860693967462e-05 0.1081691216564979 0 0.029619736044647332 0.1054497215622302 0 0.01778860844982676 0.094150482367672372 0 -5.2145860693967462e-05 0.1081691216564979 0 0.0056820048922009026 0.089621195735828191 0 0.01778860844982676 0.094150482367672372 0 -5.2145860693967462e-05 0.1081691216564979 0 0.029619736044647332 0.1054497215622302 0 -0.0085113348658469937 0.12853682781343281 0 -5.2145860693967462e-05 0.1081691216564979 0 0.018109940977042459 0.1290217344361349 0 -0.0048217962445874923 0.14621403901726021 0 -0.0085113348658469937 0.12853682781343281 0 0.018109940977042459 0.1290217344361349 0 -0.0085113348658469937 0.12853682781343281 0 0.018109940977042459 0.1290217344361349 0 0.018109940977042459 0.1290217344361349 0 0.03031331349777204 0.14794424398287981 0 0.044731216819931717 0.12950664105883711 0 0.03031331349777204 0.14794424398287981 0 0.011967854029808911 0.1526588052389494 0 0.02335951942304108 0.15945011518068389 0 0.018109940977042459 0.1290217344361349 0 0.03031331349777204 0.14794424398287981 0 0.011967854029808911 0.1526588052389494 0 -0.0048217962445874923 0.14621403901726021 0 0.018109940977042459 0.1290217344361349 0 0.011967854029808911 0.1526588052389494 0 -0.001583642327711904 0.16382029868089459 0 -0.0048217962445874923 0.14621403901726021 0 0.011967854029808911 0.1526588052389494 0 -0.001583642327711904 0.16382029868089459 0 0.005511857122819471 0.178660602672958 0 0.017580094328823979 0.17029314344081781 0 -0.001583642327711904 0.16382029868089459 0 0.011967854029808911 0.1526588052389494 0 0.017580094328823979 0.17029314344081781 0 0.005511857122819471 0.178660602672958 0 0.0048510686023909609 0.19474681946249009 0 0.019201336363779541 0.18810433601927251 0 0.005511857122819471 0.178660602672958 0 0.017580094328823979 0.17029314344081781 0 0.019201336363779541 0.18810433601927251 0 -0.0081897055885035482 0.1777163722511958 0 0.005511857122819471 0.178660602672958 0 0.0048510686023909609 0.19474681946249009 0 0.017580094328823979 0.17029314344081781 0 0.033832255213193337 0.16703767925946381 0 0.033551604125168492 0.18146185257605579 0 0.017580094328823979 0.17029314344081781 0 0.033551604125168492 0.18146185257605579 0 0.019201336363779541 0.18810433601927251 0 0.033551604125168492 0.18146185257605579 0 0.019201336363779541 0.18810433601927251 0 0.02335951942304108 0.15945011518068389 0 0.017580094328823979 0.17029314344081781 0 0.033832255213193337 0.16703767925946381 0 0.03031331349777204 0.14794424398287981 0 0.02335951942304108 0.15945011518068389 0 0.033832255213193337 0.16703767925946381 0 0.011967854029808911 0.1526588052389494 0 0.02335951942304108 0.15945011518068389 0 0.017580094328823979 0.17029314344081781 0 0.033832255213193337 0.16703767925946381 0 0.033551604125168492 0.18146185257605579 0 0.060225678443707548 0.16911489850034239 0 0.033832255213193337 0.16703767925946381 0 0.033551604125168492 0.18146185257605579 0 0.051603845167873197 0.18449435228537039 0 0.069966844294785696 0.17155531773927951 0 0.033551604125168492 0.18146185257605579 0 0.060225678443707548 0.16911489850034239 0 0.033551604125168492 0.18146185257605579 0 0.051603845167873197 0.18449435228537039 0 0.060225678443707548 0.16911489850034239 0 0.051603845167873197 0.18449435228537039 0 0.060225678443707548 0.16911489850034239 0 0.069966844294785696 0.17155531773927951 0 0.060225678443707548 0.16911489850034239 0 0.050038744134511023 0.15007387072281941 0 0.068600739803836464 0.1522216835885575 0 0.033832255213193337 0.16703767925946381 0 0.060225678443707548 0.16911489850034239 0 0.050038744134511023 0.15007387072281941 0 0.050038744134511023 0.15007387072281941 0 0.068794341769487538 0.1333673768890109 0 0.068600739803836464 0.1522216835885575 0 0.050038744134511023 0.15007387072281941 0 0.044731216819931717 0.12950664105883711 0 0.068794341769487538 0.1333673768890109 0 0.038197349683182058 0.1168362862421389 0 0.018109940977042459 0.1290217344361349 0 0.044731216819931717 0.12950664105883711 0 0.018109940977042459 0.1290217344361349 0 0.044731216819931717 0.12950664105883711 0 0.03031331349777204 0.14794424398287981 0 0.033832255213193337 0.16703767925946381 0 0.050038744134511023 0.15007387072281941 0 0.03031331349777204 0.14794424398287981 0 0.050038744134511023 0.15007387072281941 0 0.044731216819931717 0.12950664105883711 0 0.02359342531132327 0.2403538001167673 0 0.015155120480715699 0.2347796035317388 0 0.032449785737659907 0.23809024299780079 0 0.03240015816436026 0.2406408716934535 0 0.015589344204555589 0.25238293360822239 0 0.02359342531132327 0.2403538001167673 0 0.03240015816436026 0.2406408716934535 0 0.015589344204555589 0.25238293360822239 0 0.02359342531132327 0.2403538001167673 0 0.015155120480715699 0.2347796035317388 0 0.015589344204555589 0.25238293360822239 0 0.02359342531132327 0.2403538001167673 0 0.032449785737659907 0.23809024299780079 0 0.03240015816436026 0.2406408716934535 0 -0.0011779531814362859 0.24237928671812051 0 0.015155120480715699 0.2347796035317388 0 0.015589344204555589 0.25238293360822239 0 -0.0011779531814362859 0.24237928671812051 0 0.015155120480715699 0.2347796035317388 0 0.0059928030437408387 0.2284320084690849 0 0.015155120480715699 0.2347796035317388 0 0.0059928030437408387 0.2284320084690849 0 0.0098714647976643824 0.21798231914863281 0 -0.0041296839451902198 0.223765609316179 0 -0.0011779531814362859 0.24237928671812051 0 0.0059928030437408387 0.2284320084690849 0 -0.0041296839451902198 0.223765609316179 0 0.0059928030437408387 0.2284320084690849 0 0.0098714647976643824 0.21798231914863281 0 0.0098714647976643824 0.21798231914863281 0 0.032449785737659907 0.23809024299780079 0 0.027240552984189759 0.22398610589370821 0 0.0098714647976643824 0.21798231914863281 0 0.032449785737659907 0.23809024299780079 0 0.027240552984189759 0.22398610589370821 0 0.032845315889309681 0.2177618149146309 0 0.032449785737659907 0.23809024299780079 0 0.015155120480715699 0.2347796035317388 0 0.0098714647976643824 0.21798231914863281 0 0.032449785737659907 0.23809024299780079 0 0.027240552984189759 0.22398610589370821 0 0.016136820966872471 0.2094853163545915 0 0.032845315889309681 0.2177618149146309 0 0.016136820966872471 0.2094853163545915 0 0.033240846040960392 0.19743338683146081 0 0.016136820966872471 0.2094853163545915 0 0.033240846040960392 0.19743338683146081 0 0.032845315889309681 0.2177618149146309 0 0.027240552984189759 0.22398610589370821 0 0.016136820966872471 0.2094853163545915 0 0.0098714647976643824 0.21798231914863281 0 0.027240552984189759 0.22398610589370821 0 0.016136820966872471 0.2094853163545915 0 -0.0041296839451902198 0.223765609316179 0 0.016136820966872471 0.2094853163545915 0 -0.0041296839451902198 0.223765609316179 0 0.016136820966872471 0.2094853163545915 0 0.0098714647976643824 0.21798231914863281 0 -0.0041296839451902198 0.223765609316179 0 0.016136820966872471 0.2094853163545915 0 0.00093659522194888183 0.20943444516334939 0 0.016136820966872471 0.2094853163545915 0 0.00093659522194888183 0.20943444516334939 0 0.0048510686023909609 0.19474681946249009 0 0.016136820966872471 0.2094853163545915 0 0.0048510686023909609 0.19474681946249009 0 0.019201336363779541 0.18810433601927251 0 0.016136820966872471 0.2094853163545915 0 0.0048510686023909609 0.19474681946249009 0 0.0048510686023909609 0.19474681946249009 0 0.019201336363779541 0.18810433601927251 0 0.033551604125168492 0.18146185257605579 0 0.019201336363779541 0.18810433601927251 0 0.033240846040960392 0.19743338683146081 0 0.016136820966872471 0.2094853163545915 0 0.019201336363779541 0.18810433601927251 0 0.033240846040960392 0.19743338683146081 0 0.033551604125168492 0.18146185257605579 0 0.033240846040960392 0.19743338683146081 0 0.051603845167873197 0.18449435228537039 0 0.033240846040960392 0.19743338683146081 0 0.052996555992744707 0.20261701323793849 0 0.051603845167873197 0.18449435228537039 0 0.033240846040960392 0.19743338683146081 0 0.033551604125168492 0.18146185257605579 0 0.051603845167873197 0.18449435228537039 0 0.033240846040960392 0.19743338683146081 0 0.051603845167873197 0.18449435228537039 0 0.052996555992744707 0.20261701323793849 0 0.070031976910915561 0.19295260771382339 0 0.052996555992744707 0.20261701323793849 0 0.0525610247561661 0.21481163886298149 0 0.07150719336549903 0.21332528603932091 0 0.052996555992744707 0.20261701323793849 0 0.0525610247561661 0.21481163886298149 0 0.042025119580983032 0.2107781220182228 0 0.0525610247561661 0.21481163886298149 0 0.054741611268138222 0.22503575428285849 0 0.07150719336549903 0.21332528603932091 0 0.033240846040960392 0.19743338683146081 0 0.052996555992744707 0.20261701323793849 0 0.042025119580983032 0.2107781220182228 0 0.033240846040960392 0.19743338683146081 0 0.042025119580983032 0.2107781220182228 0 0.032845315889309681 0.2177618149146309 0 0.0525610247561661 0.21481163886298149 0 0.042025119580983032 0.2107781220182228 0 0.041534643573465098 0.22230201873656641 0 0.033240846040960392 0.19743338683146081 0 0.032845315889309681 0.2177618149146309 0 0.042025119580983032 0.2107781220182228 0 0.032845315889309681 0.2177618149146309 0 0.041534643573465098 0.22230201873656641 0 0.054741611268138222 0.22503575428285849 0 0.073851568759987621 0.24943896511838209 0 0.056094534364332649 0.25914791181566188 0 0.054741611268138222 0.22503575428285849 0 0.034033081451861388 0.23950030310529871 0 0.056094534364332649 0.25914791181566188 0 0.041534643573465098 0.22230201873656641 0 0.032449785737659907 0.23809024299780079 0 0.034033081451861388 0.23950030310529871 0 0.032845315889309681 0.2177618149146309 0 0.041534643573465098 0.22230201873656641 0 0.032449785737659907 0.23809024299780079 0 0.032845315889309681 0.2177618149146309 0 0.032449785737659907 0.23809024299780079 0 0.054741611268138222 0.22503575428285849 0 0.034033081451861388 0.23950030310529871 0 0.041534643573465098 0.22230201873656641 0 0.054741611268138222 0.22503575428285849 0 0.034033081451861388 0.23950030310529871 0 0.041534643573465098 0.22230201873656641 0 0.054741611268138222 0.22503575428285849 0 0.0525610247561661 0.21481163886298149 0 0.041534643573465098 0.22230201873656641 0 0.054741611268138222 0.22503575428285849 0 0.034033081451861388 0.23950030310529871 0 0.056094534364332649 0.25914791181566188 0 0.034033081451861388 0.23950030310529871 0 0.03240015816436026 0.2406408716934535 0 0.031985877096328767 0.261933010516536 0 0.032449785737659907 0.23809024299780079 0 0.034033081451861388 0.23950030310529871 0 0.034033081451861388 0.23950030310529871 0 0.03240015816436026 0.2406408716934535 0 0.032449785737659907 0.23809024299780079 0 0.03240015816436026 0.2406408716934535 0 0.032449785737659907 0.23809024299780079 0 0.034033081451861388 0.23950030310529871 0 0.03240015816436026 0.2406408716934535 0 0.073851568759987621 0.24943896511838209 0 0.08079009496450712 0.2304275798293432 0 0.092497282968843395 0.25730746295092738 0 0.08079009496450712 0.2304275798293432 0 0.10683857866087559 0.23581940537583049 0 0.092497282968843395 0.25730746295092738 0 0.054741611268138222 0.22503575428285849 0 0.073851568759987621 0.24943896511838209 0 0.08079009496450712 0.2304275798293432 0 0.054741611268138222 0.22503575428285849 0 0.07150719336549903 0.21332528603932091 0 0.054741611268138222 0.22503575428285849 0 0.08079009496450712 0.2304275798293432 0 0.07150719336549903 0.21332528603932091 0 0.054741611268138222 0.22503575428285849 0 0.08079009496450712 0.2304275798293432 0 0.08079009496450712 0.2304275798293432 0 0.07150719336549903 0.21332528603932091 0 0.096700229547404967 0.2191814373187965 0 0.07150719336549903 0.21332528603932091 0 0.088272775462859485 0.20161481779578261 0 0.07150719336549903 0.21332528603932091 0 0.088272775462859485 0.20161481779578261 0 0.096700229547404967 0.2191814373187965 0 0.052996555992744707 0.20261701323793849 0 0.07150719336549903 0.21332528603932091 0 0.070031976910915561 0.19295260771382339 0 0.07150719336549903 0.21332528603932091 0 0.070031976910915561 0.19295260771382339 0 0.088272775462859485 0.20161481779578261 0 0.088272775462859485 0.20161481779578261 0 0.1050383575602199 0.18990434955224439 0 0.085844647181731265 0.18410885918524869 0 0.070031976910915561 0.19295260771382339 0 0.088272775462859485 0.20161481779578261 0 0.085844647181731265 0.18410885918524869 0 0.088272775462859485 0.20161481779578261 0 0.1050383575602199 0.18990434955224439 0 0.1063998760306801 0.20485357695035569 0 0.088272775462859485 0.20161481779578261 0 0.1050383575602199 0.18990434955224439 0 0.11966826997471269 0.19120295456826961 0 0.1202606603845595 0.21570863776811799 0 0.13368274210823961 0.195597870160403 0 0.1050383575602199 0.18990434955224439 0 0.11966826997471269 0.19120295456826961 0 0.1063998760306801 0.20485357695035569 0 0.11966826997471269 0.19120295456826961 0 0.1202606603845595 0.21570863776811799 0 0.1063998760306801 0.20485357695035569 0 0.1202606603845595 0.21570863776811799 0 0.1063998760306801 0.20485357695035569 0 0.096700229547404967 0.2191814373187965 0 0.088272775462859485 0.20161481779578261 0 0.1063998760306801 0.20485357695035569 0 0.096700229547404967 0.2191814373187965 0 0.08079009496450712 0.2304275798293432 0 0.096700229547404967 0.2191814373187965 0 0.10683857866087559 0.23581940537583049 0 0.1202606603845595 0.21570863776811799 0 0.096700229547404967 0.2191814373187965 0 0.10683857866087559 0.23581940537583049 0 0.08079009496450712 0.2304275798293432 0 0.10683857866087559 0.23581940537583049 0 0.1202606603845595 0.21570863776811799 0 0.10683857866087559 0.23581940537583049 0 0.13482805977205289 0.24161300169595401 0 0.1202606603845595 0.21570863776811799 0 0.10683857866087559 0.23581940537583049 0 0.10683857866087559 0.23581940537583049 0 0.13482805977205289 0.24161300169595401 0 0.10683857866087559 0.23581940537583049 0 0.13482805977205289 0.24161300169595401 0 0.11670344870344949 0.25749599771246001 0 0.10683857866087559 0.23581940537583049 0 0.092497282968843395 0.25730746295092738 0 0.089427586204880005 0.14505063548347169 0 0.068794341769487538 0.1333673768890109 0 0.086899752762247109 0.15676794442462999 0 0.088329843421699528 0.15861628319319029 0 0.098714014812668102 0.1512993328719652 0 0.089427586204880005 0.14505063548347169 0 0.086899752762247109 0.15676794442462999 0 0.098714014812668102 0.1512993328719652 0 0.086899752762247109 0.15676794442462999 0 0.098714014812668102 0.1512993328719652 0 0.086899752762247109 0.15676794442462999 0 0.088329843421699528 0.15861628319319029 0 0.098714014812668102 0.1512993328719652 0 0.090017338394525775 0.12109301885651889 0 0.078629635471049314 0.11945290875865899 0 0.085218545033829265 0.1355007855541461 0 0.089427586204880005 0.14505063548347169 0 0.085218545033829265 0.1355007855541461 0 0.068794341769487538 0.1333673768890109 0 0.090017338394525775 0.12109301885651889 0 0.085218545033829265 0.1355007855541461 0 0.1004598089468441 0.12856388265809721 0 0.078629635471049314 0.11945290875865899 0 0.085218545033829265 0.1355007855541461 0 0.068794341769487538 0.1333673768890109 0 0.068794341769487538 0.1333673768890109 0 0.086899752762247109 0.15676794442462999 0 0.068794341769487538 0.1333673768890109 0 0.068600739803836464 0.1522216835885575 0 0.086899752762247109 0.15676794442462999 0 0.060225678443707548 0.16911489850034239 0 0.069966844294785696 0.17155531773927951 0 0.086899752762247109 0.15676794442462999 0 0.060225678443707548 0.16911489850034239 0 0.086899752762247109 0.15676794442462999 0 0.060225678443707548 0.16911489850034239 0 0.068600739803836464 0.1522216835885575 0 0.086899752762247109 0.15676794442462999 0 0.051603845167873197 0.18449435228537039 0 0.070031976910915561 0.19295260771382339 0 0.069966844294785696 0.17155531773927951 0 0.070031976910915561 0.19295260771382339 0 0.069966844294785696 0.17155531773927951 0 0.085844647181731265 0.18410885918524869 0 0.069966844294785696 0.17155531773927951 0 0.085844647181731265 0.18410885918524869 0 0.083801618720411544 0.17150889641173919 0 0.085844647181731265 0.18410885918524869 0 0.083801618720411544 0.17150889641173919 0 0.098075091631365796 0.17622754275734381 0 0.069966844294785696 0.17155531773927951 0 0.088329843421699528 0.15861628319319029 0 0.069966844294785696 0.17155531773927951 0 0.083801618720411544 0.17150889641173919 0 0.088329843421699528 0.15861628319319029 0 0.069966844294785696 0.17155531773927951 0 0.086899752762247109 0.15676794442462999 0 0.088329843421699528 0.15861628319319029 0 0.083801618720411544 0.17150889641173919 0 0.093729721459767865 0.16559542389121021 0 0.088329843421699528 0.15861628319319029 0 0.083801618720411544 0.17150889641173919 0 0.093729721459767865 0.16559542389121021 0 0.098075091631365796 0.17622754275734381 0 0.093729721459767865 0.16559542389121021 0 0.088329843421699528 0.15861628319319029 0 0.086899752762247109 0.15676794442462999 0 0.088329843421699528 0.15861628319319029 0 0.088329843421699528 0.15861628319319029 0 0.099667012003294614 0.15964851844521361 0 0.098714014812668102 0.1512993328719652 0 0.093729721459767865 0.16559542389121021 0 0.088329843421699528 0.15861628319319029 0 0.099667012003294614 0.15964851844521361 0 0.093729721459767865 0.16559542389121021 0 0.099667012003294614 0.15964851844521361 0 0.10122544354253139 0.166474071703166 0 0.093729721459767865 0.16559542389121021 0 0.10122544354253139 0.166474071703166 0 0.098075091631365796 0.17622754275734381 0 0.10122544354253139 0.166474071703166 0 0.1090190831160552 0.16914963854711379 0 0.1056363095021737 0.16174923487494849 0 0.10122544354253139 0.166474071703166 0 0.1090190831160552 0.16914963854711379 0 0.098075091631365796 0.17622754275734381 0 0.1056363095021737 0.16174923487494849 0 0.1126110649263265 0.15904984425020541 0 0.1056448895268292 0.15374241281667139 0 0.1090190831160552 0.16914963854711379 0 0.1056363095021737 0.16174923487494849 0 0.1126110649263265 0.15904984425020541 0 0.099667012003294614 0.15964851844521361 0 0.1056363095021737 0.16174923487494849 0 0.1056448895268292 0.15374241281667139 0 0.099667012003294614 0.15964851844521361 0 0.10122544354253139 0.166474071703166 0 0.1056363095021737 0.16174923487494849 0 0.1050383575602199 0.18990434955224439 0 0.085844647181731265 0.18410885918524869 0 0.098075091631365796 0.17622754275734381 0 0.1050383575602199 0.18990434955224439 0 0.1090190831160552 0.16914963854711379 0 0.098075091631365796 0.17622754275734381 0 0.1050383575602199 0.18990434955224439 0 0.11966826997471269 0.19120295456826961 0 0.1224258841075417 0.1748189792736434 0 0.1050383575602199 0.18990434955224439 0 0.1090190831160552 0.16914963854711379 0 0.1224258841075417 0.1748189792736434 0 0.1126110649263265 0.15904984425020541 0 0.1205044113868658 0.16162123440212081 0 0.1181184885724719 0.1541793280909852 0 0.1090190831160552 0.16914963854711379 0 0.1126110649263265 0.15904984425020541 0 0.1205044113868658 0.16162123440212081 0 0.1090190831160552 0.16914963854711379 0 0.1224258841075417 0.1748189792736434 0 0.1205044113868658 0.16162123440212081 0 0.1224258841075417 0.1748189792736434 0 0.1205044113868658 0.16162123440212081 0 0.12962412347678989 0.16214456127926111 0 0.1205044113868658 0.16162123440212081 0 0.1181184885724719 0.1541793280909852 0 0.1266752032487348 0.15401379757606071 0 0.1208118898916881 0.14107061994595399 0 0.098714014812668102 0.1512993328719652 0 0.12450963526417019 0.1433429541635903 0 0.1208118898916881 0.14107061994595399 0 0.1056448895268292 0.15374241281667139 0 0.12450963526417019 0.1433429541635903 0 0.1056448895268292 0.15374241281667139 0 0.1181184885724719 0.1541793280909852 0 0.12450963526417019 0.1433429541635903 0 0.1056448895268292 0.15374241281667139 0 0.1208118898916881 0.14107061994595399 0 0.11302439070407851 0.14121587936054289 0 0.098714014812668102 0.1512993328719652 0 0.1181184885724719 0.1541793280909852 0 0.12450963526417019 0.1433429541635903 0 0.1266752032487348 0.15401379757606071 0 0.12450963526417019 0.1433429541635903 0 0.1208118898916881 0.14107061994595399 0 0.1126110649263265 0.15904984425020541 0 0.1181184885724719 0.1541793280909852 0 0.1056448895268292 0.15374241281667139 0 0.089427586204880005 0.14505063548347169 0 0.098714014812668102 0.1512993328719652 0 0.1129992372648785 0.13626959767262781 0 0.1208118898916881 0.14107061994595399 0 0.1056448895268292 0.15374241281667139 0 0.098714014812668102 0.1512993328719652 0 0.11302439070407851 0.14121587936054289 0 0.098714014812668102 0.1512993328719652 0 0.11302439070407851 0.14121587936054289 0 0.098714014812668102 0.1512993328719652 0 0.1129992372648785 0.13626959767262781 0 0.099667012003294614 0.15964851844521361 0 0.1056448895268292 0.15374241281667139 0 0.098714014812668102 0.1512993328719652 0 0.11046001507298921 0.1202303391194051 0 0.1004598089468441 0.12856388265809721 0 0.1129992372648785 0.13626959767262781 0 0.089427586204880005 0.14505063548347169 0 0.085218545033829265 0.1355007855541461 0 0.1129992372648785 0.13626959767262781 0 0.085218545033829265 0.1355007855541461 0 0.1004598089468441 0.12856388265809721 0 0.1129992372648785 0.13626959767262781 0 0.085218545033829265 0.1355007855541461 0 0.1129992372648785 0.13626959767262781 0 0.1004598089468441 0.12856388265809721 0 0.1129992372648785 0.13626959767262781 0 0.12400789559134399 0.1189051747164452 0 0.1129992372648785 0.13626959767262781 0 0.13283369905673931 0.1273485062168532 0 0.1208118898916881 0.14107061994595399 0 0.1129992372648785 0.13626959767262781 0 0.1298900439156481 0.13673703947487101 0 0.11046001507298921 0.1202303391194051 0 0.12400789559134399 0.1189051747164452 0 0.1129992372648785 0.13626959767262781 0 0.1129992372648785 0.13626959767262781 0 0.1298900439156481 0.13673703947487101 0 0.1208118898916881 0.14107061994595399 0 0.11302439070407851 0.14121587936054289 0 0.1129992372648785 0.13626959767262781 0 0.1208118898916881 0.14107061994595399 0 0.1129992372648785 0.13626959767262781 0 0.1129992372648785 0.13626959767262781 0 0.1298900439156481 0.13673703947487101 0 0.13283369905673931 0.1273485062168532 0 0.12450963526417019 0.1433429541635903 0 0.1298900439156481 0.13673703947487101 0 0.13617721950792269 0.13691103286373851 0 0.12450963526417019 0.1433429541635903 0 0.1208118898916881 0.14107061994595399 0 0.1298900439156481 0.13673703947487101 0 0.12450963526417019 0.1433429541635903 0 0.13617721950792269 0.13691103286373851 0 0.1208118898916881 0.14107061994595399 0 0.1298900439156481 0.13673703947487101 0 0.13617721950792269 0.13691103286373851 0 0.14018500410300649 0.13470168476186739 0 0.13283369905673931 0.1273485062168532 0 0.1298900439156481 0.13673703947487101 0 0.13617721950792269 0.13691103286373851 0 0.13283369905673931 0.1273485062168532 0 0.1298900439156481 0.13673703947487101 0 0.13617721950792269 0.13691103286373851 0 0.13617721950792269 0.13691103286373851 0 0.14018500410300649 0.13470168476186739 0 0.13617721950792269 0.13691103286373851 0 0.14018500410300649 0.13470168476186739 0 0.13997752237392691 0.13701620370948081 0 0.14018500410300649 0.13470168476186739 0 0.13997752237392691 0.13701620370948081 0 0.13617721950792269 0.13691103286373851 0 0.13997752237392691 0.13701620370948081 0 0.14018500410300649 0.13470168476186739 0 0.15298740166427019 0.12764418152528209 0 0.14779864664129791 0.13723264810427679 0 0.15298740166427019 0.12764418152528209 0 0.1661302586872159 0.1377399632343308 0 0.13997752237392691 0.13701620370948081 0 0.14779864664129791 0.13723264810427679 0 0.14018500410300649 0.13470168476186739 0 0.13997752237392691 0.13701620370948081 0 0.14779864664129791 0.13723264810427679 0 0.14018500410300649 0.13470168476186739 0 0.14779864664129791 0.13723264810427679 0 0.15298740166427019 0.12764418152528209 0 0.13997752237392691 0.13701620370948081 0 0.14779864664129791 0.13723264810427679 0 0.14412409859920541 0.14402296311019441 0 0.14779864664129791 0.13723264810427679 0 0.14412409859920541 0.14402296311019441 0 0.14779864664129791 0.13723264810427679 0 0.15298740166427019 0.12764418152528209 0 0.15376004581576491 0.14907478257332879 0 0.14991446824308169 0.14514278114866741 0 0.1479547846516398 0.1518364230177652 0 0.1550627646457218 0.15503291451766521 0 0.15376004581576491 0.14907478257332879 0 0.1479547846516398 0.1518364230177652 0 0.1550627646457218 0.15503291451766521 0 0.15376004581576491 0.14907478257332879 0 0.15901614729468999 0.1497512062039045 0 0.15376004581576491 0.14907478257332879 0 0.14991446824308169 0.14514278114866741 0 0.15685206424369119 0.1436105879786419 0 0.14779864664129791 0.13723264810427679 0 0.14991446824308169 0.14514278114866741 0 0.15685206424369119 0.1436105879786419 0 0.13997752237392691 0.13701620370948081 0 0.14412409859920541 0.14402296311019441 0 0.13863238090148089 0.15202164750939309 0 0.14991446824308169 0.14514278114866741 0 0.14412409859920541 0.14402296311019441 0 0.1479547846516398 0.1518364230177652 0 0.14779864664129791 0.13723264810427679 0 0.14991446824308169 0.14514278114866741 0 0.14412409859920541 0.14402296311019441 0 0.14412409859920541 0.14402296311019441 0 0.1479547846516398 0.1518364230177652 0 0.13863238090148089 0.15202164750939309 0 0.12450963526417019 0.1433429541635903 0 0.13617721950792269 0.13691103286373851 0 0.13863238090148089 0.15202164750939309 0 0.13617721950792269 0.13691103286373851 0 0.13997752237392691 0.13701620370948081 0 0.13863238090148089 0.15202164750939309 0 0.13997752237392691 0.13701620370948081 0 0.13863238090148089 0.15202164750939309 0 0.12450963526417019 0.1433429541635903 0 0.13863238090148089 0.15202164750939309 0 0.13863238090148089 0.15202164750939309 0 0.1266752032487348 0.15401379757606071 0 0.12962412347678989 0.16214456127926111 0 0.12450963526417019 0.1433429541635903 0 0.13863238090148089 0.15202164750939309 0 0.1266752032487348 0.15401379757606071 0 0.13863238090148089 0.15202164750939309 0 0.13711918250247029 0.16890181513455069 0 0.1205044113868658 0.16162123440212081 0 0.1266752032487348 0.15401379757606071 0 0.12962412347678989 0.16214456127926111 0 0.13863238090148089 0.15202164750939309 0 0.12962412347678989 0.16214456127926111 0 0.13711918250247029 0.16890181513455069 0 0.1224258841075417 0.1748189792736434 0 0.12962412347678989 0.16214456127926111 0 0.13711918250247029 0.16890181513455069 0 0.11966826997471269 0.19120295456826961 0 0.1224258841075417 0.1748189792736434 0 0.13313988913829469 0.18193816916162339 0 0.1224258841075417 0.1748189792736434 0 0.13711918250247029 0.16890181513455069 0 0.13313988913829469 0.18193816916162339 0 0.13711918250247029 0.16890181513455069 0 0.13313988913829469 0.18193816916162339 0 0.14567011589952539 0.18302138977500329 0 0.13313988913829469 0.18193816916162339 0 0.14567011589952539 0.18302138977500329 0 0.13368274210823961 0.195597870160403 0 0.13711918250247029 0.16890181513455069 0 0.14567011589952539 0.18302138977500329 0 0.14998925179124531 0.17249906226303971 0 0.14998925179124531 0.17249906226303971 0 0.15480222227074419 0.18000224296259079 0 0.15925321949761209 0.17095208969956821 0 0.14567011589952539 0.18302138977500329 0 0.14998925179124531 0.17249906226303971 0 0.15480222227074419 0.18000224296259079 0 0.14567011589952539 0.18302138977500329 0 0.15480222227074419 0.18000224296259079 0 0.15550806945981449 0.187304018575424 0 0.1479547846516398 0.1518364230177652 0 0.13863238090148089 0.15202164750939309 0 0.16063817165583999 0.16554462064035649 0 0.13863238090148089 0.15202164750939309 0 0.1484901619870336 0.16523745580008209 0 0.16063817165583999 0.16554462064035649 0 0.13863238090148089 0.15202164750939309 0 0.16063817165583999 0.16554462064035649 0 0.13863238090148089 0.15202164750939309 0 0.13711918250247029 0.16890181513455069 0 0.1484901619870336 0.16523745580008209 0 0.13711918250247029 0.16890181513455069 0 0.14998925179124531 0.17249906226303971 0 0.1484901619870336 0.16523745580008209 0 0.1484901619870336 0.16523745580008209 0 0.15459270123293281 0.16855830710076161 0 0.16063817165583999 0.16554462064035649 0 0.14998925179124531 0.17249906226303971 0 0.15459270123293281 0.16855830710076161 0 0.15925321949761209 0.17095208969956821 0 0.14998925179124531 0.17249906226303971 0 0.1484901619870336 0.16523745580008209 0 0.15459270123293281 0.16855830710076161 0 0.1550627646457218 0.15503291451766521 0 0.1479547846516398 0.1518364230177652 0 0.16063817165583999 0.16554462064035649 0 0.17118961314406261 0.17156389906560859 0 0.16476778389713601 0.1521127802910581 0 0.17139711784263831 0.14801935769285049 0 0.16137373739982669 0.15842002621196871 0 0.17118961314406261 0.17156389906560859 0 0.16476778389713601 0.1521127802910581 0 0.1550627646457218 0.15503291451766521 0 0.16063817165583999 0.16554462064035649 0 0.17118961314406261 0.17156389906560859 0 0.17139711784263831 0.14801935769285049 0 0.1550627646457218 0.15503291451766521 0 0.16137373739982669 0.15842002621196871 0 0.16063817165583999 0.16554462064035649 0 0.15459270123293281 0.16855830710076161 0 0.15925321949761209 0.17095208969956821 0 0.16063817165583999 0.16554462064035649 0 0.16137373739982669 0.15842002621196871 0 0.16063817165583999 0.16554462064035649 0 0.17118961314406261 0.17156389906560859 0 0.16063817165583999 0.16554462064035649 0 0.17118961314406261 0.17156389906560859 0 0.15925321949761209 0.17095208969956821 0 0.16281840852043211 0.18550662272345539 0 0.17547825903638031 0.1935236788680578 0 0.15925321949761209 0.17095208969956821 0 0.16805821534611079 0.17953414975420681 0 0.17547825903638031 0.1935236788680578 0 0.15925321949761209 0.17095208969956821 0 0.17547825903638031 0.1935236788680578 0 0.15480222227074419 0.18000224296259079 0 0.15550806945981449 0.187304018575424 0 0.16281840852043211 0.18550662272345539 0 0.15925321949761209 0.17095208969956821 0 0.16063817165583999 0.16554462064035649 0 0.16805821534611079 0.17953414975420681 0 0.15480222227074419 0.18000224296259079 0 0.15925321949761209 0.17095208969956821 0 0.16281840852043211 0.18550662272345539 0 0.16063817165583999 0.16554462064035649 0 0.17118961314406261 0.17156389906560859 0 0.16805821534611079 0.17953414975420681 0 0.17118961314406261 0.17156389906560859 0 0.16805821534611079 0.17953414975420681 0 0.17114272302605801 0.17688429099364389 0 0.16063817165583999 0.16554462064035649 0 0.16805821534611079 0.17953414975420681 0 0.17118961314406261 0.17156389906560859 0 0.17114272302605801 0.17688429099364389 0 0.16805821534611079 0.17953414975420681 0 0.17114272302605801 0.17688429099364389 0 0.17249261904809909 0.17991271648362739 0 0.16805821534611079 0.17953414975420681 0 0.17547825903638031 0.1935236788680578 0 0.16805821534611079 0.17953414975420681 0 0.17482496578301659 0.18429067653186421 0 0.17249261904809909 0.17991271648362739 0 0.16805821534611079 0.17953414975420681 0 0.17482496578301659 0.18429067653186421 0 0.17547825903638031 0.1935236788680578 0 0.17482496578301659 0.18429067653186421 0 0.17249261904809909 0.17991271648362739 0 0.17594457203721109 0.17894174865479481 0 0.17482496578301659 0.18429067653186421 0 0.17594457203721109 0.17894174865479481 0 0.18139172886116531 0.17898570195975849 0 0.17482496578301659 0.18429067653186421 0 0.18139172886116531 0.17898570195975849 0 0.18254936970255059 0.185173988088988 0 0.17114272302605801 0.17688429099364389 0 0.17795132186246951 0.17383670664564699 0 0.1753496411155839 0.16518003797810141 0 0.17594457203721109 0.17894174865479481 0 0.17795132186246951 0.17383670664564699 0 0.18139172886116531 0.17898570195975849 0 0.17114272302605801 0.17688429099364389 0 0.17594457203721109 0.17894174865479481 0 0.17795132186246951 0.17383670664564699 0 0.17114272302605801 0.17688429099364389 0 0.17249261904809909 0.17991271648362739 0 0.17594457203721109 0.17894174865479481 0 0.18324530209969561 0.17404889499978141 0 0.18695911352563141 0.17852560854094399 0 0.19194922181058979 0.16941408810869629 0 0.17795132186246951 0.17383670664564699 0 0.18324530209969561 0.17404889499978141 0 0.18139172886116531 0.17898570195975849 0 0.17795132186246951 0.17383670664564699 0 0.18324530209969561 0.17404889499978141 0 0.18160283221761889 0.16822061386966011 0 0.18324530209969561 0.17404889499978141 0 0.18695911352563141 0.17852560854094399 0 0.18139172886116531 0.17898570195975849 0 0.18695911352563141 0.17852560854094399 0 0.18139172886116531 0.17898570195975849 0 0.18254936970255059 0.185173988088988 0 0.18695911352563141 0.17852560854094399 0 0.18254936970255059 0.185173988088988 0 0.18965176746764689 0.18482568467796259 0 0.18254936970255059 0.185173988088988 0 0.18557420704702879 0.1919484637233119 0 0.18965176746764689 0.18482568467796259 0 0.17118961314406261 0.17156389906560859 0 0.1753496411155839 0.16518003797810141 0 0.17139711784263831 0.14801935769285049 0 0.17736702658312131 0.15630314965489589 0 0.1753496411155839 0.16518003797810141 0 0.17139711784263831 0.14801935769285049 0 0.17736702658312131 0.15630314965489589 0 0.1753496411155839 0.16518003797810141 0 0.18104904560691079 0.1614771541737865 0 0.17118961314406261 0.17156389906560859 0 0.17114272302605801 0.17688429099364389 0 0.1753496411155839 0.16518003797810141 0 0.17795132186246951 0.17383670664564699 0 0.1753496411155839 0.16518003797810141 0 0.18160283221761889 0.16822061386966011 0 0.1753496411155839 0.16518003797810141 0 0.18160283221761889 0.16822061386966011 0 0.18104904560691079 0.1614771541737865 0 0.18324530209969561 0.17404889499978141 0 0.18160283221761889 0.16822061386966011 0 0.19194922181058979 0.16941408810869629 0 0.18160283221761889 0.16822061386966011 0 0.18619963142040569 0.16248022790730909 0 0.19194922181058979 0.16941408810869629 0 0.18160283221761889 0.16822061386966011 0 0.18619963142040569 0.16248022790730909 0 0.18104904560691079 0.1614771541737865 0 0.17736702658312131 0.15630314965489589 0 0.18104904560691079 0.1614771541737865 0 0.18472609669782411 0.1552017414589657 0 0.18619963142040569 0.16248022790730909 0 0.18104904560691079 0.1614771541737865 0 0.18472609669782411 0.1552017414589657 0 0.18472609669782411 0.1552017414589657 0 0.180258568155932 0.15156901833471631 0 0.18701061766597771 0.14716110604148919 0 0.17139711784263831 0.14801935769285049 0 0.19477189309374221 0.13358610783283889 0 0.18701061766597771 0.14716110604148919 0 0.17139711784263831 0.14801935769285049 0 0.19477189309374221 0.13358610783283889 0 0.17736702658312131 0.15630314965489589 0 0.18472609669782411 0.1552017414589657 0 0.180258568155932 0.15156901833471631 0 0.17736702658312131 0.15630314965489589 0 0.180258568155932 0.15156901833471631 0 0.17139711784263831 0.14801935769285049 0 0.180258568155932 0.15156901833471631 0 0.18701061766597771 0.14716110604148919 0 0.17139711784263831 0.14801935769285049 0 0.18004276861398011 0.13330129412187181 0 0.17139711784263831 0.14801935769285049 0 0.19477189309374221 0.13358610783283889 0 0.18004276861398011 0.13330129412187181 0 0.18434352107189581 0.12574929339711019 0 0.17794612972432999 0.1253354469846969 0 0.18004276861398011 0.13330129412187181 0 0.18434352107189581 0.12574929339711019 0 0.19477189309374221 0.13358610783283889 0 0.17794612972432999 0.1253354469846969 0 0.17153228193968539 0.13268294990606319 0 0.1716674460367304 0.117346542119276 0 0.18004276861398011 0.13330129412187181 0 0.17794612972432999 0.1253354469846969 0 0.17153228193968539 0.13268294990606319 0 0.18004276861398011 0.13330129412187181 0 0.17153228193968539 0.13268294990606319 0 0.17139711784263831 0.14801935769285049 0 0.1661302586872159 0.1377399632343308 0 0.16474955894065621 0.12879108519773161 0 0.17153228193968539 0.13268294990606319 0 0.17153228193968539 0.13268294990606319 0 0.17139711784263831 0.14801935769285049 0 0.14779864664129791 0.13723264810427679 0 0.1661302586872159 0.1377399632343308 0 0.1661302586872159 0.1377399632343308 0 0.17153228193968539 0.13268294990606319 0 0.17139711784263831 0.14801935769285049 0 0.14779864664129791 0.13723264810427679 0 0.1661302586872159 0.1377399632343308 0 0.15685206424369119 0.1436105879786419 0 0.17153228193968539 0.13268294990606319 0 0.1716674460367304 0.117346542119276 0 0.16474955894065621 0.12879108519773161 0 0.17153228193968539 0.13268294990606319 0 0.1716674460367304 0.117346542119276 0 0.15298740166427019 0.12764418152528209 0 0.1661302586872159 0.1377399632343308 0 0.16474955894065621 0.12879108519773161 0 0.1661302586872159 0.1377399632343308 0 0.15685206424369119 0.1436105879786419 0 0.1639876963753949 0.14585397965600991 0 0.15685206424369119 0.1436105879786419 0 0.1639876963753949 0.14585397965600991 0 0.15901614729468999 0.1497512062039045 0 0.15376004581576491 0.14907478257332879 0 0.15685206424369119 0.1436105879786419 0 0.15901614729468999 0.1497512062039045 0 0.16137373739982669 0.15842002621196871 0 0.15901614729468999 0.1497512062039045 0 0.16476778389713601 0.1521127802910581 0 0.1550627646457218 0.15503291451766521 0 0.16137373739982669 0.15842002621196871 0 0.15901614729468999 0.1497512062039045 0 0.1639876963753949 0.14585397965600991 0 0.15901614729468999 0.1497512062039045 0 0.16476778389713601 0.1521127802910581 0 0.1639876963753949 0.14585397965600991 0 0.16476778389713601 0.1521127802910581 0 0.17139711784263831 0.14801935769285049 0 0.16476778389713601 0.1521127802910581 0 0.17139711784263831 0.14801935769285049 0 0.1661302586872159 0.1377399632343308 0 0.1639876963753949 0.14585397965600991 0 0.17139711784263831 0.14801935769285049 0 0.13482805977205289 0.24161300169595401 0 0.16440521750335271 0.2237789673241197 0 0.16281754088323061 0.24740659801607481 0 0.13482805977205289 0.24161300169595401 0 0.16281754088323061 0.24740659801607481 0 0.1202606603845595 0.21570863776811799 0 0.13482805977205289 0.24161300169595401 0 0.1430728941158442 0.21561364586917289 0 0.13482805977205289 0.24161300169595401 0 0.1430728941158442 0.21561364586917289 0 0.16440521750335271 0.2237789673241197 0 0.1430728941158442 0.21561364586917289 0 0.15520661529252749 0.2092815985982043 0 0.16440521750335271 0.2237789673241197 0 0.1430728941158442 0.21561364586917289 0 0.15520661529252749 0.2092815985982043 0 0.1520249233684513 0.19551270862523579 0 0.1202606603845595 0.21570863776811799 0 0.1430728941158442 0.21561364586917289 0 0.13368274210823961 0.195597870160403 0 0.1202606603845595 0.21570863776811799 0 0.13368274210823961 0.195597870160403 0 0.11966826997471269 0.19120295456826961 0 0.13313988913829469 0.18193816916162339 0 0.13368274210823961 0.195597870160403 0 0.14567011589952539 0.18302138977500329 0 0.13368274210823961 0.195597870160403 0 0.1520249233684513 0.19551270862523579 0 0.1430728941158442 0.21561364586917289 0 0.13368274210823961 0.195597870160403 0 0.1520249233684513 0.19551270862523579 0 0.14567011589952539 0.18302138977500329 0 0.15550806945981449 0.187304018575424 0 0.1520249233684513 0.19551270862523579 0 0.15550806945981449 0.187304018575424 0 0.1520249233684513 0.19551270862523579 0 0.16222467723991951 0.19247712879083481 0 0.15550806945981449 0.187304018575424 0 0.16281840852043211 0.18550662272345539 0 0.16222467723991951 0.19247712879083481 0 0.1520249233684513 0.19551270862523579 0 0.16222467723991951 0.19247712879083481 0 0.16599289412347421 0.20015133663216439 0 0.15520661529252749 0.2092815985982043 0 0.1520249233684513 0.19551270862523579 0 0.16599289412347421 0.20015133663216439 0 0.16222467723991951 0.19247712879083481 0 0.16599289412347421 0.20015133663216439 0 0.17547825903638031 0.1935236788680578 0 0.16281840852043211 0.18550662272345539 0 0.16222467723991951 0.19247712879083481 0 0.17547825903638031 0.1935236788680578 0 0.17482496578301659 0.18429067653186421 0 0.18254936970255059 0.185173988088988 0 0.17547825903638031 0.1935236788680578 0 0.17547825903638031 0.1935236788680578 0 0.18560771461184161 0.21262145235774851 0 0.17547825903638031 0.1935236788680578 0 0.18581041609099161 0.19992340209975101 0 0.19070302040551021 0.21470372332903939 0 0.17547825903638031 0.1935236788680578 0 0.18557420704702879 0.1919484637233119 0 0.18581041609099161 0.19992340209975101 0 0.18254936970255059 0.185173988088988 0 0.17547825903638031 0.1935236788680578 0 0.18557420704702879 0.1919484637233119 0 0.16599289412347421 0.20015133663216439 0 0.17547825903638031 0.1935236788680578 0 0.1753681843754607 0.20583314198939259 0 0.17547825903638031 0.1935236788680578 0 0.18560771461184161 0.21262145235774851 0 0.19070302040551021 0.21470372332903939 0 0.17547825903638031 0.1935236788680578 0 0.19070302040551021 0.21470372332903939 0 0.17547825903638031 0.1935236788680578 0 0.1753681843754607 0.20583314198939259 0 0.18560771461184161 0.21262145235774851 0 0.1753681843754607 0.20583314198939259 0 0.18560771461184161 0.21262145235774851 0 0.17421403056921189 0.2159903750670793 0 0.16599289412347421 0.20015133663216439 0 0.1753681843754607 0.20583314198939259 0 0.17421403056921189 0.2159903750670793 0 0.16599289412347421 0.20015133663216439 0 0.16440521750335271 0.2237789673241197 0 0.16599289412347421 0.20015133663216439 0 0.17421403056921189 0.2159903750670793 0 0.16440521750335271 0.2237789673241197 0 0.15520661529252749 0.2092815985982043 0 0.16599289412347421 0.20015133663216439 0 0.16440521750335271 0.2237789673241197 0 0.16440521750335271 0.2237789673241197 0 0.1781279447485791 0.22844825474839359 0 0.16281754088323061 0.24740659801607481 0 0.18560771461184161 0.21262145235774851 0 0.1781279447485791 0.22844825474839359 0 0.1957371701873028 0.23171922584743929 0 0.18560771461184161 0.21262145235774851 0 0.17421403056921189 0.2159903750670793 0 0.1781279447485791 0.22844825474839359 0 0.17421403056921189 0.2159903750670793 0 0.16440521750335271 0.2237789673241197 0 0.1781279447485791 0.22844825474839359 0 0.1781279447485791 0.22844825474839359 0 0.1847753922220787 0.23944958768072949 0 0.1957371701873028 0.23171922584743929 0 0.1847753922220787 0.23944958768072949 0 0.16281754088323061 0.24740659801607481 0 0.18831532265037099 0.25268443271514662 0 0.1781279447485791 0.22844825474839359 0 0.1847753922220787 0.23944958768072949 0 0.16281754088323061 0.24740659801607481 0 0.16440521750335271 0.2237789673241197 0 0.16281754088323061 0.24740659801607481 0 0.20592778177464019 0.23588376779002099 0 0.2211525431437702 0.25706381225100261 0 0.20592778177464019 0.23588376779002099 0 0.20586662576276399 0.25081699933713009 0 0.2211525431437702 0.25706381225100261 0 0.20592778177464019 0.23588376779002099 0 0.21767178272638929 0.22791220855028221 0 0.22241263452250459 0.24033377016067489 0 0.20592778177464019 0.23588376779002099 0 0.22241263452250459 0.24033377016067489 0 0.2211525431437702 0.25706381225100261 0 0.20592778177464019 0.23588376779002099 0 0.1957371701873028 0.23171922584743929 0 0.20586662576276399 0.25081699933713009 0 0.1939313185440093 0.24333696068627389 0 0.1957371701873028 0.23171922584743929 0 0.20586662576276399 0.25081699933713009 0 0.1957371701873028 0.23171922584743929 0 0.20586662576276399 0.25081699933713009 0 0.1939313185440093 0.24333696068627389 0 0.18831532265037099 0.25268443271514662 0 0.20586662576276399 0.25081699933713009 0 0.1847753922220787 0.23944958768072949 0 0.1939313185440093 0.24333696068627389 0 0.18831532265037099 0.25268443271514662 0 0.1847753922220787 0.23944958768072949 0 0.1939313185440093 0.24333696068627389 0 0.1957371701873028 0.23171922584743929 0 0.18560771461184161 0.21262145235774851 0 0.1957371701873028 0.23171922584743929 0 0.20592778177464019 0.23588376779002099 0 0.19070302040551021 0.21470372332903939 0 0.18560771461184161 0.21262145235774851 0 0.1957371701873028 0.23171922584743929 0 0.19070302040551021 0.21470372332903939 0 0.20592778177464019 0.23588376779002099 0 0.1957371701873028 0.23171922584743929 0 0.19070302040551021 0.21470372332903939 0 0.20592778177464019 0.23588376779002099 0 0.20196549441084941 0.22221370745898381 0 0.19070302040551021 0.21470372332903939 0 0.20890181744462011 0.2276285974004135 0 0.21392958613028401 0.21553201629520979 0 0.2059989112801322 0.21660345905041811 0 0.20196549441084941 0.22221370745898381 0 0.20890181744462011 0.2276285974004135 0 0.2059989112801322 0.21660345905041811 0 0.20592778177464019 0.23588376779002099 0 0.20196549441084941 0.22221370745898381 0 0.20890181744462011 0.2276285974004135 0 0.20592778177464019 0.23588376779002099 0 0.20890181744462011 0.2276285974004135 0 0.21767178272638929 0.22791220855028221 0 0.20890181744462011 0.2276285974004135 0 0.21767178272638929 0.22791220855028221 0 0.21392958613028401 0.21553201629520979 0 0.21392958613028401 0.21553201629520979 0 0.209111116186569 0.20855421552115719 0 0.2156496704261158 0.20287247042654991 0 0.209111116186569 0.20855421552115719 0 0.20586084919461889 0.20288943123405731 0 0.2156496704261158 0.20287247042654991 0 0.209111116186569 0.20855421552115719 0 0.2020580612104235 0.20950743752508769 0 0.20586084919461889 0.20288943123405731 0 0.209111116186569 0.20855421552115719 0 0.2059989112801322 0.21660345905041811 0 0.2020580612104235 0.20950743752508769 0 0.21392958613028401 0.21553201629520979 0 0.209111116186569 0.20855421552115719 0 0.2059989112801322 0.21660345905041811 0 0.20196549441084941 0.22221370745898381 0 0.19921539297376639 0.2148516130212301 0 0.19070302040551021 0.21470372332903939 0 0.20196549441084941 0.22221370745898381 0 0.2059989112801322 0.21660345905041811 0 0.19921539297376639 0.2148516130212301 0 0.2059989112801322 0.21660345905041811 0 0.19921539297376639 0.2148516130212301 0 0.2020580612104235 0.20950743752508769 0 0.19921539297376639 0.2148516130212301 0 0.19552626600313761 0.21002349803423659 0 0.2020580612104235 0.20950743752508769 0 0.19921539297376639 0.2148516130212301 0 0.19070302040551021 0.21470372332903939 0 0.19552626600313761 0.21002349803423659 0 0.18581041609099161 0.19992340209975101 0 0.19070302040551021 0.21470372332903939 0 0.19119992872657129 0.2074230927788899 0 0.18581041609099161 0.19992340209975101 0 0.19119992872657129 0.2074230927788899 0 0.19276001240664581 0.20504174765253269 0 0.19119992872657129 0.2074230927788899 0 0.19276001240664581 0.20504174765253269 0 0.19552626600313761 0.21002349803423659 0 0.19070302040551021 0.21470372332903939 0 0.19119992872657129 0.2074230927788899 0 0.19552626600313761 0.21002349803423659 0 0.19276001240664581 0.20504174765253269 0 0.19847851416560761 0.20343957153699921 0 0.19552626600313761 0.21002349803423659 0 0.19847851416560761 0.20343957153699921 0 0.19552626600313761 0.21002349803423659 0 0.2020580612104235 0.20950743752508769 0 0.19847851416560761 0.20343957153699921 0 0.2020580612104235 0.20950743752508769 0 0.20586084919461889 0.20288943123405731 0 0.19847851416560761 0.20343957153699921 0 0.20210069928155611 0.19866959584873639 0 0.19742396102109799 0.1974848685836402 0 0.19847851416560761 0.20343957153699921 0 0.20210069928155611 0.19866959584873639 0 0.20586084919461889 0.20288943123405731 0 0.20210069928155611 0.19866959584873639 0 0.19742396102109799 0.1974848685836402 0 0.20172546321341839 0.19333901074232621 0 0.19847851416560761 0.20343957153699921 0 0.19742396102109799 0.1974848685836402 0 0.19324358097330299 0.20028859537465249 0 0.19276001240664581 0.20504174765253269 0 0.19847851416560761 0.20343957153699921 0 0.19324358097330299 0.20028859537465249 0 0.18557420704702879 0.1919484637233119 0 0.18581041609099161 0.19992340209975101 0 0.19174500118217211 0.195553387000339 0 0.19742396102109799 0.1974848685836402 0 0.19324358097330299 0.20028859537465249 0 0.19174500118217211 0.195553387000339 0 0.18581041609099161 0.19992340209975101 0 0.19324358097330299 0.20028859537465249 0 0.19174500118217211 0.195553387000339 0 0.18581041609099161 0.19992340209975101 0 0.19276001240664581 0.20504174765253269 0 0.19324358097330299 0.20028859537465249 0 0.18557420704702879 0.1919484637233119 0 0.1916019349736095 0.19027721742494699 0 0.18965176746764689 0.18482568467796259 0 0.18557420704702879 0.1919484637233119 0 0.19174500118217211 0.195553387000339 0 0.1916019349736095 0.19027721742494699 0 0.19174500118217211 0.195553387000339 0 0.1916019349736095 0.19027721742494699 0 0.19696104791763111 0.19156318109452289 0 0.1916019349736095 0.19027721742494699 0 0.19696104791763111 0.19156318109452289 0 0.19764620014093981 0.18439824306274391 0 0.19696104791763111 0.19156318109452289 0 0.20162372697454889 0.18832635975314091 0 0.19764620014093981 0.18439824306274391 0 0.19742396102109799 0.1974848685836402 0 0.19174500118217211 0.195553387000339 0 0.19696104791763111 0.19156318109452289 0 0.19742396102109799 0.1974848685836402 0 0.19696104791763111 0.19156318109452289 0 0.20172546321341839 0.19333901074232621 0 0.19696104791763111 0.19156318109452289 0 0.20172546321341839 0.19333901074232621 0 0.20162372697454889 0.18832635975314091 0 0.20172546321341839 0.19333901074232621 0 0.20162372697454889 0.18832635975314091 0 0.20730101418274621 0.18914286215528631 0 0.20730101418274621 0.18914286215528631 0 0.21076143301567971 0.1939703272824036 0 0.21308033864081949 0.18767087940111901 0 0.20730101418274621 0.18914286215528631 0 0.21076143301567971 0.1939703272824036 0 0.2070147088130371 0.19619509714665931 0 0.20172546321341839 0.19333901074232621 0 0.20730101418274621 0.18914286215528631 0 0.2070147088130371 0.19619509714665931 0 0.2070147088130371 0.19619509714665931 0 0.20586084919461889 0.20288943123405731 0 0.2156496704261158 0.20287247042654991 0 0.20210069928155611 0.19866959584873639 0 0.20172546321341839 0.19333901074232621 0 0.2070147088130371 0.19619509714665931 0 0.20210069928155611 0.19866959584873639 0 0.2070147088130371 0.19619509714665931 0 0.20586084919461889 0.20288943123405731 0 0.21076143301567971 0.1939703272824036 0 0.2070147088130371 0.19619509714665931 0 0.2156496704261158 0.20287247042654991 0 0.21076143301567971 0.1939703272824036 0 0.2156496704261158 0.20287247042654991 0 0.21308033864081949 0.18767087940111901 0 0.21845909686830459 0.18851815947618611 0 0.21308033864081949 0.18767087940111901 0 0.23449391315035109 0.20458956608233381 0 0.21845909686830459 0.18851815947618611 0 0.23575326292168969 0.18930659400856131 0 0.23449391315035109 0.20458956608233381 0 0.21308033864081949 0.18767087940111901 0 0.23449391315035109 0.20458956608233381 0 0.2156496704261158 0.20287247042654991 0 0.21308033864081949 0.18767087940111901 0 0.23449391315035109 0.20458956608233381 0 0.23575326292168969 0.18930659400856131 0 0.23449391315035109 0.20458956608233381 0 0.25500310095378947 0.19498500486412149 0 0.23449391315035109 0.20458956608233381 0 0.25590748765988269 0.22150825276354849 0 0.25500310095378947 0.19498500486412149 0 0.23449391315035109 0.20458956608233381 0 0.22776349212545199 0.2174631005442994 0 0.25590748765988269 0.22150825276354849 0 0.23449391315035109 0.20458956608233381 0 0.25590748765988269 0.22150825276354849 0 0.2156496704261158 0.20287247042654991 0 0.23449391315035109 0.20458956608233381 0 0.22776349212545199 0.2174631005442994 0 0.21392958613028401 0.21553201629520979 0 0.2156496704261158 0.20287247042654991 0 0.22776349212545199 0.2174631005442994 0 0.21767178272638929 0.22791220855028221 0 0.23391766885319809 0.232418171212109 0 0.22241263452250459 0.24033377016067489 0 0.21767178272638929 0.22791220855028221 0 0.22776349212545199 0.2174631005442994 0 0.23391766885319809 0.232418171212109 0 0.21767178272638929 0.22791220855028221 0 0.21392958613028401 0.21553201629520979 0 0.22776349212545199 0.2174631005442994 0 0.22776349212545199 0.2174631005442994 0 0.23391766885319809 0.232418171212109 0 0.25590748765988269 0.22150825276354849 0 0.23391766885319809 0.232418171212109 0 0.25012005701005491 0.23841861139815559 0 0.25590748765988269 0.22150825276354849 0 0.2357717162530249 0.24793788735158501 0 0.2534443558029531 0.25718739904821453 0 0.25012005701005491 0.23841861139815559 0 0.23391766885319809 0.232418171212109 0 0.2357717162530249 0.24793788735158501 0 0.25012005701005491 0.23841861139815559 0 0.2357717162530249 0.24793788735158501 0 0.22241263452250459 0.24033377016067489 0 0.2211525431437702 0.25706381225100261 0 0.23391766885319809 0.232418171212109 0 0.2357717162530249 0.24793788735158501 0 0.22241263452250459 0.24033377016067489 0 0.2107801702203202 0.1406049534266785 0 0.22047878782237459 0.1502327576530022 0 0.22308213214506881 0.1343048270823412 0 0.2107801702203202 0.1406049534266785 0 0.2066154949810235 0.16105213365451251 0 0.22047878782237459 0.1502327576530022 0 0.2107801702203202 0.1406049534266785 0 0.19477189309374221 0.13358610783283889 0 0.2066154949810235 0.16105213365451251 0 0.20822156263278721 0.12528132462502969 0 0.22308213214506881 0.1343048270823412 0 0.22172344391179979 0.1170610987898876 0 0.20822156263278721 0.12528132462502969 0 0.2107801702203202 0.1406049534266785 0 0.19477189309374221 0.13358610783283889 0 0.20822156263278721 0.12528132462502969 0 0.2107801702203202 0.1406049534266785 0 0.22308213214506881 0.1343048270823412 0 0.19477189309374221 0.13358610783283889 0 0.1880312920192698 0.1179542481226702 0 0.18434352107189581 0.12574929339711019 0 0.19477189309374221 0.13358610783283889 0 0.1880312920192698 0.1179542481226702 0 0.20822156263278721 0.12528132462502969 0 0.19477189309374221 0.13358610783283889 0 0.20822156263278721 0.12528132462502969 0 0.19477189309374221 0.13358610783283889 0 0.1974410482980975 0.1233996038675244 0 0.18701061766597771 0.14716110604148919 0 0.19477189309374221 0.13358610783283889 0 0.19350823344612689 0.15560893633386119 0 0.19477189309374221 0.13358610783283889 0 0.19350823344612689 0.15560893633386119 0 0.2066154949810235 0.16105213365451251 0 0.19477189309374221 0.13358610783283889 0 0.2066154949810235 0.16105213365451251 0 0.18472609669782411 0.1552017414589657 0 0.18701061766597771 0.14716110604148919 0 0.19350823344612689 0.15560893633386119 0 0.18619963142040569 0.16248022790730909 0 0.19350823344612689 0.15560893633386119 0 0.19194922181058979 0.16941408810869629 0 0.18619963142040569 0.16248022790730909 0 0.18472609669782411 0.1552017414589657 0 0.19350823344612689 0.15560893633386119 0 0.19194922181058979 0.16941408810869629 0 0.2043635049896565 0.1742334974004324 0 0.2066154949810235 0.16105213365451251 0 0.19350823344612689 0.15560893633386119 0 0.19194922181058979 0.16941408810869629 0 0.2066154949810235 0.16105213365451251 0 0.18965176746764689 0.18482568467796259 0 0.19357977941612151 0.17863058722684111 0 0.19764620014093981 0.18439824306274391 0 0.1916019349736095 0.19027721742494699 0 0.18965176746764689 0.18482568467796259 0 0.19764620014093981 0.18439824306274391 0 0.18695911352563141 0.17852560854094399 0 0.18965176746764689 0.18482568467796259 0 0.19357977941612151 0.17863058722684111 0 0.18695911352563141 0.17852560854094399 0 0.19194922181058979 0.16941408810869629 0 0.19357977941612151 0.17863058722684111 0 0.19357977941612151 0.17863058722684111 0 0.19764620014093981 0.18439824306274391 0 0.2043635049896565 0.1742334974004324 0 0.19194922181058979 0.16941408810869629 0 0.19357977941612151 0.17863058722684111 0 0.2043635049896565 0.1742334974004324 0 0.19764620014093981 0.18439824306274391 0 0.2069446154542576 0.18146901848949271 0 0.2043635049896565 0.1742334974004324 0 0.20162372697454889 0.18832635975314091 0 0.19764620014093981 0.18439824306274391 0 0.2069446154542576 0.18146901848949271 0 0.21845909686830459 0.18851815947618611 0 0.2066154949810235 0.16105213365451251 0 0.21845909686830459 0.18851815947618611 0 0.2043635049896565 0.1742334974004324 0 0.2066154949810235 0.16105213365451251 0 0.21845909686830459 0.18851815947618611 0 0.2066154949810235 0.16105213365451251 0 0.2262972446149753 0.16885173066690259 0 0.21845909686830459 0.18851815947618611 0 0.2069446154542576 0.18146901848949271 0 0.2043635049896565 0.1742334974004324 0 0.20730101418274621 0.18914286215528631 0 0.21308033864081949 0.18767087940111901 0 0.2069446154542576 0.18146901848949271 0 0.20162372697454889 0.18832635975314091 0 0.20730101418274621 0.18914286215528631 0 0.2069446154542576 0.18146901848949271 0 0.21845909686830459 0.18851815947618611 0 0.21308033864081949 0.18767087940111901 0 0.2069446154542576 0.18146901848949271 0 0.2066154949810235 0.16105213365451251 0 0.2262972446149753 0.16885173066690259 0 0.22047878782237459 0.1502327576530022 0 0.21845909686830459 0.18851815947618611 0 0.23575326292168969 0.18930659400856131 0 0.229860402813615 0.1809487030022531 0 0.21845909686830459 0.18851815947618611 0 0.2262972446149753 0.16885173066690259 0 0.229860402813615 0.1809487030022531 0 0.2262972446149753 0.16885173066690259 0 0.229860402813615 0.1809487030022531 0 0.24431279077721821 0.17811355121882769 0 0.23575326292168969 0.18930659400856131 0 0.24431279077721821 0.17811355121882769 0 0.25500310095378947 0.19498500486412149 0 0.23575326292168969 0.18930659400856131 0 0.229860402813615 0.1809487030022531 0 0.24431279077721821 0.17811355121882769 0 0.2262972446149753 0.16885173066690259 0 0.24431279077721821 0.17811355121882769 0 0.2486945900190925 0.16067151539559149 0 0.2262972446149753 0.16885173066690259 0 0.2486945900190925 0.16067151539559149 0 0.2356188971504852 0.14635014343457611 0 0.2486945900190925 0.16067151539559149 0 0.2356188971504852 0.14635014343457611 0 0.25684396881101362 0.14263541090959811 0 0.2356188971504852 0.14635014343457611 0 0.22047878782237459 0.1502327576530022 0 0.22308213214506881 0.1343048270823412 0 0.2262972446149753 0.16885173066690259 0 0.2356188971504852 0.14635014343457611 0 0.22047878782237459 0.1502327576530022 0 0.2356188971504852 0.14635014343457611 0 0.22308213214506881 0.1343048270823412 0 0.242377986707283 0.12580685675486811 0 0.22308213214506881 0.1343048270823412 0 0.242377986707283 0.12580685675486811 0 0.22172344391179979 0.1170610987898876 0 0.2356188971504852 0.14635014343457611 0 0.242377986707283 0.12580685675486811 0 0.25684396881101362 0.14263541090959811 0 0.242377986707283 0.12580685675486811 0 0.24139963538750961 0.1047948211699866 0 0.25948156763023827 0.11050145920967171 0 0.242377986707283 0.12580685675486811 0 0.24139963538750961 0.1047948211699866 0 0.22172344391179979 0.1170610987898876 0 0.2305762264696192 0.097372507652713117 0 0.24972216603863029 0.090921584738332312 0 0.2357228049752142 0.103991341764109 0 0.2305762264696192 0.097372507652713117 0 0.24972216603863029 0.090921584738332312 0 0.2357228049752142 0.103991341764109 0 0.24972216603863029 0.090921584738332312 0 0.2357228049752142 0.103991341764109 0 0.24139963538750961 0.1047948211699866 0 0.24972216603863029 0.090921584738332312 0 0.2357228049752142 0.103991341764109 0 0.24139963538750961 0.1047948211699866 0 0.22172344391179979 0.1170610987898876 0 0.2357228049752142 0.103991341764109 0 0.2305762264696192 0.097372507652713117 0 0.2252927541688701 0.1029224768206719 0 0.2305762264696192 0.097372507652713117 0 0.2252927541688701 0.1029224768206719 0 0.2357228049752142 0.103991341764109 0 0.2252927541688701 0.1029224768206719 0 0.22172344391179979 0.1170610987898876 0 0.2252927541688701 0.1029224768206719 0 0.22172344391179979 0.1170610987898876 0 0.21564764361656091 0.1024024586174531 0 0.2305762264696192 0.097372507652713117 0 0.21564764361656091 0.1024024586174531 0 0.2305762264696192 0.097372507652713117 0 0.21564764361656091 0.1024024586174531 0 0.21809950345531551 0.091750211904956747 0 0.2305762264696192 0.097372507652713117 0 0.2252927541688701 0.1029224768206719 0 0.21564764361656091 0.1024024586174531 0 0.24139963538750961 0.1047948211699866 0 0.22172344391179979 0.1170610987898876 0 0.2357228049752142 0.103991341764109 0 0.22172344391179979 0.1170610987898876 0 0.20822156263278721 0.12528132462502969 0 0.22172344391179979 0.1170610987898876 0 0.20822156263278721 0.12528132462502969 0 0.22172344391179979 0.1170610987898876 0 0.2108930985412002 0.1126295566775688 0 0.20822156263278721 0.12528132462502969 0 0.2108930985412002 0.1126295566775688 0 0.20075250393642419 0.11628259686228321 0 0.2108930985412002 0.1126295566775688 0 0.19984775677587299 0.10181174613298991 0 0.20075250393642419 0.11628259686228321 0 0.22172344391179979 0.1170610987898876 0 0.2108930985412002 0.1126295566775688 0 0.21564764361656091 0.1024024586174531 0 0.19984775677587299 0.10181174613298991 0 0.2142808523086584 0.092505085478873872 0 0.21809950345531551 0.091750211904956747 0 0.21564764361656091 0.1024024586174531 0 0.19984775677587299 0.10181174613298991 0 0.21809950345531551 0.091750211904956747 0 0.2108930985412002 0.1126295566775688 0 0.21564764361656091 0.1024024586174531 0 0.19984775677587299 0.10181174613298991 0 0.19984775677587299 0.10181174613298991 0 0.21809950345531551 0.091750211904956747 0 0.19984775677587299 0.10181174613298991 0 0.20350564543322941 0.091639522531723888 0 0.2142808523086584 0.092505085478873872 0 0.19984775677587299 0.10181174613298991 0 0.18159601009643089 0.1118732803610238 0 0.18267397559014481 0.1030207931418497 0 0.19984775677587299 0.10181174613298991 0 0.18159601009643089 0.1118732803610238 0 0.19984775677587299 0.10181174613298991 0 0.18267397559014481 0.1030207931418497 0 0.18598610378028521 0.096572147662314728 0 0.19984775677587299 0.10181174613298991 0 0.1917663712974329 0.089690621148172917 0 0.20350564543322941 0.091639522531723888 0 0.19984775677587299 0.10181174613298991 0 0.1917663712974329 0.089690621148172917 0 0.18598610378028521 0.096572147662314728 0 0.19984775677587299 0.10181174613298991 0 0.1880312920192698 0.1179542481226702 0 0.18159601009643089 0.1118732803610238 0 0.19477189309374221 0.13358610783283889 0 0.1880312920192698 0.1179542481226702 0 0.1974410482980975 0.1233996038675244 0 0.19984775677587299 0.10181174613298991 0 0.1880312920192698 0.1179542481226702 0 0.20075250393642419 0.11628259686228321 0 0.1880312920192698 0.1179542481226702 0 0.1974410482980975 0.1233996038675244 0 0.20075250393642419 0.11628259686228321 0 0.20822156263278721 0.12528132462502969 0 0.1974410482980975 0.1233996038675244 0 0.20075250393642419 0.11628259686228321 0 0.1965803304574201 0.068636755197029609 0 0.19890327049160109 0.081858294218243019 0 0.20644642885595041 0.072143942454085633 0 0.1965803304574201 0.068636755197029609 0 0.1907664088505277 0.057831144257328229 0 0.18352568867454569 0.071211502957609349 0 0.1965803304574201 0.068636755197029609 0 0.19890327049160109 0.081858294218243019 0 0.18352568867454569 0.071211502957609349 0 0.19890327049160109 0.081858294218243019 0 0.18352568867454569 0.071211502957609349 0 0.19890327049160109 0.081858294218243019 0 0.1824615380570149 0.084541548462737523 0 0.18352568867454569 0.071211502957609349 0 0.1917663712974329 0.089690621148172917 0 0.19890327049160109 0.081858294218243019 0 0.1824615380570149 0.084541548462737523 0 0.1917663712974329 0.089690621148172917 0 0.19890327049160109 0.081858294218243019 0 0.20350564543322941 0.091639522531723888 0 0.19890327049160109 0.081858294218243019 0 0.2142808523086584 0.092505085478873872 0 0.21390542941801971 0.080569875783692138 0 0.19890327049160109 0.081858294218243019 0 0.21390542941801971 0.080569875783692138 0 0.20644642885595041 0.072143942454085633 0 0.19890327049160109 0.081858294218243019 0 0.2142808523086584 0.092505085478873872 0 0.19890327049160109 0.081858294218243019 0 0.20350564543322941 0.091639522531723888 0 0.2142808523086584 0.092505085478873872 0 0.2142808523086584 0.092505085478873872 0 0.21390542941801971 0.080569875783692138 0 0.21849187110317611 0.085532137035210426 0 0.2142808523086584 0.092505085478873872 0 0.21809950345531551 0.091750211904956747 0 0.21849187110317611 0.085532137035210426 0 0.2193409086180052 0.07050109412052169 0 0.2244090171250753 0.05679196534603291 0 0.2072115760905672 0.060297573774381392 0 0.21390542941801971 0.080569875783692138 0 0.20644642885595041 0.072143942454085633 0 0.2193409086180052 0.07050109412052169 0 0.1965803304574201 0.068636755197029609 0 0.20644642885595041 0.072143942454085633 0 0.2072115760905672 0.060297573774381392 0 0.20644642885595041 0.072143942454085633 0 0.2193409086180052 0.07050109412052169 0 0.2072115760905672 0.060297573774381392 0 0.2193409086180052 0.07050109412052169 0 0.23019356093714449 0.067228311482426403 0 0.2244090171250753 0.05679196534603291 0 0.21390542941801971 0.080569875783692138 0 0.2193409086180052 0.07050109412052169 0 0.22421393660202549 0.082081698198851291 0 0.2193409086180052 0.07050109412052169 0 0.22997536850687009 0.075419987139734523 0 0.22421393660202549 0.082081698198851291 0 0.2193409086180052 0.07050109412052169 0 0.22997536850687009 0.075419987139734523 0 0.23019356093714449 0.067228311482426403 0 0.22997536850687009 0.075419987139734523 0 0.23019356093714449 0.067228311482426403 0 0.23835315616219679 0.07169874722892175 0 0.21809950345531551 0.091750211904956747 0 0.23635125013475791 0.081688677676923588 0 0.21809950345531551 0.091750211904956747 0 0.22421393660202549 0.082081698198851291 0 0.23635125013475791 0.081688677676923588 0 0.2305762264696192 0.097372507652713117 0 0.21809950345531551 0.091750211904956747 0 0.23635125013475791 0.081688677676923588 0 0.21809950345531551 0.091750211904956747 0 0.21849187110317611 0.085532137035210426 0 0.22421393660202549 0.082081698198851291 0 0.21390542941801971 0.080569875783692138 0 0.21849187110317611 0.085532137035210426 0 0.22421393660202549 0.082081698198851291 0 0.22997536850687009 0.075419987139734523 0 0.22421393660202549 0.082081698198851291 0 0.23635125013475791 0.081688677676923588 0 0.2305762264696192 0.097372507652713117 0 0.2468384621924922 0.080290009301915558 0 0.24972216603863029 0.090921584738332312 0 0.2305762264696192 0.097372507652713117 0 0.2468384621924922 0.080290009301915558 0 0.2305762264696192 0.097372507652713117 0 0.23635125013475791 0.081688677676923588 0 0.2468384621924922 0.080290009301915558 0 0.2468384621924922 0.080290009301915558 0 0.23835315616219679 0.07169874722892175 0 0.24808411360837751 0.064354059346647396 0 0.23019356093714449 0.067228311482426403 0 0.23835315616219679 0.07169874722892175 0 0.23857595425118089 0.060936846154555101 0 0.23835315616219679 0.07169874722892175 0 0.24808411360837751 0.064354059346647396 0 0.23857595425118089 0.060936846154555101 0 0.23635125013475791 0.081688677676923588 0 0.2468384621924922 0.080290009301915558 0 0.23835315616219679 0.07169874722892175 0 0.22997536850687009 0.075419987139734523 0 0.23635125013475791 0.081688677676923588 0 0.23835315616219679 0.07169874722892175 0 0.24808411360837751 0.064354059346647396 0 0.24386656698702969 0.05406378895106282 0 0.25341438735800148 0.052184531591211808 0 0.24808411360837751 0.064354059346647396 0 0.23857595425118089 0.060936846154555101 0 0.24386656698702969 0.05406378895106282 0 0.23857595425118089 0.060936846154555101 0 0.23526391092050741 0.050965673277432413 0 0.24386656698702969 0.05406378895106282 0 0.23526391092050741 0.050965673277432413 0 0.24386656698702969 0.05406378895106282 0 0.24399446879708131 0.041877834385467397 0 0.24386656698702969 0.05406378895106282 0 0.24399446879708131 0.041877834385467397 0 0.25341438735800148 0.052184531591211808 0 0.23526391092050741 0.050965673277432413 0 0.24399446879708131 0.041877834385467397 0 0.22749082994349271 0.04059825975184405 0 0.24399446879708131 0.041877834385467397 0 0.22749082994349271 0.04059825975184405 0 0.23849670552345581 0.028527324979705979 0 0.24399446879708131 0.041877834385467397 0 0.23849670552345581 0.028527324979705979 0 0.2525527590451529 0.027338614664117501 0 0.22749082994349271 0.04059825975184405 0 0.2156395265582485 0.030867914327742229 0 0.213492380943579 0.046679482283527363 0 0.22749082994349271 0.04059825975184405 0 0.23849670552345581 0.028527324979705979 0 0.22638486601787239 0.026101196730729029 0 0.22749082994349271 0.04059825975184405 0 0.22638486601787239 0.026101196730729029 0 0.2156395265582485 0.030867914327742229 0 0.22749082994349271 0.04059825975184405 0 0.2244090171250753 0.05679196534603291 0 0.213492380943579 0.046679482283527363 0 0.23526391092050741 0.050965673277432413 0 0.22749082994349271 0.04059825975184405 0 0.2244090171250753 0.05679196534603291 0 0.23857595425118089 0.060936846154555101 0 0.23526391092050741 0.050965673277432413 0 0.2244090171250753 0.05679196534603291 0 0.23019356093714449 0.067228311482426403 0 0.23857595425118089 0.060936846154555101 0 0.2244090171250753 0.05679196534603291 0 0.24379497507385561 0.0081632620621440027 0 0.23849670552345581 0.028527324979705979 0 0.22638486601787239 0.026101196730729029 0 0.24379497507385561 0.0081632620621440027 0 0.23849670552345581 0.028527324979705979 0 0.2525527590451529 0.027338614664117501 0 0.22638486601787239 0.026101196730729029 0 0.22270557199815391 0.01400541352189541 0 0.2156395265582485 0.030867914327742229 0 0.24379497507385561 0.0081632620621440027 0 0.22638486601787239 0.026101196730729029 0 0.22270557199815391 0.01400541352189541 0 0.24379497507385561 0.0081632620621440027 0 0.22270557199815391 0.01400541352189541 0 0.22089310829929931 -0.0032288158219694399 0 0.24379497507385561 0.0081632620621440027 0 0.22089310829929931 -0.0032288158219694399 0 0.22270557199815391 0.01400541352189541 0 0.20681538404149369 0.0081235103108312241 0 0.22089310829929931 -0.0032288158219694399 0 0.20681538404149369 0.0081235103108312241 0 0.2156395265582485 0.030867914327742229 0 0.22270557199815391 0.01400541352189541 0 0.20681538404149369 0.0081235103108312241 0 0.2156395265582485 0.030867914327742229 0 0.20681538404149369 0.0081235103108312241 0 0.2156395265582485 0.030867914327742229 0 0.19916170871879929 0.0288715433767203 0 0.20681538404149369 0.0081235103108312241 0 0.19916170871879929 0.0288715433767203 0 0.1942202358206821 0.01563553646797643 0 0.1942202358206821 0.01563553646797643 0 0.1825807045479238 0.015503747719699659 0 0.1867264424939919 0.024617999387587321 0 0.19916170871879929 0.0288715433767203 0 0.1942202358206821 0.01563553646797643 0 0.1867264424939919 0.024617999387587321 0 0.20681538404149369 0.0081235103108312241 0 0.1942202358206821 0.01563553646797643 0 0.188810358682136 0.001653760543012469 0 0.1942202358206821 0.01563553646797643 0 0.188810358682136 0.001653760543012469 0 0.1825807045479238 0.015503747719699659 0 0.2244090171250753 0.05679196534603291 0 0.2072115760905672 0.060297573774381392 0 0.213492380943579 0.046679482283527363 0 0.20422428967674031 0.05069161973144818 0 0.2072115760905672 0.060297573774381392 0 0.213492380943579 0.046679482283527363 0 0.2156395265582485 0.030867914327742229 0 0.213492380943579 0.046679482283527363 0 0.2058876432497769 0.042040934635213092 0 0.2156395265582485 0.030867914327742229 0 0.19916170871879929 0.0288715433767203 0 0.20345364823149059 0.034167844127696502 0 0.2156395265582485 0.030867914327742229 0 0.20345364823149059 0.034167844127696502 0 0.2058876432497769 0.042040934635213092 0 0.20422428967674031 0.05069161973144818 0 0.213492380943579 0.046679482283527363 0 0.2058876432497769 0.042040934635213092 0 0.20345364823149059 0.034167844127696502 0 0.2058876432497769 0.042040934635213092 0 0.19800712902650919 0.044450785557046998 0 0.19916170871879929 0.0288715433767203 0 0.20345364823149059 0.034167844127696502 0 0.18713777648527469 0.033426410116313643 0 0.20345364823149059 0.034167844127696502 0 0.19800712902650919 0.044450785557046998 0 0.18713777648527469 0.033426410116313643 0 0.20345364823149059 0.034167844127696502 0 0.18713777648527469 0.033426410116313643 0 0.20422428967674031 0.05069161973144818 0 0.2058876432497769 0.042040934635213092 0 0.19800712902650919 0.044450785557046998 0 0.19800712902650919 0.044450785557046998 0 0.18836080978509709 0.04511689522990428 0 0.18713777648527469 0.033426410116313643 0 0.1965803304574201 0.068636755197029609 0 0.2072115760905672 0.060297573774381392 0 0.1907664088505277 0.057831144257328229 0 0.19800712902650919 0.044450785557046998 0 0.18836080978509709 0.04511689522990428 0 0.1907664088505277 0.057831144257328229 0 0.19800712902650919 0.044450785557046998 0 0.1907664088505277 0.057831144257328229 0 0.20422428967674031 0.05069161973144818 0 0.2072115760905672 0.060297573774381392 0 0.1907664088505277 0.057831144257328229 0 0.20422428967674031 0.05069161973144818 0 0.19800712902650919 0.044450785557046998 0 0.1907664088505277 0.057831144257328229 0 0.17833676422430891 0.04720712359025387 0 0.1605323885050241 0.055291908432915302 0 0.18352568867454569 0.071211502957609349 0 0.1907664088505277 0.057831144257328229 0 0.17833676422430891 0.04720712359025387 0 0.18352568867454569 0.071211502957609349 0 0.18836080978509709 0.04511689522990428 0 0.1907664088505277 0.057831144257328229 0 0.17833676422430891 0.04720712359025387 0 0.18713777648527469 0.033426410116313643 0 0.17082190473905881 0.032684976104931367 0 0.18836080978509709 0.04511689522990428 0 0.17833676422430891 0.04720712359025387 0 0.18713777648527469 0.033426410116313643 0 0.17833676422430891 0.04720712359025387 0 0.18713777648527469 0.033426410116313643 0 0.17082190473905881 0.032684976104931367 0 0.19916170871879929 0.0288715433767203 0 0.18713777648527469 0.033426410116313643 0 0.17082190473905881 0.032684976104931367 0 0.17082190473905881 0.032684976104931367 0 0.1508590912157706 0.035371192512473608 0 0.17833676422430891 0.04720712359025387 0 0.1642275742846577 0.042540071594511973 0 0.17082190473905881 0.032684976104931367 0 0.17082190473905881 0.032684976104931367 0 0.1508590912157706 0.035371192512473608 0 0.14775653451395529 0.031636828004968233 0 0.17082190473905881 0.032684976104931367 0 0.14775653451395529 0.031636828004968233 0 0.1642275742846577 0.042540071594511973 0 0.1605323885050241 0.055291908432915302 0 0.1508590912157706 0.035371192512473608 0 0.1642275742846577 0.042540071594511973 0 0.17082190473905881 0.032684976104931367 0 0.1508590912157706 0.035371192512473608 0 0.17833676422430891 0.04720712359025387 0 0.1642275742846577 0.042540071594511973 0 0.1605323885050241 0.055291908432915302 0 0.188810358682136 0.001653760543012469 0 0.17315622863708999 0.0069130704046761401 0 0.17379024406466809 -0.0051448253471361076 0 0.188810358682136 0.001653760543012469 0 0.17315622863708999 0.0069130704046761401 0 0.1825807045479238 0.015503747719699659 0 0.17315622863708999 0.0069130704046761401 0 0.1825807045479238 0.015503747719699659 0 0.17048406046699971 0.019167436652876801 0 0.19916170871879929 0.0288715433767203 0 0.17082190473905881 0.032684976104931367 0 0.1867264424939919 0.024617999387587321 0 0.17082190473905881 0.032684976104931367 0 0.1776532780619936 0.02299353996627379 0 0.1867264424939919 0.024617999387587321 0 0.19916170871879929 0.0288715433767203 0 0.17082190473905881 0.032684976104931367 0 0.1825807045479238 0.015503747719699659 0 0.1776532780619936 0.02299353996627379 0 0.17048406046699971 0.019167436652876801 0 0.1825807045479238 0.015503747719699659 0 0.1776532780619936 0.02299353996627379 0 0.1867264424939919 0.024617999387587321 0 0.17082190473905881 0.032684976104931367 0 0.1776532780619936 0.02299353996627379 0 0.17048406046699971 0.019167436652876801 0 0.17082190473905881 0.032684976104931367 0 0.15909566168075459 0.02548728125177779 0 0.14775653451395529 0.031636828004968233 0 0.17082190473905881 0.032684976104931367 0 0.15909566168075459 0.02548728125177779 0 0.17048406046699971 0.019167436652876801 0 0.15909566168075459 0.02548728125177779 0 0.16089868501665641 0.01171909019376152 0 0.15039985433938921 0.016923378292718911 0 0.15909566168075459 0.02548728125177779 0 0.17048406046699971 0.019167436652876801 0 0.16089868501665641 0.01171909019376152 0 0.17315622863708999 0.0069130704046761401 0 0.17048406046699971 0.019167436652876801 0 0.16089868501665641 0.01171909019376152 0 0.16089868501665641 0.01171909019376152 0 0.15037820031583721 0.002661057603983683 0 0.16288979187378999 -0.0015153279663161589 0 0.17315622863708999 0.0069130704046761401 0 0.16089868501665641 0.01171909019376152 0 0.16288979187378999 -0.0015153279663161589 0 0.17315622863708999 0.0069130704046761401 0 0.17379024406466809 -0.0051448253471361076 0 0.16288979187378999 -0.0015153279663161589 0 0.15037820031583721 0.002661057603983683 0 0.1424072625927677 0.010574815361096441 0 0.13760439479590361 0.00073270495442658609 0 0.16089868501665641 0.01171909019376152 0 0.15037820031583721 0.002661057603983683 0 0.15039985433938921 0.016923378292718911 0 0.1424072625927677 0.010574815361096441 0 0.14324408123927679 0.01732092220526155 0 0.15039985433938921 0.016923378292718911 0 0.15037820031583721 0.002661057603983683 0 0.1424072625927677 0.010574815361096441 0 0.15039985433938921 0.016923378292718911 0 0.1424072625927677 0.010574815361096441 0 0.14324408123927679 0.01732092220526155 0 0.13681464923417619 0.01811171252551784 0 0.14324408123927679 0.01732092220526155 0 0.14335455879077391 0.023673782641713 0 0.13681464923417619 0.01811171252551784 0 0.15039985433938921 0.016923378292718911 0 0.15015165233121819 0.02443031754779448 0 0.14335455879077391 0.023673782641713 0 0.14324408123927679 0.01732092220526155 0 0.15039985433938921 0.016923378292718911 0 0.14335455879077391 0.023673782641713 0 0.15909566168075459 0.02548728125177779 0 0.15039985433938921 0.016923378292718911 0 0.15015165233121819 0.02443031754779448 0 0.15909566168075459 0.02548728125177779 0 0.15015165233121819 0.02443031754779448 0 0.14775653451395529 0.031636828004968233 0 0.15015165233121819 0.02443031754779448 0 0.14335455879077391 0.023673782641713 0 0.14775653451395529 0.031636828004968233 0 0.14335455879077391 0.023673782641713 0 0.13654625338619181 0.025038549541414691 0 0.14775653451395529 0.031636828004968233 0 0.1246911642888517 0.030588679905005661 0 0.13654625338619181 0.025038549541414691 0 0.14775653451395529 0.031636828004968233 0 0.1246911642888517 0.030588679905005661 0 0.14775653451395529 0.031636828004968233 0 0.1246911642888517 0.030588679905005661 0 0.13654625338619181 0.025038549541414691 0 0.12927460035918831 0.02094691615923621 0 0.123838524536956 0.016344848775870151 0 0.12927460035918831 0.02094691615923621 0 0.13029881915510391 0.0097775885375725874 0 0.12927460035918831 0.02094691615923621 0 0.13681464923417619 0.01811171252551784 0 0.13029881915510391 0.0097775885375725874 0 0.13654625338619181 0.025038549541414691 0 0.12927460035918831 0.02094691615923621 0 0.13681464923417619 0.01811171252551784 0 0.14335455879077391 0.023673782641713 0 0.13654625338619181 0.025038549541414691 0 0.13681464923417619 0.01811171252551784 0 0.1424072625927677 0.010574815361096441 0 0.13681464923417619 0.01811171252551784 0 0.13029881915510391 0.0097775885375725874 0 0.13029881915510391 0.0097775885375725874 0 0.13760439479590361 0.00073270495442658609 0 0.1229139003049859 -0.0047206540506318957 0 0.1424072625927677 0.010574815361096441 0 0.13029881915510391 0.0097775885375725874 0 0.13760439479590361 0.00073270495442658609 0 0.1605323885050241 0.055291908432915302 0 0.14408360945475501 0.05872740726871551 0 0.13753908833550449 0.039372313908218437 0 0.1605323885050241 0.055291908432915302 0 0.13753908833550449 0.039372313908218437 0 0.1605323885050241 0.055291908432915302 0 0.14408360945475501 0.05872740726871551 0 0.1550639958771769 0.066999929814519812 0 0.1508590912157706 0.035371192512473608 0 0.13089627769248219 0.038057408920015287 0 0.1605323885050241 0.055291908432915302 0 0.1508590912157706 0.035371192512473608 0 0.13753908833550449 0.039372313908218437 0 0.1508590912157706 0.035371192512473608 0 0.14775653451395529 0.031636828004968233 0 0.13089627769248219 0.038057408920015287 0 0.1508590912157706 0.035371192512473608 0 0.13753908833550449 0.039372313908218437 0 0.13089627769248219 0.038057408920015287 0 0.13753908833550449 0.039372313908218437 0 0.13089627769248219 0.038057408920015287 0 0.13115230097712521 0.048321390725121649 0 0.1246911642888517 0.030588679905005661 0 0.14775653451395529 0.031636828004968233 0 0.13089627769248219 0.038057408920015287 0 0.14408360945475501 0.05872740726871551 0 0.13753908833550449 0.039372313908218437 0 0.13115230097712521 0.048321390725121649 0 0.14408360945475501 0.05872740726871551 0 0.13115230097712521 0.048321390725121649 0 0.13015585295687879 0.060093082178361373 0 0.13015585295687879 0.060093082178361373 0 0.14937824174456321 0.079442539029168396 0 0.13402517796028271 0.07937604241236057 0 0.1197453348056038 0.075694955066267361 0 0.13015585295687879 0.060093082178361373 0 0.13402517796028271 0.07937604241236057 0 0.13015585295687879 0.060093082178361373 0 0.14937824174456321 0.079442539029168396 0 0.14408360945475501 0.05872740726871551 0 0.13015585295687879 0.060093082178361373 0 0.14937824174456321 0.079442539029168396 0 0.14408360945475501 0.05872740726871551 0 0.1550639958771769 0.066999929814519812 0 0.14937824174456321 0.079442539029168396 0 0.14937824174456321 0.079442539029168396 0 0.14424821617976549 0.089375373950828799 0 0.15304754293924469 0.098573305383789459 0 0.14937824174456321 0.079442539029168396 0 0.14424821617976549 0.089375373950828799 0 0.13402517796028271 0.07937604241236057 0 0.1197453348056038 0.075694955066267361 0 0.13402517796028271 0.07937604241236057 0 0.12659824411460241 0.09227426183717688 0 0.14424821617976549 0.089375373950828799 0 0.13402517796028271 0.07937604241236057 0 0.12659824411460241 0.09227426183717688 0 0.14424821617976549 0.089375373950828799 0 0.1351927635028054 0.1007026202427999 0 0.14221661014138551 0.1120385293563481 0 0.14424821617976549 0.089375373950828799 0 0.12659824411460241 0.09227426183717688 0 0.1351927635028054 0.1007026202427999 0 0.12659824411460241 0.09227426183717688 0 0.1282086201577767 0.10745729352807019 0 0.1351927635028054 0.1007026202427999 0 0.1282086201577767 0.10745729352807019 0 0.1351927635028054 0.1007026202427999 0 0.14221661014138551 0.1120385293563481 0 0.12400789559134399 0.1189051747164452 0 0.13283369905673931 0.1273485062168532 0 0.14221661014138551 0.1120385293563481 0 0.14018500410300649 0.13470168476186739 0 0.13283369905673931 0.1273485062168532 0 0.14221661014138551 0.1120385293563481 0 0.12400789559134399 0.1189051747164452 0 0.1282086201577767 0.10745729352807019 0 0.14221661014138551 0.1120385293563481 0 0.14018500410300649 0.13470168476186739 0 0.14221661014138551 0.1120385293563481 0 0.15298740166427019 0.12764418152528209 0 0.14221661014138551 0.1120385293563481 0 0.16079401609825991 0.1132180887026281 0 0.14018500410300649 0.13470168476186739 0 0.15298740166427019 0.12764418152528209 0 0.14221661014138551 0.1120385293563481 0 0.14221661014138551 0.1120385293563481 0 0.15304754293924469 0.098573305383789459 0 0.16079401609825991 0.1132180887026281 0 0.14424821617976549 0.089375373950828799 0 0.14221661014138551 0.1120385293563481 0 0.14424821617976549 0.089375373950828799 0 0.14221661014138551 0.1120385293563481 0 0.15304754293924469 0.098573305383789459 0 0.15304754293924469 0.098573305383789459 0 0.168600630532249 0.098791995879973726 0 0.16079401609825991 0.1132180887026281 0 0.168600630532249 0.098791995879973726 0 0.16079401609825991 0.1132180887026281 0 0.17180256638865921 0.10201509787718541 0 0.168600630532249 0.098791995879973726 0 0.16079401609825991 0.1132180887026281 0 0.17180256638865921 0.10201509787718541 0 0.168600630532249 0.098791995879973726 0 0.17180256638865921 0.10201509787718541 0 0.168600630532249 0.098791995879973726 0 0.1718844539869174 0.092723713352279469 0 0.17180256638865921 0.10201509787718541 0 0.1718844539869174 0.092723713352279469 0 0.168600630532249 0.098791995879973726 0 0.1718844539869174 0.092723713352279469 0 0.168600630532249 0.098791995879973726 0 0.17189795834951421 0.091191439500055912 0 0.1718844539869174 0.092723713352279469 0 0.15298740166427019 0.12764418152528209 0 0.16474955894065621 0.12879108519773161 0 0.1716674460367304 0.117346542119276 0 0.15298740166427019 0.12764418152528209 0 0.16079401609825991 0.1132180887026281 0 0.1716674460367304 0.117346542119276 0 0.15298740166427019 0.12764418152528209 0 0.1716674460367304 0.117346542119276 0 0.15298740166427019 0.12764418152528209 0 0.16079401609825991 0.1132180887026281 0 0.17180256638865921 0.10201509787718541 0 0.16079401609825991 0.1132180887026281 0 0.1716674460367304 0.117346542119276 0 0.17180256638865921 0.10201509787718541 0 0.1716674460367304 0.117346542119276 0 0.17794612972432999 0.1253354469846969 0 0.1716674460367304 0.117346542119276 0 0.18092552190815689 0.1185693699234735 0 0.1716674460367304 0.117346542119276 0 0.18159601009643089 0.1118732803610238 0 0.18092552190815689 0.1185693699234735 0 0.17180256638865921 0.10201509787718541 0 0.1716674460367304 0.117346542119276 0 0.18159601009643089 0.1118732803610238 0 0.1716674460367304 0.117346542119276 0 0.18159601009643089 0.1118732803610238 0 0.1880312920192698 0.1179542481226702 0 0.18159601009643089 0.1118732803610238 0 0.18092552190815689 0.1185693699234735 0 0.18434352107189581 0.12574929339711019 0 0.1880312920192698 0.1179542481226702 0 0.18092552190815689 0.1185693699234735 0 0.18434352107189581 0.12574929339711019 0 0.17794612972432999 0.1253354469846969 0 0.18092552190815689 0.1185693699234735 0 0.17180256638865921 0.10201509787718541 0 0.17804472036611479 0.097424058632957361 0 0.1718844539869174 0.092723713352279469 0 0.17180256638865921 0.10201509787718541 0 0.17804472036611479 0.097424058632957361 0 0.18267397559014481 0.1030207931418497 0 0.17804472036611479 0.097424058632957361 0 0.1820038864975185 0.092069024312472089 0 0.1718844539869174 0.092723713352279469 0 0.17180256638865921 0.10201509787718541 0 0.18159601009643089 0.1118732803610238 0 0.18267397559014481 0.1030207931418497 0 0.17180256638865921 0.10201509787718541 0 0.18159601009643089 0.1118732803610238 0 0.17804472036611479 0.097424058632957361 0 0.18267397559014481 0.1030207931418497 0 0.18598610378028521 0.096572147662314728 0 0.17804472036611479 0.097424058632957361 0 0.18598610378028521 0.096572147662314728 0 0.1820038864975185 0.092069024312472089 0 0.1917663712974329 0.089690621148172917 0 0.1820038864975185 0.092069024312472089 0 0.1824615380570149 0.084541548462737523 0 0.1917663712974329 0.089690621148172917 0 0.18598610378028521 0.096572147662314728 0 0.1820038864975185 0.092069024312472089 0 0.17189795834951421 0.091191439500055912 0 0.18352568867454569 0.071211502957609349 0 0.1718844539869174 0.092723713352279469 0 0.18352568867454569 0.071211502957609349 0 0.1718844539869174 0.092723713352279469 0 0.17189795834951421 0.091191439500055912 0 0.18352568867454569 0.071211502957609349 0 0.1662617438043652 0.07453786452728009 0 0.1824615380570149 0.084541548462737523 0 0.18352568867454569 0.071211502957609349 0 0.1718844539869174 0.092723713352279469 0 0.1820038864975185 0.092069024312472089 0 0.1824615380570149 0.084541548462737523 0 0.1718844539869174 0.092723713352279469 0 0.17189795834951421 0.091191439500055912 0 0.1718844539869174 0.092723713352279469 0 0.1605323885050241 0.055291908432915302 0 0.18352568867454569 0.071211502957609349 0 0.1907664088505277 0.057831144257328229 0 0.18352568867454569 0.071211502957609349 0 0.1605323885050241 0.055291908432915302 0 0.18352568867454569 0.071211502957609349 0 0.1662617438043652 0.07453786452728009 0 0.1605323885050241 0.055291908432915302 0 0.1550639958771769 0.066999929814519812 0 0.1662617438043652 0.07453786452728009 0 0.1550639958771769 0.066999929814519812 0 0.14937824174456321 0.079442539029168396 0 0.1662617438043652 0.07453786452728009 0 0.14937824174456321 0.079442539029168396 0 0.17189795834951421 0.091191439500055912 0 0.1662617438043652 0.07453786452728009 0 0.14937824174456321 0.079442539029168396 0 0.168600630532249 0.098791995879973726 0 0.17189795834951421 0.091191439500055912 0 0.14937824174456321 0.079442539029168396 0 0.15304754293924469 0.098573305383789459 0 0.168600630532249 0.098791995879973726 0 0.14937824174456321 0.079442539029168396 0 0.168600630532249 0.098791995879973726 0 0.094198517114993136 0.477070822493183 0 0.1150790943589818 0.48220453878635672 0 0.1105797381051056 0.46254418561595462 0 0.094198517114993136 0.477070822493183 0 0.095302532269580353 0.5 0 0.1150790943589818 0.48220453878635672 0 0.095302532269580353 0.5 0 0.12457094632147819 0.50000000000000044 0 0.1150790943589818 0.48220453878635672 0 0.1150790943589818 0.48220453878635672 0 0.1105797381051056 0.46254418561595462 0 0.1251756618815047 0.46682306625943959 0 0.1105797381051056 0.46254418561595462 0 0.1245588313953044 0.44862432540995739 0 0.1251756618815047 0.46682306625943959 0 0.1105797381051056 0.46254418561595462 0 0.1245588313953044 0.44862432540995739 0 0.1052883006965655 0.44608526466880372 0 0.1245588313953044 0.44862432540995739 0 0.1052883006965655 0.44608526466880372 0 0.1193868527292811 0.42954757301112673 0 0.1052883006965655 0.44608526466880372 0 0.08211695350880896 0.44720963800175079 0 0.10139561983185071 0.42877809817002882 0 0.1105797381051056 0.46254418561595462 0 0.1052883006965655 0.44608526466880372 0 0.093691808609040236 0.45980776780400218 0 0.094198517114993136 0.477070822493183 0 0.1105797381051056 0.46254418561595462 0 0.093691808609040236 0.45980776780400218 0 0.093691808609040236 0.45980776780400218 0 0.07873099807603999 0.46810621906320138 0 0.08211695350880896 0.44720963800175079 0 0.07873099807603999 0.46810621906320138 0 0.08211695350880896 0.44720963800175079 0 0.094198517114993136 0.477070822493183 0 0.093691808609040236 0.45980776780400218 0 0.07873099807603999 0.46810621906320138 0 0.08211695350880896 0.44720963800175079 0 0.10139561983185071 0.42877809817002882 0 0.1052883006965655 0.44608526466880372 0 0.093691808609040236 0.45980776780400218 0 0.08211695350880896 0.44720963800175079 0 0.08211695350880896 0.44720963800175079 0 0.064328543093375656 0.44291951023094162 0 0.070371664607530651 0.45843882557062221 0 0.08211695350880896 0.44720963800175079 0 0.064328543093375656 0.44291951023094162 0 0.064533893743886669 0.42447289749380579 0 0.08211695350880896 0.44720963800175079 0 0.070371664607530651 0.45843882557062221 0 0.07873099807603999 0.46810621906320138 0 0.08211695350880896 0.44720963800175079 0 0.070371664607530651 0.45843882557062221 0 0.07873099807603999 0.46810621906320138 0 0.070371664607530651 0.45843882557062221 0 0.068982321402090013 0.46885683188462379 0 0.070371664607530651 0.45843882557062221 0 0.058626375706250428 0.4696680131394913 0 0.070371664607530651 0.45843882557062221 0 0.068982321402090013 0.46885683188462379 0 0.058626375706250428 0.4696680131394913 0 0.068982321402090013 0.46885683188462379 0 0.070590868948209734 0.48251041812476553 0 0.058626375706250428 0.4696680131394913 0 0.07873099807603999 0.46810621906320138 0 0.068982321402090013 0.46885683188462379 0 0.070590868948209734 0.48251041812476553 0 0.094198517114993136 0.477070822493183 0 0.07873099807603999 0.46810621906320138 0 0.070590868948209734 0.48251041812476553 0 0.094198517114993136 0.477070822493183 0 0.095302532269580353 0.5 0 0.070590868948209734 0.48251041812476553 0 0.095302532269580353 0.5 0 0.070590868948209734 0.48251041812476553 0 0.066034118217682458 0.5 0 0.070590868948209734 0.48251041812476553 0 0.066034118217682458 0.5 0 0.048808070438196932 0.48429620036928661 0 0.066034118217682458 0.5 0 0.048808070438196932 0.48429620036928661 0 0.036765704165784618 0.5 0 0.070590868948209734 0.48251041812476553 0 0.058626375706250428 0.4696680131394913 0 0.048808070438196932 0.48429620036928661 0 0.058626375706250428 0.4696680131394913 0 0.048808070438196932 0.48429620036928661 0 0.0442457231001585 0.47014155035455601 0 0.0442457231001585 0.47014155035455601 0 0.0282465397963803 0.4830550105351693 0 0.03429451396341527 0.45703820018781549 0 0.048808070438196932 0.48429620036928661 0 0.0442457231001585 0.47014155035455601 0 0.0282465397963803 0.4830550105351693 0 0.048808070438196932 0.48429620036928661 0 0.036765704165784618 0.5 0 0.0282465397963803 0.4830550105351693 0 0.036765704165784618 0.5 0 0.0282465397963803 0.4830550105351693 0 0.0074972901138868342 0.5 0 0.0282465397963803 0.4830550105351693 0 0.004665909452408884 0.48062913602120122 0 0.015081558961831771 0.46425610565583703 0 0.0282465397963803 0.4830550105351693 0 0.004665909452408884 0.48062913602120122 0 -0.0027201110069152092 0.46645824183213258 0 0.004665909452408884 0.48062913602120122 0 0.015081558961831771 0.46425610565583703 0 0.0282465397963803 0.4830550105351693 0 0.004665909452408884 0.48062913602120122 0 0.0074972901138868342 0.5 0 -0.0071306613158194669 0.48970809938210857 0 0.004665909452408884 0.48062913602120122 0 0.0074972901138868342 0.5 0 0.00076964137276068554 0.45088725606244762 0 0.019696899884500949 0.43868366613072679 0 0.0017946831326668151 0.43318892200657833 0 0.00076964137276068554 0.45088725606244762 0 0.015081558961831771 0.46425610565583703 0 0.019696899884500949 0.43868366613072679 0 -0.0027201110069152092 0.46645824183213258 0 0.00076964137276068554 0.45088725606244762 0 0.015081558961831771 0.46425610565583703 0 0.0282465397963803 0.4830550105351693 0 0.015081558961831771 0.46425610565583703 0 0.03429451396341527 0.45703820018781549 0 0.015081558961831771 0.46425610565583703 0 0.019696899884500949 0.43868366613072679 0 0.03429451396341527 0.45703820018781549 0 0.019696899884500949 0.43868366613072679 0 0.03429451396341527 0.45703820018781549 0 0.042115396814193802 0.43157828181226632 0 0.03429451396341527 0.45703820018781549 0 0.052671793616110497 0.45489472947971771 0 0.042115396814193802 0.43157828181226632 0 0.0442457231001585 0.47014155035455601 0 0.03429451396341527 0.45703820018781549 0 0.052671793616110497 0.45489472947971771 0 0.070371664607530651 0.45843882557062221 0 0.058626375706250428 0.4696680131394913 0 0.052671793616110497 0.45489472947971771 0 0.058626375706250428 0.4696680131394913 0 0.0442457231001585 0.47014155035455601 0 0.052671793616110497 0.45489472947971771 0 0.064328543093375656 0.44291951023094162 0 0.052671793616110497 0.45489472947971771 0 0.042115396814193802 0.43157828181226632 0 0.064328543093375656 0.44291951023094162 0 0.070371664607530651 0.45843882557062221 0 0.052671793616110497 0.45489472947971771 0 0.042115396814193802 0.43157828181226632 0 0.064533893743886669 0.42447289749380579 0 0.064328543093375656 0.44291951023094162 0 0.042115396814193802 0.43157828181226632 0 0.064533893743886669 0.42447289749380579 0 0.044746721836313931 0.40803301924904978 0 0.042115396814193802 0.43157828181226632 0 0.064533893743886669 0.42447289749380579 0 0.044746721836313931 0.40803301924904978 0 0.06860809462679765 0.40107665131005849 0 0.064533893743886669 0.42447289749380579 0 0.044746721836313931 0.40803301924904978 0 0.042115396814193802 0.43157828181226632 0 0.020450555168797301 0.41615539740598528 0 0.019696899884500949 0.43868366613072679 0 0.042115396814193802 0.43157828181226632 0 0.020450555168797301 0.41615539740598528 0 0.019696899884500949 0.43868366613072679 0 0.042115396814193802 0.43157828181226632 0 -0.0002355237070055895 0.41457280431765953 0 0.020450555168797301 0.41615539740598528 0 0.0045512962674828534 0.39931916271626461 0 -0.0002355237070055895 0.41457280431765953 0 0.020450555168797301 0.41615539740598528 0 0.0017946831326668151 0.43318892200657833 0 0.019696899884500949 0.43868366613072679 0 0.020450555168797301 0.41615539740598528 0 0.0017946831326668151 0.43318892200657833 0 0.0035438281903425049 0.38455553050149388 0 0.018385791246851149 0.3913070483737332 0 0.01251768377409644 0.36672151243411327 0 0.018385791246851149 0.3913070483737332 0 0.01251768377409644 0.36672151243411327 0 0.020450555168797301 0.41615539740598528 0 0.0045512962674828534 0.39931916271626461 0 0.018385791246851149 0.3913070483737332 0 0.0035438281903425049 0.38455553050149388 0 0.0045512962674828534 0.39931916271626461 0 0.018385791246851149 0.3913070483737332 0 0.044746721836313931 0.40803301924904978 0 0.020450555168797301 0.41615539740598528 0 0.018385791246851149 0.3913070483737332 0 0.018385791246851149 0.3913070483737332 0 0.040433463216438953 0.38298694762030228 0 0.027730450049241771 0.36313858818432382 0 0.044746721836313931 0.40803301924904978 0 0.018385791246851149 0.3913070483737332 0 0.040433463216438953 0.38298694762030228 0 0.044746721836313931 0.40803301924904978 0 0.040433463216438953 0.38298694762030228 0 0.06860809462679765 0.40107665131005849 0 0.040433463216438953 0.38298694762030228 0 0.067076419270815396 0.3753247375514247 0 0.06860809462679765 0.40107665131005849 0 0.067076419270815396 0.3753247375514247 0 0.091209622217243685 0.39109381116831471 0 0.06860809462679765 0.40107665131005849 0 0.067076419270815396 0.3753247375514247 0 0.091493716070371281 0.38934051277179799 0 0.091209622217243685 0.39109381116831471 0 0.067076419270815396 0.3753247375514247 0 0.091209622217243685 0.39109381116831471 0 0.091493716070371281 0.38934051277179799 0 0.093222310285032695 0.37876725242216652 0 0.081104324894342522 0.37098179171565993 0 0.067076419270815396 0.3753247375514247 0 0.091493716070371281 0.38934051277179799 0 0.081104324894342522 0.37098179171565993 0 0.091493716070371281 0.38934051277179799 0 0.091209622217243685 0.39109381116831471 0 0.097760755644407574 0.38513152840486359 0 0.091493716070371281 0.38934051277179799 0 0.091209622217243685 0.39109381116831471 0 0.091209622217243685 0.39109381116831471 0 0.086952390673579377 0.41736751317534487 0 0.091209622217243685 0.39109381116831471 0 0.06860809462679765 0.40107665131005849 0 0.086952390673579377 0.41736751317534487 0 0.06860809462679765 0.40107665131005849 0 0.064533893743886669 0.42447289749380579 0 0.086952390673579377 0.41736751317534487 0 0.064533893743886669 0.42447289749380579 0 0.086952390673579377 0.41736751317534487 0 0.08211695350880896 0.44720963800175079 0 0.064533893743886669 0.42447289749380579 0 0.086952390673579377 0.41736751317534487 0 0.08211695350880896 0.44720963800175079 0 0.086952390673579377 0.41736751317534487 0 0.10139561983185071 0.42877809817002882 0 0.08211695350880896 0.44720963800175079 0 0.086952390673579377 0.41736751317534487 0 0.091209622217243685 0.39109381116831471 0 0.086952390673579377 0.41736751317534487 0 0.092828524303314577 0.41550511410921542 0 0.086952390673579377 0.41736751317534487 0 0.092828524303314577 0.41550511410921542 0 0.10139561983185071 0.42877809817002882 0 0.086952390673579377 0.41736751317534487 0 0.092828524303314577 0.41550511410921542 0 0.092828524303314577 0.41550511410921542 0 0.1206742861548919 0.41034655833830619 0 0.10594195418606769 0.40072018475331062 0 0.092828524303314577 0.41550511410921542 0 0.10139561983185071 0.42877809817002882 0 0.1206742861548919 0.41034655833830619 0 0.1052883006965655 0.44608526466880372 0 0.10139561983185071 0.42877809817002882 0 0.1193868527292811 0.42954757301112673 0 0.10139561983185071 0.42877809817002882 0 0.1193868527292811 0.42954757301112673 0 0.1206742861548919 0.41034655833830619 0 0.10139561983185071 0.42877809817002882 0 0.1206742861548919 0.41034655833830619 0 0.1193868527292811 0.42954757301112673 0 0.1206742861548919 0.41034655833830619 0 0.13223701418828021 0.41790185507928762 0 0.1206742861548919 0.41034655833830619 0 0.1171422697284184 0.38987075263093668 0 0.10594195418606769 0.40072018475331062 0 0.1206742861548919 0.41034655833830619 0 0.10594195418606769 0.40072018475331062 0 0.1171422697284184 0.38987075263093668 0 0.10574371954728649 0.38107393078877749 0 0.116576803709314 0.37235565031961249 0 0.1171422697284184 0.38987075263093668 0 0.116576803709314 0.37235565031961249 0 0.12682402122345621 0.38155992324986981 0 0.1171422697284184 0.38987075263093668 0 0.1048124571955867 0.39011604104741771 0 0.10574371954728649 0.38107393078877749 0 0.1048124571955867 0.39011604104741771 0 0.10574371954728649 0.38107393078877749 0 0.097760755644407574 0.38513152840486359 0 0.10574371954728649 0.38107393078877749 0 0.099581454563832716 0.37690334004171872 0 0.10563689884331159 0.37123632874870333 0 0.10574371954728649 0.38107393078877749 0 0.099581454563832716 0.37690334004171872 0 0.097760755644407574 0.38513152840486359 0 0.093222310285032695 0.37876725242216652 0 0.099581454563832716 0.37690334004171872 0 0.097760755644407574 0.38513152840486359 0 0.091493716070371281 0.38934051277179799 0 0.093222310285032695 0.37876725242216652 0 0.097760755644407574 0.38513152840486359 0 0.091209622217243685 0.39109381116831471 0 0.1048124571955867 0.39011604104741771 0 0.097760755644407574 0.38513152840486359 0 0.091209622217243685 0.39109381116831471 0 0.092828524303314577 0.41550511410921542 0 0.10594195418606769 0.40072018475331062 0 0.091209622217243685 0.39109381116831471 0 0.1048124571955867 0.39011604104741771 0 0.10594195418606769 0.40072018475331062 0 0.091209622217243685 0.39109381116831471 0 0.10594195418606769 0.40072018475331062 0 0.1171422697284184 0.38987075263093668 0 0.1048124571955867 0.39011604104741771 0 0.10594195418606769 0.40072018475331062 0 0.09661349456947893 0.34691519224521228 0 0.095543588499125143 0.36830765984408248 0 0.1095117089697767 0.35894511357853259 0 0.099581454563832716 0.37690334004171872 0 0.095543588499125143 0.36830765984408248 0 0.10563689884331159 0.37123632874870333 0 0.093222310285032695 0.37876725242216652 0 0.099581454563832716 0.37690334004171872 0 0.095543588499125143 0.36830765984408248 0 0.10574371954728649 0.38107393078877749 0 0.10563689884331159 0.37123632874870333 0 0.116576803709314 0.37235565031961249 0 0.095543588499125143 0.36830765984408248 0 0.10563689884331159 0.37123632874870333 0 0.1095117089697767 0.35894511357853259 0 0.116576803709314 0.37235565031961249 0 0.1095117089697767 0.35894511357853259 0 0.12549743850848091 0.3582220043772405 0 0.10563689884331159 0.37123632874870333 0 0.116576803709314 0.37235565031961249 0 0.1095117089697767 0.35894511357853259 0 0.09661349456947893 0.34691519224521228 0 0.1095117089697767 0.35894511357853259 0 0.1234486336920248 0.34059495640055099 0 0.1095117089697767 0.35894511357853259 0 0.1234486336920248 0.34059495640055099 0 0.12549743850848091 0.3582220043772405 0 0.09661349456947893 0.34691519224521228 0 0.1234486336920248 0.34059495640055099 0 0.1234486336920248 0.34059495640055099 0 0.119777836565921 0.3262924188833779 0 0.1050179293114674 0.32671958256521749 0 0.119777836565921 0.3262924188833779 0 0.11452902872101101 0.31249070351251301 0 0.13568155980404001 0.3248942194652682 0 0.119777836565921 0.3262924188833779 0 0.1050179293114674 0.32671958256521749 0 0.11452902872101101 0.31249070351251301 0 0.1050179293114674 0.32671958256521749 0 0.087909925262874902 0.32720764869604491 0 0.1009864535828012 0.31008620604317949 0 0.1050179293114674 0.32671958256521749 0 0.1009864535828012 0.31008620604317949 0 0.11452902872101101 0.31249070351251301 0 0.09661349456947893 0.34691519224521228 0 0.1050179293114674 0.32671958256521749 0 0.087909925262874902 0.32720764869604491 0 0.09661349456947893 0.34691519224521228 0 0.1234486336920248 0.34059495640055099 0 0.1050179293114674 0.32671958256521749 0 0.09661349456947893 0.34691519224521228 0 0.087909925262874902 0.32720764869604491 0 0.069778355446933088 0.35323542808987363 0 0.087909925262874902 0.32720764869604491 0 0.073092233663841696 0.31156874185786942 0 0.1009864535828012 0.31008620604317949 0 0.06927761351039427 0.3300223053771148 0 0.045198013744882248 0.31305127767255919 0 0.073092233663841696 0.31156874185786942 0 0.087909925262874902 0.32720764869604491 0 0.06927761351039427 0.3300223053771148 0 0.073092233663841696 0.31156874185786942 0 0.06927761351039427 0.3300223053771148 0 0.069778355446933088 0.35323542808987363 0 0.052934179291030461 0.33473068876137207 0 0.087909925262874902 0.32720764869604491 0 0.06927761351039427 0.3300223053771148 0 0.069778355446933088 0.35323542808987363 0 0.09661349456947893 0.34691519224521228 0 0.069778355446933088 0.35323542808987363 0 0.09661349456947893 0.34691519224521228 0 0.069778355446933088 0.35323542808987363 0 0.081104324894342522 0.37098179171565993 0 0.09661349456947893 0.34691519224521228 0 0.095543588499125143 0.36830765984408248 0 0.081104324894342522 0.37098179171565993 0 0.093222310285032695 0.37876725242216652 0 0.095543588499125143 0.36830765984408248 0 0.081104324894342522 0.37098179171565993 0 0.067076419270815396 0.3753247375514247 0 0.069778355446933088 0.35323542808987363 0 0.081104324894342522 0.37098179171565993 0 0.040433463216438953 0.38298694762030228 0 0.067076419270815396 0.3753247375514247 0 0.042943216324387162 0.35955566393453492 0 0.067076419270815396 0.3753247375514247 0 0.069778355446933088 0.35323542808987363 0 0.042943216324387162 0.35955566393453492 0 0.067076419270815396 0.3753247375514247 0 0.042943216324387162 0.35955566393453492 0 0.069778355446933088 0.35323542808987363 0 0.042943216324387162 0.35955566393453492 0 0.069778355446933088 0.35323542808987363 0 0.045355362878620201 0.34617489172229138 0 0.042943216324387162 0.35955566393453492 0 0.069778355446933088 0.35323542808987363 0 0.045355362878620201 0.34617489172229138 0 0.052934179291030461 0.33473068876137207 0 0.045355362878620201 0.34617489172229138 0 0.034833778301319118 0.35425680967713541 0 0.042943216324387162 0.35955566393453492 0 0.034833778301319118 0.35425680967713541 0 0.042943216324387162 0.35955566393453492 0 0.027730450049241771 0.36313858818432382 0 0.034833778301319118 0.35425680967713541 0 0.042943216324387162 0.35955566393453492 0 0.045355362878620201 0.34617489172229138 0 0.034833778301319118 0.35425680967713541 0 0.032685042129676961 0.34239122451662568 0 0.040433463216438953 0.38298694762030228 0 0.042943216324387162 0.35955566393453492 0 0.027730450049241771 0.36313858818432382 0 0.042943216324387162 0.35955566393453492 0 0.027730450049241771 0.36313858818432382 0 0.018385791246851149 0.3913070483737332 0 0.027730450049241771 0.36313858818432382 0 0.01251768377409644 0.36672151243411327 0 0.027730450049241771 0.36313858818432382 0 0.022307282617877639 0.35171955401747662 0 0.01251768377409644 0.36672151243411327 0 0.027730450049241771 0.36313858818432382 0 0.01251768377409644 0.36672151243411327 0 0.034833778301319118 0.35425680967713541 0 0.027730450049241771 0.36313858818432382 0 0.022307282617877639 0.35171955401747662 0 0.022307282617877639 0.35171955401747662 0 0.021358074718360119 0.3406195437646633 0 0.032685042129676961 0.34239122451662568 0 0.034833778301319118 0.35425680967713541 0 0.022307282617877639 0.35171955401747662 0 0.032685042129676961 0.34239122451662568 0 0.022307282617877639 0.35171955401747662 0 0.008419854407455879 0.34955288836992632 0 0.021358074718360119 0.3406195437646633 0 0.008419854407455879 0.34955288836992632 0 0.00038183190451733198 0.35944236195763829 0 0.01251768377409644 0.36672151243411327 0 0.022307282617877639 0.35171955401747662 0 0.008419854407455879 0.34955288836992632 0 0.01251768377409644 0.36672151243411327 0 0.008419854407455879 0.34955288836992632 0 0.01251768377409644 0.36672151243411327 0 -0.0071869989943903478 0.37136237685342322 0 0.01251768377409644 0.36672151243411327 0 -0.0071869989943903478 0.37136237685342322 0 0.00038183190451733198 0.35944236195763829 0 0.01251768377409644 0.36672151243411327 0 -0.0071869989943903478 0.37136237685342322 0 0.0035438281903425049 0.38455553050149388 0 0.01251768377409644 0.36672151243411327 0 -0.00081914683292831376 0.31084436128580528 0 0.0085128201998593694 0.32428032362356402 0 0.0043220250408161527 0.3323842643057392 0 -0.00081914683292831376 0.31084436128580528 0 0.0043220250408161527 0.3323842643057392 0 0.0085128201998593694 0.32428032362356402 0 0.01069175897223788 0.32905694123297952 0 0.01566152387702913 0.32683248830780293 0 0.0085128201998593694 0.32428032362356402 0 0.0058780723270800209 0.33090946127572368 0 0.01069175897223788 0.32905694123297952 0 0.0085128201998593694 0.32428032362356402 0 0.01366064282034022 0.31911454390367561 0 0.01566152387702913 0.32683248830780293 0 0.0085128201998593694 0.32428032362356402 0 0.0080502179124196938 0.31534907821343172 0 0.01366064282034022 0.31911454390367561 0 0.01366064282034022 0.31911454390367561 0 0.016972639596253961 0.31483131761948968 0 0.0083721353845883743 0.3052580275763393 0 0.0080502179124196938 0.31534907821343172 0 0.01366064282034022 0.31911454390367561 0 0.0083721353845883743 0.3052580275763393 0 -0.00081914683292831376 0.31084436128580528 0 0.0085128201998593694 0.32428032362356402 0 0.0080502179124196938 0.31534907821343172 0 0.008419854407455879 0.34955288836992632 0 0.0043220250408161527 0.3323842643057392 0 0.0085128201998593694 0.32428032362356402 0 0.0043220250408161527 0.3323842643057392 0 0.0058780723270800209 0.33090946127572368 0 -0.01265077148324322 0.34847087810117439 0 0.008419854407455879 0.34955288836992632 0 0.0043220250408161527 0.3323842643057392 0 0.008419854407455879 0.34955288836992632 0 0.0043220250408161527 0.3323842643057392 0 0.012714619484983021 0.33420549172482772 0 0.0043220250408161527 0.3323842643057392 0 0.0058780723270800209 0.33090946127572368 0 0.012714619484983021 0.33420549172482772 0 0.0043220250408161527 0.3323842643057392 0 0.0058780723270800209 0.33090946127572368 0 0.008419854407455879 0.34955288836992632 0 0.012714619484983021 0.33420549172482772 0 0.021358074718360119 0.3406195437646633 0 0.0058780723270800209 0.33090946127572368 0 0.01069175897223788 0.32905694123297952 0 0.012714619484983021 0.33420549172482772 0 0.01069175897223788 0.32905694123297952 0 0.012714619484983021 0.33420549172482772 0 0.01566152387702913 0.32683248830780293 0 0.012714619484983021 0.33420549172482772 0 0.021878003539739479 0.33058692540360402 0 0.01566152387702913 0.32683248830780293 0 0.012714619484983021 0.33420549172482772 0 0.021878003539739479 0.33058692540360402 0 0.021358074718360119 0.3406195437646633 0 0.021358074718360119 0.3406195437646633 0 0.02927929362628429 0.33461492565536682 0 0.032685042129676961 0.34239122451662568 0 0.021878003539739479 0.33058692540360402 0 0.02927929362628429 0.33461492565536682 0 0.031517741965270511 0.32659739923773462 0 0.021878003539739479 0.33058692540360402 0 0.021358074718360119 0.3406195437646633 0 0.02927929362628429 0.33461492565536682 0 0.021878003539739479 0.33058692540360402 0 0.02270458947584934 0.32121159688680728 0 0.031517741965270511 0.32659739923773462 0 0.016972639596253961 0.31483131761948968 0 0.045198013744882248 0.31305127767255919 0 0.02270458947584934 0.32121159688680728 0 0.016972639596253961 0.31483131761948968 0 0.045198013744882248 0.31305127767255919 0 0.021878003539739479 0.33058692540360402 0 0.02270458947584934 0.32121159688680728 0 0.01566152387702913 0.32683248830780293 0 0.01366064282034022 0.31911454390367561 0 0.02270458947584934 0.32121159688680728 0 0.01566152387702913 0.32683248830780293 0 0.01366064282034022 0.31911454390367561 0 0.02270458947584934 0.32121159688680728 0 0.016972639596253961 0.31483131761948968 0 0.02270458947584934 0.32121159688680728 0 0.016972639596253961 0.31483131761948968 0 0.045198013744882248 0.31305127767255919 0 0.031517741965270511 0.32659739923773462 0 0.038957605778374357 0.33287953535420661 0 0.02270458947584934 0.32121159688680728 0 0.045198013744882248 0.31305127767255919 0 0.031517741965270511 0.32659739923773462 0 0.045198013744882248 0.31305127767255919 0 0.038957605778374357 0.33287953535420661 0 0.052934179291030461 0.33473068876137207 0 0.02927929362628429 0.33461492565536682 0 0.032685042129676961 0.34239122451662568 0 0.038957605778374357 0.33287953535420661 0 0.045355362878620201 0.34617489172229138 0 0.032685042129676961 0.34239122451662568 0 0.038957605778374357 0.33287953535420661 0 0.02927929362628429 0.33461492565536682 0 0.031517741965270511 0.32659739923773462 0 0.038957605778374357 0.33287953535420661 0 0.045355362878620201 0.34617489172229138 0 0.038957605778374357 0.33287953535420661 0 0.052934179291030461 0.33473068876137207 0 0.06927761351039427 0.3300223053771148 0 0.045198013744882248 0.31305127767255919 0 0.052934179291030461 0.33473068876137207 0 0.045198013744882248 0.31305127767255919 0 0.073092233663841696 0.31156874185786942 0 0.045198013744882248 0.31305127767255919 0 0.052454913306841863 0.30014245358251929 0 0.073092233663841696 0.31156874185786942 0 0.062246070746932627 0.28218780534964272 0 0.059652402888557068 0.29042440745432918 0 0.04975610870108408 0.28574516532593153 0 0.052454913306841863 0.30014245358251929 0 0.059652402888557068 0.29042440745432918 0 0.065019070016984593 0.29847901639000313 0 0.052454913306841863 0.30014245358251929 0 0.059652402888557068 0.29042440745432918 0 0.04975610870108408 0.28574516532593153 0 0.052454913306841863 0.30014245358251929 0 0.04975610870108408 0.28574516532593153 0 0.041474986642063408 0.29662766468580531 0 0.031571596028299391 0.28322514933961862 0 0.041474986642063408 0.29662766468580531 0 0.028394301429209491 0.30097427750839778 0 0.04975610870108408 0.28574516532593153 0 0.031571596028299391 0.28322514933961862 0 0.041474986642063408 0.29662766468580531 0 0.045198013744882248 0.31305127767255919 0 0.052454913306841863 0.30014245358251929 0 0.041474986642063408 0.29662766468580531 0 0.045198013744882248 0.31305127767255919 0 0.041474986642063408 0.29662766468580531 0 0.028394301429209491 0.30097427750839778 0 0.016972639596253961 0.31483131761948968 0 0.045198013744882248 0.31305127767255919 0 0.028394301429209491 0.30097427750839778 0 0.016972639596253961 0.31483131761948968 0 0.016565506025672149 0.30217096539545962 0 0.028394301429209491 0.30097427750839778 0 0.016565506025672149 0.30217096539545962 0 0.028394301429209491 0.30097427750839778 0 0.019526576314311539 0.29250662748013412 0 0.031571596028299391 0.28322514933961862 0 0.019526576314311539 0.29250662748013412 0 0.01325247452900072 0.28362945225441061 0 0.031571596028299391 0.28322514933961862 0 0.028394301429209491 0.30097427750839778 0 0.019526576314311539 0.29250662748013412 0 0.019526576314311539 0.29250662748013412 0 0.0078490035593759659 0.29253329290278413 0 0.01325247452900072 0.28362945225441061 0 -0.0059603187066722824 0.28930445826587109 0 0.0078490035593759659 0.29253329290278413 0 0.0083721353845883743 0.3052580275763393 0 0.016565506025672149 0.30217096539545962 0 0.019526576314311539 0.29250662748013412 0 0.0078490035593759659 0.29253329290278413 0 0.0078490035593759659 0.29253329290278413 0 0.01325247452900072 0.28362945225441061 0 0.004344690325794257 0.28526979657402002 0 0.01325247452900072 0.28362945225441061 0 0.004344690325794257 0.28526979657402002 0 0.0022106927435165528 0.27736271093562509 0 -0.001695392528938093 0.28323646968268817 0 0.004344690325794257 0.28526979657402002 0 0.0022106927435165528 0.27736271093562509 0 -0.0014572192683853351 0.2876382609864131 0 0.0078490035593759659 0.29253329290278413 0 0.004344690325794257 0.28526979657402002 0 -0.001695392528938093 0.28323646968268817 0 -0.0014572192683853351 0.2876382609864131 0 0.004344690325794257 0.28526979657402002 0 -0.0059603187066722824 0.28930445826587109 0 -0.0014572192683853351 0.2876382609864131 0 0.0078490035593759659 0.29253329290278413 0 -0.00081914683292831376 0.31084436128580528 0 -0.0059603187066722824 0.28930445826587109 0 0.0083721353845883743 0.3052580275763393 0 -0.0059603187066722824 0.28930445826587109 0 0.0083721353845883743 0.3052580275763393 0 -0.00081914683292831376 0.31084436128580528 0 0.0080502179124196938 0.31534907821343172 0 0.0083721353845883743 0.3052580275763393 0 0.016972639596253961 0.31483131761948968 0 0.016565506025672149 0.30217096539545962 0 0.0083721353845883743 0.3052580275763393 0 0.016972639596253961 0.31483131761948968 0 0.0083721353845883743 0.3052580275763393 0 0.016565506025672149 0.30217096539545962 0 0.0078490035593759659 0.29253329290278413 0 0.0083721353845883743 0.3052580275763393 0 -0.0012214697552497889 0.26412499552299018 0 0.015589344204555589 0.25238293360822239 0 -0.0012214697552497889 0.26412499552299018 0 -0.0011779531814362859 0.24237928671812051 0 0.015589344204555589 0.25238293360822239 0 -0.0012214697552497889 0.26412499552299018 0 0.015589344204555589 0.25238293360822239 0 0.01470622740507108 0.26847372970999178 0 -0.0012214697552497889 0.26412499552299018 0 0.0022106927435165528 0.27736271093562509 0 0.01470622740507108 0.26847372970999178 0 0.01325247452900072 0.28362945225441061 0 0.0022106927435165528 0.27736271093562509 0 0.01470622740507108 0.26847372970999178 0 0.031571596028299391 0.28322514933961862 0 0.01470622740507108 0.26847372970999178 0 0.031985877096328767 0.261933010516536 0 0.031571596028299391 0.28322514933961862 0 0.01325247452900072 0.28362945225441061 0 0.01470622740507108 0.26847372970999178 0 0.015589344204555589 0.25238293360822239 0 0.01470622740507108 0.26847372970999178 0 0.031985877096328767 0.261933010516536 0 0.03240015816436026 0.2406408716934535 0 0.015589344204555589 0.25238293360822239 0 0.031985877096328767 0.261933010516536 0 0.031985877096328767 0.261933010516536 0 0.045081592589738657 0.2727575837709969 0 0.056094534364332649 0.25914791181566188 0 0.03240015816436026 0.2406408716934535 0 0.031985877096328767 0.261933010516536 0 0.034033081451861388 0.23950030310529871 0 0.031985877096328767 0.261933010516536 0 0.056094534364332649 0.25914791181566188 0 0.031571596028299391 0.28322514933961862 0 0.031985877096328767 0.261933010516536 0 0.031571596028299391 0.28322514933961862 0 0.031985877096328767 0.261933010516536 0 0.045081592589738657 0.2727575837709969 0 0.04975610870108408 0.28574516532593153 0 0.031571596028299391 0.28322514933961862 0 0.045081592589738657 0.2727575837709969 0 0.04975610870108408 0.28574516532593153 0 0.045081592589738657 0.2727575837709969 0 0.059104471966847393 0.27420453448823479 0 0.045081592589738657 0.2727575837709969 0 0.059104471966847393 0.27420453448823479 0 0.056094534364332649 0.25914791181566188 0 0.062246070746932627 0.28218780534964272 0 0.04975610870108408 0.28574516532593153 0 0.059104471966847393 0.27420453448823479 0 0.073851568759987621 0.24943896511838209 0 0.056094534364332649 0.25914791181566188 0 0.078155987276807184 0.27879552052602158 0 0.073851568759987621 0.24943896511838209 0 0.092497282968843395 0.25730746295092738 0 0.078155987276807184 0.27879552052602158 0 0.092497282968843395 0.25730746295092738 0 0.078155987276807184 0.27879552052602158 0 0.092497282968843395 0.25730746295092738 0 0.078155987276807184 0.27879552052602158 0 0.094179686083127406 0.27726916510401473 0 0.059104471966847393 0.27420453448823479 0 0.056094534364332649 0.25914791181566188 0 0.078155987276807184 0.27879552052602158 0 0.062246070746932627 0.28218780534964272 0 0.059104471966847393 0.27420453448823479 0 0.078155987276807184 0.27879552052602158 0 0.056094534364332649 0.25914791181566188 0 0.078155987276807184 0.27879552052602158 0 0.062246070746932627 0.28218780534964272 0 0.078155987276807184 0.27879552052602158 0 0.069105693340352742 0.28585516458765059 0 0.062246070746932627 0.28218780534964272 0 0.059652402888557068 0.29042440745432918 0 0.069105693340352742 0.28585516458765059 0 0.072223966554953611 0.28768367160700142 0 0.065019070016984593 0.29847901639000313 0 0.059652402888557068 0.29042440745432918 0 0.069105693340352742 0.28585516458765059 0 0.065019070016984593 0.29847901639000313 0 0.069105693340352742 0.28585516458765059 0 0.072223966554953611 0.28768367160700142 0 0.065019070016984593 0.29847901639000313 0 0.072223966554953611 0.28768367160700142 0 0.065019070016984593 0.29847901639000313 0 0.075927941968440549 0.2994546543536577 0 0.078155987276807184 0.27879552052602158 0 0.072223966554953611 0.28768367160700142 0 0.078155987276807184 0.27879552052602158 0 0.069105693340352742 0.28585516458765059 0 0.072223966554953611 0.28768367160700142 0 0.069105693340352742 0.28585516458765059 0 0.072223966554953611 0.28768367160700142 0 0.052454913306841863 0.30014245358251929 0 0.065019070016984593 0.29847901639000313 0 0.073092233663841696 0.31156874185786942 0 0.065019070016984593 0.29847901639000313 0 0.075927941968440549 0.2994546543536577 0 0.073092233663841696 0.31156874185786942 0 0.075927941968440549 0.2994546543536577 0 0.073092233663841696 0.31156874185786942 0 0.093376497637982295 0.30008718755975722 0 0.073092233663841696 0.31156874185786942 0 0.1009864535828012 0.31008620604317949 0 0.073092233663841696 0.31156874185786942 0 0.093376497637982295 0.30008718755975722 0 0.1009864535828012 0.31008620604317949 0 0.072223966554953611 0.28768367160700142 0 0.093376497637982295 0.30008718755975722 0 0.092554383052659117 0.29161852213807682 0 0.078155987276807184 0.27879552052602158 0 0.092554383052659117 0.29161852213807682 0 0.094179686083127406 0.27726916510401473 0 0.078155987276807184 0.27879552052602158 0 0.072223966554953611 0.28768367160700142 0 0.092554383052659117 0.29161852213807682 0 0.072223966554953611 0.28768367160700142 0 0.075927941968440549 0.2994546543536577 0 0.093376497637982295 0.30008718755975722 0 0.072223966554953611 0.28768367160700142 0 0.093376497637982295 0.30008718755975722 0 0.078155987276807184 0.27879552052602158 0 0.092554383052659117 0.29161852213807682 0 0.092554383052659117 0.29161852213807682 0 0.1007403608408767 0.2842606717621336 0 0.094179686083127406 0.27726916510401473 0 0.092554383052659117 0.29161852213807682 0 0.1038399484564409 0.29271480123026028 0 0.10695277882851249 0.30444152375013028 0 0.092554383052659117 0.29161852213807682 0 0.1007403608408767 0.2842606717621336 0 0.1038399484564409 0.29271480123026028 0 0.1038399484564409 0.29271480123026028 0 0.113031287745472 0.28682053032644061 0 0.11092688184551119 0.29592685810394082 0 0.1007403608408767 0.2842606717621336 0 0.113031287745472 0.28682053032644061 0 0.10662095230222569 0.27289805347474561 0 0.1007403608408767 0.2842606717621336 0 0.1038399484564409 0.29271480123026028 0 0.113031287745472 0.28682053032644061 0 0.093376497637982295 0.30008718755975722 0 0.1009864535828012 0.31008620604317949 0 0.11452902872101101 0.31249070351251301 0 0.093376497637982295 0.30008718755975722 0 0.11452902872101101 0.31249070351251301 0 0.093376497637982295 0.30008718755975722 0 0.10695277882851249 0.30444152375013028 0 0.11452902872101101 0.31249070351251301 0 0.093376497637982295 0.30008718755975722 0 0.092554383052659117 0.29161852213807682 0 0.10695277882851249 0.30444152375013028 0 0.092554383052659117 0.29161852213807682 0 0.10695277882851249 0.30444152375013028 0 0.1038399484564409 0.29271480123026028 0 0.10695277882851249 0.30444152375013028 0 0.11092688184551119 0.29592685810394082 0 0.10695277882851249 0.30444152375013028 0 0.11452902872101101 0.31249070351251301 0 0.1198835123516195 0.2997305771089317 0 0.10695277882851249 0.30444152375013028 0 0.1198835123516195 0.2997305771089317 0 0.11092688184551119 0.29592685810394082 0 0.11452902872101101 0.31249070351251301 0 0.1198835123516195 0.2997305771089317 0 0.1288837645331222 0.31095033786789977 0 0.1198835123516195 0.2997305771089317 0 0.113031287745472 0.28682053032644061 0 0.11092688184551119 0.29592685810394082 0 0.1198835123516195 0.2997305771089317 0 0.113031287745472 0.28682053032644061 0 0.12681416331375239 0.288228504904887 0 0.113031287745472 0.28682053032644061 0 0.1225736474715851 0.27423449299249741 0 0.12681416331375239 0.288228504904887 0 0.1225736474715851 0.27423449299249741 0 0.11670344870344949 0.25749599771246001 0 0.10662095230222569 0.27289805347474561 0 0.113031287745472 0.28682053032644061 0 0.1225736474715851 0.27423449299249741 0 0.10662095230222569 0.27289805347474561 0 0.10683857866087559 0.23581940537583049 0 0.092497282968843395 0.25730746295092738 0 0.11670344870344949 0.25749599771246001 0 0.092497282968843395 0.25730746295092738 0 0.11670344870344949 0.25749599771246001 0 0.10662095230222569 0.27289805347474561 0 0.092497282968843395 0.25730746295092738 0 0.094179686083127406 0.27726916510401473 0 0.10662095230222569 0.27289805347474561 0 0.1007403608408767 0.2842606717621336 0 0.094179686083127406 0.27726916510401473 0 0.10662095230222569 0.27289805347474561 0 0.14126198252979599 0.2798707903320265 0 0.1398859987945428 0.26218695542856513 0 0.1611313134071421 0.27250085182237782 0 0.16281754088323061 0.24740659801607481 0 0.1398859987945428 0.26218695542856513 0 0.1611313134071421 0.27250085182237782 0 0.13482805977205289 0.24161300169595401 0 0.16281754088323061 0.24740659801607481 0 0.1398859987945428 0.26218695542856513 0 0.13482805977205289 0.24161300169595401 0 0.11670344870344949 0.25749599771246001 0 0.1398859987945428 0.26218695542856513 0 0.1225736474715851 0.27423449299249741 0 0.11670344870344949 0.25749599771246001 0 0.1398859987945428 0.26218695542856513 0 0.1225736474715851 0.27423449299249741 0 0.14126198252979599 0.2798707903320265 0 0.1398859987945428 0.26218695542856513 0 0.1225736474715851 0.27423449299249741 0 0.14126198252979599 0.2798707903320265 0 0.12681416331375239 0.288228504904887 0 0.1198835123516195 0.2997305771089317 0 0.12681416331375239 0.288228504904887 0 0.13732038647028941 0.30048613376453859 0 0.14126198252979599 0.2798707903320265 0 0.12681416331375239 0.288228504904887 0 0.13732038647028941 0.30048613376453859 0 0.1198835123516195 0.2997305771089317 0 0.1288837645331222 0.31095033786789977 0 0.13732038647028941 0.30048613376453859 0 0.1288837645331222 0.31095033786789977 0 0.13732038647028941 0.30048613376453859 0 0.13764736342799791 0.31481462402525751 0 0.13732038647028941 0.30048613376453859 0 0.1467637052741807 0.31172182333967302 0 0.13764736342799791 0.31481462402525751 0 0.1467637052741807 0.31172182333967302 0 0.159445085931053 0.29759510562868091 0 0.1577588584549639 0.32268935943498389 0 0.13732038647028941 0.30048613376453859 0 0.1467637052741807 0.31172182333967302 0 0.159445085931053 0.29759510562868091 0 0.14126198252979599 0.2798707903320265 0 0.13732038647028941 0.30048613376453859 0 0.159445085931053 0.29759510562868091 0 0.14126198252979599 0.2798707903320265 0 0.159445085931053 0.29759510562868091 0 0.1611313134071421 0.27250085182237782 0 0.159445085931053 0.29759510562868091 0 0.1749141377374436 0.28607611188304199 0 0.1611313134071421 0.27250085182237782 0 0.159445085931053 0.29759510562868091 0 0.1611313134071421 0.27250085182237782 0 0.159445085931053 0.29759510562868091 0 0.1577588584549639 0.32268935943498389 0 0.159445085931053 0.29759510562868091 0 0.18195284066678941 0.30289263584325532 0 0.17454868803294241 0.3194693524947117 0 0.18195284066678941 0.30289263584325532 0 0.1749141377374436 0.28607611188304199 0 0.19245943842930741 0.28791324637138871 0 0.159445085931053 0.29759510562868091 0 0.18195284066678941 0.30289263584325532 0 0.1749141377374436 0.28607611188304199 0 0.1749141377374436 0.28607611188304199 0 0.17958201025292611 0.26947871974950738 0 0.19245943842930741 0.28791324637138871 0 0.1749141377374436 0.28607611188304199 0 0.17958201025292611 0.26947871974950738 0 0.1611313134071421 0.27250085182237782 0 0.16281754088323061 0.24740659801607481 0 0.1611313134071421 0.27250085182237782 0 0.16281754088323061 0.24740659801607481 0 0.17958201025292611 0.26947871974950738 0 0.1611313134071421 0.27250085182237782 0 0.16281754088323061 0.24740659801607481 0 0.18831532265037099 0.25268443271514662 0 0.16281754088323061 0.24740659801607481 0 0.17958201025292611 0.26947871974950738 0 0.18831532265037099 0.25268443271514662 0 0.18831532265037099 0.25268443271514662 0 0.20586662576276399 0.25081699933713009 0 0.21381310441751231 0.25796226741421402 0 0.18831532265037099 0.25268443271514662 0 0.21381310441751231 0.25796226741421402 0 0.17958201025292611 0.26947871974950738 0 0.18831532265037099 0.25268443271514662 0 0.19895586366822821 0.27060287989477783 0 0.18831532265037099 0.25268443271514662 0 0.19895586366822821 0.27060287989477783 0 0.21381310441751231 0.25796226741421402 0 0.17958201025292611 0.26947871974950738 0 0.19895586366822821 0.27060287989477783 0 0.19245943842930741 0.28791324637138871 0 0.19895586366822821 0.27060287989477783 0 0.2095963632450622 0.26860639222616361 0 0.21176737955086369 0.28586196873851899 0 0.2095963632450622 0.26860639222616361 0 0.21904636356585261 0.27233341888172857 0 0.21176737955086369 0.28586196873851899 0 0.19895586366822821 0.27060287989477783 0 0.2095963632450622 0.26860639222616361 0 0.21381310441751231 0.25796226741421402 0 0.2095963632450622 0.26860639222616361 0 0.21381310441751231 0.25796226741421402 0 0.21904636356585261 0.27233341888172857 0 0.21381310441751231 0.25796226741421402 0 0.2211525431437702 0.25706381225100261 0 0.21904636356585261 0.27233341888172857 0 0.20586662576276399 0.25081699933713009 0 0.21381310441751231 0.25796226741421402 0 0.2211525431437702 0.25706381225100261 0 0.2211525431437702 0.25706381225100261 0 0.2363773045129002 0.27824385671198432 0 0.23668647992816211 0.26010823884069662 0 0.2357717162530249 0.24793788735158501 0 0.2211525431437702 0.25706381225100261 0 0.23668647992816211 0.26010823884069662 0 0.2211525431437702 0.25706381225100261 0 0.21904636356585261 0.27233341888172857 0 0.2363773045129002 0.27824385671198432 0 0.21904636356585261 0.27233341888172857 0 0.2363773045129002 0.27824385671198432 0 0.21176737955086369 0.28586196873851899 0 0.2211525431437702 0.25706381225100261 0 0.2363773045129002 0.27824385671198432 0 0.2357717162530249 0.24793788735158501 0 0.23668647992816211 0.26010823884069662 0 0.2534443558029531 0.25718739904821453 0 0.2363773045129002 0.27824385671198432 0 0.23668647992816211 0.26010823884069662 0 0.2534443558029531 0.25718739904821453 0 0.22444085344048059 0.30430583619296342 0 0.23616984023824239 0.32408483670433602 0 0.25160206588203021 0.29942390117296591 0 0.2363773045129002 0.27824385671198432 0 0.22444085344048059 0.30430583619296342 0 0.25160206588203021 0.29942390117296591 0 0.2363773045129002 0.27824385671198432 0 0.25160206588203021 0.29942390117296591 0 0.2363773045129002 0.27824385671198432 0 0.22444085344048059 0.30430583619296342 0 0.21176737955086369 0.28586196873851899 0 0.22444085344048059 0.30430583619296342 0 0.21176737955086369 0.28586196873851899 0 0.20221515626883929 0.30434069812657322 0 0.22444085344048059 0.30430583619296342 0 0.20221515626883929 0.30434069812657322 0 0.21193570298673101 0.32610371414659722 0 0.21176737955086369 0.28586196873851899 0 0.19245943842930741 0.28791324637138871 0 0.20221515626883929 0.30434069812657322 0 0.19895586366822821 0.27060287989477783 0 0.21176737955086369 0.28586196873851899 0 0.19245943842930741 0.28791324637138871 0 0.18195284066678941 0.30289263584325532 0 0.19245943842930741 0.28791324637138871 0 0.20221515626883929 0.30434069812657322 0 0.18195284066678941 0.30289263584325532 0 0.20221515626883929 0.30434069812657322 0 0.1907347225388637 0.31896678746671592 0 0.20221515626883929 0.30434069812657322 0 0.1907347225388637 0.31896678746671592 0 0.21193570298673101 0.32610371414659722 0 0.1907347225388637 0.31896678746671592 0 0.21193570298673101 0.32610371414659722 0 0.1868715486414621 0.3385209823751496 0 0.21193570298673101 0.32610371414659722 0 0.2064363986667791 0.35081562537454569 0 0.1868715486414621 0.3385209823751496 0 0.21193570298673101 0.32610371414659722 0 0.23422951982304371 0.34879287485911659 0 0.2064363986667791 0.35081562537454569 0 0.22444085344048059 0.30430583619296342 0 0.21193570298673101 0.32610371414659722 0 0.23616984023824239 0.32408483670433602 0 0.21193570298673101 0.32610371414659722 0 0.23616984023824239 0.32408483670433602 0 0.23422951982304371 0.34879287485911659 0 0.2484070731134084 0.33518760864609659 0 0.23616984023824239 0.32408483670433602 0 0.23422951982304371 0.34879287485911659 0 0.2484070731134084 0.33518760864609659 0 0.23422951982304371 0.34879287485911659 0 0.26202264097930822 0.34677012434368742 0 0.23616984023824239 0.32408483670433602 0 0.26120629141303953 0.3211025986772465 0 0.25160206588203021 0.29942390117296591 0 0.2484070731134084 0.33518760864609659 0 0.23616984023824239 0.32408483670433602 0 0.26120629141303953 0.3211025986772465 0 0.2474566773157609 0.3703707932949149 0 0.23422951982304371 0.34879287485911659 0 0.25613418267432547 0.35920505873643321 0 0.23422951982304371 0.34879287485911659 0 0.26202264097930822 0.34677012434368742 0 0.23422951982304371 0.34879287485911659 0 0.2210570313218001 0.36938413631101652 0 0.2064363986667791 0.35081562537454569 0 0.23422951982304371 0.34879287485911659 0 0.2064363986667791 0.35081562537454569 0 0.2474566773157609 0.3703707932949149 0 0.23422951982304371 0.34879287485911659 0 0.2210570313218001 0.36938413631101652 0 0.2210570313218001 0.36938413631101652 0 0.2064363986667791 0.35081562537454569 0 0.19956962336783579 0.37922506091446728 0 0.2064363986667791 0.35081562537454569 0 0.17864327751051459 0.35283837588997491 0 0.2064363986667791 0.35081562537454569 0 0.17864327751051459 0.35283837588997491 0 0.1868715486414621 0.3385209823751496 0 0.2064363986667791 0.35081562537454569 0 0.1871512392100026 0.36194625545181802 0 0.17864327751051459 0.35283837588997491 0 0.1871512392100026 0.36194625545181802 0 0.18593931670413691 0.3752368795642162 0 0.19956962336783579 0.37922506091446728 0 0.2064363986667791 0.35081562537454569 0 0.1871512392100026 0.36194625545181802 0 0.19956962336783579 0.37922506091446728 0 0.1871512392100026 0.36194625545181802 0 0.17617500378081249 0.36559073184239499 0 0.18593931670413691 0.3752368795642162 0 0.1871512392100026 0.36194625545181802 0 0.17617500378081249 0.36559073184239499 0 0.1758117364201581 0.35763191025243252 0 0.1758117364201581 0.35763191025243252 0 0.15679502860447261 0.37581300233109832 0 0.17617500378081249 0.36559073184239499 0 0.15679502860447261 0.37581300233109832 0 0.1697634339592034 0.37784365776798817 0 0.16191477637048779 0.36077996121776501 0 0.1758117364201581 0.35763191025243252 0 0.15679502860447261 0.37581300233109832 0 0.17617500378081249 0.36559073184239499 0 0.1758117364201581 0.35763191025243252 0 0.15679502860447261 0.37581300233109832 0 0.16191477637048779 0.36077996121776501 0 0.15438640350278529 0.37287786704758968 0 0.15607263097887469 0.34778361324128682 0 0.16191477637048779 0.36077996121776501 0 0.15438640350278529 0.37287786704758968 0 0.15679502860447261 0.37581300233109832 0 0.16191477637048779 0.36077996121776501 0 0.16969151812842551 0.34989872061356803 0 0.15607263097887469 0.34778361324128682 0 0.16191477637048779 0.36077996121776501 0 0.16969151812842551 0.34989872061356803 0 0.1758117364201581 0.35763191025243252 0 0.16969151812842551 0.34989872061356803 0 0.17052907196452211 0.33615124421948478 0 0.15607263097887469 0.34778361324128682 0 0.16969151812842551 0.34989872061356803 0 0.17517761552599589 0.34420721886046368 0 0.17864327751051459 0.35283837588997491 0 0.16969151812842551 0.34989872061356803 0 0.17864327751051459 0.35283837588997491 0 0.1758117364201581 0.35763191025243252 0 0.1871512392100026 0.36194625545181802 0 0.17864327751051459 0.35283837588997491 0 0.1758117364201581 0.35763191025243252 0 0.17517761552599589 0.34420721886046368 0 0.17864327751051459 0.35283837588997491 0 0.1868715486414621 0.3385209823751496 0 0.1868715486414621 0.3385209823751496 0 0.17454868803294241 0.3194693524947117 0 0.17052907196452211 0.33615124421948478 0 0.17517761552599589 0.34420721886046368 0 0.1868715486414621 0.3385209823751496 0 0.17052907196452211 0.33615124421948478 0 0.1907347225388637 0.31896678746671592 0 0.1868715486414621 0.3385209823751496 0 0.17454868803294241 0.3194693524947117 0 0.18195284066678941 0.30289263584325532 0 0.1907347225388637 0.31896678746671592 0 0.17454868803294241 0.3194693524947117 0 0.17454868803294241 0.3194693524947117 0 0.1577588584549639 0.32268935943498389 0 0.17052907196452211 0.33615124421948478 0 0.159445085931053 0.29759510562868091 0 0.17454868803294241 0.3194693524947117 0 0.1577588584549639 0.32268935943498389 0 0.1577588584549639 0.32268935943498389 0 0.17052907196452211 0.33615124421948478 0 0.15607263097887469 0.34778361324128682 0 0.1577588584549639 0.32268935943498389 0 0.15607263097887469 0.34778361324128682 0 0.16969151812842551 0.34989872061356803 0 0.17517761552599589 0.34420721886046368 0 0.17052907196452211 0.33615124421948478 0 0.15127784395801261 0.33403963844837697 0 0.14696798147370599 0.33960345335891512 0 0.15607263097887469 0.34778361324128682 0 0.14696798147370599 0.33960345335891512 0 0.13568155980404001 0.3248942194652682 0 0.144839891153897 0.35169634228072788 0 0.1577588584549639 0.32268935943498389 0 0.15127784395801261 0.33403963844837697 0 0.15607263097887469 0.34778361324128682 0 0.15127784395801261 0.33403963844837697 0 0.13568155980404001 0.3248942194652682 0 0.15127784395801261 0.33403963844837697 0 0.14696798147370599 0.33960345335891512 0 0.13568155980404001 0.3248942194652682 0 0.1467637052741807 0.31172182333967302 0 0.1577588584549639 0.32268935943498389 0 0.1441087468027929 0.32209838216408188 0 0.1577588584549639 0.32268935943498389 0 0.15127784395801261 0.33403963844837697 0 0.1441087468027929 0.32209838216408188 0 0.15127784395801261 0.33403963844837697 0 0.1441087468027929 0.32209838216408188 0 0.13568155980404001 0.3248942194652682 0 0.1467637052741807 0.31172182333967302 0 0.1441087468027929 0.32209838216408188 0 0.13764736342799791 0.31481462402525751 0 0.11452902872101101 0.31249070351251301 0 0.1288837645331222 0.31095033786789977 0 0.13568155980404001 0.3248942194652682 0 0.11452902872101101 0.31249070351251301 0 0.13568155980404001 0.3248942194652682 0 0.1288837645331222 0.31095033786789977 0 0.13764736342799791 0.31481462402525751 0 0.13568155980404001 0.3248942194652682 0 0.1441087468027929 0.32209838216408188 0 0.13764736342799791 0.31481462402525751 0 0.13568155980404001 0.3248942194652682 0 0.1234486336920248 0.34059495640055099 0 0.119777836565921 0.3262924188833779 0 0.13568155980404001 0.3248942194652682 0 0.1234486336920248 0.34059495640055099 0 0.13568155980404001 0.3248942194652682 0 0.144839891153897 0.35169634228072788 0 0.13568155980404001 0.3248942194652682 0 0.144839891153897 0.35169634228072788 0 0.1234486336920248 0.34059495640055099 0 0.12549743850848091 0.3582220043772405 0 0.144839891153897 0.35169634228072788 0 0.116576803709314 0.37235565031961249 0 0.1362415799232633 0.369595767440064 0 0.12682402122345621 0.38155992324986981 0 0.12549743850848091 0.3582220043772405 0 0.1362415799232633 0.369595767440064 0 0.144839891153897 0.35169634228072788 0 0.116576803709314 0.37235565031961249 0 0.12549743850848091 0.3582220043772405 0 0.1362415799232633 0.369595767440064 0 0.15438640350278529 0.37287786704758968 0 0.15607263097887469 0.34778361324128682 0 0.144839891153897 0.35169634228072788 0 0.15400417279185519 0.37849643187253451 0 0.1362415799232633 0.369595767440064 0 0.144839891153897 0.35169634228072788 0 0.15400417279185519 0.37849643187253451 0 0.15438640350278529 0.37287786704758968 0 0.144839891153897 0.35169634228072788 0 0.15400417279185519 0.37849643187253451 0 0.15438640350278529 0.37287786704758968 0 0.15679502860447261 0.37581300233109832 0 0.15438640350278529 0.37287786704758968 0 0.15607263097887469 0.34778361324128682 0 0.144839891153897 0.35169634228072788 0 0.14696798147370599 0.33960345335891512 0 0.15607263097887469 0.34778361324128682 0 0.144839891153897 0.35169634228072788 0 0.15400417279185519 0.37849643187253451 0 0.13733543153282909 0.39441752260886598 0 0.1521398549498067 0.40631075814683149 0 0.13733543153282909 0.39441752260886598 0 0.13559664670645161 0.40724417354332237 0 0.1521398549498067 0.40631075814683149 0 0.15400417279185519 0.37849643187253451 0 0.1521398549498067 0.40631075814683149 0 0.15400417279185519 0.37849643187253451 0 0.1521398549498067 0.40631075814683149 0 0.16062131444514391 0.39788113611453119 0 0.15400417279185519 0.37849643187253451 0 0.13733543153282909 0.39441752260886598 0 0.1362415799232633 0.369595767440064 0 0.15400417279185519 0.37849643187253451 0 0.13733543153282909 0.39441752260886598 0 0.15438640350278529 0.37287786704758968 0 0.15400417279185519 0.37849643187253451 0 0.15438640350278529 0.37287786704758968 0 0.15400417279185519 0.37849643187253451 0 0.15679502860447261 0.37581300233109832 0 0.15400417279185519 0.37849643187253451 0 0.15679502860447261 0.37581300233109832 0 0.1362415799232633 0.369595767440064 0 0.12682402122345621 0.38155992324986981 0 0.13733543153282909 0.39441752260886598 0 0.1171422697284184 0.38987075263093668 0 0.12682402122345621 0.38155992324986981 0 0.13733543153282909 0.39441752260886598 0 0.1206742861548919 0.41034655833830619 0 0.13733543153282909 0.39441752260886598 0 0.1206742861548919 0.41034655833830619 0 0.1171422697284184 0.38987075263093668 0 0.13733543153282909 0.39441752260886598 0 0.1206742861548919 0.41034655833830619 0 0.13733543153282909 0.39441752260886598 0 0.13559664670645161 0.40724417354332237 0 0.13223701418828021 0.41790185507928762 0 0.13559664670645161 0.40724417354332237 0 0.1521398549498067 0.40631075814683149 0 0.1206742861548919 0.41034655833830619 0 0.13223701418828021 0.41790185507928762 0 0.13559664670645161 0.40724417354332237 0 0.1206742861548919 0.41034655833830619 0 0.13223701418828021 0.41790185507928762 0 0.1193868527292811 0.42954757301112673 0 0.13223701418828021 0.41790185507928762 0 0.1335355183980888 0.43504531656362028 0 0.13223701418828021 0.41790185507928762 0 0.1335355183980888 0.43504531656362028 0 0.15027087120263671 0.43412477089208418 0 0.13223701418828021 0.41790185507928762 0 0.15027087120263671 0.43412477089208418 0 0.1521398549498067 0.40631075814683149 0 0.15027087120263671 0.43412477089208418 0 0.1521398549498067 0.40631075814683149 0 0.15027087120263671 0.43412477089208418 0 0.1521398549498067 0.40631075814683149 0 0.16150809960923829 0.42143900686747909 0 0.1521398549498067 0.40631075814683149 0 0.16150809960923829 0.42143900686747909 0 0.16675790042693839 0.41253707755058772 0 0.16150809960923829 0.42143900686747909 0 0.16675790042693839 0.41253707755058772 0 0.17326355061012469 0.41985880950730448 0 0.15027087120263671 0.43412477089208418 0 0.16150809960923829 0.42143900686747909 0 0.16959573786454471 0.43051357476508478 0 0.16150809960923829 0.42143900686747909 0 0.16959573786454471 0.43051357476508478 0 0.17326355061012469 0.41985880950730448 0 0.16959573786454471 0.43051357476508478 0 0.18349649324834821 0.42874699702074948 0 0.17020535801677411 0.44735207533872862 0 0.16959573786454471 0.43051357476508478 0 0.18349649324834821 0.42874699702074948 0 0.17326355061012469 0.41985880950730448 0 0.18349649324834821 0.42874699702074948 0 0.18074312106708881 0.40499599602766512 0 0.18349649324834821 0.42874699702074948 0 0.18074312106708881 0.40499599602766512 0 0.19346812399641561 0.42050260394873312 0 0.18349649324834821 0.42874699702074948 0 0.17326355061012469 0.41985880950730448 0 0.18074312106708881 0.40499599602766512 0 0.16675790042693839 0.41253707755058772 0 0.17326355061012469 0.41985880950730448 0 0.18074312106708881 0.40499599602766512 0 0.16675790042693839 0.41253707755058772 0 0.18074312106708881 0.40499599602766512 0 0.16976634394811591 0.4019312455306947 0 0.18074312106708881 0.40499599602766512 0 0.19346812399641561 0.42050260394873312 0 0.18074312106708881 0.40499599602766512 0 0.16876907483577869 0.39040449917938352 0 0.17845906242395079 0.38529336393503 0 0.18074312106708881 0.40499599602766512 0 0.17845906242395079 0.38529336393503 0 0.18074312106708881 0.40499599602766512 0 0.17845906242395079 0.38529336393503 0 0.19002945721648559 0.39393575529677888 0 0.18074312106708881 0.40499599602766512 0 0.16876907483577869 0.39040449917938352 0 0.18074312106708881 0.40499599602766512 0 0.16976634394811591 0.4019312455306947 0 0.16876907483577869 0.39040449917938352 0 0.16675790042693839 0.41253707755058772 0 0.16976634394811591 0.4019312455306947 0 0.16062131444514391 0.39788113611453119 0 0.16976634394811591 0.4019312455306947 0 0.16062131444514391 0.39788113611453119 0 0.16876907483577869 0.39040449917938352 0 0.1521398549498067 0.40631075814683149 0 0.16675790042693839 0.41253707755058772 0 0.16062131444514391 0.39788113611453119 0 0.15400417279185519 0.37849643187253451 0 0.16062131444514391 0.39788113611453119 0 0.16876907483577869 0.39040449917938352 0 0.15400417279185519 0.37849643187253451 0 0.16062131444514391 0.39788113611453119 0 0.15400417279185519 0.37849643187253451 0 0.15679502860447261 0.37581300233109832 0 0.16876907483577869 0.39040449917938352 0 0.15679502860447261 0.37581300233109832 0 0.16876907483577869 0.39040449917938352 0 0.15679502860447261 0.37581300233109832 0 0.16876907483577869 0.39040449917938352 0 0.1697634339592034 0.37784365776798817 0 0.17617500378081249 0.36559073184239499 0 0.17845906242395079 0.38529336393503 0 0.17617500378081249 0.36559073184239499 0 0.17845906242395079 0.38529336393503 0 0.18593931670413691 0.3752368795642162 0 0.17617500378081249 0.36559073184239499 0 0.1697634339592034 0.37784365776798817 0 0.17845906242395079 0.38529336393503 0 0.16876907483577869 0.39040449917938352 0 0.1697634339592034 0.37784365776798817 0 0.17845906242395079 0.38529336393503 0 0.17845906242395079 0.38529336393503 0 0.18849936492810229 0.38342276492762312 0 0.19002945721648559 0.39393575529677888 0 0.17845906242395079 0.38529336393503 0 0.18593931670413691 0.3752368795642162 0 0.18849936492810229 0.38342276492762312 0 0.18593931670413691 0.3752368795642162 0 0.18849936492810229 0.38342276492762312 0 0.19956962336783579 0.37922506091446728 0 0.18849936492810229 0.38342276492762312 0 0.19956962336783579 0.37922506091446728 0 0.19002945721648559 0.39393575529677888 0 0.18074312106708881 0.40499599602766512 0 0.2026395896936084 0.40097489750404808 0 0.19002945721648559 0.39393575529677888 0 0.19956962336783579 0.37922506091446728 0 0.2026395896936084 0.40097489750404808 0 0.19002945721648559 0.39393575529677888 0 0.2026395896936084 0.40097489750404808 0 0.2148584142688568 0.39022059284666888 0 0.21865430562136121 0.411385400353733 0 0.2210570313218001 0.36938413631101652 0 0.19956962336783579 0.37922506091446728 0 0.2148584142688568 0.39022059284666888 0 0.19956962336783579 0.37922506091446728 0 0.2026395896936084 0.40097489750404808 0 0.2148584142688568 0.39022059284666888 0 0.2474566773157609 0.3703707932949149 0 0.2210570313218001 0.36938413631101652 0 0.2323715213396787 0.39013346915007951 0 0.2210570313218001 0.36938413631101652 0 0.2148584142688568 0.39022059284666888 0 0.2323715213396787 0.39013346915007951 0 0.2148584142688568 0.39022059284666888 0 0.2323715213396787 0.39013346915007951 0 0.21865430562136121 0.411385400353733 0 0.2323715213396787 0.39013346915007951 0 0.24232569649821981 0.40304022520306448 0 0.21865430562136121 0.411385400353733 0 0.2323715213396787 0.39013346915007951 0 0.24232569649821981 0.40304022520306448 0 0.24766926532239381 0.38690370427075149 0 0.2474566773157609 0.3703707932949149 0 0.2323715213396787 0.39013346915007951 0 0.24766926532239381 0.38690370427075149 0 0.23927435708334779 0.43307362113911219 0 0.23517149929222439 0.41917342738737368 0 0.25704784838902128 0.41565151785088977 0 0.23927435708334779 0.43307362113911219 0 0.25010005034069949 0.4423691664717086 0 0.25704784838902128 0.41565151785088977 0 0.24232569649821981 0.40304022520306448 0 0.23517149929222439 0.41917342738737368 0 0.25704784838902128 0.41565151785088977 0 0.24232569649821981 0.40304022520306448 0 0.23517149929222439 0.41917342738737368 0 0.21865430562136121 0.411385400353733 0 0.23517149929222439 0.41917342738737368 0 0.22479532096050561 0.42718359712528692 0 0.21865430562136121 0.411385400353733 0 0.22479532096050561 0.42718359712528692 0 0.20948879805643039 0.42905215608195307 0 0.2264410742401432 0.44047214575440302 0 0.23927435708334779 0.43307362113911219 0 0.23517149929222439 0.41917342738737368 0 0.22479532096050561 0.42718359712528692 0 0.23927435708334779 0.43307362113911219 0 0.22479532096050561 0.42718359712528692 0 0.2264410742401432 0.44047214575440302 0 0.22479532096050561 0.42718359712528692 0 0.20948879805643039 0.42905215608195307 0 0.21865430562136121 0.411385400353733 0 0.2026395896936084 0.40097489750404808 0 0.20948879805643039 0.42905215608195307 0 0.21865430562136121 0.411385400353733 0 0.2026395896936084 0.40097489750404808 0 0.20948879805643039 0.42905215608195307 0 0.18074312106708881 0.40499599602766512 0 0.2026395896936084 0.40097489750404808 0 0.19346812399641561 0.42050260394873312 0 0.2026395896936084 0.40097489750404808 0 0.20948879805643039 0.42905215608195307 0 0.19346812399641561 0.42050260394873312 0 0.18349649324834821 0.42874699702074948 0 0.1950311956225135 0.43260353859430623 0 0.19696703831954751 0.44515534153794212 0 0.20948879805643039 0.42905215608195307 0 0.20619312692574279 0.43600921186980068 0 0.19346812399641561 0.42050260394873312 0 0.20619312692574279 0.43600921186980068 0 0.19346812399641561 0.42050260394873312 0 0.20619312692574279 0.43600921186980068 0 0.19346812399641561 0.42050260394873312 0 0.1950311956225135 0.43260353859430623 0 0.18349649324834821 0.42874699702074948 0 0.19346812399641561 0.42050260394873312 0 0.1950311956225135 0.43260353859430623 0 0.19696703831954751 0.44515534153794212 0 0.19980256424313569 0.46173791264268382 0 0.18624986542960731 0.45249799801383378 0 0.18349649324834821 0.42874699702074948 0 0.19696703831954751 0.44515534153794212 0 0.18624986542960731 0.45249799801383378 0 0.20619312692574279 0.43600921186980068 0 0.1950311956225135 0.43260353859430623 0 0.19696703831954751 0.44515534153794212 0 0.18900323761086629 0.47624899900691842 0 0.18624986542960731 0.45249799801383378 0 0.19980256424313569 0.46173791264268382 0 0.18900323761086629 0.47624899900691842 0 0.18624986542960731 0.45249799801383378 0 0.19980256424313569 0.46173791264268382 0 0.21633800641925241 0.45712941465985801 0 0.20638206308574639 0.48000889658752199 0 0.19696703831954751 0.44515534153794212 0 0.19980256424313569 0.46173791264268382 0 0.21633800641925241 0.45712941465985801 0 0.20948879805643039 0.42905215608195307 0 0.20619312692574279 0.43600921186980068 0 0.21633800641925241 0.45712941465985801 0 0.20948879805643039 0.42905215608195307 0 0.21633800641925241 0.45712941465985801 0 0.2264410742401432 0.44047214575440302 0 0.20619312692574279 0.43600921186980068 0 0.19696703831954751 0.44515534153794212 0 0.21633800641925241 0.45712941465985801 0 0.20948879805643039 0.42905215608195307 0 0.21633800641925241 0.45712941465985801 0 0.21633800641925241 0.45712941465985801 0 0.2264410742401432 0.44047214575440302 0 0.23563915591399071 0.45171272858362183 0 0.2264410742401432 0.44047214575440302 0 0.23723056447902871 0.4424585520648181 0 0.23563915591399071 0.45171272858362183 0 0.23927435708334779 0.43307362113911219 0 0.2264410742401432 0.44047214575440302 0 0.23723056447902871 0.4424585520648181 0 0.21633800641925241 0.45712941465985801 0 0.24074617708957749 0.46811454400812552 0 0.23563915591399071 0.45171272858362183 0 0.24074617708957749 0.46811454400812552 0 0.24644854602702371 0.45601247985697763 0 0.23563915591399071 0.45171272858362183 0 0.24644854602702371 0.45601247985697763 0 0.24650911398149641 0.44253358810169852 0 0.23563915591399071 0.45171272858362183 0 0.23927435708334779 0.43307362113911219 0 0.24650911398149641 0.44253358810169852 0 0.25010005034069949 0.4423691664717086 0 0.23927435708334779 0.43307362113911219 0 0.24650911398149641 0.44253358810169852 0 0.23723056447902871 0.4424585520648181 0 0.24650911398149641 0.44253358810169852 0 0.23723056447902871 0.4424585520648181 0 0.23563915591399071 0.45171272858362183 0 0.24371879659911089 0.5 0 0.24094660912418289 0.48389445618370042 0 0.2231872147820744 0.48520667323776312 0 0.24371879659911089 0.5 0 0.24094660912418289 0.48389445618370042 0 0.25613424802596912 0.48225660748891308 0 0.24074617708957749 0.46811454400812552 0 0.24094660912418289 0.48389445618370042 0 0.2231872147820744 0.48520667323776312 0 0.24074617708957749 0.46811454400812552 0 0.24094660912418289 0.48389445618370042 0 0.25613424802596912 0.48225660748891308 0 0.21633800641925241 0.45712941465985801 0 0.24074617708957749 0.46811454400812552 0 0.2231872147820744 0.48520667323776312 0 0.21633800641925241 0.45712941465985801 0 0.2231872147820744 0.48520667323776312 0 0.24371879659911089 0.5 0 0.2231872147820744 0.48520667323776312 0 0.21773770319561819 0.5 0 0.2231872147820744 0.48520667323776312 0 0.21773770319561819 0.5 0 0.20638206308574639 0.48000889658752199 0 0.21773770319561819 0.5 0 0.20638206308574639 0.48000889658752199 0 0.19175660979212569 0.50000000000000289 0 0.21633800641925241 0.45712941465985801 0 0.2231872147820744 0.48520667323776312 0 0.20638206308574639 0.48000889658752199 0 0.19980256424313569 0.46173791264268382 0 0.20638206308574639 0.48000889658752199 0 0.18900323761086629 0.47624899900691842 0 0.20638206308574639 0.48000889658752199 0 0.18900323761086629 0.47624899900691842 0 0.19175660979212569 0.50000000000000289 0 0.18900323761086629 0.47624899900691842 0 0.19175660979212569 0.50000000000000289 0 0.18900323761086629 0.47624899900691842 0 0.19175660979212569 0.50000000000000289 0 0.16936138863524311 0.5 0 0.18900323761086629 0.47624899900691842 0 0.16936138863524311 0.5 0 0.16225523543644921 0.47829385077024522 0 0.16936138863524311 0.5 0 0.16225523543644921 0.47829385077024522 0 0.14696616747836069 0.5 0 0.18900323761086629 0.47624899900691842 0 0.16225523543644921 0.47829385077024522 0 0.17246023410211059 0.46161372792795652 0 0.18900323761086629 0.47624899900691842 0 0.17246023410211059 0.46161372792795652 0 0.18624986542960731 0.45249799801383378 0 0.17246023410211059 0.46161372792795652 0 0.18624986542960731 0.45249799801383378 0 0.17020535801677411 0.44735207533872862 0 0.18349649324834821 0.42874699702074948 0 0.18624986542960731 0.45249799801383378 0 0.17020535801677411 0.44735207533872862 0 0.18349649324834821 0.42874699702074948 0 0.18624986542960731 0.45249799801383378 0 0.15027087120263671 0.43412477089208418 0 0.16959573786454471 0.43051357476508478 0 0.15458747401685599 0.45367571651005673 0 0.16959573786454471 0.43051357476508478 0 0.17020535801677411 0.44735207533872862 0 0.15458747401685599 0.45367571651005673 0 0.16959573786454471 0.43051357476508478 0 0.15458747401685599 0.45367571651005673 0 0.17246023410211059 0.46161372792795652 0 0.17020535801677411 0.44735207533872862 0 0.15458747401685599 0.45367571651005673 0 0.16225523543644921 0.47829385077024522 0 0.17246023410211059 0.46161372792795652 0 0.15458747401685599 0.45367571651005673 0 0.15458747401685599 0.45367571651005673 0 0.13957921016916719 0.47683785825502861 0 0.15458747401685599 0.45367571651005673 0 0.13645195663379919 0.45836801864106941 0 0.13957921016916719 0.47683785825502861 0 0.1335355183980888 0.43504531656362028 0 0.15027087120263671 0.43412477089208418 0 0.1407345574073014 0.44537046774696909 0 0.15027087120263671 0.43412477089208418 0 0.15458747401685599 0.45367571651005673 0 0.1407345574073014 0.44537046774696909 0 0.15458747401685599 0.45367571651005673 0 0.1407345574073014 0.44537046774696909 0 0.13645195663379919 0.45836801864106941 0 0.1245588313953044 0.44862432540995739 0 0.1193868527292811 0.42954757301112673 0 0.1335355183980888 0.43504531656362028 0 0.1245588313953044 0.44862432540995739 0 0.1407345574073014 0.44537046774696909 0 0.13645195663379919 0.45836801864106941 0 0.1245588313953044 0.44862432540995739 0 0.1335355183980888 0.43504531656362028 0 0.1407345574073014 0.44537046774696909 0 0.1251756618815047 0.46682306625943959 0 0.13645195663379919 0.45836801864106941 0 0.13957921016916719 0.47683785825502861 0 0.1245588313953044 0.44862432540995739 0 0.1251756618815047 0.46682306625943959 0 0.13645195663379919 0.45836801864106941 0 0.1150790943589818 0.48220453878635672 0 0.1251756618815047 0.46682306625943959 0 0.13957921016916719 0.47683785825502861 0 0.12457094632147819 0.50000000000000044 0 0.13957921016916719 0.47683785825502861 0 0.12457094632147819 0.50000000000000044 0 0.1150790943589818 0.48220453878635672 0 0.13957921016916719 0.47683785825502861 0 0.12457094632147819 0.50000000000000044 0 0.13957921016916719 0.47683785825502861 0 0.14696616747836069 0.5 0 0.16225523543644921 0.47829385077024522 0 0.13957921016916719 0.47683785825502861 0 0.14696616747836069 0.5 0 0.16225523543644921 0.47829385077024522 0 0.15458747401685599 0.45367571651005673 0 0.13957921016916719 0.47683785825502861 0 0.35228432344461102 0.47116854909123018 0 0.35251619136917189 0.48765699462025791 0 0.33229647164791548 0.4777971448002758 0 0.35251619136917189 0.48765699462025791 0 0.36388323296178732 0.50000000000000155 0 0.34114914977655708 0.5 0 0.35251619136917189 0.48765699462025791 0 0.36388323296178732 0.50000000000000155 0 0.3741716791707464 0.47977193284585079 0 0.35228432344461102 0.47116854909123018 0 0.35251619136917189 0.48765699462025791 0 0.3741716791707464 0.47977193284585079 0 0.35228432344461102 0.47116854909123018 0 0.3741716791707464 0.47977193284585079 0 0.36764918343601088 0.45880108397121511 0 0.36764918343601088 0.45880108397121511 0 0.35814010893486509 0.4410464436922516 0 0.37940446514598042 0.43909705635749291 0 0.36764918343601088 0.45880108397121511 0 0.35814010893486509 0.4410464436922516 0 0.34210807705821628 0.45565562118548891 0 0.35814010893486509 0.4410464436922516 0 0.34210807705821628 0.45565562118548891 0 0.33526013429122209 0.43863800840916323 0 0.35228432344461102 0.47116854909123018 0 0.36764918343601088 0.45880108397121511 0 0.34210807705821628 0.45565562118548891 0 0.35228432344461102 0.47116854909123018 0 0.34210807705821628 0.45565562118548891 0 0.33229647164791548 0.4777971448002758 0 0.34210807705821628 0.45565562118548891 0 0.31691125037747331 0.45330799666615618 0 0.33229647164791548 0.4777971448002758 0 0.34210807705821628 0.45565562118548891 0 0.33526013429122209 0.43863800840916323 0 0.31691125037747331 0.45330799666615618 0 0.33526013429122209 0.43863800840916323 0 0.31691125037747331 0.45330799666615618 0 0.31844465913362469 0.43011707110907832 0 0.31691125037747331 0.45330799666615618 0 0.33229647164791548 0.4777971448002758 0 0.30571886582587399 0.47810719914666477 0 0.33229647164791548 0.4777971448002758 0 0.34114914977655708 0.5 0 0.31841506659132679 0.5 0 0.35251619136917189 0.48765699462025791 0 0.33229647164791548 0.4777971448002758 0 0.34114914977655708 0.5 0 0.33229647164791548 0.4777971448002758 0 0.31841506659132679 0.5 0 0.30571886582587399 0.47810719914666477 0 0.31841506659132679 0.5 0 0.30571886582587399 0.47810719914666477 0 0.29568098340609661 0.4999999999999985 0 0.30571886582587399 0.47810719914666477 0 0.27929036026456372 0.48084452936723138 0 0.28744488382628541 0.45622569809836683 0 0.30571886582587399 0.47810719914666477 0 0.29568098340609661 0.4999999999999985 0 0.27929036026456372 0.48084452936723138 0 0.29568098340609661 0.4999999999999985 0 0.26969989000260369 0.5 0 0.27929036026456372 0.48084452936723138 0 0.29568098340609661 0.4999999999999985 0 0.27929036026456372 0.48084452936723138 0 0.26969989000260369 0.5 0 0.27929036026456372 0.48084452936723138 0 0.25613424802596912 0.48225660748891308 0 0.27929036026456372 0.48084452936723138 0 0.25613424802596912 0.48225660748891308 0 0.26289973712303011 0.46168905873446497 0 0.27929036026456372 0.48084452936723138 0 0.26289973712303011 0.46168905873446497 0 0.24074617708957749 0.46811454400812552 0 0.25613424802596912 0.48225660748891308 0 0.26289973712303011 0.46168905873446497 0 0.24371879659911089 0.5 0 0.26969989000260369 0.5 0 0.25613424802596912 0.48225660748891308 0 0.25010005034069949 0.4423691664717086 0 0.26289973712303011 0.46168905873446497 0 0.2686643574836875 0.44506912820541999 0 0.24650911398149641 0.44253358810169852 0 0.26289973712303011 0.46168905873446497 0 0.25010005034069949 0.4423691664717086 0 0.2686643574836875 0.44506912820541999 0 0.26674975030799392 0.4297772829715607 0 0.24650911398149641 0.44253358810169852 0 0.25010005034069949 0.4423691664717086 0 0.26289973712303011 0.46168905873446497 0 0.24074617708957749 0.46811454400812552 0 0.24644854602702371 0.45601247985697763 0 0.26289973712303011 0.46168905873446497 0 0.24644854602702371 0.45601247985697763 0 0.24650911398149641 0.44253358810169852 0 0.26289973712303011 0.46168905873446497 0 0.26289973712303011 0.46168905873446497 0 0.2686643574836875 0.44506912820541999 0 0.28744488382628541 0.45622569809836683 0 0.27929036026456372 0.48084452936723138 0 0.26289973712303011 0.46168905873446497 0 0.28744488382628541 0.45622569809836683 0 0.2686643574836875 0.44506912820541999 0 0.28744488382628541 0.45622569809836683 0 0.28188090275486238 0.43412125094117721 0 0.28744488382628541 0.45622569809836683 0 0.30046790683272689 0.438290891916777 0 0.28188090275486238 0.43412125094117721 0 0.31691125037747331 0.45330799666615618 0 0.30571886582587399 0.47810719914666477 0 0.28744488382628541 0.45622569809836683 0 0.31691125037747331 0.45330799666615618 0 0.30046790683272689 0.438290891916777 0 0.31844465913362469 0.43011707110907832 0 0.31691125037747331 0.45330799666615618 0 0.28744488382628541 0.45622569809836683 0 0.30046790683272689 0.438290891916777 0 0.30046790683272689 0.438290891916777 0 0.29765783807138863 0.41768244276910682 0 0.31844465913362469 0.43011707110907832 0 0.29765783807138863 0.41768244276910682 0 0.31835154275133581 0.41290971567030971 0 0.31844465913362469 0.43011707110907832 0 0.29765783807138863 0.41768244276910682 0 0.30606647975957252 0.39843724007231401 0 0.31835154275133581 0.41290971567030971 0 0.29765783807138863 0.41768244276910682 0 0.27620099723501279 0.41098301816595578 0 0.28926507254987172 0.40080359814832273 0 0.29765783807138863 0.41768244276910682 0 0.28188090275486238 0.43412125094117721 0 0.27620099723501279 0.41098301816595578 0 0.30046790683272689 0.438290891916777 0 0.29765783807138863 0.41768244276910682 0 0.28188090275486238 0.43412125094117721 0 0.28188090275486238 0.43412125094117721 0 0.26674975030799392 0.4297772829715607 0 0.27620099723501279 0.41098301816595578 0 0.2686643574836875 0.44506912820541999 0 0.28188090275486238 0.43412125094117721 0 0.26674975030799392 0.4297772829715607 0 0.26674975030799392 0.4297772829715607 0 0.27620099723501279 0.41098301816595578 0 0.25704784838902128 0.41565151785088977 0 0.25010005034069949 0.4423691664717086 0 0.26674975030799392 0.4297772829715607 0 0.25704784838902128 0.41565151785088977 0 0.25010005034069949 0.4423691664717086 0 0.25704784838902128 0.41565151785088977 0 0.2474566773157609 0.3703707932949149 0 0.24766926532239381 0.38690370427075149 0 0.26399564643734308 0.38893386923007089 0 0.24232569649821981 0.40304022520306448 0 0.24766926532239381 0.38690370427075149 0 0.26399564643734308 0.38893386923007089 0 0.24232569649821981 0.40304022520306448 0 0.25704784838902128 0.41565151785088977 0 0.26399564643734308 0.38893386923007089 0 0.25704784838902128 0.41565151785088977 0 0.26399564643734308 0.38893386923007089 0 0.27620099723501279 0.41098301816595578 0 0.25704784838902128 0.41565151785088977 0 0.26399564643734308 0.38893386923007089 0 0.27620099723501279 0.41098301816595578 0 0.26399564643734308 0.38893386923007089 0 0.28037893903487537 0.39296885020435418 0 0.26399564643734308 0.38893386923007089 0 0.27094344448566487 0.36221622060925218 0 0.26399564643734308 0.38893386923007089 0 0.28236636008139232 0.378322948541302 0 0.27094344448566487 0.36221622060925218 0 0.26399564643734308 0.38893386923007089 0 0.28037893903487537 0.39296885020435418 0 0.28236636008139232 0.378322948541302 0 0.28037893903487537 0.39296885020435418 0 0.28236636008139232 0.378322948541302 0 0.2918982668273622 0.38833934477175608 0 0.2918982668273622 0.38833934477175608 0 0.29353138522673111 0.3765773255199083 0 0.30128880262851793 0.38342171904727451 0 0.28236636008139232 0.378322948541302 0 0.2918982668273622 0.38833934477175608 0 0.29353138522673111 0.3765773255199083 0 0.2918982668273622 0.38833934477175608 0 0.28926507254987172 0.40080359814832273 0 0.30606647975957252 0.39843724007231401 0 0.27620099723501279 0.41098301816595578 0 0.28037893903487537 0.39296885020435418 0 0.28926507254987172 0.40080359814832273 0 0.28037893903487537 0.39296885020435418 0 0.2918982668273622 0.38833934477175608 0 0.28926507254987172 0.40080359814832273 0 0.29765783807138863 0.41768244276910682 0 0.28926507254987172 0.40080359814832273 0 0.30606647975957252 0.39843724007231401 0 0.30606647975957252 0.39843724007231401 0 0.30128880262851793 0.38342171904727451 0 0.31803101630823061 0.38358596909255271 0 0.30329496193819733 0.37577223263012122 0 0.30128880262851793 0.38342171904727451 0 0.31803101630823061 0.38358596909255271 0 0.29353138522673111 0.3765773255199083 0 0.30329496193819733 0.37577223263012122 0 0.30128880262851793 0.38342171904727451 0 0.2918982668273622 0.38833934477175608 0 0.30606647975957252 0.39843724007231401 0 0.30128880262851793 0.38342171904727451 0 0.31803101630823061 0.38358596909255271 0 0.33140071385044212 0.40273946062578569 0 0.34690485964792822 0.37988960100396257 0 0.31803101630823061 0.38358596909255271 0 0.34690485964792822 0.37988960100396257 0 0.32851940340500208 0.36730010858516249 0 0.30606647975957252 0.39843724007231401 0 0.31803101630823061 0.38358596909255271 0 0.33140071385044212 0.40273946062578569 0 0.30606647975957252 0.39843724007231401 0 0.33140071385044212 0.40273946062578569 0 0.31835154275133581 0.41290971567030971 0 0.31803101630823061 0.38358596909255271 0 0.33140071385044212 0.40273946062578569 0 0.31835154275133581 0.41290971567030971 0 0.31844465913362469 0.43011707110907832 0 0.34477041139265358 0.42189295215901862 0 0.33526013429122209 0.43863800840916323 0 0.31844465913362469 0.43011707110907832 0 0.34477041139265358 0.42189295215901862 0 0.33140071385044212 0.40273946062578569 0 0.34477041139265358 0.42189295215901862 0 0.33140071385044212 0.40273946062578569 0 0.31835154275133581 0.41290971567030971 0 0.34477041139265358 0.42189295215901862 0 0.33140071385044212 0.40273946062578569 0 0.34477041139265358 0.42189295215901862 0 0.35347262282962311 0.40316843188599999 0 0.34477041139265358 0.42189295215901862 0 0.37232732519312528 0.41783479201437612 0 0.35347262282962311 0.40316843188599999 0 0.35814010893486509 0.4410464436922516 0 0.33526013429122209 0.43863800840916323 0 0.34477041139265358 0.42189295215901862 0 0.35814010893486509 0.4410464436922516 0 0.34477041139265358 0.42189295215901862 0 0.35814010893486509 0.4410464436922516 0 0.34477041139265358 0.42189295215901862 0 0.37232732519312528 0.41783479201437612 0 0.35814010893486509 0.4410464436922516 0 0.37232732519312528 0.41783479201437612 0 0.37940446514598042 0.43909705635749291 0 0.37232732519312528 0.41783479201437612 0 0.37195980406396628 0.39348535362685699 0 0.35347262282962311 0.40316843188599999 0 0.37195980406396628 0.39348535362685699 0 0.37167391256033222 0.37521463135135003 0 0.34690485964792822 0.37988960100396257 0 0.33140071385044212 0.40273946062578569 0 0.34690485964792822 0.37988960100396257 0 0.35347262282962311 0.40316843188599999 0 0.37195980406396628 0.39348535362685699 0 0.34690485964792822 0.37988960100396257 0 0.35347262282962311 0.40316843188599999 0 0.34409608628388971 0.35926381754937081 0 0.36224435733959109 0.35887041231462469 0 0.35314615327186699 0.33422487788189642 0 0.34690485964792822 0.37988960100396257 0 0.34409608628388971 0.35926381754937081 0 0.36224435733959109 0.35887041231462469 0 0.37167391256033222 0.37521463135135003 0 0.34690485964792822 0.37988960100396257 0 0.36224435733959109 0.35887041231462469 0 0.37167391256033222 0.37521463135135003 0 0.36224435733959109 0.35887041231462469 0 0.38348106972167939 0.36372441821644308 0 0.36224435733959109 0.35887041231462469 0 0.35314615327186699 0.33422487788189642 0 0.38077547966725939 0.3436945650772929 0 0.37456464198925898 0.32139242905704501 0 0.35314615327186699 0.33422487788189642 0 0.38077547966725939 0.3436945650772929 0 0.37456464198925898 0.32139242905704501 0 0.35314615327186699 0.33422487788189642 0 0.35353575540337362 0.30813282632437372 0 0.35314615327186699 0.33422487788189642 0 0.33623985083033398 0.32199467898297979 0 0.35353575540337362 0.30813282632437372 0 0.35314615327186699 0.33422487788189642 0 0.32890373601894241 0.34932867772060688 0 0.35314615327186699 0.33422487788189642 0 0.33623985083033398 0.32199467898297979 0 0.32890373601894241 0.34932867772060688 0 0.33623985083033398 0.32199467898297979 0 0.31523971987284582 0.3234837938845469 0 0.33140512298251801 0.30039200835908347 0 0.31523971987284582 0.3234837938845469 0 0.32890373601894241 0.34932867772060688 0 0.29907431676317359 0.34657557941001021 0 0.33623985083033398 0.32199467898297979 0 0.31523971987284582 0.3234837938845469 0 0.32890373601894241 0.34932867772060688 0 0.32890373601894241 0.34932867772060688 0 0.30466131876601932 0.36443247755931962 0 0.34409608628388971 0.35926381754937081 0 0.35314615327186699 0.33422487788189642 0 0.32890373601894241 0.34932867772060688 0 0.34409608628388971 0.35926381754937081 0 0.32890373601894241 0.34932867772060688 0 0.32851940340500208 0.36730010858516249 0 0.34690485964792822 0.37988960100396257 0 0.34409608628388971 0.35926381754937081 0 0.32851940340500208 0.36730010858516249 0 0.32890373601894241 0.34932867772060688 0 0.32851940340500208 0.36730010858516249 0 0.30466131876601932 0.36443247755931962 0 0.31803101630823061 0.38358596909255271 0 0.32851940340500208 0.36730010858516249 0 0.30466131876601932 0.36443247755931962 0 0.31803101630823061 0.38358596909255271 0 0.30466131876601932 0.36443247755931962 0 0.30329496193819733 0.37577223263012122 0 0.31803101630823061 0.38358596909255271 0 0.30466131876601932 0.36443247755931962 0 0.30466131876601932 0.36443247755931962 0 0.30261131434517802 0.3614956315915106 0 0.29353138522673111 0.3765773255199083 0 0.30329496193819733 0.37577223263012122 0 0.30466131876601932 0.36443247755931962 0 0.32890373601894241 0.34932867772060688 0 0.30261131434517802 0.3614956315915106 0 0.29907431676317359 0.34657557941001021 0 0.32890373601894241 0.34932867772060688 0 0.30466131876601932 0.36443247755931962 0 0.30261131434517802 0.3614956315915106 0 0.29907431676317359 0.34657557941001021 0 0.2837490054542719 0.35121148915158718 0 0.28290891365350129 0.36966736493547381 0 0.30261131434517802 0.3614956315915106 0 0.29907431676317359 0.34657557941001021 0 0.28290891365350129 0.36966736493547381 0 0.29907431676317359 0.34657557941001021 0 0.28290891365350129 0.36966736493547381 0 0.29907431676317359 0.34657557941001021 0 0.2837490054542719 0.35121148915158718 0 0.28817828641459969 0.34159419654602208 0 0.28236636008139232 0.378322948541302 0 0.30466131876601932 0.36443247755931962 0 0.28290891365350129 0.36966736493547381 0 0.30466131876601932 0.36443247755931962 0 0.30261131434517802 0.3614956315915106 0 0.28290891365350129 0.36966736493547381 0 0.28236636008139232 0.378322948541302 0 0.29353138522673111 0.3765773255199083 0 0.30466131876601932 0.36443247755931962 0 0.28236636008139232 0.378322948541302 0 0.30466131876601932 0.36443247755931962 0 0.2837490054542719 0.35121148915158718 0 0.28290891365350129 0.36966736493547381 0 0.27094344448566487 0.36221622060925218 0 0.28236636008139232 0.378322948541302 0 0.28290891365350129 0.36966736493547381 0 0.27094344448566487 0.36221622060925218 0 0.2837490054542719 0.35121148915158718 0 0.27094344448566487 0.36221622060925218 0 0.27789124253398673 0.33549857198843358 0 0.27094344448566487 0.36221622060925218 0 0.26202264097930822 0.34677012434368742 0 0.27789124253398673 0.33549857198843358 0 0.27094344448566487 0.36221622060925218 0 0.27789124253398673 0.33549857198843358 0 0.23422951982304371 0.34879287485911659 0 0.26202264097930822 0.34677012434368742 0 0.25613418267432547 0.35920505873643321 0 0.27094344448566487 0.36221622060925218 0 0.26202264097930822 0.34677012434368742 0 0.25613418267432547 0.35920505873643321 0 0.2474566773157609 0.3703707932949149 0 0.26399564643734308 0.38893386923007089 0 0.27094344448566487 0.36221622060925218 0 0.2474566773157609 0.3703707932949149 0 0.27094344448566487 0.36221622060925218 0 0.25613418267432547 0.35920505873643321 0 0.2484070731134084 0.33518760864609659 0 0.26202264097930822 0.34677012434368742 0 0.26120629141303953 0.3211025986772465 0 0.26202264097930822 0.34677012434368742 0 0.26120629141303953 0.3211025986772465 0 0.27789124253398673 0.33549857198843358 0 0.26120629141303953 0.3211025986772465 0 0.27789124253398673 0.33549857198843358 0 0.28483904058230852 0.30878092336761498 0 0.27789124253398673 0.33549857198843358 0 0.29485355438095728 0.3273452909826059 0 0.28483904058230852 0.30878092336761498 0 0.27789124253398673 0.33549857198843358 0 0.28483904058230852 0.30878092336761498 0 0.29485355438095728 0.3273452909826059 0 0.30497665561488019 0.30589086385610592 0 0.28483904058230852 0.30878092336761498 0 0.29907431676317359 0.34657557941001021 0 0.29485355438095728 0.3273452909826059 0 0.28817828641459969 0.34159419654602208 0 0.27789124253398673 0.33549857198843358 0 0.29485355438095728 0.3273452909826059 0 0.28817828641459969 0.34159419654602208 0 0.2837490054542719 0.35121148915158718 0 0.27789124253398673 0.33549857198843358 0 0.28817828641459969 0.34159419654602208 0 0.31523971987284582 0.3234837938845469 0 0.29907431676317359 0.34657557941001021 0 0.31523971987284582 0.3234837938845469 0 0.29907431676317359 0.34657557941001021 0 0.29485355438095728 0.3273452909826059 0 0.31523971987284582 0.3234837938845469 0 0.29485355438095728 0.3273452909826059 0 0.30497665561488019 0.30589086385610592 0 0.30497665561488019 0.30589086385610592 0 0.29178683863063021 0.28206327474679638 0 0.31371987863958117 0.28909836081800921 0 0.29178683863063021 0.28206327474679638 0 0.28483904058230852 0.30878092336761498 0 0.27093681246220769 0.29445401800231452 0 0.29178683863063021 0.28206327474679638 0 0.28483904058230852 0.30878092336761498 0 0.30497665561488019 0.30589086385610592 0 0.29178683863063021 0.28206327474679638 0 0.28483904058230852 0.30878092336761498 0 0.26120629141303953 0.3211025986772465 0 0.28483904058230852 0.30878092336761498 0 0.27093681246220769 0.29445401800231452 0 0.29178683863063021 0.28206327474679638 0 0.27093681246220769 0.29445401800231452 0 0.26505564879542298 0.2753766995855636 0 0.27093681246220769 0.29445401800231452 0 0.25160206588203021 0.29942390117296591 0 0.26505564879542298 0.2753766995855636 0 0.2363773045129002 0.27824385671198432 0 0.25160206588203021 0.29942390117296591 0 0.26505564879542298 0.2753766995855636 0 0.26120629141303953 0.3211025986772465 0 0.27093681246220769 0.29445401800231452 0 0.25160206588203021 0.29942390117296591 0 0.2534443558029531 0.25718739904821453 0 0.26505564879542298 0.2753766995855636 0 0.27800189464661479 0.25988198001208962 0 0.2363773045129002 0.27824385671198432 0 0.2534443558029531 0.25718739904821453 0 0.26505564879542298 0.2753766995855636 0 0.29178683863063021 0.28206327474679638 0 0.26505564879542298 0.2753766995855636 0 0.27800189464661479 0.25988198001208962 0 0.2534443558029531 0.25718739904821453 0 0.27800189464661479 0.25988198001208962 0 0.27732106216941438 0.23842693944476329 0 0.27800189464661479 0.25988198001208962 0 0.2987346366789474 0.25534562612597661 0 0.27732106216941438 0.23842693944476329 0 0.29178683863063021 0.28206327474679638 0 0.27800189464661479 0.25988198001208962 0 0.2987346366789474 0.25534562612597661 0 0.29178683863063021 0.28206327474679638 0 0.2987346366789474 0.25534562612597661 0 0.29178683863063021 0.28206327474679638 0 0.2987346366789474 0.25534562612597661 0 0.31557801769186661 0.26865344103016781 0 0.29178683863063021 0.28206327474679638 0 0.31557801769186661 0.26865344103016781 0 0.31371987863958117 0.28909836081800921 0 0.2987346366789474 0.25534562612597661 0 0.3203757203608496 0.25093943201190189 0 0.31557801769186661 0.26865344103016781 0 0.2987346366789474 0.25534562612597661 0 0.31557801769186661 0.26865344103016781 0 0.3203757203608496 0.25093943201190189 0 0.33114124776889542 0.26626847374046952 0 0.31557801769186661 0.26865344103016781 0 0.34090219402522959 0.25391427900408831 0 0.33114124776889542 0.26626847374046952 0 0.34565562190606058 0.27419504067671657 0 0.3203757203608496 0.25093943201190189 0 0.34090219402522959 0.25391427900408831 0 0.33114124776889542 0.26626847374046952 0 0.33114124776889542 0.26626847374046952 0 0.33242139870478687 0.28196125593435739 0 0.34565562190606058 0.27419504067671657 0 0.31557801769186661 0.26865344103016781 0 0.33242139870478687 0.28196125593435739 0 0.31557801769186661 0.26865344103016781 0 0.31371987863958117 0.28909836081800921 0 0.33242139870478687 0.28196125593435739 0 0.33114124776889542 0.26626847374046952 0 0.31557801769186661 0.26865344103016781 0 0.33242139870478687 0.28196125593435739 0 0.31371987863958117 0.28909836081800921 0 0.33140512298251801 0.30039200835908347 0 0.33242139870478687 0.28196125593435739 0 0.30497665561488019 0.30589086385610592 0 0.31371987863958117 0.28909836081800921 0 0.33140512298251801 0.30039200835908347 0 0.31523971987284582 0.3234837938845469 0 0.33140512298251801 0.30039200835908347 0 0.31523971987284582 0.3234837938845469 0 0.30497665561488019 0.30589086385610592 0 0.33140512298251801 0.30039200835908347 0 0.33623985083033398 0.32199467898297979 0 0.33140512298251801 0.30039200835908347 0 0.35353575540337362 0.30813282632437372 0 0.33140512298251801 0.30039200835908347 0 0.34604198987931822 0.29195569335781862 0 0.35353575540337362 0.30813282632437372 0 0.33140512298251801 0.30039200835908347 0 0.33242139870478687 0.28196125593435739 0 0.34604198987931822 0.29195569335781862 0 0.33242139870478687 0.28196125593435739 0 0.34604198987931822 0.29195569335781862 0 0.34565562190606058 0.27419504067671657 0 0.34604198987931822 0.29195569335781862 0 0.36217089797487989 0.28692900389057102 0 0.34565562190606058 0.27419504067671657 0 0.34604198987931822 0.29195569335781862 0 0.35353575540337362 0.30813282632437372 0 0.36217089797487989 0.28692900389057102 0 0.37456464198925898 0.32139242905704501 0 0.35353575540337362 0.30813282632437372 0 0.37440481658718677 0.30165485227959637 0 0.35353575540337362 0.30813282632437372 0 0.37440481658718677 0.30165485227959637 0 0.36217089797487989 0.28692900389057102 0 0.37440481658718677 0.30165485227959637 0 0.36217089797487989 0.28692900389057102 0 0.37937199580219311 0.28675377163844179 0 0.36217089797487989 0.28692900389057102 0 0.38004275002887539 0.27079106960291621 0 0.37937199580219311 0.28675377163844179 0 0.36217089797487989 0.28692900389057102 0 0.36125600308325378 0.26414153813299529 0 0.38004275002887539 0.27079106960291621 0 0.36217089797487989 0.28692900389057102 0 0.38004275002887539 0.27079106960291621 0 0.36125600308325378 0.26414153813299529 0 0.38082920604792603 0.25598700272303282 0 0.3697610787682693 0.2488426347359762 0 0.36125600308325378 0.26414153813299529 0 0.3697610787682693 0.2488426347359762 0 0.35316215757465602 0.23903359670842661 0 0.36125600308325378 0.26414153813299529 0 0.38082920604792603 0.25598700272303282 0 0.38004275002887539 0.27079106960291621 0 0.34090219402522959 0.25391427900408831 0 0.36125600308325378 0.26414153813299529 0 0.35316215757465602 0.23903359670842661 0 0.34090219402522959 0.25391427900408831 0 0.36125600308325378 0.26414153813299529 0 0.34565562190606058 0.27419504067671657 0 0.36217089797487989 0.28692900389057102 0 0.36125600308325378 0.26414153813299529 0 0.34565562190606058 0.27419504067671657 0 0.39372795176160258 0.2676706625230969 0 0.40252365708369331 0.27685379794997111 0 0.41043246190961608 0.2711882977806358 0 0.39372795176160258 0.2676706625230969 0 0.41043246190961608 0.2711882977806358 0 0.41238296584053602 0.26502303506551977 0 0.39372795176160258 0.2676706625230969 0 0.39208014240831368 0.28100002800768947 0 0.40252365708369331 0.27685379794997111 0 0.39372795176160258 0.2676706625230969 0 0.39791460208287083 0.25465313531526151 0 0.41736441934164697 0.25755599910979471 0 0.39791460208287083 0.25465313531526151 0 0.38082920604792603 0.25598700272303282 0 0.38498852767125491 0.24122135929535821 0 0.39372795176160258 0.2676706625230969 0 0.39791460208287083 0.25465313531526151 0 0.38004275002887539 0.27079106960291621 0 0.39791460208287083 0.25465313531526151 0 0.38004275002887539 0.27079106960291621 0 0.39791460208287083 0.25465313531526151 0 0.38082920604792603 0.25598700272303282 0 0.38004275002887539 0.27079106960291621 0 0.39208014240831368 0.28100002800768947 0 0.38004275002887539 0.27079106960291621 0 0.37937199580219311 0.28675377163844179 0 0.39372795176160258 0.2676706625230969 0 0.39208014240831368 0.28100002800768947 0 0.38004275002887539 0.27079106960291621 0 0.37440481658718677 0.30165485227959637 0 0.37937199580219311 0.28675377163844179 0 0.39112694868922909 0.29538637570333132 0 0.39208014240831368 0.28100002800768947 0 0.37937199580219311 0.28675377163844179 0 0.39112694868922909 0.29538637570333132 0 0.37440481658718677 0.30165485227959637 0 0.3915718274444141 0.31213243622415721 0 0.39112694868922909 0.29538637570333132 0 0.37456464198925898 0.32139242905704501 0 0.37440481658718677 0.30165485227959637 0 0.3915718274444141 0.31213243622415721 0 0.3915718274444141 0.31213243622415721 0 0.4058269875564855 0.30527560711842783 0 0.39112694868922909 0.29538637570333132 0 0.4058269875564855 0.30527560711842783 0 0.39112694868922909 0.29538637570333132 0 0.405687551084289 0.28854449062838011 0 0.39208014240831368 0.28100002800768947 0 0.39112694868922909 0.29538637570333132 0 0.405687551084289 0.28854449062838011 0 0.39208014240831368 0.28100002800768947 0 0.40252365708369331 0.27685379794997111 0 0.405687551084289 0.28854449062838011 0 0.405687551084289 0.28854449062838011 0 0.41777647073990831 0.28637758373020061 0 0.41332607278148659 0.27915168499345261 0 0.40252365708369331 0.27685379794997111 0 0.405687551084289 0.28854449062838011 0 0.41332607278148659 0.27915168499345261 0 0.405687551084289 0.28854449062838011 0 0.41777647073990831 0.28637758373020061 0 0.41900360983808521 0.29842181102374887 0 0.41777647073990831 0.28637758373020061 0 0.42246361238060792 0.27981844918841331 0 0.41332607278148659 0.27915168499345261 0 0.4058269875564855 0.30527560711842783 0 0.405687551084289 0.28854449062838011 0 0.41900360983808521 0.29842181102374887 0 0.4058269875564855 0.30527560711842783 0 0.41900360983808521 0.29842181102374887 0 0.42130762610054551 0.31189379470203998 0 0.42130762610054551 0.31189379470203998 0 0.43099470290820591 0.30272588760114733 0 0.43718165605476039 0.31627475053017418 0 0.41900360983808521 0.29842181102374887 0 0.42130762610054551 0.31189379470203998 0 0.43099470290820591 0.30272588760114733 0 0.43099470290820591 0.30272588760114733 0 0.42938091295782588 0.28706135344866468 0 0.43929316227989662 0.29353677626662678 0 0.41900360983808521 0.29842181102374887 0 0.43099470290820591 0.30272588760114733 0 0.42938091295782588 0.28706135344866468 0 0.41777647073990831 0.28637758373020061 0 0.42938091295782588 0.28706135344866468 0 0.42246361238060792 0.27981844918841331 0 0.41777647073990831 0.28637758373020061 0 0.41900360983808521 0.29842181102374887 0 0.42938091295782588 0.28706135344866468 0 0.42938091295782588 0.28706135344866468 0 0.43695759219084418 0.2767540398234889 0 0.440162453503671 0.28434894901030427 0 0.42938091295782588 0.28706135344866468 0 0.43929316227989662 0.29353677626662678 0 0.440162453503671 0.28434894901030427 0 0.42938091295782588 0.28706135344866468 0 0.43695759219084418 0.2767540398234889 0 0.42921722423797398 0.27494727629414728 0 0.43695759219084418 0.2767540398234889 0 0.43507476782807042 0.26728682763081651 0 0.42921722423797398 0.27494727629414728 0 0.43507476782807042 0.26728682763081651 0 0.42761951582762647 0.2678956241938048 0 0.42921722423797398 0.27494727629414728 0 0.43507476782807042 0.26728682763081651 0 0.42761951582762647 0.2678956241938048 0 0.43075412473327479 0.26209948808522249 0 0.42761951582762647 0.2678956241938048 0 0.42921722423797398 0.27494727629414728 0 0.42107268349080518 0.27212749068311481 0 0.42761951582762647 0.2678956241938048 0 0.42107268349080518 0.27212749068311481 0 0.42266338377475549 0.26507400714776491 0 0.42246361238060792 0.27981844918841331 0 0.42921722423797398 0.27494727629414728 0 0.42107268349080518 0.27212749068311481 0 0.42938091295782588 0.28706135344866468 0 0.42246361238060792 0.27981844918841331 0 0.42921722423797398 0.27494727629414728 0 0.42107268349080518 0.27212749068311481 0 0.41043246190961608 0.2711882977806358 0 0.41332607278148659 0.27915168499345261 0 0.42246361238060792 0.27981844918841331 0 0.42107268349080518 0.27212749068311481 0 0.41332607278148659 0.27915168499345261 0 0.42107268349080518 0.27212749068311481 0 0.41713912557021898 0.26728931373067483 0 0.41043246190961608 0.2711882977806358 0 0.42107268349080518 0.27212749068311481 0 0.41713912557021898 0.26728931373067483 0 0.42266338377475549 0.26507400714776491 0 0.41713912557021898 0.26728931373067483 0 0.41043246190961608 0.2711882977806358 0 0.41238296584053602 0.26502303506551977 0 0.40252365708369331 0.27685379794997111 0 0.41043246190961608 0.2711882977806358 0 0.41332607278148659 0.27915168499345261 0 0.39372795176160258 0.2676706625230969 0 0.42029596382120099 0.25721116849415748 0 0.39372795176160258 0.2676706625230969 0 0.42029596382120099 0.25721116849415748 0 0.41736441934164697 0.25755599910979471 0 0.39372795176160258 0.2676706625230969 0 0.41238296584053602 0.26502303506551977 0 0.42029596382120099 0.25721116849415748 0 0.39791460208287083 0.25465313531526151 0 0.41736441934164697 0.25755599910979471 0 0.41924950797967347 0.2478139921637027 0 0.41238296584053602 0.26502303506551977 0 0.4191441328353821 0.26303373797633922 0 0.42029596382120099 0.25721116849415748 0 0.41713912557021898 0.26728931373067483 0 0.41238296584053602 0.26502303506551977 0 0.4191441328353821 0.26303373797633922 0 0.41713912557021898 0.26728931373067483 0 0.4191441328353821 0.26303373797633922 0 0.42266338377475549 0.26507400714776491 0 0.4191441328353821 0.26303373797633922 0 0.42266338377475549 0.26507400714776491 0 0.42274349399712252 0.2611726377837012 0 0.4191441328353821 0.26303373797633922 0 0.42029596382120099 0.25721116849415748 0 0.42274349399712252 0.2611726377837012 0 0.42029596382120099 0.25721116849415748 0 0.44686397588079929 0.24675167446521809 0 0.42029596382120099 0.25721116849415748 0 0.42636659628021262 0.25851971824997888 0 0.43282806204381979 0.25443236744714892 0 0.41736441934164697 0.25755599910979471 0 0.44490961289443293 0.2457957572306515 0 0.41736441934164697 0.25755599910979471 0 0.42913832261543639 0.24699447791096979 0 0.44490961289443293 0.2457957572306515 0 0.41736441934164697 0.25755599910979471 0 0.42913832261543639 0.24699447791096979 0 0.41924950797967347 0.2478139921637027 0 0.42029596382120099 0.25721116849415748 0 0.41736441934164697 0.25755599910979471 0 0.44490961289443293 0.2457957572306515 0 0.42029596382120099 0.25721116849415748 0 0.43282806204381979 0.25443236744714892 0 0.44686397588079929 0.24675167446521809 0 0.42636659628021262 0.25851971824997888 0 0.42934226132332798 0.2587380786615443 0 0.43282806204381979 0.25443236744714892 0 0.42266338377475549 0.26507400714776491 0 0.42274349399712252 0.2611726377837012 0 0.42661527106030389 0.26358242378556213 0 0.42761951582762647 0.2678956241938048 0 0.42266338377475549 0.26507400714776491 0 0.42661527106030389 0.26358242378556213 0 0.42274349399712252 0.2611726377837012 0 0.42653699238337101 0.26065555067639812 0 0.42661527106030389 0.26358242378556213 0 0.42029596382120099 0.25721116849415748 0 0.42274349399712252 0.2611726377837012 0 0.42636659628021262 0.25851971824997888 0 0.42274349399712252 0.2611726377837012 0 0.42636659628021262 0.25851971824997888 0 0.42653699238337101 0.26065555067639812 0 0.42934226132332798 0.2587380786615443 0 0.42653699238337101 0.26065555067639812 0 0.43075412473327479 0.26209948808522249 0 0.42636659628021262 0.25851971824997888 0 0.42934226132332798 0.2587380786615443 0 0.42653699238337101 0.26065555067639812 0 0.42761951582762647 0.2678956241938048 0 0.42661527106030389 0.26358242378556213 0 0.43075412473327479 0.26209948808522249 0 0.42653699238337101 0.26065555067639812 0 0.42661527106030389 0.26358242378556213 0 0.43075412473327479 0.26209948808522249 0 0.42934226132332798 0.2587380786615443 0 0.43075412473327479 0.26209948808522249 0 0.43329746091787458 0.25819808100102742 0 0.43075412473327479 0.26209948808522249 0 0.43329746091787458 0.25819808100102742 0 0.43633568417636731 0.26039878887856083 0 0.43329746091787458 0.25819808100102742 0 0.43633568417636731 0.26039878887856083 0 0.43666706742917422 0.25694405104970047 0 0.43507476782807042 0.26728682763081651 0 0.43075412473327479 0.26209948808522249 0 0.43633568417636731 0.26039878887856083 0 0.43507476782807042 0.26728682763081651 0 0.43633568417636731 0.26039878887856083 0 0.44101560273439622 0.26276705339927592 0 0.42934226132332798 0.2587380786615443 0 0.43329746091787458 0.25819808100102742 0 0.43282806204381979 0.25443236744714892 0 0.43282806204381979 0.25443236744714892 0 0.43666706742917422 0.25694405104970047 0 0.43892265881731229 0.25512914748366478 0 0.43329746091787458 0.25819808100102742 0 0.43282806204381979 0.25443236744714892 0 0.43666706742917422 0.25694405104970047 0 0.44084314226191629 0.25265514603487932 0 0.44355953616649629 0.25378437378862162 0 0.43892265881731229 0.25512914748366478 0 0.43282806204381979 0.25443236744714892 0 0.44084314226191629 0.25265514603487932 0 0.44686397588079929 0.24675167446521809 0 0.43282806204381979 0.25443236744714892 0 0.44084314226191629 0.25265514603487932 0 0.43892265881731229 0.25512914748366478 0 0.44084314226191629 0.25265514603487932 0 0.44564303767459429 0.25053390313874319 0 0.44595081851542973 0.24893729020385941 0 0.44084314226191629 0.25265514603487932 0 0.44237697551374078 0.25218174332651411 0 0.44564303767459429 0.25053390313874319 0 0.44084314226191629 0.25265514603487932 0 0.44237697551374078 0.25218174332651411 0 0.44355953616649629 0.25378437378862162 0 0.44237697551374078 0.25218174332651411 0 0.44355953616649629 0.25378437378862162 0 0.44564303767459429 0.25053390313874319 0 0.44355953616649629 0.25378437378862162 0 0.44062927835293442 0.257441010911029 0 0.44579122742689342 0.25808841770533431 0 0.44355953616649629 0.25378437378862162 0 0.44062927835293442 0.257441010911029 0 0.43892265881731229 0.25512914748366478 0 0.43666706742917422 0.25694405104970047 0 0.44062927835293442 0.257441010911029 0 0.43892265881731229 0.25512914748366478 0 0.43633568417636731 0.26039878887856083 0 0.43666706742917422 0.25694405104970047 0 0.44062927835293442 0.257441010911029 0 0.43633568417636731 0.26039878887856083 0 0.44062927835293442 0.257441010911029 0 0.44101560273439622 0.26276705339927592 0 0.44101560273439622 0.26276705339927592 0 0.44646420979564372 0.26412188795271591 0 0.44179844882646813 0.26926538731719929 0 0.44101560273439622 0.26276705339927592 0 0.44579122742689342 0.25808841770533431 0 0.44646420979564372 0.26412188795271591 0 0.44062927835293442 0.257441010911029 0 0.44101560273439622 0.26276705339927592 0 0.44579122742689342 0.25808841770533431 0 0.44579122742689342 0.25808841770533431 0 0.44646420979564372 0.26412188795271591 0 0.45263360073816328 0.26182540769793172 0 0.44646420979564372 0.26412188795271591 0 0.45263360073816328 0.26182540769793172 0 0.45134155130977011 0.26908851937871231 0 0.44579122742689342 0.25808841770533431 0 0.45263360073816328 0.26182540769793172 0 0.45271780628015929 0.25519251002154553 0 0.45271780628015929 0.25519251002154553 0 0.45035689414277458 0.25017781365707259 0 0.44750331442648961 0.25283835842608032 0 0.45271780628015929 0.25519251002154553 0 0.45035689414277458 0.25017781365707259 0 0.45432005632295058 0.25059012213621162 0 0.44355953616649629 0.25378437378862162 0 0.44750331442648961 0.25283835842608032 0 0.44564303767459429 0.25053390313874319 0 0.45035689414277458 0.25017781365707259 0 0.44750331442648961 0.25283835842608032 0 0.44776448567704868 0.2491812010568866 0 0.44750331442648961 0.25283835842608032 0 0.44564303767459429 0.25053390313874319 0 0.44776448567704868 0.2491812010568866 0 0.44579122742689342 0.25808841770533431 0 0.45271780628015929 0.25519251002154553 0 0.44750331442648961 0.25283835842608032 0 0.44355953616649629 0.25378437378862162 0 0.44579122742689342 0.25808841770533431 0 0.44750331442648961 0.25283835842608032 0 0.43695759219084418 0.2767540398234889 0 0.44179844882646813 0.26926538731719929 0 0.44611174579105628 0.27761444523980172 0 0.43695759219084418 0.2767540398234889 0 0.44611174579105628 0.27761444523980172 0 0.440162453503671 0.28434894901030427 0 0.43695759219084418 0.2767540398234889 0 0.43507476782807042 0.26728682763081651 0 0.44179844882646813 0.26926538731719929 0 0.43507476782807042 0.26728682763081651 0 0.44101560273439622 0.26276705339927592 0 0.44179844882646813 0.26926538731719929 0 0.44646420979564372 0.26412188795271591 0 0.44179844882646813 0.26926538731719929 0 0.45134155130977011 0.26908851937871231 0 0.44179844882646813 0.26926538731719929 0 0.45134155130977011 0.26908851937871231 0 0.44611174579105628 0.27761444523980172 0 0.45134155130977011 0.26908851937871231 0 0.44611174579105628 0.27761444523980172 0 0.4561359923505236 0.27751143242804099 0 0.45263360073816328 0.26182540769793172 0 0.45134155130977011 0.26908851937871231 0 0.45975734070996671 0.26756667957150132 0 0.45134155130977011 0.26908851937871231 0 0.4561359923505236 0.27751143242804099 0 0.45975734070996671 0.26756667957150132 0 0.45975734070996671 0.26756667957150132 0 0.46804115896175841 0.27677925378769258 0 0.46932674917440981 0.2640255579951129 0 0.4561359923505236 0.27751143242804099 0 0.45975734070996671 0.26756667957150132 0 0.46804115896175841 0.27677925378769258 0 0.4561359923505236 0.27751143242804099 0 0.46804115896175841 0.27677925378769258 0 0.46353615195082992 0.28729458380556261 0 0.45872465074089658 0.25331745982173431 0 0.46337325671774132 0.2497144021282616 0 0.45872475370585081 0.24872107275690339 0 0.45872465074089658 0.25331745982173431 0 0.45432005632295058 0.25059012213621162 0 0.45872475370585081 0.24872107275690339 0 0.45271780628015929 0.25519251002154553 0 0.45872465074089658 0.25331745982173431 0 0.45432005632295058 0.25059012213621162 0 0.45271780628015929 0.25519251002154553 0 0.45872465074089658 0.25331745982173431 0 0.4596949001629474 0.25950999070645431 0 0.45263360073816328 0.26182540769793172 0 0.45975734070996671 0.26756667957150132 0 0.4596949001629474 0.25950999070645431 0 0.45263360073816328 0.26182540769793172 0 0.45271780628015929 0.25519251002154553 0 0.4596949001629474 0.25950999070645431 0 0.45975734070996671 0.26756667957150132 0 0.4596949001629474 0.25950999070645431 0 0.46932674917440981 0.2640255579951129 0 0.4596949001629474 0.25950999070645431 0 0.46538838786695341 0.25488349271716809 0 0.46932674917440981 0.2640255579951129 0 0.45872465074089658 0.25331745982173431 0 0.4596949001629474 0.25950999070645431 0 0.46538838786695341 0.25488349271716809 0 0.45872465074089658 0.25331745982173431 0 0.46538838786695341 0.25488349271716809 0 0.46337325671774132 0.2497144021282616 0 0.46538838786695341 0.25488349271716809 0 0.4685410882301036 0.25055002417303152 0 0.46337325671774132 0.2497144021282616 0 0.47253904757755599 0.25483184265888209 0 0.48028554519144229 0.25116001134618399 0 0.47247327378161452 0.24647843583022461 0 0.4685410882301036 0.25055002417303152 0 0.47253904757755599 0.25483184265888209 0 0.47247327378161452 0.24647843583022461 0 0.46538838786695341 0.25488349271716809 0 0.4685410882301036 0.25055002417303152 0 0.47253904757755599 0.25483184265888209 0 0.47253904757755599 0.25483184265888209 0 0.48028554519144229 0.25116001134618399 0 0.48414178509561268 0.26189404355996582 0 0.47253904757755599 0.25483184265888209 0 0.48414178509561268 0.26189404355996582 0 0.46932674917440981 0.2640255579951129 0 0.46538838786695341 0.25488349271716809 0 0.47253904757755599 0.25483184265888209 0 0.46932674917440981 0.2640255579951129 0 0.46804115896175841 0.27677925378769258 0 0.46932674917440981 0.2640255579951129 0 0.48269936863026808 0.27458249801164569 0 0.46804115896175841 0.27677925378769258 0 0.48269936863026808 0.27458249801164569 0 0.47926944305215802 0.28926307180191613 0 0.48414178509561268 0.26189404355996582 0 0.46932674917440981 0.2640255579951129 0 0.48269936863026808 0.27458249801164569 0 0.48269936863026808 0.27458249801164569 0 0.5 0.27589867209619989 0 0.47926944305215802 0.28926307180191613 0 0.48414178509561268 0.26189404355996582 0 0.48269936863026808 0.27458249801164569 0 0.5 0.27589867209619989 0 0.48414178509561268 0.26189404355996582 0 0.5 0.27589867209619989 0 0.5 0.25086567925177022 0 0.48028554519144229 0.25116001134618399 0 0.48414178509561268 0.26189404355996582 0 0.5 0.25086567925177022 0 0.50000000000000244 0.30093166494062951 0 0.48127673256947118 0.30430983046751447 0 0.48332255251725448 0.32148808099857368 0 0.50000000000000244 0.30093166494062951 0 0.48332255251725448 0.32148808099857368 0 0.50000000000000244 0.30093166494062951 0 0.47926944305215802 0.28926307180191613 0 0.48127673256947118 0.30430983046751447 0 0.5 0.27589867209619989 0 0.50000000000000244 0.30093166494062951 0 0.47926944305215802 0.28926307180191613 0 0.46804115896175841 0.27677925378769258 0 0.47926944305215802 0.28926307180191613 0 0.46353615195082992 0.28729458380556261 0 0.47926944305215802 0.28926307180191613 0 0.4641703758468288 0.30352308763037922 0 0.46353615195082992 0.28729458380556261 0 0.47926944305215802 0.28926307180191613 0 0.48127673256947118 0.30430983046751447 0 0.4641703758468288 0.30352308763037922 0 0.48127673256947118 0.30430983046751447 0 0.4641703758468288 0.30352308763037922 0 0.48332255251725448 0.32148808099857368 0 0.4641703758468288 0.30352308763037922 0 0.44586395248689958 0.30415161789323369 0 0.45610416458343139 0.31975923230291431 0 0.4641703758468288 0.30352308763037922 0 0.45006378954288062 0.28939607337978412 0 0.44586395248689958 0.30415161789323369 0 0.4641703758468288 0.30352308763037922 0 0.46353615195082992 0.28729458380556261 0 0.45006378954288062 0.28939607337978412 0 0.4561359923505236 0.27751143242804099 0 0.46353615195082992 0.28729458380556261 0 0.45006378954288062 0.28939607337978412 0 0.44611174579105628 0.27761444523980172 0 0.4561359923505236 0.27751143242804099 0 0.45006378954288062 0.28939607337978412 0 0.44611174579105628 0.27761444523980172 0 0.45006378954288062 0.28939607337978412 0 0.440162453503671 0.28434894901030427 0 0.45006378954288062 0.28939607337978412 0 0.43929316227989662 0.29353677626662678 0 0.44586395248689958 0.30415161789323369 0 0.45006378954288062 0.28939607337978412 0 0.43929316227989662 0.29353677626662678 0 0.440162453503671 0.28434894901030427 0 0.43099470290820591 0.30272588760114733 0 0.43929316227989662 0.29353677626662678 0 0.44586395248689958 0.30415161789323369 0 0.43099470290820591 0.30272588760114733 0 0.44586395248689958 0.30415161789323369 0 0.43718165605476039 0.31627475053017418 0 0.44586395248689958 0.30415161789323369 0 0.45610416458343139 0.31975923230291431 0 0.43718165605476039 0.31627475053017418 0 0.44261323704449179 0.33227418092406968 0 0.45610416458343139 0.31975923230291431 0 0.43718165605476039 0.31627475053017418 0 0.44261323704449179 0.33227418092406968 0 0.46664510503450518 0.34204449705651668 0 0.44690028031024492 0.34752514805059831 0 0.44261323704449179 0.33227418092406968 0 0.44690028031024492 0.34752514805059831 0 0.43631153634051362 0.34459766265198621 0 0.44261323704449179 0.33227418092406968 0 0.46664510503450518 0.34204449705651668 0 0.45610416458343139 0.31975923230291431 0 0.46664510503450518 0.34204449705651668 0 0.45610416458343139 0.31975923230291431 0 0.48332255251725448 0.32148808099857368 0 0.4641703758468288 0.30352308763037922 0 0.45610416458343139 0.31975923230291431 0 0.48332255251725448 0.32148808099857368 0 0.46664510503450518 0.34204449705651668 0 0.48451114845649113 0.33565029256570489 0 0.47969726156865988 0.34590652010897588 0 0.46664510503450518 0.34204449705651668 0 0.48332255251725448 0.32148808099857368 0 0.48451114845649113 0.33565029256570489 0 0.46664510503450518 0.34204449705651668 0 0.48332255251725448 0.32148808099857368 0 0.48451114845649113 0.33565029256570489 0 0.49289082316203608 0.34362289198630103 0 0.5 0.32518947267815712 0 0.49289082316203608 0.34362289198630103 0 0.5 0.32518947267815712 0 0.50000000000000067 0.34944728041568468 0 0.48451114845649113 0.33565029256570489 0 0.49289082316203608 0.34362289198630103 0 0.47969726156865988 0.34590652010897588 0 0.50000000000000244 0.30093166494062951 0 0.48332255251725448 0.32148808099857368 0 0.5 0.32518947267815712 0 0.48332255251725448 0.32148808099857368 0 0.48451114845649113 0.33565029256570489 0 0.5 0.32518947267815712 0 0.49245835780108971 0.36776542703825671 0 0.49999999999999989 0.35402027916292539 0 0.5 0.37799429172870619 0 0.49245835780108971 0.36776542703825671 0 0.47975330549418432 0.3674693091720761 0 0.48560058371838288 0.38737019940306688 0 0.4936364184951107 0.35511164448468308 0 0.47975330549418432 0.3674693091720761 0 0.49245835780108971 0.36776542703825671 0 0.4936364184951107 0.35511164448468308 0 0.47975330549418432 0.3674693091720761 0 0.4936364184951107 0.35511164448468308 0 0.48582318994100238 0.35645162680255771 0 0.47975330549418432 0.3674693091720761 0 0.49245835780108971 0.36776542703825671 0 0.49999999999999989 0.35402027916292539 0 0.4936364184951107 0.35511164448468308 0 0.49999999999999989 0.35402027916292539 0 0.4936364184951107 0.35511164448468308 0 0.50000000000000067 0.34944728041568468 0 0.4936364184951107 0.35511164448468308 0 0.50000000000000067 0.34944728041568468 0 0.49999999999999989 0.35402027916292539 0 0.4936364184951107 0.35511164448468308 0 0.49289082316203608 0.34362289198630103 0 0.4936364184951107 0.35511164448468308 0 0.50000000000000067 0.34944728041568468 0 0.49289082316203608 0.34362289198630103 0 0.48582318994100238 0.35645162680255771 0 0.47969726156865988 0.34590652010897588 0 0.49289082316203608 0.34362289198630103 0 0.48582318994100238 0.35645162680255771 0 0.4936364184951107 0.35511164448468308 0 0.48582318994100238 0.35645162680255771 0 0.49289082316203608 0.34362289198630103 0 0.4936364184951107 0.35511164448468308 0 0.48582318994100238 0.35645162680255771 0 0.48582318994100238 0.35645162680255771 0 0.47969726156865988 0.34590652010897588 0 0.46789542374637882 0.35952626995850723 0 0.46664510503450518 0.34204449705651668 0 0.47969726156865988 0.34590652010897588 0 0.46789542374637882 0.35952626995850723 0 0.48582318994100238 0.35645162680255771 0 0.46789542374637882 0.35952626995850723 0 0.48582318994100238 0.35645162680255771 0 0.47975330549418432 0.3674693091720761 0 0.46789542374637882 0.35952626995850723 0 0.47975330549418432 0.3674693091720761 0 0.46679848365484822 0.37106934381203233 0 0.46789542374637882 0.35952626995850723 0 0.48582318994100238 0.35645162680255771 0 0.47975330549418432 0.3674693091720761 0 0.46789542374637882 0.35952626995850723 0 0.44996765755175572 0.36260091311445952 0 0.46679848365484822 0.37106934381203233 0 0.46789542374637882 0.35952626995850723 0 0.45999325660827373 0.37183081434766591 0 0.47975330549418432 0.3674693091720761 0 0.46679848365484822 0.37106934381203233 0 0.45955194877055688 0.38545098176988057 0 0.46789542374637882 0.35952626995850723 0 0.45486994570187889 0.36701266254371828 0 0.44996765755175572 0.36260091311445952 0 0.46789542374637882 0.35952626995850723 0 0.45486994570187889 0.36701266254371828 0 0.45999325660827373 0.37183081434766591 0 0.45486994570187889 0.36701266254371828 0 0.45999325660827373 0.37183081434766591 0 0.44958108919277062 0.37386630656253622 0 0.46664510503450518 0.34204449705651668 0 0.46789542374637882 0.35952626995850723 0 0.44996765755175572 0.36260091311445952 0 0.46664510503450518 0.34204449705651668 0 0.44690028031024492 0.34752514805059831 0 0.44996765755175572 0.36260091311445952 0 0.46664510503450518 0.34204449705651668 0 0.44996765755175572 0.36260091311445952 0 0.44690028031024492 0.34752514805059831 0 0.4389638655799582 0.35610848650595922 0 0.44996765755175572 0.36260091311445952 0 0.44690028031024492 0.34752514805059831 0 0.4389638655799582 0.35610848650595922 0 0.43631153634051362 0.34459766265198621 0 0.44996765755175572 0.36260091311445952 0 0.43131508940349172 0.36579986106901202 0 0.44996765755175572 0.36260091311445952 0 0.44064676010304549 0.36993504783524561 0 0.43131508940349172 0.36579986106901202 0 0.4389638655799582 0.35610848650595922 0 0.44996765755175572 0.36260091311445952 0 0.43131508940349172 0.36579986106901202 0 0.45486994570187889 0.36701266254371828 0 0.44958108919277062 0.37386630656253622 0 0.44996765755175572 0.36260091311445952 0 0.44958108919277062 0.37386630656253622 0 0.44996765755175572 0.36260091311445952 0 0.44064676010304549 0.36993504783524561 0 0.44958108919277062 0.37386630656253622 0 0.44064676010304549 0.36993504783524561 0 0.4382929739574693 0.3784300210957664 0 0.43131508940349172 0.36579986106901202 0 0.41266252125522768 0.3689988090235648 0 0.43131508940349172 0.36579986106901202 0 0.41266252125522768 0.3689988090235648 0 0.4227542309794739 0.3851612790207215 0 0.44064676010304549 0.36993504783524561 0 0.43131508940349172 0.36579986106901202 0 0.4382929739574693 0.3784300210957664 0 0.43131508940349172 0.36579986106901202 0 0.41266252125522768 0.3689988090235648 0 0.42087744058994048 0.35107042078372691 0 0.41266252125522768 0.3689988090235648 0 0.42087744058994048 0.35107042078372691 0 0.39972819946397598 0.35824921226890122 0 0.42087744058994048 0.35107042078372691 0 0.40179343726629002 0.34103096628887541 0 0.39972819946397598 0.35824921226890122 0 0.4389638655799582 0.35610848650595922 0 0.43131508940349172 0.36579986106901202 0 0.42087744058994048 0.35107042078372691 0 0.4389638655799582 0.35610848650595922 0 0.42087744058994048 0.35107042078372691 0 0.43631153634051362 0.34459766265198621 0 0.42087744058994048 0.35107042078372691 0 0.43631153634051362 0.34459766265198621 0 0.42851453348263052 0.33700554967543761 0 0.44261323704449179 0.33227418092406968 0 0.42851453348263052 0.33700554967543761 0 0.42662072323971628 0.32549978530264673 0 0.44261323704449179 0.33227418092406968 0 0.43631153634051362 0.34459766265198621 0 0.42851453348263052 0.33700554967543761 0 0.42851453348263052 0.33700554967543761 0 0.42662072323971628 0.32549978530264673 0 0.41686658790796238 0.33646287580657369 0 0.42087744058994048 0.35107042078372691 0 0.42851453348263052 0.33700554967543761 0 0.41686658790796238 0.33646287580657369 0 0.44261323704449179 0.33227418092406968 0 0.43718165605476039 0.31627475053017418 0 0.42662072323971628 0.32549978530264673 0 0.42130762610054551 0.31189379470203998 0 0.43718165605476039 0.31627475053017418 0 0.42662072323971628 0.32549978530264673 0 0.42130762610054551 0.31189379470203998 0 0.42662072323971628 0.32549978530264673 0 0.40821807700601981 0.32316492663609542 0 0.4058269875564855 0.30527560711842783 0 0.42130762610054551 0.31189379470203998 0 0.40821807700601981 0.32316492663609542 0 0.42662072323971628 0.32549978530264673 0 0.40821807700601981 0.32316492663609542 0 0.41686658790796238 0.33646287580657369 0 0.42087744058994048 0.35107042078372691 0 0.41686658790796238 0.33646287580657369 0 0.40179343726629002 0.34103096628887541 0 0.40821807700601981 0.32316492663609542 0 0.41686658790796238 0.33646287580657369 0 0.40179343726629002 0.34103096628887541 0 0.40821807700601981 0.32316492663609542 0 0.40179343726629002 0.34103096628887541 0 0.39138469267464848 0.32828306465669321 0 0.40179343726629002 0.34103096628887541 0 0.39138469267464848 0.32828306465669321 0 0.38077547966725939 0.3436945650772929 0 0.3915718274444141 0.31213243622415721 0 0.4058269875564855 0.30527560711842783 0 0.40821807700601981 0.32316492663609542 0 0.3915718274444141 0.31213243622415721 0 0.40821807700601981 0.32316492663609542 0 0.39138469267464848 0.32828306465669321 0 0.37456464198925898 0.32139242905704501 0 0.3915718274444141 0.31213243622415721 0 0.39138469267464848 0.32828306465669321 0 0.37456464198925898 0.32139242905704501 0 0.39138469267464848 0.32828306465669321 0 0.38077547966725939 0.3436945650772929 0 0.36224435733959109 0.35887041231462469 0 0.38077547966725939 0.3436945650772929 0 0.38348106972167939 0.36372441821644308 0 0.38077547966725939 0.3436945650772929 0 0.38348106972167939 0.36372441821644308 0 0.39972819946397598 0.35824921226890122 0 0.37167391256033222 0.37521463135135003 0 0.38348106972167939 0.36372441821644308 0 0.39602571202410219 0.38241426354668723 0 0.38348106972167939 0.36372441821644308 0 0.39972819946397598 0.35824921226890122 0 0.39602571202410219 0.38241426354668723 0 0.41266252125522768 0.3689988090235648 0 0.39972819946397598 0.35824921226890122 0 0.39602571202410219 0.38241426354668723 0 0.40179343726629002 0.34103096628887541 0 0.38077547966725939 0.3436945650772929 0 0.39972819946397598 0.35824921226890122 0 0.39602571202410219 0.38241426354668723 0 0.39064060019879732 0.40863636359902872 0 0.40895189944902949 0.39943400267836859 0 0.39602571202410219 0.38241426354668723 0 0.40895189944902949 0.39943400267836859 0 0.40985068205198938 0.38451681344200528 0 0.41266252125522768 0.3689988090235648 0 0.39602571202410219 0.38241426354668723 0 0.40985068205198938 0.38451681344200528 0 0.37195980406396628 0.39348535362685699 0 0.37167391256033222 0.37521463135135003 0 0.39602571202410219 0.38241426354668723 0 0.37195980406396628 0.39348535362685699 0 0.39602571202410219 0.38241426354668723 0 0.39064060019879732 0.40863636359902872 0 0.37232732519312528 0.41783479201437612 0 0.39064060019879732 0.40863636359902872 0 0.39759532474751902 0.42791378389317197 0 0.37232732519312528 0.41783479201437612 0 0.37195980406396628 0.39348535362685699 0 0.39064060019879732 0.40863636359902872 0 0.39759532474751902 0.42791378389317197 0 0.39440344837374369 0.44310821858019062 0 0.37940446514598042 0.43909705635749291 0 0.37232732519312528 0.41783479201437612 0 0.39759532474751902 0.42791378389317197 0 0.37940446514598042 0.43909705635749291 0 0.39759532474751902 0.42791378389317197 0 0.40374455096497419 0.41480208460736079 0 0.41180799086388392 0.42906747725081951 0 0.39759532474751902 0.42791378389317197 0 0.40742269761138872 0.44115545534377398 0 0.39440344837374369 0.44310821858019062 0 0.39759532474751902 0.42791378389317197 0 0.41180799086388392 0.42906747725081951 0 0.40742269761138872 0.44115545534377398 0 0.39064060019879732 0.40863636359902872 0 0.39759532474751902 0.42791378389317197 0 0.40374455096497419 0.41480208460736079 0 0.39064060019879732 0.40863636359902872 0 0.40374455096497419 0.41480208460736079 0 0.40895189944902949 0.39943400267836859 0 0.40374455096497419 0.41480208460736079 0 0.41721849027168179 0.41698806603538602 0 0.40895189944902949 0.39943400267836859 0 0.40374455096497419 0.41480208460736079 0 0.41721849027168179 0.41698806603538602 0 0.41180799086388392 0.42906747725081951 0 0.41180799086388392 0.42906747725081951 0 0.41922948897669832 0.44036094215621657 0 0.40742269761138872 0.44115545534377398 0 0.41721849027168179 0.41698806603538602 0 0.41180799086388392 0.42906747725081951 0 0.42694085117959252 0.43028492687192721 0 0.41180799086388392 0.42906747725081951 0 0.42694085117959252 0.43028492687192721 0 0.41922948897669832 0.44036094215621657 0 0.42694085117959252 0.43028492687192721 0 0.43878330189553238 0.42219265230264191 0 0.43714136522124047 0.44481589248670028 0 0.41721849027168179 0.41698806603538602 0 0.42694085117959252 0.43028492687192721 0 0.42991690001532379 0.41297570065482031 0 0.41721849027168179 0.41698806603538602 0 0.42991690001532379 0.41297570065482031 0 0.42426936332853671 0.40070075562100449 0 0.42694085117959252 0.43028492687192721 0 0.42991690001532379 0.41297570065482031 0 0.43878330189553238 0.42219265230264191 0 0.42991690001532379 0.41297570065482031 0 0.44274175536901528 0.41425647126022702 0 0.43878330189553238 0.42219265230264191 0 0.42991690001532379 0.41297570065482031 0 0.43935059204692911 0.40343265436768461 0 0.44274175536901528 0.41425647126022702 0 0.42991690001532379 0.41297570065482031 0 0.42426936332853671 0.40070075562100449 0 0.43935059204692911 0.40343265436768461 0 0.42426936332853671 0.40070075562100449 0 0.43430706458723228 0.39036076600241609 0 0.43935059204692911 0.40343265436768461 0 0.42426936332853671 0.40070075562100449 0 0.4227542309794739 0.3851612790207215 0 0.43430706458723228 0.39036076600241609 0 0.41721849027168179 0.41698806603538602 0 0.42426936332853671 0.40070075562100449 0 0.40895189944902949 0.39943400267836859 0 0.42426936332853671 0.40070075562100449 0 0.40895189944902949 0.39943400267836859 0 0.4227542309794739 0.3851612790207215 0 0.41266252125522768 0.3689988090235648 0 0.40985068205198938 0.38451681344200528 0 0.4227542309794739 0.3851612790207215 0 0.40895189944902949 0.39943400267836859 0 0.40985068205198938 0.38451681344200528 0 0.4227542309794739 0.3851612790207215 0 0.43131508940349172 0.36579986106901202 0 0.4227542309794739 0.3851612790207215 0 0.4382929739574693 0.3784300210957664 0 0.4227542309794739 0.3851612790207215 0 0.43430706458723228 0.39036076600241609 0 0.4382929739574693 0.3784300210957664 0 0.44958108919277062 0.37386630656253622 0 0.4382929739574693 0.3784300210957664 0 0.44686816262375267 0.38407911990690369 0 0.43430706458723228 0.39036076600241609 0 0.4382929739574693 0.3784300210957664 0 0.44686816262375267 0.38407911990690369 0 0.45999325660827373 0.37183081434766591 0 0.44958108919277062 0.37386630656253622 0 0.44686816262375267 0.38407911990690369 0 0.43430706458723228 0.39036076600241609 0 0.44686816262375267 0.38407911990690369 0 0.43935059204692911 0.40343265436768461 0 0.43935059204692911 0.40343265436768461 0 0.45955194877055688 0.38545098176988057 0 0.45821385425375311 0.40656640142481049 0 0.43935059204692911 0.40343265436768461 0 0.45955194877055688 0.38545098176988057 0 0.44686816262375267 0.38407911990690369 0 0.43935059204692911 0.40343265436768461 0 0.45955194877055688 0.38545098176988057 0 0.46898357987396838 0.38701785529844313 0 0.45821385425375311 0.40656640142481049 0 0.46898357987396838 0.38701785529844313 0 0.47271663233851852 0.40285990736948429 0 0.45821385425375311 0.40656640142481049 0 0.45955194877055688 0.38545098176988057 0 0.46898357987396838 0.38701785529844313 0 0.45821385425375311 0.40656640142481049 0 0.45999325660827373 0.37183081434766591 0 0.44686816262375267 0.38407911990690369 0 0.45955194877055688 0.38545098176988057 0 0.46679848365484822 0.37106934381203233 0 0.45999325660827373 0.37183081434766591 0 0.45955194877055688 0.38545098176988057 0 0.47975330549418432 0.3674693091720761 0 0.46898357987396838 0.38701785529844313 0 0.48560058371838288 0.38737019940306688 0 0.47975330549418432 0.3674693091720761 0 0.45955194877055688 0.38545098176988057 0 0.47975330549418432 0.3674693091720761 0 0.46898357987396838 0.38701785529844313 0 0.47975330549418432 0.3674693091720761 0 0.45955194877055688 0.38545098176988057 0 0.46898357987396838 0.38701785529844313 0 0.46898357987396838 0.38701785529844313 0 0.47271663233851852 0.40285990736948429 0 0.48560058371838288 0.38737019940306688 0 0.47271663233851852 0.40285990736948429 0 0.48560058371838288 0.38737019940306688 0 0.48548687588356398 0.40819989169729559 0 0.5 0.40196830429448699 0 0.48560058371838288 0.38737019940306688 0 0.48548687588356398 0.40819989169729559 0 0.49245835780108971 0.36776542703825671 0 0.48560058371838288 0.38737019940306688 0 0.5 0.37799429172870619 0 0.5 0.40196830429448699 0 0.48560058371838288 0.38737019940306688 0 0.5 0.37799429172870619 0 0.5 0.42594231686026801 0 0.48104048787602621 0.42204910430643439 0 0.47581029945015207 0.43896135360210808 0 0.5 0.42594231686026801 0 0.48548687588356398 0.40819989169729559 0 0.48104048787602621 0.42204910430643439 0 0.5 0.40196830429448699 0 0.5 0.42594231686026801 0 0.48548687588356398 0.40819989169729559 0 0.48548687588356398 0.40819989169729559 0 0.47403074823880009 0.41305013581550493 0 0.48104048787602621 0.42204910430643439 0 0.47271663233851852 0.40285990736948429 0 0.48548687588356398 0.40819989169729559 0 0.47403074823880009 0.41305013581550493 0 0.47271663233851852 0.40285990736948429 0 0.47403074823880009 0.41305013581550493 0 0.4634548624882322 0.41426751339796453 0 0.47403074823880009 0.41305013581550493 0 0.46947205171674938 0.42405732980072802 0 0.48104048787602621 0.42204910430643439 0 0.47403074823880009 0.41305013581550493 0 0.46947205171674938 0.42405732980072802 0 0.4634548624882322 0.41426751339796453 0 0.46947205171674938 0.42405732980072802 0 0.48104048787602621 0.42204910430643439 0 0.47581029945015207 0.43896135360210808 0 0.46947205171674938 0.42405732980072802 0 0.4634548624882322 0.41426751339796453 0 0.45162059890030271 0.42800637777816791 0 0.46947205171674938 0.42405732980072802 0 0.45162059890030271 0.42800637777816791 0 0.47581029945015207 0.43896135360210808 0 0.4634548624882322 0.41426751339796453 0 0.45162059890030271 0.42800637777816791 0 0.44744412863353872 0.42611494755117829 0 0.45162059890030271 0.42800637777816791 0 0.47581029945015207 0.43896135360210808 0 0.4634548624882322 0.41426751339796453 0 0.45821385425375311 0.40656640142481049 0 0.44744412863353872 0.42611494755117829 0 0.47271663233851852 0.40285990736948429 0 0.4634548624882322 0.41426751339796453 0 0.45821385425375311 0.40656640142481049 0 0.4634548624882322 0.41426751339796453 0 0.45162059890030271 0.42800637777816791 0 0.43935059204692911 0.40343265436768461 0 0.45821385425375311 0.40656640142481049 0 0.44274175536901528 0.41425647126022702 0 0.45821385425375311 0.40656640142481049 0 0.44274175536901528 0.41425647126022702 0 0.44744412863353872 0.42611494755117829 0 0.45821385425375311 0.40656640142481049 0 0.44744412863353872 0.42611494755117829 0 0.44274175536901528 0.41425647126022702 0 0.44744412863353872 0.42611494755117829 0 0.43878330189553238 0.42219265230264191 0 0.44744412863353872 0.42611494755117829 0 0.43714136522124047 0.44481589248670028 0 0.44744412863353872 0.42611494755117829 0 0.43878330189553238 0.42219265230264191 0 0.43714136522124047 0.44481589248670028 0 0.45162059890030271 0.42800637777816791 0 0.44744412863353872 0.42611494755117829 0 0.43714136522124047 0.44481589248670028 0 0.45162059890030271 0.42800637777816791 0 0.43714136522124047 0.44481589248670028 0 0.45162059890030271 0.42800637777816791 0 0.44744412863353872 0.42611494755117829 0 0.44744412863353872 0.42611494755117829 0 0.43878330189553238 0.42219265230264191 0 0.45162059890030271 0.42800637777816791 0 0.45465535760499037 0.4507850610977534 0 0.43714136522124047 0.44481589248670028 0 0.44120870952789809 0.45869566431422049 0 0.45465535760499037 0.4507850610977534 0 0.43714136522124047 0.44481589248670028 0 0.44120870952789809 0.45869566431422049 0 0.45465535760499037 0.4507850610977534 0 0.44869178898555118 0.47114104043810773 0 0.44120870952789809 0.45869566431422049 0 0.44869178898555118 0.47114104043810773 0 0.42434632629980978 0.46804066323432031 0 0.45465535760499037 0.4507850610977534 0 0.476961307660139 0.46152138725080932 0 0.44869178898555118 0.47114104043810773 0 0.476961307660139 0.46152138725080932 0 0.44869178898555118 0.47114104043810773 0 0.45162059890030271 0.42800637777816791 0 0.45465535760499037 0.4507850610977534 0 0.47581029945015207 0.43896135360210808 0 0.47581029945015207 0.43896135360210808 0 0.476961307660139 0.46152138725080932 0 0.50000000000000111 0.44991632942604892 0 0.45465535760499037 0.4507850610977534 0 0.47581029945015207 0.43896135360210808 0 0.476961307660139 0.46152138725080932 0 0.5 0.42594231686026801 0 0.47581029945015207 0.43896135360210808 0 0.50000000000000111 0.44991632942604892 0 0.47581029945015207 0.43896135360210808 0 0.50000000000000111 0.44991632942604892 0 0.476961307660139 0.46152138725080932 0 0.5 0.5 0 0.44869178898555118 0.47114104043810773 0 0.476961307660139 0.46152138725080932 0 0.50000000000000111 0.44991632942604892 0 0.5 0.5 0 0.5 0.5 0 0.44869178898555118 0.47114104043810773 0 0.43997638964765301 0.5 0 0.43997638964765301 0.5 0 0.42042227031096352 0.48076069362540602 0 0.39604179009403911 0.5 0 0.42042227031096352 0.48076069362540602 0 0.39215275163637558 0.49038034681270443 0 0.41106133500613629 0.47509323044648699 0 0.42042227031096352 0.48076069362540602 0 0.4026676317325032 0.47825636614921918 0 0.42042227031096352 0.48076069362540602 0 0.4199828204326494 0.47096228719320171 0 0.42434632629980978 0.46804066323432031 0 0.41106133500613629 0.47509323044648699 0 0.42042227031096352 0.48076069362540602 0 0.4199828204326494 0.47096228719320171 0 0.44869178898555118 0.47114104043810773 0 0.42042227031096352 0.48076069362540602 0 0.42434632629980978 0.46804066323432031 0 0.44869178898555118 0.47114104043810773 0 0.43997638964765301 0.5 0 0.42042227031096352 0.48076069362540602 0 0.44869178898555118 0.47114104043810773 0 0.42042227031096352 0.48076069362540602 0 0.42410135011368821 0.45995456146659341 0 0.42434632629980978 0.46804066323432031 0 0.43714136522124047 0.44481589248670028 0 0.42434632629980978 0.46804066323432031 0 0.43714136522124047 0.44481589248670028 0 0.44120870952789809 0.45869566431422049 0 0.42434632629980978 0.46804066323432031 0 0.43714136522124047 0.44481589248670028 0 0.4199828204326494 0.47096228719320171 0 0.42410135011368821 0.45995456146659341 0 0.42434632629980978 0.46804066323432031 0 0.42694085117959252 0.43028492687192721 0 0.43714136522124047 0.44481589248670028 0 0.41922948897669832 0.44036094215621657 0 0.42410135011368821 0.45995456146659341 0 0.43714136522124047 0.44481589248670028 0 0.41710980119171742 0.45111629362714378 0 0.43714136522124047 0.44481589248670028 0 0.41922948897669832 0.44036094215621657 0 0.41710980119171742 0.45111629362714378 0 0.42410135011368821 0.45995456146659341 0 0.43714136522124047 0.44481589248670028 0 0.41922948897669832 0.44036094215621657 0 0.41710980119171742 0.45111629362714378 0 0.40742269761138872 0.44115545534377398 0 0.41710980119171742 0.45111629362714378 0 0.40742269761138872 0.44115545534377398 0 0.40439013151477049 0.45536601655510123 0 0.41106133500613629 0.47509323044648699 0 0.42410135011368821 0.45995456146659341 0 0.41167723228106912 0.46214528915739589 0 0.41106133500613629 0.47509323044648699 0 0.42410135011368821 0.45995456146659341 0 0.41106133500613629 0.47509323044648699 0 0.4199828204326494 0.47096228719320171 0 0.42410135011368821 0.45995456146659341 0 0.42410135011368821 0.45995456146659341 0 0.41710980119171742 0.45111629362714378 0 0.41167723228106912 0.46214528915739589 0 0.41710980119171742 0.45111629362714378 0 0.41167723228106912 0.46214528915739589 0 0.40439013151477049 0.45536601655510123 0 0.41167723228106912 0.46214528915739589 0 0.40312355604321981 0.46783672693786521 0 0.40439013151477049 0.45536601655510123 0 0.41106133500613629 0.47509323044648699 0 0.41167723228106912 0.46214528915739589 0 0.40312355604321981 0.46783672693786521 0 0.40312355604321981 0.46783672693786521 0 0.40439013151477049 0.45536601655510123 0 0.39390200521263352 0.46075485415901002 0 0.40312355604321981 0.46783672693786521 0 0.39390200521263352 0.46075485415901002 0 0.39405926504640992 0.4733501782547116 0 0.40439013151477049 0.45536601655510123 0 0.39390200521263352 0.46075485415901002 0 0.39440344837374369 0.44310821858019062 0 0.40742269761138872 0.44115545534377398 0 0.40439013151477049 0.45536601655510123 0 0.39440344837374369 0.44310821858019062 0 0.36764918343601088 0.45880108397121511 0 0.37940446514598042 0.43909705635749291 0 0.38356742826684198 0.45424216415883401 0 0.39390200521263352 0.46075485415901002 0 0.39440344837374369 0.44310821858019062 0 0.38356742826684198 0.45424216415883401 0 0.39440344837374369 0.44310821858019062 0 0.37940446514598042 0.43909705635749291 0 0.38356742826684198 0.45424216415883401 0 0.36764918343601088 0.45880108397121511 0 0.38363344619688722 0.46853229075607528 0 0.38356742826684198 0.45424216415883401 0 0.39390200521263352 0.46075485415901002 0 0.38363344619688722 0.46853229075607528 0 0.38356742826684198 0.45424216415883401 0 0.39390200521263352 0.46075485415901002 0 0.38363344619688722 0.46853229075607528 0 0.39405926504640992 0.4733501782547116 0 0.3741716791707464 0.47977193284585079 0 0.38363344619688722 0.46853229075607528 0 0.38788770204725231 0.47924905983975302 0 0.3741716791707464 0.47977193284585079 0 0.38788770204725231 0.47924905983975302 0 0.39215275163637558 0.49038034681270443 0 0.36388323296178732 0.50000000000000155 0 0.39604179009403911 0.5 0 0.39215275163637558 0.49038034681270443 0 0.3741716791707464 0.47977193284585079 0 0.36764918343601088 0.45880108397121511 0 0.38363344619688722 0.46853229075607528 0 0.38363344619688722 0.46853229075607528 0 0.38788770204725231 0.47924905983975302 0 0.39405926504640992 0.4733501782547116 0 0.36388323296178732 0.50000000000000155 0 0.3741716791707464 0.47977193284585079 0 0.39215275163637558 0.49038034681270443 0 0.36388323296178732 0.50000000000000155 0 0.39215275163637558 0.49038034681270443 0 0.42042227031096352 0.48076069362540602 0 0.39604179009403911 0.5 0 0.39215275163637558 0.49038034681270443 0 0.42042227031096352 0.48076069362540602 0 0.39215275163637558 0.49038034681270443 0 0.4026676317325032 0.47825636614921918 0 0.41106133500613629 0.47509323044648699 0 0.40312355604321981 0.46783672693786521 0 0.4026676317325032 0.47825636614921918 0 0.40312355604321981 0.46783672693786521 0 0.4026676317325032 0.47825636614921918 0 0.39405926504640992 0.4733501782547116 0 0.38788770204725231 0.47924905983975302 0 0.39405926504640992 0.4733501782547116 0 0.3941918376156352 0.48030898776409697 0 0.39215275163637558 0.49038034681270443 0 0.4026676317325032 0.47825636614921918 0 0.3941918376156352 0.48030898776409697 0 0.4026676317325032 0.47825636614921918 0 0.39405926504640992 0.4733501782547116 0 0.3941918376156352 0.48030898776409697 0 0.38788770204725231 0.47924905983975302 0 0.39215275163637558 0.49038034681270443 0 0.3941918376156352 0.48030898776409697 0 0.32882181924624482 0.089267953076216405 0 0.3393645744370456 0.081745733658262196 0 0.33142806648716372 0.077414028552587458 0 0.32882181924624482 0.089267953076216405 0 0.3393645744370456 0.081745733658262196 0 0.33866326828756399 0.096854615553923024 0 0.3393645744370456 0.081745733658262196 0 0.33866326828756399 0.096854615553923024 0 0.35026620877932341 0.086913151754228368 0 0.34084012377340828 0.07108712586790468 0 0.32907905635503032 0.064183529898525854 0 0.34537577208940912 0.05869260809856737 0 0.3393645744370456 0.081745733658262196 0 0.34084012377340828 0.07108712586790468 0 0.34819909280801392 0.077255373870822541 0 0.3393645744370456 0.081745733658262196 0 0.34084012377340828 0.07108712586790468 0 0.33142806648716372 0.077414028552587458 0 0.34084012377340828 0.07108712586790468 0 0.32907905635503032 0.064183529898525854 0 0.33142806648716372 0.077414028552587458 0 0.32907905635503032 0.064183529898525854 0 0.31068573572004787 0.078729295053633241 0 0.30496774908694679 0.072307455287021496 0 0.32907905635503032 0.064183529898525854 0 0.30496774908694679 0.072307455287021496 0 0.32907905635503032 0.064183529898525854 0 0.33142806648716372 0.077414028552587458 0 0.31903475862408898 0.080785800262027904 0 0.32907905635503032 0.064183529898525854 0 0.31451157428051829 0.058739030481087147 0 0.30496774908694679 0.072307455287021496 0 0.32907905635503032 0.064183529898525854 0 0.31903475862408898 0.080785800262027904 0 0.32907905635503032 0.064183529898525854 0 0.31903475862408898 0.080785800262027904 0 0.31068573572004787 0.078729295053633241 0 0.32882181924624482 0.089267953076216405 0 0.31903475862408898 0.080785800262027904 0 0.32098420607386119 0.099863082624082333 0 0.31903475862408898 0.080785800262027904 0 0.32098420607386119 0.099863082624082333 0 0.31068573572004787 0.078729295053633241 0 0.32882181924624482 0.089267953076216405 0 0.33142806648716372 0.077414028552587458 0 0.31903475862408898 0.080785800262027904 0 0.32098420607386119 0.099863082624082333 0 0.32293455276883049 0.1224521128944327 0 0.33932418897236222 0.1179522892516109 0 0.32098420607386119 0.099863082624082333 0 0.32293455276883049 0.1224521128944327 0 0.3095566759976906 0.1155148366089172 0 0.32098420607386119 0.099863082624082333 0 0.33932418897236222 0.1179522892516109 0 0.33866326828756399 0.096854615553923024 0 0.32098420607386119 0.099863082624082333 0 0.33932418897236222 0.1179522892516109 0 0.32882181924624482 0.089267953076216405 0 0.32098420607386119 0.099863082624082333 0 0.33866326828756399 0.096854615553923024 0 0.33932418897236222 0.1179522892516109 0 0.33866326828756399 0.096854615553923024 0 0.35415907831799393 0.1010062125396719 0 0.33866326828756399 0.096854615553923024 0 0.35415907831799393 0.1010062125396719 0 0.35026620877932341 0.086913151754228368 0 0.33932418897236222 0.1179522892516109 0 0.35415907831799393 0.1010062125396719 0 0.3650720533180542 0.1158579157250603 0 0.33932418897236222 0.1179522892516109 0 0.3650720533180542 0.1158579157250603 0 0.35766417187086302 0.1360414958791395 0 0.35415907831799393 0.1010062125396719 0 0.3650720533180542 0.1158579157250603 0 0.36774475250808392 0.099333096006358534 0 0.3650720533180542 0.1158579157250603 0 0.36774475250808392 0.099333096006358534 0 0.38256921655416343 0.1034225080984801 0 0.35415907831799393 0.1010062125396719 0 0.36774475250808392 0.099333096006358534 0 0.36170367818675309 0.088216932220542318 0 0.36774475250808392 0.099333096006358534 0 0.36170367818675309 0.088216932220542318 0 0.37521973616345439 0.088161911448038005 0 0.36768856335647421 0.079025897653715677 0 0.36170367818675309 0.088216932220542318 0 0.37521973616345439 0.088161911448038005 0 0.36768856335647421 0.079025897653715677 0 0.37633642060158418 0.076784453334308486 0 0.37521973616345439 0.088161911448038005 0 0.36768856335647421 0.079025897653715677 0 0.36170367818675309 0.088216932220542318 0 0.35904183261748929 0.076546849776687118 0 0.35415907831799393 0.1010062125396719 0 0.36170367818675309 0.088216932220542318 0 0.35026620877932341 0.086913151754228368 0 0.35026620877932341 0.086913151754228368 0 0.34819909280801392 0.077255373870822541 0 0.35904183261748929 0.076546849776687118 0 0.36170367818675309 0.088216932220542318 0 0.35026620877932341 0.086913151754228368 0 0.35904183261748929 0.076546849776687118 0 0.3393645744370456 0.081745733658262196 0 0.35026620877932341 0.086913151754228368 0 0.34819909280801392 0.077255373870822541 0 0.35148272443280321 0.069984008297030359 0 0.36369434107035981 0.06780481570202021 0 0.34537577208940912 0.05869260809856737 0 0.36369434107035981 0.06780481570202021 0 0.34537577208940912 0.05869260809856737 0 0.34084012377340828 0.07108712586790468 0 0.35148272443280321 0.069984008297030359 0 0.34537577208940912 0.05869260809856737 0 0.34084012377340828 0.07108712586790468 0 0.35148272443280321 0.069984008297030359 0 0.34819909280801392 0.077255373870822541 0 0.35148272443280321 0.069984008297030359 0 0.34819909280801392 0.077255373870822541 0 0.35904183261748929 0.076546849776687118 0 0.35148272443280321 0.069984008297030359 0 0.35904183261748929 0.076546849776687118 0 0.36369434107035981 0.06780481570202021 0 0.36369434107035981 0.06780481570202021 0 0.37799902802804569 0.067222174991591124 0 0.37992251621770001 0.060338697154957037 0 0.36369434107035981 0.06780481570202021 0 0.36948548469140452 0.070685504853627582 0 0.35904183261748929 0.076546849776687118 0 0.36369434107035981 0.06780481570202021 0 0.3649775554339319 0.073515766996512633 0 0.36768856335647421 0.079025897653715677 0 0.35904183261748929 0.076546849776687118 0 0.3649775554339319 0.073515766996512633 0 0.35904183261748929 0.076546849776687118 0 0.36369434107035981 0.06780481570202021 0 0.36369434107035981 0.06780481570202021 0 0.3649775554339319 0.073515766996512633 0 0.36948548469140452 0.070685504853627582 0 0.36948548469140452 0.070685504853627582 0 0.37633642060158418 0.076784453334308486 0 0.37799902802804569 0.067222174991591124 0 0.36768856335647421 0.079025897653715677 0 0.36948548469140452 0.070685504853627582 0 0.37633642060158418 0.076784453334308486 0 0.36768856335647421 0.079025897653715677 0 0.3649775554339319 0.073515766996512633 0 0.36948548469140452 0.070685504853627582 0 0.36369434107035981 0.06780481570202021 0 0.36948548469140452 0.070685504853627582 0 0.37799902802804569 0.067222174991591124 0 0.36369434107035981 0.06780481570202021 0 0.37318246110653053 0.049976697924118463 0 0.36369434107035981 0.06780481570202021 0 0.37318246110653053 0.049976697924118463 0 0.34537577208940912 0.05869260809856737 0 0.36369434107035981 0.06780481570202021 0 0.37992251621770001 0.060338697154957037 0 0.38060125038709042 0.051722107246657517 0 0.36369434107035981 0.06780481570202021 0 0.37318246110653053 0.049976697924118463 0 0.38060125038709042 0.051722107246657517 0 0.36590914524554868 0.038558828828381048 0 0.37096837100031238 0.0263002131899947 0 0.34940208279844509 0.030591497020132731 0 0.37318246110653053 0.049976697924118463 0 0.36590914524554868 0.038558828828381048 0 0.37733914173700589 0.04216632120431172 0 0.36590914524554868 0.038558828828381048 0 0.37096837100031238 0.0263002131899947 0 0.37733914173700589 0.04216632120431172 0 0.37318246110653053 0.049976697924118463 0 0.36590914524554868 0.038558828828381048 0 0.35550221582419189 0.046056753598469773 0 0.36590914524554868 0.038558828828381048 0 0.35550221582419189 0.046056753598469773 0 0.34940208279844509 0.030591497020132731 0 0.35550221582419189 0.046056753598469773 0 0.34940208279844509 0.030591497020132731 0 0.33540244217208143 0.053731573598597218 0 0.37318246110653053 0.049976697924118463 0 0.35550221582419189 0.046056753598469773 0 0.34537577208940912 0.05869260809856737 0 0.37318246110653053 0.049976697924118463 0 0.34537577208940912 0.05869260809856737 0 0.35550221582419189 0.046056753598469773 0 0.34537577208940912 0.05869260809856737 0 0.33540244217208143 0.053731573598597218 0 0.36340172342481469 0.0074514204416719276 0 0.37096837100031238 0.0263002131899947 0 0.34940208279844509 0.030591497020132731 0 0.36340172342481469 0.0074514204416719276 0 0.34940208279844509 0.030591497020132731 0 0.36340172342481469 0.0074514204416719276 0 0.34940208279844509 0.030591497020132731 0 0.33926131895553052 0.010037413436357889 0 0.34940208279844509 0.030591497020132731 0 0.33926131895553052 0.010037413436357889 0 0.32970419905470733 0.032262954357502198 0 0.33926131895553052 0.010037413436357889 0 0.32970419905470733 0.032262954357502198 0 0.30933647645701717 0.019984162444094639 0 0.33926131895553052 0.010037413436357889 0 0.30933647645701717 0.019984162444094639 0 0.31931567015707069 -0.00026893956108775221 0 0.32907905635503032 0.064183529898525854 0 0.34537577208940912 0.05869260809856737 0 0.33540244217208143 0.053731573598597218 0 0.32907905635503032 0.064183529898525854 0 0.34537577208940912 0.05869260809856737 0 0.32907905635503032 0.064183529898525854 0 0.33540244217208143 0.053731573598597218 0 0.34537577208940912 0.05869260809856737 0 0.33540244217208143 0.053731573598597218 0 0.34940208279844509 0.030591497020132731 0 0.33540244217208143 0.053731573598597218 0 0.34940208279844509 0.030591497020132731 0 0.33540244217208143 0.053731573598597218 0 0.32970419905470733 0.032262954357502198 0 0.33540244217208143 0.053731573598597218 0 0.32970419905470733 0.032262954357502198 0 0.31250057539752502 0.042339495714484379 0 0.32970419905470733 0.032262954357502198 0 0.31250057539752502 0.042339495714484379 0 0.30933647645701717 0.019984162444094639 0 0.33540244217208143 0.053731573598597218 0 0.31451157428051829 0.058739030481087147 0 0.31250057539752502 0.042339495714484379 0 0.33540244217208143 0.053731573598597218 0 0.31250057539752502 0.042339495714484379 0 0.32907905635503032 0.064183529898525854 0 0.33540244217208143 0.053731573598597218 0 0.31451157428051829 0.058739030481087147 0 0.30181235042957799 0.053445166588452088 0 0.31250057539752502 0.042339495714484379 0 0.29436171911805781 0.045508810484794882 0 0.31451157428051829 0.058739030481087147 0 0.30181235042957799 0.053445166588452088 0 0.30293127448171342 0.066800807888475353 0 0.31451157428051829 0.058739030481087147 0 0.30181235042957799 0.053445166588452088 0 0.31250057539752502 0.042339495714484379 0 0.30181235042957799 0.053445166588452088 0 0.29563553457186043 0.060433179497121341 0 0.30293127448171342 0.066800807888475353 0 0.31250057539752502 0.042339495714484379 0 0.29436171911805781 0.045508810484794882 0 0.28959870862296849 0.03094741783037094 0 0.31250057539752502 0.042339495714484379 0 0.28959870862296849 0.03094741783037094 0 0.29436171911805781 0.045508810484794882 0 0.28959870862296849 0.03094741783037094 0 0.27936293363823861 0.046125012600320828 0 0.29436171911805781 0.045508810484794882 0 0.2885340275019791 0.054686959690346169 0 0.27936293363823861 0.046125012600320828 0 0.30181235042957799 0.053445166588452088 0 0.2885340275019791 0.054686959690346169 0 0.29563553457186043 0.060433179497121341 0 0.2885340275019791 0.054686959690346169 0 0.29563553457186043 0.060433179497121341 0 0.28926448587417131 0.066799783821211767 0 0.30181235042957799 0.053445166588452088 0 0.29436171911805781 0.045508810484794882 0 0.2885340275019791 0.054686959690346169 0 0.30933647645701717 0.019984162444094639 0 0.31931567015707069 -0.00026893956108775221 0 0.29666158144344351 -0.0017469125296412319 0 0.31250057539752502 0.042339495714484379 0 0.30933647645701717 0.019984162444094639 0 0.28959870862296849 0.03094741783037094 0 0.30933647645701717 0.019984162444094639 0 0.28959870862296849 0.03094741783037094 0 0.28357804457633062 0.01295424182706173 0 0.28357804457633062 0.01295424182706173 0 0.28044547795403918 -0.007426133596136821 0 0.29666158144344351 -0.0017469125296412319 0 0.30933647645701717 0.019984162444094639 0 0.28357804457633062 0.01295424182706173 0 0.29666158144344351 -0.0017469125296412319 0 0.28357804457633062 0.01295424182706173 0 0.26669684184841208 0.019555339946257459 0 0.26393903377749889 -0.0020135769245689058 0 0.28357804457633062 0.01295424182706173 0 0.26393903377749889 -0.0020135769245689058 0 0.28044547795403918 -0.007426133596136821 0 0.28959870862296849 0.03094741783037094 0 0.28357804457633062 0.01295424182706173 0 0.26669684184841208 0.019555339946257459 0 0.28959870862296849 0.03094741783037094 0 0.26669684184841208 0.019555339946257459 0 0.28959870862296849 0.03094741783037094 0 0.26669684184841208 0.019555339946257459 0 0.26909455556730938 0.036146666225593677 0 0.24379497507385561 0.0081632620621440027 0 0.26669684184841208 0.019555339946257459 0 0.2525527590451529 0.027338614664117501 0 0.26669684184841208 0.019555339946257459 0 0.2525527590451529 0.027338614664117501 0 0.26909455556730938 0.036146666225593677 0 0.24379497507385561 0.0081632620621440027 0 0.26669684184841208 0.019555339946257459 0 0.26393903377749889 -0.0020135769245689058 0 0.24379497507385561 0.0081632620621440027 0 0.26669684184841208 0.019555339946257459 0 0.27936293363823861 0.046125012600320828 0 0.26310069791536539 0.063207510951118206 0 0.2885340275019791 0.054686959690346169 0 0.2750314389564717 0.059205938864030867 0 0.2691280967703038 0.072804272214338314 0 0.2750314389564717 0.059205938864030867 0 0.27936293363823861 0.046125012600320828 0 0.26310069791536539 0.063207510951118206 0 0.27936293363823861 0.046125012600320828 0 0.26453745358865499 0.048128218094386777 0 0.26310069791536539 0.063207510951118206 0 0.2885340275019791 0.054686959690346169 0 0.2750314389564717 0.059205938864030867 0 0.27936293363823861 0.046125012600320828 0 0.28959870862296849 0.03094741783037094 0 0.27936293363823861 0.046125012600320828 0 0.26909455556730938 0.036146666225593677 0 0.27936293363823861 0.046125012600320828 0 0.26909455556730938 0.036146666225593677 0 0.26453745358865499 0.048128218094386777 0 0.26909455556730938 0.036146666225593677 0 0.25627818759749982 0.040671246459471407 0 0.26453745358865499 0.048128218094386777 0 0.2525527590451529 0.027338614664117501 0 0.26909455556730938 0.036146666225593677 0 0.25627818759749982 0.040671246459471407 0 0.24399446879708131 0.041877834385467397 0 0.2525527590451529 0.027338614664117501 0 0.25627818759749982 0.040671246459471407 0 0.24399446879708131 0.041877834385467397 0 0.25627818759749982 0.040671246459471407 0 0.25341438735800148 0.052184531591211808 0 0.25627818759749982 0.040671246459471407 0 0.25341438735800148 0.052184531591211808 0 0.26453745358865499 0.048128218094386777 0 0.25341438735800148 0.052184531591211808 0 0.26453745358865499 0.048128218094386777 0 0.26310069791536539 0.063207510951118206 0 0.24808411360837751 0.064354059346647396 0 0.25341438735800148 0.052184531591211808 0 0.26310069791536539 0.063207510951118206 0 0.2468384621924922 0.080290009301915558 0 0.26310069791536539 0.063207510951118206 0 0.2468384621924922 0.080290009301915558 0 0.24808411360837751 0.064354059346647396 0 0.26310069791536539 0.063207510951118206 0 0.2468384621924922 0.080290009301915558 0 0.26310069791536539 0.063207510951118206 0 0.2691280967703038 0.072804272214338314 0 0.24972216603863029 0.090921584738332312 0 0.26528930392874722 0.085676482706926141 0 0.2691280967703038 0.072804272214338314 0 0.2468384621924922 0.080290009301915558 0 0.24972216603863029 0.090921584738332312 0 0.2691280967703038 0.072804272214338314 0 0.24972216603863029 0.090921584738332312 0 0.2691280967703038 0.072804272214338314 0 0.24972216603863029 0.090921584738332312 0 0.26528930392874722 0.085676482706926141 0 0.24972216603863029 0.090921584738332312 0 0.26528930392874722 0.085676482706926141 0 0.26112803860318617 0.092613100922751518 0 0.26528930392874722 0.085676482706926141 0 0.26112803860318617 0.092613100922751518 0 0.28085644181886321 0.080431380675517028 0 0.26112803860318617 0.092613100922751518 0 0.28085644181886321 0.080431380675517028 0 0.27589884324882841 0.1029497805264661 0 0.26112803860318617 0.092613100922751518 0 0.28085644181886321 0.080431380675517028 0 0.26528930392874722 0.085676482706926141 0 0.28085644181886321 0.080431380675517028 0 0.26528930392874722 0.085676482706926141 0 0.28085644181886321 0.080431380675517028 0 0.2691280967703038 0.072804272214338314 0 0.2885340275019791 0.054686959690346169 0 0.2691280967703038 0.072804272214338314 0 0.2885340275019791 0.054686959690346169 0 0.2691280967703038 0.072804272214338314 0 0.2819457629913294 0.068680599100353484 0 0.2750314389564717 0.059205938864030867 0 0.26310069791536539 0.063207510951118206 0 0.2691280967703038 0.072804272214338314 0 0.28085644181886321 0.080431380675517028 0 0.2691280967703038 0.072804272214338314 0 0.2819457629913294 0.068680599100353484 0 0.28085644181886321 0.080431380675517028 0 0.30496774908694679 0.072307455287021496 0 0.30293127448171342 0.066800807888475353 0 0.28085644181886321 0.080431380675517028 0 0.30496774908694679 0.072307455287021496 0 0.28085644181886321 0.080431380675517028 0 0.30293127448171342 0.066800807888475353 0 0.2885340275019791 0.054686959690346169 0 0.2819457629913294 0.068680599100353484 0 0.28926448587417131 0.066799783821211767 0 0.28085644181886321 0.080431380675517028 0 0.28926448587417131 0.066799783821211767 0 0.30293127448171342 0.066800807888475353 0 0.29563553457186043 0.060433179497121341 0 0.28926448587417131 0.066799783821211767 0 0.30293127448171342 0.066800807888475353 0 0.28085644181886321 0.080431380675517028 0 0.2819457629913294 0.068680599100353484 0 0.28926448587417131 0.066799783821211767 0 0.28085644181886321 0.080431380675517028 0 0.29443560418348358 0.083986740911852209 0 0.30496774908694679 0.072307455287021496 0 0.28085644181886321 0.080431380675517028 0 0.29087663174337408 0.095282194324212213 0 0.27589884324882841 0.1029497805264661 0 0.28085644181886321 0.080431380675517028 0 0.29443560418348358 0.083986740911852209 0 0.29087663174337408 0.095282194324212213 0 0.29443560418348358 0.083986740911852209 0 0.29856151241719892 0.090097026311166312 0 0.29087663174337408 0.095282194324212213 0 0.29443560418348358 0.083986740911852209 0 0.30264422317536038 0.08177387599655371 0 0.29856151241719892 0.090097026311166312 0 0.32098420607386119 0.099863082624082333 0 0.30264422317536038 0.08177387599655371 0 0.29443560418348358 0.083986740911852209 0 0.30264422317536038 0.08177387599655371 0 0.30496774908694679 0.072307455287021496 0 0.32098420607386119 0.099863082624082333 0 0.30264422317536038 0.08177387599655371 0 0.31068573572004787 0.078729295053633241 0 0.32098420607386119 0.099863082624082333 0 0.30264422317536038 0.08177387599655371 0 0.30516659373194083 0.097314990941060192 0 0.30264422317536038 0.08177387599655371 0 0.29856151241719892 0.090097026311166312 0 0.30516659373194083 0.097314990941060192 0 0.30264422317536038 0.08177387599655371 0 0.31068573572004787 0.078729295053633241 0 0.30496774908694679 0.072307455287021496 0 0.31451157428051829 0.058739030481087147 0 0.30496774908694679 0.072307455287021496 0 0.30293127448171342 0.066800807888475353 0 0.32293455276883049 0.1224521128944327 0 0.3095566759976906 0.1155148366089172 0 0.30334978652628691 0.13535957809498941 0 0.3095566759976906 0.1155148366089172 0 0.29284157380083392 0.1121837374761864 0 0.30334978652628691 0.13535957809498941 0 0.32098420607386119 0.099863082624082333 0 0.3095566759976906 0.1155148366089172 0 0.30516659373194083 0.097314990941060192 0 0.3095566759976906 0.1155148366089172 0 0.30516659373194083 0.097314990941060192 0 0.29284157380083392 0.1121837374761864 0 0.29856151241719892 0.090097026311166312 0 0.30516659373194083 0.097314990941060192 0 0.29087663174337408 0.095282194324212213 0 0.29087663174337408 0.095282194324212213 0 0.29284157380083392 0.1121837374761864 0 0.27589884324882841 0.1029497805264661 0 0.30516659373194083 0.097314990941060192 0 0.29087663174337408 0.095282194324212213 0 0.29284157380083392 0.1121837374761864 0 0.29284157380083392 0.1121837374761864 0 0.27875027266183328 0.1225212174310592 0 0.27589884324882841 0.1029497805264661 0 0.29284157380083392 0.1121837374761864 0 0.27875027266183328 0.1225212174310592 0 0.30334978652628691 0.13535957809498941 0 0.27875027266183328 0.1225212174310592 0 0.27589884324882841 0.1029497805264661 0 0.25948156763023827 0.11050145920967171 0 0.27875027266183328 0.1225212174310592 0 0.25948156763023827 0.11050145920967171 0 0.26254456585692693 0.12656755894933419 0 0.26112803860318617 0.092613100922751518 0 0.27589884324882841 0.1029497805264661 0 0.25948156763023827 0.11050145920967171 0 0.24139963538750961 0.1047948211699866 0 0.24972216603863029 0.090921584738332312 0 0.26112803860318617 0.092613100922751518 0 0.24139963538750961 0.1047948211699866 0 0.26112803860318617 0.092613100922751518 0 0.24139963538750961 0.1047948211699866 0 0.26112803860318617 0.092613100922751518 0 0.25948156763023827 0.11050145920967171 0 0.242377986707283 0.12580685675486811 0 0.25948156763023827 0.11050145920967171 0 0.26254456585692693 0.12656755894933419 0 0.242377986707283 0.12580685675486811 0 0.26254456585692693 0.12656755894933419 0 0.25684396881101362 0.14263541090959811 0 0.26254456585692693 0.12656755894933419 0 0.25684396881101362 0.14263541090959811 0 0.28174526926101978 0.13937497748909511 0 0.27875027266183328 0.1225212174310592 0 0.26254456585692693 0.12656755894933419 0 0.28174526926101978 0.13937497748909511 0 0.2700825038712743 0.15704141343412339 0 0.28174526926101978 0.13937497748909511 0 0.28849543194252347 0.15286283040979201 0 0.25684396881101362 0.14263541090959811 0 0.2700825038712743 0.15704141343412339 0 0.28174526926101978 0.13937497748909511 0 0.2486945900190925 0.16067151539559149 0 0.25684396881101362 0.14263541090959811 0 0.2700825038712743 0.15704141343412339 0 0.24431279077721821 0.17811355121882769 0 0.2486945900190925 0.16067151539559149 0 0.26342702741837531 0.1748367334434355 0 0.2486945900190925 0.16067151539559149 0 0.26342702741837531 0.1748367334434355 0 0.2700825038712743 0.15704141343412339 0 0.24431279077721821 0.17811355121882769 0 0.26342702741837531 0.1748367334434355 0 0.25500310095378947 0.19498500486412149 0 0.26342702741837531 0.1748367334434355 0 0.28416199328236069 0.1705153822282261 0 0.27859475311904403 0.18899299121128429 0 0.26342702741837531 0.1748367334434355 0 0.25500310095378947 0.19498500486412149 0 0.27859475311904403 0.18899299121128429 0 0.2700825038712743 0.15704141343412339 0 0.28416199328236069 0.1705153822282261 0 0.28849543194252347 0.15286283040979201 0 0.26342702741837531 0.1748367334434355 0 0.2700825038712743 0.15704141343412339 0 0.28416199328236069 0.1705153822282261 0 0.28416199328236069 0.1705153822282261 0 0.30313760677167589 0.16202280080252621 0 0.28849543194252347 0.15286283040979201 0 0.28416199328236069 0.1705153822282261 0 0.30028521803213343 0.1796078158726199 0 0.30313760677167589 0.16202280080252621 0 0.28416199328236069 0.1705153822282261 0 0.30028521803213343 0.1796078158726199 0 0.27859475311904403 0.18899299121128429 0 0.30313760677167589 0.16202280080252621 0 0.31668714985713331 0.14936016463262419 0 0.31637890758957882 0.16915754586787521 0 0.30028521803213343 0.1796078158726199 0 0.30313760677167589 0.16202280080252621 0 0.31637890758957882 0.16915754586787521 0 0.30313760677167589 0.16202280080252621 0 0.30334978652628691 0.13535957809498941 0 0.31668714985713331 0.14936016463262419 0 0.30313760677167589 0.16202280080252621 0 0.30334978652628691 0.13535957809498941 0 0.28849543194252347 0.15286283040979201 0 0.27875027266183328 0.1225212174310592 0 0.30334978652628691 0.13535957809498941 0 0.28174526926101978 0.13937497748909511 0 0.30334978652628691 0.13535957809498941 0 0.28174526926101978 0.13937497748909511 0 0.28849543194252347 0.15286283040979201 0 0.2534443558029531 0.25718739904821453 0 0.27732106216941438 0.23842693944476329 0 0.25012005701005491 0.23841861139815559 0 0.27732106216941438 0.23842693944476329 0 0.25012005701005491 0.23841861139815559 0 0.25590748765988269 0.22150825276354849 0 0.27732106216941438 0.23842693944476329 0 0.25590748765988269 0.22150825276354849 0 0.28575930287479712 0.21825315286615221 0 0.27732106216941438 0.23842693944476329 0 0.25590748765988269 0.22150825276354849 0 0.25590748765988269 0.22150825276354849 0 0.27205691019390188 0.20549213338334429 0 0.28575930287479712 0.21825315286615221 0 0.25590748765988269 0.22150825276354849 0 0.27205691019390188 0.20549213338334429 0 0.25500310095378947 0.19498500486412149 0 0.27205691019390188 0.20549213338334429 0 0.25500310095378947 0.19498500486412149 0 0.27859475311904403 0.18899299121128429 0 0.27205691019390188 0.20549213338334429 0 0.27859475311904403 0.18899299121128429 0 0.29467207045657862 0.19877975445246979 0 0.30028521803213343 0.1796078158726199 0 0.27859475311904403 0.18899299121128429 0 0.29467207045657862 0.19877975445246979 0 0.30028521803213343 0.1796078158726199 0 0.29467207045657862 0.19877975445246979 0 0.32106014377342318 0.18936930356107159 0 0.29467207045657862 0.19877975445246979 0 0.31027609474617263 0.21096312982034651 0 0.32106014377342318 0.18936930356107159 0 0.29467207045657862 0.19877975445246979 0 0.31027609474617263 0.21096312982034651 0 0.28575930287479712 0.21825315286615221 0 0.27205691019390188 0.20549213338334429 0 0.29467207045657862 0.19877975445246979 0 0.28575930287479712 0.21825315286615221 0 0.27732106216941438 0.23842693944476329 0 0.28575930287479712 0.21825315286615221 0 0.30450536571256231 0.2331543779731621 0 0.31027609474617263 0.21096312982034651 0 0.30450536571256231 0.2331543779731621 0 0.31027609474617263 0.21096312982034651 0 0.28575930287479712 0.21825315286615221 0 0.30450536571256231 0.2331543779731621 0 0.2987346366789474 0.25534562612597661 0 0.30450536571256231 0.2331543779731621 0 0.2987346366789474 0.25534562612597661 0 0.3203757203608496 0.25093943201190189 0 0.30450536571256231 0.2331543779731621 0 0.2987346366789474 0.25534562612597661 0 0.27732106216941438 0.23842693944476329 0 0.30450536571256231 0.2331543779731621 0 0.2987346366789474 0.25534562612597661 0 0.27732106216941438 0.23842693944476329 0 0.34090219402522959 0.25391427900408831 0 0.33139286028759662 0.22830039419754741 0 0.35316215757465602 0.23903359670842661 0 0.3203757203608496 0.25093943201190189 0 0.34090219402522959 0.25391427900408831 0 0.33139286028759662 0.22830039419754741 0 0.3203757203608496 0.25093943201190189 0 0.30450536571256231 0.2331543779731621 0 0.33139286028759662 0.22830039419754741 0 0.31027609474617263 0.21096312982034651 0 0.30450536571256231 0.2331543779731621 0 0.33139286028759662 0.22830039419754741 0 0.33139286028759662 0.22830039419754741 0 0.33205076870059058 0.20597033388409619 0 0.36008219235002242 0.2210376379808289 0 0.31027609474617263 0.21096312982034651 0 0.33139286028759662 0.22830039419754741 0 0.33205076870059058 0.20597033388409619 0 0.31027609474617263 0.21096312982034651 0 0.33205076870059058 0.20597033388409619 0 0.32106014377342318 0.18936930356107159 0 0.33205076870059058 0.20597033388409619 0 0.32106014377342318 0.18936930356107159 0 0.35040330593177538 0.1932326412256816 0 0.35040330593177538 0.1932326412256816 0 0.37137838690972491 0.18807230192342311 0 0.37702282053419728 0.20672611559803611 0 0.35040330593177538 0.1932326412256816 0 0.36008219235002242 0.2210376379808289 0 0.37702282053419728 0.20672611559803611 0 0.33205076870059058 0.20597033388409619 0 0.35040330593177538 0.1932326412256816 0 0.36008219235002242 0.2210376379808289 0 0.35040330593177538 0.1932326412256816 0 0.36008219235002242 0.2210376379808289 0 0.33139286028759662 0.22830039419754741 0 0.36008219235002242 0.2210376379808289 0 0.35316215757465602 0.23903359670842661 0 0.36008219235002242 0.2210376379808289 0 0.3697610787682693 0.2488426347359762 0 0.38498852767125491 0.24122135929535821 0 0.36008219235002242 0.2210376379808289 0 0.3697610787682693 0.2488426347359762 0 0.36008219235002242 0.2210376379808289 0 0.3697610787682693 0.2488426347359762 0 0.35316215757465602 0.23903359670842661 0 0.33104553309528151 0.13762264771538679 0 0.34072441951352839 0.16542764447053429 0 0.33104553309528151 0.13762264771538679 0 0.31668714985713331 0.14936016463262419 0 0.34072441951352839 0.16542764447053429 0 0.33104553309528151 0.13762264771538679 0 0.34072441951352839 0.16542764447053429 0 0.35722867765229049 0.15536601891079349 0 0.32293455276883049 0.1224521128944327 0 0.33932418897236222 0.1179522892516109 0 0.33104553309528151 0.13762264771538679 0 0.33932418897236222 0.1179522892516109 0 0.33104553309528151 0.13762264771538679 0 0.35766417187086302 0.1360414958791395 0 0.32293455276883049 0.1224521128944327 0 0.30334978652628691 0.13535957809498941 0 0.33104553309528151 0.13762264771538679 0 0.30334978652628691 0.13535957809498941 0 0.33104553309528151 0.13762264771538679 0 0.31668714985713331 0.14936016463262419 0 0.31668714985713331 0.14936016463262419 0 0.31637890758957882 0.16915754586787521 0 0.34072441951352839 0.16542764447053429 0 0.32106014377342318 0.18936930356107159 0 0.31637890758957882 0.16915754586787521 0 0.34072441951352839 0.16542764447053429 0 0.30028521803213343 0.1796078158726199 0 0.32106014377342318 0.18936930356107159 0 0.31637890758957882 0.16915754586787521 0 0.32106014377342318 0.18936930356107159 0 0.35040330593177538 0.1932326412256816 0 0.34072441951352839 0.16542764447053429 0 0.34072441951352839 0.16542764447053429 0 0.36678303295618381 0.17033213710845219 0 0.35722867765229049 0.15536601891079349 0 0.35040330593177538 0.1932326412256816 0 0.34072441951352839 0.16542764447053429 0 0.35040330593177538 0.1932326412256816 0 0.34072441951352839 0.16542764447053429 0 0.36678303295618381 0.17033213710845219 0 0.35040330593177538 0.1932326412256816 0 0.37137838690972491 0.18807230192342311 0 0.36678303295618381 0.17033213710845219 0 0.37137838690972491 0.18807230192342311 0 0.36678303295618381 0.17033213710845219 0 0.38640366940709331 0.17401930976586719 0 0.36678303295618381 0.17033213710845219 0 0.35722867765229049 0.15536601891079349 0 0.38094306242442272 0.15001060712151271 0 0.35722867765229049 0.15536601891079349 0 0.35766417187086302 0.1360414958791395 0 0.38094306242442272 0.15001060712151271 0 0.33104553309528151 0.13762264771538679 0 0.35722867765229049 0.15536601891079349 0 0.35766417187086302 0.1360414958791395 0 0.33932418897236222 0.1179522892516109 0 0.35766417187086302 0.1360414958791395 0 0.3650720533180542 0.1158579157250603 0 0.35766417187086302 0.1360414958791395 0 0.38416284182457838 0.1295809146792371 0 0.35766417187086302 0.1360414958791395 0 0.38416284182457838 0.1295809146792371 0 0.38094306242442272 0.15001060712151271 0 0.38416284182457838 0.1295809146792371 0 0.41046451004434759 0.1368017780357649 0 0.40386153296416732 0.12308205244315 0 0.38416284182457838 0.1295809146792371 0 0.38094306242442272 0.15001060712151271 0 0.41046451004434759 0.1368017780357649 0 0.40032097069390421 0.15723805368106661 0 0.41046451004434759 0.1368017780357649 0 0.38094306242442272 0.15001060712151271 0 0.40032097069390421 0.15723805368106661 0 0.41046451004434759 0.1368017780357649 0 0.36678303295618381 0.17033213710845219 0 0.38094306242442272 0.15001060712151271 0 0.38640366940709331 0.17401930976586719 0 0.38094306242442272 0.15001060712151271 0 0.38640366940709331 0.17401930976586719 0 0.40032097069390421 0.15723805368106661 0 0.37137838690972491 0.18807230192342311 0 0.38640366940709331 0.17401930976586719 0 0.39055221299108589 0.19414610796190271 0 0.38640366940709331 0.17401930976586719 0 0.41008117469564548 0.18409816479458299 0 0.39055221299108589 0.19414610796190271 0 0.38640366940709331 0.17401930976586719 0 0.40032097069390421 0.15723805368106661 0 0.41008117469564548 0.18409816479458299 0 0.40032097069390421 0.15723805368106661 0 0.41008117469564548 0.18409816479458299 0 0.42521866345556802 0.15927820082192951 0 0.41008117469564548 0.18409816479458299 0 0.43719109293924219 0.18413372273066991 0 0.42521866345556802 0.15927820082192951 0 0.42521866345556802 0.15927820082192951 0 0.43480306567891958 0.13635513890890141 0 0.41046451004434759 0.1368017780357649 0 0.42521866345556802 0.15927820082192951 0 0.43480306567891958 0.13635513890890141 0 0.45019824935952041 0.15899964512260059 0 0.43480306567891958 0.13635513890890141 0 0.41046451004434759 0.1368017780357649 0 0.42060804939479091 0.1163655023904633 0 0.41046451004434759 0.1368017780357649 0 0.42060804939479091 0.1163655023904633 0 0.41046451004434759 0.1368017780357649 0 0.42060804939479091 0.1163655023904633 0 0.40386153296416732 0.12308205244315 0 0.40032097069390421 0.15723805368106661 0 0.42521866345556802 0.15927820082192951 0 0.41046451004434759 0.1368017780357649 0 0.39791460208287083 0.25465313531526151 0 0.39860413914559623 0.23729245201952451 0 0.4157864541368661 0.2385152010276069 0 0.39791460208287083 0.25465313531526151 0 0.39860413914559623 0.23729245201952451 0 0.38498852767125491 0.24122135929535821 0 0.38082920604792603 0.25598700272303282 0 0.3697610787682693 0.2488426347359762 0 0.38498852767125491 0.24122135929535821 0 0.36008219235002242 0.2210376379808289 0 0.38498852767125491 0.24122135929535821 0 0.38812092918059499 0.22442490453550329 0 0.39860413914559623 0.23729245201952451 0 0.38498852767125491 0.24122135929535821 0 0.38812092918059499 0.22442490453550329 0 0.38812092918059499 0.22442490453550329 0 0.40393669537686222 0.22481129005459441 0 0.40275283943407331 0.21034079688246859 0 0.39860413914559623 0.23729245201952451 0 0.40393669537686222 0.22481129005459441 0 0.4157864541368661 0.2385152010276069 0 0.39860413914559623 0.23729245201952451 0 0.38812092918059499 0.22442490453550329 0 0.40393669537686222 0.22481129005459441 0 0.36008219235002242 0.2210376379808289 0 0.38812092918059499 0.22442490453550329 0 0.37702282053419728 0.20672611559803611 0 0.40275283943407331 0.21034079688246859 0 0.37702282053419728 0.20672611559803611 0 0.39055221299108589 0.19414610796190271 0 0.38812092918059499 0.22442490453550329 0 0.40275283943407331 0.21034079688246859 0 0.37702282053419728 0.20672611559803611 0 0.37137838690972491 0.18807230192342311 0 0.37702282053419728 0.20672611559803611 0 0.39055221299108589 0.19414610796190271 0 0.41008117469564548 0.18409816479458299 0 0.40275283943407331 0.21034079688246859 0 0.39055221299108589 0.19414610796190271 0 0.41008117469564548 0.18409816479458299 0 0.40275283943407331 0.21034079688246859 0 0.42418393651896391 0.2092678003387394 0 0.41008117469564548 0.18409816479458299 0 0.43719109293924219 0.18413372273066991 0 0.42418393651896391 0.2092678003387394 0 0.43719109293924219 0.18413372273066991 0 0.42418393651896391 0.2092678003387394 0 0.43719109293924219 0.18413372273066991 0 0.42418393651896391 0.2092678003387394 0 0.43972877945376948 0.20985622372148161 0 0.42418393651896391 0.2092678003387394 0 0.41720309078202422 0.2222237880873778 0 0.43365830619086138 0.2223772667399522 0 0.42418393651896391 0.2092678003387394 0 0.43365830619086138 0.2223772667399522 0 0.43972877945376948 0.20985622372148161 0 0.40275283943407331 0.21034079688246859 0 0.42418393651896391 0.2092678003387394 0 0.41720309078202422 0.2222237880873778 0 0.40393669537686222 0.22481129005459441 0 0.41720309078202422 0.2222237880873778 0 0.4157864541368661 0.2385152010276069 0 0.40393669537686222 0.22481129005459441 0 0.40275283943407331 0.21034079688246859 0 0.41720309078202422 0.2222237880873778 0 0.41720309078202422 0.2222237880873778 0 0.43365830619086138 0.2223772667399522 0 0.4157864541368661 0.2385152010276069 0 0.43365830619086138 0.2223772667399522 0 0.4157864541368661 0.2385152010276069 0 0.43365830619086138 0.2223772667399522 0 0.42458975920809972 0.24083006070410809 0 0.43245070974038258 0.23797440803504141 0 0.43365830619086138 0.2223772667399522 0 0.42458975920809972 0.24083006070410809 0 0.4157864541368661 0.2385152010276069 0 0.43365830619086138 0.2223772667399522 0 0.43245070974038258 0.23797440803504141 0 0.43887752489140719 0.23461599882884071 0 0.42458975920809972 0.24083006070410809 0 0.43245070974038258 0.23797440803504141 0 0.42913832261543639 0.24699447791096979 0 0.43683074871155819 0.2438529793808695 0 0.42913832261543639 0.24699447791096979 0 0.44490961289443293 0.2457957572306515 0 0.42029596382120099 0.25721116849415748 0 0.44686397588079929 0.24675167446521809 0 0.44490961289443293 0.2457957572306515 0 0.43245070974038258 0.23797440803504141 0 0.43683074871155819 0.2438529793808695 0 0.43887752489140719 0.23461599882884071 0 0.43245070974038258 0.23797440803504141 0 0.43683074871155819 0.2438529793808695 0 0.42913832261543639 0.24699447791096979 0 0.42458975920809972 0.24083006070410809 0 0.42913832261543639 0.24699447791096979 0 0.41924950797967347 0.2478139921637027 0 0.39791460208287083 0.25465313531526151 0 0.4157864541368661 0.2385152010276069 0 0.39791460208287083 0.25465313531526151 0 0.41924950797967347 0.2478139921637027 0 0.4157864541368661 0.2385152010276069 0 0.42458975920809972 0.24083006070410809 0 0.41924950797967347 0.2478139921637027 0 0.4157864541368661 0.2385152010276069 0 0.45891367209220207 0.24466484045656939 0 0.44686397588079929 0.24675167446521809 0 0.47343198794039748 0.2362921804362787 0 0.46227257055347698 0.23653600088466839 0 0.44490961289443293 0.2457957572306515 0 0.47245480644721849 0.23403551535150849 0 0.44686397588079929 0.24675167446521809 0 0.47343198794039748 0.2362921804362787 0 0.44490961289443293 0.2457957572306515 0 0.47245480644721849 0.23403551535150849 0 0.44686397588079929 0.24675167446521809 0 0.44490961289443293 0.2457957572306515 0 0.47245480644721849 0.23403551535150849 0 0.44686397588079929 0.24675167446521809 0 0.47245480644721849 0.23403551535150849 0 0.47343198794039748 0.2362921804362787 0 0.46359214720652442 0.2463369329078276 0 0.45891367209220207 0.24466484045656939 0 0.46964302182836709 0.24184684721926339 0 0.46359214720652442 0.2463369329078276 0 0.46337325671774132 0.2497144021282616 0 0.45872475370585081 0.24872107275690339 0 0.46359214720652442 0.2463369329078276 0 0.46337325671774132 0.2497144021282616 0 0.46730603168846041 0.24673750197814051 0 0.4685410882301036 0.25055002417303152 0 0.46337325671774132 0.2497144021282616 0 0.46730603168846041 0.24673750197814051 0 0.46359214720652442 0.2463369329078276 0 0.46730603168846041 0.24673750197814051 0 0.46964302182836709 0.24184684721926339 0 0.45891367209220207 0.24466484045656939 0 0.47343198794039748 0.2362921804362787 0 0.46964302182836709 0.24184684721926339 0 0.46227257055347698 0.23653600088466839 0 0.45478452739529801 0.23860596772052459 0 0.45094941558718138 0.24151454357894911 0 0.46227257055347698 0.23653600088466839 0 0.45824243449238561 0.235869161025096 0 0.45984513302159491 0.23286534059468611 0 0.46227257055347698 0.23653600088466839 0 0.45824243449238561 0.235869161025096 0 0.45478452739529801 0.23860596772052459 0 0.45824243449238561 0.235869161025096 0 0.4560675069991727 0.2354693349005049 0 0.45984513302159491 0.23286534059468611 0 0.4560675069991727 0.2354693349005049 0 0.45144286242707821 0.23642656162405309 0 0.45461852393426061 0.23228661785605359 0 0.4560675069991727 0.2354693349005049 0 0.45478452739529801 0.23860596772052459 0 0.45144286242707821 0.23642656162405309 0 0.45824243449238561 0.235869161025096 0 0.4560675069991727 0.2354693349005049 0 0.45478452739529801 0.23860596772052459 0 0.46359214720652442 0.2463369329078276 0 0.45891367209220207 0.24466484045656939 0 0.45872475370585081 0.24872107275690339 0 0.45891367209220207 0.24466484045656939 0 0.45872475370585081 0.24872107275690339 0 0.45455288077002021 0.24757661094311689 0 0.45891367209220207 0.24466484045656939 0 0.45455288077002021 0.24757661094311689 0 0.45143893569143168 0.24765275254445249 0 0.45432005632295058 0.25059012213621162 0 0.45872475370585081 0.24872107275690339 0 0.45455288077002021 0.24757661094311689 0 0.45432005632295058 0.25059012213621162 0 0.45455288077002021 0.24757661094311689 0 0.45143893569143168 0.24765275254445249 0 0.46227257055347698 0.23653600088466839 0 0.44490961289443293 0.2457957572306515 0 0.45094941558718138 0.24151454357894911 0 0.45035689414277458 0.25017781365707259 0 0.45432005632295058 0.25059012213621162 0 0.45143893569143168 0.24765275254445249 0 0.45891367209220207 0.24466484045656939 0 0.45143893569143168 0.24765275254445249 0 0.44686397588079929 0.24675167446521809 0 0.45035689414277458 0.25017781365707259 0 0.45143893569143168 0.24765275254445249 0 0.44776448567704868 0.2491812010568866 0 0.44490961289443293 0.2457957572306515 0 0.44628509040833891 0.24127264316831881 0 0.45094941558718138 0.24151454357894911 0 0.45143893569143168 0.24765275254445249 0 0.44776448567704868 0.2491812010568866 0 0.44686397588079929 0.24675167446521809 0 0.44564303767459429 0.25053390313874319 0 0.44776448567704868 0.2491812010568866 0 0.44595081851542973 0.24893729020385941 0 0.44776448567704868 0.2491812010568866 0 0.44686397588079929 0.24675167446521809 0 0.44595081851542973 0.24893729020385941 0 0.43683074871155819 0.2438529793808695 0 0.44490961289443293 0.2457957572306515 0 0.44190093838939049 0.2431621946674459 0 0.44084314226191629 0.25265514603487932 0 0.44686397588079929 0.24675167446521809 0 0.44595081851542973 0.24893729020385941 0 0.44490961289443293 0.2457957572306515 0 0.44378246349382039 0.24255361120398519 0 0.44628509040833891 0.24127264316831881 0 0.44490961289443293 0.2457957572306515 0 0.44378246349382039 0.24255361120398519 0 0.44190093838939049 0.2431621946674459 0 0.43683074871155819 0.2438529793808695 0 0.44190093838939049 0.2431621946674459 0 0.44203421228311929 0.2399838497495245 0 0.43683074871155819 0.2438529793808695 0 0.43887752489140719 0.23461599882884071 0 0.44203421228311929 0.2399838497495245 0 0.44203421228311929 0.2399838497495245 0 0.44583501130296199 0.23559211197249111 0 0.44628509040833891 0.24127264316831881 0 0.44378246349382039 0.24255361120398519 0 0.44203421228311929 0.2399838497495245 0 0.44628509040833891 0.24127264316831881 0 0.44378246349382039 0.24255361120398519 0 0.44190093838939049 0.2431621946674459 0 0.44203421228311929 0.2399838497495245 0 0.43887752489140719 0.23461599882884071 0 0.44203421228311929 0.2399838497495245 0 0.44583501130296199 0.23559211197249111 0 0.44583501130296199 0.23559211197249111 0 0.45144286242707821 0.23642656162405309 0 0.45001780859126223 0.23164557910921191 0 0.44583501130296199 0.23559211197249111 0 0.44867895890607962 0.2386349722720317 0 0.45144286242707821 0.23642656162405309 0 0.44583501130296199 0.23559211197249111 0 0.44628509040833891 0.24127264316831881 0 0.44867895890607962 0.2386349722720317 0 0.44628509040833891 0.24127264316831881 0 0.44867895890607962 0.2386349722720317 0 0.45094941558718138 0.24151454357894911 0 0.45478452739529801 0.23860596772052459 0 0.45094941558718138 0.24151454357894911 0 0.45144286242707821 0.23642656162405309 0 0.44867895890607962 0.2386349722720317 0 0.45094941558718138 0.24151454357894911 0 0.45144286242707821 0.23642656162405309 0 0.45144286242707821 0.23642656162405309 0 0.45001780859126223 0.23164557910921191 0 0.45461852393426061 0.23228661785605359 0 0.43365830619086138 0.2223772667399522 0 0.44371152345836262 0.225728385429151 0 0.43972877945376948 0.20985622372148161 0 0.45001780859126223 0.23164557910921191 0 0.44371152345836262 0.225728385429151 0 0.45460969403738433 0.2272187975696783 0 0.44583501130296199 0.23559211197249111 0 0.45001780859126223 0.23164557910921191 0 0.44371152345836262 0.225728385429151 0 0.45001780859126223 0.23164557910921191 0 0.45460969403738433 0.2272187975696783 0 0.45461852393426061 0.23228661785605359 0 0.43365830619086138 0.2223772667399522 0 0.43887752489140719 0.23461599882884071 0 0.44371152345836262 0.225728385429151 0 0.43887752489140719 0.23461599882884071 0 0.44583501130296199 0.23559211197249111 0 0.44371152345836262 0.225728385429151 0 0.44371152345836262 0.225728385429151 0 0.45460969403738433 0.2272187975696783 0 0.4545300791857933 0.21581403232688701 0 0.45944673100492128 0.22239408772133509 0 0.46653743667820141 0.21941841805481399 0 0.4545300791857933 0.21581403232688701 0 0.45944673100492128 0.22239408772133509 0 0.45460969403738433 0.2272187975696783 0 0.46346565484266222 0.22791742933883519 0 0.45944673100492128 0.22239408772133509 0 0.45460969403738433 0.2272187975696783 0 0.4545300791857933 0.21581403232688701 0 0.45460969403738433 0.2272187975696783 0 0.45984513302159491 0.23286534059468611 0 0.46346565484266222 0.22791742933883519 0 0.45460969403738433 0.2272187975696783 0 0.45461852393426061 0.23228661785605359 0 0.45984513302159491 0.23286534059468611 0 0.4560675069991727 0.2354693349005049 0 0.45461852393426061 0.23228661785605359 0 0.45984513302159491 0.23286534059468611 0 0.46227257055347698 0.23653600088466839 0 0.46510830942535591 0.23240621078000551 0 0.47245480644721849 0.23403551535150849 0 0.46227257055347698 0.23653600088466839 0 0.45984513302159491 0.23286534059468611 0 0.46510830942535591 0.23240621078000551 0 0.45984513302159491 0.23286534059468611 0 0.46346565484266222 0.22791742933883519 0 0.46510830942535591 0.23240621078000551 0 0.46510830942535591 0.23240621078000551 0 0.46781485426523861 0.2302092981837621 0 0.47245480644721849 0.23403551535150849 0 0.46346565484266222 0.22791742933883519 0 0.46781485426523861 0.2302092981837621 0 0.47038638234742369 0.22624430249141561 0 0.46346565484266222 0.22791742933883519 0 0.46510830942535591 0.23240621078000551 0 0.46781485426523861 0.2302092981837621 0 0.46346565484266222 0.22791742933883519 0 0.46653743667820141 0.21941841805481399 0 0.47038638234742369 0.22624430249141561 0 0.45944673100492128 0.22239408772133509 0 0.46346565484266222 0.22791742933883519 0 0.46653743667820141 0.21941841805481399 0 0.4545300791857933 0.21581403232688701 0 0.45112125074717557 0.20188970615041429 0 0.46906493571981522 0.20422326238588701 0 0.46653743667820141 0.21941841805481399 0 0.4545300791857933 0.21581403232688701 0 0.46906493571981522 0.20422326238588701 0 0.44371152345836262 0.225728385429151 0 0.4545300791857933 0.21581403232688701 0 0.43972877945376948 0.20985622372148161 0 0.4545300791857933 0.21581403232688701 0 0.43972877945376948 0.20985622372148161 0 0.45112125074717557 0.20188970615041429 0 0.43719109293924219 0.18413372273066991 0 0.43972877945376948 0.20985622372148161 0 0.45112125074717557 0.20188970615041429 0 0.43719109293924219 0.18413372273066991 0 0.45112125074717557 0.20188970615041429 0 0.45684873682176552 0.18584048710275011 0 0.46906493571981522 0.20422326238588701 0 0.45684873682176552 0.18584048710275011 0 0.47666815534307438 0.1799560991241789 0 0.45112125074717557 0.20188970615041429 0 0.46906493571981522 0.20422326238588701 0 0.45684873682176552 0.18584048710275011 0 0.48538106092969918 0.20397942447337439 0 0.46906493571981522 0.20422326238588701 0 0.47666815534307438 0.1799560991241789 0 0.5 0.19451514247620191 0 0.48538106092969918 0.20397942447337439 0 0.47666815534307438 0.1799560991241789 0 0.5 0.19451514247620191 0 0.48538106092969918 0.20397942447337439 0 0.50000000000000366 0.22227527347236409 0 0.48538106092969918 0.20397942447337439 0 0.48117221358560602 0.21892734490824009 0 0.50000000000000366 0.22227527347236409 0 0.48538106092969918 0.20397942447337439 0 0.46906493571981522 0.20422326238588701 0 0.48117221358560602 0.21892734490824009 0 0.46653743667820141 0.21941841805481399 0 0.46906493571981522 0.20422326238588701 0 0.48117221358560602 0.21892734490824009 0 0.47245480644721849 0.23403551535150849 0 0.49999999999999623 0.22583268640734061 0 0.47343198794039748 0.2362921804362787 0 0.46653743667820141 0.21941841805481399 0 0.47038638234742369 0.22624430249141561 0 0.48117221358560602 0.21892734490824009 0 0.47038638234742369 0.22624430249141561 0 0.47245480644721849 0.23403551535150849 0 0.48117221358560602 0.21892734490824009 0 0.46781485426523861 0.2302092981837621 0 0.47038638234742369 0.22624430249141561 0 0.47245480644721849 0.23403551535150849 0 0.47245480644721849 0.23403551535150849 0 0.48117221358560602 0.21892734490824009 0 0.50000000000000366 0.22227527347236409 0 0.49999999999999623 0.22583268640734061 0 0.47343198794039748 0.2362921804362787 0 0.47245480644721849 0.23403551535150849 0 0.49999999999999623 0.22583268640734061 0 0.50000000000000366 0.22227527347236409 0 0.47245480644721849 0.23403551535150849 0 0.50000000000000366 0.22227527347236409 0 0.5 0.25086567925177022 0 0.49999999999999623 0.22583268640734061 0 0.48475488326566019 0.24137376230632071 0 0.48028554519144229 0.25116001134618399 0 0.5 0.25086567925177022 0 0.48475488326566019 0.24137376230632071 0 0.49999999999999623 0.22583268640734061 0 0.48475488326566019 0.24137376230632071 0 0.47343198794039748 0.2362921804362787 0 0.48028554519144229 0.25116001134618399 0 0.48475488326566019 0.24137376230632071 0 0.47621324437872808 0.24274652058801871 0 0.48475488326566019 0.24137376230632071 0 0.47343198794039748 0.2362921804362787 0 0.47621324437872808 0.24274652058801871 0 0.47343198794039748 0.2362921804362787 0 0.46964302182836709 0.24184684721926339 0 0.47621324437872808 0.24274652058801871 0 0.48028554519144229 0.25116001134618399 0 0.47247327378161452 0.24647843583022461 0 0.47621324437872808 0.24274652058801871 0 0.46730603168846041 0.24673750197814051 0 0.46964302182836709 0.24184684721926339 0 0.47247327378161452 0.24647843583022461 0 0.4685410882301036 0.25055002417303152 0 0.46730603168846041 0.24673750197814051 0 0.47247327378161452 0.24647843583022461 0 0.46964302182836709 0.24184684721926339 0 0.47247327378161452 0.24647843583022461 0 0.47621324437872808 0.24274652058801871 0 0.46320540577979852 0.13386556751453119 0 0.45019824935952041 0.15899964512260059 0 0.47921950359593529 0.15108902732445359 0 0.46320540577979852 0.13386556751453119 0 0.45019824935952041 0.15899964512260059 0 0.43480306567891958 0.13635513890890141 0 0.46320540577979852 0.13386556751453119 0 0.44064050041911318 0.1167093006436805 0 0.43480306567891958 0.13635513890890141 0 0.46320540577979852 0.13386556751453119 0 0.45019824935952041 0.15899964512260059 0 0.43719109293924219 0.18413372273066991 0 0.42521866345556802 0.15927820082192951 0 0.45019824935952041 0.15899964512260059 0 0.43719109293924219 0.18413372273066991 0 0.45019824935952041 0.15899964512260059 0 0.43719109293924219 0.18413372273066991 0 0.45019824935952041 0.15899964512260059 0 0.45684873682176552 0.18584048710275011 0 0.45019824935952041 0.15899964512260059 0 0.45684873682176552 0.18584048710275011 0 0.47666815534307438 0.1799560991241789 0 0.45019824935952041 0.15899964512260059 0 0.47666815534307438 0.1799560991241789 0 0.47921950359593529 0.15108902732445359 0 0.5 0.19451514247620191 0 0.47666815534307438 0.1799560991241789 0 0.5 0.16675501148003979 0 0.47666815534307438 0.1799560991241789 0 0.5 0.16675501148003979 0 0.47921950359593529 0.15108902732445359 0 0.5 0.16675501148003979 0 0.47921950359593529 0.15108902732445359 0 0.5 0.13899488048387751 0 0.46320540577979852 0.13386556751453119 0 0.47921950359593529 0.15108902732445359 0 0.48433791196633419 0.12672124952203381 0 0.48433791196633419 0.12672124952203381 0 0.5 0.13899488048387751 0 0.50000000000000044 0.1112347494877154 0 0.47921950359593529 0.15108902732445359 0 0.48433791196633419 0.12672124952203381 0 0.5 0.13899488048387751 0 0.48433791196633419 0.12672124952203381 0 0.50000000000000044 0.1112347494877154 0 0.47691719624841178 0.10613290857353 0 0.50000000000000044 0.1112347494877154 0 0.47691719624841178 0.10613290857353 0 0.50000000000000044 0.1112347494877154 0 0.47691719624841178 0.10613290857353 0 0.5 0.084207672479996831 0 0.46320540577979852 0.13386556751453119 0 0.48433791196633419 0.12672124952203381 0 0.47691719624841178 0.10613290857353 0 0.5 0.084207672479996831 0 0.48049155819275219 0.067082983246240901 0 0.5 0.057180595472278162 0 0.5 0.084207672479996831 0 0.46925402710631642 0.083566878142985093 0 0.48049155819275219 0.067082983246240901 0 0.47691719624841178 0.10613290857353 0 0.5 0.084207672479996831 0 0.46925402710631642 0.083566878142985093 0 0.46925402710631642 0.083566878142985093 0 0.48049155819275219 0.067082983246240901 0 0.46505371000221052 0.065497421325091121 0 0.46925402710631642 0.083566878142985093 0 0.46505371000221052 0.065497421325091121 0 0.45775849025888588 0.075230635322704589 0 0.46505371000221052 0.065497421325091121 0 0.45775849025888588 0.075230635322704589 0 0.45256579057934088 0.058177235941962488 0 0.46925402710631642 0.083566878142985093 0 0.44946430779325502 0.087974111344276712 0 0.45383439249682311 0.1010310676593448 0 0.46925402710631642 0.083566878142985093 0 0.45775849025888588 0.075230635322704589 0 0.44946430779325502 0.087974111344276712 0 0.44946430779325502 0.087974111344276712 0 0.43075158874523389 0.095929226745161522 0 0.43591459396744059 0.085527275884239695 0 0.44946430779325502 0.087974111344276712 0 0.44362355023710492 0.073841968334251232 0 0.43591459396744059 0.085527275884239695 0 0.45775849025888588 0.075230635322704589 0 0.44946430779325502 0.087974111344276712 0 0.44362355023710492 0.073841968334251232 0 0.44362355023710492 0.073841968334251232 0 0.4361857312787466 0.062144520026982418 0 0.45256579057934088 0.058177235941962488 0 0.45775849025888588 0.075230635322704589 0 0.44362355023710492 0.073841968334251232 0 0.45256579057934088 0.058177235941962488 0 0.46320540577979852 0.13386556751453119 0 0.47691719624841178 0.10613290857353 0 0.45383439249682311 0.1010310676593448 0 0.46320540577979852 0.13386556751453119 0 0.45383439249682311 0.1010310676593448 0 0.44064050041911318 0.1167093006436805 0 0.47691719624841178 0.10613290857353 0 0.45383439249682311 0.1010310676593448 0 0.47691719624841178 0.10613290857353 0 0.46925402710631642 0.083566878142985093 0 0.45383439249682311 0.1010310676593448 0 0.44946430779325502 0.087974111344276712 0 0.45383439249682311 0.1010310676593448 0 0.43075158874523389 0.095929226745161522 0 0.45383439249682311 0.1010310676593448 0 0.43075158874523389 0.095929226745161522 0 0.45383439249682311 0.1010310676593448 0 0.44064050041911318 0.1167093006436805 0 0.43075158874523389 0.095929226745161522 0 0.44064050041911318 0.1167093006436805 0 0.42060804939479091 0.1163655023904633 0 0.43075158874523389 0.095929226745161522 0 0.43480306567891958 0.13635513890890141 0 0.44064050041911318 0.1167093006436805 0 0.42060804939479091 0.1163655023904633 0 0.42060804939479091 0.1163655023904633 0 0.40021073059295242 0.1095800146671347 0 0.40386153296416732 0.12308205244315 0 0.42060804939479091 0.1163655023904633 0 0.43075158874523389 0.095929226745161522 0 0.41249287020670222 0.091893621786465332 0 0.43075158874523389 0.095929226745161522 0 0.41249287020670222 0.091893621786465332 0 0.42060804939479091 0.1163655023904633 0 0.41249287020670222 0.091893621786465332 0 0.40021073059295242 0.1095800146671347 0 0.42060804939479091 0.1163655023904633 0 0.43075158874523389 0.095929226745161522 0 0.43075158874523389 0.095929226745161522 0 0.43591459396744059 0.085527275884239695 0 0.42450257525020407 0.084688393503963511 0 0.43075158874523389 0.095929226745161522 0 0.43591459396744059 0.085527275884239695 0 0.43075158874523389 0.095929226745161522 0 0.42450257525020407 0.084688393503963511 0 0.41249287020670222 0.091893621786465332 0 0.43591459396744059 0.085527275884239695 0 0.42450257525020407 0.084688393503963511 0 0.42985238754496052 0.073998031485341564 0 0.42985238754496052 0.073998031485341564 0 0.42450278601563618 0.061867443169875323 0 0.4361857312787466 0.062144520026982418 0 0.44362355023710492 0.073841968334251232 0 0.42985238754496052 0.073998031485341564 0 0.4361857312787466 0.062144520026982418 0 0.44362355023710492 0.073841968334251232 0 0.43591459396744059 0.085527275884239695 0 0.42985238754496052 0.073998031485341564 0 0.42450257525020407 0.084688393503963511 0 0.42985238754496052 0.073998031485341564 0 0.41426167578208978 0.073157488989425645 0 0.42985238754496052 0.073998031485341564 0 0.41426167578208978 0.073157488989425645 0 0.42450278601563618 0.061867443169875323 0 0.41426167578208978 0.073157488989425645 0 0.41494681608549239 0.057762819460580143 0 0.42450278601563618 0.061867443169875323 0 0.41426167578208978 0.073157488989425645 0 0.40738087004851969 0.063973704507782503 0 0.41494681608549239 0.057762819460580143 0 0.41426167578208978 0.073157488989425645 0 0.40738087004851969 0.063973704507782503 0 0.40252015196190488 0.070251889777591683 0 0.41426167578208978 0.073157488989425645 0 0.41249287020670222 0.091893621786465332 0 0.40152471876541579 0.079373532342091074 0 0.42450257525020407 0.084688393503963511 0 0.41426167578208978 0.073157488989425645 0 0.41249287020670222 0.091893621786465332 0 0.41249287020670222 0.091893621786465332 0 0.39882695602723689 0.091897214282210316 0 0.40152471876541579 0.079373532342091074 0 0.39882695602723689 0.091897214282210316 0 0.40152471876541579 0.079373532342091074 0 0.39139963739640482 0.080065294445454738 0 0.39882695602723689 0.091897214282210316 0 0.39139963739640482 0.080065294445454738 0 0.38637797313979722 0.089016828915628635 0 0.40738087004851969 0.063973704507782503 0 0.40252015196190488 0.070251889777591683 0 0.39584270769668761 0.063040868706311426 0 0.40152471876541579 0.079373532342091074 0 0.40252015196190488 0.070251889777591683 0 0.39359078751681148 0.071713854342347796 0 0.41426167578208978 0.073157488989425645 0 0.40152471876541579 0.079373532342091074 0 0.40252015196190488 0.070251889777591683 0 0.40152471876541579 0.079373532342091074 0 0.39139963739640482 0.080065294445454738 0 0.39359078751681148 0.071713854342347796 0 0.39359078751681148 0.071713854342347796 0 0.39584270769668761 0.063040868706311426 0 0.38670686771138951 0.065189213981686756 0 0.40252015196190488 0.070251889777591683 0 0.39359078751681148 0.071713854342347796 0 0.39584270769668761 0.063040868706311426 0 0.38670686771138951 0.065189213981686756 0 0.38487356385747612 0.073343796623874247 0 0.37799902802804569 0.067222174991591124 0 0.39359078751681148 0.071713854342347796 0 0.38670686771138951 0.065189213981686756 0 0.38487356385747612 0.073343796623874247 0 0.39139963739640482 0.080065294445454738 0 0.39359078751681148 0.071713854342347796 0 0.38487356385747612 0.073343796623874247 0 0.38487356385747612 0.073343796623874247 0 0.37633642060158418 0.076784453334308486 0 0.37799902802804569 0.067222174991591124 0 0.38487356385747612 0.073343796623874247 0 0.37633642060158418 0.076784453334308486 0 0.38279590191109569 0.081652674412185017 0 0.38670686771138951 0.065189213981686756 0 0.37799902802804569 0.067222174991591124 0 0.37992251621770001 0.060338697154957037 0 0.39139963739640482 0.080065294445454738 0 0.38637797313979722 0.089016828915628635 0 0.38279590191109569 0.081652674412185017 0 0.39139963739640482 0.080065294445454738 0 0.38487356385747612 0.073343796623874247 0 0.38279590191109569 0.081652674412185017 0 0.37633642060158418 0.076784453334308486 0 0.38279590191109569 0.081652674412185017 0 0.37521973616345439 0.088161911448038005 0 0.38637797313979722 0.089016828915628635 0 0.38279590191109569 0.081652674412185017 0 0.37521973616345439 0.088161911448038005 0 0.38637797313979722 0.089016828915628635 0 0.37521973616345439 0.088161911448038005 0 0.38256921655416343 0.1034225080984801 0 0.36774475250808392 0.099333096006358534 0 0.37521973616345439 0.088161911448038005 0 0.38256921655416343 0.1034225080984801 0 0.39882695602723689 0.091897214282210316 0 0.38637797313979722 0.089016828915628635 0 0.38256921655416343 0.1034225080984801 0 0.3650720533180542 0.1158579157250603 0 0.38416284182457838 0.1295809146792371 0 0.38256921655416343 0.1034225080984801 0 0.38416284182457838 0.1295809146792371 0 0.38256921655416343 0.1034225080984801 0 0.40021073059295242 0.1095800146671347 0 0.38416284182457838 0.1295809146792371 0 0.40021073059295242 0.1095800146671347 0 0.40386153296416732 0.12308205244315 0 0.39882695602723689 0.091897214282210316 0 0.38256921655416343 0.1034225080984801 0 0.40021073059295242 0.1095800146671347 0 0.41249287020670222 0.091893621786465332 0 0.39882695602723689 0.091897214282210316 0 0.40021073059295242 0.1095800146671347 0 0.36340172342481469 0.0074514204416719276 0 0.39098394240364309 0.016527826706598431 0 0.37740136405118418 -0.015688656136788919 0 0.39098394240364309 0.016527826706598431 0 0.4072868589526652 0.031402564311129207 0 0.41338274202032771 0.020670044105616878 0 0.39098394240364309 0.016527826706598431 0 0.3983615817235987 0.040931987465416132 0 0.4072868589526652 0.031402564311129207 0 0.39098394240364309 0.016527826706598431 0 0.41338274202032771 0.020670044105616878 0 0.41423333054656419 0.0042619446619767132 0 0.39098394240364309 0.016527826706598431 0 0.40462874307028018 -0.0091106677911148987 0 0.39098394240364309 0.016527826706598431 0 0.41423333054656419 0.0042619446619767132 0 0.40462874307028018 -0.0091106677911148987 0 0.36340172342481469 0.0074514204416719276 0 0.37096837100031238 0.0263002131899947 0 0.39098394240364309 0.016527826706598431 0 0.39098394240364309 0.016527826706598431 0 0.37733914173700589 0.04216632120431172 0 0.37096837100031238 0.0263002131899947 0 0.39098394240364309 0.016527826706598431 0 0.37733914173700589 0.04216632120431172 0 0.39098394240364309 0.016527826706598431 0 0.37733914173700589 0.04216632120431172 0 0.3983615817235987 0.040931987465416132 0 0.37733914173700589 0.04216632120431172 0 0.38856862150906218 0.048519605037236402 0 0.3983615817235987 0.040931987465416132 0 0.37318246110653053 0.049976697924118463 0 0.37733914173700589 0.04216632120431172 0 0.37318246110653053 0.049976697924118463 0 0.37733914173700589 0.04216632120431172 0 0.38060125038709042 0.051722107246657517 0 0.37733914173700589 0.04216632120431172 0 0.38060125038709042 0.051722107246657517 0 0.38856862150906218 0.048519605037236402 0 0.38060125038709042 0.051722107246657517 0 0.38856862150906218 0.048519605037236402 0 0.38819996187953421 0.057063828257024503 0 0.38670686771138951 0.065189213981686756 0 0.37992251621770001 0.060338697154957037 0 0.38819996187953421 0.057063828257024503 0 0.37992251621770001 0.060338697154957037 0 0.38060125038709042 0.051722107246657517 0 0.38819996187953421 0.057063828257024503 0 0.39584270769668761 0.063040868706311426 0 0.38670686771138951 0.065189213981686756 0 0.38819996187953421 0.057063828257024503 0 0.39584270769668761 0.063040868706311426 0 0.38819996187953421 0.057063828257024503 0 0.39755780775527561 0.053572477415297783 0 0.38856862150906218 0.048519605037236402 0 0.38819996187953421 0.057063828257024503 0 0.39755780775527561 0.053572477415297783 0 0.38856862150906218 0.048519605037236402 0 0.39755780775527561 0.053572477415297783 0 0.3983615817235987 0.040931987465416132 0 0.39755780775527561 0.053572477415297783 0 0.3983615817235987 0.040931987465416132 0 0.40666708270227991 0.052523289392781378 0 0.40738087004851969 0.063973704507782503 0 0.39755780775527561 0.053572477415297783 0 0.40666708270227991 0.052523289392781378 0 0.40738087004851969 0.063973704507782503 0 0.39584270769668761 0.063040868706311426 0 0.39755780775527561 0.053572477415297783 0 0.3983615817235987 0.040931987465416132 0 0.4072868589526652 0.031402564311129207 0 0.41289073624031392 0.044930909257013853 0 0.3983615817235987 0.040931987465416132 0 0.41289073624031392 0.044930909257013853 0 0.40666708270227991 0.052523289392781378 0 0.4072868589526652 0.031402564311129207 0 0.41289073624031392 0.044930909257013853 0 0.41783358594328729 0.035802088826224022 0 0.41289073624031392 0.044930909257013853 0 0.41783358594328729 0.035802088826224022 0 0.42133904988613841 0.049960869808265189 0 0.40738087004851969 0.063973704507782503 0 0.40666708270227991 0.052523289392781378 0 0.41494681608549239 0.057762819460580143 0 0.41289073624031392 0.044930909257013853 0 0.40666708270227991 0.052523289392781378 0 0.41494681608549239 0.057762819460580143 0 0.41289073624031392 0.044930909257013853 0 0.42133904988613841 0.049960869808265189 0 0.41494681608549239 0.057762819460580143 0 0.42133904988613841 0.049960869808265189 0 0.41494681608549239 0.057762819460580143 0 0.42450278601563618 0.061867443169875323 0 0.42133904988613841 0.049960869808265189 0 0.42450278601563618 0.061867443169875323 0 0.42997294860007418 0.054152593894779083 0 0.42133904988613841 0.049960869808265189 0 0.42997294860007418 0.054152593894779083 0 0.42885726252022388 0.043110068490782548 0 0.42997294860007418 0.054152593894779083 0 0.42885726252022388 0.043110068490782548 0 0.43895540133452848 0.05077954849207815 0 0.42997294860007418 0.054152593894779083 0 0.4361857312787466 0.062144520026982418 0 0.43895540133452848 0.05077954849207815 0 0.42450278601563618 0.061867443169875323 0 0.42997294860007418 0.054152593894779083 0 0.4361857312787466 0.062144520026982418 0 0.41783358594328729 0.035802088826224022 0 0.42944348608212107 0.033071050426612431 0 0.42885726252022388 0.043110068490782548 0 0.41783358594328729 0.035802088826224022 0 0.42133904988613841 0.049960869808265189 0 0.42885726252022388 0.043110068490782548 0 0.42885726252022388 0.043110068490782548 0 0.43713007850520302 0.039782231633102488 0 0.43895540133452848 0.05077954849207815 0 0.42944348608212107 0.033071050426612431 0 0.43713007850520302 0.039782231633102488 0 0.43746634413519198 0.03107047219593214 0 0.42944348608212107 0.033071050426612431 0 0.42885726252022388 0.043110068490782548 0 0.43713007850520302 0.039782231633102488 0 0.42944348608212107 0.033071050426612431 0 0.43746634413519198 0.03107047219593214 0 0.43169092654587421 0.026134285168176539 0 0.43746634413519198 0.03107047219593214 0 0.43169092654587421 0.026134285168176539 0 0.43827049119896039 0.023379212152475091 0 0.43169092654587421 0.026134285168176539 0 0.43285784875274352 0.013509880289290409 0 0.43827049119896039 0.023379212152475091 0 0.43169092654587421 0.026134285168176539 0 0.42517511717650042 0.0228733897586345 0 0.43285784875274352 0.013509880289290409 0 0.42517511717650042 0.0228733897586345 0 0.4226015264266173 0.012928182328569231 0 0.43285784875274352 0.013509880289290409 0 0.42944348608212107 0.033071050426612431 0 0.43169092654587421 0.026134285168176539 0 0.42517511717650042 0.0228733897586345 0 0.41783358594328729 0.035802088826224022 0 0.42944348608212107 0.033071050426612431 0 0.42517511717650042 0.0228733897586345 0 0.41783358594328729 0.035802088826224022 0 0.42517511717650042 0.0228733897586345 0 0.41338274202032771 0.020670044105616878 0 0.42517511717650042 0.0228733897586345 0 0.41338274202032771 0.020670044105616878 0 0.4226015264266173 0.012928182328569231 0 0.4072868589526652 0.031402564311129207 0 0.41783358594328729 0.035802088826224022 0 0.41338274202032771 0.020670044105616878 0 0.41338274202032771 0.020670044105616878 0 0.41423333054656419 0.0042619446619767132 0 0.4226015264266173 0.012928182328569231 0 0.41423333054656419 0.0042619446619767132 0 0.42698087193446838 0.0033470995555386959 0 0.4226015264266173 0.012928182328569231 0 0.42698087193446838 0.0033470995555386959 0 0.4226015264266173 0.012928182328569231 0 0.43285784875274352 0.013509880289290409 0 0.43285784875274352 0.013509880289290409 0 0.43992359402777648 0.0043361932438141749 0 0.42698087193446838 0.0033470995555386959 0 0.43285784875274352 0.013509880289290409 0 0.43992359402777648 0.0043361932438141749 0 0.43992359402777648 0.0043361932438141749 0 0.44990580955476001 0.019775764696885429 0 0.46078523836517021 -0.0014493034848403229 0 0.43285784875274352 0.013509880289290409 0 0.43992359402777648 0.0043361932438141749 0 0.44201715304030381 0.017873449096985631 0 0.43992359402777648 0.0043361932438141749 0 0.44201715304030381 0.017873449096985631 0 0.44990580955476001 0.019775764696885429 0 0.43992359402777648 0.0043361932438141749 0 0.44990580955476001 0.019775764696885429 0 0.43285784875274352 0.013509880289290409 0 0.43827049119896039 0.023379212152475091 0 0.44201715304030381 0.017873449096985631 0 0.43827049119896039 0.023379212152475091 0 0.4428227492373622 0.022934728194413421 0 0.44201715304030381 0.017873449096985631 0 0.4428227492373622 0.022934728194413421 0 0.44201715304030381 0.017873449096985631 0 0.448324174234559 0.022861433815629571 0 0.43746634413519198 0.03107047219593214 0 0.43827049119896039 0.023379212152475091 0 0.44267917847562582 0.02762481771256339 0 0.43827049119896039 0.023379212152475091 0 0.4428227492373622 0.022934728194413421 0 0.44267917847562582 0.02762481771256339 0 0.4428227492373622 0.022934728194413421 0 0.44267917847562582 0.02762481771256339 0 0.448324174234559 0.022861433815629571 0 0.44267917847562582 0.02762481771256339 0 0.448324174234559 0.022861433815629571 0 0.44591883183389552 0.035954925481738217 0 0.44201715304030381 0.017873449096985631 0 0.448324174234559 0.022861433815629571 0 0.44990580955476001 0.019775764696885429 0 0.448324174234559 0.022861433815629571 0 0.44990580955476001 0.019775764696885429 0 0.448324174234559 0.022861433815629571 0 0.44990580955476001 0.019775764696885429 0 0.46519868387375712 0.043429373971562553 0 0.44990580955476001 0.019775764696885429 0 0.46619213230453888 0.01550423125601634 0 0.46519868387375712 0.043429373971562553 0 0.44990580955476001 0.019775764696885429 0 0.46619213230453888 0.01550423125601634 0 0.46078523836517021 -0.0014493034848403229 0 0.44990580955476001 0.019775764696885429 0 0.46078523836517021 -0.0014493034848403229 0 0.4361857312787466 0.062144520026982418 0 0.45256579057934088 0.058177235941962488 0 0.43895540133452848 0.05077954849207815 0 0.45256579057934088 0.058177235941962488 0 0.43895540133452848 0.05077954849207815 0 0.44902059652358239 0.047310640964859922 0 0.448324174234559 0.022861433815629571 0 0.44591883183389552 0.035954925481738217 0 0.46519868387375712 0.043429373971562553 0 0.43713007850520302 0.039782231633102488 0 0.43895540133452848 0.05077954849207815 0 0.44902059652358239 0.047310640964859922 0 0.43713007850520302 0.039782231633102488 0 0.44902059652358239 0.047310640964859922 0 0.44591883183389552 0.035954925481738217 0 0.43746634413519198 0.03107047219593214 0 0.44267917847562582 0.02762481771256339 0 0.44591883183389552 0.035954925481738217 0 0.43713007850520302 0.039782231633102488 0 0.43746634413519198 0.03107047219593214 0 0.44591883183389552 0.035954925481738217 0 0.44990580955476001 0.019775764696885429 0 0.46519868387375712 0.043429373971562553 0 0.44902059652358239 0.047310640964859922 0 0.44591883183389552 0.035954925481738217 0 0.46519868387375712 0.043429373971562553 0 0.46505371000221052 0.065497421325091121 0 0.45256579057934088 0.058177235941962488 0 0.46519868387375712 0.043429373971562553 0 0.45256579057934088 0.058177235941962488 0 0.44902059652358239 0.047310640964859922 0 0.46519868387375712 0.043429373971562553 0 0.48049155819275219 0.067082983246240901 0 0.46505371000221052 0.065497421325091121 0 0.46519868387375712 0.043429373971562553 0 0.48049155819275219 0.067082983246240901 0 0.46519868387375712 0.043429373971562553 0 0.48555258990836098 0.044027651262655822 0 0.48049155819275219 0.067082983246240901 0 0.46519868387375712 0.043429373971562553 0 0.46519868387375712 0.043429373971562553 0 0.48555258990836098 0.044027651262655822 0 0.48207270747529551 0.02229178515863801 0 0.48555258990836098 0.044027651262655822 0 0.48207270747529551 0.02229178515863801 0 0.5 0.030153518464559489 0 0.48555258990836098 0.044027651262655822 0 0.5 0.057180595472278162 0 0.5 0.030153518464559489 0 0.48049155819275219 0.067082983246240901 0 0.48555258990836098 0.044027651262655822 0 0.5 0.057180595472278162 0 0.46619213230453888 0.01550423125601634 0 0.47957136253037569 -0.001594628440287792 0 0.46078523836517021 -0.0014493034848403229 0 0.46619213230453888 0.01550423125601634 0 0.48207270747529551 0.02229178515863801 0 0.47957136253037569 -0.001594628440287792 0 0.46619213230453888 0.01550423125601634 0 0.46519868387375712 0.043429373971562553 0 0.48207270747529551 0.02229178515863801 0 0.48207270747529551 0.02229178515863801 0 0.5 0.030153518464559489 0 0.5 0.0031264414568406011 0 0.48207270747529551 0.02229178515863801 0 0.5 0.0031264414568406011 0 0.47957136253037569 -0.001594628440287792 0 0.5 0.0031264414568406011 0 0.47957136253037569 -0.001594628440287792 0 0.5 -0.02390063555087818 0 0.47957136253037569 -0.001594628440287792 0 0.47166466717558148 -0.022674371666565399 0 0.46078523836517021 -0.0014493034848403229 0 0.47957136253037569 -0.001594628440287792 0 0.47166466717558148 -0.022674371666565399 0 0.5 -0.02390063555087818 0 0.47166466717558148 -0.022674371666565399 0 0.5 -0.02390063555087818 0 0.48254409598599279 -0.043899439848290381 0 0.5 -0.02390063555087818 0 0.5 -0.050927712558597023 0 0.48254409598599279 -0.043899439848290381 0 0.5 -0.050927712558597023 0 0.48254409598599279 -0.043899439848290381 0 0.49342352479640411 -0.065124508030015363 0 0.5 -0.050927712558597023 0 0.49734713213020848 -0.070218655125416973 0 0.49342352479640411 -0.065124508030015363 0 0.48254409598599279 -0.043899439848290381 0 0.49342352479640411 -0.065124508030015363 0 0.4755902145401949 -0.04197094093873887 0 0.49342352479640411 -0.065124508030015363 0 0.48231690168093072 -0.053312448548452573 0 0.4755902145401949 -0.04197094093873887 0 0.49342352479640411 -0.065124508030015363 0 0.48231690168093072 -0.053312448548452573 0 0.46680628636315702 -0.053636166987100803 0 0.4600163200451588 -0.067305317103482629 0 0.48254409598599279 -0.043899439848290381 0 0.4755902145401949 -0.04197094093873887 0 0.49342352479640411 -0.065124508030015363 0 0.48231690168093072 -0.053312448548452573 0 0.4600163200451588 -0.067305317103482629 0 0.48231690168093072 -0.053312448548452573 0 0.4755902145401949 -0.04197094093873887 0 0.46680628636315702 -0.053636166987100803 0 0.47166466717558148 -0.022674371666565399 0 0.48254409598599279 -0.043899439848290381 0 0.47166466717558148 -0.022674371666565399 0 0.48254409598599279 -0.043899439848290381 0 0.4755902145401949 -0.04197094093873887 0 0.4755902145401949 -0.04197094093873887 0 0.46368001235728989 -0.039204358275783557 0 0.45775690428398569 -0.018817373847462342 0 0.46368001235728989 -0.039204358275783557 0 0.45456664424182219 -0.042392951329832257 0 0.45775690428398569 -0.018817373847462342 0 0.4755902145401949 -0.04197094093873887 0 0.46368001235728989 -0.039204358275783557 0 0.46680628636315702 -0.053636166987100803 0 0.46368001235728989 -0.039204358275783557 0 0.45456664424182219 -0.042392951329832257 0 0.46680628636315702 -0.053636166987100803 0 0.45456664424182219 -0.042392951329832257 0 0.46680628636315702 -0.053636166987100803 0 0.45121972802171689 -0.055819114351623678 0 0.46680628636315702 -0.053636166987100803 0 0.45121972802171689 -0.055819114351623678 0 0.4600163200451588 -0.067305317103482629 0 0.45456664424182219 -0.042392951329832257 0 0.45121972802171689 -0.055819114351623678 0 0.44282632626125551 -0.044950269696858079 0 0.45121972802171689 -0.055819114351623678 0 0.44282632626125551 -0.044950269696858079 0 0.4362178231874399 -0.055228075608074453 0 0.45121972802171689 -0.055819114351623678 0 0.44320660420267649 -0.065746496444307703 0 0.4362178231874399 -0.055228075608074453 0 0.45456664424182219 -0.042392951329832257 0 0.44010891165474292 -0.032978342851005552 0 0.45775690428398569 -0.018817373847462342 0 0.45456664424182219 -0.042392951329832257 0 0.44282632626125551 -0.044950269696858079 0 0.44010891165474292 -0.032978342851005552 0 0.44010891165474292 -0.032978342851005552 0 0.44076936747128642 -0.016440056550152689 0 0.45775690428398569 -0.018817373847462342 0 0.43992359402777648 0.0043361932438141749 0 0.46078523836517021 -0.0014493034848403229 0 0.45775690428398569 -0.018817373847462342 0 0.43992359402777648 0.0043361932438141749 0 0.45775690428398569 -0.018817373847462342 0 0.43992359402777648 0.0043361932438141749 0 0.44076936747128642 -0.016440056550152689 0 0.45775690428398569 -0.018817373847462342 0 0.47166466717558148 -0.022674371666565399 0 0.46078523836517021 -0.0014493034848403229 0 0.45775690428398569 -0.018817373847462342 0 0.47166466717558148 -0.022674371666565399 0 0.46078523836517021 -0.0014493034848403229 0 0.4755902145401949 -0.04197094093873887 0 0.45775690428398569 -0.018817373847462342 0 0.47166466717558148 -0.022674371666565399 0 0.4755902145401949 -0.04197094093873887 0 0.45775690428398569 -0.018817373847462342 0 0.48432939778674999 -0.11232667444405391 0 0.46291061333527922 -0.1199621865080316 0 0.48083616927728368 -0.1326122769646117 0 0.48432939778674999 -0.11232667444405391 0 0.47467812776202672 -0.1010226058562177 0 0.46291061333527922 -0.1199621865080316 0 0.49765321618493619 -0.1217514044971684 0 0.5 -0.10701492340923829 0 0.5 -0.1335092937735452 0 0.48432939778674999 -0.11232667444405391 0 0.49765321618493619 -0.1217514044971684 0 0.5 -0.10701492340923829 0 0.48432939778674999 -0.11232667444405391 0 0.49765321618493619 -0.1217514044971684 0 0.48083616927728368 -0.1326122769646117 0 0.5 -0.10701492340923829 0 0.48721919851180101 -0.096842857827698484 0 0.49999999999999872 -0.080520553044931456 0 0.48432939778674999 -0.11232667444405391 0 0.5 -0.10701492340923829 0 0.48721919851180101 -0.096842857827698484 0 0.48721919851180101 -0.096842857827698484 0 0.47467812776202672 -0.1010226058562177 0 0.47964380972543491 -0.085500621182081002 0 0.48432939778674999 -0.11232667444405391 0 0.48721919851180101 -0.096842857827698484 0 0.47467812776202672 -0.1010226058562177 0 0.47964380972543491 -0.085500621182081002 0 0.45928761945086932 -0.090480689319223123 0 0.47467812776202672 -0.1010226058562177 0 0.47964380972543491 -0.085500621182081002 0 0.45928761945086932 -0.090480689319223123 0 0.47964380972543491 -0.085500621182081002 0 0.49999999999999872 -0.080520553044931456 0 0.48994334767010439 -0.075629467881000889 0 0.47964380972543491 -0.085500621182081002 0 0.49999999999999872 -0.080520553044931456 0 0.48721919851180101 -0.096842857827698484 0 0.47964380972543491 -0.085500621182081002 0 0.49999999999999872 -0.080520553044931456 0 0.5 -0.050927712558597023 0 0.49999999999999922 -0.077954789566315852 0 0.49734713213020848 -0.070218655125416973 0 0.48994334767010439 -0.075629467881000889 0 0.49342352479640411 -0.065124508030015363 0 0.47664940382868443 -0.06904686758166112 0 0.49999999999999872 -0.080520553044931456 0 0.48994334767010439 -0.075629467881000889 0 0.49999999999999922 -0.077954789566315852 0 0.49999999999999922 -0.077954789566315852 0 0.49342352479640411 -0.065124508030015363 0 0.48994334767010439 -0.075629467881000889 0 0.49999999999999922 -0.077954789566315852 0 0.49342352479640411 -0.065124508030015363 0 0.49999999999999922 -0.077954789566315852 0 0.49734713213020848 -0.070218655125416973 0 0.49342352479640411 -0.065124508030015363 0 0.49734713213020848 -0.070218655125416973 0 0.49342352479640411 -0.065124508030015363 0 0.48231690168093072 -0.053312448548452573 0 0.49342352479640411 -0.065124508030015363 0 0.47664940382868443 -0.06904686758166112 0 0.48231690168093072 -0.053312448548452573 0 0.47664940382868443 -0.06904686758166112 0 0.4600163200451588 -0.067305317103482629 0 0.47964380972543491 -0.085500621182081002 0 0.48994334767010439 -0.075629467881000889 0 0.47664940382868443 -0.06904686758166112 0 0.47964380972543491 -0.085500621182081002 0 0.47664940382868443 -0.06904686758166112 0 0.46670422324352601 -0.07834353263688526 0 0.47664940382868443 -0.06904686758166112 0 0.4600163200451588 -0.067305317103482629 0 0.46670422324352601 -0.07834353263688526 0 0.4600163200451588 -0.067305317103482629 0 0.45792396316748368 -0.079384167997978289 0 0.46670422324352601 -0.07834353263688526 0 0.4600163200451588 -0.067305317103482629 0 0.43771573840938699 -0.081298185658512601 0 0.45121972802171689 -0.055819114351623678 0 0.4600163200451588 -0.067305317103482629 0 0.44320660420267649 -0.065746496444307703 0 0.4600163200451588 -0.067305317103482629 0 0.43771573840938699 -0.081298185658512601 0 0.45792396316748368 -0.079384167997978289 0 0.4600163200451588 -0.067305317103482629 0 0.44320660420267649 -0.065746496444307703 0 0.43771573840938699 -0.081298185658512601 0 0.43771573840938699 -0.081298185658512601 0 0.45928761945086932 -0.090480689319223123 0 0.43074801460813861 -0.09746280015662756 0 0.43771573840938699 -0.081298185658512601 0 0.45928761945086932 -0.090480689319223123 0 0.45792396316748368 -0.079384167997978289 0 0.47964380972543491 -0.085500621182081002 0 0.45928761945086932 -0.090480689319223123 0 0.46670422324352601 -0.07834353263688526 0 0.45928761945086932 -0.090480689319223123 0 0.45792396316748368 -0.079384167997978289 0 0.45928761945086932 -0.090480689319223123 0 0.45792396316748368 -0.079384167997978289 0 0.46670422324352601 -0.07834353263688526 0 0.47467812776202672 -0.1010226058562177 0 0.45928761945086932 -0.090480689319223123 0 0.46291061333527922 -0.1199621865080316 0 0.45928761945086932 -0.090480689319223123 0 0.46291061333527922 -0.1199621865080316 0 0.45928761945086932 -0.090480689319223123 0 0.4483808634180329 -0.1053346026619475 0 0.46291061333527922 -0.1199621865080316 0 0.45928761945086932 -0.090480689319223123 0 0.43074801460813861 -0.09746280015662756 0 0.4483808634180329 -0.1053346026619475 0 0.44269508489546172 -0.11827570682135009 0 0.43074801460813861 -0.09746280015662756 0 0.45928761945086932 -0.090480689319223123 0 0.4483808634180329 -0.1053346026619475 0 0.43074801460813861 -0.09746280015662756 0 0.4483808634180329 -0.1053346026619475 0 0.44269508489546172 -0.11827570682135009 0 0.46291061333527922 -0.1199621865080316 0 0.41444127742219738 -0.117920192527197 0 0.42047049602907199 -0.1271837148430543 0 0.40717042195814152 -0.12667580876036291 0 0.41444127742219738 -0.117920192527197 0 0.40034727481755689 -0.1135445646309611 0 0.40717042195814152 -0.12667580876036291 0 0.41444127742219738 -0.117920192527197 0 0.41004708281002661 -0.1059760509905051 0 0.40034727481755689 -0.1135445646309611 0 0.41444127742219738 -0.117920192527197 0 0.41990400635398689 -0.1082451791256239 0 0.41004708281002661 -0.1059760509905051 0 0.41444127742219738 -0.117920192527197 0 0.42787147724535279 -0.1177655168214231 0 0.41990400635398689 -0.1082451791256239 0 0.41444127742219738 -0.117920192527197 0 0.42787147724535279 -0.1177655168214231 0 0.42047049602907199 -0.1271837148430543 0 0.44269508489546172 -0.11827570682135009 0 0.42787147724535279 -0.1177655168214231 0 0.43074801460813861 -0.09746280015662756 0 0.44269508489546172 -0.11827570682135009 0 0.42787147724535279 -0.1177655168214231 0 0.43341698089062902 -0.13232221239677211 0 0.42787147724535279 -0.1177655168214231 0 0.43074801460813861 -0.09746280015662756 0 0.41990400635398689 -0.1082451791256239 0 0.43074801460813861 -0.09746280015662756 0 0.41541515677361518 -0.095291054213542614 0 0.41990400635398689 -0.1082451791256239 0 0.41541515677361518 -0.095291054213542614 0 0.41004708281002661 -0.1059760509905051 0 0.3991029239239049 -0.096732992125864614 0 0.41541515677361518 -0.095291054213542614 0 0.41990400635398689 -0.1082451791256239 0 0.41004708281002661 -0.1059760509905051 0 0.41541515677361518 -0.095291054213542614 0 0.40541197716030081 -0.081460547196662736 0 0.3991029239239049 -0.096732992125864614 0 0.41541515677361518 -0.095291054213542614 0 0.41889981022647937 -0.076077813126430471 0 0.40541197716030081 -0.081460547196662736 0 0.43771573840938699 -0.081298185658512601 0 0.43074801460813861 -0.09746280015662756 0 0.41541515677361518 -0.095291054213542614 0 0.43771573840938699 -0.081298185658512601 0 0.41541515677361518 -0.095291054213542614 0 0.43771573840938699 -0.081298185658512601 0 0.41541515677361518 -0.095291054213542614 0 0.41889981022647937 -0.076077813126430471 0 0.43091234125046712 -0.066556414105652009 0 0.41889981022647937 -0.076077813126430471 0 0.42108541804998351 -0.055154363881672427 0 0.43771573840938699 -0.081298185658512601 0 0.43091234125046712 -0.066556414105652009 0 0.41889981022647937 -0.076077813126430471 0 0.44320660420267649 -0.065746496444307703 0 0.43771573840938699 -0.081298185658512601 0 0.43091234125046712 -0.066556414105652009 0 0.44320660420267649 -0.065746496444307703 0 0.43091234125046712 -0.066556414105652009 0 0.4362178231874399 -0.055228075608074453 0 0.41889981022647937 -0.076077813126430471 0 0.42108541804998351 -0.055154363881672427 0 0.40540064530392328 -0.061968809293710778 0 0.41889981022647937 -0.076077813126430471 0 0.40541197716030081 -0.081460547196662736 0 0.40540064530392328 -0.061968809293710778 0 0.38824134957358092 -0.077232067223765133 0 0.40540064530392328 -0.061968809293710778 0 0.38967908849382449 -0.058682859590283798 0 0.38824134957358092 -0.077232067223765133 0 0.40541197716030081 -0.081460547196662736 0 0.40540064530392328 -0.061968809293710778 0 0.38824134957358092 -0.077232067223765133 0 0.38967908849382449 -0.058682859590283798 0 0.37367335442023991 -0.05670182912840941 0 0.38824134957358092 -0.077232067223765133 0 0.38136371597235552 -0.1078723618563258 0 0.36317377602105899 -0.093780917622311805 0 0.38824134957358092 -0.077232067223765133 0 0.36317377602105899 -0.093780917622311805 0 0.38824134957358092 -0.077232067223765133 0 0.40541197716030081 -0.081460547196662736 0 0.3991029239239049 -0.096732992125864614 0 0.41004708281002661 -0.1059760509905051 0 0.3991029239239049 -0.096732992125864614 0 0.40034727481755689 -0.1135445646309611 0 0.3991029239239049 -0.096732992125864614 0 0.38136371597235552 -0.1078723618563258 0 0.40034727481755689 -0.1135445646309611 0 0.38824134957358092 -0.077232067223765133 0 0.3991029239239049 -0.096732992125864614 0 0.38136371597235552 -0.1078723618563258 0 0.38589697302152071 -0.1203195835582863 0 0.36977374846272099 -0.118981527972274 0 0.37788455695678491 -0.13196097897868941 0 0.38136371597235552 -0.1078723618563258 0 0.38589697302152071 -0.1203195835582863 0 0.40034727481755689 -0.1135445646309611 0 0.38136371597235552 -0.1078723618563258 0 0.38589697302152071 -0.1203195835582863 0 0.36977374846272099 -0.118981527972274 0 0.38589697302152071 -0.1203195835582863 0 0.39630034399856068 -0.12412702266274379 0 0.38887656832053902 -0.13016986574645989 0 0.38589697302152071 -0.1203195835582863 0 0.39630034399856068 -0.12412702266274379 0 0.40034727481755689 -0.1135445646309611 0 0.39630034399856068 -0.12412702266274379 0 0.40034727481755689 -0.1135445646309611 0 0.40717042195814152 -0.12667580876036291 0 0.42528805991864033 -0.018300702745957052 0 0.41065252580950418 -0.040937598735728269 0 0.40254889959785978 -0.025987829841879379 0 0.42528805991864033 -0.018300702745957052 0 0.41065252580950418 -0.040937598735728269 0 0.42528805991864033 -0.018300702745957052 0 0.40254889959785978 -0.025987829841879379 0 0.40462874307028018 -0.0091106677911148987 0 0.41423333054656419 0.0042619446619767132 0 0.42528805991864033 -0.018300702745957052 0 0.40462874307028018 -0.0091106677911148987 0 0.43992359402777648 0.0043361932438141749 0 0.44076936747128642 -0.016440056550152689 0 0.42528805991864033 -0.018300702745957052 0 0.41423333054656419 0.0042619446619767132 0 0.42698087193446838 0.0033470995555386959 0 0.42528805991864033 -0.018300702745957052 0 0.42698087193446838 0.0033470995555386959 0 0.43992359402777648 0.0043361932438141749 0 0.42528805991864033 -0.018300702745957052 0 0.43992359402777648 0.0043361932438141749 0 0.42528805991864033 -0.018300702745957052 0 0.44010891165474292 -0.032978342851005552 0 0.44076936747128642 -0.016440056550152689 0 0.42528805991864033 -0.018300702745957052 0 0.44010891165474292 -0.032978342851005552 0 0.42528805991864033 -0.018300702745957052 0 0.42752105614170027 -0.040835486516484359 0 0.44282632626125551 -0.044950269696858079 0 0.44010891165474292 -0.032978342851005552 0 0.42752105614170027 -0.040835486516484359 0 0.44282632626125551 -0.044950269696858079 0 0.42752105614170027 -0.040835486516484359 0 0.4362178231874399 -0.055228075608074453 0 0.42752105614170027 -0.040835486516484359 0 0.4362178231874399 -0.055228075608074453 0 0.42108541804998351 -0.055154363881672427 0 0.43091234125046712 -0.066556414105652009 0 0.4362178231874399 -0.055228075608074453 0 0.42108541804998351 -0.055154363881672427 0 0.42108541804998351 -0.055154363881672427 0 0.41065252580950418 -0.040937598735728269 0 0.40540064530392328 -0.061968809293710778 0 0.42528805991864033 -0.018300702745957052 0 0.42752105614170027 -0.040835486516484359 0 0.41065252580950418 -0.040937598735728269 0 0.42752105614170027 -0.040835486516484359 0 0.42108541804998351 -0.055154363881672427 0 0.41065252580950418 -0.040937598735728269 0 0.41065252580950418 -0.040937598735728269 0 0.39140100467755368 -0.03882873271524985 0 0.40254889959785978 -0.025987829841879379 0 0.41065252580950418 -0.040937598735728269 0 0.39140100467755368 -0.03882873271524985 0 0.40540064530392328 -0.061968809293710778 0 0.39140100467755368 -0.03882873271524985 0 0.40540064530392328 -0.061968809293710778 0 0.38967908849382449 -0.058682859590283798 0 0.39140100467755368 -0.03882873271524985 0 0.40540064530392328 -0.061968809293710778 0 0.39140100467755368 -0.03882873271524985 0 0.38967908849382449 -0.058682859590283798 0 0.37367335442023991 -0.05670182912840941 0 0.39140100467755368 -0.03882873271524985 0 0.36764866883224051 -0.03534694736976244 0 0.37367335442023991 -0.05670182912840941 0 0.39140100467755368 -0.03882873271524985 0 0.37740136405118418 -0.015688656136788919 0 0.36764866883224051 -0.03534694736976244 0 0.39140100467755368 -0.03882873271524985 0 0.37740136405118418 -0.015688656136788919 0 0.40254889959785978 -0.025987829841879379 0 0.39098394240364309 0.016527826706598431 0 0.37740136405118418 -0.015688656136788919 0 0.40462874307028018 -0.0091106677911148987 0 0.39140100467755368 -0.03882873271524985 0 0.37740136405118418 -0.015688656136788919 0 0.37740136405118418 -0.015688656136788919 0 0.40254889959785978 -0.025987829841879379 0 0.40462874307028018 -0.0091106677911148987 0 0.36340172342481469 0.0074514204416719276 0 0.37740136405118418 -0.015688656136788919 0 0.37740136405118418 -0.015688656136788919 0 0.3457351359459705 -0.01746391836280128 0 0.36764866883224051 -0.03534694736976244 0 0.36340172342481469 0.0074514204416719276 0 0.37740136405118418 -0.015688656136788919 0 0.3457351359459705 -0.01746391836280128 0 0.36340172342481469 0.0074514204416719276 0 0.33926131895553052 0.010037413436357889 0 0.3457351359459705 -0.01746391836280128 0 0.33926131895553052 0.010037413436357889 0 0.3457351359459705 -0.01746391836280128 0 0.31931567015707069 -0.00026893956108775221 0 0.3457351359459705 -0.01746391836280128 0 0.31452146367800288 -0.021182354334393329 0 0.33004309781452318 -0.036670153063868297 0 0.3457351359459705 -0.01746391836280128 0 0.31452146367800288 -0.021182354334393329 0 0.31931567015707069 -0.00026893956108775221 0 0.32877971408751838 -0.05648359902727209 0 0.30031250529218823 -0.068295657277859509 0 0.30877043607103177 -0.040609641310187329 0 0.31452146367800288 -0.021182354334393329 0 0.33004309781452318 -0.036670153063868297 0 0.30877043607103177 -0.040609641310187329 0 0.33004309781452318 -0.036670153063868297 0 0.32877971408751838 -0.05648359902727209 0 0.30877043607103177 -0.040609641310187329 0 0.3457351359459705 -0.01746391836280128 0 0.33004309781452318 -0.036670153063868297 0 0.35003248506625401 -0.048051600505562737 0 0.33004309781452318 -0.036670153063868297 0 0.32877971408751838 -0.05648359902727209 0 0.35003248506625401 -0.048051600505562737 0 0.35003248506625401 -0.048051600505562737 0 0.37367335442023991 -0.05670182912840941 0 0.35323591664608561 -0.070872747419982354 0 0.32877971408751838 -0.05648359902727209 0 0.35003248506625401 -0.048051600505562737 0 0.35323591664608561 -0.070872747419982354 0 0.3457351359459705 -0.01746391836280128 0 0.35003248506625401 -0.048051600505562737 0 0.36764866883224051 -0.03534694736976244 0 0.35003248506625401 -0.048051600505562737 0 0.36764866883224051 -0.03534694736976244 0 0.37367335442023991 -0.05670182912840941 0 0.38824134957358092 -0.077232067223765133 0 0.37367335442023991 -0.05670182912840941 0 0.35323591664608561 -0.070872747419982354 0 0.38824134957358092 -0.077232067223765133 0 0.35323591664608561 -0.070872747419982354 0 0.36317377602105899 -0.093780917622311805 0 0.35323591664608561 -0.070872747419982354 0 0.36317377602105899 -0.093780917622311805 0 0.34061057081295659 -0.089102696014606436 0 0.36977374846272099 -0.118981527972274 0 0.36317377602105899 -0.093780917622311805 0 0.35190257278770443 -0.12340674486460949 0 0.38136371597235552 -0.1078723618563258 0 0.36977374846272099 -0.118981527972274 0 0.36317377602105899 -0.093780917622311805 0 0.36317377602105899 -0.093780917622311805 0 0.33810620246853679 -0.1103297680208586 0 0.34061057081295659 -0.089102696014606436 0 0.36317377602105899 -0.093780917622311805 0 0.35190257278770443 -0.12340674486460949 0 0.33810620246853679 -0.1103297680208586 0 0.36317377602105899 -0.093780917622311805 0 0.33810620246853679 -0.1103297680208586 0 0.33810620246853679 -0.1103297680208586 0 0.31303862891601458 -0.12687861841940551 0 0.33437387270441599 -0.13655687438813749 0 0.35190257278770443 -0.12340674486460949 0 0.33810620246853679 -0.1103297680208586 0 0.33437387270441599 -0.13655687438813749 0 0.33810620246853679 -0.1103297680208586 0 0.31363967812666887 -0.097353961080958673 0 0.34061057081295659 -0.089102696014606436 0 0.33810620246853679 -0.1103297680208586 0 0.31363967812666887 -0.097353961080958673 0 0.31303862891601458 -0.12687861841940551 0 0.33810620246853679 -0.1103297680208586 0 0.31303862891601458 -0.12687861841940551 0 0.32877971408751838 -0.05648359902727209 0 0.35323591664608561 -0.070872747419982354 0 0.32458083349781608 -0.075458630316272896 0 0.35323591664608561 -0.070872747419982354 0 0.34061057081295659 -0.089102696014606436 0 0.32458083349781608 -0.075458630316272896 0 0.31363967812666887 -0.097353961080958673 0 0.32458083349781608 -0.075458630316272896 0 0.30031250529218823 -0.068295657277859509 0 0.31363967812666887 -0.097353961080958673 0 0.34061057081295659 -0.089102696014606436 0 0.32458083349781608 -0.075458630316272896 0 0.32877971408751838 -0.05648359902727209 0 0.32458083349781608 -0.075458630316272896 0 0.30031250529218823 -0.068295657277859509 0 0.31363967812666887 -0.097353961080958673 0 0.30031250529218823 -0.068295657277859509 0 0.2851167807772626 -0.09499943791397214 0 0.30031250529218823 -0.068295657277859509 0 0.28191623048865122 -0.076031692357237932 0 0.2851167807772626 -0.09499943791397214 0 0.30031250529218823 -0.068295657277859509 0 0.28191623048865122 -0.076031692357237932 0 0.27456205322428517 -0.061030033493663427 0 0.31363967812666887 -0.097353961080958673 0 0.28961292292312479 -0.1172584555736924 0 0.31303862891601458 -0.12687861841940551 0 0.31363967812666887 -0.097353961080958673 0 0.2851167807772626 -0.09499943791397214 0 0.28961292292312479 -0.1172584555736924 0 0.26615958812702151 -0.11215990074365741 0 0.25767473658732443 -0.1269586301084292 0 0.27366455997770461 -0.12776251451567339 0 0.28961292292312479 -0.1172584555736924 0 0.26615958812702151 -0.11215990074365741 0 0.27366455997770461 -0.12776251451567339 0 0.2851167807772626 -0.09499943791397214 0 0.26615958812702151 -0.11215990074365741 0 0.26144902667504161 -0.095513899042057232 0 0.2851167807772626 -0.09499943791397214 0 0.28961292292312479 -0.1172584555736924 0 0.26615958812702151 -0.11215990074365741 0 0.26615958812702151 -0.11215990074365741 0 0.26144902667504161 -0.095513899042057232 0 0.24722441108325799 -0.1041764247766344 0 0.26615958812702151 -0.11215990074365741 0 0.24722441108325799 -0.1041764247766344 0 0.24837467886543441 -0.1184499432751434 0 0.26615958812702151 -0.11215990074365741 0 0.25767473658732443 -0.1269586301084292 0 0.24837467886543441 -0.1184499432751434 0 0.25767473658732443 -0.1269586301084292 0 0.24837467886543441 -0.1184499432751434 0 0.24534171350248241 -0.1279746456375026 0 0.28191623048865122 -0.076031692357237932 0 0.2659341598521523 -0.078207651292816566 0 0.27456205322428517 -0.061030033493663427 0 0.28191623048865122 -0.076031692357237932 0 0.2851167807772626 -0.09499943791397214 0 0.2659341598521523 -0.078207651292816566 0 0.2851167807772626 -0.09499943791397214 0 0.26144902667504161 -0.095513899042057232 0 0.2659341598521523 -0.078207651292816566 0 0.26144902667504161 -0.095513899042057232 0 0.24550632562069369 -0.08148075171338201 0 0.24722441108325799 -0.1041764247766344 0 0.26144902667504161 -0.095513899042057232 0 0.2659341598521523 -0.078207651292816566 0 0.24550632562069369 -0.08148075171338201 0 0.2659341598521523 -0.078207651292816566 0 0.25154037507169252 -0.057607439739242518 0 0.24550632562069369 -0.08148075171338201 0 0.2659341598521523 -0.078207651292816566 0 0.25154037507169252 -0.057607439739242518 0 0.27456205322428517 -0.061030033493663427 0 0.25154037507169252 -0.057607439739242518 0 0.27456205322428517 -0.061030033493663427 0 0.26511099969186158 -0.044781248238993362 0 0.27456205322428517 -0.061030033493663427 0 0.26511099969186158 -0.044781248238993362 0 0.28332805271022121 -0.041560196734261451 0 0.26511099969186158 -0.044781248238993362 0 0.2671627919831519 -0.02618746631546786 0 0.28332805271022121 -0.041560196734261451 0 0.26511099969186158 -0.044781248238993362 0 0.2671627919831519 -0.02618746631546786 0 0.24896172546995729 -0.037521104912331522 0 0.25154037507169252 -0.057607439739242518 0 0.26511099969186158 -0.044781248238993362 0 0.24896172546995729 -0.037521104912331522 0 0.2671627919831519 -0.02618746631546786 0 0.24896172546995729 -0.037521104912331522 0 0.24618848066494531 -0.019387664510027571 0 0.26393903377749889 -0.0020135769245689058 0 0.2671627919831519 -0.02618746631546786 0 0.24618848066494531 -0.019387664510027571 0 0.24379497507385561 0.0081632620621440027 0 0.26393903377749889 -0.0020135769245689058 0 0.24618848066494531 -0.019387664510027571 0 0.26393903377749889 -0.0020135769245689058 0 0.28044547795403918 -0.007426133596136821 0 0.2671627919831519 -0.02618746631546786 0 0.28044547795403918 -0.007426133596136821 0 0.2671627919831519 -0.02618746631546786 0 0.29179042629626362 -0.023335765460289069 0 0.2671627919831519 -0.02618746631546786 0 0.29179042629626362 -0.023335765460289069 0 0.28332805271022121 -0.041560196734261451 0 0.28044547795403918 -0.007426133596136821 0 0.29179042629626362 -0.023335765460289069 0 0.29666158144344351 -0.0017469125296412319 0 0.31452146367800288 -0.021182354334393329 0 0.31931567015707069 -0.00026893956108775221 0 0.29666158144344351 -0.0017469125296412319 0 0.31452146367800288 -0.021182354334393329 0 0.29179042629626362 -0.023335765460289069 0 0.29666158144344351 -0.0017469125296412319 0 0.31452146367800288 -0.021182354334393329 0 0.29179042629626362 -0.023335765460289069 0 0.30877043607103177 -0.040609641310187329 0 0.30031250529218823 -0.068295657277859509 0 0.30877043607103177 -0.040609641310187329 0 0.28332805271022121 -0.041560196734261451 0 0.30031250529218823 -0.068295657277859509 0 0.27456205322428517 -0.061030033493663427 0 0.28332805271022121 -0.041560196734261451 0 0.29179042629626362 -0.023335765460289069 0 0.30877043607103177 -0.040609641310187329 0 0.28332805271022121 -0.041560196734261451 0 0.29025384484608968 -0.2158455784303176 0 0.28637791625017361 -0.20055743445860699 0 0.30240087173593833 -0.20171226683024809 0 0.29025384484608968 -0.2158455784303176 0 0.28637791625017361 -0.20055743445860699 0 0.26777314401307362 -0.21563610871351749 0 0.28637791625017361 -0.20055743445860699 0 0.27101441425136352 -0.1846911638176004 0 0.29049340242526139 -0.1803099671821542 0 0.28637791625017361 -0.20055743445860699 0 0.29049340242526139 -0.1803099671821542 0 0.30498268848727339 -0.18547876020369661 0 0.28637791625017361 -0.20055743445860699 0 0.30498268848727339 -0.18547876020369661 0 0.30240087173593833 -0.20171226683024809 0 0.30498268848727339 -0.18547876020369661 0 0.31675737859942171 -0.1936561834872535 0 0.28637791625017361 -0.20055743445860699 0 0.30240087173593833 -0.20171226683024809 0 0.30498268848727339 -0.18547876020369661 0 0.30240087173593833 -0.20171226683024809 0 0.31742535564110969 -0.2117783189511383 0 0.31675737859942171 -0.1936561834872535 0 0.30240087173593833 -0.20171226683024809 0 0.30393930316362128 -0.21470432557430921 0 0.31742535564110969 -0.2117783189511383 0 0.30393930316362128 -0.21470432557430921 0 0.31742535564110969 -0.2117783189511383 0 0.31270679655430372 -0.2283422074668621 0 0.29025384484608968 -0.2158455784303176 0 0.30240087173593833 -0.20171226683024809 0 0.30393930316362128 -0.21470432557430921 0 0.29025384484608968 -0.2158455784303176 0 0.30393930316362128 -0.21470432557430921 0 0.29999071826840362 -0.22518849739873731 0 0.30393930316362128 -0.21470432557430921 0 0.29999071826840362 -0.22518849739873731 0 0.31270679655430372 -0.2283422074668621 0 0.29999071826840362 -0.22518849739873731 0 0.29968761347752421 -0.2364706529635234 0 0.31270679655430372 -0.2283422074668621 0 0.29999071826840362 -0.22518849739873731 0 0.29968761347752421 -0.2364706529635234 0 0.29132177126474962 -0.23222114401697139 0 0.31063692568569162 -0.24941233183203379 0 0.30960180721729441 -0.24139617976374711 0 0.30261454585862779 -0.24507070061696229 0 0.30960180721729441 -0.24139617976374711 0 0.29968761347752421 -0.2364706529635234 0 0.31270679655430372 -0.2283422074668621 0 0.30960180721729441 -0.24139617976374711 0 0.29968761347752421 -0.2364706529635234 0 0.30261454585862779 -0.24507070061696229 0 0.29968761347752421 -0.2364706529635234 0 0.30261454585862779 -0.24507070061696229 0 0.29177006597360799 -0.24210613317758681 0 0.30261454585862779 -0.24507070061696229 0 0.29177006597360799 -0.24210613317758681 0 0.30137631693902089 -0.25596820534792042 0 0.29177006597360799 -0.24210613317758681 0 0.27527234435749648 -0.24334149415817999 0 0.30137631693902089 -0.25596820534792042 0 0.27527234435749648 -0.24334149415817999 0 0.30137631693902089 -0.25596820534792042 0 0.29177006597360799 -0.24210613317758681 0 0.28282771019119513 -0.23564005892128029 0 0.27527234435749648 -0.24334149415817999 0 0.29968761347752421 -0.2364706529635234 0 0.29177006597360799 -0.24210613317758681 0 0.29132177126474962 -0.23222114401697139 0 0.29177006597360799 -0.24210613317758681 0 0.28282771019119513 -0.23564005892128029 0 0.29132177126474962 -0.23222114401697139 0 0.29025384484608968 -0.2158455784303176 0 0.29132177126474962 -0.23222114401697139 0 0.28136624433557589 -0.22685317384383211 0 0.29025384484608968 -0.2158455784303176 0 0.29999071826840362 -0.22518849739873731 0 0.29132177126474962 -0.23222114401697139 0 0.28282771019119513 -0.23564005892128029 0 0.29132177126474962 -0.23222114401697139 0 0.28136624433557589 -0.22685317384383211 0 0.29025384484608968 -0.2158455784303176 0 0.28136624433557589 -0.22685317384383211 0 0.26777314401307362 -0.21563610871351749 0 0.28136624433557589 -0.22685317384383211 0 0.27454951787328807 -0.23204959631333569 0 0.26777314401307362 -0.21563610871351749 0 0.27454951787328807 -0.23204959631333569 0 0.26618683214306582 -0.23095913106668881 0 0.26777314401307362 -0.21563610871351749 0 0.28282771019119513 -0.23564005892128029 0 0.28136624433557589 -0.22685317384383211 0 0.27454951787328807 -0.23204959631333569 0 0.27527234435749648 -0.24334149415817999 0 0.2576596218415082 -0.24945354819836341 0 0.27459567189731071 -0.2517918539975712 0 0.28282771019119513 -0.23564005892128029 0 0.27454951787328807 -0.23204959631333569 0 0.27527234435749648 -0.24334149415817999 0 0.27454951787328807 -0.23204959631333569 0 0.26618683214306582 -0.23095913106668881 0 0.27527234435749648 -0.24334149415817999 0 0.27527234435749648 -0.24334149415817999 0 0.2576596218415082 -0.24945354819836341 0 0.2491683717759762 -0.23071478296843109 0 0.26618683214306582 -0.23095913106668881 0 0.27527234435749648 -0.24334149415817999 0 0.2491683717759762 -0.23071478296843109 0 0.27527234435749648 -0.24334149415817999 0 0.2491683717759762 -0.23071478296843109 0 0.26777314401307362 -0.21563610871351749 0 0.24828930851351119 -0.21071368277046901 0 0.2491683717759762 -0.23071478296843109 0 0.26618683214306582 -0.23095913106668881 0 0.26777314401307362 -0.21563610871351749 0 0.2491683717759762 -0.23071478296843109 0 0.26777314401307362 -0.21563610871351749 0 0.2491683717759762 -0.23071478296843109 0 0.26777314401307362 -0.21563610871351749 0 0.26262692715479741 -0.19948415912379819 0 0.24828930851351119 -0.21071368277046901 0 0.28637791625017361 -0.20055743445860699 0 0.26777314401307362 -0.21563610871351749 0 0.28637791625017361 -0.20055743445860699 0 0.26777314401307362 -0.21563610871351749 0 0.26262692715479741 -0.19948415912379819 0 0.28637791625017361 -0.20055743445860699 0 0.26262692715479741 -0.19948415912379819 0 0.27101441425136352 -0.1846911638176004 0 0.26262692715479741 -0.19948415912379819 0 0.27101441425136352 -0.1846911638176004 0 0.247303987410086 -0.19043137930135631 0 0.26262692715479741 -0.19948415912379819 0 0.247303987410086 -0.19043137930135631 0 0.24828930851351119 -0.21071368277046901 0 0.25764854485546401 -0.16963171736595609 0 0.27101441425136352 -0.1846911638176004 0 0.247303987410086 -0.19043137930135631 0 0.25764854485546401 -0.16963171736595609 0 0.26290348181097017 -0.15997631921649921 0 0.2453120823184772 -0.15291632623737991 0 0.26290348181097017 -0.15997631921649921 0 0.2453120823184772 -0.15291632623737991 0 0.25764854485546401 -0.16963171736595609 0 0.28163570741239902 -0.16773232547372879 0 0.26290348181097017 -0.15997631921649921 0 0.28797105536349238 -0.14342746881795229 0 0.28163570741239902 -0.16773232547372879 0 0.26290348181097017 -0.15997631921649921 0 0.28163570741239902 -0.16773232547372879 0 0.25764854485546401 -0.16963171736595609 0 0.26290348181097017 -0.15997631921649921 0 0.28163570741239902 -0.16773232547372879 0 0.27101441425136352 -0.1846911638176004 0 0.29049340242526139 -0.1803099671821542 0 0.28163570741239902 -0.16773232547372879 0 0.25764854485546401 -0.16963171736595609 0 0.27101441425136352 -0.1846911638176004 0 0.28163570741239902 -0.16773232547372879 0 0.25767473658732443 -0.1269586301084292 0 0.26454013779459001 -0.13816679790113859 0 0.27366455997770461 -0.12776251451567339 0 0.25767473658732443 -0.1269586301084292 0 0.24534171350248241 -0.1279746456375026 0 0.2499934808746547 -0.1361915394396816 0 0.25767473658732443 -0.1269586301084292 0 0.26454013779459001 -0.13816679790113859 0 0.2499934808746547 -0.1361915394396816 0 0.26454013779459001 -0.13816679790113859 0 0.25228952762352358 -0.1456491711810157 0 0.2499934808746547 -0.1361915394396816 0 0.26290348181097017 -0.15997631921649921 0 0.26048971374486352 -0.15112443655427901 0 0.2453120823184772 -0.15291632623737991 0 0.26454013779459001 -0.13816679790113859 0 0.25228952762352358 -0.1456491711810157 0 0.26048971374486352 -0.15112443655427901 0 0.26048971374486352 -0.15112443655427901 0 0.2453120823184772 -0.15291632623737991 0 0.25228952762352358 -0.1456491711810157 0 0.26048971374486352 -0.15112443655427901 0 0.2453120823184772 -0.15291632623737991 0 0.26290348181097017 -0.15997631921649921 0 0.28797105536349238 -0.14342746881795229 0 0.26454013779459001 -0.13816679790113859 0 0.26048971374486352 -0.15112443655427901 0 0.28797105536349238 -0.14342746881795229 0 0.26290348181097017 -0.15997631921649921 0 0.26048971374486352 -0.15112443655427901 0 0.28797105536349238 -0.14342746881795229 0 0.26454013779459001 -0.13816679790113859 0 0.27366455997770461 -0.12776251451567339 0 0.28797105536349238 -0.14342746881795229 0 0.28961292292312479 -0.1172584555736924 0 0.27366455997770461 -0.12776251451567339 0 0.28797105536349238 -0.14342746881795229 0 0.28961292292312479 -0.1172584555736924 0 0.28797105536349238 -0.14342746881795229 0 0.31303862891601458 -0.12687861841940551 0 0.28797105536349238 -0.14342746881795229 0 0.3030187855496087 -0.1499382623159522 0 0.28163570741239902 -0.16773232547372879 0 0.3030187855496087 -0.1499382623159522 0 0.30762223888524959 -0.16567461618571289 0 0.31929313497418232 -0.14794573464120339 0 0.3030187855496087 -0.1499382623159522 0 0.31303862891601458 -0.12687861841940551 0 0.31929313497418232 -0.14794573464120339 0 0.28797105536349238 -0.14342746881795229 0 0.3030187855496087 -0.1499382623159522 0 0.31303862891601458 -0.12687861841940551 0 0.28797105536349238 -0.14342746881795229 0 0.31303862891601458 -0.12687861841940551 0 0.28163570741239902 -0.16773232547372879 0 0.30562112352345139 -0.1775157076627556 0 0.29049340242526139 -0.1803099671821542 0 0.28163570741239902 -0.16773232547372879 0 0.30562112352345139 -0.1775157076627556 0 0.28163570741239902 -0.16773232547372879 0 0.30762223888524959 -0.16567461618571289 0 0.28163570741239902 -0.16773232547372879 0 0.30762223888524959 -0.16567461618571289 0 0.30562112352345139 -0.1775157076627556 0 0.3030187855496087 -0.1499382623159522 0 0.28163570741239902 -0.16773232547372879 0 0.30762223888524959 -0.16567461618571289 0 0.30762223888524959 -0.16567461618571289 0 0.30562112352345139 -0.1775157076627556 0 0.32103077138779562 -0.1740302627569173 0 0.30562112352345139 -0.1775157076627556 0 0.30498268848727339 -0.18547876020369661 0 0.31675737859942171 -0.1936561834872535 0 0.29049340242526139 -0.1803099671821542 0 0.30562112352345139 -0.1775157076627556 0 0.30498268848727339 -0.18547876020369661 0 0.32103077138779562 -0.1740302627569173 0 0.33360877035810022 -0.1636169068976952 0 0.32960653963450309 -0.1872990898517842 0 0.30562112352345139 -0.1775157076627556 0 0.32960653963450309 -0.1872990898517842 0 0.31675737859942171 -0.1936561834872535 0 0.30562112352345139 -0.1775157076627556 0 0.32960653963450309 -0.1872990898517842 0 0.30562112352345139 -0.1775157076627556 0 0.32103077138779562 -0.1740302627569173 0 0.32960653963450309 -0.1872990898517842 0 0.30762223888524959 -0.16567461618571289 0 0.33360877035810022 -0.1636169068976952 0 0.30762223888524959 -0.16567461618571289 0 0.33360877035810022 -0.1636169068976952 0 0.31929313497418232 -0.14794573464120339 0 0.30762223888524959 -0.16567461618571289 0 0.32103077138779562 -0.1740302627569173 0 0.33360877035810022 -0.1636169068976952 0 0.33360877035810022 -0.1636169068976952 0 0.32960653963450309 -0.1872990898517842 0 0.34921390414190701 -0.18246001028573219 0 0.31303862891601458 -0.12687861841940551 0 0.31929313497418232 -0.14794573464120339 0 0.33437387270441599 -0.13655687438813749 0 0.33360877035810022 -0.1636169068976952 0 0.33437387270441599 -0.13655687438813749 0 0.35251938494832002 -0.14432376670859251 0 0.33360877035810022 -0.1636169068976952 0 0.31929313497418232 -0.14794573464120339 0 0.33437387270441599 -0.13655687438813749 0 0.35190257278770443 -0.12340674486460949 0 0.33437387270441599 -0.13655687438813749 0 0.35251938494832002 -0.14432376670859251 0 0.35190257278770443 -0.12340674486460949 0 0.35251938494832002 -0.14432376670859251 0 0.36426212387247903 -0.13418908349307751 0 0.35251938494832002 -0.14432376670859251 0 0.37240517346418511 -0.14639604347786811 0 0.36426212387247903 -0.13418908349307751 0 0.37240517346418511 -0.14639604347786811 0 0.35959530183095068 -0.16155919760967749 0 0.37842579039086488 -0.15775305876934331 0 0.35251938494832002 -0.14432376670859251 0 0.37240517346418511 -0.14639604347786811 0 0.35959530183095068 -0.16155919760967749 0 0.36977374846272099 -0.118981527972274 0 0.35190257278770443 -0.12340674486460949 0 0.36426212387247903 -0.13418908349307751 0 0.37240517346418511 -0.14639604347786811 0 0.36426212387247903 -0.13418908349307751 0 0.37788455695678491 -0.13196097897868941 0 0.36977374846272099 -0.118981527972274 0 0.36426212387247903 -0.13418908349307751 0 0.37788455695678491 -0.13196097897868941 0 0.33360877035810022 -0.1636169068976952 0 0.35251938494832002 -0.14432376670859251 0 0.35959530183095068 -0.16155919760967749 0 0.33360877035810022 -0.1636169068976952 0 0.34921390414190701 -0.18246001028573219 0 0.35959530183095068 -0.16155919760967749 0 0.33360877035810022 -0.1636169068976952 0 0.35959530183095068 -0.16155919760967749 0 0.35959530183095068 -0.16155919760967749 0 0.37392716771109907 -0.1774353426014216 0 0.3855818333038013 -0.15950148832166 0 0.35959530183095068 -0.16155919760967749 0 0.3855818333038013 -0.15950148832166 0 0.37842579039086488 -0.15775305876934331 0 0.35959530183095068 -0.16155919760967749 0 0.3855818333038013 -0.15950148832166 0 0.34921390414190701 -0.18246001028573219 0 0.37392716771109907 -0.1774353426014216 0 0.36136843546152919 -0.20119623160925121 0 0.34921390414190701 -0.18246001028573219 0 0.35959530183095068 -0.16155919760967749 0 0.37392716771109907 -0.1774353426014216 0 0.37392716771109907 -0.1774353426014216 0 0.36136843546152919 -0.20119623160925121 0 0.37820798453470711 -0.19640702741780339 0 0.36136843546152919 -0.20119623160925121 0 0.37369428746329808 -0.22584631791477039 0 0.38294729052079002 -0.21184227799153299 0 0.36136843546152919 -0.20119623160925121 0 0.38294729052079002 -0.21184227799153299 0 0.37820798453470711 -0.19640702741780339 0 0.36136843546152919 -0.20119623160925121 0 0.37369428746329808 -0.22584631791477039 0 0.36136843546152919 -0.20119623160925121 0 0.34846064154263801 -0.22479598958638219 0 0.37369428746329808 -0.22584631791477039 0 0.36136843546152919 -0.20119623160925121 0 0.33717720985525979 -0.20365329314456371 0 0.34846064154263801 -0.22479598958638219 0 0.34921390414190701 -0.18246001028573219 0 0.36136843546152919 -0.20119623160925121 0 0.33717720985525979 -0.20365329314456371 0 0.32960653963450309 -0.1872990898517842 0 0.34921390414190701 -0.18246001028573219 0 0.33717720985525979 -0.20365329314456371 0 0.33717720985525979 -0.20365329314456371 0 0.32971243172899428 -0.22661332066354911 0 0.34846064154263801 -0.22479598958638219 0 0.33717720985525979 -0.20365329314456371 0 0.31742535564110969 -0.2117783189511383 0 0.32971243172899428 -0.22661332066354911 0 0.32960653963450309 -0.1872990898517842 0 0.33717720985525979 -0.20365329314456371 0 0.31675737859942171 -0.1936561834872535 0 0.33717720985525979 -0.20365329314456371 0 0.31742535564110969 -0.2117783189511383 0 0.31675737859942171 -0.1936561834872535 0 0.31063692568569162 -0.24941233183203379 0 0.32198599075348749 -0.24344946400233511 0 0.31952803891305842 -0.25444384210600129 0 0.31063692568569162 -0.24941233183203379 0 0.30960180721729441 -0.24139617976374711 0 0.32198599075348749 -0.24344946400233511 0 0.30960180721729441 -0.24139617976374711 0 0.32198599075348749 -0.24344946400233511 0 0.31270679655430372 -0.2283422074668621 0 0.31742535564110969 -0.2117783189511383 0 0.31270679655430372 -0.2283422074668621 0 0.32971243172899428 -0.22661332066354911 0 0.32198599075348749 -0.24344946400233511 0 0.31270679655430372 -0.2283422074668621 0 0.32971243172899428 -0.22661332066354911 0 0.32971243172899428 -0.22661332066354911 0 0.33831499797607367 -0.2399323842761247 0 0.34846064154263801 -0.22479598958638219 0 0.32198599075348749 -0.24344946400233511 0 0.32971243172899428 -0.22661332066354911 0 0.33831499797607367 -0.2399323842761247 0 0.32198599075348749 -0.24344946400233511 0 0.33831499797607367 -0.2399323842761247 0 0.33616067166654651 -0.25479429281005672 0 0.33831499797607367 -0.2399323842761247 0 0.33616067166654651 -0.25479429281005672 0 0.35525525418870241 -0.2500088543183005 0 0.33831499797607367 -0.2399323842761247 0 0.34846064154263801 -0.22479598958638219 0 0.35525525418870241 -0.2500088543183005 0 0.34846064154263801 -0.22479598958638219 0 0.37369428746329808 -0.22584631791477039 0 0.35525525418870241 -0.2500088543183005 0 0.37369428746329808 -0.22584631791477039 0 0.38602013946506702 -0.25049640422028968 0 0.35525525418870241 -0.2500088543183005 0 0.37369428746329808 -0.22584631791477039 0 0.39629532058261491 -0.23914831885930091 0 0.38602013946506702 -0.25049640422028968 0 0.37369428746329808 -0.22584631791477039 0 0.38602013946506702 -0.25049640422028968 0 0.39629532058261491 -0.23914831885930091 0 0.41079780246735448 -0.2481836971440492 0 0.40061421951448112 -0.25500368953924613 0 0.39629532058261491 -0.23914831885930091 0 0.38602013946506702 -0.25049640422028968 0 0.40061421951448112 -0.25500368953924613 0 0.39629532058261491 -0.23914831885930091 0 0.41079780246735448 -0.2481836971440492 0 0.41046295315806541 -0.2363623758316116 0 0.39547660153739289 -0.22336930042917941 0 0.41103189941981849 -0.21290748403118151 0 0.41046295315806541 -0.2363623758316116 0 0.39629532058261491 -0.23914831885930091 0 0.39547660153739289 -0.22336930042917941 0 0.41046295315806541 -0.2363623758316116 0 0.37369428746329808 -0.22584631791477039 0 0.39629532058261491 -0.23914831885930091 0 0.39547660153739289 -0.22336930042917941 0 0.37369428746329808 -0.22584631791477039 0 0.39547660153739289 -0.22336930042917941 0 0.38294729052079002 -0.21184227799153299 0 0.38294729052079002 -0.21184227799153299 0 0.39084588003852883 -0.20049554833644409 0 0.39661881788129438 -0.21028602466842039 0 0.38294729052079002 -0.21184227799153299 0 0.37820798453470711 -0.19640702741780339 0 0.39084588003852883 -0.20049554833644409 0 0.37820798453470711 -0.19640702741780339 0 0.39084588003852883 -0.20049554833644409 0 0.38648778906519898 -0.1859658515549151 0 0.39845534201132499 -0.18949936680384699 0 0.39084588003852883 -0.20049554833644409 0 0.38648778906519898 -0.1859658515549151 0 0.39845534201132499 -0.18949936680384699 0 0.39084588003852883 -0.20049554833644409 0 0.40214310256532471 -0.2009225828531388 0 0.39845534201132499 -0.18949936680384699 0 0.40214310256532471 -0.2009225828531388 0 0.41160084568157168 -0.18945259223075131 0 0.39547660153739289 -0.22336930042917941 0 0.38294729052079002 -0.21184227799153299 0 0.39661881788129438 -0.21028602466842039 0 0.39084588003852883 -0.20049554833644409 0 0.40214310256532471 -0.2009225828531388 0 0.39661881788129438 -0.21028602466842039 0 0.40214310256532471 -0.2009225828531388 0 0.39661881788129438 -0.21028602466842039 0 0.41103189941981849 -0.21290748403118151 0 0.39547660153739289 -0.22336930042917941 0 0.39661881788129438 -0.21028602466842039 0 0.41103189941981849 -0.21290748403118151 0 0.41103189941981849 -0.21290748403118151 0 0.43412459193862307 -0.2067661651877207 0 0.41200902497008579 -0.22385428120075859 0 0.41103189941981849 -0.21290748403118151 0 0.41983824184195712 -0.2013867534600188 0 0.43412459193862307 -0.2067661651877207 0 0.41103189941981849 -0.21290748403118151 0 0.41160084568157168 -0.18945259223075131 0 0.40214310256532471 -0.2009225828531388 0 0.41103189941981849 -0.21290748403118151 0 0.41160084568157168 -0.18945259223075131 0 0.41103189941981849 -0.21290748403118151 0 0.41160084568157168 -0.18945259223075131 0 0.41983824184195712 -0.2013867534600188 0 0.41160084568157168 -0.18945259223075131 0 0.41983824184195712 -0.2013867534600188 0 0.42259476791827799 -0.18715016455186179 0 0.43707024748526918 -0.18985449366284299 0 0.43412459193862307 -0.2067661651877207 0 0.42259476791827799 -0.18715016455186179 0 0.43412459193862307 -0.2067661651877207 0 0.42259476791827799 -0.18715016455186179 0 0.41983824184195712 -0.2013867534600188 0 0.43412459193862307 -0.2067661651877207 0 0.42259476791827799 -0.18715016455186179 0 0.43412459193862307 -0.2067661651877207 0 0.42891856384074262 -0.2238584579461973 0 0.44245222005080959 -0.22093418354217309 0 0.43412459193862307 -0.2067661651877207 0 0.42891856384074262 -0.2238584579461973 0 0.41200902497008579 -0.22385428120075859 0 0.43412459193862307 -0.2067661651877207 0 0.41200902497008579 -0.22385428120075859 0 0.42891856384074262 -0.2238584579461973 0 0.43741230368701423 -0.22983812891791019 0 0.44245222005080959 -0.22093418354217309 0 0.42891856384074262 -0.2238584579461973 0 0.4291567568752373 -0.23165678164388939 0 0.42068875225579749 -0.23146983509444621 0 0.4291567568752373 -0.23165678164388939 0 0.43741230368701423 -0.22983812891791019 0 0.43594765647972888 -0.23943745118145779 0 0.42891856384074262 -0.2238584579461973 0 0.4291567568752373 -0.23165678164388939 0 0.43741230368701423 -0.22983812891791019 0 0.43147852106014828 -0.24901274229835921 0 0.42289646243485662 -0.24161727884977419 0 0.42367499757022142 -0.25822245551072132 0 0.43594765647972888 -0.23943745118145779 0 0.43147852106014828 -0.24901274229835921 0 0.42289646243485662 -0.24161727884977419 0 0.43594765647972888 -0.23943745118145779 0 0.43147852106014828 -0.24901274229835921 0 0.44108430964842921 -0.249400311665992 0 0.4291567568752373 -0.23165678164388939 0 0.43594765647972888 -0.23943745118145779 0 0.42289646243485662 -0.24161727884977419 0 0.4291567568752373 -0.23165678164388939 0 0.42289646243485662 -0.24161727884977419 0 0.42068875225579749 -0.23146983509444621 0 0.42289646243485662 -0.24161727884977419 0 0.41079780246735448 -0.2481836971440492 0 0.42367499757022142 -0.25822245551072132 0 0.42289646243485662 -0.24161727884977419 0 0.41079780246735448 -0.2481836971440492 0 0.41046295315806541 -0.2363623758316116 0 0.42289646243485662 -0.24161727884977419 0 0.41046295315806541 -0.2363623758316116 0 0.42068875225579749 -0.23146983509444621 0 0.41103189941981849 -0.21290748403118151 0 0.41046295315806541 -0.2363623758316116 0 0.42891856384074262 -0.2238584579461973 0 0.41200902497008579 -0.22385428120075859 0 0.42068875225579749 -0.23146983509444621 0 0.41103189941981849 -0.21290748403118151 0 0.41046295315806541 -0.2363623758316116 0 0.41200902497008579 -0.22385428120075859 0 0.41046295315806541 -0.2363623758316116 0 0.41200902497008579 -0.22385428120075859 0 0.42068875225579749 -0.23146983509444621 0 0.39630034399856068 -0.12412702266274379 0 0.39718506179066809 -0.1357614901756018 0 0.40717042195814152 -0.12667580876036291 0 0.39718506179066809 -0.1357614901756018 0 0.40782504984598528 -0.14107514206798261 0 0.40717042195814152 -0.12667580876036291 0 0.39718506179066809 -0.1357614901756018 0 0.38887656832053902 -0.13016986574645989 0 0.38664004461427459 -0.14296965030368239 0 0.39630034399856068 -0.12412702266274379 0 0.39718506179066809 -0.1357614901756018 0 0.38887656832053902 -0.13016986574645989 0 0.38589697302152071 -0.1203195835582863 0 0.38887656832053902 -0.13016986574645989 0 0.37788455695678491 -0.13196097897868941 0 0.37240517346418511 -0.14639604347786811 0 0.37788455695678491 -0.13196097897868941 0 0.38664004461427459 -0.14296965030368239 0 0.38887656832053902 -0.13016986574645989 0 0.37788455695678491 -0.13196097897868941 0 0.38664004461427459 -0.14296965030368239 0 0.37240517346418511 -0.14639604347786811 0 0.38664004461427459 -0.14296965030368239 0 0.38364455395470998 -0.15191197814575519 0 0.37240517346418511 -0.14639604347786811 0 0.38364455395470998 -0.15191197814575519 0 0.37842579039086488 -0.15775305876934331 0 0.38664004461427459 -0.14296965030368239 0 0.38364455395470998 -0.15191197814575519 0 0.39105298004482852 -0.15406292949060729 0 0.38364455395470998 -0.15191197814575519 0 0.39105298004482852 -0.15406292949060729 0 0.3855818333038013 -0.15950148832166 0 0.39105298004482852 -0.15406292949060729 0 0.39856657601695039 -0.14857836824363069 0 0.3973118690519184 -0.15857266088145699 0 0.38664004461427459 -0.14296965030368239 0 0.39105298004482852 -0.15406292949060729 0 0.39856657601695039 -0.14857836824363069 0 0.39718506179066809 -0.1357614901756018 0 0.38664004461427459 -0.14296965030368239 0 0.39856657601695039 -0.14857836824363069 0 0.39856657601695039 -0.14857836824363069 0 0.40677608408243199 -0.1498181580123224 0 0.40782504984598528 -0.14107514206798261 0 0.39718506179066809 -0.1357614901756018 0 0.39856657601695039 -0.14857836824363069 0 0.40782504984598528 -0.14107514206798261 0 0.39856657601695039 -0.14857836824363069 0 0.40543970214389552 -0.15610765281214059 0 0.40677608408243199 -0.1498181580123224 0 0.39856657601695039 -0.14857836824363069 0 0.40543970214389552 -0.15610765281214059 0 0.3973118690519184 -0.15857266088145699 0 0.3855818333038013 -0.15950148832166 0 0.4121697919433247 -0.16599770043032111 0 0.39550599244671097 -0.16796088662565969 0 0.40201643954537142 -0.17325060097948489 0 0.4121697919433247 -0.16599770043032111 0 0.3973118690519184 -0.15857266088145699 0 0.3855818333038013 -0.15950148832166 0 0.4121697919433247 -0.16599770043032111 0 0.39550599244671097 -0.16796088662565969 0 0.3855818333038013 -0.15950148832166 0 0.4121697919433247 -0.16599770043032111 0 0.40543970214389552 -0.15610765281214059 0 0.3973118690519184 -0.15857266088145699 0 0.4121697919433247 -0.16599770043032111 0 0.3973118690519184 -0.15857266088145699 0 0.3855818333038013 -0.15950148832166 0 0.39105298004482852 -0.15406292949060729 0 0.3973118690519184 -0.15857266088145699 0 0.3855818333038013 -0.15950148832166 0 0.37392716771109907 -0.1774353426014216 0 0.3855818333038013 -0.15950148832166 0 0.38709241863794591 -0.17340186985912581 0 0.38364455395470998 -0.15191197814575519 0 0.3855818333038013 -0.15950148832166 0 0.37842579039086488 -0.15775305876934331 0 0.3855818333038013 -0.15950148832166 0 0.37842579039086488 -0.15775305876934331 0 0.39550599244671097 -0.16796088662565969 0 0.3855818333038013 -0.15950148832166 0 0.38709241863794591 -0.17340186985912581 0 0.38709241863794591 -0.17340186985912581 0 0.38648778906519898 -0.1859658515549151 0 0.39516781028651649 -0.17779645708764921 0 0.37392716771109907 -0.1774353426014216 0 0.37820798453470711 -0.19640702741780339 0 0.38648778906519898 -0.1859658515549151 0 0.37392716771109907 -0.1774353426014216 0 0.38709241863794591 -0.17340186985912581 0 0.38648778906519898 -0.1859658515549151 0 0.39845534201132499 -0.18949936680384699 0 0.38648778906519898 -0.1859658515549151 0 0.39516781028651649 -0.17779645708764921 0 0.39550599244671097 -0.16796088662565969 0 0.38709241863794591 -0.17340186985912581 0 0.39516781028651649 -0.17779645708764921 0 0.39550599244671097 -0.16796088662565969 0 0.39516781028651649 -0.17779645708764921 0 0.40201643954537142 -0.17325060097948489 0 0.39516781028651649 -0.17779645708764921 0 0.40201643954537142 -0.17325060097948489 0 0.40453843002977458 -0.18020245351517741 0 0.40201643954537142 -0.17325060097948489 0 0.40453843002977458 -0.18020245351517741 0 0.4121697919433247 -0.16599770043032111 0 0.39845534201132499 -0.18949936680384699 0 0.41160084568157168 -0.18945259223075131 0 0.40453843002977458 -0.18020245351517741 0 0.39845534201132499 -0.18949936680384699 0 0.39516781028651649 -0.17779645708764921 0 0.40453843002977458 -0.18020245351517741 0 0.41160084568157168 -0.18945259223075131 0 0.4121697919433247 -0.16599770043032111 0 0.41160084568157168 -0.18945259223075131 0 0.40453843002977458 -0.18020245351517741 0 0.4121697919433247 -0.16599770043032111 0 0.41160084568157168 -0.18945259223075131 0 0.42259476791827799 -0.18715016455186179 0 0.4121697919433247 -0.16599770043032111 0 0.42259476791827799 -0.18715016455186179 0 0.4121697919433247 -0.16599770043032111 0 0.43942103356281298 -0.17265597187510409 0 0.43707024748526918 -0.18985449366284299 0 0.42259476791827799 -0.18715016455186179 0 0.43942103356281298 -0.17265597187510409 0 0.4121697919433247 -0.16599770043032111 0 0.43942103356281298 -0.17265597187510409 0 0.42754768114014702 -0.16215508150220759 0 0.43577282698483122 -0.1488649167983298 0 0.43942103356281298 -0.17265597187510409 0 0.42754768114014702 -0.16215508150220759 0 0.4121697919433247 -0.16599770043032111 0 0.43942103356281298 -0.17265597187510409 0 0.42754768114014702 -0.16215508150220759 0 0.41846336076819718 -0.15985851844388549 0 0.42176178036446538 -0.15370991535004139 0 0.42754768114014702 -0.16215508150220759 0 0.41846336076819718 -0.15985851844388549 0 0.4121697919433247 -0.16599770043032111 0 0.41846336076819718 -0.15985851844388549 0 0.4121697919433247 -0.16599770043032111 0 0.41237418962485201 -0.15757137649297201 0 0.41846336076819718 -0.15985851844388549 0 0.41237418962485201 -0.15757137649297201 0 0.42176178036446538 -0.15370991535004139 0 0.40543970214389552 -0.15610765281214059 0 0.4121697919433247 -0.16599770043032111 0 0.41237418962485201 -0.15757137649297201 0 0.4121697919433247 -0.16599770043032111 0 0.41237418962485201 -0.15757137649297201 0 0.41237418962485201 -0.15757137649297201 0 0.41395011021424571 -0.14882101111356341 0 0.40677608408243199 -0.1498181580123224 0 0.40543970214389552 -0.15610765281214059 0 0.41237418962485201 -0.15757137649297201 0 0.40677608408243199 -0.1498181580123224 0 0.41395011021424571 -0.14882101111356341 0 0.40677608408243199 -0.1498181580123224 0 0.40782504984598528 -0.14107514206798261 0 0.41395011021424571 -0.14882101111356341 0 0.40782504984598528 -0.14107514206798261 0 0.42101344715349331 -0.14193046364449879 0 0.41395011021424571 -0.14882101111356341 0 0.42101344715349331 -0.14193046364449879 0 0.42176178036446538 -0.15370991535004139 0 0.41237418962485201 -0.15757137649297201 0 0.41395011021424571 -0.14882101111356341 0 0.42176178036446538 -0.15370991535004139 0 0.42101344715349331 -0.14193046364449879 0 0.43577282698483122 -0.1488649167983298 0 0.43341698089062902 -0.13232221239677211 0 0.42754768114014702 -0.16215508150220759 0 0.42176178036446538 -0.15370991535004139 0 0.43577282698483122 -0.1488649167983298 0 0.42101344715349331 -0.14193046364449879 0 0.42176178036446538 -0.15370991535004139 0 0.43577282698483122 -0.1488649167983298 0 0.42101344715349331 -0.14193046364449879 0 0.43341698089062902 -0.13232221239677211 0 0.42047049602907199 -0.1271837148430543 0 0.42787147724535279 -0.1177655168214231 0 0.43341698089062902 -0.13232221239677211 0 0.42047049602907199 -0.1271837148430543 0 0.40782504984598528 -0.14107514206798261 0 0.42101344715349331 -0.14193046364449879 0 0.41390815063976111 -0.1340802599668382 0 0.42101344715349331 -0.14193046364449879 0 0.42047049602907199 -0.1271837148430543 0 0.41390815063976111 -0.1340802599668382 0 0.40782504984598528 -0.14107514206798261 0 0.41390815063976111 -0.1340802599668382 0 0.40717042195814152 -0.12667580876036291 0 0.42047049602907199 -0.1271837148430543 0 0.41390815063976111 -0.1340802599668382 0 0.40717042195814152 -0.12667580876036291 0 0.46291061333527922 -0.1199621865080316 0 0.46653360721969012 -0.14944368369684 0 0.46291061333527922 -0.1199621865080316 0 0.45060159652262699 -0.13894666859121221 0 0.46653360721969012 -0.14944368369684 0 0.43577282698483122 -0.1488649167983298 0 0.43341698089062902 -0.13232221239677211 0 0.45060159652262699 -0.13894666859121221 0 0.44269508489546172 -0.11827570682135009 0 0.43341698089062902 -0.13232221239677211 0 0.45060159652262699 -0.13894666859121221 0 0.44269508489546172 -0.11827570682135009 0 0.46291061333527922 -0.1199621865080316 0 0.45060159652262699 -0.13894666859121221 0 0.43577282698483122 -0.1488649167983298 0 0.45060159652262699 -0.13894666859121221 0 0.45587019956798869 -0.16442878806586281 0 0.45060159652262699 -0.13894666859121221 0 0.46653360721969012 -0.14944368369684 0 0.45587019956798869 -0.16442878806586281 0 0.46653360721969012 -0.14944368369684 0 0.45587019956798869 -0.16442878806586281 0 0.47015660110410151 -0.17892518088564829 0 0.46653360721969012 -0.14944368369684 0 0.47015660110410151 -0.17892518088564829 0 0.43577282698483122 -0.1488649167983298 0 0.45587019956798869 -0.16442878806586281 0 0.43942103356281298 -0.17265597187510409 0 0.43707024748526918 -0.18985449366284299 0 0.43942103356281298 -0.17265597187510409 0 0.45214059652136313 -0.19284567303668551 0 0.43942103356281298 -0.17265597187510409 0 0.46667227518230148 -0.1793142433198863 0 0.43942103356281298 -0.17265597187510409 0 0.46667227518230148 -0.1793142433198863 0 0.45214059652136313 -0.19284567303668551 0 0.45587019956798869 -0.16442878806586281 0 0.43942103356281298 -0.17265597187510409 0 0.46667227518230148 -0.1793142433198863 0 0.47015660110410151 -0.17892518088564829 0 0.45214059652136313 -0.19284567303668551 0 0.46667227518230148 -0.1793142433198863 0 0.47015660110410151 -0.17892518088564829 0 0.45214059652136313 -0.19284567303668551 0 0.45587019956798869 -0.16442878806586281 0 0.46667227518230148 -0.1793142433198863 0 0.47015660110410151 -0.17892518088564829 0 0.47015660110410151 -0.17892518088564829 0 0.47608330494834972 -0.17434577295052869 0 0.47883039211363682 -0.1847393396174202 0 0.47015660110410151 -0.17892518088564829 0 0.47608330494834972 -0.17434577295052869 0 0.47608330494834972 -0.17434577295052869 0 0.48412230485933089 -0.17391451811187231 0 0.47883039211363682 -0.1847393396174202 0 0.48412230485933089 -0.17391451811187231 0 0.47883039211363682 -0.1847393396174202 0 0.48648213539784912 -0.18363769515103889 0 0.5 -0.1864980345021589 0 0.5 -0.16000366413785211 0 0.49458689742151268 -0.17128929472683141 0 0.48648213539784912 -0.18363769515103889 0 0.49458689742151268 -0.17128929472683141 0 0.49305373803980101 -0.19605823984166301 0 0.5 -0.1864980345021589 0 0.49458689742151268 -0.17128929472683141 0 0.49305373803980101 -0.19605823984166301 0 0.49458689742151268 -0.17128929472683141 0 0.49305373803980101 -0.19605823984166301 0 0.48412230485933089 -0.17391451811187231 0 0.48648213539784912 -0.18363769515103889 0 0.49458689742151268 -0.17128929472683141 0 0.48412230485933089 -0.17391451811187231 0 0.49458689742151268 -0.17128929472683141 0 0.48752761183049292 -0.1621602486463212 0 0.49458689742151268 -0.17128929472683141 0 0.48752761183049292 -0.1621602486463212 0 0.49612005680322452 -0.14652034961199989 0 0.49458689742151268 -0.17128929472683141 0 0.49612005680322452 -0.14652034961199989 0 0.5 -0.16000366413785211 0 0.49458689742151268 -0.17128929472683141 0 0.49612005680322452 -0.14652034961199989 0 0.46653360721969012 -0.14944368369684 0 0.47015660110410151 -0.17892518088564829 0 0.47608330494834972 -0.17434577295052869 0 0.48752761183049292 -0.1621602486463212 0 0.47975908424193819 -0.16354396860485351 0 0.483049715826458 -0.15553311217604879 0 0.46653360721969012 -0.14944368369684 0 0.47608330494834972 -0.17434577295052869 0 0.47975908424193819 -0.16354396860485351 0 0.47608330494834972 -0.17434577295052869 0 0.48412230485933089 -0.17391451811187231 0 0.47975908424193819 -0.16354396860485351 0 0.48412230485933089 -0.17391451811187231 0 0.48752761183049292 -0.1621602486463212 0 0.47975908424193819 -0.16354396860485351 0 0.46653360721969012 -0.14944368369684 0 0.48339190448922148 -0.14536301117208569 0 0.48083616927728368 -0.1326122769646117 0 0.46653360721969012 -0.14944368369684 0 0.48339190448922148 -0.14536301117208569 0 0.483049715826458 -0.15553311217604879 0 0.46653360721969012 -0.14944368369684 0 0.47975908424193819 -0.16354396860485351 0 0.483049715826458 -0.15553311217604879 0 0.48752761183049292 -0.1621602486463212 0 0.483049715826458 -0.15553311217604879 0 0.49612005680322452 -0.14652034961199989 0 0.48339190448922148 -0.14536301117208569 0 0.483049715826458 -0.15553311217604879 0 0.49612005680322452 -0.14652034961199989 0 0.5 -0.16000366413785211 0 0.49612005680322452 -0.14652034961199989 0 0.5 -0.1335092937735452 0 0.48339190448922148 -0.14536301117208569 0 0.49612005680322452 -0.14652034961199989 0 0.48083616927728368 -0.1326122769646117 0 0.49765321618493619 -0.1217514044971684 0 0.49612005680322452 -0.14652034961199989 0 0.49765321618493619 -0.1217514044971684 0 0.49612005680322452 -0.14652034961199989 0 0.48083616927728368 -0.1326122769646117 0 0.49765321618493619 -0.1217514044971684 0 0.49612005680322452 -0.14652034961199989 0 0.5 -0.1335092937735452 0 0.46291061333527922 -0.1199621865080316 0 0.46653360721969012 -0.14944368369684 0 0.48083616927728368 -0.1326122769646117 0 0.46266709148984297 -0.21937764938915291 0 0.45077984816299599 -0.23510220189662559 0 0.45026780417236678 -0.211020179350392 0 0.46266709148984297 -0.21937764938915291 0 0.46558757826162539 -0.23759480168356789 0 0.47604188563243588 -0.22681568382688169 0 0.46266709148984297 -0.21937764938915291 0 0.46558757826162539 -0.23759480168356789 0 0.45077984816299599 -0.23510220189662559 0 0.45077984816299599 -0.23510220189662559 0 0.46056204943464879 -0.25174492480603328 0 0.46558757826162539 -0.23759480168356789 0 0.47898452789660351 -0.25076093529749838 0 0.46056204943464879 -0.25174492480603328 0 0.46558757826162539 -0.23759480168356789 0 0.45077984816299599 -0.23510220189662559 0 0.46056204943464879 -0.25174492480603328 0 0.45077984816299599 -0.23510220189662559 0 0.46056204943464879 -0.25174492480603328 0 0.45133569269769142 -0.26124421481295179 0 0.45077984816299599 -0.23510220189662559 0 0.44108430964842921 -0.249400311665992 0 0.45133569269769142 -0.26124421481295179 0 0.45077984816299599 -0.23510220189662559 0 0.45133569269769142 -0.26124421481295179 0 0.43594765647972888 -0.23943745118145779 0 0.45077984816299599 -0.23510220189662559 0 0.44108430964842921 -0.249400311665992 0 0.43741230368701423 -0.22983812891791019 0 0.43594765647972888 -0.23943745118145779 0 0.45077984816299599 -0.23510220189662559 0 0.45077984816299599 -0.23510220189662559 0 0.44245222005080959 -0.22093418354217309 0 0.45026780417236678 -0.211020179350392 0 0.43741230368701423 -0.22983812891791019 0 0.45077984816299599 -0.23510220189662559 0 0.44245222005080959 -0.22093418354217309 0 0.45077984816299599 -0.23510220189662559 0 0.45026780417236678 -0.211020179350392 0 0.45077984816299599 -0.23510220189662559 0 0.44245222005080959 -0.22093418354217309 0 0.43412459193862307 -0.2067661651877207 0 0.44245222005080959 -0.22093418354217309 0 0.45026780417236678 -0.211020179350392 0 0.43412459193862307 -0.2067661651877207 0 0.44245222005080959 -0.22093418354217309 0 0.43412459193862307 -0.2067661651877207 0 0.45026780417236678 -0.211020179350392 0 0.45214059652136313 -0.19284567303668551 0 0.43412459193862307 -0.2067661651877207 0 0.45214059652136313 -0.19284567303668551 0 0.43707024748526918 -0.18985449366284299 0 0.43412459193862307 -0.2067661651877207 0 0.45214059652136313 -0.19284567303668551 0 0.45026780417236678 -0.211020179350392 0 0.45214059652136313 -0.19284567303668551 0 0.46022618934136611 -0.20286259722118541 0 0.47015660110410151 -0.17892518088564829 0 0.46022618934136611 -0.20286259722118541 0 0.47309924336826842 -0.20287043235626509 0 0.47015660110410151 -0.17892518088564829 0 0.45214059652136313 -0.19284567303668551 0 0.46022618934136611 -0.20286259722118541 0 0.46266709148984297 -0.21937764938915291 0 0.45026780417236678 -0.211020179350392 0 0.46022618934136611 -0.20286259722118541 0 0.46266709148984297 -0.21937764938915291 0 0.46022618934136611 -0.20286259722118541 0 0.47309924336826842 -0.20287043235626509 0 0.47309924336826842 -0.20287043235626509 0 0.47604188563243588 -0.22681568382688169 0 0.48446019659072698 -0.20806707231858379 0 0.49152057865808929 -0.2208271849564945 0 0.47604188563243588 -0.22681568382688169 0 0.46266709148984297 -0.21937764938915291 0 0.47309924336826842 -0.20287043235626509 0 0.47604188563243588 -0.22681568382688169 0 0.47309924336826842 -0.20287043235626509 0 0.48446019659072698 -0.20806707231858379 0 0.47604188563243588 -0.22681568382688169 0 0.47883039211363682 -0.1847393396174202 0 0.47309924336826842 -0.20287043235626509 0 0.48303876300392229 -0.1947424382491679 0 0.47015660110410151 -0.17892518088564829 0 0.47883039211363682 -0.1847393396174202 0 0.47309924336826842 -0.20287043235626509 0 0.47015660110410151 -0.17892518088564829 0 0.47309924336826842 -0.20287043235626509 0 0.47309924336826842 -0.20287043235626509 0 0.48303876300392229 -0.1947424382491679 0 0.48446019659072698 -0.20806707231858379 0 0.47883039211363682 -0.1847393396174202 0 0.48648213539784912 -0.18363769515103889 0 0.48303876300392229 -0.1947424382491679 0 0.5 -0.1864980345021589 0 0.49305373803980101 -0.19605823984166301 0 0.5 -0.21299240486646559 0 0.48648213539784912 -0.18363769515103889 0 0.48303876300392229 -0.1947424382491679 0 0.49305373803980101 -0.19605823984166301 0 0.48303876300392229 -0.1947424382491679 0 0.49305373803980101 -0.19605823984166301 0 0.48446019659072698 -0.20806707231858379 0 0.49305373803980101 -0.19605823984166301 0 0.5 -0.21299240486646559 0 0.49152057865808929 -0.2208271849564945 0 0.49305373803980101 -0.19605823984166301 0 0.49152057865808929 -0.2208271849564945 0 0.49305373803980101 -0.19605823984166301 0 0.48446019659072698 -0.20806707231858379 0 0.49152057865808929 -0.2208271849564945 0 0.49152057865808929 -0.2208271849564945 0 0.47604188563243588 -0.22681568382688169 0 0.48998741927637762 -0.24559613007132611 0 0.49152057865808929 -0.2208271849564945 0 0.48998741927637762 -0.24559613007132611 0 0.5 -0.21299240486646559 0 0.49152057865808929 -0.2208271849564945 0 0.50000000000000133 -0.23948677523077239 0 0.47604188563243588 -0.22681568382688169 0 0.48998741927637762 -0.24559613007132611 0 0.47898452789660351 -0.25076093529749838 0 0.46558757826162539 -0.23759480168356789 0 0.47604188563243588 -0.22681568382688169 0 0.47898452789660351 -0.25076093529749838 0 0.47604188563243588 -0.22681568382688169 0 0.47898452789660351 -0.25076093529749838 0 0.50000000000000133 -0.23948677523077239 0 0.49495660414164711 -0.25920832956675899 0 0.49152057865808929 -0.2208271849564945 0 0.48998741927637762 -0.24559613007132611 0 0.50000000000000133 -0.23948677523077239 0 0.48998741927637762 -0.24559613007132611 0 0.50000000000000133 -0.23948677523077239 0 0.49495660414164711 -0.25920832956675899 0 0.50000000000000133 -0.23948677523077239 0 0.49495660414164711 -0.25920832956675899 0 0.5 -0.2686059375560646 0 0.49495660414164711 -0.25920832956675899 0 0.48664811708091571 -0.26374067408749141 0 0.48745907492226531 -0.25509803490233901 0 0.48998741927637762 -0.24559613007132611 0 0.49495660414164711 -0.25920832956675899 0 0.48745907492226531 -0.25509803490233901 0 0.48998741927637762 -0.24559613007132611 0 0.48745907492226531 -0.25509803490233901 0 0.47898452789660351 -0.25076093529749838 0 0.49495660414164711 -0.25920832956675899 0 0.48664811708091571 -0.26374067408749141 0 0.4899132082832916 -0.27892988390274531 0 0.49495660414164711 -0.25920832956675899 0 0.4899132082832916 -0.27892988390274531 0 0.49495660414164711 -0.25920832956675899 0 0.5 -0.2686059375560646 0 0.4899132082832916 -0.27892988390274531 0 0.48664811708091571 -0.26374067408749141 0 0.4899132082832916 -0.27892988390274531 0 0.48192717016077102 -0.27470618676811509 0 0.47034425070630143 -0.26838764771544132 0 0.48192717016077102 -0.27470618676811509 0 0.47053573150678552 -0.28612340892295118 0 0.47034425070630143 -0.26838764771544132 0 0.48192717016077102 -0.27470618676811509 0 0.47898452789660351 -0.25076093529749838 0 0.48664811708091571 -0.26374067408749141 0 0.48192717016077102 -0.27470618676811509 0 0.47898452789660351 -0.25076093529749838 0 0.48192717016077102 -0.27470618676811509 0 0.47898452789660351 -0.25076093529749838 0 0.47034425070630143 -0.26838764771544132 0 0.47898452789660351 -0.25076093529749838 0 0.46056204943464879 -0.25174492480603328 0 0.48664811708091571 -0.26374067408749141 0 0.48745907492226531 -0.25509803490233901 0 0.47898452789660351 -0.25076093529749838 0 0.47034425070630143 -0.26838764771544132 0 0.46056204943464879 -0.25174492480603328 0 0.47034425070630143 -0.26838764771544132 0 0.46056204943464879 -0.25174492480603328 0 0.45133569269769142 -0.26124421481295179 0 0.47034425070630143 -0.26838764771544132 0 0.45133569269769142 -0.26124421481295179 0 0.45189153723238717 -0.28738622772927841 0 0.47034425070630143 -0.26838764771544132 0 0.45189153723238717 -0.28738622772927841 0 0.47053573150678552 -0.28612340892295118 0 0.45133569269769142 -0.26124421481295179 0 0.45189153723238717 -0.28738622772927841 0 0.43587982984158108 -0.26220494814056561 0 0.45133569269769142 -0.26124421481295179 0 0.45189153723238717 -0.28738622772927841 0 0.44108430964842921 -0.249400311665992 0 0.45133569269769142 -0.26124421481295179 0 0.43587982984158108 -0.26220494814056561 0 0.45189153723238717 -0.28738622772927841 0 0.45244738176708299 -0.31352824064560469 0 0.45189153723238717 -0.28738622772927841 0 0.45244738176708299 -0.31352824064560469 0 0.43233602393106102 -0.3005221000116049 0 0.45189153723238717 -0.28738622772927841 0 0.46773490080235741 -0.3016104171303946 0 0.47053573150678552 -0.28612340892295118 0 0.45189153723238717 -0.28738622772927841 0 0.46773490080235741 -0.3016104171303946 0 0.45244738176708299 -0.31352824064560469 0 0.46773490080235741 -0.3016104171303946 0 0.47966045165369559 -0.31902197713576608 0 0.45244738176708299 -0.31352824064560469 0 0.46773490080235741 -0.3016104171303946 0 0.48486981242493732 -0.29865143823873191 0 0.47966045165369559 -0.31902197713576608 0 0.48486981242493732 -0.29865143823873191 0 0.47966045165369559 -0.31902197713576608 0 0.48486981242493732 -0.29865143823873191 0 0.48694223370406081 -0.31551541429382901 0 0.47966045165369559 -0.31902197713576608 0 0.46773490080235741 -0.3016104171303946 0 0.47053573150678552 -0.28612340892295118 0 0.48486981242493732 -0.29865143823873191 0 0.48192717016077102 -0.27470618676811509 0 0.47053573150678552 -0.28612340892295118 0 0.48486981242493732 -0.29865143823873191 0 0.48192717016077102 -0.27470618676811509 0 0.48486981242493732 -0.29865143823873191 0 0.4899132082832916 -0.27892988390274531 0 0.48486981242493732 -0.29865143823873191 0 0.5 -0.2686059375560646 0 0.4899132082832916 -0.27892988390274531 0 0.5 -0.29772509988135681 0 0.4899132082832916 -0.27892988390274531 0 0.48192717016077102 -0.27470618676811509 0 0.48486981242493732 -0.29865143823873191 0 0.4899132082832916 -0.27892988390274531 0 0.48486981242493732 -0.29865143823873191 0 0.5 -0.29772509988135681 0 0.48486981242493732 -0.29865143823873191 0 0.4929530115322498 -0.30968405365514162 0 0.48694223370406081 -0.31551541429382901 0 0.5 -0.29772509988135681 0 0.4929530115322498 -0.30968405365514162 0 0.5 -0.32684426220664903 0 0.48486981242493732 -0.29865143823873191 0 0.48694223370406081 -0.31551541429382901 0 0.48486981242493732 -0.29865143823873191 0 0.5 -0.29772509988135681 0 0.4929530115322498 -0.30968405365514162 0 0.48694223370406081 -0.31551541429382901 0 0.48901465498318308 -0.33237939034892622 0 0.48562594744649501 -0.33141687542551279 0 0.48694223370406081 -0.31551541429382901 0 0.49654408504979558 -0.32875357190092452 0 0.48901465498318308 -0.33237939034892622 0 0.4929530115322498 -0.30968405365514162 0 0.48694223370406081 -0.31551541429382901 0 0.5 -0.32684426220664903 0 0.48694223370406081 -0.31551541429382901 0 0.48901465498318308 -0.33237939034892622 0 0.48694223370406081 -0.31551541429382901 0 0.5 -0.32684426220664903 0 0.49654408504979558 -0.32875357190092452 0 0.48901465498318308 -0.33237939034892622 0 0.4915643949020212 -0.35312746573843468 0 0.48901465498318308 -0.33237939034892622 0 0.48625298381661269 -0.33370928094814578 0 0.4915643949020212 -0.35312746573843468 0 0.49654408504979558 -0.32875357190092452 0 0.48901465498318308 -0.33237939034892622 0 0.4915643949020212 -0.35312746573843468 0 0.5 -0.32684426220664903 0 0.49654408504979558 -0.32875357190092452 0 0.50002337057612989 -0.35596342453194108 0 0.48625298381661269 -0.33370928094814578 0 0.4915643949020212 -0.35312746573843468 0 0.49654408504979558 -0.32875357190092452 0 0.48901465498318308 -0.33237939034892622 0 0.48901465498318308 -0.33237939034892622 0 0.48625298381661269 -0.33370928094814578 0 0.48562594744649501 -0.33141687542551279 0 0.48901465498318308 -0.33237939034892622 0 0.48625298381661269 -0.33370928094814578 0 0.48625298381661269 -0.33370928094814578 0 0.48562594744649501 -0.33141687542551279 0 0.47445109088245402 -0.33939251603280057 0 0.47966045165369559 -0.31902197713576608 0 0.45226158601649452 -0.33172887108509258 0 0.48625298381661269 -0.33370928094814578 0 0.48562594744649501 -0.33141687542551279 0 0.47445109088245402 -0.33939251603280057 0 0.47445109088245402 -0.33939251603280057 0 0.47966045165369559 -0.31902197713576608 0 0.48562594744649501 -0.33141687542551279 0 0.47445109088245402 -0.33939251603280057 0 0.47966045165369559 -0.31902197713576608 0 0.48625298381661269 -0.33370928094814578 0 0.47445109088245402 -0.33939251603280057 0 0.48287660026870899 -0.34524903740514012 0 0.48625298381661269 -0.33370928094814578 0 0.47445109088245402 -0.33939251603280057 0 0.48694223370406081 -0.31551541429382901 0 0.48562594744649501 -0.33141687542551279 0 0.47966045165369559 -0.31902197713576608 0 0.4920009106131043 -0.35667953817346632 0 0.50000000000000044 -0.38396750729736362 0 0.4920009106131043 -0.35667953817346632 0 0.48081818480590349 -0.36973260894661869 0 0.49466727374206981 -0.37837661512112009 0 0.4920009106131043 -0.35667953817346632 0 0.50002337057612989 -0.35596342453194108 0 0.50000000000000044 -0.38396750729736362 0 0.4920009106131043 -0.35667953817346632 0 0.49466727374206981 -0.37837661512112009 0 0.4920009106131043 -0.35667953817346632 0 0.50000000000000044 -0.38396750729736362 0 0.49466727374206981 -0.37837661512112009 0 0.49654408504979558 -0.32875357190092452 0 0.4915643949020212 -0.35312746573843468 0 0.50002337057612989 -0.35596342453194108 0 0.48625298381661269 -0.33370928094814578 0 0.4915643949020212 -0.35312746573843468 0 0.48287660026870899 -0.34524903740514012 0 0.4915643949020212 -0.35312746573843468 0 0.4920009106131043 -0.35667953817346632 0 0.4915643949020212 -0.35312746573843468 0 0.4920009106131043 -0.35667953817346632 0 0.50002337057612989 -0.35596342453194108 0 0.4920009106131043 -0.35667953817346632 0 0.50002337057612989 -0.35596342453194108 0 0.4920009106131043 -0.35667953817346632 0 0.46951702991543331 -0.3586865302626987 0 0.47445109088245402 -0.33939251603280057 0 0.46951702991543331 -0.3586865302626987 0 0.48287660026870899 -0.34524903740514012 0 0.47445109088245402 -0.33939251603280057 0 0.46951702991543331 -0.3586865302626987 0 0.4915643949020212 -0.35312746573843468 0 0.46951702991543331 -0.3586865302626987 0 0.48287660026870899 -0.34524903740514012 0 0.4915643949020212 -0.35312746573843468 0 0.4920009106131043 -0.35667953817346632 0 0.46951702991543331 -0.3586865302626987 0 0.46951702991543331 -0.3586865302626987 0 0.48081818480590349 -0.36973260894661869 0 0.46415337265378981 -0.37966042584734389 0 0.4920009106131043 -0.35667953817346632 0 0.46951702991543331 -0.3586865302626987 0 0.48081818480590349 -0.36973260894661869 0 0.46951702991543331 -0.3586865302626987 0 0.44795385503287433 -0.36061133683812702 0 0.46951702991543331 -0.3586865302626987 0 0.44795385503287433 -0.36061133683812702 0 0.46415337265378981 -0.37966042584734389 0 0.46951702991543331 -0.3586865302626987 0 0.46415337265378981 -0.37966042584734389 0 0.47445109088245402 -0.33939251603280057 0 0.46951702991543331 -0.3586865302626987 0 0.45042088551638471 -0.35096432972317859 0 0.46951702991543331 -0.3586865302626987 0 0.45042088551638471 -0.35096432972317859 0 0.44795385503287433 -0.36061133683812702 0 0.47445109088245402 -0.33939251603280057 0 0.45042088551638471 -0.35096432972317859 0 0.45042088551638471 -0.35096432972317859 0 0.44795385503287433 -0.36061133683812702 0 0.42639068015031539 -0.36253614341355689 0 0.45042088551638471 -0.35096432972317859 0 0.42639068015031539 -0.36253614341355689 0 0.44795385503287433 -0.36061133683812702 0 0.44132644307966729 -0.37312150504568198 0 0.42639068015031539 -0.36253614341355689 0 0.44795385503287433 -0.36061133683812702 0 0.44132644307966729 -0.37312150504568198 0 0.46415337265378981 -0.37966042584734389 0 0.47966045165369559 -0.31902197713576608 0 0.45226158601649452 -0.33172887108509258 0 0.45244738176708299 -0.31352824064560469 0 0.47445109088245402 -0.33939251603280057 0 0.45042088551638471 -0.35096432972317859 0 0.45226158601649452 -0.33172887108509258 0 0.45042088551638471 -0.35096432972317859 0 0.45226158601649452 -0.33172887108509258 0 0.43359201080897652 -0.34301949983635871 0 0.45226158601649452 -0.33172887108509258 0 0.45244738176708299 -0.31352824064560469 0 0.4229976954703738 -0.32444666313684739 0 0.45244738176708299 -0.31352824064560469 0 0.4229976954703738 -0.32444666313684739 0 0.43233602393106102 -0.3005221000116049 0 0.4229976954703738 -0.32444666313684739 0 0.41181452604056829 -0.34463871467851392 0 0.39153599383422122 -0.3334124931292809 0 0.4229976954703738 -0.32444666313684739 0 0.43359201080897652 -0.34301949983635871 0 0.41181452604056829 -0.34463871467851392 0 0.45226158601649452 -0.33172887108509258 0 0.4229976954703738 -0.32444666313684739 0 0.43359201080897652 -0.34301949983635871 0 0.4229976954703738 -0.32444666313684739 0 0.39658548067751132 -0.31343780486306111 0 0.41067184346860491 -0.29979657683132821 0 0.44795385503287433 -0.36061133683812702 0 0.42639068015031539 -0.36253614341355689 0 0.42800482762547509 -0.37270999720683612 0 0.42094492737632722 -0.36515856113926831 0 0.42088573012764602 -0.37592765065276618 0 0.44132644307966729 -0.37312150504568198 0 0.42800482762547509 -0.37270999720683612 0 0.42639068015031539 -0.36253614341355689 0 0.42800482762547509 -0.37270999720683612 0 0.42639068015031539 -0.36253614341355689 0 0.42094492737632722 -0.36515856113926831 0 0.42639068015031539 -0.36253614341355689 0 0.42094492737632722 -0.36515856113926831 0 0.43359201080897652 -0.34301949983635871 0 0.42639068015031539 -0.36253614341355689 0 0.41181452604056829 -0.34463871467851392 0 0.45042088551638471 -0.35096432972317859 0 0.43359201080897652 -0.34301949983635871 0 0.42639068015031539 -0.36253614341355689 0 0.42639068015031539 -0.36253614341355689 0 0.41181452604056829 -0.34463871467851392 0 0.40063874089319862 -0.36483485416844869 0 0.42094492737632722 -0.36515856113926831 0 0.41050438841544012 -0.37334979929249063 0 0.40063874089319862 -0.36483485416844869 0 0.42639068015031539 -0.36253614341355689 0 0.42094492737632722 -0.36515856113926831 0 0.40063874089319862 -0.36483485416844869 0 0.42639068015031539 -0.36253614341355689 0 0.40063874089319862 -0.36483485416844869 0 0.42094492737632722 -0.36515856113926831 0 0.41050438841544012 -0.37334979929249063 0 0.42088573012764602 -0.37592765065276618 0 0.41050438841544012 -0.37334979929249063 0 0.40063874089319862 -0.36483485416844869 0 0.39689245483270919 -0.38344361433647162 0 0.41181452604056829 -0.34463871467851392 0 0.40063874089319862 -0.36483485416844869 0 0.38778853450265721 -0.35152776340917052 0 0.38778853450265721 -0.35152776340917052 0 0.37004954035729931 -0.34240091732144351 0 0.37488680163608168 -0.36713356492334082 0 0.40063874089319862 -0.36483485416844869 0 0.38383717015070351 -0.37971395254385532 0 0.37488680163608168 -0.36713356492334082 0 0.40063874089319862 -0.36483485416844869 0 0.37488680163608168 -0.36713356492334082 0 0.40063874089319862 -0.36483485416844869 0 0.38778853450265721 -0.35152776340917052 0 0.37488680163608168 -0.36713356492334082 0 0.4229976954703738 -0.32444666313684739 0 0.39658548067751132 -0.31343780486306111 0 0.39153599383422122 -0.3334124931292809 0 0.41181452604056829 -0.34463871467851392 0 0.38778853450265721 -0.35152776340917052 0 0.39153599383422122 -0.3334124931292809 0 0.39153599383422122 -0.3334124931292809 0 0.37803363593076222 -0.31568495230070781 0 0.37004954035729931 -0.34240091732144351 0 0.38778853450265721 -0.35152776340917052 0 0.39153599383422122 -0.3334124931292809 0 0.37004954035729931 -0.34240091732144351 0 0.39658548067751132 -0.31343780486306111 0 0.39153599383422122 -0.3334124931292809 0 0.37803363593076222 -0.31568495230070781 0 0.39658548067751132 -0.31343780486306111 0 0.37803363593076222 -0.31568495230070781 0 0.37968823468359431 -0.29384833891714152 0 0.39658548067751132 -0.31343780486306111 0 0.37968823468359431 -0.29384833891714152 0 0.41067184346860491 -0.29979657683132821 0 0.37968823468359431 -0.29384833891714152 0 0.39834599146683591 -0.27514649052580892 0 0.41067184346860491 -0.29979657683132821 0 0.39834599146683591 -0.27514649052580892 0 0.41067184346860491 -0.29979657683132821 0 0.37968823468359431 -0.29384833891714152 0 0.39834599146683591 -0.27514649052580892 0 0.37462931490804291 -0.27075778155104729 0 0.38602013946506702 -0.25049640422028968 0 0.39834599146683591 -0.27514649052580892 0 0.37462931490804291 -0.27075778155104729 0 0.40061421951448112 -0.25500368953924613 0 0.39834599146683591 -0.27514649052580892 0 0.41161184359053349 -0.26204353694678179 0 0.38602013946506702 -0.25049640422028968 0 0.39834599146683591 -0.27514649052580892 0 0.38602013946506702 -0.25049640422028968 0 0.40061421951448112 -0.25500368953924613 0 0.39834599146683591 -0.27514649052580892 0 0.39834599146683591 -0.27514649052580892 0 0.41161184359053349 -0.26204353694678179 0 0.42367166171685539 -0.27745279171496562 0 0.41161184359053349 -0.26204353694678179 0 0.42367499757022142 -0.25822245551072132 0 0.42367166171685539 -0.27745279171496562 0 0.41079780246735448 -0.2481836971440492 0 0.40061421951448112 -0.25500368953924613 0 0.41161184359053349 -0.26204353694678179 0 0.41079780246735448 -0.2481836971440492 0 0.41161184359053349 -0.26204353694678179 0 0.42367499757022142 -0.25822245551072132 0 0.43147852106014828 -0.24901274229835921 0 0.44108430964842921 -0.249400311665992 0 0.43587982984158108 -0.26220494814056561 0 0.43147852106014828 -0.24901274229835921 0 0.42367499757022142 -0.25822245551072132 0 0.43587982984158108 -0.26220494814056561 0 0.45189153723238717 -0.28738622772927841 0 0.43587982984158108 -0.26220494814056561 0 0.42367166171685539 -0.27745279171496562 0 0.42367499757022142 -0.25822245551072132 0 0.43587982984158108 -0.26220494814056561 0 0.42367166171685539 -0.27745279171496562 0 0.45189153723238717 -0.28738622772927841 0 0.42367166171685539 -0.27745279171496562 0 0.43233602393106102 -0.3005221000116049 0 0.42367166171685539 -0.27745279171496562 0 0.43233602393106102 -0.3005221000116049 0 0.41067184346860491 -0.29979657683132821 0 0.4229976954703738 -0.32444666313684739 0 0.43233602393106102 -0.3005221000116049 0 0.41067184346860491 -0.29979657683132821 0 0.4229976954703738 -0.32444666313684739 0 0.41067184346860491 -0.29979657683132821 0 0.39834599146683591 -0.27514649052580892 0 0.42367166171685539 -0.27745279171496562 0 0.41067184346860491 -0.29979657683132821 0 0.45075238454890409 -0.5 0 0.43973161619715739 -0.47515858035801228 0 0.43337891646549093 -0.5000000000000191 0 0.45075238454890409 -0.5 0 0.43973161619715739 -0.47515858035801228 0 0.46096375205579371 -0.48172388962458063 0 0.46096375205579371 -0.48172388962458063 0 0.46980533902539179 -0.47357072330225181 0 0.46015584289788669 -0.46472093949001558 0 0.43973161619715739 -0.47515858035801228 0 0.46096375205579371 -0.48172388962458063 0 0.46015584289788669 -0.46472093949001558 0 0.45075238454890409 -0.5 0 0.46096375205579371 -0.48172388962458063 0 0.46812585263231732 -0.50000000000000566 0 0.5 -0.5 0 0.49047389822397419 -0.49065046998026512 0 0.5 -0.46133700699384522 0 0.47530220284245051 -0.49999999999999939 0 0.49047389822397419 -0.49065046998026512 0 0.47845674551999312 -0.47805265419656201 0 0.46812585263231732 -0.50000000000000566 0 0.47530220284245051 -0.49999999999999939 0 0.47845674551999312 -0.47805265419656201 0 0.46096375205579371 -0.48172388962458063 0 0.46812585263231732 -0.50000000000000566 0 0.47845674551999312 -0.47805265419656201 0 0.46812585263231732 -0.50000000000000566 0 0.47845674551999312 -0.47805265419656201 0 0.47530220284245051 -0.49999999999999939 0 0.47845674551999312 -0.47805265419656201 0 0.47530220284245051 -0.49999999999999939 0 0.5 -0.5 0 0.49047389822397419 -0.49065046998026512 0 0.49047389822397419 -0.49065046998026512 0 0.4810625677608803 -0.47251674530224858 0 0.49047389822397419 -0.49065046998026512 0 0.4810625677608803 -0.47251674530224858 0 0.5 -0.46133700699384522 0 0.49047389822397419 -0.49065046998026512 0 0.4810625677608803 -0.47251674530224858 0 0.47845674551999312 -0.47805265419656201 0 0.46096375205579371 -0.48172388962458063 0 0.47845674551999312 -0.47805265419656201 0 0.46980533902539179 -0.47357072330225181 0 0.47964501562789258 -0.46978540989784889 0 0.46980533902539179 -0.47357072330225181 0 0.46015584289788669 -0.46472093949001558 0 0.47964501562789258 -0.46978540989784889 0 0.47845674551999312 -0.47805265419656201 0 0.4810625677608803 -0.47251674530224858 0 0.47964501562789258 -0.46978540989784889 0 0.47845674551999312 -0.47805265419656201 0 0.4810625677608803 -0.47251674530224858 0 0.47845674551999312 -0.47805265419656201 0 0.4810625677608803 -0.47251674530224858 0 0.47964501562789258 -0.46978540989784889 0 0.47964501562789258 -0.46978540989784889 0 0.47845674551999312 -0.47805265419656201 0 0.46980533902539179 -0.47357072330225181 0 0.47964501562789258 -0.46978540989784889 0 0.48261093694494162 -0.44915037419697168 0 0.46723245895584059 -0.44586893112538323 0 0.4810625677608803 -0.47251674530224858 0 0.47964501562789258 -0.46978540989784889 0 0.49053128388044132 -0.45240104095314831 0 0.47964501562789258 -0.46978540989784889 0 0.48261093694494162 -0.44915037419697168 0 0.47964501562789258 -0.46978540989784889 0 0.49053128388044132 -0.45240104095314831 0 0.48261093694494162 -0.44915037419697168 0 0.47964501562789258 -0.46978540989784889 0 0.46723245895584059 -0.44586893112538323 0 0.46015584289788669 -0.46472093949001558 0 0.47964501562789258 -0.46978540989784889 0 0.46723245895584059 -0.44586893112538323 0 0.4810625677608803 -0.47251674530224858 0 0.5 -0.46133700699384522 0 0.49053128388044132 -0.45240104095314831 0 0.4810625677608803 -0.47251674530224858 0 0.49053128388044132 -0.45240104095314831 0 0.49053128388044132 -0.45240104095314831 0 0.48967976977184369 -0.44058802256256552 0 0.50000000000000133 -0.43228533660404728 0 0.48967976977184369 -0.44058802256256552 0 0.48261093694494162 -0.44915037419697168 0 0.48557685826198982 -0.42851533849609441 0 0.49053128388044132 -0.45240104095314831 0 0.50000000000000133 -0.43228533660404728 0 0.5 -0.46133700699384522 0 0.49053128388044132 -0.45240104095314831 0 0.50000000000000133 -0.43228533660404728 0 0.49053128388044132 -0.45240104095314831 0 0.48967976977184369 -0.44058802256256552 0 0.48261093694494162 -0.44915037419697168 0 0.48261093694494162 -0.44915037419697168 0 0.48557685826198982 -0.42851533849609441 0 0.48261093694494162 -0.44915037419697168 0 0.47583756081273271 -0.43594347629945551 0 0.48557685826198982 -0.42851533849609441 0 0.48261093694494162 -0.44915037419697168 0 0.46723245895584059 -0.44586893112538323 0 0.47583756081273271 -0.43594347629945551 0 0.46723245895584059 -0.44586893112538323 0 0.44608431592881931 -0.45031716071600419 0 0.452437015660481 -0.42547574107399633 0 0.46723245895584059 -0.44586893112538323 0 0.46015584289788669 -0.46472093949001558 0 0.44608431592881931 -0.45031716071600419 0 0.43973161619715739 -0.47515858035801228 0 0.46015584289788669 -0.46472093949001558 0 0.44608431592881931 -0.45031716071600419 0 0.43973161619715739 -0.47515858035801228 0 0.44608431592881931 -0.45031716071600419 0 0.43973161619715739 -0.47515858035801228 0 0.44608431592881931 -0.45031716071600419 0 0.43075983822997249 -0.47261077789297762 0 0.44608431592881931 -0.45031716071600419 0 0.4364472537460754 -0.44522155578595601 0 0.43075983822997249 -0.47261077789297762 0 0.44608431592881931 -0.45031716071600419 0 0.452437015660481 -0.42547574107399633 0 0.4364472537460754 -0.44522155578595601 0 0.44608431592881931 -0.45031716071600419 0 0.452437015660481 -0.42547574107399633 0 0.452437015660481 -0.42547574107399633 0 0.44213466926217831 -0.41783233367893441 0 0.4364472537460754 -0.44522155578595601 0 0.44213466926217831 -0.41783233367893441 0 0.4364472537460754 -0.44522155578595601 0 0.452437015660481 -0.42547574107399633 0 0.44213466926217831 -0.41783233367893441 0 0.4587897153921397 -0.40063432143198757 0 0.44213466926217831 -0.41783233367893441 0 0.4587897153921397 -0.40063432143198757 0 0.43743987778849841 -0.40326785995322151 0 0.452437015660481 -0.42547574107399633 0 0.4548199022837896 -0.42195245235291678 0 0.4587897153921397 -0.40063432143198757 0 0.46386080026840171 -0.41332177395493802 0 0.4548199022837896 -0.42195245235291678 0 0.4587897153921397 -0.40063432143198757 0 0.452437015660481 -0.42547574107399633 0 0.4587897153921397 -0.40063432143198757 0 0.46386080026840171 -0.41332177395493802 0 0.4698330075484814 -0.40719597976628152 0 0.4587897153921397 -0.40063432143198757 0 0.46386080026840171 -0.41332177395493802 0 0.47208302216873382 -0.41640152403171471 0 0.4698330075484814 -0.40719597976628152 0 0.46386080026840171 -0.41332177395493802 0 0.46476344965269373 -0.42108375487829292 0 0.4548199022837896 -0.42195245235291678 0 0.46386080026840171 -0.41332177395493802 0 0.46476344965269373 -0.42108375487829292 0 0.47208302216873382 -0.41640152403171471 0 0.46723245895584059 -0.44586893112538323 0 0.452437015660481 -0.42547574107399633 0 0.4548199022837896 -0.42195245235291678 0 0.46723245895584059 -0.44586893112538323 0 0.4548199022837896 -0.42195245235291678 0 0.467864907251826 -0.43046352727124959 0 0.46723245895584059 -0.44586893112538323 0 0.4548199022837896 -0.42195245235291678 0 0.46476344965269373 -0.42108375487829292 0 0.4548199022837896 -0.42195245235291678 0 0.467864907251826 -0.43046352727124959 0 0.46723245895584059 -0.44586893112538323 0 0.467864907251826 -0.43046352727124959 0 0.47583756081273271 -0.43594347629945551 0 0.467864907251826 -0.43046352727124959 0 0.47583756081273271 -0.43594347629945551 0 0.47530625029363771 -0.42504399657536368 0 0.46476344965269373 -0.42108375487829292 0 0.467864907251826 -0.43046352727124959 0 0.47530625029363771 -0.42504399657536368 0 0.47530625029363771 -0.42504399657536368 0 0.48557685826198982 -0.42851533849609441 0 0.48227648364658648 -0.41396712680181608 0 0.47583756081273271 -0.43594347629945551 0 0.47530625029363771 -0.42504399657536368 0 0.48557685826198982 -0.42851533849609441 0 0.48967976977184369 -0.44058802256256552 0 0.48557685826198982 -0.42851533849609441 0 0.50000000000000133 -0.43228533660404728 0 0.48557685826198982 -0.42851533849609441 0 0.50000000000000133 -0.43228533660404728 0 0.50000000000000044 -0.42177076901642802 0 0.50000000000000044 -0.42177076901642802 0 0.48227648364658648 -0.41396712680181608 0 0.49733363687103538 -0.40007369206877402 0 0.50000000000000044 -0.42177076901642802 0 0.49733363687103538 -0.40007369206877402 0 0.48557685826198982 -0.42851533849609441 0 0.50000000000000044 -0.42177076901642802 0 0.48227648364658648 -0.41396712680181608 0 0.50000000000000044 -0.42177076901642802 0 0.49733363687103538 -0.40007369206877402 0 0.5 -0.40286913815689579 0 0.46476344965269373 -0.42108375487829292 0 0.47530625029363771 -0.42504399657536368 0 0.47208302216873382 -0.41640152403171471 0 0.47530625029363771 -0.42504399657536368 0 0.48227648364658648 -0.41396712680181608 0 0.47208302216873382 -0.41640152403171471 0 0.48227648364658648 -0.41396712680181608 0 0.47208302216873382 -0.41640152403171471 0 0.4698330075484814 -0.40719597976628152 0 0.48227648364658648 -0.41396712680181608 0 0.4698330075484814 -0.40719597976628152 0 0.47543722966824797 -0.39858082243387399 0 0.47543722966824797 -0.39858082243387399 0 0.49733363687103538 -0.40007369206877402 0 0.47958959306754989 -0.38327944692607641 0 0.49733363687103538 -0.40007369206877402 0 0.5 -0.40286913815689579 0 0.50000000000000044 -0.38396750729736362 0 0.48227648364658648 -0.41396712680181608 0 0.47543722966824797 -0.39858082243387399 0 0.49733363687103538 -0.40007369206877402 0 0.49733363687103538 -0.40007369206877402 0 0.49466727374206981 -0.37837661512112009 0 0.47958959306754989 -0.38327944692607641 0 0.49733363687103538 -0.40007369206877402 0 0.49466727374206981 -0.37837661512112009 0 0.49733363687103538 -0.40007369206877402 0 0.50000000000000044 -0.38396750729736362 0 0.49466727374206981 -0.37837661512112009 0 0.48081818480590349 -0.36973260894661869 0 0.49466727374206981 -0.37837661512112009 0 0.47958959306754989 -0.38327944692607641 0 0.47543722966824797 -0.39858082243387399 0 0.47958959306754989 -0.38327944692607641 0 0.46415337265378981 -0.37966042584734389 0 0.48081818480590349 -0.36973260894661869 0 0.47958959306754989 -0.38327944692607641 0 0.46415337265378981 -0.37966042584734389 0 0.46415337265378981 -0.37966042584734389 0 0.4587897153921397 -0.40063432143198757 0 0.46415337265378981 -0.37966042584734389 0 0.4587897153921397 -0.40063432143198757 0 0.44661099661233722 -0.38950613895597119 0 0.47543722966824797 -0.39858082243387399 0 0.46415337265378981 -0.37966042584734389 0 0.4587897153921397 -0.40063432143198757 0 0.47543722966824797 -0.39858082243387399 0 0.4587897153921397 -0.40063432143198757 0 0.4698330075484814 -0.40719597976628152 0 0.47543722966824797 -0.39858082243387399 0 0.4587897153921397 -0.40063432143198757 0 0.4587897153921397 -0.40063432143198757 0 0.44661099661233722 -0.38950613895597119 0 0.43743987778849841 -0.40326785995322151 0 0.44661099661233722 -0.38950613895597119 0 0.43048163215456081 -0.38432733794234358 0 0.43743987778849841 -0.40326785995322151 0 0.4587897153921397 -0.40063432143198757 0 0.43743987778849841 -0.40326785995322151 0 0.44132644307966729 -0.37312150504568198 0 0.46415337265378981 -0.37966042584734389 0 0.44661099661233722 -0.38950613895597119 0 0.44132644307966729 -0.37312150504568198 0 0.44661099661233722 -0.38950613895597119 0 0.43048163215456081 -0.38432733794234358 0 0.43048163215456081 -0.38432733794234358 0 0.41449287506642701 -0.3840925576828923 0 0.42088573012764602 -0.37592765065276618 0 0.43048163215456081 -0.38432733794234358 0 0.42395286018787759 -0.3949904356120843 0 0.41449287506642701 -0.3840925576828923 0 0.42800482762547509 -0.37270999720683612 0 0.43048163215456081 -0.38432733794234358 0 0.42088573012764602 -0.37592765065276618 0 0.44132644307966729 -0.37312150504568198 0 0.42800482762547509 -0.37270999720683612 0 0.43048163215456081 -0.38432733794234358 0 0.43743987778849841 -0.40326785995322151 0 0.41609004018485712 -0.40590139847445639 0 0.43048163215456081 -0.38432733794234358 0 0.42395286018787759 -0.3949904356120843 0 0.43743987778849841 -0.40326785995322151 0 0.42395286018787759 -0.3949904356120843 0 0.43743987778849841 -0.40326785995322151 0 0.41609004018485712 -0.40590139847445639 0 0.42395286018787759 -0.3949904356120843 0 0.40689605732959522 -0.39604899307323332 0 0.41609004018485712 -0.40590139847445639 0 0.42395286018787759 -0.3949904356120843 0 0.40689605732959522 -0.39604899307323332 0 0.41449287506642701 -0.3840925576828923 0 0.41050438841544012 -0.37334979929249063 0 0.41449287506642701 -0.3840925576828923 0 0.39689245483270919 -0.38344361433647162 0 0.41050438841544012 -0.37334979929249063 0 0.41449287506642701 -0.3840925576828923 0 0.42088573012764602 -0.37592765065276618 0 0.40689605732959522 -0.39604899307323332 0 0.41449287506642701 -0.3840925576828923 0 0.39689245483270919 -0.38344361433647162 0 0.40063874089319862 -0.36483485416844869 0 0.39689245483270919 -0.38344361433647162 0 0.38383717015070351 -0.37971395254385532 0 0.38383717015070351 -0.37971395254385532 0 0.38360777978888772 -0.39431997728362372 0 0.36316007360264041 -0.38883775200739179 0 0.39689245483270919 -0.38344361433647162 0 0.38383717015070351 -0.37971395254385532 0 0.38360777978888772 -0.39431997728362372 0 0.38360777978888772 -0.39431997728362372 0 0.39474020258121578 -0.40853493699569088 0 0.38128501912533791 -0.41019465659633542 0 0.38360777978888772 -0.39431997728362372 0 0.38128501912533791 -0.41019465659633542 0 0.36316007360264041 -0.38883775200739179 0 0.39689245483270919 -0.38344361433647162 0 0.39474020258121578 -0.40853493699569088 0 0.39689245483270919 -0.38344361433647162 0 0.38360777978888772 -0.39431997728362372 0 0.39474020258121578 -0.40853493699569088 0 0.40689605732959522 -0.39604899307323332 0 0.39689245483270919 -0.38344361433647162 0 0.39474020258121578 -0.40853493699569088 0 0.40689605732959522 -0.39604899307323332 0 0.41609004018485712 -0.40590139847445639 0 0.39474020258121578 -0.40853493699569088 0 0.39474020258121578 -0.40853493699569088 0 0.38458216295694969 -0.41407973234122869 0 0.39299003902863638 -0.42893864124258008 0 0.39474020258121578 -0.40853493699569088 0 0.39299003902863638 -0.42893864124258008 0 0.4058649800888301 -0.41976609811620003 0 0.39474020258121578 -0.40853493699569088 0 0.39299003902863638 -0.42893864124258008 0 0.41609004018485712 -0.40590139847445639 0 0.4058649800888301 -0.41976609811620003 0 0.39474020258121578 -0.40853493699569088 0 0.41609004018485712 -0.40590139847445639 0 0.39474020258121578 -0.40853493699569088 0 0.39474020258121578 -0.40853493699569088 0 0.38128501912533791 -0.41019465659633542 0 0.39474020258121578 -0.40853493699569088 0 0.38458216295694969 -0.41407973234122869 0 0.38128501912533791 -0.41019465659633542 0 0.38458216295694969 -0.41407973234122869 0 0.38128501912533791 -0.41019465659633542 0 0.38458216295694969 -0.41407973234122869 0 0.37898970483988992 -0.41591126064682338 0 0.38303086063618019 -0.42279170908155611 0 0.37898970483988992 -0.41591126064682338 0 0.37645311040362611 -0.42314857690183899 0 0.38303086063618019 -0.42279170908155611 0 0.37898970483988992 -0.41591126064682338 0 0.37645311040362611 -0.42314857690183899 0 0.37228040643750432 -0.4169479350886498 0 0.37898970483988992 -0.41591126064682338 0 0.37635425318110782 -0.41080287490199208 0 0.37228040643750432 -0.4169479350886498 0 0.37635425318110782 -0.41080287490199208 0 0.38128501912533791 -0.41019465659633542 0 0.37898970483988992 -0.41591126064682338 0 0.37635425318110782 -0.41080287490199208 0 0.38128501912533791 -0.41019465659633542 0 0.38458216295694969 -0.41407973234122869 0 0.37898970483988992 -0.41591126064682338 0 0.38128501912533791 -0.41019465659633542 0 0.38203882817592949 -0.43300446577425489 0 0.39299003902863638 -0.42893864124258008 0 0.3912398754760571 -0.44934234548946922 0 0.38203882817592949 -0.43300446577425489 0 0.37718924257732972 -0.44409853690570278 0 0.37108874227166028 -0.43240490062185122 0 0.38203882817592949 -0.43300446577425489 0 0.37645311040362611 -0.42314857690183899 0 0.37108874227166028 -0.43240490062185122 0 0.38203882817592949 -0.43300446577425489 0 0.37645311040362611 -0.42314857690183899 0 0.38303086063618019 -0.42279170908155611 0 0.38458216295694969 -0.41407973234122869 0 0.38303086063618019 -0.42279170908155611 0 0.39299003902863638 -0.42893864124258008 0 0.38203882817592949 -0.43300446577425489 0 0.38303086063618019 -0.42279170908155611 0 0.39299003902863638 -0.42893864124258008 0 0.4058649800888301 -0.41976609811620003 0 0.39299003902863638 -0.42893864124258008 0 0.40583883429739381 -0.43109232952341558 0 0.39299003902863638 -0.42893864124258008 0 0.40583883429739381 -0.43109232952341558 0 0.40701250376598758 -0.4434049348412924 0 0.40583883429739381 -0.43109232952341558 0 0.4174878143061212 -0.4322596438935904 0 0.40701250376598758 -0.4434049348412924 0 0.4058649800888301 -0.41976609811620003 0 0.4174878143061212 -0.4322596438935904 0 0.41809239085738092 -0.42023280100385929 0 0.4058649800888301 -0.41976609811620003 0 0.40583883429739381 -0.43109232952341558 0 0.4174878143061212 -0.4322596438935904 0 0.41609004018485712 -0.40590139847445639 0 0.4058649800888301 -0.41976609811620003 0 0.41809239085738092 -0.42023280100385929 0 0.41609004018485712 -0.40590139847445639 0 0.41809239085738092 -0.42023280100385929 0 0.42902162480870271 -0.41541979829621312 0 0.43743987778849841 -0.40326785995322151 0 0.41609004018485712 -0.40590139847445639 0 0.42902162480870271 -0.41541979829621312 0 0.44213466926217831 -0.41783233367893441 0 0.43743987778849841 -0.40326785995322151 0 0.42902162480870271 -0.41541979829621312 0 0.44213466926217831 -0.41783233367893441 0 0.42902162480870271 -0.41541979829621312 0 0.43256275878119549 -0.43012982273999228 0 0.44213466926217831 -0.41783233367893441 0 0.43256275878119549 -0.43012982273999228 0 0.4364472537460754 -0.44522155578595601 0 0.4174878143061212 -0.4322596438935904 0 0.43256275878119549 -0.43012982273999228 0 0.42735730016268048 -0.43810934821996211 0 0.41809239085738092 -0.42023280100385929 0 0.42902162480870271 -0.41541979829621312 0 0.43256275878119549 -0.43012982273999228 0 0.4174878143061212 -0.4322596438935904 0 0.41809239085738092 -0.42023280100385929 0 0.43256275878119549 -0.43012982273999228 0 0.42293137381732981 -0.44482637046030959 0 0.4364472537460754 -0.44522155578595601 0 0.42541276213519408 -0.45653711593494067 0 0.42735730016268048 -0.43810934821996211 0 0.42293137381732981 -0.44482637046030959 0 0.4364472537460754 -0.44522155578595601 0 0.4174878143061212 -0.4322596438935904 0 0.42735730016268048 -0.43810934821996211 0 0.42293137381732981 -0.44482637046030959 0 0.43256275878119549 -0.43012982273999228 0 0.42735730016268048 -0.43810934821996211 0 0.4364472537460754 -0.44522155578595601 0 0.4364472537460754 -0.44522155578595601 0 0.42541276213519408 -0.45653711593494067 0 0.43075983822997249 -0.47261077789297762 0 0.42541276213519408 -0.45653711593494067 0 0.41850793250310447 -0.4661111433890156 0 0.43075983822997249 -0.47261077789297762 0 0.4364472537460754 -0.44522155578595601 0 0.43075983822997249 -0.47261077789297762 0 0.42541276213519408 -0.45653711593494067 0 0.4164940781267526 -0.45420266612564858 0 0.41850793250310447 -0.4661111433890156 0 0.41850793250310447 -0.4661111433890156 0 0.40456668933447709 -0.46067211230180549 0 0.40981976248376439 -0.47557251599412081 0 0.4164940781267526 -0.45420266612564858 0 0.41850793250310447 -0.4661111433890156 0 0.40456668933447709 -0.46067211230180549 0 0.4164940781267526 -0.45420266612564858 0 0.40701250376598758 -0.4434049348412924 0 0.40456668933447709 -0.46067211230180549 0 0.4174878143061212 -0.4322596438935904 0 0.42293137381732981 -0.44482637046030959 0 0.40701250376598758 -0.4434049348412924 0 0.42293137381732981 -0.44482637046030959 0 0.4164940781267526 -0.45420266612564858 0 0.40701250376598758 -0.4434049348412924 0 0.42293137381732981 -0.44482637046030959 0 0.42541276213519408 -0.45653711593494067 0 0.4164940781267526 -0.45420266612564858 0 0.40701250376598758 -0.4434049348412924 0 0.3912398754760571 -0.44934234548946922 0 0.40456668933447709 -0.46067211230180549 0 0.39299003902863638 -0.42893864124258008 0 0.40701250376598758 -0.4434049348412924 0 0.3912398754760571 -0.44934234548946922 0 0.39299003902863638 -0.42893864124258008 0 0.3912398754760571 -0.44934234548946922 0 0.38203882817592949 -0.43300446577425489 0 0.3912398754760571 -0.44934234548946922 0 0.37718924257732972 -0.44409853690570278 0 0.3912398754760571 -0.44934234548946922 0 0.37718924257732972 -0.44409853690570278 0 0.37808344977556008 -0.45773515392008368 0 0.3912398754760571 -0.44934234548946922 0 0.37808344977556008 -0.45773515392008368 0 0.38948971192347781 -0.46974604973635831 0 0.3912398754760571 -0.44934234548946922 0 0.38948971192347781 -0.46974604973635831 0 0.37808344977556008 -0.45773515392008368 0 0.37732329984677909 -0.47636844092054242 0 0.38948971192347781 -0.46974604973635831 0 0.40456668933447709 -0.46067211230180549 0 0.38948971192347781 -0.46974604973635831 0 0.40981976248376439 -0.47557251599412081 0 0.3912398754760571 -0.44934234548946922 0 0.40456668933447709 -0.46067211230180549 0 0.38948971192347781 -0.46974604973635831 0 0.39336904957986912 -0.48439780133086041 0 0.40973509684386927 -0.48864280919941649 0 0.40981976248376439 -0.47557251599412081 0 0.38948971192347781 -0.46974604973635831 0 0.39336904957986912 -0.48439780133086041 0 0.40981976248376439 -0.47557251599412081 0 0.37732329984677909 -0.47636844092054242 0 0.38948971192347781 -0.46974604973635831 0 0.39336904957986912 -0.48439780133086041 0 0.37580887543001668 -0.5 0 0.40044064907194321 -0.5 0 0.39336904957986912 -0.48439780133086041 0 0.37732329984677909 -0.47636844092054242 0 0.37580887543001668 -0.5 0 0.39336904957986912 -0.48439780133086041 0 0.40044064907194321 -0.5 0 0.39336904957986912 -0.48439780133086041 0 0.40973509684386927 -0.48864280919941649 0 0.40044064907194321 -0.5 0 0.40973509684386927 -0.48864280919941649 0 0.4250724227138698 -0.49999999999999928 0 0.40973509684386927 -0.48864280919941649 0 0.41997360036990011 -0.48324372867210141 0 0.4250724227138698 -0.49999999999999928 0 0.40973509684386927 -0.48864280919941649 0 0.40981976248376439 -0.47557251599412081 0 0.41997360036990011 -0.48324372867210141 0 0.41850793250310447 -0.4661111433890156 0 0.40981976248376439 -0.47557251599412081 0 0.4197652833966854 -0.47438454148705378 0 0.40981976248376439 -0.47557251599412081 0 0.4197652833966854 -0.47438454148705378 0 0.41997360036990011 -0.48324372867210141 0 0.4197652833966854 -0.47438454148705378 0 0.41997360036990011 -0.48324372867210141 0 0.43075983822997249 -0.47261077789297762 0 0.43973161619715739 -0.47515858035801228 0 0.43075983822997249 -0.47261077789297762 0 0.43337891646549093 -0.5000000000000191 0 0.41850793250310447 -0.4661111433890156 0 0.4197652833966854 -0.47438454148705378 0 0.43075983822997249 -0.47261077789297762 0 0.43973161619715739 -0.47515858035801228 0 0.43337891646549093 -0.5000000000000191 0 0.41997360036990011 -0.48324372867210141 0 0.43075983822997249 -0.47261077789297762 0 0.4250724227138698 -0.49999999999999928 0 0.43075983822997249 -0.47261077789297762 0 0.4250724227138698 -0.49999999999999928 0 0.43337891646549093 -0.5000000000000191 0 0.43075983822997249 -0.47261077789297762 0 0.4250724227138698 -0.49999999999999928 0 0.32654532814616372 -0.50000000000000322 0 0.31963877639873101 -0.48322572552436821 0 0.32654532814616372 -0.50000000000000322 0 0.31963877639873101 -0.48322572552436821 0 0.33437468036929391 -0.48854685236594247 0 0.32654532814616372 -0.50000000000000322 0 0.31963877639873101 -0.48322572552436821 0 0.29705367144924688 -0.5 0 0.31963877639873101 -0.48322572552436821 0 0.31273222465129952 -0.46645145104873259 0 0.31963877639873101 -0.48322572552436821 0 0.32908147338826182 -0.47531999578469109 0 0.31273222465129952 -0.46645145104873259 0 0.32908147338826182 -0.47531999578469109 0 0.31273222465129952 -0.46645145104873259 0 0.31963877639873101 -0.48322572552436821 0 0.32908147338826182 -0.47531999578469109 0 0.33437468036929391 -0.48854685236594247 0 0.32908147338826182 -0.47531999578469109 0 0.34543072212522402 -0.48418854052064958 0 0.32908147338826182 -0.47531999578469109 0 0.34093112071850162 -0.47128650753443491 0 0.34543072212522402 -0.48418854052064958 0 0.32908147338826182 -0.47531999578469109 0 0.33437468036929391 -0.48854685236594247 0 0.34543072212522402 -0.48418854052064958 0 0.32908147338826182 -0.47531999578469109 0 0.34093112071850162 -0.47128650753443491 0 0.33361502305384472 -0.46050539399440699 0 0.33437468036929391 -0.48854685236594247 0 0.35117710178809008 -0.5 0 0.34543072212522402 -0.48418854052064958 0 0.32654532814616372 -0.50000000000000322 0 0.33437468036929391 -0.48854685236594247 0 0.35117710178809008 -0.5 0 0.35117710178809008 -0.5 0 0.36139188383742771 -0.48197960124160832 0 0.34543072212522402 -0.48418854052064958 0 0.37732329984677909 -0.47636844092054242 0 0.37580887543001668 -0.5 0 0.36139188383742771 -0.48197960124160832 0 0.37580887543001668 -0.5 0 0.35117710178809008 -0.5 0 0.36139188383742771 -0.48197960124160832 0 0.36139188383742771 -0.48197960124160832 0 0.35274522256592872 -0.47065884135915892 0 0.36579682853432421 -0.46435203929434382 0 0.37732329984677909 -0.47636844092054242 0 0.36139188383742771 -0.48197960124160832 0 0.36579682853432421 -0.46435203929434382 0 0.36139188383742771 -0.48197960124160832 0 0.35274522256592872 -0.47065884135915892 0 0.34543072212522402 -0.48418854052064958 0 0.34093112071850162 -0.47128650753443491 0 0.35274522256592872 -0.47065884135915892 0 0.34543072212522402 -0.48418854052064958 0 0.34093112071850162 -0.47128650753443491 0 0.35274522256592872 -0.47065884135915892 0 0.34461513482808298 -0.46234808605774358 0 0.35274522256592872 -0.47065884135915892 0 0.34461513482808298 -0.46234808605774358 0 0.35357555937116159 -0.45642396798715251 0 0.34461513482808298 -0.46234808605774358 0 0.35357555937116159 -0.45642396798715251 0 0.34153797157959631 -0.45007841157416978 0 0.35274522256592872 -0.47065884135915892 0 0.35357555937116159 -0.45642396798715251 0 0.36579682853432421 -0.46435203929434382 0 0.37808344977556008 -0.45773515392008368 0 0.36579682853432421 -0.46435203929434382 0 0.36427308276285358 -0.4467367599010893 0 0.35357555937116159 -0.45642396798715251 0 0.36579682853432421 -0.46435203929434382 0 0.36427308276285358 -0.4467367599010893 0 0.37808344977556008 -0.45773515392008368 0 0.37732329984677909 -0.47636844092054242 0 0.36579682853432421 -0.46435203929434382 0 0.37718924257732972 -0.44409853690570278 0 0.36427308276285358 -0.4467367599010893 0 0.37108874227166028 -0.43240490062185122 0 0.37718924257732972 -0.44409853690570278 0 0.37808344977556008 -0.45773515392008368 0 0.36427308276285358 -0.4467367599010893 0 0.36427308276285358 -0.4467367599010893 0 0.3560965150094289 -0.43903684118910269 0 0.36151717898042751 -0.43341303119252911 0 0.36427308276285358 -0.4467367599010893 0 0.36151717898042751 -0.43341303119252911 0 0.37108874227166028 -0.43240490062185122 0 0.36427308276285358 -0.4467367599010893 0 0.3560965150094289 -0.43903684118910269 0 0.35050407288275931 -0.44472577717588391 0 0.35357555937116159 -0.45642396798715251 0 0.36427308276285358 -0.4467367599010893 0 0.35050407288275931 -0.44472577717588391 0 0.35357555937116159 -0.45642396798715251 0 0.35050407288275931 -0.44472577717588391 0 0.34153797157959631 -0.45007841157416978 0 0.35050407288275931 -0.44472577717588391 0 0.34208990806822448 -0.44023402336456519 0 0.34153797157959631 -0.45007841157416978 0 0.3560965150094289 -0.43903684118910269 0 0.35050407288275931 -0.44472577717588391 0 0.34794280178124698 -0.43543936328436061 0 0.35050407288275931 -0.44472577717588391 0 0.34208990806822448 -0.44023402336456519 0 0.34794280178124698 -0.43543936328436061 0 0.34208990806822448 -0.44023402336456519 0 0.33532331203467208 -0.44075566860433218 0 0.34153797157959631 -0.45007841157416978 0 0.34208990806822448 -0.44023402336456519 0 0.33532331203467208 -0.44075566860433218 0 0.33721379245253841 -0.43644079356035959 0 0.33073316457969199 -0.44626115325976418 0 0.32638244242941378 -0.4399681416008453 0 0.33026969203736362 -0.43412119360856022 0 0.33532331203467208 -0.44075566860433218 0 0.33073316457969199 -0.44626115325976418 0 0.33026969203736362 -0.43412119360856022 0 0.33532331203467208 -0.44075566860433218 0 0.33390744594772348 -0.43628465200554911 0 0.33721379245253841 -0.43644079356035959 0 0.33073316457969199 -0.44626115325976418 0 0.33026969203736362 -0.43412119360856022 0 0.33532331203467208 -0.44075566860433218 0 0.33073316457969199 -0.44626115325976418 0 0.34153797157959631 -0.45007841157416978 0 0.33073316457969199 -0.44626115325976418 0 0.34153797157959631 -0.45007841157416978 0 0.33361502305384472 -0.46050539399440699 0 0.34461513482808298 -0.46234808605774358 0 0.34153797157959631 -0.45007841157416978 0 0.33361502305384472 -0.46050539399440699 0 0.34093112071850162 -0.47128650753443491 0 0.34461513482808298 -0.46234808605774358 0 0.33361502305384472 -0.46050539399440699 0 0.32908147338826182 -0.47531999578469109 0 0.33361502305384472 -0.46050539399440699 0 0.32375509294251698 -0.46325614218471561 0 0.33073316457969199 -0.44626115325976418 0 0.33361502305384472 -0.46050539399440699 0 0.32465120334026148 -0.45498746156532988 0 0.32908147338826182 -0.47531999578469109 0 0.32375509294251698 -0.46325614218471561 0 0.31273222465129952 -0.46645145104873259 0 0.32465120334026148 -0.45498746156532988 0 0.32090296357378562 -0.45873791447603968 0 0.31617326522604638 -0.45508947308698627 0 0.32465120334026148 -0.45498746156532988 0 0.32090296357378562 -0.45873791447603968 0 0.32375509294251698 -0.46325614218471561 0 0.33361502305384472 -0.46050539399440699 0 0.32465120334026148 -0.45498746156532988 0 0.32375509294251698 -0.46325614218471561 0 0.32090296357378562 -0.45873791447603968 0 0.32375509294251698 -0.46325614218471561 0 0.31668711776290132 -0.46052693975048159 0 0.32375509294251698 -0.46325614218471561 0 0.31273222465129952 -0.46645145104873259 0 0.31668711776290132 -0.46052693975048159 0 0.31273222465129952 -0.46645145104873259 0 0.31668711776290132 -0.46052693975048159 0 0.30966571719709168 -0.45900367687725929 0 0.32090296357378562 -0.45873791447603968 0 0.31668711776290132 -0.46052693975048159 0 0.31617326522604638 -0.45508947308698627 0 0.31668711776290132 -0.46052693975048159 0 0.31617326522604638 -0.45508947308698627 0 0.30966571719709168 -0.45900367687725929 0 0.31617326522604638 -0.45508947308698627 0 0.3153557243238308 -0.44670449229277659 0 0.31050454124171573 -0.44984891472225119 0 0.31617326522604638 -0.45508947308698627 0 0.3153557243238308 -0.44670449229277659 0 0.32289804244015857 -0.44656666420253699 0 0.32171997942527158 -0.43692123763373131 0 0.30419031432719712 -0.44570530252736268 0 0.3153557243238308 -0.44670449229277659 0 0.32171997942527158 -0.43692123763373131 0 0.30419031432719712 -0.44570530252736268 0 0.32171997942527158 -0.43692123763373131 0 0.31517448724003849 -0.43375720001638091 0 0.30419031432719712 -0.44570530252736268 0 0.3153557243238308 -0.44670449229277659 0 0.32289804244015857 -0.44656666420253699 0 0.32171997942527158 -0.43692123763373131 0 0.32638244242941378 -0.4399681416008453 0 0.32289804244015857 -0.44656666420253699 0 0.32171997942527158 -0.43692123763373131 0 0.33073316457969199 -0.44626115325976418 0 0.32638244242941378 -0.4399681416008453 0 0.32289804244015857 -0.44656666420253699 0 0.32465120334026148 -0.45498746156532988 0 0.31617326522604638 -0.45508947308698627 0 0.32289804244015857 -0.44656666420253699 0 0.33073316457969199 -0.44626115325976418 0 0.32465120334026148 -0.45498746156532988 0 0.32289804244015857 -0.44656666420253699 0 0.31558375959101298 -0.41426665223061299 0 0.33026969203736362 -0.43412119360856022 0 0.31841773006693358 -0.42921919189343388 0 0.31558375959101298 -0.41426665223061299 0 0.33026969203736362 -0.43412119360856022 0 0.32419746098974561 -0.43505744118414269 0 0.31841773006693358 -0.42921919189343388 0 0.33026969203736362 -0.43412119360856022 0 0.32638244242941378 -0.4399681416008453 0 0.32419746098974561 -0.43505744118414269 0 0.33026969203736362 -0.43412119360856022 0 0.32171997942527158 -0.43692123763373131 0 0.32419746098974561 -0.43505744118414269 0 0.31841773006693358 -0.42921919189343388 0 0.32638244242941378 -0.4399681416008453 0 0.32171997942527158 -0.43692123763373131 0 0.32419746098974561 -0.43505744118414269 0 0.32171997942527158 -0.43692123763373131 0 0.31517448724003849 -0.43375720001638091 0 0.31841773006693358 -0.42921919189343388 0 0.31517448724003849 -0.43375720001638091 0 0.31841773006693358 -0.42921919189343388 0 0.3114414805474266 -0.42943150389202361 0 0.31841773006693358 -0.42921919189343388 0 0.30903352907966558 -0.42227811729063169 0 0.3114414805474266 -0.42943150389202361 0 0.31841773006693358 -0.42921919189343388 0 0.31558375959101298 -0.41426665223061299 0 0.30903352907966558 -0.42227811729063169 0 0.31558375959101298 -0.41426665223061299 0 0.33026969203736362 -0.43412119360856022 0 0.32914985554398868 -0.40478877668220908 0 0.31558375959101298 -0.41426665223061299 0 0.32914985554398868 -0.40478877668220908 0 0.31599824525108122 -0.40099515050614659 0 0.33026969203736362 -0.43412119360856022 0 0.32914985554398868 -0.40478877668220908 0 0.3331333239794198 -0.42156083419883089 0 0.33026969203736362 -0.43412119360856022 0 0.32914985554398868 -0.40478877668220908 0 0.3331333239794198 -0.42156083419883089 0 0.33937088912046559 -0.41352578223997732 0 0.32914985554398868 -0.40478877668220908 0 0.3331333239794198 -0.42156083419883089 0 0.33937088912046559 -0.41352578223997732 0 0.33900070396590332 -0.42276906506663892 0 0.33937088912046559 -0.41352578223997732 0 0.34354056864096022 -0.419510768795677 0 0.33900070396590332 -0.42276906506663892 0 0.33937088912046559 -0.41352578223997732 0 0.34354056864096022 -0.419510768795677 0 0.34751937546815548 -0.41589886099170159 0 0.34108934459570389 -0.42673760111015102 0 0.33900070396590332 -0.42276906506663892 0 0.34441365928632939 -0.42402861249269042 0 0.34354056864096022 -0.419510768795677 0 0.33900070396590332 -0.42276906506663892 0 0.34441365928632939 -0.42402861249269042 0 0.34108934459570389 -0.42673760111015102 0 0.34528750025718452 -0.42973939297119479 0 0.34441365928632939 -0.42402861249269042 0 0.34108934459570389 -0.42673760111015102 0 0.33969344848774757 -0.43039499889742971 0 0.34528750025718452 -0.42973939297119479 0 0.34108934459570389 -0.42673760111015102 0 0.33743332372030099 -0.42737418810688349 0 0.33969344848774757 -0.43039499889742971 0 0.33743332372030099 -0.42737418810688349 0 0.33593221487637381 -0.43067199984599169 0 0.33969344848774757 -0.43039499889742971 0 0.33743332372030099 -0.42737418810688349 0 0.33516322495175888 -0.42895794010741778 0 0.33593221487637381 -0.43067199984599169 0 0.33743332372030099 -0.42737418810688349 0 0.33900070396590332 -0.42276906506663892 0 0.33402381841814272 -0.42664566852226232 0 0.34108934459570389 -0.42673760111015102 0 0.33743332372030099 -0.42737418810688349 0 0.33900070396590332 -0.42276906506663892 0 0.3331333239794198 -0.42156083419883089 0 0.33402381841814272 -0.42664566852226232 0 0.33026969203736362 -0.43412119360856022 0 0.3331333239794198 -0.42156083419883089 0 0.33900070396590332 -0.42276906506663892 0 0.33402381841814272 -0.42664566852226232 0 0.33743332372030099 -0.42737418810688349 0 0.33402381841814272 -0.42664566852226232 0 0.33516322495175888 -0.42895794010741778 0 0.33402381841814272 -0.42664566852226232 0 0.33516322495175888 -0.42895794010741778 0 0.33326354279221793 -0.43113990395453389 0 0.33026969203736362 -0.43412119360856022 0 0.33212403159686321 -0.43350906747826962 0 0.33326354279221793 -0.43113990395453389 0 0.33212403159686321 -0.43350906747826962 0 0.33326354279221793 -0.43113990395453389 0 0.33416964972735558 -0.43377294300852748 0 0.33402381841814272 -0.42664566852226232 0 0.33026969203736362 -0.43412119360856022 0 0.33326354279221793 -0.43113990395453389 0 0.33326354279221793 -0.43113990395453389 0 0.33593221487637381 -0.43067199984599169 0 0.33498469775821282 -0.43216560586570663 0 0.33516322495175888 -0.42895794010741778 0 0.33326354279221793 -0.43113990395453389 0 0.33593221487637381 -0.43067199984599169 0 0.33498469775821282 -0.43216560586570663 0 0.33416964972735558 -0.43377294300852748 0 0.33697864057274612 -0.43326767570277319 0 0.33326354279221793 -0.43113990395453389 0 0.33498469775821282 -0.43216560586570663 0 0.33416964972735558 -0.43377294300852748 0 0.33532331203467208 -0.44075566860433218 0 0.33026969203736362 -0.43412119360856022 0 0.33390744594772348 -0.43628465200554911 0 0.33416964972735558 -0.43377294300852748 0 0.33390744594772348 -0.43628465200554911 0 0.33721379245253841 -0.43644079356035959 0 0.33212403159686321 -0.43350906747826962 0 0.33416964972735558 -0.43377294300852748 0 0.33390744594772348 -0.43628465200554911 0 0.33026969203736362 -0.43412119360856022 0 0.33212403159686321 -0.43350906747826962 0 0.33390744594772348 -0.43628465200554911 0 0.33721379245253841 -0.43644079356035959 0 0.33697864057274612 -0.43326767570277319 0 0.34138013201504308 -0.43419396262234572 0 0.33416964972735558 -0.43377294300852748 0 0.33721379245253841 -0.43644079356035959 0 0.33697864057274612 -0.43326767570277319 0 0.33697864057274612 -0.43326767570277319 0 0.33969344848774757 -0.43039499889742971 0 0.34138013201504308 -0.43419396262234572 0 0.33593221487637381 -0.43067199984599169 0 0.33697864057274612 -0.43326767570277319 0 0.33969344848774757 -0.43039499889742971 0 0.33593221487637381 -0.43067199984599169 0 0.33498469775821282 -0.43216560586570663 0 0.33697864057274612 -0.43326767570277319 0 0.33969344848774757 -0.43039499889742971 0 0.34138013201504308 -0.43419396262234572 0 0.34528750025718452 -0.42973939297119479 0 0.34208990806822448 -0.44023402336456519 0 0.33721379245253841 -0.43644079356035959 0 0.34138013201504308 -0.43419396262234572 0 0.34208990806822448 -0.44023402336456519 0 0.34138013201504308 -0.43419396262234572 0 0.34794280178124698 -0.43543936328436061 0 0.34138013201504308 -0.43419396262234572 0 0.34528750025718452 -0.42973939297119479 0 0.34794280178124698 -0.43543936328436061 0 0.34528750025718452 -0.42973939297119479 0 0.34794280178124698 -0.43543936328436061 0 0.35295302802820239 -0.43019373259871402 0 0.34441365928632939 -0.42402861249269042 0 0.34876285514367061 -0.42587036018443292 0 0.3482799578089103 -0.42140526673729228 0 0.34528750025718452 -0.42973939297119479 0 0.34441365928632939 -0.42402861249269042 0 0.34876285514367061 -0.42587036018443292 0 0.34528750025718452 -0.42973939297119479 0 0.34876285514367061 -0.42587036018443292 0 0.35295302802820239 -0.43019373259871402 0 0.34876285514367061 -0.42587036018443292 0 0.35325608407356779 -0.42398411852721629 0 0.3482799578089103 -0.42140526673729228 0 0.35295302802820239 -0.43019373259871402 0 0.36151717898042751 -0.43341303119252911 0 0.35950711526229928 -0.42521989658488413 0 0.35325608407356779 -0.42398411852721629 0 0.35295302802820239 -0.43019373259871402 0 0.35950711526229928 -0.42521989658488413 0 0.34876285514367061 -0.42587036018443292 0 0.35325608407356779 -0.42398411852721629 0 0.35295302802820239 -0.43019373259871402 0 0.35325608407356779 -0.42398411852721629 0 0.35950711526229928 -0.42521989658488413 0 0.35868667014487282 -0.41757423556722623 0 0.3560965150094289 -0.43903684118910269 0 0.34794280178124698 -0.43543936328436061 0 0.35295302802820239 -0.43019373259871402 0 0.3560965150094289 -0.43903684118910269 0 0.35295302802820239 -0.43019373259871402 0 0.36151717898042751 -0.43341303119252911 0 0.36151717898042751 -0.43341303119252911 0 0.36537523179822962 -0.42678263416163709 0 0.37108874227166028 -0.43240490062185122 0 0.36151717898042751 -0.43341303119252911 0 0.35950711526229928 -0.42521989658488413 0 0.36537523179822962 -0.42678263416163709 0 0.36537523179822962 -0.42678263416163709 0 0.37015769951945249 -0.42380710046162728 0 0.36559100668624239 -0.41975145553415888 0 0.35950711526229928 -0.42521989658488413 0 0.36537523179822962 -0.42678263416163709 0 0.36559100668624239 -0.41975145553415888 0 0.36537523179822962 -0.42678263416163709 0 0.37015769951945249 -0.42380710046162728 0 0.37108874227166028 -0.43240490062185122 0 0.37645311040362611 -0.42314857690183899 0 0.37015769951945249 -0.42380710046162728 0 0.37108874227166028 -0.43240490062185122 0 0.37635425318110782 -0.41080287490199208 0 0.37228040643750432 -0.4169479350886498 0 0.36545985602269082 -0.40985139636597828 0 0.37228040643750432 -0.4169479350886498 0 0.36559100668624239 -0.41975145553415888 0 0.36545985602269082 -0.40985139636597828 0 0.37645311040362611 -0.42314857690183899 0 0.37015769951945249 -0.42380710046162728 0 0.37228040643750432 -0.4169479350886498 0 0.37015769951945249 -0.42380710046162728 0 0.37228040643750432 -0.4169479350886498 0 0.36559100668624239 -0.41975145553415888 0 0.36559100668624239 -0.41975145553415888 0 0.36545985602269082 -0.40985139636597828 0 0.35868667014487282 -0.41757423556722623 0 0.35950711526229928 -0.42521989658488413 0 0.36559100668624239 -0.41975145553415888 0 0.35868667014487282 -0.41757423556722623 0 0.36545985602269082 -0.40985139636597828 0 0.35868667014487282 -0.41757423556722623 0 0.35693579773266743 -0.40559149734259442 0 0.35283302162863922 -0.41344488635000348 0 0.35868667014487282 -0.41757423556722623 0 0.35693579773266743 -0.40559149734259442 0 0.35283302162863922 -0.41344488635000348 0 0.34883606055672173 -0.40902095841646002 0 0.35693579773266743 -0.40559149734259442 0 0.35283302162863922 -0.41344488635000348 0 0.35868667014487282 -0.41757423556722623 0 0.35225575505323642 -0.41848550341079938 0 0.35325608407356779 -0.42398411852721629 0 0.35868667014487282 -0.41757423556722623 0 0.35225575505323642 -0.41848550341079938 0 0.35325608407356779 -0.42398411852721629 0 0.35225575505323642 -0.41848550341079938 0 0.3482799578089103 -0.42140526673729228 0 0.35225575505323642 -0.41848550341079938 0 0.3482799578089103 -0.42140526673729228 0 0.34751937546815548 -0.41589886099170159 0 0.35283302162863922 -0.41344488635000348 0 0.35225575505323642 -0.41848550341079938 0 0.34751937546815548 -0.41589886099170159 0 0.34354056864096022 -0.419510768795677 0 0.3482799578089103 -0.42140526673729228 0 0.34751937546815548 -0.41589886099170159 0 0.34354056864096022 -0.419510768795677 0 0.34441365928632939 -0.42402861249269042 0 0.3482799578089103 -0.42140526673729228 0 0.33937088912046559 -0.41352578223997732 0 0.34883606055672173 -0.40902095841646002 0 0.34540113696701802 -0.39910195085232031 0 0.33937088912046559 -0.41352578223997732 0 0.34751937546815548 -0.41589886099170159 0 0.34883606055672173 -0.40902095841646002 0 0.35283302162863922 -0.41344488635000348 0 0.34751937546815548 -0.41589886099170159 0 0.34883606055672173 -0.40902095841646002 0 0.34540113696701802 -0.39910195085232031 0 0.36316007360264041 -0.38883775200739179 0 0.34201688026891669 -0.3857878187663849 0 0.34540113696701802 -0.39910195085232031 0 0.35693579773266743 -0.40559149734259442 0 0.36316007360264041 -0.38883775200739179 0 0.34883606055672173 -0.40902095841646002 0 0.34540113696701802 -0.39910195085232031 0 0.35693579773266743 -0.40559149734259442 0 0.37635425318110782 -0.41080287490199208 0 0.36545985602269082 -0.40985139636597828 0 0.36316007360264041 -0.38883775200739179 0 0.37635425318110782 -0.41080287490199208 0 0.38128501912533791 -0.41019465659633542 0 0.36316007360264041 -0.38883775200739179 0 0.38128501912533791 -0.41019465659633542 0 0.36316007360264041 -0.38883775200739179 0 0.36545985602269082 -0.40985139636597828 0 0.35693579773266743 -0.40559149734259442 0 0.36316007360264041 -0.38883775200739179 0 0.38383717015070351 -0.37971395254385532 0 0.36316007360264041 -0.38883775200739179 0 0.37488680163608168 -0.36713356492334082 0 0.36316007360264041 -0.38883775200739179 0 0.34201688026891669 -0.3857878187663849 0 0.34503512807994258 -0.36748084741844872 0 0.36316007360264041 -0.38883775200739179 0 0.34503512807994258 -0.36748084741844872 0 0.34201688026891669 -0.3857878187663849 0 0.32803001905061419 -0.37545635975585828 0 0.34503512807994258 -0.36748084741844872 0 0.32914985554398868 -0.40478877668220908 0 0.32803001905061419 -0.37545635975585828 0 0.34201688026891669 -0.3857878187663849 0 0.32914985554398868 -0.40478877668220908 0 0.32803001905061419 -0.37545635975585828 0 0.33937088912046559 -0.41352578223997732 0 0.34540113696701802 -0.39910195085232031 0 0.32914985554398868 -0.40478877668220908 0 0.34540113696701802 -0.39910195085232031 0 0.34201688026891669 -0.3857878187663849 0 0.32914985554398868 -0.40478877668220908 0 0.32914985554398868 -0.40478877668220908 0 0.31599824525108122 -0.40099515050614659 0 0.31836153872466122 -0.39051306225909821 0 0.32914985554398868 -0.40478877668220908 0 0.31836153872466122 -0.39051306225909821 0 0.32803001905061419 -0.37545635975585828 0 0.31836153872466122 -0.39051306225909821 0 0.32803001905061419 -0.37545635975585828 0 0.30809438424973817 -0.38558603378173362 0 0.32803001905061419 -0.37545635975585828 0 0.30809438424973817 -0.38558603378173362 0 0.30551081985283268 -0.3744948090686685 0 0.31836153872466122 -0.39051306225909821 0 0.30809438424973817 -0.38558603378173362 0 0.30089782714466201 -0.39441211085266631 0 0.30809438424973817 -0.38558603378173362 0 0.30089782714466201 -0.39441211085266631 0 0.28621189469831099 -0.37455756947471941 0 0.30809438424973817 -0.38558603378173362 0 0.30551081985283268 -0.3744948090686685 0 0.28621189469831099 -0.37455756947471941 0 0.31558375959101298 -0.41426665223061299 0 0.31599824525108122 -0.40099515050614659 0 0.30089782714466201 -0.39441211085266631 0 0.31558375959101298 -0.41426665223061299 0 0.30089782714466201 -0.39441211085266631 0 0.31599824525108122 -0.40099515050614659 0 0.31836153872466122 -0.39051306225909821 0 0.30089782714466201 -0.39441211085266631 0 0.30089782714466201 -0.39441211085266631 0 0.29254895944955639 -0.40404921415205658 0 0.30219096389795658 -0.41126617990700087 0 0.30089782714466201 -0.39441211085266631 0 0.29254895944955639 -0.40404921415205658 0 0.28615161821982937 -0.38351013453576299 0 0.29254895944955639 -0.40404921415205658 0 0.28422081102790309 -0.39581034096517731 0 0.28615161821982937 -0.38351013453576299 0 0.29254895944955639 -0.40404921415205658 0 0.28615161821982937 -0.38351013453576299 0 0.29254895944955639 -0.40404921415205658 0 0.28659722587340952 -0.4029761222663546 0 0.28422081102790309 -0.39581034096517731 0 0.28659722587340952 -0.4029761222663546 0 0.28422081102790309 -0.39581034096517731 0 0.2788909313583039 -0.40115712989703489 0 0.28659722587340952 -0.4029761222663546 0 0.2788909313583039 -0.40115712989703489 0 0.28079649900150061 -0.40889919055378648 0 0.30089782714466201 -0.39441211085266631 0 0.28621189469831099 -0.37455756947471941 0 0.28615161821982937 -0.38351013453576299 0 0.27722940980115302 -0.38474775425997609 0 0.2811623443521909 -0.38938121636899581 0 0.28422081102790309 -0.39581034096517731 0 0.28615161821982937 -0.38351013453576299 0 0.2811623443521909 -0.38938121636899581 0 0.30089782714466201 -0.39441211085266631 0 0.28615161821982937 -0.38351013453576299 0 0.28621189469831099 -0.37455756947471941 0 0.28615161821982937 -0.38351013453576299 0 0.27800350514257421 -0.37770493228931212 0 0.28621189469831099 -0.37455756947471941 0 0.28615161821982937 -0.38351013453576299 0 0.27800350514257421 -0.37770493228931212 0 0.27722940980115302 -0.38474775425997609 0 0.27800350514257421 -0.37770493228931212 0 0.27722940980115302 -0.38474775425997609 0 0.27013441380304593 -0.37892580729428937 0 0.27722940980115302 -0.38474775425997609 0 0.2811623443521909 -0.38938121636899581 0 0.27704753835987811 -0.39345663571506662 0 0.27722940980115302 -0.38474775425997609 0 0.26933740632555092 -0.38876464484057888 0 0.27704753835987811 -0.39345663571506662 0 0.27722940980115302 -0.38474775425997609 0 0.26933740632555092 -0.38876464484057888 0 0.27013441380304593 -0.37892580729428937 0 0.26933740632555092 -0.38876464484057888 0 0.27013441380304593 -0.37892580729428937 0 0.26150843915567101 -0.38341440870993121 0 0.27800350514257421 -0.37770493228931212 0 0.27013441380304593 -0.37892580729428937 0 0.27134036376906839 -0.36877535851481652 0 0.26150843915567101 -0.38341440870993121 0 0.25247051514062402 -0.38352618598174032 0 0.25586688092642701 -0.36754687605740738 0 0.27013441380304593 -0.37892580729428937 0 0.26150843915567101 -0.38341440870993121 0 0.25586688092642701 -0.36754687605740738 0 0.26933740632555092 -0.38876464484057888 0 0.26150843915567101 -0.38341440870993121 0 0.26030334895769042 -0.39325088284927312 0 0.26150843915567101 -0.38341440870993121 0 0.25247051514062402 -0.38352618598174032 0 0.26030334895769042 -0.39325088284927312 0 0.25247051514062402 -0.38352618598174032 0 0.25086081389379089 -0.39982980891506231 0 0.26030334895769042 -0.39325088284927312 0 0.25086081389379089 -0.39982980891506231 0 0.26030334895769042 -0.39325088284927312 0 0.26252351961373599 -0.4045828996473948 0 0.26030334895769042 -0.39325088284927312 0 0.26252351961373599 -0.4045828996473948 0 0.27011463912253653 -0.39803382830744261 0 0.26252351961373599 -0.4045828996473948 0 0.27011463912253653 -0.39803382830744261 0 0.27258509012005971 -0.40699077689530749 0 0.26933740632555092 -0.38876464484057888 0 0.26030334895769042 -0.39325088284927312 0 0.27011463912253653 -0.39803382830744261 0 0.26933740632555092 -0.38876464484057888 0 0.27011463912253653 -0.39803382830744261 0 0.27704753835987811 -0.39345663571506662 0 0.27011463912253653 -0.39803382830744261 0 0.27704753835987811 -0.39345663571506662 0 0.2788909313583039 -0.40115712989703489 0 0.28422081102790309 -0.39581034096517731 0 0.27704753835987811 -0.39345663571506662 0 0.2788909313583039 -0.40115712989703489 0 0.28422081102790309 -0.39581034096517731 0 0.2811623443521909 -0.38938121636899581 0 0.27704753835987811 -0.39345663571506662 0 0.27011463912253653 -0.39803382830744261 0 0.2788909313583039 -0.40115712989703489 0 0.27258509012005971 -0.40699077689530749 0 0.2788909313583039 -0.40115712989703489 0 0.28079649900150061 -0.40889919055378648 0 0.27258509012005971 -0.40699077689530749 0 0.28079649900150061 -0.40889919055378648 0 0.27726113358283161 -0.41519132735218478 0 0.27258509012005971 -0.40699077689530749 0 0.28079649900150061 -0.40889919055378648 0 0.27726113358283161 -0.41519132735218478 0 0.28506475805188891 -0.41704641222572669 0 0.27726113358283161 -0.41519132735218478 0 0.27273102599057109 -0.42161220085361722 0 0.28066446831866548 -0.42232599020513489 0 0.27726113358283161 -0.41519132735218478 0 0.28066446831866548 -0.42232599020513489 0 0.28506475805188891 -0.41704641222572669 0 0.27726113358283161 -0.41519132735218478 0 0.27273102599057109 -0.42161220085361722 0 0.26651896188976337 -0.41405331445060573 0 0.27273102599057109 -0.42161220085361722 0 0.26651896188976337 -0.41405331445060573 0 0.26305458834566708 -0.42690358077333268 0 0.26252351961373599 -0.4045828996473948 0 0.26651896188976337 -0.41405331445060573 0 0.27258509012005971 -0.40699077689530749 0 0.27726113358283161 -0.41519132735218478 0 0.26651896188976337 -0.41405331445060573 0 0.27258509012005971 -0.40699077689530749 0 0.26252351961373599 -0.4045828996473948 0 0.26651896188976337 -0.41405331445060573 0 0.25495278799212262 -0.41563391091884339 0 0.25086081389379089 -0.39982980891506231 0 0.26252351961373599 -0.4045828996473948 0 0.25495278799212262 -0.41563391091884339 0 0.26651896188976337 -0.41405331445060573 0 0.25495278799212262 -0.41563391091884339 0 0.26305458834566708 -0.42690358077333268 0 0.26305458834566708 -0.42690358077333268 0 0.26884416430053237 -0.44264465522237278 0 0.24893837452042869 -0.43184688769129798 0 0.25495278799212262 -0.41563391091884339 0 0.26305458834566708 -0.42690358077333268 0 0.24893837452042869 -0.43184688769129798 0 0.26884416430053237 -0.44264465522237278 0 0.24893837452042869 -0.43184688769129798 0 0.26305458834566708 -0.42690358077333268 0 0.27467321261211702 -0.43047297788623717 0 0.26884416430053237 -0.44264465522237278 0 0.27273102599057109 -0.42161220085361722 0 0.26305458834566708 -0.42690358077333268 0 0.27467321261211702 -0.43047297788623717 0 0.28066446831866548 -0.42232599020513489 0 0.27467321261211702 -0.43047297788623717 0 0.28386665572936087 -0.43012178657130817 0 0.27273102599057109 -0.42161220085361722 0 0.28066446831866548 -0.42232599020513489 0 0.27467321261211702 -0.43047297788623717 0 0.27467321261211702 -0.43047297788623717 0 0.28386665572936087 -0.43012178657130817 0 0.2810930172783318 -0.43880156512709001 0 0.27467321261211702 -0.43047297788623717 0 0.2810930172783318 -0.43880156512709001 0 0.26884416430053237 -0.44264465522237278 0 0.28386665572936087 -0.43012178657130817 0 0.29033215578802279 -0.43678080492771609 0 0.28918279775033823 -0.42893339875420688 0 0.28386665572936087 -0.43012178657130817 0 0.29033215578802279 -0.43678080492771609 0 0.2810930172783318 -0.43880156512709001 0 0.29033215578802279 -0.43678080492771609 0 0.29539377010030371 -0.42434071239685839 0 0.30419031432719712 -0.44570530252736268 0 0.29033215578802279 -0.43678080492771609 0 0.29539377010030371 -0.42434071239685839 0 0.28918279775033823 -0.42893339875420688 0 0.29539377010030371 -0.42434071239685839 0 0.28713860938366509 -0.42449029112094488 0 0.28506475805188891 -0.41704641222572669 0 0.29539377010030371 -0.42434071239685839 0 0.28918279775033823 -0.42893339875420688 0 0.28713860938366509 -0.42449029112094488 0 0.28386665572936087 -0.43012178657130817 0 0.28918279775033823 -0.42893339875420688 0 0.28713860938366509 -0.42449029112094488 0 0.28066446831866548 -0.42232599020513489 0 0.28386665572936087 -0.43012178657130817 0 0.28713860938366509 -0.42449029112094488 0 0.28659722587340952 -0.4029761222663546 0 0.29539377010030371 -0.42434071239685839 0 0.28696306325677562 -0.41331560936068151 0 0.29254895944955639 -0.40404921415205658 0 0.29894630067928352 -0.42458829376835022 0 0.28659722587340952 -0.4029761222663546 0 0.29539377010030371 -0.42434071239685839 0 0.29254895944955639 -0.40404921415205658 0 0.28659722587340952 -0.4029761222663546 0 0.29539377010030371 -0.42434071239685839 0 0.28066446831866548 -0.42232599020513489 0 0.28713860938366509 -0.42449029112094488 0 0.28506475805188891 -0.41704641222572669 0 0.29254895944955639 -0.40404921415205658 0 0.29539377010030371 -0.42434071239685839 0 0.29894630067928352 -0.42458829376835022 0 0.28659722587340952 -0.4029761222663546 0 0.28079649900150061 -0.40889919055378648 0 0.28696306325677562 -0.41331560936068151 0 0.28079649900150061 -0.40889919055378648 0 0.28506475805188891 -0.41704641222572669 0 0.28696306325677562 -0.41331560936068151 0 0.29539377010030371 -0.42434071239685839 0 0.28506475805188891 -0.41704641222572669 0 0.28696306325677562 -0.41331560936068151 0 0.31558375959101298 -0.41426665223061299 0 0.30089782714466201 -0.39441211085266631 0 0.30219096389795658 -0.41126617990700087 0 0.29254895944955639 -0.40404921415205658 0 0.30219096389795658 -0.41126617990700087 0 0.29894630067928352 -0.42458829376835022 0 0.3044179453867184 -0.41909425432175379 0 0.30219096389795658 -0.41126617990700087 0 0.29894630067928352 -0.42458829376835022 0 0.31558375959101298 -0.41426665223061299 0 0.3044179453867184 -0.41909425432175379 0 0.30219096389795658 -0.41126617990700087 0 0.31558375959101298 -0.41426665223061299 0 0.3044179453867184 -0.41909425432175379 0 0.30903352907966558 -0.42227811729063169 0 0.3044179453867184 -0.41909425432175379 0 0.30903352907966558 -0.42227811729063169 0 0.30446700947932281 -0.42361333843189991 0 0.29894630067928352 -0.42458829376835022 0 0.30419031432719712 -0.44570530252736268 0 0.29539377010030371 -0.42434071239685839 0 0.30419031432719712 -0.44570530252736268 0 0.30547026277162342 -0.42849268834686371 0 0.30911139357887191 -0.43341032191280771 0 0.30419031432719712 -0.44570530252736268 0 0.30547026277162342 -0.42849268834686371 0 0.29894630067928352 -0.42458829376835022 0 0.30419031432719712 -0.44570530252736268 0 0.29539377010030371 -0.42434071239685839 0 0.29894630067928352 -0.42458829376835022 0 0.30419031432719712 -0.44570530252736268 0 0.30903352907966558 -0.42227811729063169 0 0.30547026277162342 -0.42849268834686371 0 0.30446700947932281 -0.42361333843189991 0 0.30903352907966558 -0.42227811729063169 0 0.30547026277162342 -0.42849268834686371 0 0.3114414805474266 -0.42943150389202361 0 0.31517448724003849 -0.43375720001638091 0 0.3114414805474266 -0.42943150389202361 0 0.30911139357887191 -0.43341032191280771 0 0.30547026277162342 -0.42849268834686371 0 0.3114414805474266 -0.42943150389202361 0 0.30911139357887191 -0.43341032191280771 0 0.30547026277162342 -0.42849268834686371 0 0.29894630067928352 -0.42458829376835022 0 0.30446700947932281 -0.42361333843189991 0 0.3044179453867184 -0.41909425432175379 0 0.29894630067928352 -0.42458829376835022 0 0.30446700947932281 -0.42361333843189991 0 0.30419031432719712 -0.44570530252736268 0 0.29877471476237821 -0.45888028965508387 0 0.28874995408063531 -0.45344242275344881 0 0.31517448724003849 -0.43375720001638091 0 0.30911139357887191 -0.43341032191280771 0 0.30419031432719712 -0.44570530252736268 0 0.3153557243238308 -0.44670449229277659 0 0.30419031432719712 -0.44570530252736268 0 0.31050454124171573 -0.44984891472225119 0 0.30419031432719712 -0.44570530252736268 0 0.31050454124171573 -0.44984891472225119 0 0.30872250553584119 -0.45671285334142431 0 0.30419031432719712 -0.44570530252736268 0 0.30872250553584119 -0.45671285334142431 0 0.31617326522604638 -0.45508947308698627 0 0.30872250553584119 -0.45671285334142431 0 0.31617326522604638 -0.45508947308698627 0 0.31050454124171573 -0.44984891472225119 0 0.30872250553584119 -0.45671285334142431 0 0.30966571719709168 -0.45900367687725929 0 0.31124763502198299 -0.46408252682212309 0 0.29877471476237821 -0.45888028965508387 0 0.31617326522604638 -0.45508947308698627 0 0.30872250553584119 -0.45671285334142431 0 0.30966571719709168 -0.45900367687725929 0 0.31273222465129952 -0.46645145104873259 0 0.29877471476237821 -0.45888028965508387 0 0.29468306639394121 -0.47629027881366992 0 0.30872250553584119 -0.45671285334142431 0 0.30966571719709168 -0.45900367687725929 0 0.29877471476237821 -0.45888028965508387 0 0.30872250553584119 -0.45671285334142431 0 0.30966571719709168 -0.45900367687725929 0 0.31273222465129952 -0.46645145104873259 0 0.31124763502198299 -0.46408252682212309 0 0.29877471476237821 -0.45888028965508387 0 0.31273222465129952 -0.46645145104873259 0 0.29877471476237821 -0.45888028965508387 0 0.30966571719709168 -0.45900367687725929 0 0.31124763502198299 -0.46408252682212309 0 0.31273222465129952 -0.46645145104873259 0 0.30966571719709168 -0.45900367687725929 0 0.31124763502198299 -0.46408252682212309 0 0.31273222465129952 -0.46645145104873259 0 0.30966571719709168 -0.45900367687725929 0 0.30419031432719712 -0.44570530252736268 0 0.30872250553584119 -0.45671285334142431 0 0.29877471476237821 -0.45888028965508387 0 0.30872250553584119 -0.45671285334142431 0 0.29877471476237821 -0.45888028965508387 0 0.29877471476237821 -0.45888028965508387 0 0.28030604203864012 -0.46290426571551307 0 0.29468306639394121 -0.47629027881366992 0 0.29877471476237821 -0.45888028965508387 0 0.28874995408063531 -0.45344242275344881 0 0.29877471476237821 -0.45888028965508387 0 0.28874995408063531 -0.45344242275344881 0 0.28030604203864012 -0.46290426571551307 0 0.29877471476237821 -0.45888028965508387 0 0.28030604203864012 -0.46290426571551307 0 0.29033215578802279 -0.43678080492771609 0 0.28874995408063531 -0.45344242275344881 0 0.2810930172783318 -0.43880156512709001 0 0.29033215578802279 -0.43678080492771609 0 0.30419031432719712 -0.44570530252736268 0 0.28874995408063531 -0.45344242275344881 0 0.30419031432719712 -0.44570530252736268 0 0.28874995408063531 -0.45344242275344881 0 0.28874995408063531 -0.45344242275344881 0 0.2810930172783318 -0.43880156512709001 0 0.26884416430053237 -0.44264465522237278 0 0.28874995408063531 -0.45344242275344881 0 0.26884416430053237 -0.44264465522237278 0 0.26884416430053237 -0.44264465522237278 0 0.25365615665351798 -0.44365701231061638 0 0.24893837452042869 -0.43184688769129798 0 0.25365615665351798 -0.44365701231061638 0 0.25733192381407688 -0.45583179146920721 0 0.2409449395678665 -0.44325517654743851 0 0.26884416430053237 -0.44264465522237278 0 0.25365615665351798 -0.44365701231061638 0 0.25733192381407688 -0.45583179146920721 0 0.25016576724891132 -0.46058260857959832 0 0.26010330569213658 -0.46779717608283528 0 0.2425727184692941 -0.4711256464825383 0 0.26884416430053237 -0.44264465522237278 0 0.25733192381407688 -0.45583179146920721 0 0.26183736931490198 -0.466928241775942 0 0.25016576724891132 -0.46058260857959832 0 0.25733192381407688 -0.45583179146920721 0 0.26010330569213658 -0.46779717608283528 0 0.25733192381407688 -0.45583179146920721 0 0.26010330569213658 -0.46779717608283528 0 0.26183736931490198 -0.466928241775942 0 0.25733192381407688 -0.45583179146920721 0 0.26010330569213658 -0.46779717608283528 0 0.26010330569213658 -0.46779717608283528 0 0.26183736931490198 -0.466928241775942 0 0.28874995408063531 -0.45344242275344881 0 0.26183736931490198 -0.466928241775942 0 0.28874995408063531 -0.45344242275344881 0 0.26884416430053237 -0.44264465522237278 0 0.26183736931490198 -0.466928241775942 0 0.26183736931490198 -0.466928241775942 0 0.28030604203864012 -0.46290426571551307 0 0.27309598009690828 -0.47420698043175158 0 0.28874995408063531 -0.45344242275344881 0 0.26183736931490198 -0.466928241775942 0 0.28030604203864012 -0.46290426571551307 0 0.26183736931490198 -0.466928241775942 0 0.28030604203864012 -0.46290426571551307 0 0.26010330569213658 -0.46779717608283528 0 0.27309598009690828 -0.47420698043175158 0 0.26383266022223339 -0.48389858804141711 0 0.27309598009690828 -0.47420698043175158 0 0.26383266022223339 -0.48389858804141711 0 0.27924547858293203 -0.48687916945736748 0 0.26010330569213658 -0.46779717608283528 0 0.26383266022223339 -0.48389858804141711 0 0.2428823192776938 -0.47642656297359959 0 0.26010330569213658 -0.46779717608283528 0 0.26383266022223339 -0.48389858804141711 0 0.26010330569213658 -0.46779717608283528 0 0.26183736931490198 -0.466928241775942 0 0.27309598009690828 -0.47420698043175158 0 0.26010330569213658 -0.46779717608283528 0 0.2425727184692941 -0.4711256464825383 0 0.26010330569213658 -0.46779717608283528 0 0.2428823192776938 -0.47642656297359959 0 0.26383266022223339 -0.48389858804141711 0 0.2675620147523301 -0.499999999999999 0 0.2442591293392051 -0.50000000000000278 0 0.26383266022223339 -0.48389858804141711 0 0.2442591293392051 -0.50000000000000278 0 0.2428823192776938 -0.47642656297359959 0 0.26383266022223339 -0.48389858804141711 0 0.2675620147523301 -0.499999999999999 0 0.26383266022223339 -0.48389858804141711 0 0.2675620147523301 -0.499999999999999 0 0.27924547858293203 -0.48687916945736748 0 0.27924547858293203 -0.48687916945736748 0 0.29468306639394121 -0.47629027881366992 0 0.29705367144924688 -0.5 0 0.2675620147523301 -0.499999999999999 0 0.27924547858293203 -0.48687916945736748 0 0.29705367144924688 -0.5 0 0.27309598009690828 -0.47420698043175158 0 0.27924547858293203 -0.48687916945736748 0 0.29468306639394121 -0.47629027881366992 0 0.28030604203864012 -0.46290426571551307 0 0.27309598009690828 -0.47420698043175158 0 0.29468306639394121 -0.47629027881366992 0 0.31963877639873101 -0.48322572552436821 0 0.31273222465129952 -0.46645145104873259 0 0.29468306639394121 -0.47629027881366992 0 0.31963877639873101 -0.48322572552436821 0 0.29468306639394121 -0.47629027881366992 0 0.29705367144924688 -0.5 0 0.33689365111759861 -0.28763766032882382 0 0.33111656952362828 -0.28015968989757251 0 0.35358426210206978 -0.28122162772740111 0 0.33689365111759861 -0.28763766032882382 0 0.33233780418112358 -0.29749377677319139 0 0.32445113432754102 -0.28744874450712121 0 0.33689365111759861 -0.28763766032882382 0 0.32445113432754102 -0.28744874450712121 0 0.33111656952362828 -0.28015968989757251 0 0.33689365111759861 -0.28763766032882382 0 0.33233780418112358 -0.29749377677319139 0 0.34630283457668709 -0.29343179412255221 0 0.34022697477816988 -0.30452149844175253 0 0.33233780418112358 -0.29749377677319139 0 0.33030625580165618 -0.31402647470396311 0 0.34022697477816988 -0.30452149844175253 0 0.33233780418112358 -0.29749377677319139 0 0.34630283457668709 -0.29343179412255221 0 0.34022697477816988 -0.30452149844175253 0 0.3347558891166133 -0.31554892867663598 0 0.34022697477816988 -0.30452149844175253 0 0.34537239246792312 -0.31352368332602332 0 0.3347558891166133 -0.31554892867663598 0 0.34022697477816988 -0.30452149844175253 0 0.33030625580165618 -0.31402647470396311 0 0.3347558891166133 -0.31554892867663598 0 0.33233780418112358 -0.29749377677319139 0 0.32038366666876061 -0.29802583723083043 0 0.33030625580165618 -0.31402647470396311 0 0.32038366666876061 -0.29802583723083043 0 0.33030625580165618 -0.31402647470396311 0 0.30872008123170808 -0.30664070718052 0 0.33030625580165618 -0.31402647470396311 0 0.30872008123170808 -0.30664070718052 0 0.33030625580165618 -0.31402647470396311 0 0.31741374240551429 -0.31646952446418519 0 0.30872008123170808 -0.30664070718052 0 0.32038366666876061 -0.29802583723083043 0 0.33030625580165618 -0.31402647470396311 0 0.32038366666876061 -0.29802583723083043 0 0.32445113432754102 -0.28744874450712121 0 0.31046107753586361 -0.28202519975769869 0 0.32038366666876061 -0.29802583723083043 0 0.31046107753586361 -0.28202519975769869 0 0.33233780418112358 -0.29749377677319139 0 0.32038366666876061 -0.29802583723083043 0 0.32445113432754102 -0.28744874450712121 0 0.32445113432754102 -0.28744874450712121 0 0.31866117959459478 -0.27838602649460881 0 0.33111656952362828 -0.28015968989757251 0 0.32445113432754102 -0.28744874450712121 0 0.31866117959459478 -0.27838602649460881 0 0.31046107753586361 -0.28202519975769869 0 0.31866117959459478 -0.27838602649460881 0 0.31046107753586361 -0.28202519975769869 0 0.31866117959459478 -0.27838602649460881 0 0.31046107753586361 -0.28202519975769869 0 0.30971561242460099 -0.27000948688666909 0 0.31866117959459478 -0.27838602649460881 0 0.31557966540668653 -0.26862999560321721 0 0.30971561242460099 -0.27000948688666909 0 0.31866117959459478 -0.27838602649460881 0 0.31557966540668653 -0.26862999560321721 0 0.32748028952054542 -0.26859491653766082 0 0.31866117959459478 -0.27838602649460881 0 0.32748028952054542 -0.26859491653766082 0 0.33111656952362828 -0.28015968989757251 0 0.32198599075348749 -0.24344946400233511 0 0.31952803891305842 -0.25444384210600129 0 0.33616067166654651 -0.25479429281005672 0 0.31557966540668653 -0.26862999560321721 0 0.32748028952054542 -0.26859491653766082 0 0.30137631693902089 -0.25596820534792042 0 0.32748028952054542 -0.26859491653766082 0 0.30137631693902089 -0.25596820534792042 0 0.32748028952054542 -0.26859491653766082 0 0.31952803891305842 -0.25444384210600129 0 0.33616067166654651 -0.25479429281005672 0 0.32748028952054542 -0.26859491653766082 0 0.31952803891305842 -0.25444384210600129 0 0.30137631693902089 -0.25596820534792042 0 0.32748028952054542 -0.26859491653766082 0 0.33111656952362828 -0.28015968989757251 0 0.35358426210206978 -0.28122162772740111 0 0.32748028952054542 -0.26859491653766082 0 0.33616067166654651 -0.25479429281005672 0 0.35358426210206978 -0.28122162772740111 0 0.32748028952054542 -0.26859491653766082 0 0.35358426210206978 -0.28122162772740111 0 0.33616067166654651 -0.25479429281005672 0 0.35358426210206978 -0.28122162772740111 0 0.35525525418870241 -0.2500088543183005 0 0.38602013946506702 -0.25049640422028968 0 0.35525525418870241 -0.2500088543183005 0 0.37462931490804291 -0.27075778155104729 0 0.35358426210206978 -0.28122162772740111 0 0.35525525418870241 -0.2500088543183005 0 0.37462931490804291 -0.27075778155104729 0 0.37968823468359431 -0.29384833891714152 0 0.35358426210206978 -0.28122162772740111 0 0.37968823468359431 -0.29384833891714152 0 0.35358426210206978 -0.28122162772740111 0 0.3593305792153087 -0.30348447990149241 0 0.37968823468359431 -0.29384833891714152 0 0.35358426210206978 -0.28122162772740111 0 0.37462931490804291 -0.27075778155104729 0 0.35358426210206978 -0.28122162772740111 0 0.34630283457668709 -0.29343179412255221 0 0.3593305792153087 -0.30348447990149241 0 0.33689365111759861 -0.28763766032882382 0 0.35358426210206978 -0.28122162772740111 0 0.34630283457668709 -0.29343179412255221 0 0.34022697477816988 -0.30452149844175253 0 0.34630283457668709 -0.29343179412255221 0 0.3593305792153087 -0.30348447990149241 0 0.34022697477816988 -0.30452149844175253 0 0.3593305792153087 -0.30348447990149241 0 0.35060489648048149 -0.31121776358576958 0 0.34022697477816988 -0.30452149844175253 0 0.35060489648048149 -0.31121776358576958 0 0.34537239246792312 -0.31352368332602332 0 0.37803363593076222 -0.31568495230070781 0 0.37968823468359431 -0.29384833891714152 0 0.3593305792153087 -0.30348447990149241 0 0.37803363593076222 -0.31568495230070781 0 0.3593305792153087 -0.30348447990149241 0 0.36013602273401829 -0.32423280946360161 0 0.37803363593076222 -0.31568495230070781 0 0.36013602273401829 -0.32423280946360161 0 0.37004954035729931 -0.34240091732144351 0 0.36013602273401829 -0.32423280946360161 0 0.37004954035729931 -0.34240091732144351 0 0.35601445562730732 -0.33715262145542252 0 0.37004954035729931 -0.34240091732144351 0 0.35601445562730732 -0.33715262145542252 0 0.35207859518841039 -0.34913538678363037 0 0.36013602273401829 -0.32423280946360161 0 0.35601445562730732 -0.33715262145542252 0 0.34263822005238193 -0.33391234185665603 0 0.35601445562730732 -0.33715262145542252 0 0.35207859518841039 -0.34913538678363037 0 0.34263822005238193 -0.33391234185665603 0 0.35207859518841039 -0.34913538678363037 0 0.340008900754872 -0.3471332146560584 0 0.34263822005238193 -0.33391234185665603 0 0.35207859518841039 -0.34913538678363037 0 0.34263822005238193 -0.33391234185665603 0 0.36013602273401829 -0.32423280946360161 0 0.34537239246792312 -0.31352368332602332 0 0.3347558891166133 -0.31554892867663598 0 0.36013602273401829 -0.32423280946360161 0 0.3347558891166133 -0.31554892867663598 0 0.34263822005238193 -0.33391234185665603 0 0.36013602273401829 -0.32423280946360161 0 0.3347558891166133 -0.31554892867663598 0 0.3593305792153087 -0.30348447990149241 0 0.35060489648048149 -0.31121776358576958 0 0.36013602273401829 -0.32423280946360161 0 0.35060489648048149 -0.31121776358576958 0 0.36013602273401829 -0.32423280946360161 0 0.34537239246792312 -0.31352368332602332 0 0.36316007360264041 -0.38883775200739179 0 0.37488680163608168 -0.36713356492334082 0 0.36048608054186521 -0.36283514437455411 0 0.37004954035729931 -0.34240091732144351 0 0.37488680163608168 -0.36713356492334082 0 0.36048608054186521 -0.36283514437455411 0 0.37004954035729931 -0.34240091732144351 0 0.36048608054186521 -0.36283514437455411 0 0.35207859518841039 -0.34913538678363037 0 0.35207859518841039 -0.34913538678363037 0 0.34503512807994258 -0.36748084741844872 0 0.340008900754872 -0.3471332146560584 0 0.36316007360264041 -0.38883775200739179 0 0.36048608054186521 -0.36283514437455411 0 0.34503512807994258 -0.36748084741844872 0 0.36048608054186521 -0.36283514437455411 0 0.35207859518841039 -0.34913538678363037 0 0.34503512807994258 -0.36748084741844872 0 0.32803001905061419 -0.37545635975585828 0 0.34503512807994258 -0.36748084741844872 0 0.32691018255724302 -0.34612394282950698 0 0.34503512807994258 -0.36748084741844872 0 0.340008900754872 -0.3471332146560584 0 0.32691018255724302 -0.34612394282950698 0 0.34503512807994258 -0.36748084741844872 0 0.32691018255724302 -0.34612394282950698 0 0.340008900754872 -0.3471332146560584 0 0.32691018255724302 -0.34612394282950698 0 0.3339860506177631 -0.33989670664367833 0 0.31389963652012531 -0.35758644822873259 0 0.32691018255724302 -0.34612394282950698 0 0.32228845318741722 -0.34067808738879651 0 0.31389963652012531 -0.35758644822873259 0 0.32228845318741722 -0.34067808738879651 0 0.3029951878846544 -0.34168335466378102 0 0.31389963652012531 -0.35758644822873259 0 0.32228845318741722 -0.34067808738879651 0 0.32803001905061419 -0.37545635975585828 0 0.31389963652012531 -0.35758644822873259 0 0.32691018255724302 -0.34612394282950698 0 0.32803001905061419 -0.37545635975585828 0 0.32691018255724302 -0.34612394282950698 0 0.32803001905061419 -0.37545635975585828 0 0.31389963652012531 -0.35758644822873259 0 0.30551081985283268 -0.3744948090686685 0 0.3347558891166133 -0.31554892867663598 0 0.33319784491635251 -0.31868929692968218 0 0.34263822005238193 -0.33391234185665603 0 0.33319784491635251 -0.31868929692968218 0 0.3263868991065535 -0.33241732723249318 0 0.32615178635150982 -0.32625890553749448 0 0.33319784491635251 -0.31868929692968218 0 0.32615178635150982 -0.32625890553749448 0 0.32518175533255961 -0.31988718041801539 0 0.33319784491635251 -0.31868929692968218 0 0.3263868991065535 -0.33241732723249318 0 0.33030625580165618 -0.31402647470396311 0 0.33319784491635251 -0.31868929692968218 0 0.32518175533255961 -0.31988718041801539 0 0.33030625580165618 -0.31402647470396311 0 0.33319784491635251 -0.31868929692968218 0 0.33030625580165618 -0.31402647470396311 0 0.3347558891166133 -0.31554892867663598 0 0.33319784491635251 -0.31868929692968218 0 0.33030625580165618 -0.31402647470396311 0 0.3347558891166133 -0.31554892867663598 0 0.3347558891166133 -0.31554892867663598 0 0.33319784491635251 -0.31868929692968218 0 0.33319784491635251 -0.31868929692968218 0 0.34263822005238193 -0.33391234185665603 0 0.34263822005238193 -0.33391234185665603 0 0.3339860506177631 -0.33989670664367833 0 0.3263868991065535 -0.33241732723249318 0 0.33319784491635251 -0.31868929692968218 0 0.34263822005238193 -0.33391234185665603 0 0.3263868991065535 -0.33241732723249318 0 0.340008900754872 -0.3471332146560584 0 0.34263822005238193 -0.33391234185665603 0 0.3339860506177631 -0.33989670664367833 0 0.32691018255724302 -0.34612394282950698 0 0.3339860506177631 -0.33989670664367833 0 0.3263868991065535 -0.33241732723249318 0 0.3263868991065535 -0.33241732723249318 0 0.32615178635150982 -0.32625890553749448 0 0.32039514374516281 -0.32892950666396098 0 0.32228845318741722 -0.34067808738879651 0 0.3047111799245879 -0.31996651352293792 0 0.3263868991065535 -0.33241732723249318 0 0.32039514374516281 -0.32892950666396098 0 0.32615178635150982 -0.32625890553749448 0 0.3263868991065535 -0.33241732723249318 0 0.32039514374516281 -0.32892950666396098 0 0.32228845318741722 -0.34067808738879651 0 0.32228845318741722 -0.34067808738879651 0 0.3047111799245879 -0.31996651352293792 0 0.3263868991065535 -0.33241732723249318 0 0.32228845318741722 -0.34067808738879651 0 0.32691018255724302 -0.34612394282950698 0 0.3263868991065535 -0.33241732723249318 0 0.32691018255724302 -0.34612394282950698 0 0.3263868991065535 -0.33241732723249318 0 0.32228845318741722 -0.34067808738879651 0 0.32691018255724302 -0.34612394282950698 0 0.32228845318741722 -0.34067808738879651 0 0.32039514374516281 -0.32892950666396098 0 0.31891738869602199 -0.32242330106198941 0 0.3047111799245879 -0.31996651352293792 0 0.32039514374516281 -0.32892950666396098 0 0.31891738869602199 -0.32242330106198941 0 0.32615178635150982 -0.32625890553749448 0 0.31891738869602199 -0.32242330106198941 0 0.32615178635150982 -0.32625890553749448 0 0.32518175533255961 -0.31988718041801539 0 0.33030625580165618 -0.31402647470396311 0 0.32518175533255961 -0.31988718041801539 0 0.31741374240551429 -0.31646952446418519 0 0.31891738869602199 -0.32242330106198941 0 0.32518175533255961 -0.31988718041801539 0 0.31741374240551429 -0.31646952446418519 0 0.31891738869602199 -0.32242330106198941 0 0.31741374240551429 -0.31646952446418519 0 0.3047111799245879 -0.31996651352293792 0 0.31741374240551429 -0.31646952446418519 0 0.3047111799245879 -0.31996651352293792 0 0.30872008123170808 -0.30664070718052 0 0.32228845318741722 -0.34067808738879651 0 0.3047111799245879 -0.31996651352293792 0 0.3029951878846544 -0.34168335466378102 0 0.3047111799245879 -0.31996651352293792 0 0.3029951878846544 -0.34168335466378102 0 0.28162294333378268 -0.33478179001491493 0 0.3047111799245879 -0.31996651352293792 0 0.28162294333378268 -0.33478179001491493 0 0.27905791414798731 -0.31595640104844008 0 0.29951901938215708 -0.36551069023391092 0 0.30551081985283268 -0.3744948090686685 0 0.28621189469831099 -0.37455756947471941 0 0.31389963652012531 -0.35758644822873259 0 0.29951901938215708 -0.36551069023391092 0 0.29245372645735918 -0.35540393416352323 0 0.31389963652012531 -0.35758644822873259 0 0.30551081985283268 -0.3744948090686685 0 0.31389963652012531 -0.35758644822873259 0 0.29951901938215708 -0.36551069023391092 0 0.30551081985283268 -0.3744948090686685 0 0.31389963652012531 -0.35758644822873259 0 0.3029951878846544 -0.34168335466378102 0 0.29245372645735918 -0.35540393416352323 0 0.3029951878846544 -0.34168335466378102 0 0.28162294333378268 -0.33478179001491493 0 0.29245372645735918 -0.35540393416352323 0 0.28162294333378268 -0.33478179001491493 0 0.29245372645735918 -0.35540393416352323 0 0.27152596225195991 -0.35470302809677268 0 0.29951901938215708 -0.36551069023391092 0 0.29245372645735918 -0.35540393416352323 0 0.28621189469831099 -0.37455756947471941 0 0.29245372645735918 -0.35540393416352323 0 0.28621189469831099 -0.37455756947471941 0 0.27152596225195991 -0.35470302809677268 0 0.28621189469831099 -0.37455756947471941 0 0.27152596225195991 -0.35470302809677268 0 0.28621189469831099 -0.37455756947471941 0 0.27134036376906839 -0.36877535851481652 0 0.27152596225195991 -0.35470302809677268 0 0.27134036376906839 -0.36877535851481652 0 0.27152596225195991 -0.35470302809677268 0 0.25586688092642701 -0.36754687605740738 0 0.27013441380304593 -0.37892580729428937 0 0.27134036376906839 -0.36877535851481652 0 0.25586688092642701 -0.36754687605740738 0 0.27800350514257421 -0.37770493228931212 0 0.28621189469831099 -0.37455756947471941 0 0.27134036376906839 -0.36877535851481652 0 0.27152596225195991 -0.35470302809677268 0 0.25684002980560888 -0.33484848671882589 0 0.24436844440619529 -0.35151014120133101 0 0.27152596225195991 -0.35470302809677268 0 0.25586688092642701 -0.36754687605740738 0 0.24436844440619529 -0.35151014120133101 0 0.27152596225195991 -0.35470302809677268 0 0.25684002980560888 -0.33484848671882589 0 0.28162294333378268 -0.33478179001491493 0 0.27905791414798731 -0.31595640104844008 0 0.26363800812109262 -0.31885276495870662 0 0.27905791414798731 -0.31595640104844008 0 0.26363800812109262 -0.31885276495870662 0 0.27299732049187941 -0.30660714024068941 0 0.28162294333378268 -0.33478179001491493 0 0.25684002980560888 -0.33484848671882589 0 0.26363800812109262 -0.31885276495870662 0 0.28162294333378268 -0.33478179001491493 0 0.27152596225195991 -0.35470302809677268 0 0.25684002980560888 -0.33484848671882589 0 0.25684002980560888 -0.33484848671882589 0 0.26363800812109262 -0.31885276495870662 0 0.24350493118392369 -0.31174007597001291 0 0.2609443039057322 -0.30400055047633978 0 0.24350493118392369 -0.31174007597001291 0 0.26363800812109262 -0.31885276495870662 0 0.2609443039057322 -0.30400055047633978 0 0.24350493118392369 -0.31174007597001291 0 0.25170848628356057 -0.28713403706334711 0 0.27838367662754038 -0.29626102498266632 0 0.2609443039057322 -0.30400055047633978 0 0.25170848628356057 -0.28713403706334711 0 0.24143293375944391 -0.29904221722822721 0 0.25170848628356057 -0.28713403706334711 0 0.27743646752242662 -0.28782829662543807 0 0.26485928246985602 -0.27685268054567419 0 0.2609443039057322 -0.30400055047633978 0 0.25170848628356057 -0.28713403706334711 0 0.27838367662754038 -0.29626102498266632 0 0.25170848628356057 -0.28713403706334711 0 0.27838367662754038 -0.29626102498266632 0 0.27743646752242662 -0.28782829662543807 0 0.27838367662754038 -0.29626102498266632 0 0.27743646752242662 -0.28782829662543807 0 0.28289422763480598 -0.29425926006438913 0 0.27838367662754038 -0.29626102498266632 0 0.28289422763480598 -0.29425926006438913 0 0.27743646752242662 -0.28782829662543807 0 0.28289422763480598 -0.29425926006438913 0 0.27743646752242662 -0.28782829662543807 0 0.28374542343303921 -0.28492817476465121 0 0.28258006339272379 -0.27770819330322472 0 0.27905791414798731 -0.31595640104844008 0 0.27299732049187941 -0.30660714024068941 0 0.28713390666175959 -0.29925493965707839 0 0.2609443039057322 -0.30400055047633978 0 0.27838367662754038 -0.29626102498266632 0 0.27299732049187941 -0.30660714024068941 0 0.2609443039057322 -0.30400055047633978 0 0.27838367662754038 -0.29626102498266632 0 0.26363800812109262 -0.31885276495870662 0 0.2609443039057322 -0.30400055047633978 0 0.27299732049187941 -0.30660714024068941 0 0.27838367662754038 -0.29626102498266632 0 0.27299732049187941 -0.30660714024068941 0 0.28713390666175959 -0.29925493965707839 0 0.3047111799245879 -0.31996651352293792 0 0.27905791414798731 -0.31595640104844008 0 0.28713390666175959 -0.29925493965707839 0 0.3047111799245879 -0.31996651352293792 0 0.28713390666175959 -0.29925493965707839 0 0.27838367662754038 -0.29626102498266632 0 0.28713390666175959 -0.29925493965707839 0 0.27838367662754038 -0.29626102498266632 0 0.28713390666175959 -0.29925493965707839 0 0.28289422763480598 -0.29425926006438913 0 0.28713390666175959 -0.29925493965707839 0 0.28289422763480598 -0.29425926006438913 0 0.28713390666175959 -0.29925493965707839 0 0.28289422763480598 -0.29425926006438913 0 0.30108053486618552 -0.2937310582573287 0 0.28289422763480598 -0.29425926006438913 0 0.30041404737001481 -0.27891916118851529 0 0.29207093518219929 -0.27991694906555081 0 0.28289422763480598 -0.29425926006438913 0 0.31046107753586361 -0.28202519975769869 0 0.27743646752242662 -0.28782829662543807 0 0.28289422763480598 -0.29425926006438913 0 0.28374542343303921 -0.28492817476465121 0 0.28289422763480598 -0.29425926006438913 0 0.28374542343303921 -0.28492817476465121 0 0.29207093518219929 -0.27991694906555081 0 0.28289422763480598 -0.29425926006438913 0 0.30108053486618552 -0.2937310582573287 0 0.31046107753586361 -0.28202519975769869 0 0.32038366666876061 -0.29802583723083043 0 0.30108053486618552 -0.2937310582573287 0 0.31046107753586361 -0.28202519975769869 0 0.28289422763480598 -0.29425926006438913 0 0.31046107753586361 -0.28202519975769869 0 0.30041404737001481 -0.27891916118851529 0 0.28713390666175959 -0.29925493965707839 0 0.30108053486618552 -0.2937310582573287 0 0.30872008123170808 -0.30664070718052 0 0.32038366666876061 -0.29802583723083043 0 0.30108053486618552 -0.2937310582573287 0 0.30872008123170808 -0.30664070718052 0 0.3047111799245879 -0.31996651352293792 0 0.28713390666175959 -0.29925493965707839 0 0.30872008123170808 -0.30664070718052 0 0.28713390666175959 -0.29925493965707839 0 0.30872008123170808 -0.30664070718052 0 0.31063692568569162 -0.24941233183203379 0 0.31952803891305842 -0.25444384210600129 0 0.30137631693902089 -0.25596820534792042 0 0.29932153317934862 -0.26406216526364462 0 0.30137631693902089 -0.25596820534792042 0 0.30971561242460099 -0.27000948688666909 0 0.29932153317934862 -0.26406216526364462 0 0.30137631693902089 -0.25596820534792042 0 0.29444706443518881 -0.26106927191952101 0 0.31063692568569162 -0.24941233183203379 0 0.30261454585862779 -0.24507070061696229 0 0.30137631693902089 -0.25596820534792042 0 0.31557966540668653 -0.26862999560321721 0 0.30137631693902089 -0.25596820534792042 0 0.30971561242460099 -0.27000948688666909 0 0.31046107753586361 -0.28202519975769869 0 0.29932153317934862 -0.26406216526364462 0 0.30041404737001481 -0.27891916118851529 0 0.31046107753586361 -0.28202519975769869 0 0.29932153317934862 -0.26406216526364462 0 0.31046107753586361 -0.28202519975769869 0 0.29932153317934862 -0.26406216526364462 0 0.30971561242460099 -0.27000948688666909 0 0.29932153317934862 -0.26406216526364462 0 0.30041404737001481 -0.27891916118851529 0 0.29571046844588361 -0.27268816509894678 0 0.29932153317934862 -0.26406216526364462 0 0.29571046844588361 -0.27268816509894678 0 0.28951424354803229 -0.26773867072461782 0 0.29571046844588361 -0.27268816509894678 0 0.28951424354803229 -0.26773867072461782 0 0.29207093518219929 -0.27991694906555081 0 0.30041404737001481 -0.27891916118851529 0 0.29571046844588361 -0.27268816509894678 0 0.29207093518219929 -0.27991694906555081 0 0.28374542343303921 -0.28492817476465121 0 0.29207093518219929 -0.27991694906555081 0 0.28258006339272379 -0.27770819330322472 0 0.28951424354803229 -0.26773867072461782 0 0.29207093518219929 -0.27991694906555081 0 0.28258006339272379 -0.27770819330322472 0 0.28951424354803229 -0.26773867072461782 0 0.28258006339272379 -0.27770819330322472 0 0.27752711331176783 -0.26598181149404448 0 0.28951424354803229 -0.26773867072461782 0 0.28757616407435338 -0.25650804634190111 0 0.27752711331176783 -0.26598181149404448 0 0.27527234435749648 -0.24334149415817999 0 0.30137631693902089 -0.25596820534792042 0 0.28757616407435338 -0.25650804634190111 0 0.29932153317934862 -0.26406216526364462 0 0.28951424354803229 -0.26773867072461782 0 0.29444706443518881 -0.26106927191952101 0 0.28951424354803229 -0.26773867072461782 0 0.29444706443518881 -0.26106927191952101 0 0.28757616407435338 -0.25650804634190111 0 0.30137631693902089 -0.25596820534792042 0 0.29444706443518881 -0.26106927191952101 0 0.28757616407435338 -0.25650804634190111 0 0.27527234435749648 -0.24334149415817999 0 0.28757616407435338 -0.25650804634190111 0 0.27459567189731071 -0.2517918539975712 0 0.2576596218415082 -0.24945354819836341 0 0.27459567189731071 -0.2517918539975712 0 0.2576596218415082 -0.24945354819836341 0 0.27752711331176783 -0.26598181149404448 0 0.2576596218415082 -0.24945354819836341 0 0.27459567189731071 -0.2517918539975712 0 0.27752711331176783 -0.26598181149404448 0 0.28757616407435338 -0.25650804634190111 0 0.27459567189731071 -0.2517918539975712 0 0.27752711331176783 -0.26598181149404448 0 0.27752711331176783 -0.26598181149404448 0 0.26485928246985602 -0.27685268054567419 0 0.25826916966781011 -0.26629200619787852 0 0.27743646752242662 -0.28782829662543807 0 0.28258006339272379 -0.27770819330322472 0 0.27493976413214299 -0.27789162547214752 0 0.28258006339272379 -0.27770819330322472 0 0.27493976413214299 -0.27789162547214752 0 0.27752711331176783 -0.26598181149404448 0 0.27493976413214299 -0.27789162547214752 0 0.27752711331176783 -0.26598181149404448 0 0.26485928246985602 -0.27685268054567419 0 0.27743646752242662 -0.28782829662543807 0 0.27493976413214299 -0.27789162547214752 0 0.26485928246985602 -0.27685268054567419 0 0.26485928246985602 -0.27685268054567419 0 0.25826916966781011 -0.26629200619787852 0 0.25140113028855959 -0.27359606074010812 0 0.25826916966781011 -0.26629200619787852 0 0.25140113028855959 -0.27359606074010812 0 0.2434584934868057 -0.26391342483940111 0 0.25170848628356057 -0.28713403706334711 0 0.26485928246985602 -0.27685268054567419 0 0.25140113028855959 -0.27359606074010812 0 0.2576596218415082 -0.24945354819836341 0 0.27752711331176783 -0.26598181149404448 0 0.25826916966781011 -0.26629200619787852 0 0.2576596218415082 -0.24945354819836341 0 0.25826916966781011 -0.26629200619787852 0 0.2434584934868057 -0.26391342483940111 0 0.2576596218415082 -0.24945354819836341 0 0.2434584934868057 -0.26391342483940111 0 0.23703469152610371 -0.25545178565859999 0 0.2576596218415082 -0.24945354819836341 0 0.23703469152610371 -0.25545178565859999 0 0.23064896167212509 -0.24572427347926451 0 0.2434584934868057 -0.26391342483940111 0 0.23703469152610371 -0.25545178565859999 0 0.2320127369377066 -0.26494221864688122 0 0.25170848628356057 -0.28713403706334711 0 0.23871021953476579 -0.27378815505423948 0 0.2250332959395803 -0.27800704914402979 0 0.25170848628356057 -0.28713403706334711 0 0.25140113028855959 -0.27359606074010812 0 0.23871021953476579 -0.27378815505423948 0 0.25140113028855959 -0.27359606074010812 0 0.2434584934868057 -0.26391342483940111 0 0.23871021953476579 -0.27378815505423948 0 0.2434584934868057 -0.26391342483940111 0 0.23871021953476579 -0.27378815505423948 0 0.2320127369377066 -0.26494221864688122 0 0.23871021953476579 -0.27378815505423948 0 0.2250332959395803 -0.27800704914402979 0 0.2320127369377066 -0.26494221864688122 0 0.2250332959395803 -0.27800704914402979 0 0.2213936436923723 -0.25322546312908928 0 0.23703469152610371 -0.25545178565859999 0 0.2213936436923723 -0.25322546312908928 0 0.23064896167212509 -0.24572427347926451 0 0.2250332959395803 -0.27800704914402979 0 0.2320127369377066 -0.26494221864688122 0 0.2213936436923723 -0.25322546312908928 0 0.23703469152610371 -0.25545178565859999 0 0.2320127369377066 -0.26494221864688122 0 0.2213936436923723 -0.25322546312908928 0 0.2213936436923723 -0.25322546312908928 0 0.2073309720590584 -0.26462288536087658 0 0.20931755118314879 -0.27262986492583191 0 0.2073309720590584 -0.26462288536087658 0 0.2057469254243183 -0.24228612966306071 0 0.2213936436923723 -0.25322546312908928 0 0.2073309720590584 -0.26462288536087658 0 0.2057469254243183 -0.24228612966306071 0 0.2213936436923723 -0.25322546312908928 0 0.2073309720590584 -0.26462288536087658 0 0.2073309720590584 -0.26462288536087658 0 0.20931755118314879 -0.27262986492583191 0 0.20861961654540459 -0.28279415408604808 0 0.2250332959395803 -0.27800704914402979 0 0.2213936436923723 -0.25322546312908928 0 0.20931755118314879 -0.27262986492583191 0 0.2250332959395803 -0.27800704914402979 0 0.20931755118314879 -0.27262986492583191 0 0.2168505502394685 -0.28362934214650393 0 0.2250332959395803 -0.27800704914402979 0 0.20931755118314879 -0.27262986492583191 0 0.2073309720590584 -0.26462288536087658 0 0.20861961654540459 -0.28279415408604808 0 0.20931755118314879 -0.27262986492583191 0 0.20861961654540459 -0.28279415408604808 0 0.2168505502394685 -0.28362934214650393 0 0.2073309720590584 -0.26462288536087658 0 0.18754745680492549 -0.28065689955532808 0 0.18590318071622211 -0.26001116497107729 0 0.2073309720590584 -0.26462288536087658 0 0.18754745680492549 -0.28065689955532808 0 0.2073309720590584 -0.26462288536087658 0 0.18754745680492549 -0.28065689955532808 0 0.20861961654540459 -0.28279415408604808 0 0.2073309720590584 -0.26462288536087658 0 0.19504556091500019 -0.25145433893977859 0 0.2057469254243183 -0.24228612966306071 0 0.2073309720590584 -0.26462288536087658 0 0.19504556091500019 -0.25145433893977859 0 0.18590318071622211 -0.26001116497107729 0 0.19615416125225391 -0.29686212603855311 0 0.19887287673815929 -0.31427262494618002 0 0.18349872324405861 -0.3093156867827761 0 0.19615416125225391 -0.29686212603855311 0 0.2100414215789364 -0.30596791700005999 0 0.19887287673815929 -0.31427262494618002 0 0.18754745680492549 -0.28065689955532808 0 0.19615416125225391 -0.29686212603855311 0 0.20861961654540459 -0.28279415408604808 0 0.19615416125225391 -0.29686212603855311 0 0.20861961654540459 -0.28279415408604808 0 0.21443594974225011 -0.29436399305930122 0 0.20861961654540459 -0.28279415408604808 0 0.2168505502394685 -0.28362934214650393 0 0.21443594974225011 -0.29436399305930122 0 0.21443594974225011 -0.29436399305930122 0 0.2100414215789364 -0.30596791700005999 0 0.22632997140751229 -0.30603497492657061 0 0.2100414215789364 -0.30596791700005999 0 0.22632997140751229 -0.30603497492657061 0 0.21580337069153219 -0.32206939018524178 0 0.19615416125225391 -0.29686212603855311 0 0.21443594974225011 -0.29436399305930122 0 0.2100414215789364 -0.30596791700005999 0 0.21443594974225011 -0.29436399305930122 0 0.22632997140751229 -0.30603497492657061 0 0.22684633778695881 -0.29035164951730841 0 0.22632997140751229 -0.30603497492657061 0 0.22684633778695881 -0.29035164951730841 0 0.24143293375944391 -0.29904221722822721 0 0.2250332959395803 -0.27800704914402979 0 0.2168505502394685 -0.28362934214650393 0 0.22684633778695881 -0.29035164951730841 0 0.2250332959395803 -0.27800704914402979 0 0.22684633778695881 -0.29035164951730841 0 0.2168505502394685 -0.28362934214650393 0 0.21443594974225011 -0.29436399305930122 0 0.22684633778695881 -0.29035164951730841 0 0.25170848628356057 -0.28713403706334711 0 0.22684633778695881 -0.29035164951730841 0 0.24143293375944391 -0.29904221722822721 0 0.25170848628356057 -0.28713403706334711 0 0.2250332959395803 -0.27800704914402979 0 0.22684633778695881 -0.29035164951730841 0 0.25170848628356057 -0.28713403706334711 0 0.2250332959395803 -0.27800704914402979 0 0.22632997140751229 -0.30603497492657061 0 0.24143293375944391 -0.29904221722822721 0 0.24350493118392369 -0.31174007597001291 0 0.2609443039057322 -0.30400055047633978 0 0.24143293375944391 -0.29904221722822721 0 0.24350493118392369 -0.31174007597001291 0 0.25684002980560888 -0.33484848671882589 0 0.24350493118392369 -0.31174007597001291 0 0.2320892669855299 -0.32185993861890733 0 0.25684002980560888 -0.33484848671882589 0 0.2310646503875956 -0.33757127356527122 0 0.2320892669855299 -0.32185993861890733 0 0.25684002980560888 -0.33484848671882589 0 0.2310646503875956 -0.33757127356527122 0 0.24436844440619529 -0.35151014120133101 0 0.2310646503875956 -0.33757127356527122 0 0.21580337069153219 -0.32206939018524178 0 0.2116746164449711 -0.34131435180429209 0 0.2310646503875956 -0.33757127356527122 0 0.2320892669855299 -0.32185993861890733 0 0.21580337069153219 -0.32206939018524178 0 0.22632997140751229 -0.30603497492657061 0 0.2320892669855299 -0.32185993861890733 0 0.21580337069153219 -0.32206939018524178 0 0.22632997140751229 -0.30603497492657061 0 0.24350493118392369 -0.31174007597001291 0 0.2320892669855299 -0.32185993861890733 0 0.25586688092642701 -0.36754687605740738 0 0.23668337535051359 -0.37028961759340218 0 0.24436844440619529 -0.35151014120133101 0 0.23668337535051359 -0.37028961759340218 0 0.24436844440619529 -0.35151014120133101 0 0.22554168061278501 -0.35490828114470141 0 0.2310646503875956 -0.33757127356527122 0 0.24436844440619529 -0.35151014120133101 0 0.22554168061278501 -0.35490828114470141 0 0.2310646503875956 -0.33757127356527122 0 0.22554168061278501 -0.35490828114470141 0 0.2116746164449711 -0.34131435180429209 0 0.23668337535051359 -0.37028961759340218 0 0.22554168061278501 -0.35490828114470141 0 0.2221033310603199 -0.36971198453144283 0 0.23668337535051359 -0.37028961759340218 0 0.2221033310603199 -0.36971198453144283 0 0.2241674355705339 -0.38385508133998347 0 0.22554168061278501 -0.35490828114470141 0 0.2221033310603199 -0.36971198453144283 0 0.207652272968328 -0.35952546139927699 0 0.207652272968328 -0.35952546139927699 0 0.1957441215455312 -0.37472839632236588 0 0.21187294487235231 -0.37883725794681827 0 0.2221033310603199 -0.36971198453144283 0 0.207652272968328 -0.35952546139927699 0 0.21187294487235231 -0.37883725794681827 0 0.22554168061278501 -0.35490828114470141 0 0.207652272968328 -0.35952546139927699 0 0.2116746164449711 -0.34131435180429209 0 0.207652272968328 -0.35952546139927699 0 0.1893348976659284 -0.34581277286369738 0 0.1924163480554448 -0.36132519520763051 0 0.207652272968328 -0.35952546139927699 0 0.1893348976659284 -0.34581277286369738 0 0.2116746164449711 -0.34131435180429209 0 0.1924163480554448 -0.36132519520763051 0 0.1957441215455312 -0.37472839632236588 0 0.1769341000419915 -0.36523415024518158 0 0.207652272968328 -0.35952546139927699 0 0.1924163480554448 -0.36132519520763051 0 0.1957441215455312 -0.37472839632236588 0 0.21580337069153219 -0.32206939018524178 0 0.20065082634365741 -0.32799893166756411 0 0.19887287673815929 -0.31427262494618002 0 0.2100414215789364 -0.30596791700005999 0 0.21580337069153219 -0.32206939018524178 0 0.19887287673815929 -0.31427262494618002 0 0.21580337069153219 -0.32206939018524178 0 0.2116746164449711 -0.34131435180429209 0 0.20065082634365741 -0.32799893166756411 0 0.1893348976659284 -0.34581277286369738 0 0.20065082634365741 -0.32799893166756411 0 0.18451664353132599 -0.32502443354651278 0 0.1893348976659284 -0.34581277286369738 0 0.2116746164449711 -0.34131435180429209 0 0.20065082634365741 -0.32799893166756411 0 0.19887287673815929 -0.31427262494618002 0 0.18451664353132599 -0.32502443354651278 0 0.18349872324405861 -0.3093156867827761 0 0.20065082634365741 -0.32799893166756411 0 0.19887287673815929 -0.31427262494618002 0 0.18451664353132599 -0.32502443354651278 0 0.18451664353132599 -0.32502443354651278 0 0.1701314502575057 -0.31524031759961457 0 0.18349872324405861 -0.3093156867827761 0 0.18451664353132599 -0.32502443354651278 0 0.1670677998654343 -0.3321129763048194 0 0.1701314502575057 -0.31524031759961457 0 0.1893348976659284 -0.34581277286369738 0 0.18451664353132599 -0.32502443354651278 0 0.1670677998654343 -0.3321129763048194 0 0.1893348976659284 -0.34581277286369738 0 0.1670677998654343 -0.3321129763048194 0 0.1633932095616572 -0.35207510318816471 0 0.1670677998654343 -0.3321129763048194 0 0.1633932095616572 -0.35207510318816471 0 0.1459347215642143 -0.33999887926565298 0 0.1670677998654343 -0.3321129763048194 0 0.1701314502575057 -0.31524031759961457 0 0.14798042629665589 -0.31272492794422613 0 0.1957441215455312 -0.37472839632236588 0 0.1769341000419915 -0.36523415024518158 0 0.1766416994497105 -0.38330762737337831 0 0.1893348976659284 -0.34581277286369738 0 0.1924163480554448 -0.36132519520763051 0 0.1769341000419915 -0.36523415024518158 0 0.1893348976659284 -0.34581277286369738 0 0.1769341000419915 -0.36523415024518158 0 0.1633932095616572 -0.35207510318816471 0 0.1769341000419915 -0.36523415024518158 0 0.1633932095616572 -0.35207510318816471 0 0.15855630085558869 -0.37410422149499212 0 0.1769341000419915 -0.36523415024518158 0 0.15855630085558869 -0.37410422149499212 0 0.1766416994497105 -0.38330762737337831 0 0.1633932095616572 -0.35207510318816471 0 0.15855630085558869 -0.37410422149499212 0 0.1362379080380321 -0.36332994668916352 0 0.15855630085558869 -0.37410422149499212 0 0.1362379080380321 -0.36332994668916352 0 0.14049570413409271 -0.38427710135478782 0 0.1633932095616572 -0.35207510318816471 0 0.1362379080380321 -0.36332994668916352 0 0.1459347215642143 -0.33999887926565298 0 0.12658994079620289 -0.34776094089500581 0 0.1362379080380321 -0.36332994668916352 0 0.1459347215642143 -0.33999887926565298 0 0.14798042629665589 -0.31272492794422613 0 0.1459347215642143 -0.33999887926565298 0 0.12819691104252109 -0.32875894213867513 0 0.1670677998654343 -0.3321129763048194 0 0.14798042629665589 -0.31272492794422613 0 0.1459347215642143 -0.33999887926565298 0 0.12658994079620289 -0.34776094089500581 0 0.1459347215642143 -0.33999887926565298 0 0.12819691104252109 -0.32875894213867513 0 0.14798042629665589 -0.31272492794422613 0 0.12819691104252109 -0.32875894213867513 0 0.14798042629665589 -0.31272492794422613 0 0.12819691104252109 -0.32875894213867513 0 0.12817816698517329 -0.31052561580320021 0 0.14798042629665589 -0.31272492794422613 0 0.13219515344532601 -0.29260295030503042 0 0.1516935557866976 -0.28028021131434577 0 0.14798042629665589 -0.31272492794422613 0 0.1516935557866976 -0.28028021131434577 0 0.16776394155079069 -0.29669091374977707 0 0.14798042629665589 -0.31272492794422613 0 0.12817816698517329 -0.31052561580320021 0 0.13219515344532601 -0.29260295030503042 0 0.13219515344532601 -0.29260295030503042 0 0.13083059843867501 -0.27080759548624311 0 0.1516935557866976 -0.28028021131434577 0 0.13083059843867501 -0.27080759548624311 0 0.10996764109065239 -0.2613349796581404 0 0.1369019475988357 -0.2498452913983702 0 0.13083059843867501 -0.27080759548624311 0 0.14721046807477259 -0.26437109839891021 0 0.1369019475988357 -0.2498452913983702 0 0.14721046807477259 -0.26437109839891021 0 0.16199683441912749 -0.25415610895316398 0 0.1369019475988357 -0.2498452913983702 0 0.13083059843867501 -0.27080759548624311 0 0.1516935557866976 -0.28028021131434577 0 0.13083059843867501 -0.27080759548624311 0 0.14721046807477259 -0.26437109839891021 0 0.1516935557866976 -0.28028021131434577 0 0.14721046807477259 -0.26437109839891021 0 0.1516935557866976 -0.28028021131434577 0 0.1682454518996199 -0.27326384366485751 0 0.14721046807477259 -0.26437109839891021 0 0.1682454518996199 -0.27326384366485751 0 0.16199683441912749 -0.25415610895316398 0 0.16199683441912749 -0.25415610895316398 0 0.18590318071622211 -0.26001116497107729 0 0.1812011654604006 -0.23889717576409741 0 0.1682454518996199 -0.27326384366485751 0 0.16199683441912749 -0.25415610895316398 0 0.18590318071622211 -0.26001116497107729 0 0.19504556091500019 -0.25145433893977859 0 0.18590318071622211 -0.26001116497107729 0 0.1812011654604006 -0.23889717576409741 0 0.18754745680492549 -0.28065689955532808 0 0.1682454518996199 -0.27326384366485751 0 0.18590318071622211 -0.26001116497107729 0 0.18754745680492549 -0.28065689955532808 0 0.1682454518996199 -0.27326384366485751 0 0.16776394155079069 -0.29669091374977707 0 0.18754745680492549 -0.28065689955532808 0 0.16776394155079069 -0.29669091374977707 0 0.18754745680492549 -0.28065689955532808 0 0.19615416125225391 -0.29686212603855311 0 0.16776394155079069 -0.29669091374977707 0 0.19615416125225391 -0.29686212603855311 0 0.18349872324405861 -0.3093156867827761 0 0.16776394155079069 -0.29669091374977707 0 0.1701314502575057 -0.31524031759961457 0 0.18349872324405861 -0.3093156867827761 0 0.16776394155079069 -0.29669091374977707 0 0.14798042629665589 -0.31272492794422613 0 0.16776394155079069 -0.29669091374977707 0 0.1701314502575057 -0.31524031759961457 0 0.14798042629665589 -0.31272492794422613 0 0.16776394155079069 -0.29669091374977707 0 0.1516935557866976 -0.28028021131434577 0 0.1682454518996199 -0.27326384366485751 0 0.16776394155079069 -0.29669091374977707 0 0.20309485982101841 -0.49636394476982137 0 0.19583867134393071 -0.49999999999999928 0 0.1767341020656133 -0.4854706413949002 0 0.20309485982101841 -0.49636394476982137 0 0.1767341020656133 -0.4854706413949002 0 0.20309485982101841 -0.49636394476982137 0 0.2016009560349582 -0.48005262210528532 0 0.1767341020656133 -0.4854706413949002 0 0.20309485982101841 -0.49636394476982137 0 0.19583867134393071 -0.49999999999999928 0 0.2016009560349582 -0.48005262210528532 0 0.1767341020656133 -0.4854706413949002 0 0.1877631787327157 -0.47850349751530158 0 0.19025234288061399 -0.47121964218312962 0 0.2016009560349582 -0.48005262210528532 0 0.1877631787327157 -0.47850349751530158 0 0.2016009560349582 -0.48005262210528532 0 0.1767341020656133 -0.4854706413949002 0 0.19025234288061399 -0.47121964218312962 0 0.2016009560349582 -0.48005262210528532 0 0.2014789722190273 -0.46772012579482852 0 0.2016009560349582 -0.48005262210528532 0 0.22646781000430299 -0.47463460281567038 0 0.2016009560349582 -0.48005262210528532 0 0.22799791979065751 -0.48388509285796172 0 0.22646781000430299 -0.47463460281567038 0 0.2016009560349582 -0.48005262210528532 0 0.22646781000430299 -0.47463460281567038 0 0.21194974542791731 -0.46692741355112849 0 0.2016009560349582 -0.48005262210528532 0 0.21194974542791731 -0.46692741355112849 0 0.2014789722190273 -0.46772012579482852 0 0.20309485982101841 -0.49636394476982137 0 0.22799791979065751 -0.48388509285796172 0 0.20309485982101841 -0.49636394476982137 0 0.2122832752582178 -0.49999999999999889 0 0.22799791979065751 -0.48388509285796172 0 0.20309485982101841 -0.49636394476982137 0 0.2016009560349582 -0.48005262210528532 0 0.22799791979065751 -0.48388509285796172 0 0.20309485982101841 -0.49636394476982137 0 0.19583867134393071 -0.49999999999999928 0 0.2122832752582178 -0.49999999999999889 0 0.20309485982101841 -0.49636394476982137 0 0.2122832752582178 -0.49999999999999889 0 0.2122832752582178 -0.49999999999999889 0 0.2306634625901654 -0.49999999999999872 0 0.22799791979065751 -0.48388509285796172 0 0.2306634625901654 -0.49999999999999872 0 0.23645070774943061 -0.49007791395789091 0 0.22799791979065751 -0.48388509285796172 0 0.2306634625901654 -0.49999999999999872 0 0.22799791979065751 -0.48388509285796172 0 0.23645070774943061 -0.49007791395789091 0 0.2442591293392051 -0.50000000000000278 0 0.2428823192776938 -0.47642656297359959 0 0.2442591293392051 -0.50000000000000278 0 0.2428823192776938 -0.47642656297359959 0 0.2306634625901654 -0.49999999999999872 0 0.23645070774943061 -0.49007791395789091 0 0.2442591293392051 -0.50000000000000278 0 0.2425727184692941 -0.4711256464825383 0 0.22646781000430299 -0.47463460281567038 0 0.2428823192776938 -0.47642656297359959 0 0.2425727184692941 -0.4711256464825383 0 0.22646781000430299 -0.47463460281567038 0 0.26010330569213658 -0.46779717608283528 0 0.2428823192776938 -0.47642656297359959 0 0.2425727184692941 -0.4711256464825383 0 0.2428823192776938 -0.47642656297359959 0 0.2425727184692941 -0.4711256464825383 0 0.23645070774943061 -0.49007791395789091 0 0.2428823192776938 -0.47642656297359959 0 0.22799791979065751 -0.48388509285796172 0 0.2428823192776938 -0.47642656297359959 0 0.22799791979065751 -0.48388509285796172 0 0.2428823192776938 -0.47642656297359959 0 0.22799791979065751 -0.48388509285796172 0 0.22646781000430299 -0.47463460281567038 0 0.22799791979065751 -0.48388509285796172 0 0.22646781000430299 -0.47463460281567038 0 0.22646781000430299 -0.47463460281567038 0 0.2329236849694831 -0.45872040723726443 0 0.22170927183646891 -0.44586620310341007 0 0.22646781000430299 -0.47463460281567038 0 0.22170927183646891 -0.44586620310341007 0 0.21194974542791731 -0.46692741355112849 0 0.2425727184692941 -0.4711256464825383 0 0.22646781000430299 -0.47463460281567038 0 0.2329236849694831 -0.45872040723726443 0 0.22646781000430299 -0.47463460281567038 0 0.22170927183646891 -0.44586620310341007 0 0.25016576724891132 -0.46058260857959832 0 0.2425727184692941 -0.4711256464825383 0 0.2409449395678665 -0.44325517654743851 0 0.2425727184692941 -0.4711256464825383 0 0.2329236849694831 -0.45872040723726443 0 0.2409449395678665 -0.44325517654743851 0 0.2425727184692941 -0.4711256464825383 0 0.2409449395678665 -0.44325517654743851 0 0.25016576724891132 -0.46058260857959832 0 0.25733192381407688 -0.45583179146920721 0 0.2409449395678665 -0.44325517654743851 0 0.25365615665351798 -0.44365701231061638 0 0.2409449395678665 -0.44325517654743851 0 0.24893837452042869 -0.43184688769129798 0 0.2329236849694831 -0.45872040723726443 0 0.2409449395678665 -0.44325517654743851 0 0.22170927183646891 -0.44586620310341007 0 0.2409449395678665 -0.44325517654743851 0 0.22170927183646891 -0.44586620310341007 0 0.2291765257702206 -0.42985330453380682 0 0.22170927183646891 -0.44586620310341007 0 0.20575988227325201 -0.45586777996260919 0 0.20866735569831341 -0.43652233082490399 0 0.22170927183646891 -0.44586620310341007 0 0.21194974542791731 -0.46692741355112849 0 0.20575988227325201 -0.45586777996260919 0 0.21194974542791731 -0.46692741355112849 0 0.20575988227325201 -0.45586777996260919 0 0.2014789722190273 -0.46772012579482852 0 0.20575988227325201 -0.45586777996260919 0 0.19553148427504641 -0.46145350094616538 0 0.19466758984727059 -0.45007890712419463 0 0.20575988227325201 -0.45586777996260919 0 0.19553148427504641 -0.46145350094616538 0 0.2014789722190273 -0.46772012579482852 0 0.19025234288061399 -0.47121964218312962 0 0.19553148427504641 -0.46145350094616538 0 0.2014789722190273 -0.46772012579482852 0 0.19025234288061399 -0.47121964218312962 0 0.19553148427504641 -0.46145350094616538 0 0.18434840905339361 -0.46084121455315258 0 0.19553148427504641 -0.46145350094616538 0 0.19466758984727059 -0.45007890712419463 0 0.18434840905339361 -0.46084121455315258 0 0.20575988227325201 -0.45586777996260919 0 0.19466758984727059 -0.45007890712419463 0 0.20866735569831341 -0.43652233082490399 0 0.19466758984727059 -0.45007890712419463 0 0.19263107070592339 -0.43700924904655358 0 0.20866735569831341 -0.43652233082490399 0 0.19466758984727059 -0.45007890712419463 0 0.19263107070592339 -0.43700924904655358 0 0.18062466621009041 -0.44643972749405159 0 0.19263107070592339 -0.43700924904655358 0 0.20765050772561991 -0.42051091159011561 0 0.20866735569831341 -0.43652233082490399 0 0.19263107070592339 -0.43700924904655358 0 0.1972141203772739 -0.41317517031159751 0 0.18421854133501139 -0.41592388195039581 0 0.19263107070592339 -0.43700924904655358 0 0.1972141203772739 -0.41317517031159751 0 0.20765050772561991 -0.42051091159011561 0 0.19263107070592339 -0.43700924904655358 0 0.20765050772561991 -0.42051091159011561 0 0.1972141203772739 -0.41317517031159751 0 0.19179219021413749 -0.4046488226723497 0 0.18421854133501139 -0.41592388195039581 0 0.1972141203772739 -0.41317517031159751 0 0.20501728869696301 -0.4020148352479026 0 0.19179219021413749 -0.4046488226723497 0 0.20765050772561991 -0.42051091159011561 0 0.22266994474531629 -0.40401257413367742 0 0.20501728869696301 -0.4020148352479026 0 0.20765050772561991 -0.42051091159011561 0 0.22266994474531629 -0.40401257413367742 0 0.20765050772561991 -0.42051091159011561 0 0.2169507336686351 -0.41709780339114949 0 0.22266994474531629 -0.40401257413367742 0 0.1972141203772739 -0.41317517031159751 0 0.20765050772561991 -0.42051091159011561 0 0.20501728869696301 -0.4020148352479026 0 0.22170927183646891 -0.44586620310341007 0 0.2169507336686351 -0.41709780339114949 0 0.20866735569831341 -0.43652233082490399 0 0.20765050772561991 -0.42051091159011561 0 0.2169507336686351 -0.41709780339114949 0 0.20866735569831341 -0.43652233082490399 0 0.22170927183646891 -0.44586620310341007 0 0.2169507336686351 -0.41709780339114949 0 0.2291765257702206 -0.42985330453380682 0 0.22170927183646891 -0.44586620310341007 0 0.2169507336686351 -0.41709780339114949 0 0.2409449395678665 -0.44325517654743851 0 0.24893837452042869 -0.43184688769129798 0 0.23931716066643921 -0.41538470661233873 0 0.2409449395678665 -0.44325517654743851 0 0.2291765257702206 -0.42985330453380682 0 0.23931716066643921 -0.41538470661233873 0 0.2409449395678665 -0.44325517654743851 0 0.23931716066643921 -0.41538470661233873 0 0.25495278799212262 -0.41563391091884339 0 0.24893837452042869 -0.43184688769129798 0 0.23931716066643921 -0.41538470661233873 0 0.25086081389379089 -0.39982980891506231 0 0.25495278799212262 -0.41563391091884339 0 0.23931716066643921 -0.41538470661233873 0 0.23931716066643921 -0.41538470661233873 0 0.22739281670487549 -0.41712032627262968 0 0.22266994474531629 -0.40401257413367742 0 0.2291765257702206 -0.42985330453380682 0 0.23931716066643921 -0.41538470661233873 0 0.22739281670487549 -0.41712032627262968 0 0.2169507336686351 -0.41709780339114949 0 0.2291765257702206 -0.42985330453380682 0 0.22739281670487549 -0.41712032627262968 0 0.2169507336686351 -0.41709780339114949 0 0.22739281670487549 -0.41712032627262968 0 0.22266994474531629 -0.40401257413367742 0 0.22266994474531629 -0.40401257413367742 0 0.2376893817650125 -0.38751423667723911 0 0.2241674355705339 -0.38385508133998347 0 0.22266994474531629 -0.40401257413367742 0 0.2241674355705339 -0.38385508133998347 0 0.21398563562968859 -0.39276481715732098 0 0.22266994474531629 -0.40401257413367742 0 0.2376893817650125 -0.38751423667723911 0 0.23931716066643921 -0.41538470661233873 0 0.22266994474531629 -0.40401257413367742 0 0.2376893817650125 -0.38751423667723911 0 0.25086081389379089 -0.39982980891506231 0 0.23931716066643921 -0.41538470661233873 0 0.2376893817650125 -0.38751423667723911 0 0.23931716066643921 -0.41538470661233873 0 0.2376893817650125 -0.38751423667723911 0 0.25247051514062402 -0.38352618598174032 0 0.25586688092642701 -0.36754687605740738 0 0.2376893817650125 -0.38751423667723911 0 0.23668337535051359 -0.37028961759340218 0 0.2376893817650125 -0.38751423667723911 0 0.25247051514062402 -0.38352618598174032 0 0.25086081389379089 -0.39982980891506231 0 0.2376893817650125 -0.38751423667723911 0 0.25586688092642701 -0.36754687605740738 0 0.23668337535051359 -0.37028961759340218 0 0.2376893817650125 -0.38751423667723911 0 0.25586688092642701 -0.36754687605740738 0 0.2376893817650125 -0.38751423667723911 0 0.23668337535051359 -0.37028961759340218 0 0.2376893817650125 -0.38751423667723911 0 0.2241674355705339 -0.38385508133998347 0 0.2221033310603199 -0.36971198453144283 0 0.2241674355705339 -0.38385508133998347 0 0.21187294487235231 -0.37883725794681827 0 0.1957441215455312 -0.37472839632236588 0 0.21187294487235231 -0.37883725794681827 0 0.2043461851085423 -0.3877870703876472 0 0.21187294487235231 -0.37883725794681827 0 0.2043461851085423 -0.3877870703876472 0 0.21398563562968859 -0.39276481715732098 0 0.2241674355705339 -0.38385508133998347 0 0.21187294487235231 -0.37883725794681827 0 0.21398563562968859 -0.39276481715732098 0 0.22266994474531629 -0.40401257413367742 0 0.21398563562968859 -0.39276481715732098 0 0.20501728869696301 -0.4020148352479026 0 0.2043461851085423 -0.3877870703876472 0 0.21398563562968859 -0.39276481715732098 0 0.20501728869696301 -0.4020148352479026 0 0.2043461851085423 -0.3877870703876472 0 0.20501728869696301 -0.4020148352479026 0 0.1936480915725379 -0.39154899801347981 0 0.20501728869696301 -0.4020148352479026 0 0.19179219021413749 -0.4046488226723497 0 0.1936480915725379 -0.39154899801347981 0 0.19179219021413749 -0.4046488226723497 0 0.1936480915725379 -0.39154899801347981 0 0.17886290908890151 -0.40058122783837302 0 0.1957441215455312 -0.37472839632236588 0 0.2043461851085423 -0.3877870703876472 0 0.1936480915725379 -0.39154899801347981 0 0.1957441215455312 -0.37472839632236588 0 0.1936480915725379 -0.39154899801347981 0 0.1766416994497105 -0.38330762737337831 0 0.1936480915725379 -0.39154899801347981 0 0.1766416994497105 -0.38330762737337831 0 0.17886290908890151 -0.40058122783837302 0 0.17886290908890151 -0.40058122783837302 0 0.15763518390804879 -0.3964014001192771 0 0.16675887873008749 -0.4134355467505465 0 0.1766416994497105 -0.38330762737337831 0 0.17886290908890151 -0.40058122783837302 0 0.15763518390804879 -0.3964014001192771 0 0.15855630085558869 -0.37410422149499212 0 0.1766416994497105 -0.38330762737337831 0 0.15763518390804879 -0.3964014001192771 0 0.14049570413409271 -0.38427710135478782 0 0.12919674487039109 -0.40206023946192831 0 0.10891331270232341 -0.38144360499474811 0 0.15855630085558869 -0.37410422149499212 0 0.15763518390804879 -0.3964014001192771 0 0.14049570413409271 -0.38427710135478782 0 0.1362379080380321 -0.36332994668916352 0 0.14049570413409271 -0.38427710135478782 0 0.10891331270232341 -0.38144360499474811 0 0.15763518390804879 -0.3964014001192771 0 0.14049570413409271 -0.38427710135478782 0 0.12919674487039109 -0.40206023946192831 0 0.15763518390804879 -0.3964014001192771 0 0.12919674487039109 -0.40206023946192831 0 0.14948017703845881 -0.42267687392910841 0 0.12919674487039109 -0.40206023946192831 0 0.14948017703845881 -0.42267687392910841 0 0.12919674487039109 -0.40206023946192831 0 0.14948017703845881 -0.42267687392910841 0 0.1226010267693714 -0.42817805704762568 0 0.14948017703845881 -0.42267687392910841 0 0.14039785537041949 -0.44915072819729063 0 0.1226010267693714 -0.42817805704762568 0 0.14948017703845881 -0.42267687392910841 0 0.16675887873008749 -0.4134355467505465 0 0.17678164927510531 -0.43003506951313958 0 0.14948017703845881 -0.42267687392910841 0 0.17678164927510531 -0.43003506951313958 0 0.16375736010246911 -0.44403510663025858 0 0.15763518390804879 -0.3964014001192771 0 0.14948017703845881 -0.42267687392910841 0 0.16675887873008749 -0.4134355467505465 0 0.17886290908890151 -0.40058122783837302 0 0.16675887873008749 -0.4134355467505465 0 0.18421854133501139 -0.41592388195039581 0 0.16675887873008749 -0.4134355467505465 0 0.18421854133501139 -0.41592388195039581 0 0.17678164927510531 -0.43003506951313958 0 0.19179219021413749 -0.4046488226723497 0 0.17886290908890151 -0.40058122783837302 0 0.18421854133501139 -0.41592388195039581 0 0.19263107070592339 -0.43700924904655358 0 0.18421854133501139 -0.41592388195039581 0 0.17678164927510531 -0.43003506951313958 0 0.17678164927510531 -0.43003506951313958 0 0.18062466621009041 -0.44643972749405159 0 0.16375736010246911 -0.44403510663025858 0 0.19263107070592339 -0.43700924904655358 0 0.17678164927510531 -0.43003506951313958 0 0.18062466621009041 -0.44643972749405159 0 0.18062466621009041 -0.44643972749405159 0 0.1715619182763802 -0.45663881809701068 0 0.16375736010246911 -0.44403510663025858 0 0.19466758984727059 -0.45007890712419463 0 0.18062466621009041 -0.44643972749405159 0 0.18434840905339361 -0.46084121455315258 0 0.19025234288061399 -0.47121964218312962 0 0.18434840905339361 -0.46084121455315258 0 0.1788814333774276 -0.47117307547419118 0 0.17563993833795061 -0.46421850738246989 0 0.16749343506729511 -0.4675123292782204 0 0.1788814333774276 -0.47117307547419118 0 0.18434840905339361 -0.46084121455315258 0 0.17563993833795061 -0.46421850738246989 0 0.1788814333774276 -0.47117307547419118 0 0.18434840905339361 -0.46084121455315258 0 0.17563993833795061 -0.46421850738246989 0 0.1715619182763802 -0.45663881809701068 0 0.18062466621009041 -0.44643972749405159 0 0.18434840905339361 -0.46084121455315258 0 0.1715619182763802 -0.45663881809701068 0 0.1715619182763802 -0.45663881809701068 0 0.16749343506729511 -0.4675123292782204 0 0.15733294109281309 -0.45853094995325372 0 0.16749343506729511 -0.4675123292782204 0 0.15733294109281309 -0.45853094995325372 0 0.15009717314583801 -0.47539161095020072 0 0.17563993833795061 -0.46421850738246989 0 0.1715619182763802 -0.45663881809701068 0 0.16749343506729511 -0.4675123292782204 0 0.1715619182763802 -0.45663881809701068 0 0.15733294109281309 -0.45853094995325372 0 0.16375736010246911 -0.44403510663025858 0 0.14948017703845881 -0.42267687392910841 0 0.16375736010246911 -0.44403510663025858 0 0.14039785537041949 -0.44915072819729063 0 0.15733294109281309 -0.45853094995325372 0 0.16375736010246911 -0.44403510663025858 0 0.14039785537041949 -0.44915072819729063 0 0.14039785537041949 -0.44915072819729063 0 0.11660750757989639 -0.44662653256243878 0 0.1226010267693714 -0.42817805704762568 0 0.14039785537041949 -0.44915072819729063 0 0.12359832980824841 -0.4649054440403888 0 0.11660750757989639 -0.44662653256243878 0 0.14039785537041949 -0.44915072819729063 0 0.15009717314583801 -0.47539161095020072 0 0.12359832980824841 -0.4649054440403888 0 0.15733294109281309 -0.45853094995325372 0 0.14039785537041949 -0.44915072819729063 0 0.15009717314583801 -0.47539161095020072 0 0.15009717314583801 -0.47539161095020072 0 0.12359832980824841 -0.4649054440403888 0 0.15009717314583801 -0.47539161095020072 0 0.1301681516496847 -0.48369534833919342 0 0.12359832980824841 -0.4649054440403888 0 0.1301681516496847 -0.48369534833919342 0 0.14544944917035091 -0.5 0 0.12025483808356099 -0.49999999999999922 0 0.15009717314583801 -0.47539161095020072 0 0.1301681516496847 -0.48369534833919342 0 0.14544944917035091 -0.5 0 0.15009717314583801 -0.47539161095020072 0 0.14544944917035091 -0.5 0 0.16069667476418931 -0.49031734720255338 0 0.17064406025714091 -0.5 0 0.16069667476418931 -0.49031734720255338 0 0.1767341020656133 -0.4854706413949002 0 0.14544944917035091 -0.5 0 0.17064406025714091 -0.5 0 0.16069667476418931 -0.49031734720255338 0 0.15009717314583801 -0.47539161095020072 0 0.16069667476418931 -0.49031734720255338 0 0.1767341020656133 -0.4854706413949002 0 0.15009717314583801 -0.47539161095020072 0 0.1767341020656133 -0.4854706413949002 0 0.15009717314583801 -0.47539161095020072 0 0.17168998366742819 -0.47762184849584749 0 0.1767341020656133 -0.4854706413949002 0 0.16749343506729511 -0.4675123292782204 0 0.15009717314583801 -0.47539161095020072 0 0.17168998366742819 -0.47762184849584749 0 0.17744270826503661 -0.47788416243570753 0 0.18221475306428139 -0.47685020380064602 0 0.1767341020656133 -0.4854706413949002 0 0.17168998366742819 -0.47762184849584749 0 0.17744270826503661 -0.47788416243570753 0 0.1767341020656133 -0.4854706413949002 0 0.16749343506729511 -0.4675123292782204 0 0.17168998366742819 -0.47762184849584749 0 0.1788814333774276 -0.47117307547419118 0 0.17168998366742819 -0.47762184849584749 0 0.17744270826503661 -0.47788416243570753 0 0.1788814333774276 -0.47117307547419118 0 0.17744270826503661 -0.47788416243570753 0 0.1788814333774276 -0.47117307547419118 0 0.18221475306428139 -0.47685020380064602 0 0.19025234288061399 -0.47121964218312962 0 0.1788814333774276 -0.47117307547419118 0 0.18221475306428139 -0.47685020380064602 0 0.1877631787327157 -0.47850349751530158 0 0.19025234288061399 -0.47121964218312962 0 0.18221475306428139 -0.47685020380064602 0 0.1877631787327157 -0.47850349751530158 0 0.18221475306428139 -0.47685020380064602 0 0.1767341020656133 -0.4854706413949002 0 0.19583867134393071 -0.49999999999999928 0 0.17064406025714091 -0.5 0 0.1767341020656133 -0.4854706413949002 0 0.067444263309055369 -0.48895928002819711 0 0.088512049523833958 -0.49994264512903219 0 0.067444263309055369 -0.48895928002819711 0 0.088512049523833958 -0.49994264512903219 0 0.059908663758844287 -0.5 0 0.063181138744275001 -0.47384827458262468 0 0.080608608962939615 -0.4810828201376029 0 0.072705168402045939 -0.46222299514617332 0 0.067444263309055369 -0.48895928002819711 0 0.063181138744275001 -0.47384827458262468 0 0.080608608962939615 -0.4810828201376029 0 0.080608608962939615 -0.4810828201376029 0 0.072705168402045939 -0.46222299514617332 0 0.080608608962939615 -0.4810828201376029 0 0.09078518610014627 -0.46848279984353342 0 0.072705168402045939 -0.46222299514617332 0 0.080608608962939615 -0.4810828201376029 0 0.095480754050590005 -0.48574649084542137 0 0.09078518610014627 -0.46848279984353342 0 0.067444263309055369 -0.48895928002819711 0 0.080608608962939615 -0.4810828201376029 0 0.088512049523833958 -0.49994264512903219 0 0.080608608962939615 -0.4810828201376029 0 0.088512049523833958 -0.49994264512903219 0 0.095480754050590005 -0.48574649084542137 0 0.080608608962939615 -0.4810828201376029 0 0.088512049523833958 -0.49994264512903219 0 0.088512049523833958 -0.49994264512903219 0 0.095480754050590005 -0.48574649084542137 0 0.1043834438036975 -0.5 0 0.095480754050590005 -0.48574649084542137 0 0.1043834438036975 -0.5 0 0.11144096804042521 -0.47817968670537719 0 0.1301681516496847 -0.48369534833919342 0 0.12025483808356099 -0.49999999999999922 0 0.11144096804042521 -0.47817968670537719 0 0.12025483808356099 -0.49999999999999922 0 0.11144096804042521 -0.47817968670537719 0 0.1043834438036975 -0.5 0 0.12025483808356099 -0.49999999999999922 0 0.11144096804042521 -0.47817968670537719 0 0.1301681516496847 -0.48369534833919342 0 0.11144096804042521 -0.47817968670537719 0 0.12359832980824841 -0.4649054440403888 0 0.095480754050590005 -0.48574649084542137 0 0.11144096804042521 -0.47817968670537719 0 0.09078518610014627 -0.46848279984353342 0 0.11144096804042521 -0.47817968670537719 0 0.10262709799728929 -0.45635937341075539 0 0.09078518610014627 -0.46848279984353342 0 0.11144096804042521 -0.47817968670537719 0 0.10262709799728929 -0.45635937341075539 0 0.10262709799728929 -0.45635937341075539 0 0.12359832980824841 -0.4649054440403888 0 0.11660750757989639 -0.44662653256243878 0 0.11144096804042521 -0.47817968670537719 0 0.10262709799728929 -0.45635937341075539 0 0.12359832980824841 -0.4649054440403888 0 0.10262709799728929 -0.45635937341075539 0 0.093813227954153255 -0.43453906011613358 0 0.10262709799728929 -0.45635937341075539 0 0.11660750757989639 -0.44662653256243878 0 0.093813227954153255 -0.43453906011613358 0 0.10262709799728929 -0.45635937341075539 0 0.083270168602976938 -0.4487385079340297 0 0.093813227954153255 -0.43453906011613358 0 0.083270168602976938 -0.4487385079340297 0 0.09078518610014627 -0.46848279984353342 0 0.072705168402045939 -0.46222299514617332 0 0.10262709799728929 -0.45635937341075539 0 0.083270168602976938 -0.4487385079340297 0 0.09078518610014627 -0.46848279984353342 0 0.083270168602976938 -0.4487385079340297 0 0.064801727841152235 -0.44336317015474369 0 0.074888603323074676 -0.42746364893283878 0 0.072705168402045939 -0.46222299514617332 0 0.064801727841152235 -0.44336317015474369 0 0.083270168602976938 -0.4487385079340297 0 0.072705168402045939 -0.46222299514617332 0 0.064801727841152235 -0.44336317015474369 0 0.064801727841152235 -0.44336317015474369 0 0.074888603323074676 -0.42746364893283878 0 0.054129788669525593 -0.42411645895892658 0 0.074888603323074676 -0.42746364893283878 0 0.068694896053593038 -0.40854008145476062 0 0.054129788669525593 -0.42411645895892658 0 0.074888603323074676 -0.42746364893283878 0 0.068694896053593038 -0.40854008145476062 0 0.08521003790612805 -0.41388270368101432 0 0.074888603323074676 -0.42746364893283878 0 0.08521003790612805 -0.41388270368101432 0 0.093813227954153255 -0.43453906011613358 0 0.083270168602976938 -0.4487385079340297 0 0.074888603323074676 -0.42746364893283878 0 0.093813227954153255 -0.43453906011613358 0 0.093813227954153255 -0.43453906011613358 0 0.1226010267693714 -0.42817805704762568 0 0.1041744621097849 -0.40742991137405299 0 0.11660750757989639 -0.44662653256243878 0 0.093813227954153255 -0.43453906011613358 0 0.1226010267693714 -0.42817805704762568 0 0.12919674487039109 -0.40206023946192831 0 0.1226010267693714 -0.42817805704762568 0 0.1041744621097849 -0.40742991137405299 0 0.08521003790612805 -0.41388270368101432 0 0.093813227954153255 -0.43453906011613358 0 0.1041744621097849 -0.40742991137405299 0 0.1041744621097849 -0.40742991137405299 0 0.10891331270232341 -0.38144360499474811 0 0.084479000090034312 -0.39144081652728507 0 0.12919674487039109 -0.40206023946192831 0 0.1041744621097849 -0.40742991137405299 0 0.10891331270232341 -0.38144360499474811 0 0.12919674487039109 -0.40206023946192831 0 0.10891331270232341 -0.38144360499474811 0 0.10891331270232341 -0.38144360499474811 0 0.084479000090034312 -0.39144081652728507 0 0.088409687624838917 -0.37475072894731609 0 0.084479000090034312 -0.39144081652728507 0 0.075810689404869638 -0.37563758875815001 0 0.088409687624838917 -0.37475072894731609 0 0.08521003790612805 -0.41388270368101432 0 0.1041744621097849 -0.40742991137405299 0 0.084479000090034312 -0.39144081652728507 0 0.068694896053593038 -0.40854008145476062 0 0.08521003790612805 -0.41388270368101432 0 0.084479000090034312 -0.39144081652728507 0 0.068694896053593038 -0.40854008145476062 0 0.084479000090034312 -0.39144081652728507 0 0.05722368337897233 -0.38514730289724691 0 0.068694896053593038 -0.40854008145476062 0 0.05722368337897233 -0.38514730289724691 0 0.084479000090034312 -0.39144081652728507 0 0.075810689404869638 -0.37563758875815001 0 0.05722368337897233 -0.38514730289724691 0 0.075810689404869638 -0.37563758875815001 0 0.05722368337897233 -0.38514730289724691 0 0.064716367060602256 -0.36696410283815639 0 0.068694896053593038 -0.40854008145476062 0 0.05722368337897233 -0.38514730289724691 0 0.0444810354524681 -0.40524297288683392 0 0.0444810354524681 -0.40524297288683392 0 0.031951973385333107 -0.3857832005238796 0 0.022361035639484661 -0.4058142147531828 0 0.05722368337897233 -0.38514730289724691 0 0.0444810354524681 -0.40524297288683392 0 0.031951973385333107 -0.3857832005238796 0 0.05722368337897233 -0.38514730289724691 0 0.031951973385333107 -0.3857832005238796 0 0.045752470704351622 -0.36175452433973321 0 0.031951973385333107 -0.3857832005238796 0 0.01345801989319451 -0.37851461018506999 0 0.0081381410838362658 -0.39426642413936558 0 -0.0032689191707280219 -0.38784704684875643 0 0.01345801989319451 -0.37851461018506999 0 0.0081381410838362658 -0.39426642413936558 0 -0.0070999278623810006 -0.37038466258880981 0 -0.0032689191707280219 -0.38784704684875643 0 0.01345801989319451 -0.37851461018506999 0 0.0081381410838362658 -0.39426642413936558 0 0.022361035639484661 -0.4058142147531828 0 0.0033072375369987321 -0.40645944597256622 0 -0.010095241589031939 -0.4043639430644913 0 0.0081381410838362658 -0.39426642413936558 0 0.0033072375369987321 -0.40645944597256622 0 0.031951973385333107 -0.3857832005238796 0 0.0081381410838362658 -0.39426642413936558 0 0.022361035639484661 -0.4058142147531828 0 0.022361035639484661 -0.4058142147531828 0 0.015126719611032371 -0.42067622484206502 0 0.033263892814801049 -0.42142670901740359 0 0.022361035639484661 -0.4058142147531828 0 0.015126719611032371 -0.42067622484206502 0 0.0033072375369987321 -0.40645944597256622 0 -0.001979991684668675 -0.42759904443131869 0 0.015126719611032371 -0.42067622484206502 0 0.00025612791897663132 -0.41717800300300478 0 0.015126719611032371 -0.42067622484206502 0 0.00025612791897663132 -0.41717800300300478 0 0.0033072375369987321 -0.40645944597256622 0 0.015126719611032371 -0.42067622484206502 0 0.0096838121378725935 -0.43834270478387921 0 -0.001979991684668675 -0.42759904443131869 0 0.015126719611032371 -0.42067622484206502 0 0.0096838121378725935 -0.43834270478387921 0 -0.001979991684668675 -0.42759904443131869 0 -0.0016826269874589291 -0.44126704767427422 0 0.0096838121378725935 -0.43834270478387921 0 0.015126719611032371 -0.42067622484206502 0 0.02432981776101369 -0.43379442449665562 0 0.0096838121378725935 -0.43834270478387921 0 0.015126719611032371 -0.42067622484206502 0 0.02432981776101369 -0.43379442449665562 0 0.033263892814801049 -0.42142670901740359 0 0.033263892814801049 -0.42142670901740359 0 0.054129788669525593 -0.42411645895892658 0 0.039983482127774993 -0.43814796327246969 0 0.02432981776101369 -0.43379442449665562 0 0.033263892814801049 -0.42142670901740359 0 0.039983482127774993 -0.43814796327246969 0 0.0444810354524681 -0.40524297288683392 0 0.022361035639484661 -0.4058142147531828 0 0.033263892814801049 -0.42142670901740359 0 0.0444810354524681 -0.40524297288683392 0 0.033263892814801049 -0.42142670901740359 0 0.054129788669525593 -0.42411645895892658 0 0.068694896053593038 -0.40854008145476062 0 0.0444810354524681 -0.40524297288683392 0 0.054129788669525593 -0.42411645895892658 0 0.064801727841152235 -0.44336317015474369 0 0.054129788669525593 -0.42411645895892658 0 0.039983482127774993 -0.43814796327246969 0 0.064801727841152235 -0.44336317015474369 0 0.048771175953057619 -0.45900036267378719 0 0.039983482127774993 -0.43814796327246969 0 0.072705168402045939 -0.46222299514617332 0 0.064801727841152235 -0.44336317015474369 0 0.048771175953057619 -0.45900036267378719 0 0.063181138744275001 -0.47384827458262468 0 0.072705168402045939 -0.46222299514617332 0 0.048771175953057619 -0.45900036267378719 0 0.048771175953057619 -0.45900036267378719 0 0.025308690879497522 -0.46699254982652849 0 0.046376477094276433 -0.4779759149273628 0 0.048771175953057619 -0.45900036267378719 0 0.025248226858573579 -0.44884253077888392 0 0.025308690879497522 -0.46699254982652849 0 0.048771175953057619 -0.45900036267378719 0 0.039983482127774993 -0.43814796327246969 0 0.025248226858573579 -0.44884253077888392 0 0.02432981776101369 -0.43379442449665562 0 0.039983482127774993 -0.43814796327246969 0 0.025248226858573579 -0.44884253077888392 0 0.02432981776101369 -0.43379442449665562 0 0.025248226858573579 -0.44884253077888392 0 0.0096838121378725935 -0.43834270478387921 0 0.025248226858573579 -0.44884253077888392 0 0.0096838121378725935 -0.43834270478387921 0 0.0042409046647181644 -0.45600918472569513 0 0.0096838121378725935 -0.43834270478387921 0 0.0042409046647181644 -0.45600918472569513 0 -0.0016826269874589291 -0.44126704767427422 0 0.0096838121378725935 -0.43834270478387921 0 0.0042409046647181644 -0.45600918472569513 0 0.0042409046647181644 -0.45600918472569513 0 0.025308690879497522 -0.46699254982652849 0 -0.001841178523428006 -0.47575028838721822 0 0.0042409046647181644 -0.45600918472569513 0 -0.001841178523428006 -0.47575028838721822 0 0.0042409046647181644 -0.45600918472569513 0 0.010954560247555079 -0.4709224229626463 0 0.0042409046647181644 -0.45600918472569513 0 0.025308690879497522 -0.46699254982652849 0 0.010954560247555079 -0.4709224229626463 0 0.025248226858573579 -0.44884253077888392 0 0.0042409046647181644 -0.45600918472569513 0 0.025308690879497522 -0.46699254982652849 0 0.025308690879497522 -0.46699254982652849 0 0.016109823969432661 -0.4849376689111432 0 0.046376477094276433 -0.4779759149273628 0 0.025308690879497522 -0.46699254982652849 0 0.010954560247555079 -0.4709224229626463 0 0.016109823969432661 -0.4849376689111432 0 -0.001841178523428006 -0.47575028838721822 0 0.0019752836915401168 -0.48835755068953651 0 0.016109823969432661 -0.4849376689111432 0 -0.001841178523428006 -0.47575028838721822 0 0.010954560247555079 -0.4709224229626463 0 0.016109823969432661 -0.4849376689111432 0 0.002701892228864633 -0.5 0 0.0019752836915401168 -0.48835755068953651 0 0.016109823969432661 -0.4849376689111432 0 0.002701892228864633 -0.5 0 0.016109823969432661 -0.4849376689111432 0 0.031305277993854408 -0.5 0 0.031305277993854408 -0.5 0 0.046376477094276433 -0.4779759149273628 0 0.059908663758844287 -0.5 0 0.016109823969432661 -0.4849376689111432 0 0.031305277993854408 -0.5 0 0.046376477094276433 -0.4779759149273628 0 0.025308690879497522 -0.46699254982652849 0 0.046376477094276433 -0.4779759149273628 0 0.063181138744275001 -0.47384827458262468 0 0.048771175953057619 -0.45900036267378719 0 0.046376477094276433 -0.4779759149273628 0 0.067444263309055369 -0.48895928002819711 0 0.046376477094276433 -0.4779759149273628 0 0.067444263309055369 -0.48895928002819711 0 0.063181138744275001 -0.47384827458262468 0 0.046376477094276433 -0.4779759149273628 0 0.067444263309055369 -0.48895928002819711 0 0.046376477094276433 -0.4779759149273628 0 0.059908663758844287 -0.5 0 0.077060755635833506 -0.29717061420942498 0 0.073227212047482879 -0.28010700128925448 0 0.090340652267396029 -0.27556280361878288 0 0.077060755635833506 -0.29717061420942498 0 0.090340652267396029 -0.27556280361878288 0 0.096061417493057868 -0.29244365732354161 0 0.077060755635833506 -0.29717061420942498 0 0.092966490329917745 -0.32041846559688281 0 0.071681467377036998 -0.31846947201907261 0 0.077060755635833506 -0.29717061420942498 0 0.096061417493057868 -0.29244365732354161 0 0.092966490329917745 -0.32041846559688281 0 0.077060755635833506 -0.29717061420942498 0 0.071681467377036998 -0.31846947201907261 0 0.053560477607455831 -0.30670125821252969 0 0.077060755635833506 -0.29717061420942498 0 0.059339898902209073 -0.28936321648372182 0 0.053560477607455831 -0.30670125821252969 0 0.077060755635833506 -0.29717061420942498 0 0.073227212047482879 -0.28010700128925448 0 0.059339898902209073 -0.28936321648372182 0 0.073227212047482879 -0.28010700128925448 0 0.059339898902209073 -0.28936321648372182 0 0.060172332273088922 -0.27535741372482059 0 0.072881247528199022 -0.26603572198801279 0 0.073227212047482879 -0.28010700128925448 0 0.060172332273088922 -0.27535741372482059 0 0.072881247528199022 -0.26603572198801279 0 0.059907189982764779 -0.26352186264137939 0 0.060172332273088922 -0.27535741372482059 0 0.072881247528199022 -0.26603572198801279 0 0.064592416027369579 -0.25387350061472919 0 0.089104683742629823 -0.25186236383003768 0 0.072881247528199022 -0.26603572198801279 0 0.064592416027369579 -0.25387350061472919 0 0.059907189982764779 -0.26352186264137939 0 0.072881247528199022 -0.26603572198801279 0 0.089104683742629823 -0.25186236383003768 0 0.090340652267396029 -0.27556280361878288 0 0.072881247528199022 -0.26603572198801279 0 0.073227212047482879 -0.28010700128925448 0 0.090340652267396029 -0.27556280361878288 0 0.090340652267396029 -0.27556280361878288 0 0.10996764109065239 -0.2613349796581404 0 0.111999824664791 -0.28224552033941602 0 0.089104683742629823 -0.25186236383003768 0 0.10996764109065239 -0.2613349796581404 0 0.089104683742629823 -0.25186236383003768 0 0.090340652267396029 -0.27556280361878288 0 0.10996764109065239 -0.2613349796581404 0 0.089104683742629823 -0.25186236383003768 0 0.10996764109065239 -0.2613349796581404 0 0.1123268442063263 -0.2422076389170805 0 0.10996764109065239 -0.2613349796581404 0 0.1123268442063263 -0.2422076389170805 0 0.1369019475988357 -0.2498452913983702 0 0.13083059843867501 -0.27080759548624311 0 0.10996764109065239 -0.2613349796581404 0 0.111999824664791 -0.28224552033941602 0 0.13083059843867501 -0.27080759548624311 0 0.10996764109065239 -0.2613349796581404 0 0.13219515344532601 -0.29260295030503042 0 0.13083059843867501 -0.27080759548624311 0 0.111999824664791 -0.28224552033941602 0 0.13219515344532601 -0.29260295030503042 0 0.111999824664791 -0.28224552033941602 0 0.11260348525363879 -0.30072113564475778 0 0.111999824664791 -0.28224552033941602 0 0.096061417493057868 -0.29244365732354161 0 0.11260348525363879 -0.30072113564475778 0 0.090340652267396029 -0.27556280361878288 0 0.111999824664791 -0.28224552033941602 0 0.096061417493057868 -0.29244365732354161 0 0.096061417493057868 -0.29244365732354161 0 0.11260348525363879 -0.30072113564475778 0 0.092966490329917745 -0.32041846559688281 0 0.12817816698517329 -0.31052561580320021 0 0.11260348525363879 -0.30072113564475778 0 0.1128448779895864 -0.31925518441769818 0 0.12817816698517329 -0.31052561580320021 0 0.13219515344532601 -0.29260295030503042 0 0.11260348525363879 -0.30072113564475778 0 0.12819691104252109 -0.32875894213867513 0 0.12817816698517329 -0.31052561580320021 0 0.1128448779895864 -0.31925518441769818 0 0.12819691104252109 -0.32875894213867513 0 0.1128448779895864 -0.31925518441769818 0 0.1084133957883862 -0.34479295633312412 0 0.12658994079620289 -0.34776094089500581 0 0.12819691104252109 -0.32875894213867513 0 0.1084133957883862 -0.34479295633312412 0 0.12819691104252109 -0.32875894213867513 0 0.1084133957883862 -0.34479295633312412 0 0.1084133957883862 -0.34479295633312412 0 0.092966490329917745 -0.32041846559688281 0 0.088118561352087246 -0.33979857477652331 0 0.1128448779895864 -0.31925518441769818 0 0.1084133957883862 -0.34479295633312412 0 0.092966490329917745 -0.32041846559688281 0 0.11260348525363879 -0.30072113564475778 0 0.1128448779895864 -0.31925518441769818 0 0.092966490329917745 -0.32041846559688281 0 0.1362379080380321 -0.36332994668916352 0 0.10891331270232341 -0.38144360499474811 0 0.1119545884721031 -0.36072015866415719 0 0.12658994079620289 -0.34776094089500581 0 0.1119545884721031 -0.36072015866415719 0 0.1084133957883862 -0.34479295633312412 0 0.12658994079620289 -0.34776094089500581 0 0.1362379080380321 -0.36332994668916352 0 0.1119545884721031 -0.36072015866415719 0 0.1119545884721031 -0.36072015866415719 0 0.1084133957883862 -0.34479295633312412 0 0.088629880534251013 -0.36082697052757251 0 0.1084133957883862 -0.34479295633312412 0 0.088629880534251013 -0.36082697052757251 0 0.1084133957883862 -0.34479295633312412 0 0.088629880534251013 -0.36082697052757251 0 0.088118561352087246 -0.33979857477652331 0 0.10891331270232341 -0.38144360499474811 0 0.1119545884721031 -0.36072015866415719 0 0.088629880534251013 -0.36082697052757251 0 0.10891331270232341 -0.38144360499474811 0 0.088629880534251013 -0.36082697052757251 0 0.10891331270232341 -0.38144360499474811 0 0.088409687624838917 -0.37475072894731609 0 0.088629880534251013 -0.36082697052757251 0 0.075810689404869638 -0.37563758875815001 0 0.084215555392716232 -0.36440466392882509 0 0.074488565180136607 -0.36602323175103801 0 0.075810689404869638 -0.37563758875815001 0 0.088409687624838917 -0.37475072894731609 0 0.084215555392716232 -0.36440466392882509 0 0.088409687624838917 -0.37475072894731609 0 0.088629880534251013 -0.36082697052757251 0 0.084215555392716232 -0.36440466392882509 0 0.088629880534251013 -0.36082697052757251 0 0.084215555392716232 -0.36440466392882509 0 0.088629880534251013 -0.36082697052757251 0 0.084215555392716232 -0.36440466392882509 0 0.073211648862358342 -0.35708657147902029 0 0.088629880534251013 -0.36082697052757251 0 0.069633587391853657 -0.34151861932234828 0 0.088629880534251013 -0.36082697052757251 0 0.088118561352087246 -0.33979857477652331 0 0.069633587391853657 -0.34151861932234828 0 0.088629880534251013 -0.36082697052757251 0 0.073211648862358342 -0.35708657147902029 0 0.069633587391853657 -0.34151861932234828 0 0.073211648862358342 -0.35708657147902029 0 0.069633587391853657 -0.34151861932234828 0 0.056372104383058078 -0.34798263864643442 0 0.073211648862358342 -0.35708657147902029 0 0.064716367060602256 -0.36696410283815639 0 0.056372104383058078 -0.34798263864643442 0 0.084215555392716232 -0.36440466392882509 0 0.073211648862358342 -0.35708657147902029 0 0.074488565180136607 -0.36602323175103801 0 0.073211648862358342 -0.35708657147902029 0 0.074488565180136607 -0.36602323175103801 0 0.064716367060602256 -0.36696410283815639 0 0.075810689404869638 -0.37563758875815001 0 0.074488565180136607 -0.36602323175103801 0 0.064716367060602256 -0.36696410283815639 0 0.092966490329917745 -0.32041846559688281 0 0.088118561352087246 -0.33979857477652331 0 0.071681467377036998 -0.31846947201907261 0 0.088118561352087246 -0.33979857477652331 0 0.069633587391853657 -0.34151861932234828 0 0.071681467377036998 -0.31846947201907261 0 0.069633587391853657 -0.34151861932234828 0 0.071681467377036998 -0.31846947201907261 0 0.05063729424945175 -0.32221026811712872 0 0.071681467377036998 -0.31846947201907261 0 0.05063729424945175 -0.32221026811712872 0 0.053560477607455831 -0.30670125821252969 0 0.05063729424945175 -0.32221026811712872 0 0.037297639051797123 -0.31638393869123338 0 0.053560477607455831 -0.30670125821252969 0 0.05063729424945175 -0.32221026811712872 0 0.034281258029730907 -0.3383617457822195 0 0.056372104383058078 -0.34798263864643442 0 0.069633587391853657 -0.34151861932234828 0 0.05063729424945175 -0.32221026811712872 0 0.056372104383058078 -0.34798263864643442 0 0.069633587391853657 -0.34151861932234828 0 0.05063729424945175 -0.32221026811712872 0 0.05063729424945175 -0.32221026811712872 0 0.034281258029730907 -0.3383617457822195 0 0.037297639051797123 -0.31638393869123338 0 0.034281258029730907 -0.3383617457822195 0 0.037297639051797123 -0.31638393869123338 0 0.022810045355110199 -0.3149689672247058 0 0.05722368337897233 -0.38514730289724691 0 0.064716367060602256 -0.36696410283815639 0 0.045752470704351622 -0.36175452433973321 0 0.05722368337897233 -0.38514730289724691 0 0.045752470704351622 -0.36175452433973321 0 0.064716367060602256 -0.36696410283815639 0 0.056372104383058078 -0.34798263864643442 0 0.045752470704351622 -0.36175452433973321 0 0.034281258029730907 -0.3383617457822195 0 0.056372104383058078 -0.34798263864643442 0 0.045752470704351622 -0.36175452433973321 0 0.034281258029730907 -0.3383617457822195 0 0.045752470704351622 -0.36175452433973321 0 0.034281258029730907 -0.3383617457822195 0 0.045752470704351622 -0.36175452433973321 0 0.017894737123697772 -0.35993508370626359 0 0.031951973385333107 -0.3857832005238796 0 0.045752470704351622 -0.36175452433973321 0 0.017894737123697772 -0.35993508370626359 0 0.031951973385333107 -0.3857832005238796 0 0.01345801989319451 -0.37851461018506999 0 0.017894737123697772 -0.35993508370626359 0 0.034281258029730907 -0.3383617457822195 0 0.017894737123697772 -0.35993508370626359 0 0.013938549193566871 -0.33797033000678861 0 -0.006052289153830593 -0.34246752775901951 0 0.017894737123697772 -0.35993508370626359 0 0.013938549193566871 -0.33797033000678861 0 -0.006052289153830593 -0.34246752775901951 0 -0.0070999278623810006 -0.37038466258880981 0 0.017894737123697772 -0.35993508370626359 0 -0.0070999278623810006 -0.37038466258880981 0 0.01345801989319451 -0.37851461018506999 0 0.017894737123697772 -0.35993508370626359 0 0.034281258029730907 -0.3383617457822195 0 0.022810045355110199 -0.3149689672247058 0 0.034281258029730907 -0.3383617457822195 0 0.01749519224460926 -0.32496284364003591 0 0.022810045355110199 -0.3149689672247058 0 0.01749519224460926 -0.32496284364003591 0 0.01699403200972743 -0.31367921540614779 0 0.022810045355110199 -0.3149689672247058 0 0.01699403200972743 -0.31367921540614779 0 0.022810045355110199 -0.3149689672247058 0 0.02279568864926524 -0.30927346193558852 0 0.037297639051797123 -0.31638393869123338 0 0.022810045355110199 -0.3149689672247058 0 0.02937689745304153 -0.31056919698947949 0 0.034281258029730907 -0.3383617457822195 0 0.01749519224460926 -0.32496284364003591 0 0.013938549193566871 -0.33797033000678861 0 -0.006052289153830593 -0.34246752775901951 0 0.013938549193566871 -0.33797033000678861 0 0.0061281706768574404 -0.3253655865646834 0 0.01749519224460926 -0.32496284364003591 0 0.013938549193566871 -0.33797033000678861 0 0.0061281706768574404 -0.3253655865646834 0 0.01749519224460926 -0.32496284364003591 0 0.0061281706768574404 -0.3253655865646834 0 0.0112213373696365 -0.3184859859232429 0 0.01749519224460926 -0.32496284364003591 0 0.01699403200972743 -0.31367921540614779 0 0.0112213373696365 -0.3184859859232429 0 0.01699403200972743 -0.31367921540614779 0 0.0112213373696365 -0.3184859859232429 0 0.0099581614676340184 -0.30986601398847857 0 0.0112213373696365 -0.3184859859232429 0 0.0051242209150190194 -0.31313469937757182 0 0.0099581614676340184 -0.30986601398847857 0 -0.0050046504452801862 -0.31455039292922921 0 0.0061281706768574404 -0.3253655865646834 0 0.0051242209150190194 -0.31313469937757182 0 0.0061281706768574404 -0.3253655865646834 0 0.0112213373696365 -0.3184859859232429 0 0.0051242209150190194 -0.31313469937757182 0 0.0051242209150190194 -0.31313469937757182 0 0.0064827862787574259 -0.30433489661295221 0 0.0099581614676340184 -0.30986601398847857 0 -0.0050046504452801862 -0.31455039292922921 0 0.0051242209150190194 -0.31313469937757182 0 0.0014857439162202829 -0.30163961953822932 0 0.0051242209150190194 -0.31313469937757182 0 0.0014857439162202829 -0.30163961953822932 0 0.0064827862787574259 -0.30433489661295221 0 0.01699403200972743 -0.31367921540614779 0 0.0099217668276059406 -0.29907353287026561 0 0.014496102527578381 -0.29030676702027519 0 0.0014857439162202829 -0.30163961953822932 0 0.004838065355767654 -0.29794440145418821 0 0.0014310531297864919 -0.29324006875599529 0 0.004838065355767654 -0.29794440145418821 0 0.0064827862787574259 -0.30433489661295221 0 0.0099217668276059406 -0.29907353287026561 0 0.0014857439162202829 -0.30163961953822932 0 0.004838065355767654 -0.29794440145418821 0 0.0064827862787574259 -0.30433489661295221 0 0.0064827862787574259 -0.30433489661295221 0 0.0099217668276059406 -0.29907353287026561 0 0.0099581614676340184 -0.30986601398847857 0 0.01699403200972743 -0.31367921540614779 0 0.0099217668276059406 -0.29907353287026561 0 0.0099581614676340184 -0.30986601398847857 0 0.0058382633899371544 -0.2842275103588342 0 0.0079395088448345197 -0.27995465494010402 0 0.0051759561947027823 -0.28010057957113099 0 0.0058382633899371544 -0.2842275103588342 0 0.002786342644558007 -0.28257127437115609 0 0.0051759561947027823 -0.28010057957113099 0 0.0058382633899371544 -0.2842275103588342 0 0.002786342644558007 -0.28257127437115609 0 0.0015919351063143729 -0.28595620194625088 0 0.002786342644558007 -0.28257127437115609 0 0.000320648496330543 -0.28135187959247648 0 0.0015919351063143729 -0.28595620194625088 0 0.002786342644558007 -0.28257127437115609 0 0.000320648496330543 -0.28135187959247648 0 0.0051759561947027823 -0.28010057957113099 0 0.0058382633899371544 -0.2842275103588342 0 0.0015919351063143729 -0.28595620194625088 0 0.0051481916019487147 -0.29032685470139491 0 0.0058382633899371544 -0.2842275103588342 0 0.0051481916019487147 -0.29032685470139491 0 0.0098253041083862878 -0.28814305259389239 0 0.004838065355767654 -0.29794440145418821 0 0.0099217668276059406 -0.29907353287026561 0 0.0051481916019487147 -0.29032685470139491 0 0.0015919351063143729 -0.28595620194625088 0 0.0051481916019487147 -0.29032685470139491 0 0.0014310531297864919 -0.29324006875599529 0 0.004838065355767654 -0.29794440145418821 0 0.0051481916019487147 -0.29032685470139491 0 0.0014310531297864919 -0.29324006875599529 0 0.0099217668276059406 -0.29907353287026561 0 0.0051481916019487147 -0.29032685470139491 0 0.0098253041083862878 -0.28814305259389239 0 0.0099217668276059406 -0.29907353287026561 0 0.014496102527578381 -0.29030676702027519 0 0.0098253041083862878 -0.28814305259389239 0 0.0058382633899371544 -0.2842275103588342 0 0.0098253041083862878 -0.28814305259389239 0 0.01370497444645079 -0.28290439622684038 0 0.0058382633899371544 -0.2842275103588342 0 0.01370497444645079 -0.28290439622684038 0 0.0079395088448345197 -0.27995465494010402 0 0.014496102527578381 -0.29030676702027519 0 0.0098253041083862878 -0.28814305259389239 0 0.01370497444645079 -0.28290439622684038 0 0.014496102527578381 -0.29030676702027519 0 0.01370497444645079 -0.28290439622684038 0 0.017911229969499919 -0.28333858463439132 0 0.014496102527578381 -0.29030676702027519 0 0.01370497444645079 -0.28290439622684038 0 0.017911229969499919 -0.28333858463439132 0 0.017291934488230739 -0.30780796654212422 0 0.017911229969499919 -0.28333858463439132 0 0.02618656513952097 -0.29489596334891272 0 0.02236126715651179 -0.30005486142631332 0 0.014496102527578381 -0.29030676702027519 0 0.017911229969499919 -0.28333858463439132 0 0.017291934488230739 -0.30780796654212422 0 0.02618656513952097 -0.29489596334891272 0 0.02690189659213138 -0.28638753548788243 0 0.032709667491242253 -0.29166488220354447 0 0.02618656513952097 -0.29489596334891272 0 0.032564911578608087 -0.29936760712160321 0 0.032709667491242253 -0.29166488220354447 0 0.02690189659213138 -0.28638753548788243 0 0.032709667491242253 -0.29166488220354447 0 0.032934409978921317 -0.28278493728509752 0 0.017911229969499919 -0.28333858463439132 0 0.02618656513952097 -0.29489596334891272 0 0.02690189659213138 -0.28638753548788243 0 0.017911229969499919 -0.28333858463439132 0 0.02690189659213138 -0.28638753548788243 0 0.0274957664859053 -0.27924877245720559 0 0.02690189659213138 -0.28638753548788243 0 0.032934409978921317 -0.28278493728509752 0 0.0274957664859053 -0.27924877245720559 0 0.01699403200972743 -0.31367921540614779 0 0.014496102527578381 -0.29030676702027519 0 0.01699403200972743 -0.31367921540614779 0 0.014496102527578381 -0.29030676702027519 0 0.017291934488230739 -0.30780796654212422 0 0.017911229969499919 -0.28333858463439132 0 0.017291934488230739 -0.30780796654212422 0 0.02236126715651179 -0.30005486142631332 0 0.02279568864926524 -0.30927346193558852 0 0.017291934488230739 -0.30780796654212422 0 0.02236126715651179 -0.30005486142631332 0 0.01699403200972743 -0.31367921540614779 0 0.02279568864926524 -0.30927346193558852 0 0.017291934488230739 -0.30780796654212422 0 0.02618656513952097 -0.29489596334891272 0 0.02236126715651179 -0.30005486142631332 0 0.027620917536042101 -0.30495833067054978 0 0.02618656513952097 -0.29489596334891272 0 0.027620917536042101 -0.30495833067054978 0 0.032564911578608087 -0.29936760712160321 0 0.02279568864926524 -0.30927346193558852 0 0.02236126715651179 -0.30005486142631332 0 0.027620917536042101 -0.30495833067054978 0 0.02279568864926524 -0.30927346193558852 0 0.027620917536042101 -0.30495833067054978 0 0.02937689745304153 -0.31056919698947949 0 0.022810045355110199 -0.3149689672247058 0 0.02279568864926524 -0.30927346193558852 0 0.02937689745304153 -0.31056919698947949 0 0.037297639051797123 -0.31638393869123338 0 0.02937689745304153 -0.31056919698947949 0 0.037121736423052637 -0.3057134306234961 0 0.037297639051797123 -0.31638393869123338 0 0.037121736423052637 -0.3057134306234961 0 0.053560477607455831 -0.30670125821252969 0 0.037121736423052637 -0.3057134306234961 0 0.042546091362869388 -0.29605001154180682 0 0.053560477607455831 -0.30670125821252969 0 0.027620917536042101 -0.30495833067054978 0 0.02937689745304153 -0.31056919698947949 0 0.037121736423052637 -0.3057134306234961 0 0.037121736423052637 -0.3057134306234961 0 0.032564911578608087 -0.29936760712160321 0 0.042546091362869388 -0.29605001154180682 0 0.027620917536042101 -0.30495833067054978 0 0.037121736423052637 -0.3057134306234961 0 0.032564911578608087 -0.29936760712160321 0 0.032564911578608087 -0.29936760712160321 0 0.032709667491242253 -0.29166488220354447 0 0.042546091362869388 -0.29605001154180682 0 0.032709667491242253 -0.29166488220354447 0 0.032934409978921317 -0.28278493728509752 0 0.045950176700451748 -0.28375997481696191 0 0.032709667491242253 -0.29166488220354447 0 0.045950176700451748 -0.28375997481696191 0 0.042546091362869388 -0.29605001154180682 0 0.045950176700451748 -0.28375997481696191 0 0.042546091362869388 -0.29605001154180682 0 0.059339898902209073 -0.28936321648372182 0 0.045950176700451748 -0.28375997481696191 0 0.059339898902209073 -0.28936321648372182 0 0.060172332273088922 -0.27535741372482059 0 0.042546091362869388 -0.29605001154180682 0 0.059339898902209073 -0.28936321648372182 0 0.053560477607455831 -0.30670125821252969 0 0.050347596805600678 -0.25499520659891772 0 0.059907189982764779 -0.26352186264137939 0 0.049728268477426049 -0.2693567051295932 0 0.064592416027369579 -0.25387350061472919 0 0.050347596805600678 -0.25499520659891772 0 0.059907189982764779 -0.26352186264137939 0 0.059907189982764779 -0.26352186264137939 0 0.060172332273088922 -0.27535741372482059 0 0.049728268477426049 -0.2693567051295932 0 0.045950176700451748 -0.28375997481696191 0 0.060172332273088922 -0.27535741372482059 0 0.049728268477426049 -0.2693567051295932 0 0.049728268477426049 -0.2693567051295932 0 0.034742845505046673 -0.27245763073049101 0 0.037080308223933732 -0.26046963527854972 0 0.045950176700451748 -0.28375997481696191 0 0.049728268477426049 -0.2693567051295932 0 0.034742845505046673 -0.27245763073049101 0 0.032934409978921317 -0.28278493728509752 0 0.034742845505046673 -0.27245763073049101 0 0.0274957664859053 -0.27924877245720559 0 0.032934409978921317 -0.28278493728509752 0 0.045950176700451748 -0.28375997481696191 0 0.034742845505046673 -0.27245763073049101 0 0.034742845505046673 -0.27245763073049101 0 0.037080308223933732 -0.26046963527854972 0 0.02795489550682366 -0.26293084166227432 0 0.037080308223933732 -0.26046963527854972 0 0.02443234797044128 -0.25158256542750629 0 0.041678195104438667 -0.24748963371488081 0 0.049728268477426049 -0.2693567051295932 0 0.037080308223933732 -0.26046963527854972 0 0.050347596805600678 -0.25499520659891772 0 0.049728268477426049 -0.2693567051295932 0 0.037080308223933732 -0.26046963527854972 0 0.050347596805600678 -0.25499520659891772 0 0.037080308223933732 -0.26046963527854972 0 0.041678195104438667 -0.24748963371488081 0 0.037080308223933732 -0.26046963527854972 0 0.02443234797044128 -0.25158256542750629 0 0.02443234797044128 -0.25158256542750629 0 0.02795489550682366 -0.26293084166227432 0 0.018530525450769279 -0.25886920272665842 0 0.02795489550682366 -0.26293084166227432 0 0.018530525450769279 -0.25886920272665842 0 0.024988450383927219 -0.27127517414816588 0 0.037080308223933732 -0.26046963527854972 0 0.02443234797044128 -0.25158256542750629 0 0.02795489550682366 -0.26293084166227432 0 0.018530525450769279 -0.25886920272665842 0 0.018814840887928039 -0.24763543270171909 0 0.02443234797044128 -0.25158256542750629 0 0.018530525450769279 -0.25886920272665842 0 0.018814840887928039 -0.24763543270171909 0 0.02443234797044128 -0.25158256542750629 0 0.018530525450769279 -0.25886920272665842 0 0.017911229969499919 -0.28333858463439132 0 0.018530525450769279 -0.25886920272665842 0 0.024988450383927219 -0.27127517414816588 0 0.017911229969499919 -0.28333858463439132 0 0.018530525450769279 -0.25886920272665842 0 0.017911229969499919 -0.28333858463439132 0 0.018530525450769279 -0.25886920272665842 0 0.01199817304542276 -0.26693431863440342 0 0.034742845505046673 -0.27245763073049101 0 0.0274957664859053 -0.27924877245720559 0 0.024988450383927219 -0.27127517414816588 0 0.017911229969499919 -0.28333858463439132 0 0.0274957664859053 -0.27924877245720559 0 0.024988450383927219 -0.27127517414816588 0 0.034742845505046673 -0.27245763073049101 0 0.02795489550682366 -0.26293084166227432 0 0.024988450383927219 -0.27127517414816588 0 -0.0031700831309584491 -0.26566344111058909 0 0.000320648496330543 -0.28135187959247648 0 0.008049893640766961 -0.27180902977345511 0 0.01370497444645079 -0.28290439622684038 0 0.008049893640766961 -0.27180902977345511 0 0.01199817304542276 -0.26693431863440342 0 0.01370497444645079 -0.28290439622684038 0 0.01199817304542276 -0.26693431863440342 0 0.01370497444645079 -0.28290439622684038 0 0.017911229969499919 -0.28333858463439132 0 0.01199817304542276 -0.26693431863440342 0 0.01370497444645079 -0.28290439622684038 0 0.008049893640766961 -0.27180902977345511 0 0.01370497444645079 -0.28290439622684038 0 0.0079395088448345197 -0.27995465494010402 0 0.008049893640766961 -0.27180902977345511 0 0.008049893640766961 -0.27180902977345511 0 0.01199817304542276 -0.26693431863440342 0 0.000320648496330543 -0.28135187959247648 0 0.008049893640766961 -0.27180902977345511 0 0.0051759561947027823 -0.28010057957113099 0 0.000320648496330543 -0.28135187959247648 0 0.008049893640766961 -0.27180902977345511 0 0.0079395088448345197 -0.27995465494010402 0 0.008049893640766961 -0.27180902977345511 0 0.0051759561947027823 -0.28010057957113099 0 0.01199817304542276 -0.26693431863440342 0 0.0092146759469183132 -0.24088989154706639 0 -0.002551672636748862 -0.24918423983054741 0 0.01199817304542276 -0.26693431863440342 0 0.0092146759469183132 -0.24088989154706639 0 -0.002551672636748862 -0.24918423983054741 0 0.008049893640766961 -0.27180902977345511 0 -0.002551672636748862 -0.24918423983054741 0 0.008049893640766961 -0.27180902977345511 0 0.01199817304542276 -0.26693431863440342 0 0.018530525450769279 -0.25886920272665842 0 0.01199817304542276 -0.26693431863440342 0 0.0092146759469183132 -0.24088989154706639 0 -0.0031700831309584491 -0.26566344111058909 0 -0.002551672636748862 -0.24918423983054741 0 0.008049893640766961 -0.27180902977345511 0 0.018530525450769279 -0.25886920272665842 0 0.01199817304542276 -0.26693431863440342 0 -0.002309199691408137 -0.24272289981668541 0 -0.002551672636748862 -0.24918423983054741 0 0.0092146759469183132 -0.24088989154706639 0 0.018530525450769279 -0.25886920272665842 0 0.0092146759469183132 -0.24088989154706639 0 0.018814840887928039 -0.24763543270171909 0 0.0092146759469183132 -0.24088989154706639 0 0.018814840887928039 -0.24763543270171909 0 0.0092146759469183132 -0.24088989154706639 0 0.0081550825674195013 -0.230975563801114 0 0.0092146759469183132 -0.24088989154706639 0 0.0031312501796658611 -0.2366153817728677 0 0.0081550825674195013 -0.230975563801114 0 -0.002309199691408137 -0.24272289981668541 0 0.0092146759469183132 -0.24088989154706639 0 0.0031312501796658611 -0.2366153817728677 0 0.0092146759469183132 -0.24088989154706639 0 0.0031312501796658611 -0.2366153817728677 0 -0.002309199691408137 -0.24272289981668541 0 0.0031312501796658611 -0.2366153817728677 0 -0.0031065021843879131 -0.23223243465240129 0 0.0031312501796658611 -0.2366153817728677 0 -0.0031065021843879131 -0.23223243465240129 0 -0.00087582063982097553 -0.20452668205685129 0 0.0075652150232455567 -0.22545633324264649 0 -0.0031065021843879131 -0.23223243465240129 0 0.0075652150232455567 -0.22545633324264649 0 -0.0031065021843879131 -0.23223243465240129 0 0.0030037936503003438 -0.23151056137015341 0 0.0075652150232455567 -0.22545633324264649 0 -0.0031065021843879131 -0.23223243465240129 0 0.0031312501796658611 -0.2366153817728677 0 0.0030037936503003438 -0.23151056137015341 0 0.0030037936503003438 -0.23151056137015341 0 0.0075652150232455567 -0.22545633324264649 0 0.0081550825674195013 -0.230975563801114 0 0.0031312501796658611 -0.2366153817728677 0 0.0081550825674195013 -0.230975563801114 0 0.0031312501796658611 -0.2366153817728677 0 0.0030037936503003438 -0.23151056137015341 0 0.0081550825674195013 -0.230975563801114 0 0.0075652150232455567 -0.22545633324264649 0 0.02024105808119336 -0.21740769436441951 0 0.0081550825674195013 -0.230975563801114 0 0.02024105808119336 -0.21740769436441951 0 0.0075652150232455567 -0.22545633324264649 0 0.0081550825674195013 -0.230975563801114 0 0.02024105808119336 -0.21740769436441951 0 0.0092146759469183132 -0.24088989154706639 0 0.0081550825674195013 -0.230975563801114 0 0.019346678880467261 -0.22662163985786099 0 0.0075652150232455567 -0.22545633324264649 0 0.0081550825674195013 -0.230975563801114 0 0.028752594722460528 -0.2262271903581497 0 0.02024105808119336 -0.21740769436441951 0 0.036250745175255679 -0.21876228914566431 0 0.0081550825674195013 -0.230975563801114 0 0.019346678880467261 -0.22662163985786099 0 0.02024105808119336 -0.21740769436441951 0 0.019346678880467261 -0.22662163985786099 0 0.028752594722460528 -0.2262271903581497 0 0.02024105808119336 -0.21740769436441951 0 0.019346678880467261 -0.22662163985786099 0 0.028752594722460528 -0.2262271903581497 0 0.027141871756007189 -0.23694849337899951 0 0.019346678880467261 -0.22662163985786099 0 0.027141871756007189 -0.23694849337899951 0 0.018814840887928039 -0.24763543270171909 0 0.02443234797044128 -0.25158256542750629 0 0.027141871756007189 -0.23694849337899951 0 0.040782619719378813 -0.23139583504380351 0 0.0092146759469183132 -0.24088989154706639 0 0.019346678880467261 -0.22662163985786099 0 0.018814840887928039 -0.24763543270171909 0 0.019346678880467261 -0.22662163985786099 0 0.018814840887928039 -0.24763543270171909 0 0.02443234797044128 -0.25158256542750629 0 0.027141871756007189 -0.23694849337899951 0 0.018814840887928039 -0.24763543270171909 0 0.02443234797044128 -0.25158256542750629 0 0.018814840887928039 -0.24763543270171909 0 -0.00087582063982097553 -0.20452668205685129 0 0.0049457380200389261 -0.20094659768246981 0 0.00013481440495943361 -0.17759560879793659 0 0.0049457380200389261 -0.20094659768246981 0 0.002326261016831655 -0.17643686212229309 0 0.0085292779997215538 -0.18775414117759889 0 0.0049457380200389261 -0.20094659768246981 0 0.0059546607577080236 -0.18352636874058431 0 0.0098824592075063018 -0.19108056875364249 0 0.016034261900112982 -0.19092769310400459 0 0.01366510472054849 -0.18557460339829551 0 0.01324193116129265 -0.19516894730359341 0 0.0098824592075063018 -0.19108056875364249 0 0.016034261900112982 -0.19092769310400459 0 0.01324193116129265 -0.19516894730359341 0 0.0098824592075063018 -0.19108056875364249 0 0.0099392933698488062 -0.19668103192984529 0 0.0098824592075063018 -0.19108056875364249 0 0.0085292779997215538 -0.18775414117759889 0 0.01366510472054849 -0.18557460339829551 0 0.0098824592075063018 -0.19108056875364249 0 0.0085292779997215538 -0.18775414117759889 0 0.0049457380200389261 -0.20094659768246981 0 0.0049457380200389261 -0.20094659768246981 0 0.0099392933698488062 -0.19668103192984529 0 0.012591042409193899 -0.20096778549068589 0 0.0098824592075063018 -0.19108056875364249 0 0.0049457380200389261 -0.20094659768246981 0 0.0099392933698488062 -0.19668103192984529 0 0.01324193116129265 -0.19516894730359341 0 0.012591042409193899 -0.20096778549068589 0 0.01776259891980126 -0.1961876572397884 0 0.01324193116129265 -0.19516894730359341 0 0.0099392933698488062 -0.19668103192984529 0 0.012591042409193899 -0.20096778549068589 0 0.0075652150232455567 -0.22545633324264649 0 0.0049457380200389261 -0.20094659768246981 0 0.0075652150232455567 -0.22545633324264649 0 0.0049457380200389261 -0.20094659768246981 0 0.0134326623124038 -0.2100357671332771 0 -0.00087582063982097553 -0.20452668205685129 0 0.0075652150232455567 -0.22545633324264649 0 0.0049457380200389261 -0.20094659768246981 0 0.0049457380200389261 -0.20094659768246981 0 0.012591042409193899 -0.20096778549068589 0 0.0134326623124038 -0.2100357671332771 0 0.012591042409193899 -0.20096778549068589 0 0.0134326623124038 -0.2100357671332771 0 0.01609572918976342 -0.20543077392715911 0 0.0075652150232455567 -0.22545633324264649 0 0.0134326623124038 -0.2100357671332771 0 0.02024105808119336 -0.21740769436441951 0 0.02024105808119336 -0.21740769436441951 0 0.042119696604798508 -0.20351565895354259 0 0.02024105808119336 -0.21740769436441951 0 0.03828525624081526 -0.197151048598385 0 0.02024105808119336 -0.21740769436441951 0 0.025178125881277331 -0.20510695066224849 0 0.03828525624081526 -0.197151048598385 0 0.0134326623124038 -0.2100357671332771 0 0.02024105808119336 -0.21740769436441951 0 0.01885550048650916 -0.2083715565747627 0 0.02024105808119336 -0.21740769436441951 0 0.025178125881277331 -0.20510695066224849 0 0.01885550048650916 -0.2083715565747627 0 0.025178125881277331 -0.20510695066224849 0 0.01885550048650916 -0.2083715565747627 0 0.01950371155094684 -0.2023479865099107 0 0.0134326623124038 -0.2100357671332771 0 0.01885550048650916 -0.2083715565747627 0 0.01609572918976342 -0.20543077392715911 0 0.01885550048650916 -0.2083715565747627 0 0.01609572918976342 -0.20543077392715911 0 0.01950371155094684 -0.2023479865099107 0 0.012591042409193899 -0.20096778549068589 0 0.01950371155094684 -0.2023479865099107 0 0.01776259891980126 -0.1961876572397884 0 0.012591042409193899 -0.20096778549068589 0 0.01609572918976342 -0.20543077392715911 0 0.01950371155094684 -0.2023479865099107 0 0.01950371155094684 -0.2023479865099107 0 0.01776259891980126 -0.1961876572397884 0 0.023644653724715529 -0.19868315255065611 0 0.01776259891980126 -0.1961876572397884 0 0.023644653724715529 -0.19868315255065611 0 0.022258026223151262 -0.19220512564754849 0 0.025178125881277331 -0.20510695066224849 0 0.01950371155094684 -0.2023479865099107 0 0.023644653724715529 -0.19868315255065611 0 0.025178125881277331 -0.20510695066224849 0 0.029380327624970389 -0.19911919892392449 0 0.03828525624081526 -0.197151048598385 0 0.025178125881277331 -0.20510695066224849 0 0.029380327624970389 -0.19911919892392449 0 0.023644653724715529 -0.19868315255065611 0 0.029380327624970389 -0.19911919892392449 0 0.028071003261256201 -0.1942804515191327 0 0.032495425892055202 -0.19598398683425261 0 0.029380327624970389 -0.19911919892392449 0 0.023644653724715529 -0.19868315255065611 0 0.028071003261256201 -0.1942804515191327 0 0.023644653724715529 -0.19868315255065611 0 0.028071003261256201 -0.1942804515191327 0 0.022258026223151262 -0.19220512564754849 0 0.028071003261256201 -0.1942804515191327 0 0.032784883211337067 -0.19155706646391771 0 0.032495425892055202 -0.19598398683425261 0 0.028071003261256201 -0.1942804515191327 0 0.027516230561243318 -0.18770279133546991 0 0.032784883211337067 -0.19155706646391771 0 0.028071003261256201 -0.1942804515191327 0 0.027516230561243318 -0.18770279133546991 0 0.022258026223151262 -0.19220512564754849 0 0.027516230561243318 -0.18770279133546991 0 0.022258026223151262 -0.19220512564754849 0 0.020299448487014479 -0.1867890277921701 0 0.01776259891980126 -0.1961876572397884 0 0.022258026223151262 -0.19220512564754849 0 0.016034261900112982 -0.19092769310400459 0 0.01324193116129265 -0.19516894730359341 0 0.01776259891980126 -0.1961876572397884 0 0.016034261900112982 -0.19092769310400459 0 0.022258026223151262 -0.19220512564754849 0 0.016034261900112982 -0.19092769310400459 0 0.020299448487014479 -0.1867890277921701 0 0.016034261900112982 -0.19092769310400459 0 0.020299448487014479 -0.1867890277921701 0 0.01366510472054849 -0.18557460339829551 0 0.032784883211337067 -0.19155706646391771 0 0.03828525624081526 -0.197151048598385 0 0.034934833246328047 -0.18424443092605339 0 0.027516230561243318 -0.18770279133546991 0 0.032784883211337067 -0.19155706646391771 0 0.034934833246328047 -0.18424443092605339 0 0.032784883211337067 -0.19155706646391771 0 0.03828525624081526 -0.197151048598385 0 0.032495425892055202 -0.19598398683425261 0 0.029380327624970389 -0.19911919892392449 0 0.03828525624081526 -0.197151048598385 0 0.032495425892055202 -0.19598398683425261 0 0.02024105808119336 -0.21740769436441951 0 0.03828525624081526 -0.197151048598385 0 0.042119696604798508 -0.20351565895354259 0 0.02024105808119336 -0.21740769436441951 0 0.042119696604798508 -0.20351565895354259 0 0.036250745175255679 -0.21876228914566431 0 0.042119696604798508 -0.20351565895354259 0 0.047966551590419383 -0.21637456006014791 0 0.036250745175255679 -0.21876228914566431 0 0.047966551590419383 -0.21637456006014791 0 0.059771456076752438 -0.21337061057231579 0 0.055478977061962233 -0.20504102357742379 0 0.047966551590419383 -0.21637456006014791 0 0.059771456076752438 -0.21337061057231579 0 0.056010943433504198 -0.2260635753025963 0 0.059771456076752438 -0.21337061057231579 0 0.055478977061962233 -0.20504102357742379 0 0.066714671644623538 -0.20293462137867591 0 0.042119696604798508 -0.20351565895354259 0 0.047966551590419383 -0.21637456006014791 0 0.055478977061962233 -0.20504102357742379 0 0.03828525624081526 -0.197151048598385 0 0.06399833512840325 -0.18962362354266521 0 0.056329454400437753 -0.17689440283235089 0 0.042119696604798508 -0.20351565895354259 0 0.055478977061962233 -0.20504102357742379 0 0.06399833512840325 -0.18962362354266521 0 0.042119696604798508 -0.20351565895354259 0 0.06399833512840325 -0.18962362354266521 0 0.03828525624081526 -0.197151048598385 0 0.042119696604798508 -0.20351565895354259 0 0.06399833512840325 -0.18962362354266521 0 0.055478977061962233 -0.20504102357742379 0 0.06399833512840325 -0.18962362354266521 0 0.066714671644623538 -0.20293462137867591 0 0.041678195104438667 -0.24748963371488081 0 0.040782619719378813 -0.23139583504380351 0 0.055748102802838817 -0.23900492622562691 0 0.02443234797044128 -0.25158256542750629 0 0.040782619719378813 -0.23139583504380351 0 0.02443234797044128 -0.25158256542750629 0 0.041678195104438667 -0.24748963371488081 0 0.040782619719378813 -0.23139583504380351 0 0.028752594722460528 -0.2262271903581497 0 0.027141871756007189 -0.23694849337899951 0 0.040782619719378813 -0.23139583504380351 0 0.028752594722460528 -0.2262271903581497 0 0.036250745175255679 -0.21876228914566431 0 0.040782619719378813 -0.23139583504380351 0 0.047966551590419383 -0.21637456006014791 0 0.036250745175255679 -0.21876228914566431 0 0.040782619719378813 -0.23139583504380351 0 0.040782619719378813 -0.23139583504380351 0 0.056010943433504198 -0.2260635753025963 0 0.055748102802838817 -0.23900492622562691 0 0.047966551590419383 -0.21637456006014791 0 0.040782619719378813 -0.23139583504380351 0 0.056010943433504198 -0.2260635753025963 0 0.059771456076752438 -0.21337061057231579 0 0.056010943433504198 -0.2260635753025963 0 0.068108202654691405 -0.220600567098893 0 0.056010943433504198 -0.2260635753025963 0 0.055748102802838817 -0.23900492622562691 0 0.068629048167386519 -0.23182755555620241 0 0.064592416027369579 -0.25387350061472919 0 0.050347596805600678 -0.25499520659891772 0 0.055748102802838817 -0.23900492622562691 0 0.050347596805600678 -0.25499520659891772 0 0.041678195104438667 -0.24748963371488081 0 0.055748102802838817 -0.23900492622562691 0 0.064592416027369579 -0.25387350061472919 0 0.055748102802838817 -0.23900492622562691 0 0.068241726394607183 -0.24238974800193491 0 0.064592416027369579 -0.25387350061472919 0 0.089104683742629823 -0.25186236383003768 0 0.068241726394607183 -0.24238974800193491 0 0.055748102802838817 -0.23900492622562691 0 0.068241726394607183 -0.24238974800193491 0 0.068629048167386519 -0.23182755555620241 0 0.068241726394607183 -0.24238974800193491 0 0.082372433331934058 -0.23696481675495451 0 0.068629048167386519 -0.23182755555620241 0 0.089104683742629823 -0.25186236383003768 0 0.082372433331934058 -0.23696481675495451 0 0.09750170390633553 -0.22903325908424119 0 0.089104683742629823 -0.25186236383003768 0 0.068241726394607183 -0.24238974800193491 0 0.089104683742629823 -0.25186236383003768 0 0.068241726394607183 -0.24238974800193491 0 0.082372433331934058 -0.23696481675495451 0 0.079761919339725207 -0.22008991635524919 0 0.090894790512065213 -0.20835227715429719 0 0.09750170390633553 -0.22903325908424119 0 0.082372433331934058 -0.23696481675495451 0 0.079761919339725207 -0.22008991635524919 0 0.09750170390633553 -0.22903325908424119 0 0.079761919339725207 -0.22008991635524919 0 0.068629048167386519 -0.23182755555620241 0 0.082372433331934058 -0.23696481675495451 0 0.079761919339725207 -0.22008991635524919 0 0.068629048167386519 -0.23182755555620241 0 0.079761919339725207 -0.22008991635524919 0 0.068629048167386519 -0.23182755555620241 0 0.068108202654691405 -0.220600567098893 0 0.056010943433504198 -0.2260635753025963 0 0.068629048167386519 -0.23182755555620241 0 0.068108202654691405 -0.220600567098893 0 0.059771456076752438 -0.21337061057231579 0 0.068108202654691405 -0.220600567098893 0 0.070045743855220249 -0.212743654042615 0 0.059771456076752438 -0.21337061057231579 0 0.070045743855220249 -0.212743654042615 0 0.066714671644623538 -0.20293462137867591 0 0.070045743855220249 -0.212743654042615 0 0.075872469560308561 -0.2067225548079408 0 0.066714671644623538 -0.20293462137867591 0 0.079761919339725207 -0.22008991635524919 0 0.070045743855220249 -0.212743654042615 0 0.075872469560308561 -0.2067225548079408 0 0.079761919339725207 -0.22008991635524919 0 0.068108202654691405 -0.220600567098893 0 0.070045743855220249 -0.212743654042615 0 0.06399833512840325 -0.18962362354266521 0 0.066714671644623538 -0.20293462137867591 0 0.075445735843100742 -0.19533972858262599 0 0.075872469560308561 -0.2067225548079408 0 0.066714671644623538 -0.20293462137867591 0 0.075445735843100742 -0.19533972858262599 0 0.06399833512840325 -0.18962362354266521 0 0.075445735843100742 -0.19533972858262599 0 0.071593842318696949 -0.1824001613223647 0 0.075445735843100742 -0.19533972858262599 0 0.090894790512065213 -0.20835227715429719 0 0.082634221536064673 -0.18249501711030749 0 0.090894790512065213 -0.20835227715429719 0 0.096629506669042478 -0.1819964024634701 0 0.082634221536064673 -0.18249501711030749 0 0.090894790512065213 -0.20835227715429719 0 0.082634221536064673 -0.18249501711030749 0 0.079761919339725207 -0.22008991635524919 0 0.090894790512065213 -0.20835227715429719 0 0.079761919339725207 -0.22008991635524919 0 0.075872469560308561 -0.2067225548079408 0 0.090894790512065213 -0.20835227715429719 0 0.075872469560308561 -0.2067225548079408 0 0.075445735843100742 -0.19533972858262599 0 0.090894790512065213 -0.20835227715429719 0 0.090894790512065213 -0.20835227715429719 0 0.10876908588037811 -0.2120604579685543 0 0.10737622789356149 -0.19097552299066331 0 0.090894790512065213 -0.20835227715429719 0 0.09750170390633553 -0.22903325908424119 0 0.090894790512065213 -0.20835227715429719 0 0.10876908588037811 -0.2120604579685543 0 0.09750170390633553 -0.22903325908424119 0 0.090894790512065213 -0.20835227715429719 0 0.10737622789356149 -0.19097552299066331 0 0.090894790512065213 -0.20835227715429719 0 0.10737622789356149 -0.19097552299066331 0 0.096629506669042478 -0.1819964024634701 0 0.10737622789356149 -0.19097552299066331 0 0.1235098410480293 -0.1897733682860277 0 0.12529485837298551 -0.2052603223955643 0 0.10876908588037811 -0.2120604579685543 0 0.10737622789356149 -0.19097552299066331 0 0.12529485837298551 -0.2052603223955643 0 0.10876908588037811 -0.2120604579685543 0 0.12183539310184011 -0.22622498648806369 0 0.12529485837298551 -0.2052603223955643 0 0.12183539310184011 -0.22622498648806369 0 0.1123268442063263 -0.2422076389170805 0 0.09750170390633553 -0.22903325908424119 0 0.12183539310184011 -0.22622498648806369 0 0.1123268442063263 -0.2422076389170805 0 0.1369019475988357 -0.2498452913983702 0 0.089104683742629823 -0.25186236383003768 0 0.1123268442063263 -0.2422076389170805 0 0.09750170390633553 -0.22903325908424119 0 0.10876908588037811 -0.2120604579685543 0 0.12183539310184011 -0.22622498648806369 0 0.09750170390633553 -0.22903325908424119 0 0.10792504489528271 -0.1436606208568707 0 0.098337381410934246 -0.15519886427276169 0 0.1177942791398789 -0.15530355353830849 0 0.10792504489528271 -0.1436606208568707 0 0.098337381410934246 -0.15519886427276169 0 0.093639805884414631 -0.1350093289304051 0 0.10792504489528271 -0.1436606208568707 0 0.093639805884414631 -0.1350093289304051 0 0.112905959208769 -0.1133809007944933 0 0.10792504489528271 -0.1436606208568707 0 0.12319275534426111 -0.13963038495700819 0 0.112905959208769 -0.1133809007944933 0 0.12319275534426111 -0.13963038495700819 0 0.1177942791398789 -0.15530355353830849 0 0.1273970520991638 -0.1532817867802074 0 0.10792504489528271 -0.1436606208568707 0 0.12319275534426111 -0.13963038495700819 0 0.1177942791398789 -0.15530355353830849 0 0.1238576652750592 -0.17359876882703071 0 0.1090159651295127 -0.16900761211569851 0 0.1307563894025707 -0.1664409111024284 0 0.1090159651295127 -0.16900761211569851 0 0.1307563894025707 -0.1664409111024284 0 0.1177942791398789 -0.15530355353830849 0 0.1090159651295127 -0.16900761211569851 0 0.1307563894025707 -0.1664409111024284 0 0.10737622789356149 -0.19097552299066331 0 0.1235098410480293 -0.1897733682860277 0 0.1238576652750592 -0.17359876882703071 0 0.10737622789356149 -0.19097552299066331 0 0.1238576652750592 -0.17359876882703071 0 0.1090159651295127 -0.16900761211569851 0 0.10737622789356149 -0.19097552299066331 0 0.1238576652750592 -0.17359876882703071 0 0.10737622789356149 -0.19097552299066331 0 0.096629506669042478 -0.1819964024634701 0 0.1090159651295127 -0.16900761211569851 0 0.096629506669042478 -0.1819964024634701 0 0.1090159651295127 -0.16900761211569851 0 0.087275540856454628 -0.1715743131289687 0 0.098337381410934246 -0.15519886427276169 0 0.1090159651295127 -0.16900761211569851 0 0.087275540856454628 -0.1715743131289687 0 0.098337381410934246 -0.15519886427276169 0 0.1177942791398789 -0.15530355353830849 0 0.1090159651295127 -0.16900761211569851 0 0.1090159651295127 -0.16900761211569851 0 0.087275540856454628 -0.1715743131289687 0 0.098337381410934246 -0.15519886427276169 0 0.087275540856454628 -0.1715743131289687 0 0.074373652560062092 -0.15663775706631849 0 0.082634221536064673 -0.18249501711030749 0 0.074373652560062092 -0.15663775706631849 0 0.087275540856454628 -0.1715743131289687 0 0.082634221536064673 -0.18249501711030749 0 0.074373652560062092 -0.15663775706631849 0 0.096629506669042478 -0.1819964024634701 0 0.087275540856454628 -0.1715743131289687 0 0.082634221536064673 -0.18249501711030749 0 0.075445735843100742 -0.19533972858262599 0 0.082634221536064673 -0.18249501711030749 0 0.071593842318696949 -0.1824001613223647 0 0.082634221536064673 -0.18249501711030749 0 0.071593842318696949 -0.1824001613223647 0 0.071137209079861638 -0.17191982145859261 0 0.071593842318696949 -0.1824001613223647 0 0.071137209079861638 -0.17191982145859261 0 0.056329454400437753 -0.17689440283235089 0 0.06399833512840325 -0.18962362354266521 0 0.071593842318696949 -0.1824001613223647 0 0.056329454400437753 -0.17689440283235089 0 0.082634221536064673 -0.18249501711030749 0 0.071137209079861638 -0.17191982145859261 0 0.074373652560062092 -0.15663775706631849 0 0.074373652560062092 -0.15663775706631849 0 0.056329454400437753 -0.17689440283235089 0 0.071137209079861638 -0.17191982145859261 0 0.074373652560062092 -0.15663775706631849 0 0.056329454400437753 -0.17689440283235089 0 0.074373652560062092 -0.15663775706631849 0 0.068037275856194429 -0.1368036099700822 0 0.057238716073529518 -0.14976405586003039 0 0.074373652560062092 -0.15663775706631849 0 0.068037275856194429 -0.1368036099700822 0 0.074373652560062092 -0.15663775706631849 0 0.093639805884414631 -0.1350093289304051 0 0.074373652560062092 -0.15663775706631849 0 0.093639805884414631 -0.1350093289304051 0 0.068037275856194429 -0.1368036099700822 0 0.098337381410934246 -0.15519886427276169 0 0.074373652560062092 -0.15663775706631849 0 0.093639805884414631 -0.1350093289304051 0 0.093639805884414631 -0.1350093289304051 0 0.068037275856194429 -0.1368036099700822 0 0.074088235244244849 -0.1151598881146773 0 0.068037275856194429 -0.1368036099700822 0 0.048343327885973342 -0.1376607601685037 0 0.051443199373898567 -0.1204896733513115 0 0.068037275856194429 -0.1368036099700822 0 0.048343327885973342 -0.1376607601685037 0 0.057238716073529518 -0.14976405586003039 0 0.074373652560062092 -0.15663775706631849 0 0.057238716073529518 -0.14976405586003039 0 0.051448738971843003 -0.1616204158297366 0 0.057238716073529518 -0.14976405586003039 0 0.043482311448939999 -0.15063682519479629 0 0.051448738971843003 -0.1616204158297366 0 0.048343327885973342 -0.1376607601685037 0 0.057238716073529518 -0.14976405586003039 0 0.043482311448939999 -0.15063682519479629 0 0.043482311448939999 -0.15063682519479629 0 0.031666305584476757 -0.14012137478838929 0 0.031579969327171227 -0.16038476915116689 0 0.048343327885973342 -0.1376607601685037 0 0.043482311448939999 -0.15063682519479629 0 0.031666305584476757 -0.14012137478838929 0 0.048343327885973342 -0.1376607601685037 0 0.036683546128011633 -0.12671383904542469 0 0.051443199373898567 -0.1204896733513115 0 0.048343327885973342 -0.1376607601685037 0 0.036683546128011633 -0.12671383904542469 0 0.031666305584476757 -0.14012137478838929 0 0.03828525624081526 -0.197151048598385 0 0.056329454400437753 -0.17689440283235089 0 0.074373652560062092 -0.15663775706631849 0 0.056329454400437753 -0.17689440283235089 0 0.051448738971843003 -0.1616204158297366 0 0.056329454400437753 -0.17689440283235089 0 0.051448738971843003 -0.1616204158297366 0 0.045688330020917468 -0.17540468487375671 0 0.043482311448939999 -0.15063682519479629 0 0.051448738971843003 -0.1616204158297366 0 0.031579969327171227 -0.16038476915116689 0 0.051448738971843003 -0.1616204158297366 0 0.031579969327171227 -0.16038476915116689 0 0.045688330020917468 -0.17540468487375671 0 0.031579969327171227 -0.16038476915116689 0 0.045688330020917468 -0.17540468487375671 0 0.031579969327171227 -0.16038476915116689 0 0.045688330020917468 -0.17540468487375671 0 0.032882988694005369 -0.17404179602742931 0 0.03828525624081526 -0.197151048598385 0 0.056329454400437753 -0.17689440283235089 0 0.045688330020917468 -0.17540468487375671 0 0.03828525624081526 -0.197151048598385 0 0.045688330020917468 -0.17540468487375671 0 0.034934833246328047 -0.18424443092605339 0 0.045688330020917468 -0.17540468487375671 0 0.032882988694005369 -0.17404179602742931 0 0.034934833246328047 -0.18424443092605339 0 0.032882988694005369 -0.17404179602742931 0 0.034934833246328047 -0.18424443092605339 0 0.028621173795873131 -0.18105499821633531 0 0.018629787969523821 -0.18125989128642039 0 0.020299448487014479 -0.1867890277921701 0 0.01366510472054849 -0.18557460339829551 0 0.018629787969523821 -0.18125989128642039 0 0.023889305679515891 -0.18289619123855869 0 0.02388251079827303 -0.17638978155416529 0 0.018629787969523821 -0.18125989128642039 0 0.020299448487014479 -0.1867890277921701 0 0.023889305679515891 -0.18289619123855869 0 0.027516230561243318 -0.18770279133546991 0 0.028621173795873131 -0.18105499821633531 0 0.023889305679515891 -0.18289619123855869 0 0.027516230561243318 -0.18770279133546991 0 0.020299448487014479 -0.1867890277921701 0 0.023889305679515891 -0.18289619123855869 0 0.027516230561243318 -0.18770279133546991 0 0.034934833246328047 -0.18424443092605339 0 0.028621173795873131 -0.18105499821633531 0 0.028621173795873131 -0.18105499821633531 0 0.023889305679515891 -0.18289619123855869 0 0.02388251079827303 -0.17638978155416529 0 0.032882988694005369 -0.17404179602742931 0 0.028621173795873131 -0.18105499821633531 0 0.02388251079827303 -0.17638978155416529 0 0.032882988694005369 -0.17404179602742931 0 0.02388251079827303 -0.17638978155416529 0 0.025663657133298729 -0.16836397490439661 0 0.018629787969523821 -0.18125989128642039 0 0.02388251079827303 -0.17638978155416529 0 0.016744013669873329 -0.17646066784830861 0 0.018629787969523821 -0.18125989128642039 0 0.016744013669873329 -0.17646066784830861 0 0.012716535403566379 -0.179798477657856 0 0.02388251079827303 -0.17638978155416529 0 0.016744013669873329 -0.17646066784830861 0 0.017033451361837849 -0.1702136052927451 0 0.02388251079827303 -0.17638978155416529 0 0.017033451361837849 -0.1702136052927451 0 0.025663657133298729 -0.16836397490439661 0 0.017033451361837849 -0.1702136052927451 0 0.025663657133298729 -0.16836397490439661 0 0.017132406232319201 -0.15844025946753951 0 0.031579969327171227 -0.16038476915116689 0 0.032882988694005369 -0.17404179602742931 0 0.025663657133298729 -0.16836397490439661 0 0.031579969327171227 -0.16038476915116689 0 0.025663657133298729 -0.16836397490439661 0 0.017132406232319201 -0.15844025946753951 0 -0.00029321598637492558 -0.1519271265621164 0 0.0069045142837660372 -0.16450819743325271 0 0.002326261016831655 -0.17643686212229309 0 -0.00029321598637492558 -0.1519271265621164 0 0.017132406232319201 -0.15844025946753951 0 0.0069045142837660372 -0.16450819743325271 0 -0.00029321598637492558 -0.1519271265621164 0 0.002326261016831655 -0.17643686212229309 0 0.0069045142837660372 -0.16450819743325271 0 0.0072041890365963524 -0.17388227251172969 0 0.002326261016831655 -0.17643686212229309 0 0.0069045142837660372 -0.16450819743325271 0 0.010154048231353191 -0.17115616820469359 0 0.0072041890365963524 -0.17388227251172969 0 0.017033451361837849 -0.1702136052927451 0 0.0069045142837660372 -0.16450819743325271 0 0.010154048231353191 -0.17115616820469359 0 0.017033451361837849 -0.1702136052927451 0 0.017132406232319201 -0.15844025946753951 0 0.0069045142837660372 -0.16450819743325271 0 0.0049457380200389261 -0.20094659768246981 0 0.002326261016831655 -0.17643686212229309 0 0.0059546607577080236 -0.18352636874058431 0 0.0049457380200389261 -0.20094659768246981 0 0.00013481440495943361 -0.17759560879793659 0 0.002326261016831655 -0.17643686212229309 0 0.016744013669873329 -0.17646066784830861 0 0.017033451361837849 -0.1702136052927451 0 0.01199624860200183 -0.17503895265842509 0 0.017033451361837849 -0.1702136052927451 0 0.010154048231353191 -0.17115616820469359 0 0.01199624860200183 -0.17503895265842509 0 0.016744013669873329 -0.17646066784830861 0 0.01199624860200183 -0.17503895265842509 0 0.012716535403566379 -0.179798477657856 0 0.01199624860200183 -0.17503895265842509 0 0.008125253908783877 -0.17872252443521769 0 0.0072041890365963524 -0.17388227251172969 0 0.01199624860200183 -0.17503895265842509 0 0.008125253908783877 -0.17872252443521769 0 0.012716535403566379 -0.179798477657856 0 0.010154048231353191 -0.17115616820469359 0 0.01199624860200183 -0.17503895265842509 0 0.0072041890365963524 -0.17388227251172969 0 0.008125253908783877 -0.17872252443521769 0 0.0072041890365963524 -0.17388227251172969 0 0.0059025911799799784 -0.17814200695245619 0 0.002326261016831655 -0.17643686212229309 0 0.0059025911799799784 -0.17814200695245619 0 0.0059546607577080236 -0.18352636874058431 0 0.0072041890365963524 -0.17388227251172969 0 0.002326261016831655 -0.17643686212229309 0 0.0059025911799799784 -0.17814200695245619 0 0.008125253908783877 -0.17872252443521769 0 0.0059025911799799784 -0.17814200695245619 0 0.0059546607577080236 -0.18352636874058431 0 0.0085292779997215538 -0.18775414117759889 0 0.009876182918511861 -0.18296740929988431 0 0.01366510472054849 -0.18557460339829551 0 0.0085292779997215538 -0.18775414117759889 0 0.0059546607577080236 -0.18352636874058431 0 0.009876182918511861 -0.18296740929988431 0 0.008125253908783877 -0.17872252443521769 0 0.009876182918511861 -0.18296740929988431 0 0.012716535403566379 -0.179798477657856 0 0.008125253908783877 -0.17872252443521769 0 0.0059546607577080236 -0.18352636874058431 0 0.009876182918511861 -0.18296740929988431 0 0.018629787969523821 -0.18125989128642039 0 0.012716535403566379 -0.179798477657856 0 0.01366510472054849 -0.18557460339829551 0 0.009876182918511861 -0.18296740929988431 0 0.012716535403566379 -0.179798477657856 0 0.01366510472054849 -0.18557460339829551 0 0.01747160863342449 -0.14536485342857741 0 0.0070531049726929827 -0.13427320002273149 0 0.022405976644837251 -0.1242135834057001 0 0.036683546128011633 -0.12671383904542469 0 0.031666305584476757 -0.14012137478838929 0 0.022405976644837251 -0.1242135834057001 0 0.031666305584476757 -0.14012137478838929 0 0.01747160863342449 -0.14536485342857741 0 0.022405976644837251 -0.1242135834057001 0 0.031666305584476757 -0.14012137478838929 0 0.01747160863342449 -0.14536485342857741 0 0.031666305584476757 -0.14012137478838929 0 0.031579969327171227 -0.16038476915116689 0 0.01747160863342449 -0.14536485342857741 0 0.031579969327171227 -0.16038476915116689 0 0.01747160863342449 -0.14536485342857741 0 0.031579969327171227 -0.16038476915116689 0 0.017132406232319201 -0.15844025946753951 0 0.01747160863342449 -0.14536485342857741 0 -0.00029321598637492558 -0.1519271265621164 0 0.017132406232319201 -0.15844025946753951 0 0.01747160863342449 -0.14536485342857741 0 -0.00029321598637492558 -0.1519271265621164 0 0.01747160863342449 -0.14536485342857741 0 0.0070531049726929827 -0.13427320002273149 0 -0.00029321598637492558 -0.1519271265621164 0 0.01747160863342449 -0.14536485342857741 0 -0.003365398688040238 -0.12318154661688729 0 -0.00029321598637492558 -0.1519271265621164 0 0.0070531049726929827 -0.13427320002273149 0 -0.003365398688040238 -0.12318154661688729 0 0.0070531049726929827 -0.13427320002273149 0 0.0096353595797366628 -0.1177586483662684 0 0.0070531049726929827 -0.13427320002273149 0 0.0096353595797366628 -0.1177586483662684 0 0.022405976644837251 -0.1242135834057001 0 0.01747160863342449 -0.14536485342857741 0 0.0070531049726929827 -0.13427320002273149 0 -0.003365398688040238 -0.12318154661688729 0 0.0070531049726929827 -0.13427320002273149 0 -0.0042178102837748012 -0.1152057626057062 0 0.0096353595797366628 -0.1177586483662684 0 0.018497602973985429 -0.10390643231313131 0 -0.0042178102837748012 -0.1152057626057062 0 -0.003365398688040238 -0.12318154661688729 0 0.0096353595797366628 -0.1177586483662684 0 -0.0042178102837748012 -0.1152057626057062 0 0.018497602973985429 -0.10390643231313131 0 0.0096353595797366628 -0.1177586483662684 0 0.022405976644837251 -0.1242135834057001 0 0.018497602973985429 -0.10390643231313131 0 0.022405976644837251 -0.1242135834057001 0 0.018497602973985429 -0.10390643231313131 0 0.035889483117247892 -0.1110170682638876 0 0.018497602973985429 -0.10390643231313131 0 0.041213016231746141 -0.092607102020557608 0 0.018497602973985429 -0.10390643231313131 0 0.025164505554147409 -0.088363954385675236 0 0.041213016231746141 -0.092607102020557608 0 -0.0063575468247982752 -0.095184828379244052 0 0.018497602973985429 -0.10390643231313131 0 0.0093292929231258565 -0.083383488769817202 0 -0.0063575468247982752 -0.095184828379244052 0 -0.0042178102837748012 -0.1152057626057062 0 0.018497602973985429 -0.10390643231313131 0 -0.008497283365819109 -0.075163894152781574 0 0.0093292929231258565 -0.083383488769817202 0 0.011137116921547461 -0.069263182716445465 0 -0.008497283365819109 -0.075163894152781574 0 0.011137116921547461 -0.069263182716445465 0 0.002974761349226791 -0.057600111844622673 0 0.0093292929231258565 -0.083383488769817202 0 0.011137116921547461 -0.069263182716445465 0 0.025151296679735868 -0.071763989857217797 0 0.011137116921547461 -0.069263182716445465 0 0.025151296679735868 -0.071763989857217797 0 0.021401024806239 -0.055359675166318179 0 0.025151296679735868 -0.071763989857217797 0 0.03991228784683809 -0.063564952647474054 0 0.021401024806239 -0.055359675166318179 0 0.018497602973985429 -0.10390643231313131 0 0.0093292929231258565 -0.083383488769817202 0 0.025164505554147409 -0.088363954385675236 0 0.0093292929231258565 -0.083383488769817202 0 0.025151296679735868 -0.071763989857217797 0 0.025164505554147409 -0.088363954385675236 0 0.025164505554147409 -0.088363954385675236 0 0.041213016231746141 -0.092607102020557608 0 0.047197573153018882 -0.077008714885212229 0 0.025151296679735868 -0.071763989857217797 0 0.025164505554147409 -0.088363954385675236 0 0.047197573153018882 -0.077008714885212229 0 0.025151296679735868 -0.071763989857217797 0 0.03991228784683809 -0.063564952647474054 0 0.047197573153018882 -0.077008714885212229 0 0.047197573153018882 -0.077008714885212229 0 0.056693753894908411 -0.0645930394684711 0 0.063928429489506944 -0.081307771727983827 0 0.03991228784683809 -0.063564952647474054 0 0.047197573153018882 -0.077008714885212229 0 0.056693753894908411 -0.0645930394684711 0 0.041213016231746141 -0.092607102020557608 0 0.047197573153018882 -0.077008714885212229 0 0.063928429489506944 -0.081307771727983827 0 0.041213016231746141 -0.092607102020557608 0 0.057721305516795093 -0.10151199169140721 0 0.063928429489506944 -0.081307771727983827 0 0.041213016231746141 -0.092607102020557608 0 0.063928429489506944 -0.081307771727983827 0 0.057721305516795093 -0.10151199169140721 0 0.051443199373898567 -0.1204896733513115 0 0.074088235244244849 -0.1151598881146773 0 0.057721305516795093 -0.10151199169140721 0 0.051443199373898567 -0.1204896733513115 0 0.035889483117247892 -0.1110170682638876 0 0.036683546128011633 -0.12671383904542469 0 0.051443199373898567 -0.1204896733513115 0 0.035889483117247892 -0.1110170682638876 0 0.036683546128011633 -0.12671383904542469 0 0.022405976644837251 -0.1242135834057001 0 0.035889483117247892 -0.1110170682638876 0 0.041213016231746141 -0.092607102020557608 0 0.057721305516795093 -0.10151199169140721 0 0.035889483117247892 -0.1110170682638876 0 0.018497602973985429 -0.10390643231313131 0 0.041213016231746141 -0.092607102020557608 0 0.035889483117247892 -0.1110170682638876 0 0.01430788918599761 0.002469668747611693 0 0.022197175706914572 -0.0088692473301535488 0 0.02591885077931003 -0.022472547228299208 0 0.01430788918599761 0.002469668747611693 0 0.02591885077931003 -0.022472547228299208 0 0.01430788918599761 0.002469668747611693 0 0.0134751505872869 -0.0064892176571990576 0 0.02591885077931003 -0.022472547228299208 0 0.02489961239455241 0.001425054730708031 0 0.026967908296219281 -0.0049299988027727767 0 0.022197175706914572 -0.0088692473301535488 0 0.02489961239455241 0.001425054730708031 0 0.026967908296219281 -0.0049299988027727767 0 0.033373904277048422 -0.0035952080332354152 0 0.026967908296219281 -0.0049299988027727767 0 0.027851905006188161 -0.0092953317526173248 0 0.022197175706914572 -0.0088692473301535488 0 0.026967908296219281 -0.0049299988027727767 0 0.027851905006188161 -0.0092953317526173248 0 0.033373904277048422 -0.0035952080332354152 0 0.027851905006188161 -0.0092953317526173248 0 0.032334211153766543 -0.01412740980449638 0 0.033373904277048422 -0.0035952080332354152 0 0.024668178221883521 -0.01533900552630797 0 0.022197175706914572 -0.0088692473301535488 0 0.02591885077931003 -0.022472547228299208 0 0.027851905006188161 -0.0092953317526173248 0 0.024668178221883521 -0.01533900552630797 0 0.032334211153766543 -0.01412740980449638 0 0.027851905006188161 -0.0092953317526173248 0 0.024668178221883521 -0.01533900552630797 0 0.022197175706914572 -0.0088692473301535488 0 0.01430788918599761 0.002469668747611693 0 0.02489961239455241 0.001425054730708031 0 0.022197175706914572 -0.0088692473301535488 0 0.01430788918599761 0.002469668747611693 0 0.0134751505872869 -0.0064892176571990576 0 0.0020542870866122722 -0.002457931916927811 0 0.0134751505872869 -0.0064892176571990576 0 0.0020542870866122722 -0.002457931916927811 0 0.0001562072125391549 -0.018999867950155999 0 0.0134751505872869 -0.0064892176571990576 0 0.0001562072125391549 -0.018999867950155999 0 0.0134751505872869 -0.0064892176571990576 0 0.013198767574944471 -0.019540032616593039 0 0.0001562072125391549 -0.018999867950155999 0 0.013198767574944471 -0.019540032616593039 0 0.0029138699203563249 -0.030526754590547031 0 0.014446806064269371 -0.040036329536461551 0 0.013198767574944471 -0.019540032616593039 0 0.0001562072125391549 -0.018999867950155999 0 0.0029138699203563249 -0.030526754590547031 0 0.013198767574944471 -0.019540032616593039 0 0.02591885077931003 -0.022472547228299208 0 0.014446806064269371 -0.040036329536461551 0 0.0134751505872869 -0.0064892176571990576 0 0.013198767574944471 -0.019540032616593039 0 0.02591885077931003 -0.022472547228299208 0 0.02591885077931003 -0.022472547228299208 0 0.027686319776973532 -0.026269355366557029 0 0.014446806064269371 -0.040036329536461551 0 0.025972287004753469 -0.020371663231087651 0 0.02591885077931003 -0.022472547228299208 0 0.027688532957454649 -0.020129438165937739 0 0.025972287004753469 -0.020371663231087651 0 0.025928584284886699 -0.018751673427441651 0 0.027688532957454649 -0.020129438165937739 0 0.02591885077931003 -0.022472547228299208 0 0.02744216922628142 -0.023194699279580872 0 0.027688532957454649 -0.020129438165937739 0 0.024668178221883521 -0.01533900552630797 0 0.025972287004753469 -0.020371663231087651 0 0.02591885077931003 -0.022472547228299208 0 0.024668178221883521 -0.01533900552630797 0 0.025972287004753469 -0.020371663231087651 0 0.025928584284886699 -0.018751673427441651 0 0.024668178221883521 -0.01533900552630797 0 0.025928584284886699 -0.018751673427441651 0 0.029055165523747969 -0.017916752244247078 0 0.024668178221883521 -0.01533900552630797 0 0.029055165523747969 -0.017916752244247078 0 0.032334211153766543 -0.01412740980449638 0 0.025928584284886699 -0.018751673427441651 0 0.029055165523747969 -0.017916752244247078 0 0.027688532957454649 -0.020129438165937739 0 0.02744216922628142 -0.023194699279580872 0 0.029741594372660361 -0.020956127920253309 0 0.029720495650589089 -0.02340590657578917 0 0.02744216922628142 -0.023194699279580872 0 0.027688532957454649 -0.020129438165937739 0 0.029741594372660361 -0.020956127920253309 0 0.029055165523747969 -0.017916752244247078 0 0.027688532957454649 -0.020129438165937739 0 0.029741594372660361 -0.020956127920253309 0 0.029055165523747969 -0.017916752244247078 0 0.029741594372660361 -0.020956127920253309 0 0.032916234323039112 -0.02129384448866746 0 0.029741594372660361 -0.020956127920253309 0 0.029720495650589089 -0.02340590657578917 0 0.032916234323039112 -0.02129384448866746 0 0.029720495650589089 -0.02340590657578917 0 0.027686319776973532 -0.026269355366557029 0 0.032435899178401957 -0.026841704232335381 0 0.02744216922628142 -0.023194699279580872 0 0.029720495650589089 -0.02340590657578917 0 0.027686319776973532 -0.026269355366557029 0 0.027686319776973532 -0.026269355366557029 0 0.031277885651264631 -0.03211358484664821 0 0.032435899178401957 -0.026841704232335381 0 0.02591885077931003 -0.022472547228299208 0 0.02744216922628142 -0.023194699279580872 0 0.027686319776973532 -0.026269355366557029 0 0.02591885077931003 -0.022472547228299208 0 0.027686319776973532 -0.026269355366557029 0 0.02591885077931003 -0.022472547228299208 0 0.014446806064269371 -0.040036329536461551 0 0.02637374231175383 -0.03825668542074219 0 0.014446806064269371 -0.040036329536461551 0 0.021401024806239 -0.055359675166318179 0 0.027686319776973532 -0.026269355366557029 0 0.02637374231175383 -0.03825668542074219 0 0.031277885651264631 -0.03211358484664821 0 0.02637374231175383 -0.03825668542074219 0 0.034139667465722209 -0.037909201738954047 0 0.031277885651264631 -0.03211358484664821 0 0.027686319776973532 -0.026269355366557029 0 0.02637374231175383 -0.03825668542074219 0 0.014446806064269371 -0.040036329536461551 0 -6.9695087766884393e-05 -0.042547024606407399 0 0.014446806064269371 -0.040036329536461551 0 0.002974761349226791 -0.057600111844622673 0 -6.9695087766884393e-05 -0.042547024606407399 0 0.0029138699203563249 -0.030526754590547031 0 0.014446806064269371 -0.040036329536461551 0 0.014446806064269371 -0.040036329536461551 0 0.002974761349226791 -0.057600111844622673 0 0.021401024806239 -0.055359675166318179 0 0.014446806064269371 -0.040036329536461551 0 0.002974761349226791 -0.057600111844622673 0 0.011137116921547461 -0.069263182716445465 0 0.002974761349226791 -0.057600111844622673 0 0.021401024806239 -0.055359675166318179 0 0.02637374231175383 -0.03825668542074219 0 0.021401024806239 -0.055359675166318179 0 0.036558724574953842 -0.048051445741573107 0 0.03991228784683809 -0.063564952647474054 0 0.021401024806239 -0.055359675166318179 0 0.036558724574953842 -0.048051445741573107 0 0.036558724574953842 -0.048051445741573107 0 0.049011651700788493 -0.054791792410274612 0 0.047014247252220878 -0.045108286122823471 0 0.03991228784683809 -0.063564952647474054 0 0.036558724574953842 -0.048051445741573107 0 0.049011651700788493 -0.054791792410274612 0 0.03991228784683809 -0.063564952647474054 0 0.056693753894908411 -0.0645930394684711 0 0.049011651700788493 -0.054791792410274612 0 0.056693753894908411 -0.0645930394684711 0 0.059124578218799892 -0.054181434489200493 0 0.066584568119809978 -0.058389208855861907 0 0.056693753894908411 -0.0645930394684711 0 0.049011651700788493 -0.054791792410274612 0 0.059124578218799892 -0.054181434489200493 0 0.059124578218799892 -0.054181434489200493 0 0.059864148488327829 -0.044991466214337812 0 0.068161587803436965 -0.049502266140622309 0 0.059124578218799892 -0.054181434489200493 0 0.053889359673946043 -0.048102818152418812 0 0.059864148488327829 -0.044991466214337812 0 0.049011651700788493 -0.054791792410274612 0 0.053889359673946043 -0.048102818152418812 0 0.047014247252220878 -0.045108286122823471 0 0.049011651700788493 -0.054791792410274612 0 0.059124578218799892 -0.054181434489200493 0 0.053889359673946043 -0.048102818152418812 0 0.047014247252220878 -0.045108286122823471 0 0.053133021386967877 -0.039614199169100042 0 0.046443262635460281 -0.034671929626247273 0 0.053889359673946043 -0.048102818152418812 0 0.047014247252220878 -0.045108286122823471 0 0.053133021386967877 -0.039614199169100042 0 0.053133021386967877 -0.039614199169100042 0 0.059864148488327829 -0.044991466214337812 0 0.060946845115729342 -0.039003827311988232 0 0.053889359673946043 -0.048102818152418812 0 0.053133021386967877 -0.039614199169100042 0 0.059864148488327829 -0.044991466214337812 0 0.059864148488327829 -0.044991466214337812 0 0.060946845115729342 -0.039003827311988232 0 0.065863164603128188 -0.042535096889701793 0 0.053133021386967877 -0.039614199169100042 0 0.060946845115729342 -0.039003827311988232 0 0.059617608454032252 -0.030845149206413559 0 0.053133021386967877 -0.039614199169100042 0 0.051671134094524812 -0.028078911788863379 0 0.059617608454032252 -0.030845149206413559 0 0.060946845115729342 -0.039003827311988232 0 0.059617608454032252 -0.030845149206413559 0 0.066215378998319571 -0.035816863424849257 0 0.053133021386967877 -0.039614199169100042 0 0.046443262635460281 -0.034671929626247273 0 0.051671134094524812 -0.028078911788863379 0 0.046443262635460281 -0.034671929626247273 0 0.039981940290365767 -0.039406368140850058 0 0.036506044500272977 -0.031717924544956679 0 0.047014247252220878 -0.045108286122823471 0 0.046443262635460281 -0.034671929626247273 0 0.039981940290365767 -0.039406368140850058 0 0.036558724574953842 -0.048051445741573107 0 0.047014247252220878 -0.045108286122823471 0 0.039981940290365767 -0.039406368140850058 0 0.02637374231175383 -0.03825668542074219 0 0.036558724574953842 -0.048051445741573107 0 0.034139667465722209 -0.037909201738954047 0 0.036558724574953842 -0.048051445741573107 0 0.039981940290365767 -0.039406368140850058 0 0.034139667465722209 -0.037909201738954047 0 0.034139667465722209 -0.037909201738954047 0 0.031277885651264631 -0.03211358484664821 0 0.036506044500272977 -0.031717924544956679 0 0.039981940290365767 -0.039406368140850058 0 0.034139667465722209 -0.037909201738954047 0 0.036506044500272977 -0.031717924544956679 0 0.036506044500272977 -0.031717924544956679 0 0.037100376632050007 -0.024812439284442919 0 0.032435899178401957 -0.026841704232335381 0 0.031277885651264631 -0.03211358484664821 0 0.036506044500272977 -0.031717924544956679 0 0.032435899178401957 -0.026841704232335381 0 0.029720495650589089 -0.02340590657578917 0 0.032435899178401957 -0.026841704232335381 0 0.032916234323039112 -0.02129384448866746 0 0.037100376632050007 -0.024812439284442919 0 0.032435899178401957 -0.026841704232335381 0 0.032916234323039112 -0.02129384448866746 0 0.032916234323039112 -0.02129384448866746 0 0.039271825468791211 -0.018875922358166791 0 0.032334211153766543 -0.01412740980449638 0 0.029055165523747969 -0.017916752244247078 0 0.032916234323039112 -0.02129384448866746 0 0.032334211153766543 -0.01412740980449638 0 0.037100376632050007 -0.024812439284442919 0 0.032916234323039112 -0.02129384448866746 0 0.039271825468791211 -0.018875922358166791 0 0.039271825468791211 -0.018875922358166791 0 0.043638524530178233 -0.02565327733336745 0 0.050471826270186877 -0.015922774665167248 0 0.037100376632050007 -0.024812439284442919 0 0.039271825468791211 -0.018875922358166791 0 0.043638524530178233 -0.02565327733336745 0 0.046443262635460281 -0.034671929626247273 0 0.036506044500272977 -0.031717924544956679 0 0.043638524530178233 -0.02565327733336745 0 0.036506044500272977 -0.031717924544956679 0 0.037100376632050007 -0.024812439284442919 0 0.043638524530178233 -0.02565327733336745 0 0.046443262635460281 -0.034671929626247273 0 0.043638524530178233 -0.02565327733336745 0 0.051671134094524812 -0.028078911788863379 0 0.051671134094524812 -0.028078911788863379 0 0.059617608454032252 -0.030845149206413559 0 0.061451742544522757 -0.02044742978429202 0 0.043638524530178233 -0.02565327733336745 0 0.051671134094524812 -0.028078911788863379 0 0.050471826270186877 -0.015922774665167248 0 0.051671134094524812 -0.028078911788863379 0 0.061451742544522757 -0.02044742978429202 0 0.050471826270186877 -0.015922774665167248 0 0.048853995343869742 0.0017607055935350299 0 0.050471826270186877 -0.015922774665167248 0 0.066681340165404196 -0.0086072927627725351 0 0.061451742544522757 -0.02044742978429202 0 0.050471826270186877 -0.015922774665167248 0 0.066681340165404196 -0.0086072927627725351 0 0.048853995343869742 0.0017607055935350299 0 0.050471826270186877 -0.015922774665167248 0 0.040861152502732562 -0.01015212185350616 0 0.048853995343869742 0.0017607055935350299 0 0.040861152502732562 -0.01015212185350616 0 0.033373904277048422 -0.0035952080332354152 0 0.039271825468791211 -0.018875922358166791 0 0.050471826270186877 -0.015922774665167248 0 0.040861152502732562 -0.01015212185350616 0 0.040861152502732562 -0.01015212185350616 0 0.032334211153766543 -0.01412740980449638 0 0.033373904277048422 -0.0035952080332354152 0 0.039271825468791211 -0.018875922358166791 0 0.040861152502732562 -0.01015212185350616 0 0.032334211153766543 -0.01412740980449638 0 0.084919212964707058 -0.0048832671748185591 0 0.066681340165404196 -0.0086072927627725351 0 0.072178352652277747 -0.02532832572589605 0 0.061667211381634501 0.0094624597644218846 0 0.084919212964707058 -0.0048832671748185591 0 0.066681340165404196 -0.0086072927627725351 0 0.061451742544522757 -0.02044742978429202 0 0.066681340165404196 -0.0086072927627725351 0 0.072178352652277747 -0.02532832572589605 0 0.059617608454032252 -0.030845149206413559 0 0.072178352652277747 -0.02532832572589605 0 0.066215378998319571 -0.035816863424849257 0 0.059617608454032252 -0.030845149206413559 0 0.061451742544522757 -0.02044742978429202 0 0.072178352652277747 -0.02532832572589605 0 0.072178352652277747 -0.02532832572589605 0 0.087669270620807885 -0.02701393853663904 0 0.074046055314085174 -0.040928338045633908 0 0.084919212964707058 -0.0048832671748185591 0 0.087669270620807885 -0.02701393853663904 0 0.1017380561937988 -0.020962996105803131 0 0.084919212964707058 -0.0048832671748185591 0 0.072178352652277747 -0.02532832572589605 0 0.087669270620807885 -0.02701393853663904 0 0.087669270620807885 -0.02701393853663904 0 0.086246064992538438 -0.044831442015586177 0 0.074046055314085174 -0.040928338045633908 0 0.087669270620807885 -0.02701393853663904 0 0.086246064992538438 -0.044831442015586177 0 0.096211825209036553 -0.035056342803163068 0 0.086246064992538438 -0.044831442015586177 0 0.074046055314085174 -0.040928338045633908 0 0.077348431090306854 -0.048941309960618427 0 0.072178352652277747 -0.02532832572589605 0 0.066215378998319571 -0.035816863424849257 0 0.074046055314085174 -0.040928338045633908 0 0.065863164603128188 -0.042535096889701793 0 0.074046055314085174 -0.040928338045633908 0 0.068161587803436965 -0.049502266140622309 0 0.059864148488327829 -0.044991466214337812 0 0.065863164603128188 -0.042535096889701793 0 0.068161587803436965 -0.049502266140622309 0 0.066215378998319571 -0.035816863424849257 0 0.065863164603128188 -0.042535096889701793 0 0.074046055314085174 -0.040928338045633908 0 0.060946845115729342 -0.039003827311988232 0 0.066215378998319571 -0.035816863424849257 0 0.065863164603128188 -0.042535096889701793 0 0.074046055314085174 -0.040928338045633908 0 0.077348431090306854 -0.048941309960618427 0 0.068161587803436965 -0.049502266140622309 0 0.077348431090306854 -0.048941309960618427 0 0.068161587803436965 -0.049502266140622309 0 0.074396120347237624 -0.056057269546352553 0 0.077348431090306854 -0.048941309960618427 0 0.074396120347237624 -0.056057269546352553 0 0.081677504216908919 -0.054510213563818202 0 0.068161587803436965 -0.049502266140622309 0 0.066584568119809978 -0.058389208855861907 0 0.074396120347237624 -0.056057269546352553 0 0.059124578218799892 -0.054181434489200493 0 0.068161587803436965 -0.049502266140622309 0 0.066584568119809978 -0.058389208855861907 0 0.066584568119809978 -0.058389208855861907 0 0.074396120347237624 -0.056057269546352553 0 0.07376933615285039 -0.062592623223170829 0 0.074396120347237624 -0.056057269546352553 0 0.081271879088679166 -0.06211914574018694 0 0.07376933615285039 -0.062592623223170829 0 0.081271879088679166 -0.06211914574018694 0 0.081677504216908919 -0.054510213563818202 0 0.090975598817404815 -0.05556492827846999 0 0.074396120347237624 -0.056057269546352553 0 0.081271879088679166 -0.06211914574018694 0 0.081677504216908919 -0.054510213563818202 0 0.086246064992538438 -0.044831442015586177 0 0.077348431090306854 -0.048941309960618427 0 0.081677504216908919 -0.054510213563818202 0 0.086246064992538438 -0.044831442015586177 0 0.090975598817404815 -0.05556492827846999 0 0.100360724236018 -0.046264580484598167 0 0.086246064992538438 -0.044831442015586177 0 0.081677504216908919 -0.054510213563818202 0 0.090975598817404815 -0.05556492827846999 0 0.081271879088679166 -0.06211914574018694 0 0.090975598817404815 -0.05556492827846999 0 0.090499386096577775 -0.062478149830971982 0 0.090975598817404815 -0.05556492827846999 0 0.10935925600502901 -0.058709111142837153 0 0.100360724236018 -0.046264580484598167 0 0.090975598817404815 -0.05556492827846999 0 0.090499386096577775 -0.062478149830971982 0 0.10935925600502901 -0.058709111142837153 0 0.10935925600502901 -0.058709111142837153 0 0.1125473342757712 -0.047494700880263939 0 0.100360724236018 -0.046264580484598167 0 0.10935925600502901 -0.058709111142837153 0 0.1264271382118354 -0.046576590720045212 0 0.10935925600502901 -0.058709111142837153 0 0.1125473342757712 -0.047494700880263939 0 0.1264271382118354 -0.046576590720045212 0 0.10935925600502901 -0.058709111142837153 0 0.1264271382118354 -0.046576590720045212 0 0.1315172523849571 -0.047687056783647923 0 0.10935925600502901 -0.058709111142837153 0 0.1315172523849571 -0.047687056783647923 0 0.10935925600502901 -0.058709111142837153 0 0.1315172523849571 -0.047687056783647923 0 0.12695815916544401 -0.061607372685781307 0 0.1125473342757712 -0.047494700880263939 0 0.117198255746378 -0.037393935701280981 0 0.1069589766034806 -0.035909925149025232 0 0.1125473342757712 -0.047494700880263939 0 0.12045352027335519 -0.04231815827615798 0 0.117198255746378 -0.037393935701280981 0 0.1125473342757712 -0.047494700880263939 0 0.12045352027335519 -0.04231815827615798 0 0.1264271382118354 -0.046576590720045212 0 0.12045352027335519 -0.04231815827615798 0 0.12564135285943631 -0.037807405803041788 0 0.1264271382118354 -0.046576590720045212 0 0.12045352027335519 -0.04231815827615798 0 0.117198255746378 -0.037393935701280981 0 0.12564135285943631 -0.037807405803041788 0 0.117198255746378 -0.037393935701280981 0 0.1220257778387514 -0.02963631632841995 0 0.12564135285943631 -0.037807405803041788 0 0.117198255746378 -0.037393935701280981 0 0.1137494024099137 -0.028542592954446729 0 0.1220257778387514 -0.02963631632841995 0 0.117198255746378 -0.037393935701280981 0 0.1069589766034806 -0.035909925149025232 0 0.1137494024099137 -0.028542592954446729 0 0.1125473342757712 -0.047494700880263939 0 0.1069589766034806 -0.035909925149025232 0 0.100360724236018 -0.046264580484598167 0 0.1069589766034806 -0.035909925149025232 0 0.100360724236018 -0.046264580484598167 0 0.096211825209036553 -0.035056342803163068 0 0.086246064992538438 -0.044831442015586177 0 0.100360724236018 -0.046264580484598167 0 0.096211825209036553 -0.035056342803163068 0 0.087669270620807885 -0.02701393853663904 0 0.096211825209036553 -0.035056342803163068 0 0.1017380561937988 -0.020962996105803131 0 0.1069589766034806 -0.035909925149025232 0 0.1017380561937988 -0.020962996105803131 0 0.1137494024099137 -0.028542592954446729 0 0.1069589766034806 -0.035909925149025232 0 0.096211825209036553 -0.035056342803163068 0 0.1017380561937988 -0.020962996105803131 0 0.1017380561937988 -0.020962996105803131 0 0.1137494024099137 -0.028542592954446729 0 0.11840595204219891 -0.018509042490778269 0 0.1137494024099137 -0.028542592954446729 0 0.1220257778387514 -0.02963631632841995 0 0.11840595204219891 -0.018509042490778269 0 0.1220257778387514 -0.02963631632841995 0 0.11840595204219891 -0.018509042490778269 0 0.12813942609465009 -0.023412037735025031 0 0.11840595204219891 -0.018509042490778269 0 0.12758964050691429 -0.014698979293720381 0 0.12813942609465009 -0.023412037735025031 0 0.11840595204219891 -0.018509042490778269 0 0.1229139003049859 -0.0047206540506318957 0 0.10695025709943851 -0.005097154849052799 0 0.11840595204219891 -0.018509042490778269 0 0.1229139003049859 -0.0047206540506318957 0 0.12758964050691429 -0.014698979293720381 0 0.1017380561937988 -0.020962996105803131 0 0.11840595204219891 -0.018509042490778269 0 0.10695025709943851 -0.005097154849052799 0 0.098844404307482883 0.0099372200349232241 0 0.084919212964707058 -0.0048832671748185591 0 0.10695025709943851 -0.005097154849052799 0 0.084919212964707058 -0.0048832671748185591 0 0.1017380561937988 -0.020962996105803131 0 0.10695025709943851 -0.005097154849052799 0 0.092837830820642425 -0.1070739961975478 0 0.081957787034019708 -0.089070344629088916 0 0.093794420455722644 -0.093742320652834027 0 0.092837830820642425 -0.1070739961975478 0 0.074088235244244849 -0.1151598881146773 0 0.081957787034019708 -0.089070344629088916 0 0.093639805884414631 -0.1350093289304051 0 0.092837830820642425 -0.1070739961975478 0 0.074088235244244849 -0.1151598881146773 0 0.068037275856194429 -0.1368036099700822 0 0.051443199373898567 -0.1204896733513115 0 0.074088235244244849 -0.1151598881146773 0 0.057721305516795093 -0.10151199169140721 0 0.074088235244244849 -0.1151598881146773 0 0.081957787034019708 -0.089070344629088916 0 0.057721305516795093 -0.10151199169140721 0 0.063928429489506944 -0.081307771727983827 0 0.081957787034019708 -0.089070344629088916 0 0.063928429489506944 -0.081307771727983827 0 0.086643842747267774 -0.070008441435410046 0 0.081957787034019708 -0.089070344629088916 0 0.056693753894908411 -0.0645930394684711 0 0.063928429489506944 -0.081307771727983827 0 0.067856605474948414 -0.066994613142570741 0 0.063928429489506944 -0.081307771727983827 0 0.076286074462960124 -0.068168619637879679 0 0.086643842747267774 -0.070008441435410046 0 0.063928429489506944 -0.081307771727983827 0 0.086643842747267774 -0.070008441435410046 0 0.056693753894908411 -0.0645930394684711 0 0.066584568119809978 -0.058389208855861907 0 0.067856605474948414 -0.066994613142570741 0 0.066584568119809978 -0.058389208855861907 0 0.067856605474948414 -0.066994613142570741 0 0.07376933615285039 -0.062592623223170829 0 0.063928429489506944 -0.081307771727983827 0 0.067856605474948414 -0.066994613142570741 0 0.076286074462960124 -0.068168619637879679 0 0.067856605474948414 -0.066994613142570741 0 0.076286074462960124 -0.068168619637879679 0 0.07376933615285039 -0.062592623223170829 0 0.081271879088679166 -0.06211914574018694 0 0.076286074462960124 -0.068168619637879679 0 0.07376933615285039 -0.062592623223170829 0 0.091090854964528206 -0.071695007461437532 0 0.086643842747267774 -0.070008441435410046 0 0.081957787034019708 -0.089070344629088916 0 0.081271879088679166 -0.06211914574018694 0 0.090499386096577775 -0.062478149830971982 0 0.084246353824508111 -0.065989122557955734 0 0.076286074462960124 -0.068168619637879679 0 0.084246353824508111 -0.065989122557955734 0 0.086643842747267774 -0.070008441435410046 0 0.081271879088679166 -0.06211914574018694 0 0.076286074462960124 -0.068168619637879679 0 0.084246353824508111 -0.065989122557955734 0 0.090499386096577775 -0.062478149830971982 0 0.084246353824508111 -0.065989122557955734 0 0.086643842747267774 -0.070008441435410046 0 0.091090854964528206 -0.071695007461437532 0 0.081957787034019708 -0.089070344629088916 0 0.095808115866621774 -0.084077621671887912 0 0.081957787034019708 -0.089070344629088916 0 0.095808115866621774 -0.084077621671887912 0 0.093794420455722644 -0.093742320652834027 0 0.095808115866621774 -0.084077621671887912 0 0.1064249490675009 -0.090618258099173232 0 0.093794420455722644 -0.093742320652834027 0 0.095808115866621774 -0.084077621671887912 0 0.1064249490675009 -0.090618258099173232 0 0.10593541629158559 -0.074898908406753228 0 0.10935925600502901 -0.058709111142837153 0 0.086643842747267774 -0.070008441435410046 0 0.10935925600502901 -0.058709111142837153 0 0.091090854964528206 -0.071695007461437532 0 0.090499386096577775 -0.062478149830971982 0 0.10935925600502901 -0.058709111142837153 0 0.086643842747267774 -0.070008441435410046 0 0.10935925600502901 -0.058709111142837153 0 0.091090854964528206 -0.071695007461437532 0 0.086643842747267774 -0.070008441435410046 0 0.10935925600502901 -0.058709111142837153 0 0.091090854964528206 -0.071695007461437532 0 0.10593541629158559 -0.074898908406753228 0 0.091090854964528206 -0.071695007461437532 0 0.095808115866621774 -0.084077621671887912 0 0.10593541629158559 -0.074898908406753228 0 0.10935925600502901 -0.058709111142837153 0 0.10593541629158559 -0.074898908406753228 0 0.1205600760898554 -0.073636645005437207 0 0.10935925600502901 -0.058709111142837153 0 0.1205600760898554 -0.073636645005437207 0 0.12695815916544401 -0.061607372685781307 0 0.1064249490675009 -0.090618258099173232 0 0.1205600760898554 -0.073636645005437207 0 0.13217211253312319 -0.091752472658581677 0 0.1064249490675009 -0.090618258099173232 0 0.10593541629158559 -0.074898908406753228 0 0.1205600760898554 -0.073636645005437207 0 0.1064249490675009 -0.090618258099173232 0 0.112905959208769 -0.1133809007944933 0 0.13217211253312319 -0.091752472658581677 0 0.112905959208769 -0.1133809007944933 0 0.13217211253312319 -0.091752472658581677 0 0.092837830820642425 -0.1070739961975478 0 0.1064249490675009 -0.090618258099173232 0 0.093794420455722644 -0.093742320652834027 0 0.092837830820642425 -0.1070739961975478 0 0.1064249490675009 -0.090618258099173232 0 0.112905959208769 -0.1133809007944933 0 0.093639805884414631 -0.1350093289304051 0 0.092837830820642425 -0.1070739961975478 0 0.112905959208769 -0.1133809007944933 0 0.093639805884414631 -0.1350093289304051 0 0.112905959208769 -0.1133809007944933 0 0.12319275534426111 -0.13963038495700819 0 0.112905959208769 -0.1133809007944933 0 0.13071413744654301 -0.1199166731996731 0 0.13071413744654301 -0.1199166731996731 0 0.14899920342532449 -0.1138473029921208 0 0.14231341405360681 -0.13536434312621151 0 0.14899920342532449 -0.1138473029921208 0 0.13217211253312319 -0.091752472658581677 0 0.15772668754238359 -0.095061041553098358 0 0.13071413744654301 -0.1199166731996731 0 0.14899920342532449 -0.1138473029921208 0 0.13217211253312319 -0.091752472658581677 0 0.112905959208769 -0.1133809007944933 0 0.13071413744654301 -0.1199166731996731 0 0.13217211253312319 -0.091752472658581677 0 0.1205600760898554 -0.073636645005437207 0 0.13217211253312319 -0.091752472658581677 0 0.13549635290062911 -0.070971034432690538 0 0.13217211253312319 -0.091752472658581677 0 0.13549635290062911 -0.070971034432690538 0 0.14662627881573459 -0.081050264206841527 0 0.1205600760898554 -0.073636645005437207 0 0.13549635290062911 -0.070971034432690538 0 0.12695815916544401 -0.061607372685781307 0 0.13549635290062911 -0.070971034432690538 0 0.12695815916544401 -0.061607372685781307 0 0.13744645814552131 -0.057428174155580013 0 0.13549635290062911 -0.070971034432690538 0 0.15357466130066591 -0.062947327499895622 0 0.13744645814552131 -0.057428174155580013 0 0.13549635290062911 -0.070971034432690538 0 0.15357466130066591 -0.062947327499895622 0 0.14662627881573459 -0.081050264206841527 0 0.13217211253312319 -0.091752472658581677 0 0.14662627881573459 -0.081050264206841527 0 0.15772668754238359 -0.095061041553098358 0 0.17240221775609221 -0.082933097070454764 0 0.1734485448797021 -0.094885510012080038 0 0.15772668754238359 -0.095061041553098358 0 0.14662627881573459 -0.081050264206841527 0 0.17240221775609221 -0.082933097070454764 0 0.15772668754238359 -0.095061041553098358 0 0.15357466130066591 -0.062947327499895622 0 0.14662627881573459 -0.081050264206841527 0 0.17240221775609221 -0.082933097070454764 0 0.15357466130066591 -0.062947327499895622 0 0.17227163989913599 -0.064253078282438411 0 0.17240221775609221 -0.082933097070454764 0 0.1843821839217035 -0.070545878875945614 0 0.17227163989913599 -0.064253078282438411 0 0.17240221775609221 -0.082933097070454764 0 0.1843821839217035 -0.070545878875945614 0 0.17227163989913599 -0.064253078282438411 0 0.18276577523080559 -0.053864837928145073 0 0.1843821839217035 -0.070545878875945614 0 0.17240221775609221 -0.082933097070454764 0 0.19562642886452061 -0.083419464066169721 0 0.17240221775609221 -0.082933097070454764 0 0.18622890667791009 -0.096822154755258169 0 0.19562642886452061 -0.083419464066169721 0 0.17240221775609221 -0.082933097070454764 0 0.18622890667791009 -0.096822154755258169 0 0.1734485448797021 -0.094885510012080038 0 0.18622890667791009 -0.096822154755258169 0 0.1734485448797021 -0.094885510012080038 0 0.1727840574399907 -0.10615926190495049 0 0.18622890667791009 -0.096822154755258169 0 0.1727840574399907 -0.10615926190495049 0 0.1847960892898739 -0.10995059135664149 0 0.1847960892898739 -0.10995059135664149 0 0.17768273851846769 -0.11865678954162651 0 0.19089281935413971 -0.1194352299247846 0 0.17768273851846769 -0.11865678954162651 0 0.19089281935413971 -0.1194352299247846 0 0.18912169851740859 -0.12926756383743199 0 0.1727840574399907 -0.10615926190495049 0 0.1847960892898739 -0.10995059135664149 0 0.17768273851846769 -0.11865678954162651 0 0.1727840574399907 -0.10615926190495049 0 0.17768273851846769 -0.11865678954162651 0 0.16398616931028109 -0.13485785702842679 0 0.14899920342532449 -0.1138473029921208 0 0.1727840574399907 -0.10615926190495049 0 0.16398616931028109 -0.13485785702842679 0 0.1727840574399907 -0.10615926190495049 0 0.16398616931028109 -0.13485785702842679 0 0.1734485448797021 -0.094885510012080038 0 0.1727840574399907 -0.10615926190495049 0 0.15772668754238359 -0.095061041553098358 0 0.14899920342532449 -0.1138473029921208 0 0.1727840574399907 -0.10615926190495049 0 0.15772668754238359 -0.095061041553098358 0 0.15037820031583721 0.002661057603983683 0 0.15603104089381589 -0.01140451905796833 0 0.1432393588182404 -0.0091159307863454813 0 0.1432393588182404 -0.0091159307863454813 0 0.13618309835098441 -0.017547828768313491 0 0.14599208772959191 -0.020175151737474271 0 0.15603104089381589 -0.01140451905796833 0 0.1432393588182404 -0.0091159307863454813 0 0.14599208772959191 -0.020175151737474271 0 0.15037820031583721 0.002661057603983683 0 0.13760439479590361 0.00073270495442658609 0 0.1432393588182404 -0.0091159307863454813 0 0.13760439479590361 0.00073270495442658609 0 0.1432393588182404 -0.0091159307863454813 0 0.13324733082330939 -0.0089618477127270859 0 0.13760439479590361 0.00073270495442658609 0 0.1229139003049859 -0.0047206540506318957 0 0.13324733082330939 -0.0089618477127270859 0 0.1229139003049859 -0.0047206540506318957 0 0.12758964050691429 -0.014698979293720381 0 0.13324733082330939 -0.0089618477127270859 0 0.12758964050691429 -0.014698979293720381 0 0.13324733082330939 -0.0089618477127270859 0 0.13618309835098441 -0.017547828768313491 0 0.1432393588182404 -0.0091159307863454813 0 0.13324733082330939 -0.0089618477127270859 0 0.13618309835098441 -0.017547828768313491 0 0.13618309835098441 -0.017547828768313491 0 0.12813942609465009 -0.023412037735025031 0 0.13664642179635689 -0.026946532471422341 0 0.13618309835098441 -0.017547828768313491 0 0.13664642179635689 -0.026946532471422341 0 0.14599208772959191 -0.020175151737474271 0 0.12758964050691429 -0.014698979293720381 0 0.13618309835098441 -0.017547828768313491 0 0.12813942609465009 -0.023412037735025031 0 0.1220257778387514 -0.02963631632841995 0 0.12813942609465009 -0.023412037735025031 0 0.12902027787993131 -0.032152883285946919 0 0.12813942609465009 -0.023412037735025031 0 0.13664642179635689 -0.026946532471422341 0 0.12902027787993131 -0.032152883285946919 0 0.14349502041864129 -0.034444070297252452 0 0.16056290262544709 -0.022311549874459709 0 0.15367524876488581 -0.03666500242445956 0 0.14349502041864129 -0.034444070297252452 0 0.16056290262544709 -0.022311549874459709 0 0.13664642179635689 -0.026946532471422341 0 0.14599208772959191 -0.020175151737474271 0 0.14349502041864129 -0.034444070297252452 0 0.14599208772959191 -0.020175151737474271 0 0.14349502041864129 -0.034444070297252452 0 0.16056290262544709 -0.022311549874459709 0 0.15603104089381589 -0.01140451905796833 0 0.14599208772959191 -0.020175151737474271 0 0.16056290262544709 -0.022311549874459709 0 0.15367524876488581 -0.03666500242445956 0 0.14257392239334191 -0.048532377707370233 0 0.14765673027800341 -0.052349277465793452 0 0.15367524876488581 -0.03666500242445956 0 0.14765673027800341 -0.052349277465793452 0 0.15695138706003309 -0.047596504690529763 0 0.15367524876488581 -0.03666500242445956 0 0.1315172523849571 -0.047687056783647923 0 0.14257392239334191 -0.048532377707370233 0 0.15367524876488581 -0.03666500242445956 0 0.1315172523849571 -0.047687056783647923 0 0.15367524876488581 -0.03666500242445956 0 0.14349502041864129 -0.034444070297252452 0 0.1315172523849571 -0.047687056783647923 0 0.14349502041864129 -0.034444070297252452 0 0.13224604223324021 -0.035585496515541742 0 0.1264271382118354 -0.046576590720045212 0 0.14349502041864129 -0.034444070297252452 0 0.1264271382118354 -0.046576590720045212 0 0.1315172523849571 -0.047687056783647923 0 0.14349502041864129 -0.034444070297252452 0 0.1264271382118354 -0.046576590720045212 0 0.13664642179635689 -0.026946532471422341 0 0.14349502041864129 -0.034444070297252452 0 0.13224604223324021 -0.035585496515541742 0 0.13664642179635689 -0.026946532471422341 0 0.12902027787993131 -0.032152883285946919 0 0.13224604223324021 -0.035585496515541742 0 0.1220257778387514 -0.02963631632841995 0 0.12902027787993131 -0.032152883285946919 0 0.12564135285943631 -0.037807405803041788 0 0.12902027787993131 -0.032152883285946919 0 0.13224604223324021 -0.035585496515541742 0 0.12564135285943631 -0.037807405803041788 0 0.13224604223324021 -0.035585496515541742 0 0.12564135285943631 -0.037807405803041788 0 0.1264271382118354 -0.046576590720045212 0 0.1315172523849571 -0.047687056783647923 0 0.13744645814552131 -0.057428174155580013 0 0.14257392239334191 -0.048532377707370233 0 0.1315172523849571 -0.047687056783647923 0 0.12695815916544401 -0.061607372685781307 0 0.13744645814552131 -0.057428174155580013 0 0.15357466130066591 -0.062947327499895622 0 0.13744645814552131 -0.057428174155580013 0 0.14765673027800341 -0.052349277465793452 0 0.13744645814552131 -0.057428174155580013 0 0.14257392239334191 -0.048532377707370233 0 0.14765673027800341 -0.052349277465793452 0 0.15357466130066591 -0.062947327499895622 0 0.14765673027800341 -0.052349277465793452 0 0.15695138706003309 -0.047596504690529763 0 0.15357466130066591 -0.062947327499895622 0 0.17227163989913599 -0.064253078282438411 0 0.16823336128641289 -0.050974250037751037 0 0.15357466130066591 -0.062947327499895622 0 0.15695138706003309 -0.047596504690529763 0 0.16823336128641289 -0.050974250037751037 0 0.17227163989913599 -0.064253078282438411 0 0.16823336128641289 -0.050974250037751037 0 0.18276577523080559 -0.053864837928145073 0 0.16823336128641289 -0.050974250037751037 0 0.18276577523080559 -0.053864837928145073 0 0.17810527762960349 -0.041146112088514757 0 0.18276577523080559 -0.053864837928145073 0 0.17810527762960349 -0.041146112088514757 0 0.19037850837777229 -0.03424286581711234 0 0.18276577523080559 -0.053864837928145073 0 0.19037850837777229 -0.03424286581711234 0 0.17810527762960349 -0.041146112088514757 0 0.1758332451448143 -0.025642948065271232 0 0.19037850837777229 -0.03424286581711234 0 0.17810527762960349 -0.041146112088514757 0 0.16662943566269259 -0.040221978757321912 0 0.1758332451448143 -0.025642948065271232 0 0.15367524876488581 -0.03666500242445956 0 0.16662943566269259 -0.040221978757321912 0 0.1758332451448143 -0.025642948065271232 0 0.16823336128641289 -0.050974250037751037 0 0.17810527762960349 -0.041146112088514757 0 0.16662943566269259 -0.040221978757321912 0 0.15367524876488581 -0.03666500242445956 0 0.15695138706003309 -0.047596504690529763 0 0.16662943566269259 -0.040221978757321912 0 0.15695138706003309 -0.047596504690529763 0 0.16823336128641289 -0.050974250037751037 0 0.16662943566269259 -0.040221978757321912 0 0.15367524876488581 -0.03666500242445956 0 0.1758332451448143 -0.025642948065271232 0 0.15367524876488581 -0.03666500242445956 0 0.16056290262544709 -0.022311549874459709 0 0.1758332451448143 -0.025642948065271232 0 0.15603104089381589 -0.01140451905796833 0 0.16056290262544709 -0.022311549874459709 0 0.169737108883556 -0.01508854612762942 0 0.16056290262544709 -0.022311549874459709 0 0.1758332451448143 -0.025642948065271232 0 0.169737108883556 -0.01508854612762942 0 0.1758332451448143 -0.025642948065271232 0 0.19799124152474179 -0.014620893706080841 0 0.1758332451448143 -0.025642948065271232 0 0.1824305123019167 -0.01156922214160001 0 0.19799124152474179 -0.014620893706080841 0 0.1758332451448143 -0.025642948065271232 0 0.1824305123019167 -0.01156922214160001 0 0.169737108883556 -0.01508854612762942 0 0.1824305123019167 -0.01156922214160001 0 0.17379024406466809 -0.0051448253471361076 0 0.169737108883556 -0.01508854612762942 0 0.188810358682136 0.001653760543012469 0 0.1824305123019167 -0.01156922214160001 0 0.17379024406466809 -0.0051448253471361076 0 0.17379024406466809 -0.0051448253471361076 0 0.169737108883556 -0.01508854612762942 0 0.16288979187378999 -0.0015153279663161589 0 0.15603104089381589 -0.01140451905796833 0 0.169737108883556 -0.01508854612762942 0 0.16288979187378999 -0.0015153279663161589 0 0.15037820031583721 0.002661057603983683 0 0.15603104089381589 -0.01140451905796833 0 0.16288979187378999 -0.0015153279663161589 0 0.20681538404149369 0.0081235103108312241 0 0.19799124152474179 -0.014620893706080841 0 0.22089310829929931 -0.0032288158219694399 0 0.19799124152474179 -0.014620893706080841 0 0.22089310829929931 -0.0032288158219694399 0 0.19799124152474179 -0.014620893706080841 0 0.21743932776805741 -0.02500179271580702 0 0.22089310829929931 -0.0032288158219694399 0 0.20681538404149369 0.0081235103108312241 0 0.188810358682136 0.001653760543012469 0 0.19799124152474179 -0.014620893706080841 0 0.188810358682136 0.001653760543012469 0 0.1824305123019167 -0.01156922214160001 0 0.19799124152474179 -0.014620893706080841 0 0.20681538404149369 0.0081235103108312241 0 0.19799124152474179 -0.014620893706080841 0 0.19799124152474179 -0.014620893706080841 0 0.20548040453249389 -0.034224144530851881 0 0.19037850837777229 -0.03424286581711234 0 0.19799124152474179 -0.014620893706080841 0 0.19037850837777229 -0.03424286581711234 0 0.1758332451448143 -0.025642948065271232 0 0.19799124152474179 -0.014620893706080841 0 0.19037850837777229 -0.03424286581711234 0 0.19799124152474179 -0.014620893706080841 0 0.21743932776805741 -0.02500179271580702 0 0.20548040453249389 -0.034224144530851881 0 0.21743932776805741 -0.02500179271580702 0 0.20548040453249389 -0.034224144530851881 0 0.22843744600651061 -0.039120107817885087 0 0.20548040453249389 -0.034224144530851881 0 0.20801472303223709 -0.049111886055220703 0 0.22843744600651061 -0.039120107817885087 0 0.18276577523080559 -0.053864837928145073 0 0.19037850837777229 -0.03424286581711234 0 0.1957558350323744 -0.047166931761824751 0 0.20548040453249389 -0.034224144530851881 0 0.19037850837777229 -0.03424286581711234 0 0.1957558350323744 -0.047166931761824751 0 0.20548040453249389 -0.034224144530851881 0 0.1957558350323744 -0.047166931761824751 0 0.20801472303223709 -0.049111886055220703 0 0.1957558350323744 -0.047166931761824751 0 0.20801472303223709 -0.049111886055220703 0 0.20243455912652891 -0.06446172691138502 0 0.18276577523080559 -0.053864837928145073 0 0.1957558350323744 -0.047166931761824751 0 0.20243455912652891 -0.06446172691138502 0 0.20801472303223709 -0.049111886055220703 0 0.22051918602121881 -0.055132727610052473 0 0.20243455912652891 -0.06446172691138502 0 0.22051918602121881 -0.055132727610052473 0 0.23324639232980851 -0.060959439386943717 0 0.22843744600651061 -0.039120107817885087 0 0.20801472303223709 -0.049111886055220703 0 0.22051918602121881 -0.055132727610052473 0 0.22843744600651061 -0.039120107817885087 0 0.22051918602121881 -0.055132727610052473 0 0.23324639232980851 -0.060959439386943717 0 0.21968061038163761 -0.069421444936947713 0 0.25154037507169252 -0.057607439739242518 0 0.23324639232980851 -0.060959439386943717 0 0.22843744600651061 -0.039120107817885087 0 0.25154037507169252 -0.057607439739242518 0 0.24896172546995729 -0.037521104912331522 0 0.22843744600651061 -0.039120107817885087 0 0.24896172546995729 -0.037521104912331522 0 0.22843744600651061 -0.039120107817885087 0 0.24618848066494531 -0.019387664510027571 0 0.21743932776805741 -0.02500179271580702 0 0.22843744600651061 -0.039120107817885087 0 0.23056924641786819 -0.015686229995554461 0 0.22843744600651061 -0.039120107817885087 0 0.23056924641786819 -0.015686229995554461 0 0.24618848066494531 -0.019387664510027571 0 0.24379497507385561 0.0081632620621440027 0 0.23056924641786819 -0.015686229995554461 0 0.24618848066494531 -0.019387664510027571 0 0.21743932776805741 -0.02500179271580702 0 0.23056924641786819 -0.015686229995554461 0 0.22089310829929931 -0.0032288158219694399 0 0.24379497507385561 0.0081632620621440027 0 0.23056924641786819 -0.015686229995554461 0 0.22089310829929931 -0.0032288158219694399 0 0.2045950829692984 -0.098263736782735631 0 0.21402066615414389 -0.086800577904236911 0 0.2200078936451105 -0.1031526428031164 0 0.2082213899375045 -0.10930766451895391 0 0.2045950829692984 -0.098263736782735631 0 0.2200078936451105 -0.1031526428031164 0 0.2082213899375045 -0.10930766451895391 0 0.2200078936451105 -0.1031526428031164 0 0.22100751941270841 -0.1172314169642418 0 0.2082213899375045 -0.10930766451895391 0 0.20988388920491649 -0.11965744042234611 0 0.22100751941270841 -0.1172314169642418 0 0.20988388920491649 -0.11965744042234611 0 0.22100751941270841 -0.1172314169642418 0 0.21443252218934089 -0.13030165766589191 0 0.20988388920491649 -0.11965744042234611 0 0.2014268814114831 -0.11915697474252721 0 0.20531829200403809 -0.12688904783513319 0 0.2082213899375045 -0.10930766451895391 0 0.20988388920491649 -0.11965744042234611 0 0.2014268814114831 -0.11915697474252721 0 0.2014268814114831 -0.11915697474252721 0 0.19089281935413971 -0.1194352299247846 0 0.19639192445886139 -0.1086795206565879 0 0.2082213899375045 -0.10930766451895391 0 0.2014268814114831 -0.11915697474252721 0 0.19639192445886139 -0.1086795206565879 0 0.2014268814114831 -0.11915697474252721 0 0.19089281935413971 -0.1194352299247846 0 0.19785297350943851 -0.13097294509735741 0 0.1847960892898739 -0.10995059135664149 0 0.19089281935413971 -0.1194352299247846 0 0.19639192445886139 -0.1086795206565879 0 0.18622890667791009 -0.096822154755258169 0 0.1847960892898739 -0.10995059135664149 0 0.19639192445886139 -0.1086795206565879 0 0.18622890667791009 -0.096822154755258169 0 0.2045950829692984 -0.098263736782735631 0 0.19639192445886139 -0.1086795206565879 0 0.2082213899375045 -0.10930766451895391 0 0.2045950829692984 -0.098263736782735631 0 0.19639192445886139 -0.1086795206565879 0 0.18622890667791009 -0.096822154755258169 0 0.2045950829692984 -0.098263736782735631 0 0.19562642886452061 -0.083419464066169721 0 0.1843821839217035 -0.070545878875945614 0 0.18276577523080559 -0.053864837928145073 0 0.20243455912652891 -0.06446172691138502 0 0.1843821839217035 -0.070545878875945614 0 0.19562642886452061 -0.083419464066169721 0 0.20243455912652891 -0.06446172691138502 0 0.22051918602121881 -0.055132727610052473 0 0.20243455912652891 -0.06446172691138502 0 0.21968061038163761 -0.069421444936947713 0 0.20243455912652891 -0.06446172691138502 0 0.21402066615414389 -0.086800577904236911 0 0.21968061038163761 -0.069421444936947713 0 0.19562642886452061 -0.083419464066169721 0 0.20243455912652891 -0.06446172691138502 0 0.21402066615414389 -0.086800577904236911 0 0.2045950829692984 -0.098263736782735631 0 0.19562642886452061 -0.083419464066169721 0 0.21402066615414389 -0.086800577904236911 0 0.21402066615414389 -0.086800577904236911 0 0.22908573211038449 -0.078384976644612511 0 0.21968061038163761 -0.069421444936947713 0 0.21402066615414389 -0.086800577904236911 0 0.22908573211038449 -0.078384976644612511 0 0.23252467765138879 -0.094733503775097649 0 0.23324639232980851 -0.060959439386943717 0 0.22908573211038449 -0.078384976644612511 0 0.21968061038163761 -0.069421444936947713 0 0.23324639232980851 -0.060959439386943717 0 0.22908573211038449 -0.078384976644612511 0 0.24550632562069369 -0.08148075171338201 0 0.25154037507169252 -0.057607439739242518 0 0.23324639232980851 -0.060959439386943717 0 0.24550632562069369 -0.08148075171338201 0 0.24550632562069369 -0.08148075171338201 0 0.24722441108325799 -0.1041764247766344 0 0.23252467765138879 -0.094733503775097649 0 0.22908573211038449 -0.078384976644612511 0 0.24550632562069369 -0.08148075171338201 0 0.23252467765138879 -0.094733503775097649 0 0.24722441108325799 -0.1041764247766344 0 0.23252467765138879 -0.094733503775097649 0 0.23442235853106591 -0.11008282933656929 0 0.21402066615414389 -0.086800577904236911 0 0.23252467765138879 -0.094733503775097649 0 0.2200078936451105 -0.1031526428031164 0 0.23252467765138879 -0.094733503775097649 0 0.2200078936451105 -0.1031526428031164 0 0.23442235853106591 -0.11008282933656929 0 0.2200078936451105 -0.1031526428031164 0 0.22100751941270841 -0.1172314169642418 0 0.23442235853106591 -0.11008282933656929 0 0.22100751941270841 -0.1172314169642418 0 0.235271169526163 -0.1227351101261135 0 0.23442235853106591 -0.11008282933656929 0 0.22100751941270841 -0.1172314169642418 0 0.235271169526163 -0.1227351101261135 0 0.22559392783497431 -0.128158856034185 0 0.235271169526163 -0.1227351101261135 0 0.23442235853106591 -0.11008282933656929 0 0.24837467886543441 -0.1184499432751434 0 0.24722441108325799 -0.1041764247766344 0 0.23442235853106591 -0.11008282933656929 0 0.24837467886543441 -0.1184499432751434 0 0.235271169526163 -0.1227351101261135 0 0.24837467886543441 -0.1184499432751434 0 0.24534171350248241 -0.1279746456375026 0 0.24534171350248241 -0.1279746456375026 0 0.2499934808746547 -0.1361915394396816 0 0.23699980487883779 -0.13443536232179579 0 0.2499934808746547 -0.1361915394396816 0 0.23699980487883779 -0.13443536232179579 0 0.24233785801107449 -0.14328091949908889 0 0.235271169526163 -0.1227351101261135 0 0.24534171350248241 -0.1279746456375026 0 0.23699980487883779 -0.13443536232179579 0 0.2453120823184772 -0.15291632623737991 0 0.22631608284255711 -0.15515901711086769 0 0.2453120823184772 -0.15291632623737991 0 0.23274959446042429 -0.14779222835259251 0 0.22631608284255711 -0.15515901711086769 0 0.25228952762352358 -0.1456491711810157 0 0.2453120823184772 -0.15291632623737991 0 0.24233785801107449 -0.14328091949908889 0 0.25228952762352358 -0.1456491711810157 0 0.2499934808746547 -0.1361915394396816 0 0.24233785801107449 -0.14328091949908889 0 0.2453120823184772 -0.15291632623737991 0 0.24233785801107449 -0.14328091949908889 0 0.23274959446042429 -0.14779222835259251 0 0.23699980487883779 -0.13443536232179579 0 0.24233785801107449 -0.14328091949908889 0 0.23274959446042429 -0.14779222835259251 0 0.2453120823184772 -0.15291632623737991 0 0.23274959446042429 -0.14779222835259251 0 0.23274959446042429 -0.14779222835259251 0 0.22464749156044289 -0.14664305340323289 0 0.22631608284255711 -0.15515901711086769 0 0.23274959446042429 -0.14779222835259251 0 0.22464749156044289 -0.14664305340323289 0 0.22801969862985219 -0.13884646662353031 0 0.22464749156044289 -0.14664305340323289 0 0.22801969862985219 -0.13884646662353031 0 0.21846111123534381 -0.14194380613559529 0 0.22464749156044289 -0.14664305340323289 0 0.21846111123534381 -0.14194380613559529 0 0.21769097063403711 -0.1494737487935785 0 0.22464749156044289 -0.14664305340323289 0 0.22631608284255711 -0.15515901711086769 0 0.21769097063403711 -0.1494737487935785 0 0.235271169526163 -0.1227351101261135 0 0.23699980487883779 -0.13443536232179579 0 0.22559392783497431 -0.128158856034185 0 0.23699980487883779 -0.13443536232179579 0 0.23274959446042429 -0.14779222835259251 0 0.22801969862985219 -0.13884646662353031 0 0.23699980487883779 -0.13443536232179579 0 0.22801969862985219 -0.13884646662353031 0 0.22559392783497431 -0.128158856034185 0 0.22801969862985219 -0.13884646662353031 0 0.22099919438916271 -0.13485137860121699 0 0.22559392783497431 -0.128158856034185 0 0.22801969862985219 -0.13884646662353031 0 0.22099919438916271 -0.13485137860121699 0 0.21846111123534381 -0.14194380613559529 0 0.22099919438916271 -0.13485137860121699 0 0.22559392783497431 -0.128158856034185 0 0.21443252218934089 -0.13030165766589191 0 0.22100751941270841 -0.1172314169642418 0 0.22559392783497431 -0.128158856034185 0 0.21443252218934089 -0.13030165766589191 0 0.20988388920491649 -0.11965744042234611 0 0.21443252218934089 -0.13030165766589191 0 0.20531829200403809 -0.12688904783513319 0 0.21443252218934089 -0.13030165766589191 0 0.20531829200403809 -0.12688904783513319 0 0.2040457271088722 -0.13510734145316861 0 0.21443252218934089 -0.13030165766589191 0 0.2040457271088722 -0.13510734145316861 0 0.21405663773024311 -0.1375358769543798 0 0.2040457271088722 -0.13510734145316861 0 0.21405663773024311 -0.1375358769543798 0 0.2120107625263529 -0.14522857169944031 0 0.22099919438916271 -0.13485137860121699 0 0.21443252218934089 -0.13030165766589191 0 0.21405663773024311 -0.1375358769543798 0 0.22099919438916271 -0.13485137860121699 0 0.21405663773024311 -0.1375358769543798 0 0.21846111123534381 -0.14194380613559529 0 0.2040457271088722 -0.13510734145316861 0 0.20732008336663729 -0.1574017079843581 0 0.22631608284255711 -0.15515901711086769 0 0.21769097063403711 -0.1494737487935785 0 0.20732008336663729 -0.1574017079843581 0 0.2040457271088722 -0.13510734145316861 0 0.20225225970696881 -0.14544317081530769 0 0.20732008336663729 -0.1574017079843581 0 0.2040457271088722 -0.13510734145316861 0 0.2120107625263529 -0.14522857169944031 0 0.20732008336663729 -0.1574017079843581 0 0.21846111123534381 -0.14194380613559529 0 0.2120107625263529 -0.14522857169944031 0 0.21769097063403711 -0.1494737487935785 0 0.21405663773024311 -0.1375358769543798 0 0.21846111123534381 -0.14194380613559529 0 0.2120107625263529 -0.14522857169944031 0 0.2120107625263529 -0.14522857169944031 0 0.21769097063403711 -0.1494737487935785 0 0.20732008336663729 -0.1574017079843581 0 0.1946361981446614 -0.14617160100395549 0 0.19305368414082591 -0.1590860164821406 0 0.18536821132964701 -0.13887140301188361 0 0.19305368414082591 -0.1590860164821406 0 0.18536821132964701 -0.13887140301188361 0 0.20225225970696881 -0.14544317081530769 0 0.19785297350943851 -0.13097294509735741 0 0.19979025484292659 -0.15829068872634511 0 0.1946361981446614 -0.14617160100395549 0 0.19785297350943851 -0.13097294509735741 0 0.19979025484292659 -0.15829068872634511 0 0.19785297350943851 -0.13097294509735741 0 0.19979025484292659 -0.15829068872634511 0 0.1946361981446614 -0.14617160100395549 0 0.19305368414082591 -0.1590860164821406 0 0.19979025484292659 -0.15829068872634511 0 0.20225225970696881 -0.14544317081530769 0 0.19979025484292659 -0.15829068872634511 0 0.20732008336663729 -0.1574017079843581 0 0.1946361981446614 -0.14617160100395549 0 0.19174477037528881 -0.13632087823765709 0 0.19785297350943851 -0.13097294509735741 0 0.1946361981446614 -0.14617160100395549 0 0.19174477037528881 -0.13632087823765709 0 0.18536821132964701 -0.13887140301188361 0 0.19174477037528881 -0.13632087823765709 0 0.18912169851740859 -0.12926756383743199 0 0.18536821132964701 -0.13887140301188361 0 0.19089281935413971 -0.1194352299247846 0 0.18912169851740859 -0.12926756383743199 0 0.19785297350943851 -0.13097294509735741 0 0.19174477037528881 -0.13632087823765709 0 0.18912169851740859 -0.12926756383743199 0 0.19785297350943851 -0.13097294509735741 0 0.20531829200403809 -0.12688904783513319 0 0.2040457271088722 -0.13510734145316861 0 0.19785297350943851 -0.13097294509735741 0 0.2014268814114831 -0.11915697474252721 0 0.20531829200403809 -0.12688904783513319 0 0.19785297350943851 -0.13097294509735741 0 0.2040457271088722 -0.13510734145316861 0 0.20225225970696881 -0.14544317081530769 0 0.19785297350943851 -0.13097294509735741 0 0.1988337245418571 -0.174288891493208 0 0.19730385488983149 -0.1833537047679987 0 0.2014042701792351 -0.18105003524374669 0 0.1988337245418571 -0.174288891493208 0 0.20091311619985691 -0.1741242376019233 0 0.1988337245418571 -0.174288891493208 0 0.20091311619985691 -0.1741242376019233 0 0.2014042701792351 -0.18105003524374669 0 0.20091311619985691 -0.1741242376019233 0 0.2014042701792351 -0.18105003524374669 0 0.1988337245418571 -0.174288891493208 0 0.2014042701792351 -0.18105003524374669 0 0.19730385488983149 -0.1833537047679987 0 0.18765669005810079 -0.18306628881120879 0 0.1881809371519125 -0.19339638888673469 0 0.1988337245418571 -0.174288891493208 0 0.19730385488983149 -0.1833537047679987 0 0.18765669005810079 -0.18306628881120879 0 0.1988337245418571 -0.174288891493208 0 0.1834334742507881 -0.17550834004080881 0 0.1988337245418571 -0.174288891493208 0 0.18765669005810079 -0.18306628881120879 0 0.1834334742507881 -0.17550834004080881 0 0.1988337245418571 -0.174288891493208 0 0.19305368414082591 -0.1590860164821406 0 0.1834334742507881 -0.17550834004080881 0 0.20091311619985691 -0.1741242376019233 0 0.19979025484292659 -0.15829068872634511 0 0.1988337245418571 -0.174288891493208 0 0.20091311619985691 -0.1741242376019233 0 0.19979025484292659 -0.15829068872634511 0 0.20091311619985691 -0.1741242376019233 0 0.19979025484292659 -0.15829068872634511 0 0.20442441853775351 -0.16581178386575901 0 0.1988337245418571 -0.174288891493208 0 0.19305368414082591 -0.1590860164821406 0 0.19979025484292659 -0.15829068872634511 0 0.19305368414082591 -0.1590860164821406 0 0.19979025484292659 -0.15829068872634511 0 0.1988337245418571 -0.174288891493208 0 0.19305368414082591 -0.1590860164821406 0 0.22631608284255711 -0.15515901711086769 0 0.20732008336663729 -0.1574017079843581 0 0.20732008336663729 -0.1574017079843581 0 0.20967421974159359 -0.17343050115040931 0 0.21924294206232911 -0.16438058387595419 0 0.22631608284255711 -0.15515901711086769 0 0.20732008336663729 -0.1574017079843581 0 0.21924294206232911 -0.16438058387595419 0 0.20442441853775351 -0.16581178386575901 0 0.20732008336663729 -0.1574017079843581 0 0.20967421974159359 -0.17343050115040931 0 0.20091311619985691 -0.1741242376019233 0 0.20442441853775351 -0.16581178386575901 0 0.20967421974159359 -0.17343050115040931 0 0.20732008336663729 -0.1574017079843581 0 0.20967421974159359 -0.17343050115040931 0 0.19979025484292659 -0.15829068872634511 0 0.20442441853775351 -0.16581178386575901 0 0.20732008336663729 -0.1574017079843581 0 0.19979025484292659 -0.15829068872634511 0 0.20732008336663729 -0.1574017079843581 0 0.20967421974159359 -0.17343050115040931 0 0.21269204352823229 -0.19397819490435431 0 0.2014042701792351 -0.18105003524374669 0 0.20967421974159359 -0.17343050115040931 0 0.21269204352823229 -0.19397819490435431 0 0.20967421974159359 -0.17343050115040931 0 0.2267529540335487 -0.1869536844570244 0 0.21269204352823229 -0.19397819490435431 0 0.20091311619985691 -0.1741242376019233 0 0.2014042701792351 -0.18105003524374669 0 0.20967421974159359 -0.17343050115040931 0 0.20091311619985691 -0.1741242376019233 0 0.20967421974159359 -0.17343050115040931 0 0.20967421974159359 -0.17343050115040931 0 0.2267529540335487 -0.1869536844570244 0 0.2336613822985287 -0.1715311092581816 0 0.20967421974159359 -0.17343050115040931 0 0.2336613822985287 -0.1715311092581816 0 0.20967421974159359 -0.17343050115040931 0 0.2336613822985287 -0.1715311092581816 0 0.21924294206232911 -0.16438058387595419 0 0.22631608284255711 -0.15515901711086769 0 0.2336613822985287 -0.1715311092581816 0 0.21924294206232911 -0.16438058387595419 0 0.25764854485546401 -0.16963171736595609 0 0.2453120823184772 -0.15291632623737991 0 0.2336613822985287 -0.1715311092581816 0 0.25764854485546401 -0.16963171736595609 0 0.2336613822985287 -0.1715311092581816 0 0.2453120823184772 -0.15291632623737991 0 0.22631608284255711 -0.15515901711086769 0 0.2336613822985287 -0.1715311092581816 0 0.2267529540335487 -0.1869536844570244 0 0.2336613822985287 -0.1715311092581816 0 0.247303987410086 -0.19043137930135631 0 0.25764854485546401 -0.16963171736595609 0 0.2336613822985287 -0.1715311092581816 0 0.247303987410086 -0.19043137930135631 0 0.2267529540335487 -0.1869536844570244 0 0.247303987410086 -0.19043137930135631 0 0.23043313718930281 -0.20539723767082041 0 0.247303987410086 -0.19043137930135631 0 0.24828930851351119 -0.21071368277046901 0 0.23043313718930281 -0.20539723767082041 0 0.24828930851351119 -0.21071368277046901 0 0.23043313718930281 -0.20539723767082041 0 0.2324302835378341 -0.22261842884489369 0 0.2324302835378341 -0.22261842884489369 0 0.215688857919383 -0.21452897429185999 0 0.23043313718930281 -0.20539723767082041 0 0.21269204352823229 -0.19397819490435431 0 0.215688857919383 -0.21452897429185999 0 0.23043313718930281 -0.20539723767082041 0 0.2324302835378341 -0.22261842884489369 0 0.215688857919383 -0.21452897429185999 0 0.2267529540335487 -0.1869536844570244 0 0.23043313718930281 -0.20539723767082041 0 0.21269204352823229 -0.19397819490435431 0 0.2576596218415082 -0.24945354819836341 0 0.2420600592086338 -0.2364758816983151 0 0.23064896167212509 -0.24572427347926451 0 0.2576596218415082 -0.24945354819836341 0 0.23064896167212509 -0.24572427347926451 0 0.2576596218415082 -0.24945354819836341 0 0.2420600592086338 -0.2364758816983151 0 0.2491683717759762 -0.23071478296843109 0 0.2576596218415082 -0.24945354819836341 0 0.2420600592086338 -0.2364758816983151 0 0.2420600592086338 -0.2364758816983151 0 0.23064896167212509 -0.24572427347926451 0 0.2491683717759762 -0.23071478296843109 0 0.2324302835378341 -0.22261842884489369 0 0.2420600592086338 -0.2364758816983151 0 0.2491683717759762 -0.23071478296843109 0 0.2324302835378341 -0.22261842884489369 0 0.24828930851351119 -0.21071368277046901 0 0.2491683717759762 -0.23071478296843109 0 0.2324302835378341 -0.22261842884489369 0 0.2420600592086338 -0.2364758816983151 0 0.22887248084934289 -0.22550480527021599 0 0.2324302835378341 -0.22261842884489369 0 0.2420600592086338 -0.2364758816983151 0 0.22887248084934289 -0.22550480527021599 0 0.2420600592086338 -0.2364758816983151 0 0.2491683717759762 -0.23071478296843109 0 0.22887248084934289 -0.22550480527021599 0 0.22705572442083249 -0.23456834532353199 0 0.215688857919383 -0.21452897429185999 0 0.22705572442083249 -0.23456834532353199 0 0.22007758599243099 -0.2442647177401156 0 0.215688857919383 -0.21452897429185999 0 0.22887248084934289 -0.22550480527021599 0 0.2324302835378341 -0.22261842884489369 0 0.215688857919383 -0.21452897429185999 0 0.22887248084934289 -0.22550480527021599 0 0.215688857919383 -0.21452897429185999 0 0.2420600592086338 -0.2364758816983151 0 0.22887248084934289 -0.22550480527021599 0 0.22705572442083249 -0.23456834532353199 0 0.2420600592086338 -0.2364758816983151 0 0.22705572442083249 -0.23456834532353199 0 0.23064896167212509 -0.24572427347926451 0 0.22705572442083249 -0.23456834532353199 0 0.22007758599243099 -0.2442647177401156 0 0.23064896167212509 -0.24572427347926451 0 0.2213936436923723 -0.25322546312908928 0 0.23064896167212509 -0.24572427347926451 0 0.2213936436923723 -0.25322546312908928 0 0.22007758599243099 -0.2442647177401156 0 0.23064896167212509 -0.24572427347926451 0 0.2213936436923723 -0.25322546312908928 0 0.22007758599243099 -0.2442647177401156 0 0.22007758599243099 -0.2442647177401156 0 0.23064896167212509 -0.24572427347926451 0 0.2213936436923723 -0.25322546312908928 0 0.22007758599243099 -0.2442647177401156 0 0.2057469254243183 -0.24228612966306071 0 0.22007758599243099 -0.2442647177401156 0 0.2057469254243183 -0.24228612966306071 0 0.2045508544894088 -0.2254202472550072 0 0.22007758599243099 -0.2442647177401156 0 0.2057469254243183 -0.24228612966306071 0 0.2057469254243183 -0.24228612966306071 0 0.2045508544894088 -0.2254202472550072 0 0.22007758599243099 -0.2442647177401156 0 0.2045508544894088 -0.2254202472550072 0 0.215688857919383 -0.21452897429185999 0 0.22007758599243099 -0.2442647177401156 0 0.215688857919383 -0.21452897429185999 0 0.2045508544894088 -0.2254202472550072 0 0.1870097551832019 -0.21745706546592311 0 0.1812011654604006 -0.23889717576409741 0 0.2057469254243183 -0.24228612966306071 0 0.2045508544894088 -0.2254202472550072 0 0.1812011654604006 -0.23889717576409741 0 0.19504556091500019 -0.25145433893977859 0 0.2057469254243183 -0.24228612966306071 0 0.1812011654604006 -0.23889717576409741 0 0.2057469254243183 -0.24228612966306071 0 0.1812011654604006 -0.23889717576409741 0 0.21269204352823229 -0.19397819490435431 0 0.20837080005482431 -0.19937365854239339 0 0.215688857919383 -0.21452897429185999 0 0.2014042701792351 -0.18105003524374669 0 0.20837080005482431 -0.19937365854239339 0 0.20335478355449421 -0.20855436484695419 0 0.2014042701792351 -0.18105003524374669 0 0.21269204352823229 -0.19397819490435431 0 0.20837080005482431 -0.19937365854239339 0 0.2014042701792351 -0.18105003524374669 0 0.20837080005482431 -0.19937365854239339 0 0.2045508544894088 -0.2254202472550072 0 0.20335478355449421 -0.20855436484695419 0 0.21269204352823229 -0.19397819490435431 0 0.215688857919383 -0.21452897429185999 0 0.2045508544894088 -0.2254202472550072 0 0.215688857919383 -0.21452897429185999 0 0.20335478355449421 -0.20855436484695419 0 0.215688857919383 -0.21452897429185999 0 0.20636816858276261 -0.20678290477326269 0 0.215688857919383 -0.21452897429185999 0 0.20335478355449421 -0.20855436484695419 0 0.20837080005482431 -0.19937365854239339 0 0.20636816858276261 -0.20678290477326269 0 0.20335478355449421 -0.20855436484695419 0 0.215688857919383 -0.21452897429185999 0 0.20636816858276261 -0.20678290477326269 0 0.20335478355449421 -0.20855436484695419 0 0.20837080005482431 -0.19937365854239339 0 0.215688857919383 -0.21452897429185999 0 0.20636816858276261 -0.20678290477326269 0 0.20335478355449421 -0.20855436484695419 0 0.18324681161101589 -0.19882796961922841 0 0.20335478355449421 -0.20855436484695419 0 0.18324681161101589 -0.19882796961922841 0 0.1870097551832019 -0.21745706546592311 0 0.2045508544894088 -0.2254202472550072 0 0.20335478355449421 -0.20855436484695419 0 0.1870097551832019 -0.21745706546592311 0 0.20335478355449421 -0.20855436484695419 0 0.2002648571499244 -0.20339365411293489 0 0.18324681161101589 -0.19882796961922841 0 0.2014042701792351 -0.18105003524374669 0 0.20335478355449421 -0.20855436484695419 0 0.2014042701792351 -0.18105003524374669 0 0.20335478355449421 -0.20855436484695419 0 0.2002648571499244 -0.20339365411293489 0 0.2002648571499244 -0.20339365411293489 0 0.1881809371519125 -0.19339638888673469 0 0.19730385488983149 -0.1833537047679987 0 0.2002648571499244 -0.20339365411293489 0 0.1881809371519125 -0.19339638888673469 0 0.2002648571499244 -0.20339365411293489 0 0.1881809371519125 -0.19339638888673469 0 0.18324681161101589 -0.19882796961922841 0 0.19730385488983149 -0.1833537047679987 0 0.2014042701792351 -0.18105003524374669 0 0.2002648571499244 -0.20339365411293489 0 0.19730385488983149 -0.1833537047679987 0 0.1881809371519125 -0.19339638888673469 0 0.18324681161101589 -0.19882796961922841 0 0.16779852360695549 -0.21583374354560891 0 0.1679624139491544 -0.19143477785951679 0 0.1881809371519125 -0.19339638888673469 0 0.18324681161101589 -0.19882796961922841 0 0.1679624139491544 -0.19143477785951679 0 0.18324681161101589 -0.19882796961922841 0 0.1679624139491544 -0.19143477785951679 0 0.1881809371519125 -0.19339638888673469 0 0.18324681161101589 -0.19882796961922841 0 0.18324681161101589 -0.19882796961922841 0 0.1870097551832019 -0.21745706546592311 0 0.16779852360695549 -0.21583374354560891 0 0.18324681161101589 -0.19882796961922841 0 0.16779852360695549 -0.21583374354560891 0 0.16779852360695549 -0.21583374354560891 0 0.15647475406626449 -0.1987539046758271 0 0.1679624139491544 -0.19143477785951679 0 0.15647475406626449 -0.1987539046758271 0 0.1679624139491544 -0.19143477785951679 0 0.15267801628729299 -0.18404158609980509 0 0.1679624139491544 -0.19143477785951679 0 0.15267801628729299 -0.18404158609980509 0 0.1870097551832019 -0.21745706546592311 0 0.16779852360695549 -0.21583374354560891 0 0.1812011654604006 -0.23889717576409741 0 0.16779852360695549 -0.21583374354560891 0 0.1523502356028956 -0.23283951747198961 0 0.16779852360695549 -0.21583374354560891 0 0.1812011654604006 -0.23889717576409741 0 0.1523502356028956 -0.23283951747198961 0 0.16199683441912749 -0.25415610895316398 0 0.1812011654604006 -0.23889717576409741 0 0.1523502356028956 -0.23283951747198961 0 0.16199683441912749 -0.25415610895316398 0 0.1523502356028956 -0.23283951747198961 0 0.1369019475988357 -0.2498452913983702 0 0.1523502356028956 -0.23283951747198961 0 0.14057202625213441 -0.22182136198060171 0 0.1369019475988357 -0.2498452913983702 0 0.1523502356028956 -0.23283951747198961 0 0.1369019475988357 -0.2498452913983702 0 0.16779852360695549 -0.21583374354560891 0 0.1523502356028956 -0.23283951747198961 0 0.14057202625213441 -0.22182136198060171 0 0.12183539310184011 -0.22622498648806369 0 0.14057202625213441 -0.22182136198060171 0 0.1369019475988357 -0.2498452913983702 0 0.14240522355222471 -0.20525461765563979 0 0.1507304351516435 -0.1780978871441235 0 0.15267801628729299 -0.18404158609980509 0 0.14240522355222471 -0.20525461765563979 0 0.1507304351516435 -0.1780978871441235 0 0.14240522355222471 -0.20525461765563979 0 0.14165545632939749 -0.18409561460941681 0 0.1507304351516435 -0.1780978871441235 0 0.15647475406626449 -0.1987539046758271 0 0.14240522355222471 -0.20525461765563979 0 0.15267801628729299 -0.18404158609980509 0 0.16779852360695549 -0.21583374354560891 0 0.14057202625213441 -0.22182136198060171 0 0.14240522355222471 -0.20525461765563979 0 0.16779852360695549 -0.21583374354560891 0 0.15647475406626449 -0.1987539046758271 0 0.14240522355222471 -0.20525461765563979 0 0.14057202625213441 -0.22182136198060171 0 0.14240522355222471 -0.20525461765563979 0 0.12529485837298551 -0.2052603223955643 0 0.12183539310184011 -0.22622498648806369 0 0.14057202625213441 -0.22182136198060171 0 0.12529485837298551 -0.2052603223955643 0 0.14240522355222471 -0.20525461765563979 0 0.13278120198650559 -0.19096592431229051 0 0.14165545632939749 -0.18409561460941681 0 0.14240522355222471 -0.20525461765563979 0 0.12529485837298551 -0.2052603223955643 0 0.13278120198650559 -0.19096592431229051 0 0.1235098410480293 -0.1897733682860277 0 0.12529485837298551 -0.2052603223955643 0 0.13278120198650559 -0.19096592431229051 0 0.1235098410480293 -0.1897733682860277 0 0.13278120198650559 -0.19096592431229051 0 0.12875941044611591 -0.18168788496672789 0 0.13278120198650559 -0.19096592431229051 0 0.12875941044611591 -0.18168788496672789 0 0.13493725038366319 -0.17892145425979891 0 0.1235098410480293 -0.1897733682860277 0 0.1238576652750592 -0.17359876882703071 0 0.12875941044611591 -0.18168788496672789 0 0.1238576652750592 -0.17359876882703071 0 0.12875941044611591 -0.18168788496672789 0 0.130345661194292 -0.1744871852072401 0 0.12875941044611591 -0.18168788496672789 0 0.130345661194292 -0.1744871852072401 0 0.13493725038366319 -0.17892145425979891 0 0.13493725038366319 -0.17892145425979891 0 0.14165545632939749 -0.18409561460941681 0 0.1412924309356999 -0.175838536784272 0 0.130345661194292 -0.1744871852072401 0 0.13594408242631459 -0.1731366992354334 0 0.13493725038366319 -0.17892145425979891 0 0.13594408242631459 -0.1731366992354334 0 0.13493725038366319 -0.17892145425979891 0 0.1412924309356999 -0.175838536784272 0 0.13594408242631459 -0.1731366992354334 0 0.1412924309356999 -0.175838536784272 0 0.1425089792112498 -0.17011478905469471 0 0.13278120198650559 -0.19096592431229051 0 0.13493725038366319 -0.17892145425979891 0 0.14165545632939749 -0.18409561460941681 0 0.14165545632939749 -0.18409561460941681 0 0.1474110067751393 -0.17836073171067821 0 0.1507304351516435 -0.1780978871441235 0 0.14165545632939749 -0.18409561460941681 0 0.1412924309356999 -0.175838536784272 0 0.1474110067751393 -0.17836073171067821 0 0.1412924309356999 -0.175838536784272 0 0.14623369136605069 -0.17454235074135219 0 0.1425089792112498 -0.17011478905469471 0 0.14623369136605069 -0.17454235074135219 0 0.1474110067751393 -0.17836073171067821 0 0.1507304351516435 -0.1780978871441235 0 0.1412924309356999 -0.175838536784272 0 0.14623369136605069 -0.17454235074135219 0 0.1474110067751393 -0.17836073171067821 0 0.1474110067751393 -0.17836073171067821 0 0.1507304351516435 -0.1780978871441235 0 0.14623369136605069 -0.17454235074135219 0 0.1507304351516435 -0.1780978871441235 0 0.14922560475652069 -0.1702998090129923 0 0.15249681367562881 -0.1638742100891597 0 0.1425089792112498 -0.17011478905469471 0 0.1307563894025707 -0.1664409111024284 0 0.15249681367562881 -0.1638742100891597 0 0.1307563894025707 -0.1664409111024284 0 0.15249681367562881 -0.1638742100891597 0 0.15518828118056821 -0.16355645215190209 0 0.15214981295147101 -0.14937756232198079 0 0.15249681367562881 -0.1638742100891597 0 0.15518828118056821 -0.16355645215190209 0 0.15518828118056821 -0.16355645215190209 0 0.154566057818081 -0.16558613655948379 0 0.1507304351516435 -0.1780978871441235 0 0.154566057818081 -0.16558613655948379 0 0.14922560475652069 -0.1702998090129923 0 0.1507304351516435 -0.1780978871441235 0 0.154566057818081 -0.16558613655948379 0 0.15249681367562881 -0.1638742100891597 0 0.154566057818081 -0.16558613655948379 0 0.15249681367562881 -0.1638742100891597 0 0.15518828118056821 -0.16355645215190209 0 0.154566057818081 -0.16558613655948379 0 0.15249681367562881 -0.1638742100891597 0 0.154566057818081 -0.16558613655948379 0 0.14922560475652069 -0.1702998090129923 0 0.15249681367562881 -0.1638742100891597 0 0.14922560475652069 -0.1702998090129923 0 0.1425089792112498 -0.17011478905469471 0 0.14623369136605069 -0.17454235074135219 0 0.14922560475652069 -0.1702998090129923 0 0.1425089792112498 -0.17011478905469471 0 0.15249681367562881 -0.1638742100891597 0 0.13784478450994461 -0.15175229752308431 0 0.15249681367562881 -0.1638742100891597 0 0.1307563894025707 -0.1664409111024284 0 0.13784478450994461 -0.15175229752308431 0 0.13594408242631459 -0.1731366992354334 0 0.1425089792112498 -0.17011478905469471 0 0.1307563894025707 -0.1664409111024284 0 0.1238576652750592 -0.17359876882703071 0 0.130345661194292 -0.1744871852072401 0 0.1307563894025707 -0.1664409111024284 0 0.130345661194292 -0.1744871852072401 0 0.13594408242631459 -0.1731366992354334 0 0.1307563894025707 -0.1664409111024284 0 0.1307563894025707 -0.1664409111024284 0 0.1273970520991638 -0.1532817867802074 0 0.13784478450994461 -0.15175229752308431 0 0.1177942791398789 -0.15530355353830849 0 0.1307563894025707 -0.1664409111024284 0 0.1273970520991638 -0.1532817867802074 0 0.12319275534426111 -0.13963038495700819 0 0.13784478450994461 -0.15175229752308431 0 0.14231341405360681 -0.13536434312621151 0 0.12319275534426111 -0.13963038495700819 0 0.1273970520991638 -0.1532817867802074 0 0.13784478450994461 -0.15175229752308431 0 0.12319275534426111 -0.13963038495700819 0 0.13784478450994461 -0.15175229752308431 0 0.12319275534426111 -0.13963038495700819 0 0.13071413744654301 -0.1199166731996731 0 0.14231341405360681 -0.13536434312621151 0 0.14899920342532449 -0.1138473029921208 0 0.14231341405360681 -0.13536434312621151 0 0.16398616931028109 -0.13485785702842679 0 0.14231341405360681 -0.13536434312621151 0 0.15214981295147101 -0.14937756232198079 0 0.16398616931028109 -0.13485785702842679 0 0.13784478450994461 -0.15175229752308431 0 0.14231341405360681 -0.13536434312621151 0 0.15214981295147101 -0.14937756232198079 0 0.15249681367562881 -0.1638742100891597 0 0.13784478450994461 -0.15175229752308431 0 0.15214981295147101 -0.14937756232198079 0 0.15518828118056821 -0.16355645215190209 0 0.17102783862073151 -0.14953705007479901 0 0.16398616931028109 -0.13485785702842679 0 0.15518828118056821 -0.16355645215190209 0 0.16398616931028109 -0.13485785702842679 0 0.15518828118056821 -0.16355645215190209 0 0.15214981295147101 -0.14937756232198079 0 0.16398616931028109 -0.13485785702842679 0 0.17768273851846769 -0.11865678954162651 0 0.18536821132964701 -0.13887140301188361 0 0.17768273851846769 -0.11865678954162651 0 0.18912169851740859 -0.12926756383743199 0 0.18536821132964701 -0.13887140301188361 0 0.17768273851846769 -0.11865678954162651 0 0.16398616931028109 -0.13485785702842679 0 0.18536821132964701 -0.13887140301188361 0 0.19305368414082591 -0.1590860164821406 0 0.18536821132964701 -0.13887140301188361 0 0.180968110424547 -0.1517649602487576 0 0.17102783862073151 -0.14953705007479901 0 0.16398616931028109 -0.13485785702842679 0 0.18536821132964701 -0.13887140301188361 0 0.17102783862073151 -0.14953705007479901 0 0.180968110424547 -0.1517649602487576 0 0.17412098266069689 -0.16132123431702119 0 0.17102783862073151 -0.14953705007479901 0 0.18536821132964701 -0.13887140301188361 0 0.180968110424547 -0.1517649602487576 0 0.19305368414082591 -0.1590860164821406 0 0.17412098266069689 -0.16132123431702119 0 0.1834334742507881 -0.17550834004080881 0 0.19305368414082591 -0.1590860164821406 0 0.17412098266069689 -0.16132123431702119 0 0.19305368414082591 -0.1590860164821406 0 0.180968110424547 -0.1517649602487576 0 0.17412098266069689 -0.16132123431702119 0 0.17412098266069689 -0.16132123431702119 0 0.1834334742507881 -0.17550834004080881 0 0.16803322395971931 -0.17672778858841051 0 0.1881809371519125 -0.19339638888673469 0 0.16803322395971931 -0.17672778858841051 0 0.1881809371519125 -0.19339638888673469 0 0.1679624139491544 -0.19143477785951679 0 0.16803322395971931 -0.17672778858841051 0 0.18765669005810079 -0.18306628881120879 0 0.1834334742507881 -0.17550834004080881 0 0.16803322395971931 -0.17672778858841051 0 0.18765669005810079 -0.18306628881120879 0 0.1881809371519125 -0.19339638888673469 0 0.16803322395971931 -0.17672778858841051 0 0.1834334742507881 -0.17550834004080881 0 0.16803322395971931 -0.17672778858841051 0 0.1507304351516435 -0.1780978871441235 0 0.15267801628729299 -0.18404158609980509 0 0.16803322395971931 -0.17672778858841051 0 0.1507304351516435 -0.1780978871441235 0 0.16803322395971931 -0.17672778858841051 0 0.1507304351516435 -0.1780978871441235 0 0.154566057818081 -0.16558613655948379 0 0.16803322395971931 -0.17672778858841051 0 0.1679624139491544 -0.19143477785951679 0 0.15267801628729299 -0.18404158609980509 0 0.16803322395971931 -0.17672778858841051 0 0.15518828118056821 -0.16355645215190209 0 0.17412098266069689 -0.16132123431702119 0 0.16803322395971931 -0.17672778858841051 0 0.15518828118056821 -0.16355645215190209 0 0.154566057818081 -0.16558613655948379 0 0.16803322395971931 -0.17672778858841051 0 0.154566057818081 -0.16558613655948379 0 0.16803322395971931 -0.17672778858841051 0 0.15518828118056821 -0.16355645215190209 0 0.17102783862073151 -0.14953705007479901 0 0.17412098266069689 -0.16132123431702119 0 0.15518828118056821 -0.16355645215190209 0 0.17412098266069689 -0.16132123431702119 0 
</DataArray>
</Points>
<Cells>
<DataArray type="UInt32" Name="connectivity" format="ascii">
0 1 2 3 4 5 6 7 8 9 10 11 12 13 14 15 16 17 18 19 20 21 22 23 24 25 26 27 28 29 30 31 32 33 34 35 36 37 38 39 40 41 42 43 44 45 46 47 48 49 50 51 52 53 54 55 56 57 58 59 60 61 62 63 64 65 66 67 68 69 70 71 72 73 74 75 76 77 78 79 80 81 82 83 84 85 86 87 88 89 90 91 92 93 94 95 96 97 98 99 100 101 102 103 104 105 106 107 108 109 110 111 112 113 114 115 116 117 118 119 120 121 122 123 124 125 126 127 128 129 130 131 132 133 134 135 136 137 138 139 140 141 142 143 144 145 146 147 148 149 150 151 152 153 154 155 156 157 158 159 160 161 162 163 164 165 166 167 168 169 170 171 172 173 174 175 176 177 178 179 180 181 182 183 184 185 186 187 188 189 190 191 192 193 194 195 196 197 198 199 200 201 202 203 204 205 206 207 208 209 210 211 212 213 214 215 216 217 218 219 220 221 222 223 224 225 226 227 228 229 230 231 232 233 234 235 236 237 238 239 240 241 242 243 244 245 246 247 248 249 250 251 252 253 254 255 256 257 258 259 260 261 262 263 264 265 266 267 268 269 270 271 272 273 274 275 276 277 278 279 280 281 282 283 284 285 286 287 288 289 290 291 292 293 294 295 296 297 298 299 300 301 302 303 304 305 306 307 308 309 310 311 312 313 314 315 316 317 318 319 320 321 322 323 324 325 326 327 328 329 330 331 332 333 334 335 336 337 338 339 340 341 342 343 344 345 346 347 348 349 350 351 352 353 354 355 356 357 358 359 360 361 362 363 364 365 366 367 368 369 370 371 372 373 374 375 376 377 378 379 380 381 382 383 384 385 386 387 388 389 390 391 392 393 394 395 396 397 398 399 400 401 402 403 404 405 406 407 408 409 410 411 412 413 414 415 416 417 418 419 420 421 422 423 424 425 426 427 428 429 430 431 432 433 434 435 436 437 438 439 440 441 442 443 444 445 446 447 448 449 450 451 452 453 454 455 456 457 458 459 460 461 462 463 464 465 466 467 468 469 470 471 472 473 474 475 476 477 478 479 480 481 482 483 484 485 486 487 488 489 490 491 492 493 494 495 496 497 498 499 500 501 502 503 504 505 506 507 508 509 510 511 512 513 514 515 516 517 518 519 520 521 522 523 524 525 526 527 528 529 530 531 532 533 534 535 536 537 538 539 540 541 542 543 544 545 546 547 548 549 550 551 552 553 554 555 556 557 558 559 560 561 562 563 564 565 566 567 568 569 570 571 572 573 574 575 576 577 578 579 580 581 582 583 584 585 586 587 588 589 590 591 592 593 594 595 596 597 598 599 600 601 602 603 604 605 606 607 608 609 610 611 612 613 614 615 616 617 618 619 620 621 622 623 624 625 626 627 628 629 630 631 632 633 634 635 636 637 638 639 640 641 642 643 644 645 646 647 648 649 650 651 652 653 654 655 656 657 658 659 660 661 662 663 664 665 666 667 668 669 670 671 672 673 674 675 676 677 678 679 680 681 682 683 684 685 686 687 688 689 690 691 692 693 694 695 696 697 698 699 700 701 702 703 704 705 706 707 708 709 710 711 712 713 714 715 716 717 718 719 720 721 722 723 724 725 726 727 728 729 730 731 732 733 734 735 736 737 738 739 740 741 742 743 744 745 746 747 748 749 750 751 752 753 754 755 756 757 758 759 760 761 762 763 764 765 766 767 768 769 770 771 772 773 774 775 776 777 778 779 780 781 782 783 784 785 786 787 788 789 790 791 792 793 794 795 796 797 798 799 800 801 802 803 804 805 806 807 808 809 810 811 812 813 814 815 816 817 818 819 820 821 822 823 824 825 826 827 828 829 830 831 832 833 834 835 836 837 838 839 840 841 842 843 844 845 846 847 848 849 850 851 852 853 854 855 856 857 858 859 860 861 862 863 864 865 866 867 868 869 870 871 872 873 874 875 876 877 878 879 880 881 882 883 884 885 886 887 888 889 890 891 892 893 894 895 896 897 898 899 900 901 902 903 904 905 906 907 908 909 910 911 912 913 914 915 916 917 918 919 920 921 922 923 924 925 926 927 928 929 930 931 932 933 934 935 936 937 938 939 940 941 942 943 944 945 946 947 948 949 950 951 952 953 954 955 956 957 958 959 960 961 962 963 964 965 966 967 968 969 970 971 972 973 974 975 976 977 978 979 980 981 982 983 984 985 986 987 988 989 990 991 992 993 994 995 996 997 998 999 1000 1001 1002 1003 1004 1005 1006 1007 1008 1009 1010 1011 1012 1013 1014 1015 1016 1017 1018 1019 1020 1021 1022 1023 1024 1025 1026 1027 1028 1029 1030 1031 1032 1033 1034 1035 1036 1037 1038 1039 1040 1041 1042 1043 1044 1045 1046 1047 1048 1049 1050 1051 1052 1053 1054 1055 1056 1057 1058 1059 1060 1061 1062 1063 1064 1065 1066 1067 1068 1069 1070 1071 1072 1073 1074 1075 1076 1077 1078 1079 1080 1081 1082 1083 1084 1085 1086 1087 1088 1089 1090 1091 1092 1093 1094 1095 1096 1097 1098 1099 1100 1101 1102 1103 1104 1105 1106 1107 1108 1109 1110 1111 1112 1113 1114 1115 1116 1117 1118 1119 1120 1121 1122 1123 1124 1125 1126 1127 1128 1129 1130 1131 1132 1133 1134 1135 1136 1137 1138 1139 1140 1141 1142 1143 1144 1145 1146 1147 1148 1149 1150 1151 1152 1153 1154 1155 1156 1157 1158 1159 1160 1161 1162 1163 1164 1165 1166 1167 1168 1169 1170 1171 1172 1173 1174 1175 1176 1177 1178 1179 1180 1181 1182 1183 1184 1185 1186 1187 1188 1189 1190 1191 1192 1193 1194 1195 1196 1197 1198 1199 1200 1201 1202 1203 1204 1205 1206 1207 1208 1209 1210 1211 1212 1213 1214 1215 1216 1217 1218 1219 1220 1221 1222 1223 1224 1225 1226 1227 1228 1229 1230 1231 1232 1233 1234 1235 1236 1237 1238 1239 1240 1241 1242 1243 1244 1245 1246 1247 1248 1249 1250 1251 1252 1253 1254 1255 1256 1257 1258 1259 1260 1261 1262 1263 1264 1265 1266 1267 1268 1269 1270 1271 1272 1273 1274 1275 1276 1277 1278 1279 1280 1281 1282 1283 1284 1285 1286 1287 1288 1289 1290 1291 1292 1293 1294 1295 1296 1297 1298 1299 1300 1301 1302 1303 1304 1305 1306 1307 1308 1309 1310 1311 1312 1313 1314 1315 1316 1317 1318 1319 1320 1321 1322 1323 1324 1325 1326 1327 1328 1329 1330 1331 1332 1333 1334 1335 1336 1337 1338 1339 1340 1341 1342 1343 1344 1345 1346 1347 1348 1349 1350 1351 1352 1353 1354 1355 1356 1357 1358 1359 1360 1361 1362 1363 1364 1365 1366 1367 1368 1369 1370 1371 1372 1373 1374 1375 1376 1377 1378 1379 1380 1381 1382 1383 1384 1385 1386 1387 1388 1389 1390 1391 1392 1393 1394 1395 1396 1397 1398 1399 1400 1401 1402 1403 1404 1405 1406 1407 1408 1409 1410 1411 1412 1413 1414 1415 1416 1417 1418 1419 1420 1421 1422 1423 1424 1425 1426 1427 1428 1429 1430 1431 1432 1433 1434 1435 1436 1437 1438 1439 1440 1441 1442 1443 1444 1445 1446 1447 1448 1449 1450 1451 1452 1453 1454 1455 1456 1457 1458 1459 1460 1461 1462 1463 1464 1465 1466 1467 1468 1469 1470 1471 1472 1473 1474 1475 1476 1477 1478 1479 1480 1481 1482 1483 1484 1485 1486 1487 1488 1489 1490 1491 1492 1493 1494 1495 1496 1497 1498 1499 1500 1501 1502 1503 1504 1505 1506 1507 1508 1509 1510 1511 1512 1513 1514 1515 1516 1517 1518 1519 1520 1521 1522 1523 1524 1525 1526 1527 1528 1529 1530 1531 1532 1533 1534 1535 1536 1537 1538 1539 1540 1541 1542 1543 1544 1545 1546 1547 1548 1549 1550 1551 1552 1553 1554 1555 1556 1557 1558 1559 1560 1561 1562 1563 1564 1565 1566 1567 1568 1569 1570 1571 1572 1573 1574 1575 1576 1577 1578 1579 1580 1581 1582 1583 1584 1585 1586 1587 1588 1589 1590 1591 1592 1593 1594 1595 1596 1597 1598 1599 1600 1601 1602 1603 1604 1605 1606 1607 1608 1609 1610 1611 1612 1613 1614 1615 1616 1617 1618 1619 1620 1621 1622 1623 1624 1625 1626 1627 1628 1629 1630 1631 1632 1633 1634 1635 1636 1637 1638 1639 1640 1641 1642 1643 1644 1645 1646 1647 1648 1649 1650 1651 1652 1653 1654 1655 1656 1657 1658 1659 1660 1661 1662 1663 1664 1665 1666 1667 1668 1669 1670 1671 1672 1673 1674 1675 1676 1677 1678 1679 1680 1681 1682 1683 1684 1685 1686 1687 1688 1689 1690 1691 1692 1693 1694 1695 1696 1697 1698 1699 1700 1701 1702 1703 1704 1705 1706 1707 1708 1709 1710 1711 1712 1713 1714 1715 1716 1717 1718 1719 1720 1721 1722 1723 1724 1725 1726 1727 1728 1729 1730 1731 1732 1733 1734 1735 1736 1737 1738 1739 1740 1741 1742 1743 1744 1745 1746 1747 1748 1749 1750 1751 1752 1753 1754 1755 1756 1757 1758 1759 1760 1761 1762 1763 1764 1765 1766 1767 1768 1769 1770 1771 1772 1773 1774 1775 1776 1777 1778 1779 1780 1781 1782 1783 1784 1785 1786 1787 1788 1789 1790 1791 1792 1793 1794 1795 1796 1797 1798 1799 1800 1801 1802 1803 1804 1805 1806 1807 1808 1809 1810 1811 1812 1813 1814 1815 1816 1817 1818 1819 1820 1821 1822 1823 1824 1825 1826 1827 1828 1829 1830 1831 1832 1833 1834 1835 1836 1837 1838 1839 1840 1841 1842 1843 1844 1845 1846 1847 1848 1849 1850 1851 1852 1853 1854 1855 1856 1857 1858 1859 1860 1861 1862 1863 1864 1865 1866 1867 1868 1869 1870 1871 1872 1873 1874 1875 1876 1877 1878 1879 1880 1881 1882 1883 1884 1885 1886 1887 1888 1889 1890 1891 1892 1893 1894 1895 1896 1897 1898 1899 1900 1901 1902 1903 1904 1905 1906 1907 1908 1909 1910 1911 1912 1913 1914 1915 1916 1917 1918 1919 1920 1921 1922 1923 1924 1925 1926 1927 1928 1929 1930 1931 1932 1933 1934 1935 1936 1937 1938 1939 1940 1941 1942 1943 1944 1945 1946 1947 1948 1949 1950 1951 1952 1953 1954 1955 1956 1957 1958 1959 1960 1961 1962 1963 1964 1965 1966 1967 1968 1969 1970 1971 1972 1973 1974 1975 1976 1977 1978 1979 1980 1981 1982 1983 1984 1985 1986 1987 1988 1989 1990 1991 1992 1993 1994 1995 1996 1997 1998 1999 2000 2001 2002 2003 2004 2005 2006 2007 2008 2009 2010 2011 2012 2013 2014 2015 2016 2017 2018 2019 2020 2021 2022 2023 2024 2025 2026 2027 2028 2029 2030 2031 2032 2033 2034 2035 2036 2037 2038 2039 2040 2041 2042 2043 2044 2045 2046 2047 2048 2049 2050 2051 2052 2053 2054 2055 2056 2057 2058 2059 2060 2061 2062 2063 2064 2065 2066 2067 2068 2069 2070 2071 2072 2073 2074 2075 2076 2077 2078 2079 2080 2081 2082 2083 2084 2085 2086 2087 2088 2089 2090 2091 2092 2093 2094 2095 2096 2097 2098 2099 2100 2101 2102 2103 2104 2105 2106 2107 2108 2109 2110 2111 2112 2113 2114 2115 2116 2117 2118 2119 2120 2121 2122 2123 2124 2125 2126 2127 2128 2129 2130 2131 2132 2133 2134 2135 2136 2137 2138 2139 2140 2141 2142 2143 2144 2145 2146 2147 2148 2149 2150 2151 2152 2153 2154 2155 2156 2157 2158 2159 2160 2161 2162 2163 2164 2165 2166 2167 2168 2169 2170 2171 2172 2173 2174 2175 2176 2177 2178 2179 2180 2181 2182 2183 2184 2185 2186 2187 2188 2189 2190 2191 2192 2193 2194 2195 2196 2197 2198 2199 2200 2201 2202 2203 2204 2205 2206 2207 2208 2209 2210 2211 2212 2213 2214 2215 2216 2217 2218 2219 2220 2221 2222 2223 2224 2225 2226 2227 2228 2229 2230 2231 2232 2233 2234 2235 2236 2237 2238 2239 2240 2241 2242 2243 2244 2245 2246 2247 2248 2249 2250 2251 2252 2253 2254 2255 2256 2257 2258 2259 2260 2261 2262 2263 2264 2265 2266 2267 2268 2269 2270 2271 2272 2273 2274 2275 2276 2277 2278 2279 2280 2281 2282 2283 2284 2285 2286 2287 2288 2289 2290 2291 2292 2293 2294 2295 2296 2297 2298 2299 2300 2301 2302 2303 2304 2305 2306 2307 2308 2309 2310 2311 2312 2313 2314 2315 2316 2317 2318 2319 2320 2321 2322 2323 2324 2325 2326 2327 2328 2329 2330 2331 2332 2333 2334 2335 2336 2337 2338 2339 2340 2341 2342 2343 2344 2345 2346 2347 2348 2349 2350 2351 2352 2353 2354 2355 2356 2357 2358 2359 2360 2361 2362 2363 2364 2365 2366 2367 2368 2369 2370 2371 2372 2373 2374 2375 2376 2377 2378 2379 2380 2381 2382 2383 2384 2385 2386 2387 2388 2389 2390 2391 2392 2393 2394 2395 2396 2397 2398 2399 2400 2401 2402 2403 2404 2405 2406 2407 2408 2409 2410 2411 2412 2413 2414 2415 2416 2417 2418 2419 2420 2421 2422 2423 2424 2425 2426 2427 2428 2429 2430 2431 2432 2433 2434 2435 2436 2437 2438 2439 2440 2441 2442 2443 2444 2445 2446 2447 2448 2449 2450 2451 2452 2453 2454 2455 2456 2457 2458 2459 2460 2461 2462 2463 2464 2465 2466 2467 2468 2469 2470 2471 2472 2473 2474 2475 2476 2477 2478 2479 2480 2481 2482 2483 2484 2485 2486 2487 2488 2489 2490 2491 2492 2493 2494 2495 2496 2497 2498 2499 2500 2501 2502 2503 2504 2505 2506 2507 2508 2509 2510 2511 2512 2513 2514 2515 2516 2517 2518 2519 2520 2521 2522 2523 2524 2525 2526 2527 2528 2529 2530 2531 2532 2533 2534 2535 2536 2537 2538 2539 2540 2541 2542 2543 2544 2545 2546 2547 2548 2549 2550 2551 2552 2553 2554 2555 2556 2557 2558 2559 2560 2561 2562 2563 2564 2565 2566 2567 2568 2569 2570 2571 2572 2573 2574 2575 2576 2577 2578 2579 2580 2581 2582 2583 2584 2585 2586 2587 2588 2589 2590 2591 2592 2593 2594 2595 2596 2597 2598 2599 2600 2601 2602 2603 2604 2605 2606 2607 2608 2609 2610 2611 2612 2613 2614 2615 2616 2617 2618 2619 2620 2621 2622 2623 2624 2625 2626 2627 2628 2629 2630 2631 2632 2633 2634 2635 2636 2637 2638 2639 2640 2641 2642 2643 2644 2645 2646 2647 2648 2649 2650 2651 2652 2653 2654 2655 2656 2657 2658 2659 2660 2661 2662 2663 2664 2665 2666 2667 2668 2669 2670 2671 2672 2673 2674 2675 2676 2677 2678 2679 2680 2681 2682 2683 2684 2685 2686 2687 2688 2689 2690 2691 2692 2693 2694 2695 2696 2697 2698 2699 2700 2701 2702 2703 2704 2705 2706 2707 2708 2709 2710 2711 2712 2713 2714 2715 2716 2717 2718 2719 2720 2721 2722 2723 2724 2725 2726 2727 2728 2729 2730 2731 2732 2733 2734 2735 2736 2737 2738 2739 2740 2741 2742 2743 2744 2745 2746 2747 2748 2749 2750 2751 2752 2753 2754 2755 2756 2757 2758 2759 2760 2761 2762 2763 2764 2765 2766 2767 2768 2769 2770 2771 2772 2773 2774 2775 2776 2777 2778 2779 2780 2781 2782 2783 2784 2785 2786 2787 2788 2789 2790 2791 2792 2793 2794 2795 2796 2797 2798 2799 2800 2801 2802 2803 2804 2805 2806 2807 2808 2809 2810 2811 2812 2813 2814 2815 2816 2817 2818 2819 2820 2821 2822 2823 2824 2825 2826 2827 2828 2829 2830 2831 2832 2833 2834 2835 2836 2837 2838 2839 2840 2841 2842 2843 2844 2845 2846 2847 2848 2849 2850 2851 2852 2853 2854 2855 2856 2857 2858 2859 2860 2861 2862 2863 2864 2865 2866 2867 2868 2869 2870 2871 2872 2873 2874 2875 2876 2877 2878 2879 2880 2881 2882 2883 2884 2885 2886 2887 2888 2889 2890 2891 2892 2893 2894 2895 2896 2897 2898 2899 2900 2901 2902 2903 2904 2905 2906 2907 2908 2909 2910 2911 2912 2913 2914 2915 2916 2917 2918 2919 2920 2921 2922 2923 2924 2925 2926 2927 2928 2929 2930 2931 2932 2933 2934 2935 2936 2937 2938 2939 2940 2941 2942 2943 2944 2945 2946 2947 2948 2949 2950 2951 2952 2953 2954 2955 2956 2957 2958 2959 2960 2961 2962 2963 2964 2965 2966 2967 2968 2969 2970 2971 2972 2973 2974 2975 2976 2977 2978 2979 2980 2981 2982 2983 2984 2985 2986 2987 2988 2989 2990 2991 2992 2993 2994 2995 2996 2997 2998 2999 3000 3001 3002 3003 3004 3005 3006 3007 3008 3009 3010 3011 3012 3013 3014 3015 3016 3017 3018 3019 3020 3021 3022 3023 3024 3025 3026 3027 3028 3029 3030 3031 3032 3033 3034 3035 3036 3037 3038 3039 3040 3041 3042 3043 3044 3045 3046 3047 3048 3049 3050 3051 3052 3053 3054 3055 3056 3057 3058 3059 3060 3061 3062 3063 3064 3065 3066 3067 3068 3069 3070 3071 3072 3073 3074 3075 3076 3077 3078 3079 3080 3081 3082 3083 3084 3085 3086 3087 3088 3089 3090 3091 3092 3093 3094 3095 3096 3097 3098 3099 3100 3101 3102 3103 3104 3105 3106 3107 3108 3109 3110 3111 3112 3113 3114 3115 3116 3117 3118 3119 3120 3121 3122 3123 3124 3125 3126 3127 3128 3129 3130 3131 3132 3133 3134 3135 3136 3137 3138 3139 3140 3141 3142 3143 3144 3145 3146 3147 3148 3149 3150 3151 3152 3153 3154 3155 3156 3157 3158 3159 3160 3161 3162 3163 3164 3165 3166 3167 3168 3169 3170 3171 3172 3173 3174 3175 3176 3177 3178 3179 3180 3181 3182 3183 3184 3185 3186 3187 3188 3189 3190 3191 3192 3193 3194 3195 3196 3197 3198 3199 3200 3201 3202 3203 3204 3205 3206 3207 3208 3209 3210 3211 3212 3213 3214 3215 3216 3217 3218 3219 3220 3221 3222 3223 3224 3225 3226 3227 3228 3229 3230 3231 3232 3233 3234 3235 3236 3237 3238 3239 3240 3241 3242 3243 3244 3245 3246 3247 3248 3249 3250 3251 3252 3253 3254 3255 3256 3257 3258 3259 3260 3261 3262 3263 3264 3265 3266 3267 3268 3269 3270 3271 3272 3273 3274 3275 3276 3277 3278 3279 3280 3281 3282 3283 3284 3285 3286 3287 3288 3289 3290 3291 3292 3293 3294 3295 3296 3297 3298 3299 3300 3301 3302 3303 3304 3305 3306 3307 3308 3309 3310 3311 3312 3313 3314 3315 3316 3317 3318 3319 3320 3321 3322 3323 3324 3325 3326 3327 3328 3329 3330 3331 3332 3333 3334 3335 3336 3337 3338 3339 3340 3341 3342 3343 3344 3345 3346 3347 3348 3349 3350 3351 3352 3353 3354 3355 3356 3357 3358 3359 3360 3361 3362 3363 3364 3365 3366 3367 3368 3369 3370 3371 3372 3373 3374 3375 3376 3377 3378 3379 3380 3381 3382 3383 3384 3385 3386 3387 3388 3389 3390 3391 3392 3393 3394 3395 3396 3397 3398 3399 3400 3401 3402 3403 3404 3405 3406 3407 3408 3409 3410 3411 3412 3413 3414 3415 3416 3417 3418 3419 3420 3421 3422 3423 3424 3425 3426 3427 3428 3429 3430 3431 3432 3433 3434 3435 3436 3437 3438 3439 3440 3441 3442 3443 3444 3445 3446 3447 3448 3449 3450 3451 3452 3453 3454 3455 3456 3457 3458 3459 3460 3461 3462 3463 3464 3465 3466 3467 3468 3469 3470 3471 3472 3473 3474 3475 3476 3477 3478 3479 3480 3481 3482 3483 3484 3485 3486 3487 3488 3489 3490 3491 3492 3493 3494 3495 3496 3497 3498 3499 3500 3501 3502 3503 3504 3505 3506 3507 3508 3509 3510 3511 3512 3513 3514 3515 3516 3517 3518 3519 3520 3521 3522 3523 3524 3525 3526 3527 3528 3529 3530 3531 3532 3533 3534 3535 3536 3537 3538 3539 3540 3541 3542 3543 3544 3545 3546 3547 3548 3549 3550 3551 3552 3553 3554 3555 3556 3557 3558 3559 3560 3561 3562 3563 3564 3565 3566 3567 3568 3569 3570 3571 3572 3573 3574 3575 3576 3577 3578 3579 3580 3581 3582 3583 3584 3585 3586 3587 3588 3589 3590 3591 3592 3593 3594 3595 3596 3597 3598 3599 3600 3601 3602 3603 3604 3605 3606 3607 3608 3609 3610 3611 3612 3613 3614 3615 3616 3617 3618 3619 3620 3621 3622 3623 3624 3625 3626 3627 3628 3629 3630 3631 3632 3633 3634 3635 3636 3637 3638 3639 3640 3641 3642 3643 3644 3645 3646 3647 3648 3649 3650 3651 3652 3653 3654 3655 3656 3657 3658 3659 3660 3661 3662 3663 3664 3665 3666 3667 3668 3669 3670 3671 3672 3673 3674 3675 3676 3677 3678 3679 3680 3681 3682 3683 3684 3685 3686 3687 3688 3689 3690 3691 3692 3693 3694 3695 3696 3697 3698 3699 3700 3701 3702 3703 3704 3705 3706 3707 3708 3709 3710 3711 3712 3713 3714 3715 3716 3717 3718 3719 3720 3721 3722 3723 3724 3725 3726 3727 3728 3729 3730 3731 3732 3733 3734 3735 3736 3737 3738 3739 3740 3741 3742 3743 3744 3745 3746 3747 3748 3749 3750 3751 3752 3753 3754 3755 3756 3757 3758 3759 3760 3761 3762 3763 3764 3765 3766 3767 3768 3769 3770 3771 3772 3773 3774 3775 3776 3777 3778 3779 3780 3781 3782 3783 3784 3785 3786 3787 3788 3789 3790 3791 3792 3793 3794 3795 3796 3797 3798 3799 3800 3801 3802 3803 3804 3805 3806 3807 3808 3809 3810 3811 3812 3813 3814 3815 3816 3817 3818 3819 3820 3821 3822 3823 3824 3825 3826 3827 3828 3829 3830 3831 3832 3833 3834 3835 3836 3837 3838 3839 3840 3841 3842 3843 3844 3845 3846 3847 3848 3849 3850 3851 3852 3853 3854 3855 3856 3857 3858 3859 3860 3861 3862 3863 3864 3865 3866 3867 3868 3869 3870 3871 3872 3873 3874 3875 3876 3877 3878 3879 3880 3881 3882 3883 3884 3885 3886 3887 3888 3889 3890 3891 3892 3893 3894 3895 3896 3897 3898 3899 3900 3901 3902 3903 3904 3905 3906 3907 3908 3909 3910 3911 3912 3913 3914 3915 3916 3917 3918 3919 3920 3921 3922 3923 3924 3925 3926 3927 3928 3929 3930 3931 3932 3933 3934 3935 3936 3937 3938 3939 3940 3941 3942 3943 3944 3945 3946 3947 3948 3949 3950 3951 3952 3953 3954 3955 3956 3957 3958 3959 3960 3961 3962 3963 3964 3965 3966 3967 3968 3969 3970 3971 3972 3973 3974 3975 3976 3977 3978 3979 3980 3981 3982 3983 3984 3985 3986 3987 3988 3989 3990 3991 3992 3993 3994 3995 3996 3997 3998 3999 4000 4001 4002 4003 4004 4005 4006 4007 4008 4009 4010 4011 4012 4013 4014 4015 4016 4017 4018 4019 4020 4021 4022 4023 4024 4025 4026 4027 4028 4029 4030 4031 4032 4033 4034 4035 4036 4037 4038 4039 4040 4041 4042 4043 4044 4045 4046 4047 4048 4049 4050 4051 4052 4053 4054 4055 4056 4057 4058 4059 4060 4061 4062 4063 4064 4065 4066 4067 4068 4069 4070 4071 4072 4073 4074 4075 4076 4077 4078 4079 4080 4081 4082 4083 4084 4085 4086 4087 4088 4089 4090 4091 4092 4093 4094 4095 4096 4097 4098 4099 4100 4101 4102 4103 4104 4105 4106 4107 4108 4109 4110 4111 4112 4113 4114 4115 4116 4117 4118 4119 4120 4121 4122 4123 4124 4125 4126 4127 4128 4129 4130 4131 4132 4133 4134 4135 4136 4137 4138 4139 4140 4141 4142 4143 4144 4145 4146 4147 4148 4149 4150 4151 4152 4153 4154 4155 4156 4157 4158 4159 4160 4161 4162 4163 4164 4165 4166 4167 4168 4169 4170 4171 4172 4173 4174 4175 4176 4177 4178 4179 4180 4181 4182 4183 4184 4185 4186 4187 4188 4189 4190 4191 4192 4193 4194 4195 4196 4197 4198 4199 4200 4201 4202 4203 4204 4205 4206 4207 4208 4209 4210 4211 4212 4213 4214 4215 4216 4217 4218 4219 4220 4221 4222 4223 4224 4225 4226 4227 4228 4229 4230 4231 4232 4233 4234 4235 4236 4237 4238 4239 4240 4241 4242 4243 4244 4245 4246 4247 4248 4249 4250 4251 4252 4253 4254 4255 4256 4257 4258 4259 4260 4261 4262 4263 4264 4265 4266 4267 4268 4269 4270 4271 4272 4273 4274 4275 4276 4277 4278 4279 4280 4281 4282 4283 4284 4285 4286 4287 4288 4289 4290 4291 4292 4293 4294 4295 4296 4297 4298 4299 4300 4301 4302 4303 4304 4305 4306 4307 4308 4309 4310 4311 4312 4313 4314 4315 4316 4317 4318 4319 4320 4321 4322 4323 4324 4325 4326 4327 4328 4329 4330 4331 4332 4333 4334 4335 4336 4337 4338 4339 4340 4341 4342 4343 4344 4345 4346 4347 4348 4349 4350 4351 4352 4353 4354 4355 4356 4357 4358 4359 4360 4361 4362 4363 4364 4365 4366 4367 4368 4369 4370 4371 4372 4373 4374 4375 4376 4377 4378 4379 4380 4381 4382 4383 4384 4385 4386 4387 4388 4389 4390 4391 4392 4393 4394 4395 4396 4397 4398 4399 4400 4401 4402 4403 4404 4405 4406 4407 4408 4409 4410 4411 4412 4413 4414 4415 4416 4417 4418 4419 4420 4421 4422 4423 4424 4425 4426 4427 4428 4429 4430 4431 4432 4433 4434 4435 4436 4437 4438 4439 4440 4441 4442 4443 4444 4445 4446 4447 4448 4449 4450 4451 4452 4453 4454 4455 4456 4457 4458 4459 4460 4461 4462 4463 4464 4465 4466 4467 4468 4469 4470 4471 4472 4473 4474 4475 4476 4477 4478 4479 4480 4481 4482 4483 4484 4485 4486 4487 4488 4489 4490 4491 4492 4493 4494 4495 4496 4497 4498 4499 4500 4501 4502 4503 4504 4505 4506 4507 4508 4509 4510 4511 4512 4513 4514 4515 4516 4517 4518 4519 4520 4521 4522 4523 4524 4525 4526 4527 4528 4529 4530 4531 4532 4533 4534 4535 4536 4537 4538 4539 4540 4541 4542 4543 4544 4545 4546 4547 4548 4549 4550 4551 4552 4553 4554 4555 4556 4557 4558 4559 4560 4561 4562 4563 4564 4565 4566 4567 4568 4569 4570 4571 4572 4573 4574 4575 4576 4577 4578 4579 4580 4581 4582 4583 4584 4585 4586 4587 4588 4589 4590 4591 4592 4593 4594 4595 4596 4597 4598 4599 4600 4601 4602 4603 4604 4605 4606 4607 4608 4609 4610 4611 4612 4613 4614 4615 4616 4617 4618 4619 4620 4621 4622 4623 4624 4625 4626 4627 4628 4629 4630 4631 4632 4633 4634 4635 4636 4637 4638 4639 4640 4641 4642 4643 4644 4645 4646 4647 4648 4649 4650 4651 4652 4653 4654 4655 4656 4657 4658 4659 4660 4661 4662 4663 4664 4665 4666 4667 4668 4669 4670 4671 4672 4673 4674 4675 4676 4677 4678 4679 4680 4681 4682 4683 4684 4685 4686 4687 4688 4689 4690 4691 4692 4693 4694 4695 4696 4697 4698 4699 4700 4701 4702 4703 4704 4705 4706 4707 4708 4709 4710 4711 4712 4713 4714 4715 4716 4717 4718 4719 4720 4721 4722 4723 4724 4725 4726 4727 4728 4729 4730 4731 4732 4733 4734 4735 4736 4737 4738 4739 4740 4741 4742 4743 4744 4745 4746 4747 4748 4749 4750 4751 4752 4753 4754 4755 4756 4757 4758 4759 4760 4761 4762 4763 4764 4765 4766 4767 4768 4769 4770 4771 4772 4773 4774 4775 4776 4777 4778 4779 4780 4781 4782 4783 4784 4785 4786 4787 4788 4789 4790 4791 4792 4793 4794 4795 4796 4797 4798 4799 4800 4801 4802 4803 4804 4805 4806 4807 4808 4809 4810 4811 4812 4813 4814 4815 4816 4817 4818 4819 4820 4821 4822 4823 4824 4825 4826 4827 4828 4829 4830 4831 4832 4833 4834 4835 4836 4837 4838 4839 4840 4841 4842 4843 4844 4845 4846 4847 4848 4849 4850 4851 4852 4853 4854 4855 4856 4857 4858 4859 4860 4861 4862 4863 4864 4865 4866 4867 4868 4869 4870 4871 4872 4873 4874 4875 4876 4877 4878 4879 4880 4881 4882 4883 4884 4885 4886 4887 4888 4889 4890 4891 4892 4893 4894 4895 4896 4897 4898 4899 4900 4901 4902 4903 4904 4905 4906 4907 4908 4909 4910 4911 4912 4913 4914 4915 4916 4917 4918 4919 4920 4921 4922 4923 4924 4925 4926 4927 4928 4929 4930 4931 4932 4933 4934 4935 4936 4937 4938 4939 4940 4941 4942 4943 4944 4945 4946 4947 4948 4949 4950 4951 4952 4953 4954 4955 4956 4957 4958 4959 4960 4961 4962 4963 4964 4965 4966 4967 4968 4969 4970 4971 4972 4973 4974 4975 4976 4977 4978 4979 4980 4981 4982 4983 4984 4985 4986 4987 4988 4989 4990 4991 4992 4993 4994 4995 4996 4997 4998 4999 5000 5001 5002 5003 5004 5005 5006 5007 5008 5009 5010 5011 5012 5013 5014 5015 5016 5017 5018 5019 5020 5021 5022 5023 5024 5025 5026 5027 5028 5029 5030 5031 5032 5033 5034 5035 5036 5037 5038 5039 5040 5041 5042 5043 5044 5045 5046 5047 5048 5049 5050 5051 5052 5053 5054 5055 5056 5057 5058 5059 5060 5061 5062 5063 5064 5065 5066 5067 5068 5069 5070 5071 5072 5073 5074 5075 5076 5077 5078 5079 5080 5081 5082 5083 5084 5085 5086 5087 5088 5089 5090 5091 5092 5093 5094 5095 5096 5097 5098 5099 5100 5101 5102 5103 5104 5105 5106 5107 5108 5109 5110 5111 5112 5113 5114 5115 5116 5117 5118 5119 5120 5121 5122 5123 5124 5125 5126 5127 5128 5129 5130 5131 5132 5133 5134 5135 5136 5137 5138 5139 5140 5141 5142 5143 5144 5145 5146 5147 5148 5149 5150 5151 5152 5153 5154 5155 5156 5157 5158 5159 5160 5161 5162 5163 5164 5165 5166 5167 5168 5169 5170 5171 5172 5173 5174 5175 5176 5177 5178 5179 5180 5181 5182 5183 5184 5185 5186 5187 5188 5189 5190 5191 5192 5193 5194 5195 5196 5197 5198 5199 5200 5201 5202 5203 5204 5205 5206 5207 5208 5209 5210 5211 5212 5213 5214 5215 5216 5217 5218 5219 5220 5221 5222 5223 5224 5225 5226 5227 5228 5229 5230 5231 5232 5233 5234 5235 5236 5237 5238 5239 5240 5241 5242 5243 5244 5245 5246 5247 5248 5249 5250 5251 5252 5253 5254 5255 5256 5257 5258 5259 5260 5261 5262 5263 5264 5265 5266 5267 5268 5269 5270 5271 5272 5273 5274 5275 5276 5277 5278 5279 5280 5281 5282 5283 5284 5285 5286 5287 5288 5289 5290 5291 5292 5293 5294 5295 5296 5297 5298 5299 5300 5301 5302 5303 5304 5305 5306 5307 5308 5309 5310 5311 5312 5313 5314 5315 5316 5317 5318 5319 5320 5321 5322 5323 5324 5325 5326 5327 5328 5329 5330 5331 5332 5333 5334 5335 5336 5337 5338 5339 5340 5341 5342 5343 5344 5345 5346 5347 5348 5349 5350 5351 5352 5353 5354 5355 5356 5357 5358 5359 5360 5361 5362 5363 5364 5365 5366 5367 5368 5369 5370 5371 5372 5373 5374 5375 5376 5377 5378 5379 5380 5381 5382 5383 5384 5385 5386 5387 5388 5389 5390 5391 5392 5393 5394 5395 5396 5397 5398 5399 5400 5401 5402 5403 5404 5405 5406 5407 5408 5409 5410 5411 5412 5413 5414 5415 5416 5417 5418 5419 5420 5421 5422 5423 5424 5425 5426 5427 5428 5429 5430 5431 5432 5433 5434 5435 5436 5437 5438 5439 5440 5441 5442 5443 5444 5445 5446 5447 5448 5449 5450 5451 5452 5453 5454 5455 5456 5457 5458 5459 5460 5461 5462 5463 5464 5465 5466 5467 5468 5469 5470 5471 5472 5473 5474 5475 5476 5477 5478 5479 5480 5481 5482 5483 5484 5485 5486 5487 5488 5489 5490 5491 5492 5493 5494 5495 5496 5497 5498 5499 5500 5501 5502 5503 5504 5505 5506 5507 5508 5509 5510 5511 5512 5513 5514 5515 5516 5517 5518 5519 5520 5521 5522 5523 5524 5525 5526 5527 5528 5529 5530 5531 5532 5533 5534 5535 5536 5537 5538 5539 5540 5541 5542 5543 5544 5545 5546 5547 5548 5549 5550 5551 5552 5553 5554 5555 5556 5557 5558 5559 5560 5561 5562 5563 5564 5565 5566 5567 5568 5569 5570 5571 5572 5573 5574 5575 5576 5577 5578 5579 5580 5581 5582 5583 5584 5585 5586 5587 5588 5589 5590 5591 5592 5593 5594 5595 5596 5597 5598 5599 5600 5601 5602 5603 5604 5605 5606 5607 5608 5609 5610 5611 5612 5613 5614 5615 5616 5617 5618 5619 5620 5621 5622 5623 5624 5625 5626 5627 5628 5629 5630 5631 5632 5633 5634 5635 5636 5637 5638 5639 5640 5641 5642 5643 5644 5645 5646 5647 5648 5649 5650 5651 5652 5653 5654 5655 5656 5657 5658 5659 5660 5661 5662 5663 5664 5665 5666 5667 5668 5669 5670 5671 5672 5673 5674 5675 5676 5677 5678 5679 5680 5681 5682 5683 5684 5685 5686 5687 5688 5689 5690 5691 5692 5693 5694 5695 5696 5697 5698 5699 5700 5701 5702 5703 5704 5705 5706 5707 5708 5709 5710 5711 5712 5713 5714 5715 5716 5717 5718 5719 5720 5721 5722 5723 5724 5725 5726 5727 5728 5729 5730 5731 5732 5733 5734 5735 5736 5737 5738 5739 5740 5741 5742 5743 5744 5745 5746 5747 5748 5749 5750 5751 5752 5753 5754 5755 5756 5757 5758 5759 5760 5761 5762 5763 5764 5765 5766 5767 5768 5769 5770 5771 5772 5773 5774 5775 5776 5777 5778 5779 5780 5781 5782 5783 5784 5785 5786 5787 5788 5789 5790 5791 5792 5793 5794 5795 5796 5797 5798 5799 5800 5801 5802 5803 5804 5805 5806 5807 5808 5809 5810 5811 5812 5813 5814 5815 5816 5817 5818 5819 5820 5821 5822 5823 5824 5825 5826 5827 5828 5829 5830 5831 5832 5833 5834 5835 5836 5837 5838 5839 5840 5841 5842 5843 5844 5845 5846 5847 5848 5849 5850 5851 5852 5853 5854 5855 5856 5857 5858 5859 5860 5861 5862 5863 5864 5865 5866 5867 5868 5869 5870 5871 5872 5873 5874 5875 5876 5877 5878 5879 5880 5881 5882 5883 5884 5885 5886 5887 5888 5889 5890 5891 5892 5893 5894 5895 5896 5897 5898 5899 5900 5901 5902 5903 5904 5905 5906 5907 5908 5909 5910 5911 5912 5913 5914 5915 5916 5917 5918 5919 5920 5921 5922 5923 5924 5925 5926 5927 5928 5929 5930 5931 5932 5933 5934 5935 5936 5937 5938 5939 5940 5941 5942 5943 5944 5945 5946 5947 5948 5949 5950 5951 5952 5953 5954 5955 5956 5957 5958 5959 5960 5961 5962 5963 5964 5965 5966 5967 5968 5969 5970 5971 5972 5973 5974 5975 5976 5977 5978 5979 5980 5981 5982 5983 5984 5985 5986 5987 5988 5989 5990 5991 5992 5993 5994 5995 5996 5997 5998 5999 6000 6001 6002 6003 6004 6005 6006 6007 6008 6009 6010 6011 6012 6013 6014 6015 6016 6017 6018 6019 6020 6021 6022 6023 6024 6025 6026 6027 6028 6029 6030 6031 6032 6033 6034 6035 6036 6037 6038 6039 6040 6041 6042 6043 6044 6045 6046 6047 6048 6049 6050 6051 6052 6053 6054 6055 6056 6057 6058 6059 6060 6061 6062 6063 6064 6065 6066 6067 6068 6069 6070 6071 6072 6073 6074 6075 6076 6077 6078 6079 6080 6081 6082 6083 6084 6085 6086 6087 6088 6089 6090 6091 6092 6093 6094 6095 6096 6097 6098 6099 6100 6101 6102 6103 6104 6105 6106 6107 6108 6109 6110 6111 6112 6113 6114 6115 6116 6117 6118 6119 6120 6121 6122 6123 6124 6125 6126 6127 6128 6129 6130 6131 6132 6133 6134 6135 6136 6137 6138 6139 6140 6141 6142 6143 6144 6145 6146 6147 6148 6149 6150 6151 6152 6153 6154 6155 6156 6157 6158 6159 6160 6161 6162 6163 6164 6165 6166 6167 6168 6169 6170 6171 6172 6173 6174 6175 6176 6177 6178 6179 6180 6181 6182 6183 6184 6185 6186 6187 6188 6189 6190 6191 6192 6193 6194 6195 6196 6197 6198 6199 6200 6201 6202 6203 6204 6205 6206 6207 6208 6209 6210 6211 6212 6213 6214 6215 6216 6217 6218 6219 6220 6221 6222 6223 6224 6225 6226 6227 6228 6229 6230 6231 6232 6233 6234 6235 6236 6237 6238 6239 6240 6241 6242 6243 6244 6245 6246 6247 6248 6249 6250 6251 6252 6253 6254 6255 6256 6257 6258 6259 6260 6261 6262 6263 6264 6265 6266 6267 6268 6269 6270 6271 6272 6273 6274 6275 6276 6277 6278 6279 6280 6281 6282 6283 6284 6285 6286 6287 6288 6289 6290 6291 6292 6293 6294 6295 6296 6297 6298 6299 6300 6301 6302 6303 6304 6305 6306 6307 6308 6309 6310 6311 6312 6313 6314 6315 6316 6317 6318 6319 6320 6321 6322 6323 6324 6325 6326 6327 6328 6329 6330 6331 6332 6333 6334 6335 6336 6337 6338 6339 6340 6341 6342 6343 6344 6345 6346 6347 6348 6349 6350 6351 6352 6353 6354 6355 6356 6357 6358 6359 6360 6361 6362 6363 6364 6365 6366 6367 6368 6369 6370 6371 6372 6373 6374 6375 6376 6377 6378 6379 6380 6381 6382 6383 6384 6385 6386 6387 6388 6389 6390 6391 6392 6393 6394 6395 6396 6397 6398 6399 6400 6401 6402 6403 6404 6405 6406 6407 6408 6409 6410 6411 6412 6413 6414 6415 6416 6417 6418 6419 6420 6421 6422 6423 6424 6425 6426 6427 6428 6429 6430 6431 6432 6433 6434 6435 6436 6437 6438 6439 6440 6441 6442 6443 6444 6445 6446 6447 6448 6449 6450 6451 6452 6453 6454 6455 6456 6457 6458 6459 6460 6461 6462 6463 6464 6465 6466 6467 6468 6469 6470 6471 6472 6473 6474 6475 6476 6477 6478 6479 6480 6481 6482 6483 6484 6485 6486 6487 6488 6489 6490 6491 6492 6493 6494 6495 6496 6497 6498 6499 6500 6501 6502 6503 6504 6505 6506 6507 6508 6509 6510 6511 6512 6513 6514 6515 6516 6517 6518 6519 6520 6521 6522 6523 6524 6525 6526 6527 6528 6529 6530 6531 6532 6533 6534 6535 6536 6537 6538 6539 6540 6541 6542 6543 6544 6545 6546 6547 6548 6549 6550 6551 6552 6553 6554 6555 6556 6557 6558 6559 6560 6561 6562 6563 6564 6565 6566 6567 6568 6569 6570 6571 6572 6573 6574 6575 6576 6577 6578 6579 6580 6581 6582 6583 6584 6585 6586 6587 6588 6589 6590 6591 6592 6593 6594 6595 6596 6597 6598 6599 6600 6601 6602 6603 6604 6605 6606 6607 6608 6609 6610 6611 6612 6613 6614 6615 6616 6617 6618 6619 6620 6621 6622 6623 6624 6625 6626 6627 6628 6629 6630 6631 6632 6633 6634 6635 6636 6637 6638 6639 6640 6641 6642 6643 6644 6645 6646 6647 6648 6649 6650 6651 6652 6653 6654 6655 6656 6657 6658 6659 6660 6661 6662 6663 6664 6665 6666 6667 6668 6669 6670 6671 6672 6673 6674 6675 6676 6677 6678 6679 6680 6681 6682 6683 6684 6685 6686 6687 6688 6689 6690 6691 6692 6693 6694 6695 6696 6697 6698 6699 6700 6701 6702 6703 6704 6705 6706 6707 6708 6709 6710 6711 6712 6713 6714 6715 6716 6717 6718 6719 6720 6721 6722 6723 6724 6725 6726 6727 6728 6729 6730 6731 6732 6733 6734 6735 6736 6737 6738 6739 6740 6741 6742 6743 6744 6745 6746 6747 6748 6749 6750 6751 6752 6753 6754 6755 6756 6757 6758 6759 6760 6761 6762 6763 6764 6765 6766 6767 6768 6769 6770 6771 6772 6773 6774 6775 6776 6777 6778 6779 6780 6781 6782 6783 6784 6785 6786 6787 6788 6789 6790 6791 6792 6793 6794 6795 6796 6797 6798 6799 6800 6801 6802 6803 6804 6805 6806 6807 6808 6809 6810 6811 6812 6813 6814 6815 6816 6817 6818 6819 6820 6821 6822 6823 6824 6825 6826 6827 6828 6829 6830 6831 6832 6833 6834 6835 6836 6837 6838 6839 6840 6841 6842 6843 6844 6845 6846 6847 6848 6849 6850 6851 6852 6853 6854 6855 6856 6857 6858 6859 6860 6861 6862 6863 6864 6865 6866 6867 6868 6869 6870 6871 6872 6873 6874 6875 6876 6877 6878 6879 6880 6881 6882 6883 6884 6885 6886 6887 6888 6889 6890 6891 6892 6893 6894 6895 6896 6897 6898 6899 6900 6901 6902 6903 6904 6905 6906 6907 6908 6909 6910 6911 6912 6913 6914 6915 6916 6917 6918 6919 6920 6921 6922 6923 6924 6925 6926 6927 6928 6929 6930 6931 6932 6933 6934 6935 6936 6937 6938 6939 6940 6941 6942 6943 6944 6945 6946 6947 6948 6949 6950 6951 6952 6953 6954 6955 6956 6957 6958 6959 6960 6961 6962 6963 6964 6965 6966 6967 6968 6969 6970 6971 6972 6973 6974 6975 6976 6977 6978 6979 6980 6981 6982 6983 6984 6985 6986 6987 6988 6989 6990 6991 6992 6993 6994 6995 6996 6997 6998 6999 7000 7001 7002 7003 7004 7005 7006 7007 7008 7009 7010 7011 7012 7013 7014 7015 7016 7017 7018 7019 7020 7021 7022 7023 7024 7025 7026 7027 7028 7029 7030 7031 7032 7033 7034 7035 7036 7037 7038 7039 7040 7041 7042 7043 7044 7045 7046 7047 7048 7049 7050 7051 7052 7053 7054 7055 7056 7057 7058 7059 7060 7061 7062 7063 7064 7065 7066 7067 7068 7069 7070 7071 7072 7073 7074 7075 7076 7077 7078 7079 7080 7081 7082 7083 7084 7085 7086 7087 7088 7089 7090 7091 7092 7093 7094 7095 7096 7097 7098 7099 7100 7101 7102 7103 7104 7105 7106 7107 7108 7109 7110 7111 7112 7113 7114 7115 7116 7117 7118 7119 7120 7121 7122 7123 7124 7125 7126 7127 7128 7129 7130 7131 7132 7133 7134 7135 7136 7137 7138 7139 7140 7141 7142 7143 7144 7145 7146 7147 7148 7149 7150 7151 7152 7153 7154 7155 7156 7157 7158 7159 7160 7161 7162 7163 7164 7165 7166 7167 7168 7169 7170 7171 7172 7173 7174 7175 7176 7177 7178 7179 7180 7181 7182 7183 7184 7185 7186 7187 7188 7189 7190 7191 7192 7193 7194 7195 7196 7197 7198 7199 7200 7201 7202 7203 7204 7205 7206 7207 7208 7209 7210 7211 7212 7213 7214 7215 7216 7217 7218 7219 7220 7221 7222 7223 7224 7225 7226 7227 7228 7229 7230 7231 7232 7233 7234 7235 7236 7237 7238 7239 7240 7241 7242 7243 7244 7245 7246 7247 7248 7249 7250 7251 7252 7253 7254 7255 7256 7257 7258 7259 7260 7261 7262 7263 7264 7265 7266 7267 7268 7269 7270 7271 7272 7273 7274 7275 7276 7277 7278 7279 7280 7281 7282 7283 7284 7285 7286 7287 7288 7289 7290 7291 7292 7293 7294 7295 7296 7297 7298 7299 7300 7301 7302 7303 7304 7305 7306 7307 7308 7309 7310 7311 7312 7313 7314 7315 7316 7317 7318 7319 7320 7321 7322 7323 7324 7325 7326 7327 7328 7329 7330 7331 7332 7333 7334 7335 7336 7337 7338 7339 7340 7341 7342 7343 7344 7345 7346 7347 7348 7349 7350 7351 7352 7353 7354 7355 7356 7357 7358 7359 7360 7361 7362 7363 7364 7365 7366 7367 7368 7369 7370 7371 7372 7373 7374 7375 7376 7377 7378 7379 7380 7381 7382 7383 7384 7385 7386 7387 7388 7389 7390 7391 7392 7393 7394 7395 7396 7397 7398 7399 7400 7401 7402 7403 7404 7405 7406 7407 7408 7409 7410 7411 7412 7413 7414 7415 7416 7417 7418 7419 7420 7421 7422 7423 7424 7425 7426 7427 7428 7429 7430 7431 7432 7433 7434 7435 7436 7437 7438 7439 7440 7441 7442 7443 7444 7445 7446 7447 7448 7449 7450 7451 7452 7453 7454 7455 7456 7457 7458 7459 7460 7461 7462 7463 7464 7465 7466 7467 7468 7469 7470 7471 7472 7473 7474 7475 7476 7477 7478 7479 7480 7481 7482 7483 7484 7485 7486 7487 7488 7489 7490 7491 7492 7493 7494 7495 7496 7497 7498 7499 7500 7501 7502 7503 7504 7505 7506 7507 7508 7509 7510 7511 7512 7513 7514 7515 7516 7517 7518 7519 7520 7521 7522 7523 7524 7525 7526 7527 7528 7529 7530 7531 7532 7533 7534 7535 7536 7537 7538 7539 7540 7541 7542 7543 7544 7545 7546 7547 7548 7549 7550 7551 7552 7553 7554 7555 7556 7557 7558 7559 7560 7561 7562 7563 7564 7565 7566 7567 7568 7569 7570 7571 7572 7573 7574 7575 7576 7577 7578 7579 7580 7581 7582 7583 7584 7585 7586 7587 7588 7589 7590 7591 7592 7593 7594 7595 7596 7597 7598 7599 7600 7601 7602 7603 7604 7605 7606 7607 7608 7609 7610 7611 7612 7613 7614 7615 7616 7617 7618 7619 7620 7621 7622 7623 7624 7625 7626 7627 7628 7629 7630 7631 7632 7633 7634 7635 7636 7637 7638 7639 7640 7641 7642 7643 7644 7645 7646 7647 7648 7649 7650 7651 7652 7653 7654 7655 7656 7657 7658 7659 7660 7661 7662 7663 7664 7665 7666 7667 7668 7669 7670 7671 7672 7673 7674 7675 7676 7677 7678 7679 7680 7681 7682 7683 7684 7685 7686 7687 7688 7689 7690 7691 7692 7693 7694 7695 7696 7697 7698 7699 7700 7701 7702 7703 7704 7705 7706 7707 7708 7709 7710 7711 7712 7713 7714 7715 7716 7717 7718 7719 7720 7721 7722 7723 7724 7725 7726 7727 7728 7729 7730 7731 7732 7733 7734 7735 7736 7737 7738 7739 7740 7741 7742 7743 7744 7745 7746 7747 7748 7749 7750 7751 7752 7753 7754 7755 7756 7757 7758 7759 7760 7761 7762 7763 7764 7765 7766 7767 7768 7769 7770 7771 7772 7773 7774 7775 7776 7777 7778 7779 7780 7781 7782 7783 7784 7785 7786 7787 7788 7789 7790 7791 7792 7793 7794 7795 7796 7797 7798 7799 7800 7801 7802 7803 7804 7805 7806 7807 7808 7809 7810 7811 7812 7813 7814 7815 7816 7817 7818 7819 7820 7821 7822 7823 7824 7825 7826 7827 7828 7829 7830 7831 7832 7833 7834 7835 7836 7837 7838 7839 7840 7841 7842 7843 7844 7845 7846 7847 7848 7849 7850 7851 7852 7853 7854 7855 7856 7857 7858 7859 7860 7861 7862 7863 7864 7865 7866 7867 7868 7869 7870 7871 7872 7873 7874 7875 7876 7877 7878 7879 7880 7881 7882 7883 7884 7885 7886 7887 7888 7889 7890 7891 7892 7893 7894 7895 7896 7897 7898 7899 7900 7901 7902 7903 7904 7905 7906 7907 7908 7909 7910 7911 7912 7913 7914 7915 7916 7917 7918 7919 7920 7921 7922 7923 7924 7925 7926 7927 7928 7929 7930 7931 7932 7933 7934 7935 7936 7937 7938 7939 7940 7941 7942 7943 7944 7945 7946 7947 7948 7949 7950 7951 7952 7953 7954 7955 7956 7957 7958 7959 7960 7961 7962 7963 7964 7965 7966 7967 7968 7969 7970 7971 7972 7973 7974 7975 7976 7977 7978 7979 7980 7981 7982 7983 7984 7985 7986 7987 7988 7989 7990 7991 7992 7993 7994 7995 7996 7997 7998 7999 8000 8001 8002 8003 8004 8005 8006 8007 8008 8009 8010 8011 8012 8013 8014 8015 8016 8017 8018 8019 8020 8021 8022 8023 8024 8025 8026 8027 8028 8029 8030 8031 8032 8033 8034 8035 8036 8037 8038 8039 8040 8041 8042 8043 8044 8045 8046 8047 8048 8049 8050 8051 8052 8053 8054 8055 8056 8057 8058 8059 8060 8061 8062 8063 8064 8065 8066 8067 8068 8069 8070 8071 8072 8073 8074 8075 8076 8077 8078 8079 8080 8081 8082 8083 8084 8085 8086 8087 8088 8089 8090 8091 8092 8093 8094 8095 8096 8097 8098 8099 8100 8101 8102 8103 8104 8105 8106 8107 8108 8109 8110 8111 8112 8113 8114 8115 8116 8117 8118 8119 8120 8121 8122 8123 8124 8125 8126 8127 8128 8129 8130 8131 8132 8133 8134 8135 8136 8137 8138 8139 8140 8141 8142 8143 8144 8145 8146 8147 8148 8149 8150 8151 8152 8153 8154 8155 8156 8157 8158 8159 8160 8161 8162 8163 8164 8165 8166 8167 8168 8169 8170 8171 8172 8173 8174 8175 8176 8177 8178 8179 8180 8181 8182 8183 8184 8185 8186 8187 8188 8189 8190 8191 8192 8193 8194 8195 8196 8197 8198 8199 8200 8201 8202 8203 8204 8205 8206 8207 8208 8209 8210 8211 8212 8213 8214 8215 8216 8217 8218 8219 8220 8221 8222 8223 8224 8225 8226 8227 8228 8229 8230 8231 8232 8233 8234 8235 8236 8237 8238 8239 8240 8241 8242 8243 8244 8245 8246 8247 8248 8249 8250 8251 8252 8253 8254 8255 8256 8257 8258 8259 8260 8261 8262 8263 8264 8265 8266 8267 8268 8269 8270 8271 8272 8273 8274 8275 8276 8277 8278 8279 8280 8281 8282 8283 8284 8285 8286 8287 8288 8289 8290 8291 8292 8293 8294 8295 8296 8297 8298 8299 8300 8301 8302 8303 8304 8305 8306 8307 8308 8309 8310 8311 8312 8313 8314 8315 8316 8317 8318 8319 8320 8321 8322 8323 8324 8325 8326 8327 8328 8329 8330 8331 8332 8333 8334 8335 8336 8337 8338 8339 8340 8341 8342 8343 8344 8345 8346 8347 8348 8349 8350 8351 8352 8353 8354 8355 8356 8357 8358 8359 8360 8361 8362 8363 8364 8365 8366 8367 8368 8369 8370 8371 8372 8373 8374 8375 8376 8377 8378 8379 8380 8381 8382 8383 8384 8385 8386 8387 8388 8389 8390 8391 8392 8393 8394 8395 8396 8397 8398 8399 8400 8401 8402 8403 8404 8405 8406 8407 8408 8409 8410 8411 8412 8413 8414 8415 8416 8417 8418 8419 8420 8421 8422 8423 8424 8425 8426 8427 8428 8429 8430 8431 8432 8433 8434 8435 8436 8437 8438 8439 8440 8441 8442 8443 8444 8445 8446 8447 8448 8449 8450 8451 8452 8453 8454 8455 8456 8457 8458 8459 8460 8461 8462 8463 8464 8465 8466 8467 8468 8469 8470 8471 8472 8473 8474 8475 8476 8477 8478 8479 8480 8481 8482 8483 8484 8485 8486 8487 8488 8489 8490 8491 8492 8493 8494 8495 8496 8497 8498 8499 8500 8501 8502 8503 8504 8505 8506 8507 8508 8509 8510 8511 8512 8513 8514 8515 8516 8517 8518 8519 8520 8521 8522 8523 8524 8525 8526 8527 8528 8529 8530 8531 8532 8533 8534 8535 8536 8537 8538 8539 8540 8541 8542 8543 8544 8545 8546 8547 8548 8549 8550 8551 8552 8553 8554 8555 8556 8557 8558 8559 8560 8561 8562 8563 8564 8565 8566 8567 8568 8569 8570 8571 8572 8573 8574 8575 8576 8577 8578 8579 8580 8581 8582 8583 8584 8585 8586 8587 8588 8589 8590 8591 8592 8593 8594 8595 8596 8597 8598 8599 8600 8601 8602 8603 8604 8605 8606 8607 8608 8609 8610 8611 8612 8613 8614 8615 8616 8617 8618 8619 8620 8621 8622 8623 8624 8625 8626 8627 8628 8629 8630 8631 8632 8633 8634 8635 8636 8637 8638 8639 8640 8641 8642 8643 8644 8645 8646 8647 8648 8649 8650 8651 8652 8653 8654 8655 8656 8657 8658 8659 8660 8661 8662 8663 8664 8665 8666 8667 8668 8669 8670 8671 8672 8673 8674 8675 8676 8677 8678 8679 8680 8681 8682 8683 8684 8685 8686 8687 8688 8689 8690 8691 8692 8693 8694 8695 8696 8697 8698 8699 8700 8701 8702 8703 8704 8705 8706 8707 8708 8709 8710 8711 8712 8713 8714 8715 8716 8717 8718 8719 8720 8721 8722 8723 8724 8725 8726 8727 8728 8729 8730 8731 8732 8733 8734 8735 8736 8737 8738 8739 8740 8741 8742 8743 8744 8745 8746 8747 8748 8749 8750 8751 8752 8753 8754 8755 8756 8757 8758 8759 8760 8761 8762 8763 8764 8765 8766 8767 8768 8769 8770 8771 8772 8773 8774 8775 8776 8777 8778 8779 8780 8781 8782 8783 8784 8785 8786 8787 8788 8789 8790 8791 8792 8793 8794 8795 8796 8797 8798 8799 8800 8801 8802 8803 8804 8805 8806 8807 8808 8809 8810 8811 8812 8813 8814 8815 8816 8817 8818 8819 8820 8821 8822 8823 8824 8825 8826 8827 8828 8829 8830 8831 8832 8833 8834 8835 8836 8837 8838 8839 8840 8841 8842 8843 8844 8845 8846 8847 8848 8849 8850 8851 8852 8853 8854 8855 8856 8857 8858 8859 8860 8861 8862 8863 8864 8865 8866 8867 8868 8869 8870 8871 8872 8873 8874 8875 8876 8877 8878 8879 8880 8881 8882 8883 8884 8885 8886 8887 8888 8889 8890 8891 8892 8893 8894 8895 8896 8897 8898 8899 8900 8901 8902 8903 8904 8905 8906 8907 8908 8909 8910 8911 8912 8913 8914 8915 8916 8917 8918 8919 8920 8921 8922 8923 8924 8925 8926 8927 8928 8929 8930 8931 8932 8933 8934 8935 8936 8937 8938 8939 8940 8941 8942 8943 8944 8945 8946 8947 8948 8949 8950 8951 8952 8953 8954 8955 8956 8957 8958 8959 8960 8961 8962 8963 8964 8965 8966 8967 8968 8969 8970 8971 8972 8973 8974 8975 8976 8977 8978 8979 8980 8981 8982 8983 8984 8985 8986 8987 8988 8989 8990 8991 8992 8993 8994 8995 8996 8997 8998 8999 9000 9001 9002 9003 9004 9005 9006 9007 9008 9009 9010 9011 9012 9013 9014 9015 9016 9017 9018 9019 9020 9021 9022 9023 9024 9025 9026 9027 9028 9029 9030 9031 9032 9033 9034 9035 9036 9037 9038 9039 9040 9041 9042 9043 9044 9045 9046 9047 9048 9049 9050 9051 9052 9053 9054 9055 9056 9057 9058 9059 9060 9061 9062 9063 9064 9065 9066 9067 9068 9069 9070 9071 9072 9073 9074 9075 9076 9077 9078 9079 9080 9081 9082 9083 9084 9085 9086 9087 9088 9089 9090 9091 9092 9093 9094 9095 9096 9097 9098 9099 9100 9101 9102 9103 9104 9105 9106 9107 9108 9109 9110 9111 9112 9113 9114 9115 9116 9117 9118 9119 9120 9121 9122 9123 9124 9125 9126 9127 9128 9129 9130 9131 9132 9133 9134 9135 9136 9137 9138 9139 9140 9141 9142 9143 9144 9145 9146 9147 9148 9149 9150 9151 9152 9153 9154 9155 9156 9157 9158 9159 9160 9161 9162 9163 9164 9165 9166 9167 9168 9169 9170 9171 9172 9173 9174 9175 9176 9177 9178 9179 9180 9181 9182 9183 9184 9185 9186 9187 9188 9189 9190 9191 9192 9193 9194 9195 9196 9197 9198 9199 9200 9201 9202 9203 9204 9205 9206 9207 9208 9209 9210 9211 9212 9213 9214 9215 9216 9217 9218 9219 9220 9221 9222 9223 9224 9225 9226 9227 9228 9229 9230 9231 9232 9233 9234 9235 9236 9237 9238 9239 9240 9241 9242 9243 9244 9245 9246 9247 9248 9249 9250 9251 9252 9253 9254 9255 9256 9257 9258 9259 9260 9261 9262 9263 9264 9265 9266 9267 9268 9269 9270 9271 9272 9273 9274 9275 9276 9277 9278 9279 9280 9281 9282 9283 9284 9285 9286 9287 9288 9289 9290 9291 9292 9293 9294 9295 9296 9297 9298 9299 9300 9301 9302 9303 9304 9305 9306 9307 9308 9309 9310 9311 9312 9313 9314 9315 9316 9317 9318 9319 9320 9321 9322 9323 9324 9325 9326 9327 9328 9329 9330 9331 9332 9333 9334 9335 9336 9337 9338 9339 9340 9341 9342 9343 9344 9345 9346 9347 9348 9349 9350 9351 9352 9353 9354 9355 9356 9357 9358 9359 9360 9361 9362 9363 9364 9365 9366 9367 9368 9369 9370 9371 9372 9373 9374 9375 9376 9377 9378 9379 9380 9381 9382 9383 9384 9385 9386 9387 9388 9389 9390 9391 9392 9393 9394 9395 9396 9397 9398 9399 9400 9401 9402 9403 9404 9405 9406 9407 9408 9409 9410 9411 9412 9413 9414 9415 9416 9417 9418 9419 9420 9421 9422 9423 9424 9425 9426 9427 9428 9429 9430 9431 9432 9433 9434 9435 9436 9437 9438 9439 9440 9441 9442 9443 9444 9445 9446 9447 9448 9449 9450 9451 9452 9453 9454 9455 9456 9457 9458 9459 9460 9461 9462 9463 9464 9465 9466 9467 9468 9469 9470 9471 9472 9473 9474 9475 9476 9477 9478 9479 9480 9481 9482 9483 9484 9485 9486 9487 9488 9489 9490 9491 9492 9493 9494 9495 9496 9497 9498 9499 9500 9501 9502 9503 9504 9505 9506 9507 9508 9509 9510 9511 9512 9513 9514 9515 9516 9517 9518 9519 9520 9521 9522 9523 9524 9525 9526 9527 9528 9529 9530 9531 9532 9533 9534 9535 9536 9537 9538 9539 9540 9541 9542 9543 9544 9545 9546 9547 9548 9549 9550 9551 9552 9553 9554 9555 9556 9557 9558 9559 9560 9561 9562 9563 9564 9565 9566 9567 9568 9569 9570 9571 9572 9573 9574 9575 9576 9577 9578 9579 9580 9581 9582 9583 9584 9585 9586 9587 9588 9589 9590 9591 9592 9593 9594 9595 9596 9597 9598 9599 9600 9601 9602 9603 9604 9605 9606 9607 9608 9609 9610 9611 9612 9613 9614 9615 9616 9617 9618 9619 9620 9621 9622 9623 9624 9625 9626 9627 9628 9629 9630 9631 9632 9633 9634 9635 9636 9637 9638 9639 9640 9641 9642 9643 9644 9645 9646 9647 9648 9649 9650 9651 9652 9653 9654 9655 9656 9657 9658 9659 9660 9661 9662 9663 9664 9665 9666 9667 9668 9669 9670 9671 9672 9673 9674 9675 9676 9677 9678 9679 9680 9681 9682 9683 9684 9685 9686 9687 9688 9689 9690 9691 9692 9693 9694 9695 9696 9697 9698 9699 9700 9701 9702 9703 9704 9705 9706 9707 9708 9709 9710 9711 9712 9713 9714 9715 9716 9717 9718 9719 9720 9721 9722 9723 9724 9725 9726 9727 9728 9729 9730 9731 9732 9733 9734 9735 9736 9737 9738 9739 9740 9741 9742 9743 9744 9745 9746 9747 9748 9749 9750 9751 9752 9753 9754 9755 9756 9757 9758 9759 9760 9761 9762 9763 9764 9765 9766 9767 9768 9769 9770 9771 9772 9773 9774 9775 9776 9777 9778 9779 9780 9781 9782 9783 9784 9785 9786 9787 9788 9789 9790 9791 9792 9793 9794 9795 9796 9797 9798 9799 9800 9801 9802 9803 9804 9805 9806 9807 9808 9809 9810 9811 9812 9813 9814 9815 9816 9817 9818 9819 9820 9821 9822 9823 9824 9825 9826 9827 9828 9829 9830 9831 9832 9833 9834 9835 9836 9837 9838 9839 9840 9841 9842 9843 9844 9845 9846 9847 9848 9849 9850 9851 9852 9853 9854 9855 9856 9857 9858 9859 9860 9861 9862 9863 9864 9865 9866 9867 9868 9869 9870 9871 9872 9873 9874 9875 9876 9877 9878 9879 9880 9881 9882 9883 9884 9885 9886 9887 9888 9889 9890 9891 9892 9893 9894 9895 9896 9897 9898 9899 9900 9901 9902 9903 9904 9905 9906 9907 9908 9909 9910 9911 9912 9913 9914 9915 9916 9917 9918 9919 9920 9921 9922 9923 9924 9925 9926 9927 9928 9929 9930 9931 9932 9933 9934 9935 9936 9937 9938 9939 9940 9941 9942 9943 9944 9945 9946 9947 9948 9949 9950 9951 9952 9953 9954 9955 9956 9957 9958 9959 9960 9961 9962 9963 9964 9965 9966 9967 9968 9969 9970 9971 9972 9973 9974 9975 9976 9977 9978 9979 9980 9981 9982 9983 9984 9985 9986 9987 9988 9989 9990 9991 9992 9993 9994 9995 9996 9997 9998 9999 10000 10001 10002 10003 10004 10005 10006 10007 10008 10009 10010 10011 10012 10013 10014 10015 10016 10017 10018 10019 10020 10021 10022 10023 10024 10025 10026 10027 10028 10029 10030 10031 10032 10033 10034 10035 10036 10037 10038 10039 10040 10041 10042 10043 10044 10045 10046 10047 10048 10049 10050 10051 10052 10053 10054 10055 10056 10057 10058 10059 10060 10061 10062 10063 10064 10065 10066 10067 10068 10069 10070 10071 10072 10073 10074 10075 10076 10077 10078 10079 10080 10081 10082 10083 10084 10085 10086 10087 10088 10089 10090 10091 10092 10093 10094 10095 10096 10097 10098 10099 10100 10101 10102 10103 10104 10105 10106 10107 10108 10109 10110 10111 10112 10113 10114 10115 10116 10117 10118 10119 10120 10121 10122 10123 10124 10125 10126 10127 10128 10129 10130 10131 10132 10133 10134 10135 10136 10137 10138 10139 10140 10141 10142 10143 10144 10145 10146 10147 10148 10149 10150 10151 10152 10153 10154 10155 10156 10157 10158 10159 10160 10161 10162 10163 10164 10165 10166 10167 10168 10169 10170 10171 10172 10173 10174 10175 10176 10177 10178 10179 10180 10181 10182 10183 10184 10185 10186 10187 10188 10189 10190 10191 10192 10193 10194 10195 10196 10197 10198 10199 10200 10201 10202 10203 10204 10205 10206 10207 10208 10209 10210 10211 10212 10213 10214 10215 10216 10217 10218 10219 10220 10221 10222 10223 10224 10225 10226 10227 10228 10229 10230 10231 10232 10233 10234 10235 10236 10237 10238 10239 10240 10241 10242 10243 10244 10245 10246 10247 10248 10249 10250 10251 10252 10253 10254 10255 10256 10257 10258 10259 10260 10261 10262 10263 10264 10265 10266 10267 10268 10269 10270 10271 10272 10273 10274 10275 10276 10277 10278 10279 10280 10281 10282 10283 10284 10285 10286 10287 10288 10289 10290 10291 10292 10293 10294 10295 10296 10297 10298 10299 10300 10301 10302 10303 10304 10305 10306 10307 10308 10309 10310 10311 10312 10313 10314 10315 10316 10317 10318 10319 10320 10321 10322 10323 10324 10325 10326 10327 10328 10329 10330 10331 10332 10333 10334 10335 10336 10337 10338 10339 10340 10341 10342 10343 10344 10345 10346 10347 10348 10349 10350 10351 10352 10353 10354 10355 10356 10357 10358 10359 10360 10361 10362 10363 10364 10365 10366 10367 10368 10369 10370 10371 10372 10373 10374 10375 10376 10377 10378 10379 10380 10381 10382 10383 10384 10385 10386 10387 10388 10389 10390 10391 10392 10393 10394 10395 10396 10397 10398 10399 10400 10401 10402 10403 10404 10405 10406 10407 10408 10409 10410 10411 10412 10413 10414 10415 10416 10417 10418 10419 10420 10421 10422 10423 10424 10425 10426 10427 10428 10429 10430 10431 10432 10433 10434 10435 10436 10437 10438 10439 10440 10441 10442 10443 10444 10445 10446 10447 10448 10449 10450 10451 10452 10453 10454 10455 10456 10457 10458 10459 10460 10461 10462 10463 10464 10465 10466 10467 10468 10469 10470 10471 10472 10473 10474 10475 10476 10477 10478 10479 10480 10481 10482 10483 10484 10485 10486 10487 10488 10489 10490 10491 10492 10493 10494 10495 10496 10497 10498 10499 10500 10501 10502 10503 10504 10505 10506 10507 10508 10509 10510 10511 10512 10513 10514 10515 10516 10517 10518 10519 10520 10521 10522 10523 10524 10525 10526 10527 10528 10529 10530 10531 10532 10533 10534 10535 10536 10537 10538 10539 10540 10541 10542 10543 10544 10545 10546 10547 10548 10549 10550 10551 10552 10553 10554 10555 10556 10557 10558 10559 10560 10561 10562 10563 10564 10565 10566 10567 10568 10569 10570 10571 10572 10573 10574 10575 10576 10577 10578 10579 10580 10581 10582 10583 10584 10585 10586 10587 10588 10589 10590 10591 10592 10593 10594 10595 10596 10597 10598 10599 10600 10601 10602 10603 10604 10605 10606 10607 10608 10609 10610 10611 10612 10613 10614 10615 10616 10617 10618 10619 10620 10621 10622 10623 10624 10625 10626 10627 10628 10629 10630 10631 10632 10633 10634 10635 10636 10637 10638 10639 10640 10641 10642 10643 10644 10645 10646 10647 10648 10649 10650 10651 10652 10653 10654 10655 10656 10657 10658 10659 10660 10661 10662 10663 10664 10665 10666 10667 10668 10669 10670 10671 10672 10673 10674 10675 10676 10677 10678 10679 10680 10681 10682 10683 10684 10685 10686 10687 10688 10689 10690 10691 10692 10693 10694 10695 10696 10697 10698 10699 10700 10701 10702 10703 10704 10705 10706 10707 10708 10709 10710 10711 10712 10713 10714 10715 10716 10717 10718 10719 10720 10721 10722 10723 10724 10725 10726 10727 10728 10729 10730 10731 10732 10733 10734 10735 10736 10737 10738 10739 10740 10741 10742 10743 10744 10745 10746 10747 10748 10749 10750 10751 10752 10753 10754 10755 10756 10757 10758 10759 10760 10761 10762 10763 10764 10765 10766 10767 10768 10769 10770 10771 10772 10773 10774 10775 10776 10777 10778 10779 10780 10781 10782 10783 10784 10785 10786 10787 10788 10789 10790 10791 10792 10793 10794 10795 10796 10797 10798 10799 10800 10801 10802 10803 10804 10805 10806 10807 10808 10809 10810 10811 10812 10813 10814 10815 10816 10817 10818 10819 10820 10821 10822 10823 10824 10825 10826 10827 10828 10829 10830 10831 10832 10833 10834 10835 10836 10837 10838 10839 10840 10841 10842 10843 10844 10845 10846 10847 10848 10849 10850 10851 10852 10853 10854 10855 10856 10857 10858 10859 10860 10861 10862 10863 10864 10865 10866 10867 10868 10869 10870 10871 10872 10873 10874 10875 10876 10877 10878 10879 10880 10881 10882 10883 10884 10885 10886 10887 10888 10889 10890 10891 10892 10893 10894 10895 10896 10897 10898 10899 10900 10901 10902 10903 10904 10905 10906 10907 10908 10909 10910 10911 10912 10913 10914 10915 10916 10917 10918 10919 10920 10921 10922 10923 10924 10925 10926 10927 10928 10929 10930 10931 10932 10933 10934 10935 10936 10937 10938 10939 10940 10941 10942 10943 10944 10945 10946 10947 10948 10949 10950 10951 10952 10953 10954 10955 10956 10957 10958 10959 10960 10961 10962 10963 10964 10965 10966 10967 10968 10969 10970 10971 10972 10973 10974 10975 10976 10977 10978 10979 10980 10981 10982 10983 10984 10985 10986 10987 10988 10989 10990 10991 10992 10993 10994 10995 10996 10997 10998 10999 11000 11001 11002 11003 11004 11005 11006 11007 11008 11009 11010 11011 11012 11013 11014 11015 11016 11017 11018 11019 11020 11021 11022 11023 11024 11025 11026 11027 11028 11029 11030 11031 11032 11033 11034 11035 11036 11037 11038 11039 11040 11041 11042 11043 11044 11045 11046 11047 11048 11049 11050 11051 11052 11053 11054 11055 11056 11057 11058 11059 11060 11061 11062 11063 11064 11065 11066 11067 11068 11069 11070 11071 11072 11073 11074 11075 11076 11077 11078 11079 11080 11081 11082 11083 11084 11085 11086 11087 11088 11089 11090 11091 11092 11093 11094 11095 11096 11097 11098 11099 11100 11101 11102 11103 11104 11105 11106 11107 11108 11109 11110 11111 11112 11113 11114 11115 11116 11117 11118 11119 11120 11121 11122 11123 11124 11125 11126 11127 11128 11129 11130 11131 11132 11133 11134 11135 11136 11137 11138 11139 11140 11141 11142 11143 11144 11145 11146 11147 11148 11149 11150 11151 11152 11153 11154 11155 11156 11157 11158 11159 11160 11161 11162 11163 11164 11165 11166 11167 11168 11169 11170 11171 11172 11173 11174 11175 11176 11177 11178 11179 11180 11181 11182 11183 11184 11185 11186 11187 11188 11189 11190 11191 11192 11193 11194 11195 11196 11197 11198 11199 11200 11201 11202 11203 11204 11205 11206 11207 11208 11209 11210 11211 11212 11213 11214 11215 11216 11217 11218 11219 11220 11221 11222 11223 11224 11225 11226 11227 11228 11229 11230 11231 11232 11233 11234 11235 11236 11237 11238 11239 11240 11241 11242 11243 11244 11245 11246 11247 11248 11249 11250 11251 11252 11253 11254 11255 11256 11257 11258 11259 11260 11261 11262 11263 11264 11265 11266 11267 11268 11269 11270 11271 11272 11273 11274 11275 11276 11277 11278 11279 11280 11281 11282 11283 11284 11285 11286 11287 11288 11289 11290 11291 11292 11293 11294 11295 11296 11297 11298 11299 11300 11301 11302 11303 11304 11305 11306 11307 11308 11309 11310 11311 11312 11313 11314 11315 11316 11317 11318 11319 11320 11321 11322 11323 11324 11325 11326 11327 11328 11329 11330 11331 11332 11333 11334 11335 11336 11337 11338 11339 11340 11341 11342 11343 11344 11345 11346 11347 11348 11349 11350 11351 11352 11353 11354 11355 11356 11357 11358 11359 11360 11361 11362 11363 11364 11365 11366 11367 11368 11369 11370 11371 11372 11373 11374 11375 11376 11377 11378 11379 11380 11381 11382 11383 11384 11385 11386 11387 11388 11389 11390 11391 11392 11393 11394 11395 11396 11397 11398 11399 11400 11401 11402 11403 11404 11405 11406 11407 11408 11409 11410 11411 11412 11413 11414 11415 11416 11417 11418 11419 11420 11421 11422 11423 11424 11425 11426 11427 11428 11429 11430 11431 11432 11433 11434 11435 11436 11437 11438 11439 11440 11441 11442 11443 11444 11445 11446 11447 11448 11449 11450 11451 11452 11453 11454 11455 11456 11457 11458 11459 11460 11461 11462 11463 11464 11465 11466 11467 11468 11469 11470 11471 11472 11473 11474 11475 11476 11477 11478 11479 11480 11481 11482 11483 11484 11485 11486 11487 11488 11489 11490 11491 11492 11493 11494 11495 11496 11497 11498 11499 11500 11501 11502 11503 11504 11505 11506 11507 11508 11509 11510 11511 11512 11513 11514 11515 11516 11517 11518 11519 11520 11521 11522 11523 11524 11525 11526 11527 11528 11529 11530 11531 11532 11533 11534 11535 11536 11537 11538 11539 11540 11541 11542 11543 11544 11545 11546 11547 11548 11549 11550 11551 11552 11553 11554 11555 11556 11557 11558 11559 11560 11561 11562 11563 11564 11565 11566 11567 11568 11569 11570 11571 11572 11573 11574 11575 11576 11577 11578 11579 11580 11581 11582 11583 11584 11585 11586 11587 11588 11589 11590 11591 11592 11593 11594 11595 11596 11597 11598 11599 11600 11601 11602 11603 11604 11605 11606 11607 11608 11609 11610 11611 11612 11613 11614 11615 11616 11617 11618 11619 11620 11621 11622 11623 11624 11625 11626 11627 11628 11629 11630 11631 11632 11633 11634 11635 11636 11637 11638 11639 11640 11641 11642 11643 11644 11645 11646 11647 11648 11649 11650 11651 11652 11653 11654 11655 11656 11657 11658 11659 11660 11661 11662 11663 11664 11665 11666 11667 11668 11669 11670 11671 11672 11673 11674 11675 11676 11677 11678 11679 11680 11681 11682 11683 11684 11685 11686 11687 11688 11689 11690 11691 11692 11693 11694 11695 11696 11697 11698 11699 11700 11701 11702 11703 11704 11705 11706 11707 11708 11709 11710 11711 11712 11713 11714 11715 11716 11717 11718 11719 11720 11721 11722 11723 11724 11725 11726 11727 11728 11729 11730 11731 11732 11733 11734 11735 11736 11737 11738 11739 11740 11741 11742 11743 11744 11745 11746 11747 11748 11749 11750 11751 11752 11753 11754 11755 11756 11757 11758 11759 11760 11761 11762 11763 11764 11765 11766 11767 11768 11769 11770 11771 11772 11773 11774 11775 11776 11777 11778 11779 11780 11781 11782 11783 11784 11785 11786 11787 11788 11789 11790 11791 11792 11793 11794 11795 11796 11797 11798 11799 11800 11801 11802 11803 11804 11805 11806 11807 11808 11809 11810 11811 11812 11813 11814 11815 11816 11817 11818 11819 11820 11821 11822 11823 11824 11825 11826 11827 11828 11829 11830 11831 11832 11833 11834 11835 11836 11837 11838 11839 11840 11841 11842 11843 11844 11845 11846 11847 11848 11849 11850 11851 11852 11853 11854 11855 11856 11857 11858 11859 11860 11861 11862 11863 11864 11865 11866 11867 11868 11869 11870 11871 11872 11873 11874 11875 11876 11877 11878 11879 11880 11881 11882 11883 11884 11885 11886 11887 11888 11889 11890 11891 11892 11893 11894 11895 11896 11897 11898 11899 11900 11901 11902 11903 11904 11905 11906 11907 11908 11909 11910 11911 11912 11913 11914 11915 11916 11917 11918 11919 11920 11921 11922 11923 11924 11925 11926 11927 11928 11929 11930 11931 11932 11933 11934 11935 11936 11937 11938 11939 11940 11941 11942 11943 11944 11945 11946 11947 11948 11949 11950 11951 11952 11953 11954 11955 11956 11957 11958 11959 11960 11961 11962 11963 11964 11965 11966 11967 11968 11969 11970 11971 11972 11973 11974 11975 11976 11977 11978 11979 11980 11981 11982 11983 11984 11985 11986 11987 11988 11989 11990 11991 11992 11993 11994 11995 11996 11997 11998 11999 12000 12001 12002 12003 12004 12005 12006 12007 12008 12009 12010 12011 12012 12013 12014 12015 12016 12017 12018 12019 12020 12021 12022 12023 12024 12025 12026 12027 12028 12029 12030 12031 12032 12033 12034 12035 12036 12037 12038 12039 12040 12041 12042 12043 12044 12045 12046 12047 12048 12049 12050 12051 12052 12053 12054 12055 12056 12057 12058 12059 12060 12061 12062 12063 12064 12065 12066 12067 12068 12069 12070 12071 12072 12073 12074 12075 12076 12077 12078 12079 12080 12081 12082 12083 12084 12085 12086 12087 12088 12089 12090 12091 12092 12093 12094 12095 12096 12097 12098 12099 12100 12101 12102 12103 12104 12105 12106 12107 12108 12109 12110 12111 12112 12113 12114 12115 12116 12117 12118 12119 12120 12121 12122 12123 12124 12125 12126 12127 12128 12129 12130 12131 12132 12133 12134 12135 12136 12137 12138 12139 12140 12141 12142 12143 12144 12145 12146 12147 12148 12149 12150 12151 12152 12153 12154 12155 12156 12157 12158 12159 12160 12161 12162 12163 12164 12165 12166 12167 12168 12169 12170 12171 12172 12173 12174 12175 12176 12177 12178 12179 12180 12181 12182 12183 12184 12185 12186 12187 12188 12189 12190 12191 12192 12193 12194 12195 12196 12197 12198 12199 12200 12201 12202 12203 12204 12205 12206 12207 12208 12209 12210 12211 12212 12213 12214 12215 12216 12217 12218 12219 12220 12221 12222 12223 12224 12225 12226 12227 12228 12229 12230 12231 12232 12233 12234 12235 12236 12237 12238 12239 12240 12241 12242 12243 12244 12245 12246 12247 12248 12249 12250 12251 12252 12253 12254 12255 12256 12257 12258 12259 12260 12261 12262 12263 12264 12265 12266 12267 12268 12269 12270 12271 12272 12273 12274 12275 12276 12277 12278 12279 12280 12281 12282 12283 12284 12285 12286 12287 12288 12289 12290 12291 12292 12293 12294 12295 12296 12297 12298 12299 12300 12301 12302 12303 12304 12305 12306 12307 12308 12309 12310 12311 12312 12313 12314 12315 12316 12317 12318 12319 12320 12321 12322 12323 12324 12325 12326 12327 12328 12329 12330 12331 12332 12333 12334 12335 12336 12337 12338 12339 12340 12341 12342 12343 12344 12345 12346 12347 12348 12349 12350 12351 12352 12353 12354 12355 12356 12357 12358 12359 12360 12361 12362 12363 12364 12365 12366 12367 12368 12369 12370 12371 12372 12373 12374 12375 12376 12377 12378 12379 12380 12381 12382 12383 12384 12385 12386 12387 12388 12389 12390 12391 12392 12393 12394 12395 12396 12397 12398 12399 12400 12401 12402 12403 12404 12405 12406 12407 12408 12409 12410 12411 12412 12413 12414 12415 12416 12417 12418 12419 12420 12421 12422 12423 12424 12425 12426 12427 12428 12429 12430 12431 12432 12433 12434 12435 12436 12437 12438 12439 12440 12441 12442 12443 12444 12445 12446 12447 12448 12449 12450 12451 12452 12453 12454 12455 12456 12457 12458 12459 12460 12461 12462 12463 12464 12465 12466 12467 12468 12469 12470 12471 12472 12473 12474 12475 12476 12477 12478 12479 12480 12481 12482 12483 12484 12485 12486 12487 12488 12489 12490 12491 12492 12493 12494 12495 12496 12497 12498 12499 12500 12501 12502 12503 12504 12505 12506 12507 12508 12509 12510 12511 12512 12513 12514 12515 12516 12517 12518 12519 12520 12521 12522 12523 12524 12525 12526 12527 12528 12529 12530 12531 12532 12533 12534 12535 12536 12537 12538 12539 12540 12541 12542 12543 12544 12545 12546 12547 12548 12549 12550 12551 12552 12553 12554 12555 12556 12557 12558 12559 12560 12561 12562 12563 12564 12565 12566 12567 12568 12569 12570 12571 12572 12573 12574 12575 12576 12577 12578 12579 12580 12581 12582 12583 12584 12585 12586 12587 12588 12589 12590 12591 12592 12593 12594 12595 12596 12597 12598 12599 12600 12601 12602 12603 12604 12605 12606 12607 12608 12609 12610 12611 12612 12613 12614 12615 12616 12617 12618 12619 12620 12621 12622 12623 12624 12625 12626 12627 12628 12629 12630 12631 12632 12633 12634 12635 12636 12637 12638 12639 12640 12641 12642 12643 12644 12645 12646 12647 12648 12649 12650 12651 12652 12653 12654 12655 12656 12657 12658 12659 12660 12661 12662 12663 12664 12665 12666 12667 12668 12669 12670 12671 12672 12673 12674 12675 12676 12677 12678 12679 12680 12681 12682 12683 12684 12685 12686 12687 12688 12689 12690 12691 12692 12693 12694 12695 12696 12697 12698 12699 12700 12701 12702 12703 12704 12705 12706 12707 12708 12709 12710 12711 12712 12713 12714 12715 12716 12717 12718 12719 12720 12721 12722 12723 12724 12725 12726 12727 12728 12729 12730 12731 12732 12733 12734 12735 12736 12737 12738 12739 12740 12741 12742 12743 12744 12745 12746 12747 12748 12749 12750 12751 12752 12753 12754 12755 12756 12757 12758 12759 12760 12761 12762 12763 12764 12765 12766 12767 12768 12769 12770 12771 12772 12773 12774 12775 12776 12777 12778 12779 12780 12781 12782 12783 12784 12785 12786 12787 12788 12789 12790 12791 12792 12793 12794 12795 12796 12797 12798 12799 12800 12801 12802 12803 12804 12805 12806 12807 12808 12809 12810 12811 12812 12813 12814 12815 12816 12817 12818 12819 12820 12821 12822 12823 12824 12825 12826 12827 12828 12829 12830 12831 12832 12833 12834 12835 12836 12837 12838 12839 12840 12841 12842 12843 12844 12845 12846 12847 12848 12849 12850 12851 12852 12853 12854 12855 12856 12857 12858 12859 12860 12861 12862 12863 12864 12865 12866 12867 12868 12869 12870 12871 12872 12873 12874 12875 12876 12877 12878 12879 12880 12881 12882 12883 12884 12885 12886 12887 12888 12889 12890 12891 12892 12893 12894 12895 12896 12897 12898 12899 12900 12901 12902 12903 12904 12905 12906 12907 12908 12909 12910 12911 12912 12913 12914 12915 12916 12917 12918 12919 12920 12921 12922 12923 12924 12925 12926 12927 12928 12929 12930 12931 12932 12933 12934 12935 12936 12937 12938 12939 12940 12941 12942 12943 12944 12945 12946 12947 12948 12949 12950 12951 12952 12953 12954 12955 12956 12957 12958 12959 12960 12961 12962 12963 12964 12965 12966 12967 12968 12969 12970 12971 12972 12973 12974 12975 12976 12977 12978 12979 12980 12981 12982 12983 12984 12985 12986 12987 12988 12989 12990 12991 12992 12993 12994 12995 12996 12997 12998 12999 13000 13001 13002 13003 13004 13005 13006 13007 13008 13009 13010 13011 13012 13013 13014 13015 13016 13017 13018 13019 13020 13021 13022 13023 13024 13025 13026 13027 13028 13029 13030 13031 13032 13033 13034 13035 13036 13037 13038 13039 13040 13041 13042 13043 13044 13045 13046 13047 13048 13049 13050 13051 13052 13053 13054 13055 13056 13057 13058 13059 13060 13061 13062 13063 13064 13065 13066 13067 13068 13069 13070 13071 13072 13073 13074 13075 13076 13077 13078 13079 13080 13081 13082 13083 13084 13085 13086 13087 13088 13089 13090 13091 13092 13093 13094 13095 13096 13097 13098 13099 13100 13101 13102 13103 13104 13105 13106 13107 13108 13109 13110 13111 13112 13113 13114 13115 13116 13117 13118 13119 13120 13121 13122 13123 13124 13125 13126 13127 13128 13129 13130 13131 13132 13133 13134 13135 13136 13137 13138 13139 13140 13141 13142 13143 13144 13145 13146 13147 13148 13149 13150 13151 13152 13153 13154 13155 13156 13157 13158 13159 13160 13161 13162 13163 13164 13165 13166 13167 13168 13169 13170 13171 13172 13173 13174 13175 13176 13177 13178 13179 13180 13181 13182 13183 13184 13185 13186 13187 13188 13189 13190 13191 13192 13193 13194 13195 13196 13197 13198 13199 13200 13201 13202 13203 13204 13205 13206 13207 13208 13209 13210 13211 13212 13213 13214 13215 13216 13217 13218 13219 13220 13221 13222 13223 13224 13225 13226 13227 13228 13229 13230 13231 13232 13233 13234 13235 13236 13237 13238 13239 13240 13241 13242 13243 13244 13245 13246 13247 13248 13249 13250 13251 13252 13253 13254 13255 13256 13257 13258 13259 13260 13261 13262 13263 13264 13265 13266 13267 13268 13269 13270 13271 13272 13273 13274 13275 13276 13277 13278 13279 13280 13281 13282 13283 13284 13285 13286 13287 13288 13289 13290 13291 13292 13293 13294 13295 13296 13297 13298 13299 13300 13301 13302 13303 13304 13305 13306 13307 13308 13309 13310 13311 13312 13313 13314 13315 13316 13317 13318 13319 13320 13321 13322 13323 13324 13325 13326 13327 13328 13329 13330 13331 13332 13333 13334 13335 13336 13337 13338 13339 13340 13341 13342 13343 13344 13345 13346 13347 13348 13349 13350 13351 13352 13353 13354 13355 13356 13357 13358 13359 13360 13361 13362 13363 13364 13365 13366 13367 13368 13369 13370 13371 13372 13373 13374 13375 13376 13377 13378 13379 13380 13381 13382 13383 13384 13385 13386 13387 13388 13389 13390 13391 13392 13393 13394 13395 13396 13397 13398 13399 13400 13401 13402 13403 13404 13405 13406 13407 13408 13409 13410 13411 13412 13413 13414 13415 13416 13417 13418 13419 13420 13421 13422 13423 13424 13425 13426 13427 13428 13429 13430 13431 13432 13433 13434 13435 13436 13437 13438 13439 13440 13441 13442 13443 13444 13445 13446 13447 13448 13449 13450 13451 13452 13453 13454 13455 13456 13457 13458 13459 13460 13461 13462 13463 13464 13465 13466 13467 13468 13469 13470 13471 13472 13473 13474 13475 13476 13477 13478 13479 13480 13481 13482 13483 13484 13485 13486 13487 13488 13489 13490 13491 13492 13493 13494 13495 13496 13497 13498 13499 13500 13501 13502 13503 13504 13505 13506 13507 13508 13509 13510 13511 13512 13513 13514 13515 13516 13517 13518 13519 13520 13521 13522 13523 13524 13525 13526 13527 13528 13529 13530 13531 13532 13533 13534 13535 13536 13537 13538 13539 13540 13541 13542 13543 13544 13545 13546 13547 13548 13549 13550 13551 13552 13553 13554 13555 13556 13557 13558 13559 13560 13561 13562 13563 13564 13565 13566 13567 13568 13569 13570 13571 13572 13573 13574 13575 13576 13577 13578 13579 13580 13581 13582 13583 13584 13585 13586 13587 13588 13589 13590 13591 13592 13593 13594 13595 13596 13597 13598 13599 13600 13601 13602 13603 13604 13605 13606 13607 13608 13609 13610 13611 13612 13613 13614 13615 13616 13617 13618 13619 13620 13621 13622 13623 13624 13625 13626 13627 13628 13629 13630 13631 13632 13633 13634 13635 13636 13637 13638 13639 13640 13641 13642 13643 13644 13645 13646 13647 13648 13649 13650 13651 13652 13653 13654 13655 13656 13657 13658 13659 13660 13661 13662 13663 13664 13665 13666 13667 13668 13669 13670 13671 13672 13673 13674 13675 13676 13677 13678 13679 13680 13681 13682 13683 13684 13685 13686 13687 13688 13689 13690 13691 13692 13693 13694 13695 13696 13697 13698 13699 13700 13701 13702 13703 13704 13705 13706 13707 13708 13709 13710 13711 13712 13713 13714 13715 13716 13717 13718 13719 13720 13721 13722 13723 13724 13725 13726 13727 13728 13729 13730 13731 13732 13733 13734 13735 13736 13737 13738 13739 13740 13741 13742 13743 13744 13745 13746 13747 13748 13749 13750 13751 13752 13753 13754 13755 13756 13757 13758 13759 13760 13761 13762 13763 13764 13765 13766 13767 13768 13769 13770 13771 13772 13773 13774 13775 13776 13777 13778 13779 13780 13781 13782 13783 13784 13785 13786 13787 13788 13789 13790 13791 13792 13793 13794 13795 13796 13797 13798 13799 13800 13801 13802 13803 13804 13805 13806 13807 13808 13809 13810 13811 13812 13813 13814 13815 13816 13817 13818 13819 13820 13821 13822 13823 13824 13825 13826 13827 13828 13829 13830 13831 13832 13833 13834 13835 13836 13837 13838 13839 13840 13841 13842 13843 13844 13845 13846 13847 13848 13849 13850 13851 13852 13853 13854 13855 13856 13857 13858 13859 13860 13861 13862 13863 13864 13865 13866 13867 13868 13869 13870 13871 13872 13873 13874 13875 13876 13877 13878 13879 13880 13881 13882 13883 13884 13885 13886 13887 13888 13889 13890 13891 13892 13893 13894 13895 13896 13897 13898 13899 13900 13901 13902 13903 13904 13905 13906 13907 13908 13909 13910 13911 13912 13913 13914 13915 13916 13917 13918 13919 13920 13921 13922 13923 13924 13925 13926 13927 13928 13929 13930 13931 13932 13933 13934 13935 13936 13937 13938 13939 13940 13941 13942 13943 13944 13945 13946 13947 13948 13949 13950 13951 13952 13953 13954 13955 13956 13957 13958 13959 13960 13961 13962 13963 13964 13965 13966 13967 13968 13969 13970 13971 13972 13973 13974 13975 13976 13977 13978 13979 13980 13981 13982 13983 13984 13985 13986 13987 13988 13989 13990 13991 13992 13993 13994 13995 13996 13997 13998 13999 14000 14001 14002 14003 14004 14005 14006 14007 14008 14009 14010 14011 14012 14013 14014 14015 14016 14017 14018 14019 14020 14021 14022 14023 14024 14025 14026 14027 14028 14029 14030 14031 14032 14033 14034 14035 14036 14037 14038 14039 14040 14041 14042 14043 14044 14045 14046 14047 14048 14049 14050 14051 14052 14053 14054 14055 14056 14057 14058 14059 14060 14061 14062 14063 14064 14065 14066 14067 14068 14069 14070 14071 14072 14073 14074 14075 14076 14077 14078 14079 14080 14081 14082 14083 14084 14085 14086 14087 14088 14089 14090 14091 14092 14093 14094 14095 14096 14097 14098 14099 14100 14101 14102 14103 14104 14105 14106 14107 14108 14109 14110 14111 14112 14113 14114 14115 14116 14117 14118 14119 14120 14121 14122 14123 14124 14125 14126 14127 14128 14129 14130 14131 14132 14133 14134 14135 14136 14137 14138 14139 14140 14141 14142 14143 14144 14145 14146 14147 14148 14149 14150 14151 14152 14153 14154 14155 14156 14157 14158 14159 14160 14161 14162 14163 14164 14165 14166 14167 14168 14169 14170 14171 14172 14173 14174 14175 14176 14177 14178 14179 14180 14181 14182 14183 14184 14185 14186 14187 14188 14189 14190 14191 14192 14193 14194 14195 14196 14197 14198 14199 14200 14201 14202 14203 14204 14205 14206 14207 14208 14209 14210 14211 14212 14213 14214 14215 14216 14217 14218 14219 14220 14221 14222 14223 14224 14225 14226 14227 14228 14229 14230 14231 14232 14233 14234 14235 14236 14237 14238 14239 14240 14241 14242 14243 14244 14245 14246 14247 14248 14249 14250 14251 14252 14253 14254 14255 14256 14257 14258 14259 14260 14261 14262 14263 14264 14265 14266 14267 14268 14269 14270 14271 14272 14273 14274 14275 14276 14277 14278 14279 14280 14281 14282 14283 14284 14285 14286 14287 14288 14289 14290 14291 14292 14293 14294 14295 14296 14297 14298 14299 14300 14301 14302 14303 14304 14305 14306 14307 14308 14309 14310 14311 14312 14313 14314 14315 14316 14317 14318 14319 14320 14321 14322 14323 14324 14325 14326 14327 14328 14329 14330 14331 14332 14333 14334 14335 14336 14337 14338 14339 14340 14341 14342 14343 14344 14345 14346 14347 14348 14349 14350 14351 14352 14353 14354 14355 14356 14357 14358 14359 14360 14361 14362 14363 14364 14365 14366 14367 14368 14369 14370 14371 14372 14373 14374 14375 14376 14377 14378 14379 14380 14381 14382 14383 14384 14385 14386 14387 14388 14389 14390 14391 14392 14393 14394 14395 14396 14397 14398 14399 14400 14401 14402 14403 14404 14405 14406 14407 14408 14409 14410 14411 14412 14413 14414 14415 14416 14417 14418 14419 14420 14421 14422 14423 14424 14425 14426 14427 14428 14429 14430 14431 14432 14433 14434 14435 14436 14437 14438 14439 14440 14441 14442 14443 14444 14445 14446 14447 14448 14449 14450 14451 14452 14453 14454 14455 14456 14457 14458 14459 14460 14461 14462 14463 14464 14465 14466 14467 14468 14469 14470 14471 14472 14473 14474 14475 14476 14477 14478 14479 14480 14481 14482 14483 14484 14485 14486 14487 14488 14489 14490 14491 14492 14493 14494 14495 14496 14497 14498 14499 14500 14501 14502 14503 14504 14505 14506 14507 14508 14509 14510 14511 14512 14513 14514 14515 14516 14517 14518 14519 14520 14521 14522 14523 14524 14525 14526 14527 14528 14529 14530 14531 14532 14533 14534 14535 14536 14537 14538 14539 14540 14541 14542 14543 14544 14545 14546 14547 14548 14549 14550 14551 14552 14553 14554 14555 14556 14557 14558 14559 14560 14561 14562 14563 14564 14565 14566 14567 14568 14569 14570 14571 14572 14573 14574 14575 14576 14577 14578 14579 14580 14581 14582 14583 14584 14585 14586 14587 14588 14589 14590 14591 14592 14593 14594 14595 14596 14597 14598 14599 14600 14601 14602 14603 14604 14605 14606 14607 14608 14609 14610 14611 14612 14613 14614 14615 14616 14617 14618 14619 14620 14621 14622 14623 14624 14625 14626 14627 14628 14629 14630 14631 14632 14633 14634 14635 14636 14637 14638 14639 14640 14641 14642 14643 14644 14645 14646 14647 14648 14649 14650 14651 14652 14653 14654 14655 14656 14657 14658 14659 14660 14661 14662 14663 14664 14665 14666 14667 14668 14669 14670 14671 14672 14673 14674 14675 14676 14677 14678 14679 14680 14681 14682 14683 14684 14685 14686 14687 14688 14689 14690 14691 14692 14693 14694 14695 14696 14697 14698 14699 14700 14701 14702 14703 14704 14705 14706 14707 14708 14709 14710 14711 14712 14713 14714 14715 14716 14717 14718 14719 14720 14721 14722 14723 14724 14725 14726 14727 14728 14729 14730 14731 14732 14733 14734 14735 14736 14737 14738 14739 14740 14741 14742 14743 14744 14745 14746 14747 14748 14749 14750 14751 14752 14753 14754 14755 14756 14757 14758 14759 14760 14761 14762 14763 14764 14765 14766 14767 14768 14769 14770 14771 14772 14773 14774 14775 14776 14777 14778 14779 14780 14781 14782 14783 14784 14785 14786 14787 14788 14789 14790 14791 14792 14793 14794 14795 14796 14797 14798 14799 14800 14801 14802 14803 14804 14805 14806 14807 14808 14809 14810 14811 14812 14813 14814 14815 14816 14817 14818 14819 14820 14821 14822 14823 14824 14825 14826 14827 14828 14829 14830 14831 14832 14833 14834 14835 14836 14837 14838 14839 14840 14841 14842 14843 14844 14845 14846 14847 14848 14849 14850 14851 14852 14853 14854 14855 14856 14857 14858 14859 14860 14861 14862 14863 14864 14865 14866 14867 14868 14869 14870 14871 14872 14873 14874 14875 14876 14877 14878 14879 14880 14881 14882 14883 14884 14885 14886 14887 14888 14889 14890 14891 14892 14893 14894 14895 14896 14897 14898 14899 14900 14901 14902 14903 14904 14905 14906 14907 14908 14909 14910 14911 14912 14913 14914 14915 14916 14917 14918 14919 14920 14921 14922 14923 14924 14925 14926 14927 14928 14929 14930 14931 14932 14933 14934 14935 14936 14937 14938 14939 14940 14941 14942 14943 14944 14945 14946 14947 14948 14949 14950 14951 14952 14953 14954 14955 14956 14957 14958 14959 14960 14961 14962 14963 14964 14965 14966 14967 14968 14969 14970 14971 14972 14973 14974 14975 14976 14977 14978 14979 14980 14981 14982 14983 14984 14985 14986 14987 14988 14989 14990 14991 14992 14993 14994 14995 14996 14997 14998 14999 15000 15001 15002 15003 15004 15005 15006 15007 15008 15009 15010 15011 15012 15013 15014 15015 15016 15017 15018 15019 15020 15021 15022 15023 15024 15025 15026 15027 15028 15029 15030 15031 15032 15033 15034 15035 15036 15037 15038 15039 15040 15041 15042 15043 15044 15045 15046 15047 15048 15049 15050 15051 15052 15053 15054 15055 15056 15057 15058 15059 15060 15061 15062 15063 15064 15065 15066 15067 15068 15069 15070 15071 15072 15073 15074 15075 15076 15077 15078 15079 15080 15081 15082 15083 15084 15085 15086 15087 15088 15089 15090 15091 15092 15093 15094 15095 15096 15097 15098 15099 15100 15101 15102 15103 15104 15105 15106 15107 15108 15109 15110 15111 15112 15113 15114 15115 15116 15117 15118 15119 15120 15121 15122 15123 15124 15125 15126 15127 15128 15129 15130 15131 15132 15133 15134 15135 15136 15137 15138 15139 15140 15141 15142 15143 15144 15145 15146 15147 15148 15149 15150 15151 15152 15153 15154 15155 15156 15157 15158 15159 15160 15161 15162 15163 15164 15165 15166 15167 15168 15169 15170 15171 15172 15173 15174 15175 15176 15177 15178 15179 15180 15181 15182 15183 15184 15185 15186 15187 15188 15189 15190 15191 15192 15193 15194 15195 15196 15197 15198 15199 15200 15201 15202 15203 15204 15205 15206 15207 15208 15209 15210 15211 15212 15213 15214 15215 15216 15217 15218 15219 15220 15221 15222 15223 15224 15225 15226 15227 15228 15229 15230 15231 15232 15233 15234 15235 15236 15237 15238 15239 15240 15241 15242 15243 15244 15245 15246 15247 15248 15249 15250 15251 15252 15253 15254 15255 15256 15257 15258 15259 15260 15261 15262 15263 15264 15265 15266 15267 15268 15269 15270 15271 15272 15273 15274 15275 15276 15277 15278 15279 15280 15281 15282 15283 15284 15285 15286 15287 15288 15289 15290 15291 15292 15293 15294 15295 15296 15297 15298 15299 15300 15301 15302 15303 15304 15305 15306 15307 15308 15309 15310 15311 15312 15313 15314 15315 15316 15317 15318 15319 15320 15321 15322 15323 15324 15325 15326 15327 15328 15329 15330 15331 15332 15333 15334 15335 15336 15337 15338 15339 15340 15341 15342 15343 15344 15345 15346 15347 15348 15349 15350 15351 15352 15353 15354 15355 15356 15357 15358 15359 15360 15361 15362 15363 15364 15365 15366 15367 15368 15369 15370 15371 15372 15373 15374 15375 15376 15377 15378 15379 15380 15381 15382 15383 15384 15385 15386 15387 15388 15389 15390 15391 15392 15393 15394 15395 15396 15397 15398 15399 15400 15401 15402 15403 15404 15405 15406 15407 15408 15409 15410 15411 15412 15413 15414 15415 15416 15417 15418 15419 15420 15421 15422 15423 15424 15425 15426 15427 15428 15429 15430 15431 15432 15433 15434 15435 15436 15437 15438 15439 15440 15441 15442 15443 15444 15445 15446 15447 15448 15449 15450 15451 15452 15453 15454 15455 15456 15457 15458 15459 15460 15461 15462 15463 15464 15465 15466 15467 15468 15469 15470 15471 15472 15473 15474 15475 15476 15477 15478 15479 15480 15481 15482 15483 15484 15485 15486 15487 15488 15489 15490 15491 15492 15493 15494 15495 15496 15497 15498 15499 15500 15501 15502 15503 15504 15505 15506 15507 15508 15509 15510 15511 15512 15513 15514 15515 15516 15517 15518 15519 15520 15521 15522 15523 15524 15525 15526 15527 15528 15529 15530 15531 15532 15533 15534 15535 15536 15537 15538 15539 15540 15541 15542 15543 15544 15545 15546 15547 15548 15549 15550 15551 15552 15553 15554 15555 15556 15557 15558 15559 15560 15561 15562 15563 15564 15565 15566 15567 15568 15569 15570 15571 15572 15573 15574 15575 15576 15577 15578 15579 15580 15581 15582 15583 15584 15585 15586 15587 15588 15589 15590 15591 15592 15593 15594 15595 15596 15597 15598 15599 15600 15601 15602 15603 15604 15605 15606 15607 15608 15609 15610 15611 15612 15613 15614 15615 15616 15617 15618 15619 15620 15621 15622 15623 15624 15625 15626 15627 15628 15629 15630 15631 15632 15633 15634 15635 15636 15637 15638 15639 15640 15641 15642 15643 15644 15645 15646 15647 15648 15649 15650 15651 15652 15653 15654 15655 15656 15657 15658 15659 15660 15661 15662 15663 15664 15665 15666 15667 15668 15669 15670 15671 15672 15673 15674 15675 15676 15677 15678 15679 15680 15681 15682 15683 15684 15685 15686 15687 15688 15689 15690 15691 15692 15693 15694 15695 15696 15697 15698 15699 15700 15701 15702 15703 15704 15705 15706 15707 15708 15709 15710 15711 15712 15713 15714 15715 15716 15717 15718 15719 15720 15721 15722 15723 15724 15725 15726 15727 15728 15729 15730 15731 15732 15733 15734 15735 15736 15737 15738 15739 15740 15741 15742 15743 15744 15745 15746 15747 15748 15749 15750 15751 15752 15753 15754 15755 15756 15757 15758 15759 15760 15761 15762 15763 15764 15765 15766 15767 15768 15769 15770 15771 15772 15773 15774 15775 15776 15777 15778 15779 15780 15781 15782 15783 15784 15785 15786 15787 15788 15789 15790 15791 15792 15793 15794 15795 15796 15797 15798 15799 15800 15801 15802 15803 15804 15805 15806 15807 15808 15809 15810 15811 15812 15813 15814 15815 15816 15817 15818 15819 15820 15821 15822 15823 15824 15825 15826 15827 15828 15829 15830 15831 15832 15833 15834 15835 15836 15837 15838 15839 15840 15841 15842 15843 15844 15845 15846 15847 15848 15849 15850 15851 15852 15853 15854 15855 15856 15857 15858 15859 15860 15861 15862 15863 15864 15865 15866 15867 15868 15869 15870 15871 15872 15873 15874 15875 15876 15877 15878 15879 15880 15881 15882 15883 15884 15885 15886 15887 15888 15889 15890 15891 15892 15893 15894 15895 15896 15897 15898 15899 15900 15901 15902 15903 15904 15905 15906 15907 15908 15909 15910 15911 15912 15913 15914 15915 15916 15917 15918 15919 15920 15921 15922 15923 15924 15925 15926 15927 15928 15929 15930 15931 15932 15933 15934 15935 15936 15937 15938 15939 15940 15941 15942 15943 15944 15945 15946 15947 15948 15949 15950 15951 15952 15953 15954 15955 15956 15957 15958 15959 15960 15961 15962 15963 15964 15965 15966 15967 15968 15969 15970 15971 15972 15973 15974 15975 15976 15977 15978 15979 15980 15981 15982 15983 15984 15985 15986 15987 15988 15989 15990 15991 15992 15993 15994 15995 15996 15997 15998 15999 16000 16001 16002 16003 16004 16005 16006 16007 16008 16009 16010 16011 16012 16013 16014 16015 16016 16017 16018 16019 16020 16021 16022 16023 16024 16025 16026 16027 16028 16029 16030 16031 16032 16033 16034 16035 16036 16037 16038 16039 16040 16041 16042 16043 16044 16045 16046 16047 16048 16049 16050 16051 16052 16053 16054 16055 16056 16057 16058 16059 16060 16061 16062 16063 16064 16065 16066 16067 16068 16069 16070 16071 16072 16073 16074 16075 16076 16077 16078 16079 16080 16081 16082 16083 16084 16085 16086 16087 16088 16089 16090 16091 16092 16093 16094 16095 16096 16097 16098 16099 16100 16101 16102 16103 16104 16105 16106 16107 16108 16109 16110 16111 16112 16113 16114 16115 16116 16117 16118 16119 16120 16121 16122 16123 16124 16125 16126 16127 16128 16129 16130 16131 16132 16133 16134 16135 16136 16137 16138 16139 16140 16141 16142 16143 16144 16145 16146 16147 16148 16149 16150 16151 16152 16153 16154 16155 16156 16157 16158 16159 16160 16161 16162 16163 16164 16165 16166 16167 16168 16169 16170 16171 16172 16173 16174 16175 16176 16177 16178 16179 16180 16181 16182 16183 16184 16185 16186 16187 16188 16189 16190 16191 16192 16193 16194 16195 16196 16197 16198 16199 16200 16201 16202 16203 16204 16205 16206 16207 16208 16209 16210 16211 16212 16213 16214 16215 16216 16217 16218 16219 16220 16221 16222 16223 16224 16225 16226 16227 16228 16229 16230 16231 16232 16233 16234 16235 16236 16237 16238 16239 16240 16241 16242 16243 16244 16245 16246 16247 16248 16249 16250 16251 16252 16253 16254 16255 16256 16257 16258 16259 16260 16261 16262 16263 16264 16265 16266 16267 16268 16269 16270 16271 16272 16273 16274 16275 16276 16277 16278 16279 16280 16281 16282 16283 16284 16285 16286 16287 16288 16289 16290 16291 16292 16293 16294 16295 16296 16297 16298 16299 16300 16301 16302 16303 16304 16305 16306 16307 16308 16309 16310 16311 16312 16313 16314 16315 16316 16317 16318 16319 16320 16321 16322 16323 16324 16325 16326 16327 16328 16329 16330 16331 16332 16333 16334 16335 16336 16337 16338 16339 16340 16341 16342 16343 16344 16345 16346 16347 16348 16349 16350 16351 16352 16353 16354 16355 16356 16357 16358 16359 16360 16361 16362 16363 16364 16365 16366 16367 16368 16369 16370 16371 16372 16373 16374 16375 16376 16377 16378 16379 16380 16381 16382 16383 16384 16385 16386 16387 16388 16389 16390 16391 16392 16393 16394 16395 16396 16397 16398 16399 16400 16401 16402 16403 16404 16405 16406 16407 16408 16409 16410 16411 16412 16413 16414 16415 16416 16417 16418 16419 16420 16421 16422 16423 16424 16425 16426 16427 16428 16429 16430 16431 16432 16433 16434 16435 16436 16437 16438 16439 16440 16441 16442 16443 16444 16445 16446 16447 16448 16449 16450 16451 16452 16453 16454 16455 16456 16457 16458 16459 16460 16461 16462 16463 16464 16465 16466 16467 16468 16469 16470 16471 16472 16473 16474 16475 16476 16477 16478 16479 16480 16481 16482 16483 16484 16485 16486 16487 16488 16489 16490 16491 16492 16493 16494 16495 16496 16497 16498 16499 16500 16501 16502 16503 16504 16505 16506 16507 16508 16509 16510 16511 16512 16513 16514 16515 16516 16517 16518 16519 16520 16521 16522 16523 16524 16525 16526 16527 16528 16529 16530 16531 16532 16533 16534 16535 16536 16537 16538 16539 16540 16541 16542 16543 16544 16545 16546 16547 16548 16549 16550 16551 16552 16553 16554 16555 16556 16557 16558 16559 16560 16561 16562 16563 16564 16565 16566 16567 16568 16569 16570 16571 16572 16573 16574 16575 16576 16577 16578 16579 16580 16581 16582 16583 16584 16585 16586 16587 16588 16589 16590 16591 16592 16593 16594 16595 16596 16597 16598 16599 16600 16601 16602 16603 16604 16605 16606 16607 16608 16609 16610 16611 16612 16613 16614 16615 16616 16617 16618 16619 16620 16621 16622 16623 16624 16625 16626 16627 16628 16629 16630 16631 16632 16633 16634 16635 16636 16637 16638 16639 16640 16641 16642 16643 16644 16645 16646 16647 16648 16649 16650 16651 16652 16653 16654 16655 16656 16657 16658 16659 16660 16661 16662 16663 16664 16665 16666 16667 16668 16669 16670 16671 16672 16673 16674 16675 16676 16677 16678 16679 16680 16681 16682 16683 16684 16685 16686 16687 16688 16689 16690 16691 16692 16693 16694 16695 16696 16697 16698 16699 16700 16701 16702 16703 16704 16705 16706 16707 16708 16709 16710 16711 16712 16713 16714 16715 16716 16717 16718 16719 16720 16721 16722 16723 16724 16725 16726 16727 16728 16729 16730 16731 16732 16733 16734 16735 16736 16737 16738 16739 16740 16741 16742 16743 16744 16745 16746 16747 16748 16749 16750 16751 16752 16753 16754 16755 16756 16757 16758 16759 16760 16761 16762 16763 16764 16765 16766 16767 16768 16769 16770 16771 16772 16773 16774 16775 16776 16777 16778 16779 16780 16781 16782 16783 16784 16785 16786 16787 16788 16789 16790 16791 16792 16793 16794 16795 16796 16797 16798 16799 16800 16801 16802 16803 16804 16805 16806 16807 16808 16809 16810 16811 16812 16813 16814 16815 16816 16817 16818 16819 16820 16821 16822 16823 16824 16825 16826 16827 16828 16829 16830 16831 16832 16833 16834 16835 16836 16837 16838 16839 16840 16841 16842 16843 16844 16845 16846 16847 16848 16849 16850 16851 16852 16853 16854 16855 16856 16857 16858 16859 16860 16861 16862 16863 16864 16865 16866 16867 16868 16869 16870 16871 16872 16873 16874 16875 16876 16877 16878 16879 16880 16881 16882 16883 16884 16885 16886 16887 16888 16889 16890 16891 16892 16893 16894 16895 16896 16897 16898 16899 16900 16901 16902 16903 16904 16905 16906 16907 16908 16909 16910 16911 16912 16913 16914 16915 16916 16917 16918 16919 16920 16921 16922 16923 16924 16925 16926 16927 16928 16929 16930 16931 16932 16933 16934 16935 16936 16937 16938 16939 16940 16941 16942 16943 16944 16945 16946 16947 16948 16949 16950 16951 16952 16953 16954 16955 16956 16957 16958 16959 16960 16961 16962 16963 16964 16965 16966 16967 16968 16969 16970 16971 16972 16973 16974 16975 16976 16977 16978 16979 16980 16981 16982 16983 16984 16985 16986 16987 16988 16989 16990 16991 16992 16993 16994 16995 16996 16997 16998 16999 17000 17001 17002 17003 17004 17005 17006 17007 17008 17009 17010 17011 17012 17013 17014 17015 17016 17017 17018 17019 17020 17021 17022 17023 17024 17025 17026 17027 17028 17029 17030 17031 17032 17033 17034 17035 17036 17037 17038 17039 17040 17041 17042 17043 17044 17045 17046 17047 17048 17049 17050 17051 17052 17053 17054 17055 17056 17057 17058 17059 17060 17061 17062 17063 17064 17065 17066 17067 17068 17069 17070 17071 17072 17073 17074 17075 17076 17077 17078 17079 17080 17081 17082 17083 17084 17085 17086 17087 17088 17089 17090 17091 17092 17093 17094 17095 17096 17097 17098 17099 17100 17101 17102 17103 17104 17105 17106 17107 17108 17109 17110 17111 17112 17113 17114 17115 17116 17117 17118 17119 17120 17121 17122 17123 17124 17125 17126 17127 17128 17129 17130 17131 17132 17133 17134 17135 17136 17137 17138 17139 17140 17141 17142 17143 17144 17145 17146 17147 17148 17149 17150 17151 17152 17153 17154 17155 17156 17157 17158 17159 17160 17161 17162 17163 17164 17165 17166 17167 17168 17169 17170 17171 17172 17173 17174 17175 17176 17177 17178 17179 17180 17181 17182 17183 17184 17185 17186 17187 17188 17189 17190 17191 17192 17193 17194 17195 17196 17197 17198 17199 17200 17201 17202 17203 17204 17205 17206 17207 17208 17209 17210 17211 17212 17213 17214 17215 17216 17217 17218 17219 17220 17221 17222 17223 17224 17225 17226 17227 17228 17229 17230 17231 17232 17233 17234 17235 17236 17237 17238 17239 17240 17241 17242 17243 17244 17245 17246 17247 17248 17249 17250 17251 17252 17253 17254 17255 17256 17257 17258 17259 17260 17261 17262 17263 17264 17265 17266 17267 17268 17269 17270 17271 17272 17273 17274 17275 17276 17277 17278 17279 17280 17281 17282 17283 17284 17285 17286 17287 17288 17289 17290 17291 17292 17293 17294 17295 17296 17297 17298 17299 17300 17301 17302 17303 17304 17305 17306 17307 17308 17309 17310 17311 17312 17313 17314 17315 17316 17317 17318 17319 17320 17321 17322 17323 17324 17325 17326 17327 17328 17329 17330 17331 17332 17333 17334 17335 17336 17337 17338 17339 17340 17341 17342 17343 17344 17345 17346 17347 17348 17349 17350 17351 17352 17353 17354 17355 17356 17357 17358 17359 17360 17361 17362 17363 17364 17365 17366 17367 17368 17369 17370 17371 17372 17373 17374 17375 17376 17377 17378 17379 17380 17381 17382 17383 17384 17385 17386 17387 17388 17389 17390 17391 17392 17393 17394 17395 17396 17397 17398 17399 17400 17401 17402 17403 17404 17405 17406 17407 17408 17409 17410 17411 17412 17413 17414 17415 17416 17417 17418 17419 17420 17421 17422 17423 17424 17425 17426 17427 17428 17429 17430 17431 17432 17433 17434 17435 17436 17437 17438 17439 17440 17441 17442 17443 17444 17445 17446 17447 17448 17449 17450 17451 17452 17453 17454 17455 17456 17457 17458 17459 17460 17461 17462 17463 17464 17465 17466 17467 17468 17469 17470 17471 17472 17473 17474 17475 17476 17477 17478 17479 17480 17481 17482 17483 17484 17485 17486 17487 17488 17489 17490 17491 17492 17493 17494 17495 17496 17497 17498 17499 17500 17501 17502 17503 17504 17505 17506 17507 17508 17509 17510 17511 17512 17513 17514 17515 17516 17517 17518 17519 17520 17521 17522 17523 17524 17525 17526 17527 17528 17529 17530 17531 17532 17533 17534 17535 17536 17537 17538 17539 17540 17541 17542 17543 17544 17545 17546 17547 17548 17549 17550 17551 17552 17553 17554 17555 17556 17557 17558 17559 17560 17561 17562 17563 17564 17565 17566 17567 17568 17569 17570 17571 17572 17573 17574 17575 17576 17577 17578 17579 17580 17581 17582 17583 17584 17585 17586 17587 17588 17589 17590 17591 17592 17593 17594 17595 17596 17597 17598 17599 17600 17601 17602 17603 17604 17605 17606 17607 17608 17609 17610 17611 17612 17613 17614 17615 17616 17617 17618 17619 17620 17621 17622 17623 17624 17625 17626 17627 17628 17629 17630 17631 17632 17633 17634 17635 17636 17637 17638 17639 17640 17641 17642 17643 17644 17645 17646 17647 17648 17649 17650 17651 17652 17653 17654 17655 17656 17657 17658 17659 17660 17661 17662 17663 17664 17665 17666 17667 17668 17669 17670 17671 17672 17673 17674 17675 17676 17677 17678 17679 17680 17681 17682 17683 17684 17685 17686 17687 17688 17689 17690 17691 17692 17693 17694 17695 17696 17697 17698 17699 17700 17701 17702 17703 17704 17705 17706 17707 17708 17709 17710 17711 17712 17713 17714 17715 17716 17717 17718 17719 17720 17721 17722 17723 17724 17725 17726 17727 17728 17729 17730 17731 17732 17733 17734 17735 17736 17737 17738 17739 17740 17741 17742 17743 17744 17745 17746 17747 17748 17749 17750 17751 17752 17753 17754 17755 17756 17757 17758 17759 17760 17761 17762 17763 17764 17765 17766 17767 17768 17769 17770 17771 17772 17773 17774 17775 17776 17777 17778 17779 17780 17781 17782 17783 17784 17785 17786 17787 17788 17789 17790 17791 17792 17793 17794 17795 17796 17797 17798 17799 17800 17801 17802 17803 17804 17805 17806 17807 17808 17809 17810 17811 17812 17813 17814 17815 17816 17817 17818 17819 17820 17821 17822 17823 17824 17825 17826 17827 17828 17829 17830 17831 17832 17833 17834 17835 17836 17837 17838 17839 17840 17841 17842 17843 17844 17845 17846 17847 17848 17849 17850 17851 17852 17853 17854 17855 17856 17857 17858 17859 17860 17861 17862 17863 17864 17865 17866 17867 17868 17869 17870 17871 17872 17873 17874 17875 17876 17877 17878 17879 17880 17881 17882 17883 17884 17885 17886 17887 17888 17889 17890 17891 17892 17893 17894 17895 17896 17897 17898 17899 17900 17901 17902 17903 17904 17905 17906 17907 17908 17909 17910 17911 17912 17913 17914 17915 17916 17917 17918 17919 17920 17921 17922 17923 17924 17925 17926 17927 17928 17929 17930 17931 17932 17933 17934 17935 17936 17937 17938 17939 17940 17941 17942 17943 17944 17945 17946 17947 17948 17949 17950 17951 17952 17953 17954 17955 17956 17957 17958 17959 17960 17961 17962 17963 17964 17965 17966 17967 17968 17969 17970 17971 17972 17973 17974 17975 17976 17977 17978 17979 17980 17981 17982 17983 17984 17985 17986 17987 17988 17989 17990 17991 17992 17993 17994 17995 17996 17997 17998 17999 18000 18001 18002 18003 18004 18005 18006 18007 18008 18009 18010 18011 18012 18013 18014 18015 18016 18017 18018 18019 18020 18021 18022 18023 18024 18025 18026 18027 18028 18029 18030 18031 18032 18033 18034 18035 18036 18037 18038 18039 18040 18041 18042 18043 18044 18045 18046 18047 18048 18049 18050 18051 18052 18053 18054 18055 18056 18057 18058 18059 18060 18061 18062 18063 18064 18065 18066 18067 18068 18069 18070 18071 18072 18073 18074 18075 18076 18077 18078 18079 18080 18081 18082 18083 18084 18085 18086 18087 18088 18089 18090 18091 18092 18093 18094 18095 18096 18097 18098 18099 18100 18101 18102 18103 18104 18105 18106 18107 18108 18109 18110 18111 18112 18113 18114 18115 18116 18117 18118 18119 18120 18121 18122 18123 18124 18125 18126 18127 18128 18129 18130 18131 18132 18133 18134 18135 18136 18137 18138 18139 18140 18141 18142 18143 18144 18145 18146 18147 18148 18149 18150 18151 18152 18153 18154 18155 18156 18157 18158 18159 18160 18161 18162 18163 18164 18165 18166 18167 18168 18169 18170 18171 18172 18173 18174 18175 18176 18177 18178 18179 18180 18181 18182 18183 18184 18185 18186 18187 18188 18189 18190 18191 18192 18193 18194 18195 18196 18197 18198 18199 18200 18201 18202 18203 18204 18205 18206 18207 18208 18209 18210 18211 18212 18213 18214 18215 18216 18217 18218 18219 18220 18221 18222 18223 18224 18225 18226 18227 18228 18229 18230 18231 18232 18233 18234 18235 18236 18237 18238 18239 18240 18241 18242 18243 18244 18245 18246 18247 18248 18249 18250 18251 18252 18253 18254 18255 18256 18257 18258 18259 18260 18261 18262 18263 18264 18265 18266 18267 18268 18269 18270 18271 18272 18273 18274 18275 18276 18277 18278 18279 18280 18281 18282 18283 18284 18285 18286 18287 18288 18289 18290 18291 18292 18293 18294 18295 18296 18297 18298 18299 18300 18301 18302 18303 18304 18305 18306 18307 18308 18309 18310 18311 18312 18313 18314 18315 18316 18317 18318 18319 18320 18321 18322 18323 18324 18325 18326 18327 18328 18329 18330 18331 18332 18333 18334 18335 18336 18337 18338 18339 18340 18341 18342 18343 18344 18345 18346 18347 18348 18349 18350 18351 18352 18353 18354 18355 18356 18357 18358 18359 18360 18361 18362 18363 18364 18365 18366 18367 18368 18369 18370 18371 18372 18373 18374 18375 18376 18377 18378 18379 18380 18381 18382 18383 18384 18385 18386 18387 18388 18389 18390 18391 18392 18393 18394 18395 18396 18397 18398 18399 18400 18401 18402 18403 18404 18405 18406 18407 18408 18409 18410 18411 18412 18413 18414 18415 18416 18417 18418 18419 18420 18421 18422 18423 18424 18425 18426 18427 18428 18429 18430 18431 18432 18433 18434 18435 18436 18437 18438 18439 18440 18441 18442 18443 18444 18445 18446 18447 18448 18449 18450 18451 18452 18453 18454 18455 18456 18457 18458 18459 18460 18461 18462 18463 18464 18465 18466 18467 18468 18469 18470 18471 18472 18473 18474 18475 18476 18477 18478 18479 18480 18481 18482 18483 18484 18485 18486 18487 18488 18489 18490 18491 18492 18493 18494 18495 18496 18497 18498 18499 18500 18501 18502 18503 18504 18505 18506 18507 18508 18509 18510 18511 18512 18513 18514 18515 18516 18517 18518 18519 18520 18521 18522 18523 18524 18525 18526 18527 18528 18529 18530 18531 18532 18533 18534 18535 18536 18537 18538 18539 18540 18541 18542 18543 18544 18545 18546 18547 18548 18549 18550 18551 18552 18553 18554 18555 18556 18557 18558 18559 18560 18561 18562 18563 18564 18565 18566 18567 18568 18569 18570 18571 18572 18573 18574 18575 18576 18577 18578 18579 18580 18581 18582 18583 18584 18585 18586 18587 18588 18589 18590 18591 18592 18593 18594 18595 18596 18597 18598 18599 18600 18601 18602 18603 18604 18605 18606 18607 18608 18609 18610 18611 18612 18613 18614 18615 18616 18617 18618 18619 18620 18621 18622 18623 18624 18625 18626 18627 18628 18629 18630 18631 18632 18633 18634 18635 18636 18637 18638 18639 18640 18641 18642 18643 18644 18645 18646 18647 18648 18649 18650 18651 18652 18653 18654 18655 18656 18657 18658 18659 18660 18661 18662 18663 18664 18665 18666 18667 18668 18669 18670 18671 18672 18673 18674 18675 18676 18677 18678 18679 18680 18681 18682 18683 18684 18685 18686 18687 18688 18689 18690 18691 18692 18693 18694 18695 18696 18697 18698 18699 18700 18701 18702 18703 18704 18705 18706 18707 18708 18709 18710 18711 18712 18713 18714 18715 18716 18717 18718 18719 18720 18721 18722 18723 18724 18725 18726 18727 18728 18729 18730 18731 18732 18733 18734 18735 18736 18737 18738 18739 18740 18741 18742 18743 18744 18745 18746 18747 18748 18749 18750 18751 18752 18753 18754 18755 18756 18757 18758 18759 18760 18761 18762 18763 18764 18765 18766 18767 18768 18769 18770 18771 18772 18773 18774 18775 18776 18777 18778 18779 18780 18781 18782 18783 18784 18785 18786 18787 18788 18789 18790 18791 18792 18793 18794 18795 18796 18797 18798 18799 18800 18801 18802 18803 18804 18805 18806 18807 18808 18809 18810 18811 18812 18813 18814 18815 18816 18817 18818 18819 18820 18821 18822 18823 18824 18825 18826 18827 18828 18829 18830 18831 18832 18833 18834 18835 18836 18837 18838 18839 18840 18841 18842 18843 18844 18845 18846 18847 18848 18849 18850 18851 18852 18853 18854 18855 18856 18857 18858 18859 18860 18861 18862 18863 18864 18865 18866 18867 18868 18869 18870 18871 18872 18873 18874 18875 18876 18877 18878 18879 18880 18881 18882 18883 18884 18885 18886 18887 18888 18889 18890 18891 18892 18893 18894 18895 18896 18897 18898 18899 18900 18901 18902 18903 18904 18905 18906 18907 18908 18909 18910 18911 18912 18913 18914 18915 18916 18917 18918 18919 18920 18921 18922 18923 18924 18925 18926 18927 18928 18929 18930 18931 18932 18933 18934 18935 18936 18937 18938 18939 18940 18941 18942 18943 18944 18945 18946 18947 18948 18949 18950 18951 18952 18953 18954 18955 18956 18957 18958 18959 18960 18961 18962 18963 18964 18965 18966 18967 18968 18969 18970 18971 18972 18973 18974 18975 18976 18977 18978 18979 18980 18981 18982 18983 18984 18985 18986 18987 18988 18989 18990 18991 18992 18993 18994 18995 18996 18997 18998 18999 19000 19001 19002 19003 19004 19005 19006 19007 19008 19009 19010 19011 19012 19013 19014 19015 19016 19017 19018 19019 19020 19021 19022 19023 19024 19025 19026 19027 19028 19029 19030 19031 19032 19033 19034 19035 19036 19037 19038 19039 19040 19041 19042 19043 19044 19045 19046 19047 19048 19049 19050 19051 19052 19053 19054 19055 19056 19057 19058 19059 19060 19061 19062 19063 19064 19065 19066 19067 19068 19069 19070 19071 19072 19073 19074 19075 19076 19077 19078 19079 19080 19081 19082 19083 19084 19085 19086 19087 19088 19089 19090 19091 19092 19093 19094 19095 19096 19097 19098 19099 19100 19101 19102 19103 19104 19105 19106 19107 19108 19109 19110 19111 19112 19113 19114 19115 19116 19117 19118 19119 19120 19121 19122 19123 19124 19125 19126 19127 19128 19129 19130 19131 19132 19133 19134 19135 19136 19137 19138 19139 19140 19141 19142 19143 19144 19145 19146 19147 19148 19149 19150 19151 19152 19153 19154 19155 19156 19157 19158 19159 19160 19161 19162 19163 19164 19165 19166 19167 19168 19169 19170 19171 19172 19173 19174 19175 19176 19177 19178 19179 19180 19181 19182 19183 19184 19185 19186 19187 19188 19189 19190 19191 19192 19193 19194 19195 19196 19197 19198 19199 19200 19201 19202 19203 19204 19205 19206 19207 19208 19209 19210 19211 19212 19213 19214 19215 19216 19217 19218 19219 19220 19221 19222 19223 19224 19225 19226 19227 19228 19229 19230 19231 19232 19233 19234 19235 19236 19237 19238 19239 19240 19241 19242 19243 19244 19245 19246 19247 19248 19249 19250 19251 19252 19253 19254 19255 19256 19257 19258 19259 19260 19261 19262 19263 19264 19265 19266 19267 19268 19269 19270 19271 19272 19273 19274 19275 19276 19277 19278 19279 19280 19281 19282 19283 19284 19285 19286 19287 19288 19289 19290 19291 19292 19293 19294 19295 19296 19297 19298 19299 19300 19301 19302 19303 19304 19305 19306 19307 19308 19309 19310 19311 19312 19313 19314 19315 19316 19317 19318 19319 19320 19321 19322 19323 19324 19325 19326 19327 19328 19329 19330 19331 19332 19333 19334 19335 19336 19337 19338 19339 19340 19341 19342 19343 19344 19345 19346 19347 19348 19349 19350 19351 19352 19353 19354 19355 19356 19357 19358 19359 19360 19361 19362 19363 19364 19365 19366 19367 19368 19369 19370 19371 19372 19373 19374 19375 19376 19377 19378 19379 19380 19381 19382 19383 19384 19385 19386 19387 19388 19389 19390 19391 19392 19393 19394 19395 19396 19397 19398 19399 19400 19401 19402 19403 19404 19405 19406 19407 19408 19409 19410 19411 19412 19413 19414 19415 19416 19417 19418 19419 19420 19421 19422 19423 19424 19425 19426 19427 19428 19429 19430 19431 19432 19433 19434 19435 19436 19437 19438 19439 19440 19441 19442 19443 19444 19445 19446 19447 19448 19449 19450 19451 19452 19453 19454 19455 19456 19457 19458 19459 19460 19461 19462 19463 19464 19465 19466 19467 19468 19469 19470 19471 19472 19473 19474 19475 19476 19477 19478 19479 19480 19481 19482 19483 19484 19485 19486 19487 19488 19489 19490 19491 19492 19493 19494 19495 19496 19497 19498 19499 19500 19501 19502 19503 19504 19505 19506 19507 19508 19509 19510 19511 19512 19513 19514 19515 19516 19517 19518 19519 19520 19521 19522 19523 19524 19525 19526 19527 19528 19529 19530 19531 19532 19533 19534 19535 19536 19537 19538 19539 19540 19541 19542 19543 19544 19545 19546 19547 19548 19549 19550 19551 19552 19553 19554 19555 19556 19557 19558 19559 19560 19561 19562 19563 19564 19565 19566 19567 19568 19569 19570 19571 19572 19573 19574 19575 19576 19577 19578 19579 19580 19581 19582 19583 19584 19585 19586 19587 19588 19589 19590 19591 19592 19593 19594 19595 19596 19597 19598 19599 19600 19601 19602 19603 19604 19605 19606 19607 19608 19609 19610 19611 19612 19613 19614 19615 19616 19617 19618 19619 19620 19621 19622 19623 19624 19625 19626 19627 19628 19629 19630 19631 19632 19633 19634 19635 19636 19637 19638 19639 19640 19641 19642 19643 19644 19645 19646 19647 19648 19649 19650 19651 19652 19653 19654 19655 19656 19657 19658 19659 19660 19661 19662 19663 19664 19665 19666 19667 19668 19669 19670 19671 19672 19673 19674 19675 19676 19677 19678 19679 19680 19681 19682 19683 19684 19685 19686 19687 19688 19689 19690 19691 19692 19693 19694 19695 19696 19697 19698 19699 19700 19701 19702 19703 19704 19705 19706 19707 19708 19709 19710 19711 19712 19713 19714 19715 19716 19717 19718 19719 19720 19721 19722 19723 19724 19725 19726 19727 19728 19729 19730 19731 19732 19733 19734 19735 19736 19737 19738 19739 19740 19741 19742 19743 19744 19745 19746 19747 19748 19749 19750 19751 19752 19753 19754 19755 19756 19757 19758 19759 19760 19761 19762 19763 19764 19765 19766 19767 19768 19769 19770 19771 19772 19773 19774 19775 19776 19777 19778 19779 19780 19781 19782 19783 19784 19785 19786 19787 19788 19789 19790 19791 19792 19793 19794 19795 19796 19797 19798 19799 19800 19801 19802 19803 19804 19805 19806 19807 19808 19809 19810 19811 19812 19813 19814 19815 19816 19817 19818 19819 19820 19821 19822 19823 19824 19825 19826 19827 19828 19829 19830 19831 19832 19833 19834 19835 19836 19837 19838 19839 19840 19841 19842 19843 19844 19845 19846 19847 19848 19849 19850 19851 19852 19853 19854 19855 19856 19857 19858 19859 19860 19861 19862 19863 19864 19865 19866 19867 19868 19869 19870 19871 19872 19873 19874 19875 19876 19877 19878 19879 19880 19881 19882 19883 19884 19885 19886 19887 19888 19889 19890 19891 19892 19893 19894 19895 19896 19897 19898 19899 19900 19901 19902 19903 19904 19905 19906 19907 19908 19909 19910 19911 19912 19913 19914 19915 19916 19917 19918 19919 19920 19921 19922 19923 19924 19925 19926 19927 19928 19929 19930 19931 19932 19933 19934 19935 19936 19937 19938 19939 19940 19941 19942 19943 19944 19945 19946 19947 19948 19949 19950 19951 19952 19953 19954 19955 19956 19957 19958 19959 19960 19961 19962 19963 19964 19965 19966 19967 19968 19969 19970 19971 19972 19973 19974 19975 19976 19977 19978 19979 19980 19981 19982 19983 19984 19985 19986 19987 19988 19989 19990 19991 19992 19993 19994 19995 19996 19997 19998 19999 20000 20001 20002 20003 20004 20005 20006 20007 20008 20009 20010 20011 20012 20013 20014 20015 20016 20017 20018 20019 20020 20021 20022 20023 20024 20025 20026 20027 20028 20029 20030 20031 20032 20033 20034 20035 20036 20037 20038 20039 20040 20041 20042 20043 20044 20045 20046 20047 20048 20049 20050 20051 20052 20053 20054 20055 20056 20057 20058 20059 20060 20061 20062 20063 20064 20065 20066 20067 20068 20069 20070 20071 20072 20073 20074 20075 20076 20077 20078 20079 20080 20081 20082 20083 20084 20085 20086 20087 20088 20089 20090 20091 20092 20093 20094 20095 20096 20097 20098 20099 20100 20101 20102 20103 20104 20105 20106 20107 20108 20109 20110 20111 20112 20113 20114 20115 20116 20117 20118 20119 20120 20121 20122 20123 20124 20125 20126 20127 20128 20129 20130 20131 20132 20133 20134 20135 20136 20137 20138 20139 20140 20141 20142 20143 20144 20145 20146 20147 20148 20149 20150 20151 20152 20153 20154 20155 20156 20157 20158 20159 20160 20161 20162 20163 20164 20165 20166 20167 20168 20169 20170 20171 20172 20173 20174 20175 20176 20177 20178 20179 20180 20181 20182 20183 20184 20185 20186 20187 20188 20189 20190 20191 20192 20193 20194 20195 20196 20197 20198 20199 20200 20201 20202 20203 20204 20205 20206 20207 20208 20209 20210 20211 20212 20213 20214 20215 20216 20217 20218 20219 20220 20221 20222 20223 20224 20225 20226 20227 20228 20229 20230 20231 20232 20233 20234 20235 20236 20237 20238 20239 20240 20241 20242 20243 20244 20245 20246 20247 20248 20249 20250 20251 20252 20253 20254 20255 20256 20257 20258 20259 20260 20261 20262 20263 20264 20265 20266 20267 20268 20269 20270 20271 20272 20273 20274 20275 20276 20277 20278 20279 20280 20281 20282 20283 20284 20285 20286 20287 20288 20289 20290 20291 20292 20293 20294 20295 20296 20297 20298 20299 20300 20301 20302 20303 20304 20305 20306 20307 20308 20309 20310 20311 20312 20313 20314 20315 20316 20317 20318 20319 20320 20321 20322 20323 20324 20325 20326 20327 20328 20329 20330 20331 20332 20333 20334 20335 20336 20337 20338 20339 20340 20341 20342 20343 20344 20345 20346 20347 20348 20349 20350 20351 20352 20353 20354 20355 20356 20357 20358 20359 20360 20361 20362 20363 20364 20365 20366 20367 20368 20369 20370 20371 20372 20373 20374 20375 20376 20377 20378 20379 20380 20381 20382 20383 20384 20385 20386 20387 20388 20389 20390 20391 20392 20393 20394 20395 20396 20397 20398 20399 20400 20401 20402 20403 20404 20405 20406 20407 20408 20409 20410 20411 20412 20413 20414 20415 20416 20417 20418 20419 20420 20421 20422 20423 20424 20425 20426 20427 20428 20429 20430 20431 20432 20433 20434 20435 20436 20437 20438 20439 20440 20441 20442 20443 20444 20445 20446 20447 20448 20449 20450 20451 20452 20453 20454 20455 20456 20457 20458 20459 20460 20461 20462 20463 20464 20465 20466 20467 20468 20469 20470 20471 20472 20473 20474 20475 20476 20477 20478 20479 20480 20481 20482 20483 20484 20485 20486 20487 20488 20489 20490 20491 20492 20493 20494 20495 20496 20497 20498 20499 20500 20501 20502 20503 20504 20505 20506 20507 20508 20509 20510 20511 20512 20513 20514 20515 20516 20517 20518 20519 20520 20521 20522 20523 20524 20525 20526 20527 20528 20529 20530 20531 20532 20533 20534 20535 20536 20537 20538 20539 20540 20541 20542 20543 20544 20545 20546 20547 20548 20549 20550 20551 20552 20553 20554 20555 20556 20557 20558 20559 20560 20561 20562 20563 20564 20565 20566 20567 20568 20569 20570 20571 20572 20573 20574 20575 20576 20577 20578 20579 20580 20581 20582 20583 20584 20585 20586 20587 20588 20589 20590 20591 20592 20593 20594 20595 20596 20597 20598 20599 20600 20601 20602 20603 20604 20605 20606 20607 20608 20609 20610 20611 20612 20613 20614 20615 20616 20617 20618 20619 20620 20621 20622 20623 20624 20625 20626 20627 20628 20629 20630 20631 20632 20633 20634 20635 20636 20637 20638 20639 20640 20641 20642 20643 20644 20645 20646 20647 20648 20649 20650 20651 20652 20653 20654 20655 20656 20657 20658 20659 20660 20661 20662 20663 20664 20665 20666 20667 20668 20669 20670 20671 20672 20673 20674 20675 20676 20677 20678 20679 20680 20681 20682 20683 20684 20685 20686 20687 20688 20689 20690 20691 20692 20693 20694 20695 20696 20697 20698 20699 20700 20701 20702 20703 20704 20705 20706 20707 20708 20709 20710 20711 20712 20713 20714 20715 20716 20717 20718 20719 20720 20721 20722 20723 20724 20725 20726 20727 20728 20729 20730 20731 20732 20733 20734 20735 20736 20737 20738 20739 20740 20741 20742 20743 20744 20745 20746 20747 20748 20749 20750 20751 20752 20753 20754 20755 20756 20757 20758 20759 20760 20761 20762 20763 20764 20765 20766 20767 20768 20769 20770 20771 20772 20773 20774 20775 20776 20777 20778 20779 20780 20781 20782 20783 20784 20785 20786 20787 20788 20789 20790 20791 20792 20793 20794 20795 20796 20797 20798 20799 20800 20801 20802 20803 20804 20805 20806 20807 20808 20809 20810 20811 20812 20813 20814 20815 20816 20817 20818 20819 20820 20821 20822 20823 20824 20825 20826 20827 20828 20829 20830 20831 20832 20833 20834 20835 20836 20837 20838 20839 20840 20841 20842 20843 20844 20845 20846 20847 20848 20849 20850 20851 20852 20853 20854 20855 20856 20857 20858 20859 20860 20861 20862 20863 20864 20865 20866 20867 20868 20869 20870 20871 20872 20873 20874 20875 20876 20877 20878 20879 20880 20881 20882 20883 20884 20885 20886 20887 20888 20889 20890 20891 20892 20893 20894 20895 20896 20897 20898 20899 20900 20901 20902 20903 20904 20905 20906 20907 20908 20909 20910 20911 20912 20913 20914 20915 20916 20917 20918 20919 20920 20921 20922 20923 20924 20925 20926 20927 20928 20929 20930 20931 20932 20933 20934 20935 20936 20937 20938 20939 20940 20941 20942 20943 20944 20945 20946 20947 20948 20949 20950 20951 20952 20953 20954 20955 20956 20957 20958 20959 20960 20961 20962 20963 20964 20965 20966 20967 20968 20969 20970 20971 20972 20973 20974 20975 20976 20977 20978 20979 20980 20981 20982 20983 20984 20985 20986 20987 20988 20989 20990 20991 20992 20993 20994 20995 20996 20997 20998 20999 21000 21001 21002 21003 21004 21005 21006 21007 21008 21009 21010 21011 21012 21013 21014 21015 21016 21017 21018 21019 21020 21021 21022 21023 21024 21025 21026 21027 21028 21029 21030 21031 21032 21033 21034 21035 21036 21037 21038 21039 21040 21041 21042 21043 21044 21045 21046 21047 21048 21049 21050 21051 21052 21053 21054 21055 21056 21057 21058 21059 21060 21061 21062 21063 21064 21065 21066 21067 21068 21069 21070 21071 21072 21073 21074 21075 21076 21077 21078 21079 21080 21081 21082 21083 21084 21085 21086 21087 21088 21089 21090 21091 21092 21093 21094 21095 21096 21097 21098 21099 21100 21101 21102 21103 21104 21105 21106 21107 21108 21109 21110 21111 21112 21113 21114 21115 21116 21117 21118 21119 21120 21121 21122 21123 21124 21125 21126 21127 21128 21129 21130 21131 21132 21133 21134 21135 21136 21137 21138 21139 21140 21141 21142 21143 21144 21145 21146 21147 21148 21149 21150 21151 21152 21153 21154 21155 21156 21157 21158 21159 21160 21161 21162 21163 21164 21165 21166 21167 21168 21169 21170 21171 21172 21173 21174 21175 21176 21177 21178 21179 21180 21181 21182 21183 21184 21185 21186 21187 21188 21189 21190 21191 21192 21193 21194 21195 21196 21197 21198 21199 21200 21201 21202 21203 21204 21205 21206 21207 21208 21209 21210 21211 21212 21213 21214 21215 21216 21217 21218 21219 21220 21221 21222 21223 21224 21225 21226 21227 21228 21229 21230 21231 21232 21233 21234 21235 21236 21237 21238 21239 21240 21241 21242 21243 21244 21245 21246 21247 21248 21249 21250 21251 21252 21253 21254 21255 21256 21257 21258 21259 21260 21261 21262 21263 21264 21265 21266 21267 21268 21269 21270 21271 21272 21273 21274 21275 21276 21277 21278 21279 21280 21281 21282 21283 21284 21285 21286 21287 21288 21289 21290 21291 21292 21293 21294 21295 21296 21297 21298 21299 21300 21301 21302 21303 21304 21305 21306 21307 21308 21309 21310 21311 21312 21313 21314 21315 21316 21317 21318 21319 21320 21321 21322 21323 21324 21325 21326 21327 21328 21329 21330 21331 21332 21333 21334 21335 21336 21337 21338 21339 21340 21341 21342 21343 21344 21345 21346 21347 21348 21349 21350 21351 21352 21353 21354 21355 21356 21357 21358 21359 21360 21361 21362 21363 21364 21365 21366 21367 21368 21369 21370 21371 21372 21373 21374 21375 21376 21377 21378 21379 21380 21381 21382 21383 21384 21385 21386 21387 21388 21389 21390 21391 21392 21393 21394 21395 21396 21397 21398 21399 21400 21401 21402 21403 21404 21405 21406 21407 21408 21409 21410 21411 21412 21413 21414 21415 21416 21417 21418 21419 21420 21421 21422 21423 21424 21425 21426 21427 21428 21429 21430 21431 21432 21433 21434 21435 21436 21437 21438 21439 21440 21441 21442 21443 21444 21445 21446 21447 21448 21449 21450 21451 21452 21453 21454 21455 21456 21457 21458 21459 21460 21461 21462 21463 21464 21465 21466 21467 21468 21469 21470 21471 21472 21473 21474 21475 21476 21477 21478 21479 21480 21481 21482 21483 21484 21485 21486 21487 21488 21489 21490 21491 21492 21493 21494 21495 21496 21497 21498 21499 21500 21501 21502 21503 21504 21505 21506 21507 21508 21509 21510 21511 21512 21513 21514 21515 21516 21517 21518 21519 21520 21521 21522 21523 21524 21525 21526 21527 21528 21529 21530 21531 21532 21533 21534 21535 21536 21537 21538 21539 21540 21541 21542 21543 21544 21545 21546 21547 21548 21549 21550 21551 21552 21553 21554 21555 21556 21557 21558 21559 21560 21561 21562 21563 21564 21565 21566 21567 21568 21569 21570 21571 21572 21573 21574 21575 21576 21577 21578 21579 21580 21581 21582 21583 21584 21585 21586 21587 21588 21589 21590 21591 21592 21593 21594 21595 21596 21597 21598 21599 21600 21601 21602 21603 21604 21605 21606 21607 21608 21609 21610 21611 21612 21613 21614 21615 21616 21617 21618 21619 21620 21621 21622 21623 21624 21625 21626 21627 21628 21629 21630 21631 21632 21633 21634 21635 21636 21637 21638 21639 21640 21641 21642 21643 21644 21645 21646 21647 21648 21649 21650 21651 21652 21653 21654 21655 21656 21657 21658 21659 21660 21661 21662 21663 21664 21665 21666 21667 21668 21669 21670 21671 21672 21673 21674 21675 21676 21677 21678 21679 21680 21681 21682 21683 21684 21685 21686 21687 21688 21689 21690 21691 21692 21693 21694 21695 21696 21697 21698 21699 21700 21701 21702 21703 21704 21705 21706 21707 21708 21709 21710 21711 21712 21713 21714 21715 21716 21717 21718 21719 21720 21721 21722 21723 21724 21725 21726 21727 21728 21729 21730 21731 21732 21733 21734 21735 21736 21737 21738 21739 21740 21741 21742 21743 21744 21745 21746 21747 21748 21749 21750 21751 21752 21753 21754 21755 21756 21757 21758 21759 21760 21761 21762 21763 21764 21765 21766 21767 21768 21769 21770 21771 21772 21773 21774 21775 21776 21777 21778 21779 21780 21781 21782 21783 21784 21785 21786 21787 21788 21789 21790 21791 21792 21793 21794 21795 21796 21797 21798 21799 21800 21801 21802 21803 21804 21805 21806 21807 21808 21809 21810 21811 21812 21813 21814 21815 21816 21817 21818 21819 21820 21821 21822 21823 21824 21825 21826 21827 21828 21829 21830 21831 21832 21833 21834 21835 21836 21837 21838 21839 21840 21841 21842 21843 21844 21845 21846 21847 21848 21849 21850 21851 21852 21853 21854 21855 21856 21857 21858 21859 21860 21861 21862 21863 21864 21865 21866 21867 21868 21869 21870 21871 21872 21873 21874 21875 21876 21877 21878 21879 21880 21881 21882 21883 21884 21885 21886 21887 21888 21889 21890 21891 21892 21893 21894 21895 21896 21897 21898 21899 21900 21901 21902 21903 21904 21905 21906 21907 21908 21909 21910 21911 21912 21913 21914 21915 21916 21917 21918 21919 21920 21921 21922 21923 21924 21925 21926 21927 21928 21929 21930 21931 21932 21933 21934 21935 21936 21937 21938 21939 21940 21941 21942 21943 21944 21945 21946 21947 21948 21949 21950 21951 21952 21953 21954 21955 21956 21957 21958 21959 21960 21961 21962 21963 21964 21965 21966 21967 21968 21969 21970 21971 21972 21973 21974 21975 21976 21977 21978 21979 21980 21981 21982 21983 21984 21985 21986 21987 21988 21989 21990 21991 21992 21993 21994 21995 21996 21997 21998 21999 22000 22001 22002 22003 22004 22005 22006 22007 22008 22009 22010 22011 22012 22013 22014 22015 22016 22017 22018 22019 22020 22021 22022 22023 22024 22025 22026 22027 22028 22029 22030 22031 22032 22033 22034 22035 22036 22037 22038 22039 22040 22041 22042 22043 22044 22045 22046 22047 22048 22049 22050 22051 22052 22053 22054 22055 22056 22057 22058 22059 22060 22061 22062 22063 22064 22065 22066 22067 22068 22069 22070 22071 22072 22073 22074 22075 22076 22077 22078 22079 22080 22081 22082 22083 22084 22085 22086 22087 22088 22089 22090 22091 22092 22093 22094 22095 22096 22097 22098 22099 22100 22101 22102 22103 22104 22105 22106 22107 22108 22109 22110 22111 22112 22113 22114 22115 22116 22117 22118 22119 22120 22121 22122 22123 22124 22125 22126 22127 22128 22129 22130 22131 22132 22133 22134 22135 22136 22137 22138 22139 22140 22141 22142 22143 22144 22145 22146 22147 22148 22149 22150 22151 22152 22153 22154 22155 22156 22157 22158 22159 22160 22161 22162 22163 22164 22165 22166 22167 22168 22169 22170 22171 22172 22173 22174 22175 22176 22177 22178 22179 22180 22181 22182 22183 22184 22185 22186 22187 22188 22189 22190 22191 22192 22193 22194 22195 22196 22197 22198 22199 22200 22201 22202 22203 22204 22205 22206 22207 22208 22209 22210 22211 22212 22213 22214 22215 22216 22217 22218 22219 22220 22221 22222 22223 22224 22225 22226 22227 22228 22229 22230 22231 22232 22233 22234 22235 22236 22237 22238 22239 22240 22241 22242 22243 22244 22245 22246 22247 22248 22249 22250 22251 22252 22253 22254 22255 22256 22257 22258 22259 22260 22261 22262 22263 22264 22265 22266 22267 22268 22269 22270 22271 22272 22273 22274 22275 22276 22277 22278 22279 22280 22281 22282 22283 22284 22285 22286 22287 22288 22289 22290 22291 22292 22293 22294 22295 22296 22297 22298 22299 22300 22301 22302 22303 22304 22305 22306 22307 22308 22309 22310 22311 22312 22313 22314 22315 22316 22317 22318 22319 22320 22321 22322 22323 22324 22325 22326 22327 22328 22329 22330 22331 22332 22333 22334 22335 22336 22337 22338 22339 22340 22341 22342 22343 22344 22345 22346 22347 22348 22349 22350 22351 22352 22353 22354 22355 22356 22357 22358 22359 22360 22361 22362 22363 22364 22365 22366 22367 22368 22369 22370 22371 22372 22373 22374 22375 22376 22377 22378 22379 22380 22381 22382 22383 22384 22385 22386 22387 22388 22389 22390 22391 22392 22393 22394 22395 22396 22397 22398 22399 22400 22401 22402 22403 22404 22405 22406 22407 22408 22409 22410 22411 22412 22413 22414 22415 22416 22417 22418 22419 22420 22421 22422 22423 22424 22425 22426 22427 22428 22429 22430 22431 22432 22433 22434 22435 22436 22437 22438 22439 22440 22441 22442 22443 22444 22445 22446 22447 22448 22449 22450 22451 22452 22453 22454 22455 22456 22457 22458 22459 22460 22461 22462 22463 22464 22465 22466 22467 22468 22469 22470 22471 22472 22473 22474 22475 22476 22477 22478 22479 22480 22481 22482 22483 22484 22485 22486 22487 22488 22489 22490 22491 22492 22493 22494 22495 22496 22497 22498 22499 22500 22501 22502 22503 22504 22505 22506 22507 22508 22509 22510 22511 22512 22513 22514 22515 22516 22517 22518 22519 22520 22521 22522 22523 22524 22525 22526 22527 22528 22529 22530 22531 22532 22533 22534 22535 22536 22537 22538 22539 22540 22541 22542 22543 22544 22545 22546 22547 22548 22549 22550 22551 22552 22553 22554 22555 22556 22557 22558 22559 22560 22561 22562 22563 22564 22565 22566 22567 22568 22569 22570 22571 22572 22573 22574 22575 22576 22577 22578 22579 22580 22581 22582 22583 22584 22585 22586 22587 22588 22589 22590 22591 22592 22593 22594 22595 22596 22597 22598 22599 22600 22601 22602 22603 22604 22605 22606 22607 22608 22609 22610 22611 22612 22613 22614 22615 22616 22617 22618 22619 22620 22621 22622 22623 22624 22625 22626 22627 22628 22629 22630 22631 22632 22633 22634 22635 22636 22637 22638 22639 22640 22641 22642 22643 22644 22645 22646 22647 22648 22649 22650 22651 22652 22653 22654 22655 22656 22657 22658 22659 22660 22661 22662 22663 22664 22665 22666 22667 22668 22669 22670 22671 22672 22673 22674 22675 22676 22677 22678 22679 22680 22681 22682 22683 22684 22685 22686 22687 22688 22689 22690 22691 22692 22693 22694 22695 22696 22697 22698 22699 22700 22701 22702 22703 22704 22705 22706 22707 22708 22709 22710 22711 22712 22713 22714 22715 22716 22717 22718 22719 22720 22721 22722 22723 22724 22725 22726 22727 22728 22729 22730 22731 22732 22733 22734 22735 22736 22737 22738 22739 22740 22741 22742 22743 22744 22745 22746 22747 22748 22749 22750 22751 22752 22753 22754 22755 22756 22757 22758 22759 22760 22761 22762 22763 22764 22765 22766 22767 22768 22769 22770 22771 22772 22773 22774 22775 22776 22777 22778 22779 22780 22781 22782 22783 22784 22785 22786 22787 22788 22789 22790 22791 22792 22793 22794 22795 22796 22797 22798 22799 22800 22801 22802 22803 22804 22805 22806 22807 22808 22809 22810 22811 22812 22813 22814 22815 22816 22817 22818 22819 22820 22821 22822 22823 22824 22825 22826 22827 22828 22829 22830 22831 22832 22833 22834 22835 22836 22837 22838 22839 22840 22841 22842 22843 22844 22845 22846 22847 22848 22849 22850 22851 22852 22853 22854 22855 22856 22857 22858 22859 22860 22861 22862 22863 22864 22865 22866 22867 22868 22869 22870 22871 22872 22873 22874 22875 22876 22877 22878 22879 22880 22881 22882 22883 22884 22885 22886 22887 22888 22889 22890 22891 22892 22893 22894 22895 22896 22897 22898 22899 22900 22901 22902 22903 22904 22905 22906 22907 22908 22909 22910 22911 22912 22913 22914 22915 22916 22917 22918 22919 22920 22921 22922 22923 22924 22925 22926 22927 22928 22929 22930 22931 22932 22933 22934 22935 22936 22937 22938 22939 22940 22941 22942 22943 22944 22945 22946 22947 22948 22949 22950 22951 22952 22953 22954 22955 22956 22957 22958 22959 22960 22961 22962 22963 22964 22965 22966 22967 22968 22969 22970 22971 22972 22973 22974 22975 22976 22977 22978 22979 22980 22981 22982 22983 22984 22985 22986 22987 22988 22989 22990 22991 22992 22993 22994 22995 22996 22997 22998 22999 23000 23001 23002 23003 23004 23005 23006 23007 23008 23009 23010 23011 23012 23013 23014 23015 23016 23017 23018 23019 23020 23021 23022 23023 23024 23025 23026 23027 23028 23029 23030 23031 23032 23033 23034 23035 23036 23037 23038 23039 23040 23041 23042 23043 23044 23045 23046 23047 23048 23049 23050 23051 23052 23053 23054 23055 23056 23057 23058 23059 23060 23061 23062 23063 23064 23065 23066 23067 23068 23069 23070 23071 23072 23073 23074 23075 23076 23077 23078 23079 23080 23081 23082 23083 23084 23085 23086 23087 23088 23089 23090 23091 23092 23093 23094 23095 23096 23097 23098 23099 23100 23101 23102 23103 23104 23105 23106 23107 23108 23109 23110 23111 23112 23113 23114 23115 23116 23117 23118 23119 23120 23121 23122 23123 23124 23125 23126 23127 23128 23129 23130 23131 23132 23133 23134 23135 23136 23137 23138 23139 23140 23141 23142 23143 23144 23145 23146 23147 23148 23149 23150 23151 23152 23153 23154 23155 23156 23157 23158 23159 23160 23161 23162 23163 23164 23165 23166 23167 23168 23169 23170 23171 23172 23173 23174 23175 23176 23177 23178 23179 23180 23181 23182 23183 23184 23185 23186 23187 23188 23189 23190 23191 23192 23193 23194 23195 23196 23197 23198 23199 23200 23201 23202 23203 23204 23205 23206 23207 23208 23209 23210 23211 23212 23213 23214 23215 23216 23217 23218 23219 23220 23221 23222 23223 23224 23225 23226 23227 23228 23229 23230 23231 23232 23233 23234 23235 23236 23237 23238 23239 23240 23241 23242 23243 23244 23245 23246 23247 23248 23249 23250 23251 23252 23253 23254 23255 23256 23257 23258 23259 23260 23261 23262 23263 23264 23265 23266 23267 23268 23269 23270 23271 23272 23273 23274 23275 23276 23277 23278 23279 23280 23281 23282 23283 23284 23285 23286 23287 23288 23289 23290 23291 23292 23293 23294 23295 23296 23297 23298 23299 23300 23301 23302 23303 23304 23305 23306 23307 23308 23309 23310 23311 23312 23313 23314 23315 23316 23317 23318 23319 23320 23321 23322 23323 23324 23325 23326 23327 23328 23329 23330 23331 23332 23333 23334 23335 23336 23337 23338 23339 23340 23341 23342 23343 23344 23345 23346 23347 23348 23349 23350 23351 23352 23353 23354 23355 23356 23357 23358 23359 23360 23361 23362 23363 23364 23365 23366 23367 23368 23369 23370 23371 23372 23373 23374 23375 23376 23377 23378 23379 23380 23381 23382 23383 23384 23385 23386 23387 23388 23389 23390 23391 23392 23393 23394 23395 23396 23397 23398 23399 23400 23401 23402 23403 23404 23405 23406 23407 23408 23409 23410 23411 23412 23413 23414 23415 23416 23417 23418 23419 23420 23421 23422 23423 23424 23425 23426 23427 23428 23429 23430 23431 23432 23433 23434 23435 23436 23437 23438 23439 23440 23441 23442 23443 23444 23445 23446 23447 23448 23449 23450 23451 23452 23453 23454 23455 23456 23457 23458 23459 23460 23461 23462 23463 23464 23465 23466 23467 23468 23469 23470 23471 23472 23473 23474 23475 23476 23477 23478 23479 23480 23481 23482 23483 23484 23485 23486 23487 23488 23489 23490 23491 23492 23493 23494 23495 23496 23497 23498 23499 23500 23501 23502 23503 23504 23505 23506 23507 23508 23509 23510 23511 23512 23513 23514 23515 23516 23517 23518 23519 23520 23521 23522 23523 23524 23525 23526 23527 23528 23529 23530 23531 23532 23533 23534 23535 23536 23537 23538 23539 23540 23541 23542 23543 23544 23545 23546 23547 23548 23549 23550 23551 23552 23553 23554 23555 23556 23557 23558 23559 23560 23561 23562 23563 23564 23565 23566 23567 23568 23569 23570 23571 23572 23573 23574 23575 23576 23577 23578 23579 23580 23581 23582 23583 23584 23585 23586 23587 23588 23589 23590 23591 23592 23593 23594 23595 23596 23597 23598 23599 23600 23601 23602 23603 23604 23605 23606 23607 23608 23609 23610 23611 23612 23613 23614 23615 23616 23617 23618 23619 23620 23621 23622 23623 23624 23625 23626 23627 23628 23629 23630 23631 23632 23633 23634 23635 23636 23637 23638 23639 23640 23641 23642 23643 23644 23645 23646 23647 23648 23649 23650 23651 23652 23653 23654 23655 23656 23657 23658 23659 23660 23661 23662 23663 23664 23665 23666 23667 23668 23669 23670 23671 23672 23673 23674 23675 23676 23677 23678 23679 23680 23681 23682 23683 23684 23685 23686 23687 23688 23689 23690 23691 23692 23693 23694 23695 23696 23697 23698 23699 23700 23701 23702 23703 23704 23705 23706 23707 23708 23709 23710 23711 23712 23713 23714 23715 23716 23717 23718 23719 23720 23721 23722 23723 23724 23725 23726 23727 23728 23729 23730 23731 23732 23733 23734 23735 23736 23737 23738 23739 23740 23741 23742 23743 23744 23745 23746 23747 23748 23749 23750 23751 23752 23753 23754 23755 23756 23757 23758 23759 23760 23761 23762 23763 23764 23765 23766 23767 23768 23769 23770 23771 23772 23773 23774 23775 23776 23777 23778 23779 23780 23781 23782 23783 23784 23785 23786 23787 23788 23789 23790 23791 23792 23793 23794 23795 23796 23797 23798 23799 23800 23801 23802 23803 23804 23805 23806 23807 23808 23809 23810 23811 23812 23813 23814 23815 23816 23817 23818 23819 23820 23821 23822 23823 23824 23825 23826 23827 23828 23829 23830 23831 23832 23833 23834 23835 23836 23837 23838 23839 23840 23841 23842 23843 23844 23845 23846 23847 23848 23849 23850 23851 23852 23853 23854 23855 23856 23857 23858 23859 23860 23861 23862 23863 23864 23865 23866 23867 23868 23869 23870 23871 23872 23873 23874 23875 23876 23877 23878 23879 23880 23881 23882 23883 23884 23885 23886 23887 23888 23889 23890 23891 23892 23893 23894 23895 23896 23897 23898 23899 23900 23901 23902 23903 23904 23905 23906 23907 23908 23909 23910 23911 23912 23913 23914 23915 23916 23917 23918 23919 23920 23921 23922 23923 23924 23925 23926 23927 23928 23929 23930 23931 23932 23933 23934 23935 23936 23937 23938 23939 23940 23941 23942 23943 23944 23945 23946 23947 23948 23949 23950 23951 23952 23953 23954 23955 23956 23957 23958 23959 23960 23961 23962 23963 23964 23965 23966 23967 23968 23969 23970 23971 23972 23973 23974 23975 23976 23977 23978 23979 23980 23981 23982 23983 23984 23985 23986 23987 23988 23989 23990 23991 23992 23993 23994 23995 23996 23997 23998 23999 24000 24001 24002 24003 24004 24005 24006 24007 24008 24009 24010 24011 24012 24013 24014 24015 24016 24017 24018 24019 24020 24021 24022 24023 24024 24025 24026 24027 24028 24029 24030 24031 24032 24033 24034 24035 24036 24037 24038 24039 24040 24041 24042 24043 24044 24045 24046 24047 24048 24049 24050 24051 24052 24053 24054 24055 24056 24057 24058 24059 24060 24061 24062 24063 24064 24065 24066 24067 24068 24069 24070 24071 24072 24073 24074 24075 24076 24077 24078 24079 24080 24081 24082 24083 24084 24085 24086 24087 24088 24089 24090 24091 24092 24093 24094 24095 24096 24097 24098 24099 24100 24101 24102 24103 24104 24105 24106 24107 24108 24109 24110 24111 24112 24113 24114 24115 24116 24117 24118 24119 24120 24121 24122 24123 24124 24125 24126 24127 24128 24129 24130 24131 24132 24133 24134 24135 24136 24137 24138 24139 24140 24141 24142 24143 24144 24145 24146 24147 24148 24149 24150 24151 24152 24153 24154 24155 24156 24157 24158 24159 24160 24161 24162 24163 24164 24165 24166 24167 24168 24169 24170 24171 24172 24173 24174 24175 24176 24177 24178 24179 24180 24181 24182 24183 24184 24185 24186 24187 24188 24189 24190 24191 24192 24193 24194 24195 24196 24197 24198 24199 24200 24201 24202 24203 24204 24205 24206 24207 24208 24209 24210 24211 24212 24213 24214 24215 24216 24217 24218 24219 24220 24221 24222 24223 24224 24225 24226 24227 24228 24229 24230 24231 24232 24233 24234 24235 24236 24237 24238 24239 24240 24241 24242 24243 24244 24245 24246 24247 24248 24249 24250 24251 24252 24253 24254 24255 24256 24257 24258 24259 24260 24261 24262 24263 24264 24265 24266 24267 24268 24269 24270 24271 24272 24273 24274 24275 24276 24277 24278 24279 24280 24281 24282 24283 24284 24285 24286 24287 24288 24289 24290 24291 24292 24293 24294 24295 24296 24297 24298 24299 24300 24301 24302 24303 24304 24305 24306 24307 24308 24309 24310 24311 24312 24313 24314 24315 24316 24317 24318 24319 24320 24321 24322 24323 24324 24325 24326 24327 24328 24329 24330 24331 24332 24333 24334 24335 24336 24337 24338 24339 24340 24341 24342 24343 24344 24345 24346 24347 24348 24349 24350 24351 24352 24353 24354 24355 24356 24357 24358 24359 24360 24361 24362 24363 24364 24365 24366 24367 24368 24369 24370 24371 24372 24373 24374 24375 24376 24377 24378 24379 24380 24381 24382 24383 24384 24385 24386 24387 24388 24389 24390 24391 24392 24393 24394 24395 24396 24397 24398 24399 24400 24401 24402 24403 24404 24405 24406 24407 24408 24409 24410 24411 24412 24413 24414 24415 24416 24417 24418 24419 24420 24421 24422 24423 24424 24425 24426 24427 24428 24429 24430 24431 24432 24433 24434 24435 24436 24437 24438 24439 24440 24441 24442 24443 24444 24445 24446 24447 24448 24449 24450 24451 24452 24453 24454 24455 24456 24457 24458 24459 24460 24461 24462 24463 24464 24465 24466 24467 24468 24469 24470 24471 24472 24473 24474 24475 24476 24477 24478 24479 24480 24481 24482 24483 24484 24485 24486 24487 24488 24489 24490 24491 24492 24493 24494 24495 24496 24497 24498 24499 24500 24501 24502 24503 24504 24505 24506 24507 24508 24509 24510 24511 24512 24513 24514 24515 24516 24517 24518 24519 24520 24521 24522 24523 24524 24525 24526 24527 24528 24529 24530 24531 24532 24533 24534 24535 24536 24537 24538 24539 24540 24541 24542 24543 24544 24545 24546 24547 24548 24549 24550 24551 24552 24553 24554 24555 24556 24557 24558 24559 24560 24561 24562 24563 24564 24565 24566 24567 24568 24569 24570 24571 24572 24573 24574 24575 24576 24577 24578 24579 24580 24581 24582 24583 24584 24585 24586 24587 24588 24589 24590 24591 24592 24593 24594 24595 24596 24597 24598 24599 24600 24601 24602 24603 24604 24605 24606 24607 24608 24609 24610 24611 24612 24613 24614 24615 24616 24617 24618 24619 24620 24621 24622 24623 24624 24625 24626 24627 24628 24629 24630 24631 24632 24633 24634 24635 24636 24637 24638 24639 24640 24641 24642 24643 24644 24645 24646 24647 24648 24649 24650 24651 24652 24653 24654 24655 24656 24657 24658 24659 24660 24661 24662 24663 24664 24665 24666 24667 24668 24669 24670 24671 24672 24673 24674 24675 24676 24677 24678 24679 24680 24681 24682 24683 24684 24685 24686 24687 24688 24689 24690 24691 24692 24693 24694 24695 24696 24697 24698 24699 24700 24701 24702 24703 24704 24705 24706 24707 24708 24709 24710 24711 24712 24713 24714 24715 24716 24717 24718 24719 24720 24721 24722 24723 24724 24725 24726 24727 24728 24729 24730 24731 24732 24733 24734 24735 24736 24737 24738 24739 24740 24741 24742 24743 24744 24745 24746 24747 24748 24749 24750 24751 24752 24753 24754 24755 24756 24757 24758 24759 24760 24761 24762 24763 24764 24765 24766 24767 24768 24769 24770 24771 24772 24773 24774 24775 24776 24777 24778 24779 24780 24781 24782 24783 24784 24785 24786 24787 24788 24789 24790 24791 24792 24793 24794 24795 24796 24797 24798 24799 24800 24801 24802 24803 24804 24805 24806 24807 24808 24809 24810 24811 24812 24813 24814 24815 24816 24817 24818 24819 24820 24821 24822 24823 24824 24825 24826 24827 24828 24829 24830 24831 24832 24833 24834 24835 24836 24837 24838 24839 24840 24841 24842 24843 24844 24845 24846 24847 24848 24849 24850 24851 24852 24853 24854 24855 24856 24857 24858 24859 24860 24861 24862 24863 24864 24865 24866 24867 24868 24869 24870 24871 24872 24873 24874 24875 24876 24877 24878 24879 24880 24881 24882 24883 24884 24885 24886 24887 24888 24889 24890 24891 24892 24893 24894 24895 24896 24897 24898 24899 24900 24901 24902 24903 24904 24905 24906 24907 24908 24909 24910 24911 24912 24913 24914 24915 24916 24917 24918 24919 24920 24921 24922 24923 24924 24925 24926 24927 24928 24929 24930 24931 24932 24933 24934 24935 24936 24937 24938 24939 24940 24941 24942 24943 24944 24945 24946 24947 24948 24949 24950 24951 24952 24953 24954 24955 24956 24957 24958 24959 24960 24961 24962 24963 24964 24965 24966 24967 24968 24969 24970 24971 24972 24973 24974 24975 24976 24977 24978 24979 24980 24981 24982 24983 24984 24985 24986 24987 24988 24989 24990 24991 24992 24993 24994 24995 24996 24997 24998 24999 25000 25001 25002 25003 25004 25005 25006 25007 25008 25009 25010 25011 25012 25013 25014 25015 25016 25017 25018 25019 25020 25021 25022 25023 25024 25025 25026 25027 25028 25029 25030 25031 25032 25033 25034 25035 25036 25037 25038 25039 25040 25041 25042 25043 25044 25045 25046 25047 25048 25049 25050 25051 25052 25053 25054 25055 25056 25057 25058 25059 25060 25061 25062 25063 25064 25065 25066 25067 25068 25069 25070 25071 25072 25073 25074 25075 25076 25077 25078 25079 25080 25081 25082 25083 25084 25085 25086 25087 25088 25089 25090 25091 25092 25093 25094 25095 25096 25097 25098 25099 25100 25101 25102 25103 25104 25105 25106 25107 25108 25109 25110 25111 25112 25113 25114 25115 25116 25117 25118 25119 25120 25121 25122 25123 25124 25125 25126 25127 25128 25129 25130 25131 25132 25133 25134 25135 25136 25137 25138 25139 25140 25141 25142 25143 25144 25145 25146 25147 25148 25149 25150 25151 25152 25153 25154 25155 25156 25157 25158 25159 25160 25161 25162 25163 25164 25165 25166 25167 25168 25169 25170 25171 25172 25173 25174 25175 25176 25177 25178 25179 25180 25181 25182 25183 25184 25185 25186 25187 25188 25189 25190 25191 25192 25193 25194 25195 25196 25197 25198 25199 25200 25201 25202 25203 25204 25205 25206 25207 25208 25209 25210 25211 25212 25213 25214 25215 25216 25217 25218 25219 25220 25221 25222 25223 25224 25225 25226 25227 25228 25229 25230 25231 25232 25233 25234 25235 25236 25237 25238 25239 25240 25241 25242 25243 25244 25245 25246 25247 25248 25249 25250 25251 25252 25253 25254 25255 25256 25257 25258 25259 25260 25261 25262 25263 25264 25265 25266 25267 25268 25269 25270 25271 25272 25273 25274 25275 25276 25277 25278 25279 25280 25281 25282 25283 25284 25285 25286 25287 25288 25289 25290 25291 25292 25293 25294 25295 25296 25297 25298 25299 25300 25301 25302 25303 25304 25305 25306 25307 25308 25309 25310 25311 25312 25313 25314 25315 25316 25317 25318 25319 25320 25321 25322 25323 25324 25325 25326 25327 25328 25329 25330 25331 25332 25333 25334 25335 25336 25337 25338 25339 25340 25341 25342 25343 25344 25345 25346 25347 25348 25349 25350 25351 25352 25353 25354 25355 25356 25357 25358 25359 25360 25361 25362 25363 25364 25365 25366 25367 25368 25369 25370 25371 25372 25373 25374 25375 25376 25377 25378 25379 25380 25381 25382 25383 25384 25385 25386 25387 25388 25389 25390 25391 25392 25393 25394 25395 25396 25397 25398 25399 25400 25401 25402 25403 25404 25405 25406 25407 25408 25409 25410 25411 25412 25413 25414 25415 25416 25417 25418 25419 25420 25421 25422 25423 25424 25425 25426 25427 25428 25429 25430 25431 25432 25433 25434 25435 25436 25437 25438 25439 25440 25441 25442 25443 25444 25445 25446 25447 25448 25449 25450 25451 25452 25453 25454 25455 25456 25457 25458 25459 25460 25461 25462 25463 25464 25465 25466 25467 25468 25469 25470 25471 25472 25473 25474 25475 25476 25477 25478 25479 25480 25481 25482 25483 25484 25485 25486 25487 25488 25489 25490 25491 25492 25493 25494 25495 25496 25497 25498 25499 25500 25501 25502 25503 25504 25505 25506 25507 25508 25509 25510 25511 25512 25513 25514 25515 25516 25517 25518 25519 25520 25521 25522 25523 25524 25525 25526 25527 25528 25529 25530 25531 25532 25533 25534 25535 25536 25537 25538 25539 25540 25541 25542 25543 25544 25545 25546 25547 25548 25549 25550 25551 25552 25553 25554 25555 25556 25557 25558 25559 25560 25561 25562 25563 25564 25565 25566 25567 25568 25569 25570 25571 25572 25573 25574 25575 25576 25577 25578 25579 25580 25581 25582 25583 25584 25585 25586 25587 25588 25589 25590 25591 25592 25593 25594 25595 25596 25597 25598 25599 25600 25601 25602 25603 25604 25605 25606 25607 25608 25609 25610 25611 25612 25613 25614 25615 25616 25617 25618 25619 25620 25621 25622 25623 25624 25625 25626 25627 25628 25629 25630 25631 25632 25633 25634 25635 25636 25637 25638 25639 25640 25641 25642 25643 25644 25645 25646 25647 25648 25649 25650 25651 25652 25653 25654 25655 25656 25657 25658 25659 25660 25661 25662 25663 25664 25665 25666 25667 25668 25669 25670 25671 25672 25673 25674 25675 25676 25677 25678 25679 25680 25681 25682 25683 25684 25685 25686 25687 25688 25689 25690 25691 25692 25693 25694 25695 25696 25697 25698 25699 25700 25701 25702 25703 25704 25705 25706 25707 25708 25709 25710 25711 25712 25713 25714 25715 25716 25717 25718 25719 25720 25721 25722 25723 25724 25725 25726 25727 25728 25729 25730 25731 25732 25733 25734 25735 25736 25737 25738 25739 25740 25741 25742 25743 25744 25745 25746 25747 25748 25749 25750 25751 25752 25753 25754 25755 25756 25757 25758 25759 25760 25761 25762 25763 25764 25765 25766 25767 25768 25769 25770 25771 25772 25773 25774 25775 25776 25777 25778 25779 25780 25781 25782 25783 25784 25785 25786 25787 25788 25789 25790 25791 25792 25793 25794 25795 25796 25797 25798 25799 25800 25801 25802 25803 25804 25805 25806 25807 25808 25809 25810 25811 25812 25813 25814 25815 25816 25817 25818 25819 25820 25821 25822 25823 25824 25825 25826 25827 25828 25829 25830 25831 25832 25833 25834 25835 25836 25837 25838 25839 25840 25841 25842 25843 25844 25845 25846 25847 25848 25849 25850 25851 25852 25853 25854 25855 25856 25857 25858 25859 25860 25861 25862 25863 25864 25865 25866 25867 25868 25869 25870 25871 25872 25873 25874 25875 25876 25877 25878 25879 25880 25881 25882 25883 25884 25885 25886 25887 25888 25889 25890 25891 25892 25893 25894 25895 25896 25897 25898 25899 25900 25901 25902 25903 25904 25905 25906 25907 25908 25909 25910 25911 25912 25913 25914 25915 25916 25917 25918 25919 25920 25921 25922 25923 25924 25925 25926 25927 25928 25929 25930 25931 25932 25933 25934 25935 25936 25937 25938 25939 25940 25941 25942 25943 25944 25945 25946 25947 25948 25949 25950 25951 25952 25953 25954 25955 25956 25957 25958 25959 25960 25961 25962 25963 25964 25965 25966 25967 25968 25969 25970 25971 25972 25973 25974 25975 25976 25977 25978 25979 25980 25981 25982 25983 25984 25985 25986 25987 25988 25989 25990 25991 25992 25993 25994 25995 25996 25997 25998 25999 26000 26001 26002 26003 26004 26005 26006 26007 26008 26009 26010 26011 26012 26013 26014 26015 26016 26017 26018 26019 26020 26021 26022 26023 26024 26025 26026 26027 26028 26029 26030 26031 26032 26033 26034 26035 26036 26037 26038 26039 26040 26041 26042 26043 26044 26045 26046 26047 26048 26049 26050 26051 26052 26053 26054 26055 26056 26057 26058 26059 26060 26061 26062 26063 26064 26065 26066 26067 26068 26069 26070 26071 26072 26073 26074 26075 26076 26077 26078 26079 26080 26081 26082 26083 26084 26085 26086 26087 26088 26089 26090 26091 26092 26093 26094 26095 26096 26097 26098 26099 26100 26101 26102 26103 26104 26105 26106 26107 26108 26109 26110 26111 26112 26113 26114 26115 26116 26117 26118 26119 26120 26121 26122 26123 26124 26125 26126 26127 26128 26129 26130 26131 26132 26133 26134 26135 26136 26137 26138 26139 26140 26141 26142 26143 26144 26145 26146 26147 26148 26149 26150 26151 26152 26153 26154 26155 26156 26157 26158 26159 26160 26161 26162 26163 26164 26165 26166 26167 26168 26169 26170 26171 26172 26173 26174 26175 26176 26177 26178 26179 26180 26181 26182 26183 26184 26185 26186 26187 26188 26189 26190 26191 26192 26193 26194 26195 26196 26197 26198 26199 26200 26201 26202 26203 26204 26205 26206 26207 26208 26209 26210 26211 26212 26213 26214 26215 26216 26217 26218 26219 26220 26221 26222 26223 26224 26225 26226 26227 26228 26229 26230 26231 26232 26233 26234 26235 26236 26237 26238 26239 26240 26241 26242 26243 26244 26245 26246 26247 26248 26249 26250 26251 26252 26253 26254 26255 26256 26257 26258 26259 26260 26261 26262 26263 26264 26265 26266 26267 26268 26269 26270 26271 26272 26273 26274 26275 26276 26277 26278 26279 26280 26281 26282 26283 26284 26285 26286 26287 26288 26289 26290 26291 26292 26293 26294 26295 26296 26297 26298 26299 26300 26301 26302 26303 26304 26305 26306 26307 26308 26309 26310 26311 26312 26313 26314 26315 26316 26317 26318 26319 26320 26321 26322 26323 26324 26325 26326 26327 26328 26329 26330 26331 26332 26333 26334 26335 26336 26337 26338 26339 26340 26341 26342 26343 26344 26345 26346 26347 26348 26349 26350 26351 26352 26353 26354 26355 26356 26357 26358 26359 26360 26361 26362 26363 26364 26365 26366 26367 26368 26369 26370 26371 26372 26373 26374 26375 26376 26377 26378 26379 26380 26381 26382 26383 26384 26385 26386 26387 26388 26389 26390 26391 26392 26393 26394 26395 26396 26397 26398 26399 26400 26401 26402 26403 26404 26405 26406 26407 26408 26409 26410 26411 26412 26413 26414 26415 26416 26417 26418 26419 26420 26421 26422 26423 26424 26425 26426 26427 26428 26429 26430 26431 26432 26433 26434 26435 26436 26437 26438 26439 26440 26441 26442 26443 26444 26445 26446 26447 26448 26449 26450 26451 26452 26453 26454 26455 26456 26457 26458 26459 26460 26461 26462 26463 26464 26465 26466 26467 26468 26469 26470 26471 26472 26473 26474 26475 26476 26477 26478 26479 26480 26481 26482 26483 26484 26485 26486 26487 26488 26489 26490 26491 26492 26493 26494 26495 26496 26497 26498 26499 26500 26501 26502 26503 26504 26505 26506 26507 26508 26509 26510 26511 26512 26513 26514 26515 26516 26517 26518 26519 26520 26521 26522 26523 26524 26525 26526 26527 26528 26529 26530 26531 26532 26533 26534 26535 26536 26537 26538 26539 26540 26541 26542 26543 26544 26545 26546 26547 26548 26549 26550 26551 26552 26553 26554 26555 26556 26557 26558 26559 26560 26561 26562 26563 26564 26565 26566 26567 26568 26569 26570 26571 26572 26573 26574 26575 26576 26577 26578 26579 26580 26581 26582 26583 26584 26585 26586 26587 26588 26589 26590 26591 26592 26593 26594 26595 26596 26597 26598 26599 26600 26601 26602 26603 26604 26605 26606 26607 26608 26609 26610 26611 26612 26613 26614 26615 26616 26617 26618 26619 26620 26621 26622 26623 26624 26625 26626 26627 26628 26629 26630 26631 26632 26633 26634 26635 26636 26637 26638 26639 26640 26641 26642 26643 26644 26645 26646 26647 26648 26649 26650 26651 26652 26653 26654 26655 26656 26657 26658 26659 26660 26661 26662 26663 26664 26665 26666 26667 26668 26669 26670 26671 26672 26673 26674 26675 26676 26677 26678 26679 26680 26681 26682 26683 26684 26685 26686 26687 26688 26689 26690 26691 26692 26693 26694 26695 26696 26697 26698 26699 26700 26701 26702 26703 26704 26705 26706 26707 26708 26709 26710 26711 26712 26713 26714 26715 26716 26717 26718 26719 26720 26721 26722 26723 26724 26725 26726 26727 26728 26729 26730 26731 26732 26733 26734 26735 26736 26737 26738 26739 26740 26741 26742 26743 26744 26745 26746 26747 26748 26749 26750 26751 26752 26753 26754 26755 26756 26757 26758 26759 26760 26761 26762 26763 26764 26765 26766 26767 26768 26769 26770 26771 26772 26773 26774 26775 26776 26777 26778 26779 26780 26781 26782 26783 26784 26785 26786 26787 26788 26789 26790 26791 26792 26793 26794 26795 26796 26797 26798 26799 26800 26801 26802 26803 26804 26805 26806 26807 26808 26809 26810 26811 26812 26813 26814 26815 26816 26817 26818 26819 26820 26821 26822 26823 26824 26825 26826 26827 26828 26829 26830 26831 26832 26833 26834 26835 26836 26837 26838 26839 26840 26841 26842 26843 26844 26845 26846 26847 26848 26849 26850 26851 26852 26853 26854 26855 26856 26857 26858 26859 26860 26861 26862 26863 26864 26865 26866 26867 26868 26869 26870 26871 26872 26873 26874 26875 26876 26877 26878 26879 26880 26881 26882 26883 26884 26885 26886 26887 26888 26889 26890 26891 26892 26893 26894 26895 26896 26897 26898 26899 26900 26901 26902 26903 26904 26905 26906 26907 26908 26909 26910 26911 26912 26913 26914 26915 26916 26917 26918 26919 26920 26921 26922 26923 26924 26925 26926 26927 26928 26929 26930 26931 26932 26933 26934 26935 26936 26937 26938 26939 26940 26941 26942 26943 26944 26945 26946 26947 26948 26949 26950 26951 26952 26953 26954 26955 26956 26957 26958 26959 26960 26961 26962 26963 26964 26965 26966 26967 26968 26969 26970 26971 26972 26973 26974 26975 26976 26977 26978 26979 26980 26981 26982 26983 26984 26985 26986 26987 26988 26989 26990 26991 26992 26993 26994 26995 26996 26997 26998 26999 27000 27001 27002 27003 27004 27005 27006 27007 27008 27009 27010 27011 27012 27013 27014 27015 27016 27017 27018 27019 27020 27021 27022 27023 27024 27025 27026 27027 27028 27029 27030 27031 27032 27033 27034 27035 27036 27037 27038 27039 27040 27041 27042 27043 27044 27045 27046 27047 27048 27049 27050 27051 27052 27053 27054 27055 27056 27057 27058 27059 27060 27061 27062 27063 27064 27065 27066 27067 27068 27069 27070 27071 27072 27073 27074 27075 27076 27077 27078 27079 27080 27081 27082 27083 27084 27085 27086 27087 27088 27089 27090 27091 27092 27093 27094 27095 27096 27097 27098 27099 27100 27101 27102 27103 27104 27105 27106 27107 27108 27109 27110 27111 27112 27113 27114 27115 27116 27117 27118 27119 27120 27121 27122 27123 27124 27125 27126 27127 27128 27129 27130 27131 27132 27133 27134 27135 27136 27137 27138 27139 27140 27141 27142 27143 27144 27145 27146 27147 27148 27149 27150 27151 27152 27153 27154 27155 27156 27157 27158 27159 27160 27161 27162 27163 27164 27165 27166 27167 27168 27169 27170 27171 27172 27173 27174 27175 27176 27177 27178 27179 27180 27181 27182 27183 27184 27185 27186 27187 27188 27189 27190 27191 27192 27193 27194 27195 27196 27197 27198 27199 27200 27201 27202 27203 27204 27205 27206 27207 27208 27209 27210 27211 27212 27213 27214 27215 27216 27217 27218 27219 27220 27221 27222 27223 27224 27225 27226 27227 27228 27229 27230 27231 27232 27233 27234 27235 27236 27237 27238 27239 27240 27241 27242 27243 27244 27245 27246 27247 27248 27249 27250 27251 27252 27253 27254 27255 27256 27257 27258 27259 27260 27261 27262 27263 27264 27265 27266 27267 27268 27269 27270 27271 27272 27273 27274 27275 27276 27277 27278 27279 27280 27281 27282 27283 27284 27285 27286 27287 27288 27289 27290 27291 27292 27293 27294 27295 27296 27297 27298 27299 27300 27301 27302 27303 27304 27305 27306 27307 27308 27309 27310 27311 27312 27313 27314 27315 27316 27317 27318 27319 27320 27321 27322 27323 27324 27325 27326 27327 27328 27329 27330 27331 27332 27333 27334 27335 27336 27337 27338 27339 27340 27341 27342 27343 27344 27345 27346 27347 27348 27349 27350 27351 27352 27353 27354 27355 27356 27357 27358 27359 27360 27361 27362 27363 27364 27365 27366 27367 27368 27369 27370 27371 27372 27373 27374 27375 27376 27377 27378 27379 27380 27381 27382 27383 27384 27385 27386 27387 27388 27389 27390 27391 27392 27393 27394 27395 27396 27397 27398 27399 27400 27401 27402 27403 27404 27405 27406 27407 27408 27409 27410 27411 27412 27413 27414 27415 27416 27417 27418 27419 27420 27421 27422 27423 27424 27425 27426 27427 27428 27429 27430 27431 27432 27433 27434 27435 27436 27437 27438 27439 27440 27441 27442 27443 27444 27445 27446 27447 27448 27449 27450 27451 27452 27453 27454 27455 27456 27457 27458 27459 27460 27461 27462 27463 27464 27465 27466 27467 27468 27469 27470 27471 27472 27473 27474 27475 27476 27477 27478 27479 27480 27481 27482 27483 27484 27485 27486 27487 27488 27489 27490 27491 27492 27493 27494 27495 27496 27497 27498 27499 27500 27501 27502 27503 27504 27505 27506 27507 27508 27509 27510 27511 27512 27513 27514 27515 27516 27517 27518 27519 27520 27521 27522 27523 27524 27525 27526 27527 27528 27529 27530 27531 27532 27533 27534 27535 27536 27537 27538 27539 27540 27541 27542 27543 27544 27545 27546 27547 27548 27549 27550 27551 27552 27553 27554 27555 27556 27557 27558 27559 27560 27561 27562 27563 27564 27565 27566 27567 27568 27569 27570 27571 27572 27573 27574 27575 27576 27577 27578 27579 27580 27581 27582 27583 27584 27585 27586 27587 27588 27589 27590 27591 27592 27593 27594 27595 27596 27597 27598 27599 27600 27601 27602 27603 27604 27605 27606 27607 27608 27609 27610 27611 27612 27613 27614 27615 27616 27617 27618 27619 27620 27621 27622 27623 27624 27625 27626 27627 27628 27629 27630 27631 27632 27633 27634 27635 27636 27637 27638 27639 27640 27641 27642 27643 27644 27645 27646 27647 27648 27649 27650 27651 27652 27653 27654 27655 27656 27657 27658 27659 27660 27661 27662 27663 27664 27665 27666 27667 27668 27669 27670 27671 27672 27673 27674 27675 27676 27677 27678 27679 27680 27681 27682 27683 27684 27685 27686 27687 27688 27689 27690 27691 27692 27693 27694 27695 27696 27697 27698 27699 27700 27701 27702 27703 27704 27705 27706 27707 27708 27709 27710 27711 27712 27713 27714 27715 27716 27717 27718 27719 27720 27721 27722 27723 27724 27725 27726 27727 27728 27729 27730 27731 27732 27733 27734 27735 27736 27737 27738 27739 27740 27741 27742 27743 27744 27745 27746 27747 27748 27749 27750 27751 27752 27753 27754 27755 27756 27757 27758 27759 27760 27761 27762 27763 27764 27765 27766 27767 27768 27769 27770 27771 27772 27773 27774 27775 27776 27777 27778 27779 27780 27781 27782 27783 27784 27785 27786 27787 27788 27789 27790 27791 27792 27793 27794 27795 27796 27797 27798 27799 27800 27801 27802 27803 27804 27805 27806 27807 27808 27809 27810 27811 27812 27813 27814 27815 27816 27817 27818 27819 27820 27821 27822 27823 27824 27825 27826 27827 27828 27829 27830 27831 27832 27833 27834 27835 27836 27837 27838 27839 27840 27841 27842 27843 27844 27845 27846 27847 27848 27849 27850 27851 27852 27853 27854 27855 27856 27857 27858 27859 27860 27861 27862 27863 27864 27865 27866 27867 27868 27869 27870 27871 27872 27873 27874 27875 27876 27877 27878 27879 27880 27881 27882 27883 27884 27885 27886 27887 27888 27889 27890 27891 27892 27893 27894 27895 27896 27897 27898 27899 27900 27901 27902 27903 27904 27905 27906 27907 27908 27909 27910 27911 27912 27913 27914 27915 27916 27917 27918 27919 27920 27921 27922 27923 27924 27925 27926 27927 27928 27929 27930 27931 27932 27933 27934 27935 27936 27937 27938 27939 27940 27941 27942 27943 27944 27945 27946 27947 27948 27949 27950 27951 27952 27953 27954 27955 27956 27957 27958 27959 27960 27961 27962 27963 27964 27965 27966 27967 27968 27969 27970 27971 27972 27973 27974 27975 27976 27977 27978 27979 27980 27981 27982 27983 27984 27985 27986 27987 27988 27989 27990 27991 27992 27993 27994 27995 27996 27997 27998 27999 28000 28001 28002 28003 28004 28005 28006 28007 28008 28009 28010 28011 28012 28013 28014 28015 28016 28017 28018 28019 28020 28021 28022 28023 28024 28025 28026 28027 28028 28029 28030 28031 28032 28033 28034 28035 28036 28037 28038 28039 28040 28041 28042 28043 28044 28045 28046 28047 28048 28049 28050 28051 28052 28053 28054 28055 28056 28057 28058 28059 28060 28061 28062 28063 28064 28065 28066 28067 28068 28069 28070 28071 28072 28073 28074 28075 28076 28077 28078 28079 28080 28081 28082 28083 28084 28085 28086 28087 28088 28089 28090 28091 28092 28093 28094 28095 28096 28097 28098 28099 28100 28101 28102 28103 28104 28105 28106 28107 28108 28109 28110 28111 28112 28113 28114 28115 28116 28117 28118 28119 28120 28121 28122 28123 28124 28125 28126 28127 28128 28129 28130 28131 28132 28133 28134 28135 28136 28137 28138 28139 28140 28141 28142 28143 28144 28145 28146 28147 28148 28149 28150 28151 28152 28153 28154 28155 28156 28157 28158 28159 28160 28161 28162 28163 28164 28165 28166 28167 28168 28169 28170 28171 28172 28173 28174 28175 28176 28177 28178 28179 28180 28181 28182 28183 28184 28185 28186 28187 28188 28189 28190 28191 28192 28193 28194 28195 28196 28197 28198 28199 28200 28201 28202 28203 28204 28205 28206 28207 28208 28209 28210 28211 28212 28213 28214 28215 28216 28217 28218 28219 28220 28221 28222 28223 28224 28225 28226 28227 28228 28229 28230 28231 28232 28233 28234 28235 28236 28237 28238 28239 28240 28241 28242 28243 28244 28245 28246 28247 28248 28249 28250 28251 28252 28253 28254 28255 28256 28257 28258 28259 28260 28261 28262 28263 28264 28265 28266 28267 28268 28269 28270 28271 28272 28273 28274 28275 28276 28277 28278 28279 28280 28281 28282 28283 28284 28285 28286 28287 28288 28289 28290 28291 28292 28293 28294 28295 28296 28297 28298 28299 28300 28301 28302 28303 28304 28305 28306 28307 28308 28309 28310 28311 28312 28313 28314 28315 28316 28317 28318 28319 28320 28321 28322 28323 28324 28325 28326 28327 28328 28329 28330 28331 28332 28333 28334 28335 28336 28337 28338 28339 28340 28341 28342 28343 28344 28345 28346 28347 28348 28349 28350 28351 28352 28353 28354 28355 28356 28357 28358 28359 28360 28361 28362 28363 28364 28365 28366 28367 28368 28369 28370 28371 28372 28373 28374 28375 28376 28377 28378 28379 28380 28381 28382 28383 28384 28385 28386 28387 28388 28389 28390 28391 28392 28393 28394 28395 28396 28397 28398 28399 28400 28401 28402 28403 28404 28405 28406 28407 28408 28409 28410 28411 28412 28413 28414 28415 28416 28417 28418 28419 28420 28421 28422 28423 28424 28425 28426 28427 28428 28429 28430 28431 28432 28433 28434 28435 28436 28437 28438 28439 28440 28441 28442 28443 28444 28445 28446 28447 28448 28449 28450 28451 28452 28453 28454 28455 28456 28457 28458 28459 28460 28461 28462 28463 28464 28465 28466 28467 28468 28469 28470 28471 28472 28473 28474 28475 28476 28477 28478 28479 28480 28481 28482 28483 28484 28485 28486 28487 28488 28489 28490 28491 28492 28493 28494 28495 28496 28497 28498 28499 28500 28501 28502 28503 28504 28505 28506 28507 28508 28509 28510 28511 28512 28513 28514 28515 28516 28517 28518 28519 28520 28521 28522 28523 28524 28525 28526 28527 28528 28529 28530 28531 28532 28533 28534 28535 28536 28537 28538 28539 28540 28541 28542 28543 28544 28545 28546 28547 28548 28549 28550 28551 28552 28553 28554 28555 28556 28557 28558 28559 28560 28561 28562 28563 28564 28565 28566 28567 28568 28569 28570 28571 28572 28573 28574 28575 28576 28577 28578 28579 28580 28581 28582 28583 28584 28585 28586 28587 28588 28589 28590 28591 28592 28593 28594 28595 28596 28597 28598 28599 28600 28601 28602 28603 28604 28605 28606 28607 28608 28609 28610 28611 28612 28613 28614 28615 28616 28617 28618 28619 28620 28621 28622 28623 28624 28625 28626 28627 28628 28629 28630 28631 28632 28633 28634 28635 28636 28637 28638 28639 28640 28641 28642 28643 28644 28645 28646 28647 28648 28649 28650 28651 28652 28653 28654 28655 28656 28657 28658 28659 28660 28661 28662 28663 28664 28665 28666 28667 28668 28669 28670 28671 28672 28673 28674 28675 28676 28677 28678 28679 28680 28681 28682 28683 28684 28685 28686 28687 28688 28689 28690 28691 28692 28693 28694 28695 28696 28697 28698 28699 28700 28701 28702 28703 28704 28705 28706 28707 28708 28709 28710 28711 28712 28713 28714 28715 28716 28717 28718 28719 28720 28721 28722 28723 28724 28725 28726 28727 28728 28729 28730 28731 28732 28733 28734 28735 28736 28737 28738 28739 28740 28741 28742 28743 28744 28745 28746 28747 28748 28749 28750 28751 28752 28753 28754 28755 28756 28757 28758 28759 28760 28761 28762 28763 28764 28765 28766 28767 28768 28769 28770 28771 28772 28773 28774 28775 28776 28777 28778 28779 28780 28781 28782 28783 28784 28785 28786 28787 28788 28789 28790 28791 28792 28793 28794 28795 28796 28797 28798 28799 28800 28801 28802 28803 28804 28805 28806 28807 28808 28809 28810 28811 28812 28813 28814 28815 28816 28817 28818 28819 28820 28821 28822 28823 28824 28825 28826 28827 28828 28829 28830 28831 28832 28833 28834 28835 28836 28837 28838 28839 28840 28841 28842 28843 28844 28845 28846 28847 28848 28849 28850 28851 28852 28853 28854 28855 28856 28857 28858 28859 28860 28861 28862 28863 28864 28865 28866 28867 28868 28869 28870 28871 28872 28873 28874 28875 28876 28877 28878 28879 28880 28881 28882 28883 28884 28885 28886 28887 28888 28889 28890 28891 28892 28893 28894 28895 28896 28897 28898 28899 28900 28901 28902 28903 28904 28905 28906 28907 28908 28909 28910 28911 28912 28913 28914 28915 28916 28917 28918 28919 28920 28921 28922 28923 28924 28925 28926 28927 28928 28929 28930 28931 28932 28933 28934 28935 28936 28937 28938 28939 28940 28941 28942 28943 28944 28945 28946 28947 28948 28949 28950 28951 28952 28953 28954 28955 28956 28957 28958 28959 28960 28961 28962 28963 28964 28965 28966 28967 28968 28969 28970 28971 28972 28973 28974 28975 28976 28977 28978 28979 28980 28981 28982 28983 28984 28985 28986 28987 28988 28989 28990 28991 28992 28993 28994 28995 28996 28997 28998 28999 29000 29001 29002 29003 29004 29005 29006 29007 29008 29009 29010 29011 29012 29013 29014 29015 29016 29017 29018 29019 29020 29021 29022 29023 29024 29025 29026 29027 29028 29029 29030 29031 29032 29033 29034 29035 29036 29037 29038 29039 29040 29041 29042 29043 29044 29045 29046 29047 29048 29049 29050 29051 29052 29053 29054 29055 29056 29057 29058 29059 29060 29061 29062 29063 29064 29065 29066 29067 29068 29069 29070 29071 29072 29073 29074 29075 29076 29077 29078 29079 29080 29081 29082 29083 29084 29085 29086 29087 29088 29089 29090 29091 29092 29093 29094 29095 29096 29097 29098 29099 29100 29101 29102 29103 29104 29105 29106 29107 29108 29109 29110 29111 29112 29113 29114 29115 29116 29117 29118 29119 29120 29121 29122 29123 29124 29125 29126 29127 29128 29129 29130 29131 29132 29133 29134 29135 29136 29137 29138 29139 29140 29141 29142 29143 29144 29145 29146 29147 29148 29149 29150 29151 29152 29153 29154 29155 29156 29157 29158 29159 29160 29161 29162 29163 29164 29165 29166 29167 29168 29169 29170 29171 29172 29173 29174 29175 29176 29177 29178 29179 29180 29181 29182 29183 29184 29185 29186 29187 29188 29189 29190 29191 29192 29193 29194 29195 29196 29197 29198 29199 29200 29201 29202 29203 29204 29205 29206 29207 29208 29209 29210 29211 29212 29213 29214 29215 29216 29217 29218 29219 29220 29221 29222 29223 29224 29225 29226 29227 29228 29229 29230 29231 29232 29233 29234 29235 29236 29237 29238 29239 29240 29241 29242 29243 29244 29245 29246 29247 29248 29249 29250 29251 29252 29253 29254 29255 29256 29257 29258 29259 29260 29261 29262 29263 29264 29265 29266 29267 29268 29269 29270 29271 29272 29273 29274 29275 29276 29277 29278 29279 29280 29281 29282 29283 29284 29285 29286 29287 29288 29289 29290 29291 29292 29293 29294 29295 29296 29297 29298 29299 29300 29301 29302 29303 29304 29305 29306 29307 29308 29309 29310 29311 29312 29313 29314 29315 29316 29317 29318 29319 29320 29321 29322 29323 29324 29325 29326 29327 29328 29329 29330 29331 29332 29333 29334 29335 29336 29337 29338 29339 29340 29341 29342 29343 29344 29345 29346 29347 29348 29349 29350 29351 29352 29353 29354 29355 29356 29357 29358 29359 29360 29361 29362 29363 29364 29365 29366 29367 29368 29369 29370 29371 29372 29373 29374 29375 29376 29377 29378 29379 29380 29381 29382 29383 29384 29385 29386 29387 29388 29389 29390 29391 29392 29393 29394 29395 29396 29397 29398 29399 29400 29401 29402 29403 29404 29405 29406 29407 29408 29409 29410 29411 29412 29413 29414 29415 29416 29417 29418 29419 29420 29421 29422 29423 29424 29425 29426 29427 29428 29429 29430 29431 29432 29433 29434 29435 29436 29437 29438 29439 29440 29441 29442 29443 29444 29445 29446 29447 29448 29449 29450 29451 29452 29453 29454 29455 29456 29457 29458 29459 29460 29461 29462 29463 29464 29465 29466 29467 29468 29469 29470 29471 29472 29473 29474 29475 29476 29477 29478 29479 29480 29481 29482 29483 29484 29485 29486 29487 29488 29489 29490 29491 29492 29493 29494 29495 29496 29497 29498 29499 29500 29501 29502 29503 29504 29505 29506 29507 29508 29509 29510 29511 29512 29513 29514 29515 29516 29517 29518 29519 29520 29521 29522 29523 29524 29525 29526 29527 29528 29529 29530 29531 29532 29533 29534 29535 29536 29537 29538 29539 29540 29541 29542 29543 29544 29545 29546 29547 29548 29549 29550 29551 29552 29553 29554 29555 29556 29557 29558 29559 29560 29561 29562 29563 29564 29565 29566 29567 29568 29569 29570 29571 29572 29573 29574 29575 29576 29577 29578 29579 29580 29581 29582 29583 29584 29585 29586 29587 29588 29589 29590 29591 29592 29593 29594 29595 29596 29597 29598 29599 29600 29601 29602 29603 29604 29605 29606 29607 29608 29609 29610 29611 29612 29613 29614 29615 29616 29617 29618 29619 29620 29621 29622 29623 29624 29625 29626 29627 29628 29629 29630 29631 29632 29633 29634 29635 29636 29637 29638 29639 29640 29641 29642 29643 29644 29645 29646 29647 29648 29649 29650 29651 29652 29653 29654 29655 29656 29657 29658 29659 29660 29661 29662 29663 29664 29665 29666 29667 29668 29669 29670 29671 29672 29673 29674 29675 29676 29677 29678 29679 29680 29681 29682 29683 29684 29685 29686 29687 29688 29689 29690 29691 29692 29693 29694 29695 29696 29697 29698 29699 29700 29701 29702 29703 29704 29705 29706 29707 29708 29709 29710 29711 29712 29713 29714 29715 29716 29717 29718 29719 29720 29721 29722 29723 29724 29725 29726 29727 29728 29729 29730 29731 29732 29733 29734 29735 29736 29737 29738 29739 29740 29741 29742 29743 29744 29745 29746 29747 29748 29749 29750 29751 29752 29753 29754 29755 29756 29757 29758 29759 29760 29761 29762 29763 29764 29765 29766 29767 29768 29769 29770 29771 29772 29773 29774 29775 29776 29777 29778 29779 29780 29781 29782 29783 29784 29785 29786 29787 29788 29789 29790 29791 29792 29793 29794 29795 29796 29797 29798 29799 29800 29801 29802 29803 29804 29805 29806 29807 29808 29809 29810 29811 29812 29813 29814 29815 29816 29817 29818 29819 29820 29821 29822 29823 29824 29825 29826 29827 29828 29829 29830 29831 29832 29833 29834 29835 29836 29837 29838 29839 29840 29841 29842 29843 29844 29845 29846 29847 29848 29849 29850 29851 29852 29853 29854 29855 29856 29857 29858 29859 29860 29861 29862 29863 29864 29865 29866 29867 29868 29869 29870 29871 29872 29873 29874 29875 29876 29877 29878 29879 29880 29881 29882 29883 29884 29885 29886 29887 29888 29889 29890 29891 29892 29893 29894 29895 29896 29897 29898 29899 29900 29901 29902 29903 29904 29905 29906 29907 29908 29909 29910 29911 29912 29913 29914 29915 29916 29917 29918 29919 29920 29921 29922 29923 29924 29925 29926 29927 29928 29929 29930 29931 29932 29933 29934 29935 29936 29937 29938 29939 29940 29941 29942 29943 29944 29945 29946 29947 29948 29949 29950 29951 29952 29953 29954 29955 29956 29957 29958 29959 29960 29961 29962 29963 29964 29965 29966 29967 29968 29969 29970 29971 29972 29973 29974 29975 29976 29977 29978 29979 29980 29981 29982 29983 29984 29985 29986 29987 29988 29989 29990 29991 29992 29993 29994 29995 29996 29997 29998 29999 30000 30001 30002 30003 30004 30005 30006 30007 30008 30009 30010 30011 30012 30013 30014 30015 30016 30017 30018 30019 30020 30021 30022 30023 30024 30025 30026 30027 30028 30029 30030 30031 30032 30033 30034 30035 30036 30037 30038 30039 30040 30041 30042 30043 30044 30045 30046 30047 30048 30049 30050 30051 30052 30053 30054 30055 30056 30057 30058 30059 30060 30061 30062 30063 30064 30065 30066 30067 30068 30069 30070 30071 30072 30073 30074 30075 30076 30077 30078 30079 30080 30081 30082 30083 30084 30085 30086 30087 30088 30089 30090 30091 30092 30093 30094 30095 30096 30097 30098 30099 30100 30101 30102 30103 30104 30105 30106 30107 30108 30109 30110 30111 30112 30113 30114 30115 30116 30117 30118 30119 30120 30121 30122 30123 30124 30125 30126 30127 30128 30129 30130 30131 30132 30133 30134 30135 30136 30137 30138 30139 30140 30141 30142 30143 30144 30145 30146 30147 30148 30149 30150 30151 30152 30153 30154 30155 30156 30157 30158 30159 30160 30161 30162 30163 30164 30165 30166 30167 30168 30169 30170 30171 30172 30173 30174 30175 30176 30177 30178 30179 30180 30181 30182 30183 30184 30185 30186 30187 30188 30189 30190 30191 30192 30193 30194 30195 30196 30197 30198 30199 30200 30201 30202 30203 30204 30205 30206 30207 30208 30209 30210 30211 30212 30213 30214 30215 30216 30217 30218 30219 30220 30221 30222 30223 30224 30225 30226 30227 30228 30229 30230 30231 30232 30233 30234 30235 30236 30237 30238 30239 30240 30241 30242 30243 30244 30245 30246 30247 30248 30249 30250 30251 30252 30253 30254 30255 30256 30257 30258 30259 30260 30261 30262 30263 30264 30265 30266 30267 30268 30269 30270 30271 30272 30273 30274 30275 30276 30277 30278 30279 30280 30281 30282 30283 30284 30285 30286 30287 30288 30289 30290 30291 30292 30293 30294 30295 30296 30297 30298 30299 30300 30301 30302 30303 30304 30305 30306 30307 30308 30309 30310 30311 30312 30313 30314 30315 30316 30317 30318 30319 30320 30321 30322 30323 30324 30325 30326 30327 30328 30329 30330 30331 30332 30333 30334 30335 30336 30337 30338 30339 30340 30341 30342 30343 30344 30345 30346 30347 30348 30349 30350 30351 30352 30353 30354 30355 30356 30357 30358 30359 30360 30361 30362 30363 30364 30365 30366 30367 30368 30369 30370 30371 30372 30373 30374 30375 30376 30377 30378 30379 30380 30381 30382 30383 30384 30385 30386 30387 30388 30389 30390 30391 30392 30393 30394 30395 30396 30397 30398 30399 30400 30401 30402 30403 30404 30405 30406 30407 30408 30409 30410 30411 30412 30413 30414 30415 30416 30417 30418 30419 30420 30421 30422 30423 30424 30425 30426 30427 30428 30429 30430 30431 30432 30433 30434 30435 30436 30437 30438 30439 30440 30441 30442 30443 30444 30445 30446 30447 30448 30449 30450 30451 30452 30453 30454 30455 30456 30457 30458 30459 30460 30461 30462 30463 30464 30465 30466 30467 30468 30469 30470 30471 30472 30473 30474 30475 30476 30477 30478 30479 30480 30481 30482 30483 30484 30485 30486 30487 30488 30489 30490 30491 30492 30493 30494 30495 30496 30497 30498 30499 30500 30501 30502 30503 30504 30505 30506 30507 30508 30509 30510 30511 30512 30513 30514 30515 30516 30517 30518 30519 30520 30521 30522 30523 30524 30525 30526 30527 30528 30529 30530 30531 30532 30533 30534 30535 30536 30537 30538 30539 30540 30541 30542 30543 30544 30545 30546 30547 30548 30549 30550 30551 30552 30553 30554 30555 30556 30557 30558 30559 30560 30561 30562 30563 30564 30565 30566 30567 30568 30569 30570 30571 30572 30573 30574 30575 30576 30577 30578 30579 30580 30581 30582 30583 30584 30585 30586 30587 30588 30589 30590 30591 30592 30593 30594 30595 30596 30597 30598 30599 30600 30601 30602 30603 30604 30605 30606 30607 30608 30609 30610 30611 30612 30613 30614 30615 30616 30617 30618 30619 30620 30621 30622 30623 30624 30625 30626 30627 30628 30629 30630 30631 30632 30633 30634 30635 30636 30637 30638 30639 30640 30641 30642 30643 30644 30645 30646 30647 30648 30649 30650 30651 30652 30653 30654 30655 30656 30657 30658 30659 30660 30661 30662 30663 30664 30665 30666 30667 30668 30669 30670 30671 30672 30673 30674 30675 30676 30677 30678 30679 30680 30681 30682 30683 30684 30685 30686 30687 30688 30689 30690 30691 30692 30693 30694 30695 30696 30697 30698 30699 30700 30701 30702 30703 30704 30705 30706 30707 30708 30709 30710 30711 30712 30713 30714 30715 30716 30717 30718 30719 30720 30721 30722 30723 30724 30725 30726 30727 30728 30729 30730 30731 30732 30733 30734 30735 30736 30737 30738 30739 30740 30741 30742 30743 30744 30745 30746 30747 30748 30749 30750 30751 30752 30753 30754 30755 30756 30757 30758 30759 30760 30761 30762 30763 30764 30765 30766 30767 30768 30769 30770 30771 30772 30773 30774 30775 30776 30777 30778 30779 30780 30781 30782 30783 30784 30785 30786 30787 30788 30789 30790 30791 30792 30793 30794 30795 30796 30797 30798 30799 30800 30801 30802 30803 30804 30805 30806 30807 30808 30809 30810 30811 30812 30813 30814 30815 30816 30817 30818 30819 30820 30821 30822 30823 30824 30825 30826 30827 30828 30829 30830 30831 30832 30833 30834 30835 30836 30837 30838 30839 30840 30841 30842 30843 30844 30845 30846 30847 30848 30849 30850 30851 30852 30853 30854 30855 30856 30857 30858 30859 30860 30861 30862 30863 30864 30865 30866 30867 30868 30869 30870 30871 30872 30873 30874 30875 30876 30877 30878 30879 30880 30881 30882 30883 30884 30885 30886 30887 30888 30889 30890 30891 30892 30893 30894 30895 30896 30897 30898 30899 30900 30901 30902 30903 30904 30905 30906 30907 30908 30909 30910 30911 30912 30913 30914 30915 30916 30917 30918 30919 30920 30921 30922 30923 30924 30925 30926 30927 30928 30929 30930 30931 30932 30933 30934 30935 30936 30937 30938 30939 30940 30941 30942 30943 30944 30945 30946 30947 30948 30949 30950 30951 30952 30953 30954 30955 30956 30957 30958 30959 30960 30961 30962 30963 30964 30965 30966 30967 30968 30969 30970 30971 30972 30973 30974 30975 30976 30977 30978 30979 30980 30981 30982 30983 30984 30985 30986 30987 30988 30989 30990 30991 30992 30993 30994 30995 30996 30997 30998 30999 31000 31001 31002 31003 31004 31005 31006 31007 31008 31009 31010 31011 31012 31013 31014 31015 31016 31017 31018 31019 31020 31021 31022 31023 31024 31025 31026 31027 31028 31029 31030 31031 31032 31033 31034 31035 31036 31037 31038 31039 31040 31041 31042 31043 31044 31045 31046 31047 31048 31049 31050 31051 31052 31053 31054 31055 31056 31057 31058 31059 31060 31061 31062 31063 31064 31065 31066 31067 31068 31069 31070 31071 31072 31073 31074 31075 31076 31077 31078 31079 31080 31081 31082 31083 31084 31085 31086 31087 31088 31089 31090 31091 31092 31093 31094 31095 31096 31097 31098 31099 31100 31101 31102 31103 31104 31105 31106 31107 31108 31109 31110 31111 31112 31113 31114 31115 31116 31117 31118 31119 31120 31121 31122 31123 31124 31125 31126 31127 31128 31129 31130 31131 31132 31133 31134 31135 31136 31137 31138 31139 31140 31141 31142 31143 31144 31145 31146 31147 31148 31149 31150 31151 31152 31153 31154 31155 31156 31157 31158 31159 31160 31161 31162 31163 31164 31165 31166 31167 31168 31169 31170 31171 31172 31173 31174 31175 31176 31177 31178 31179 31180 31181 31182 31183 31184 31185 31186 31187 31188 31189 31190 31191 31192 31193 31194 31195 31196 31197 31198 31199 31200 31201 31202 31203 31204 31205 31206 31207 31208 31209 31210 31211 31212 31213 31214 31215 31216 31217 31218 31219 31220 31221 31222 31223 31224 31225 31226 31227 31228 31229 31230 31231 31232 31233 31234 31235 31236 31237 31238 31239 31240 31241 31242 31243 31244 31245 31246 31247 31248 31249 31250 31251 31252 31253 31254 31255 31256 31257 31258 31259 31260 31261 31262 31263 31264 31265 31266 31267 31268 31269 31270 31271 31272 31273 31274 31275 31276 31277 31278 31279 31280 31281 31282 31283 31284 31285 31286 31287 31288 31289 31290 31291 31292 31293 31294 31295 31296 31297 31298 31299 31300 31301 31302 31303 31304 31305 31306 31307 31308 31309 31310 31311 31312 31313 31314 31315 31316 31317 31318 31319 31320 31321 31322 31323 31324 31325 31326 31327 31328 31329 31330 31331 31332 31333 31334 31335 31336 31337 31338 31339 31340 31341 31342 31343 31344 31345 31346 31347 31348 31349 31350 31351 31352 31353 31354 31355 31356 31357 31358 31359 31360 31361 31362 31363 31364 31365 31366 31367 31368 31369 31370 31371 31372 31373 31374 31375 31376 31377 31378 31379 31380 31381 31382 31383 31384 31385 31386 31387 31388 31389 31390 31391 31392 31393 31394 31395 31396 31397 31398 31399 31400 31401 31402 31403 31404 31405 31406 31407 31408 31409 31410 31411 31412 31413 31414 31415 31416 31417 31418 31419 31420 31421 31422 31423 31424 31425 31426 31427 31428 31429 31430 31431 31432 31433 31434 31435 31436 31437 31438 31439 31440 31441 31442 31443 31444 31445 31446 31447 31448 31449 31450 31451 31452 31453 31454 31455 31456 31457 31458 31459 31460 31461 31462 31463 31464 31465 31466 31467 31468 31469 31470 31471 31472 31473 31474 31475 31476 31477 31478 31479 31480 31481 31482 31483 31484 31485 31486 31487 31488 31489 31490 31491 31492 31493 31494 31495 31496 31497 31498 31499 31500 31501 31502 31503 31504 31505 31506 31507 31508 31509 31510 31511 31512 31513 31514 31515 31516 31517 31518 31519 31520 31521 31522 31523 31524 31525 31526 31527 31528 31529 31530 31531 31532 31533 31534 31535 31536 31537 31538 31539 31540 31541 31542 31543 31544 31545 31546 31547 31548 31549 31550 31551 31552 31553 31554 31555 31556 31557 31558 31559 31560 31561 31562 31563 31564 31565 31566 31567 31568 31569 31570 31571 31572 31573 31574 31575 31576 31577 31578 31579 31580 31581 31582 31583 31584 31585 31586 31587 31588 31589 31590 31591 31592 31593 31594 31595 31596 31597 31598 31599 31600 31601 31602 31603 31604 31605 31606 31607 31608 31609 31610 31611 31612 31613 31614 31615 31616 31617 31618 31619 31620 31621 31622 31623 31624 31625 31626 31627 31628 31629 31630 31631 31632 31633 31634 31635 31636 31637 31638 31639 31640 31641 31642 31643 31644 31645 31646 31647 31648 31649 31650 31651 31652 31653 
</DataArray>
<DataArray type="UInt32" Name="offsets" format="ascii">
3 5 8 11 14 16 19 22 25 28 31 33 36 39 42 44 47 50 53 56 59 61 64 67 69 72 75 78 81 84 87 90 93 96 99 102 105 108 111 114 117 119 122 125 128 131 134 137 140 143 146 149 152 155 158 161 164 167 170 172 175 178 181 184 187 190 193 196 199 202 205 208 210 213 216 219 222 225 227 230 232 235 238 241 244 247 250 252 255 258 261 264 267 270 273 276 279 282 285 288 291 294 297 300 303 306 309 312 315 318 321 324 327 330 333 336 338 341 344 346 349 351 354 357 360 363 366 369 372 375 377 380 383 385 388 391 394 397 400 403 406 408 411 414 416 419 422 425 428 431 434 437 440 442 445 448 451 454 456 459 462 464 467 470 473 476 479 481 484 487 490 493 496 499 502 505 508 510 513 515 518 521 524 527 530 533 536 538 541 544 546 548 551 554 557 560 562 565 568 571 574 577 579 582 585 588 591 594 597 599 602 605 608 610 613 616 619 622 625 628 631 634 637 640 643 646 649 652 655 658 661 664 667 670 673 676 678 681 684 686 689 692 695 698 701 704 707 710 713 716 719 722 725 728 731 734 737 740 742 745 748 751 754 757 760 763 766 769 772 774 777 780 783 786 789 792 795 797 799 801 804 807 810 813 816 819 822 825 828 830 833 836 839 842 845 848 851 853 856 859 862 864 867 870 872 875 878 881 884 887 890 893 896 899 902 905 908 911 914 917 919 922 925 928 930 933 936 939 942 945 948 951 954 957 960 963 966 969 972 975 978 981 984 987 990 993 996 999 1002 1005 1008 1011 1013 1016 1019 1021 1024 1027 1030 1033 1036 1039 1042 1045 1048 1051 1053 1056 1059 1062 1064 1067 1070 1073 1076 1079 1082 1085 1087 1090 1093 1096 1099 1101 1104 1106 1109 1112 1115 1118 1121 1123 1126 1129 1132 1135 1138 1141 1144 1147 1150 1153 1156 1158 1161 1163 1166 1168 1170 1173 1175 1178 1181 1183 1186 1189 1192 1195 1198 1201 1204 1207 1210 1213 1216 1219 1222 1225 1228 1230 1233 1236 1239 1242 1245 1248 1251 1253 1255 1258 1261 1264 1267 1270 1273 1276 1279 1282 1285 1288 1291 1294 1297 1300 1302 1305 1308 1311 1313 1316 1318 1320 1323 1326 1329 1332 1334 1337 1339 1342 1345 1348 1351 1354 1357 1360 1363 1366 1369 1371 1374 1377 1380 1382 1385 1388 1391 1394 1397 1400 1403 1406 1409 1411 1414 1416 1419 1421 1424 1427 1429 1431 1434 1437 1440 1443 1445 1448 1451 1454 1457 1459 1461 1464 1467 1470 1473 1476 1479 1481 1484 1487 1490 1493 1496 1499 1502 1505 1508 1511 1513 1516 1519 1522 1524 1527 1529 1532 1535 1538 1540 1543 1546 1548 1551 1554 1556 1558 1561 1564 1567 1570 1573 1576 1579 1582 1585 1588 1591 1594 1597 1600 1603 1606 1609 1612 1615 1617 1620 1623 1626 1629 1631 1633 1636 1639 1641 1644 1647 1650 1653 1655 1658 1661 1664 1666 1669 1672 1675 1678 1681 1684 1686 1689 1692 1695 1698 1701 1704 1707 1709 1712 1715 1717 1720 1722 1725 1728 1731 1734 1737 1740 1743 1746 1749 1752 1755 1757 1759 1762 1765 1768 1771 1774 1777 1780 1783 1786 1788 1791 1794 1797 1800 1803 1806 1809 1812 1815 1818 1821 1824 1827 1830 1833 1836 1839 1842 1845 1848 1851 1854 1857 1860 1863 1866 1869 1872 1875 1878 1881 1884 1886 1889 1892 1895 1898 1900 1903 1906 1909 1912 1915 1918 1921 1924 1927 1930 1933 1935 1938 1940 1943 1946 1949 1952 1955 1957 1960 1963 1966 1969 1972 1975 1978 1981 1984 1987 1990 1993 1996 1999 2002 2005 2008 2011 2014 2017 2020 2023 2026 2029 2032 2035 2038 2041 2044 2047 2050 2053 2056 2059 2062 2065 2068 2071 2074 2077 2080 2083 2086 2089 2092 2095 2098 2100 2103 2106 2109 2112 2115 2118 2121 2124 2127 2130 2133 2136 2139 2142 2145 2148 2151 2154 2157 2160 2163 2166 2169 2172 2175 2178 2181 2184 2186 2189 2192 2195 2198 2201 2204 2207 2210 2213 2216 2219 2222 2225 2228 2231 2234 2237 2239 2242 2245 2248 2251 2254 2257 2260 2263 2266 2269 2272 2275 2278 2281 2284 2287 2290 2293 2296 2299 2302 2305 2308 2311 2314 2317 2320 2323 2326 2329 2332 2335 2338 2341 2344 2347 2349 2352 2355 2357 2360 2363 2366 2369 2372 2375 2378 2381 2384 2387 2390 2393 2396 2399 2402 2405 2407 2410 2413 2416 2419 2421 2423 2426 2429 2431 2434 2437 2440 2443 2446 2449 2452 2455 2458 2460 2462 2465 2468 2471 2474 2476 2479 2482 2485 2488 2490 2493 2496 2499 2501 2504 2507 2510 2513 2516 2519 2522 2525 2528 2530 2533 2536 2539 2542 2545 2548 2551 2554 2557 2560 2563 2566 2569 2572 2575 2578 2581 2584 2587 2590 2593 2596 2599 2602 2604 2607 2610 2613 2616 2619 2622 2625 2628 2630 2633 2636 2639 2642 2644 2647 2650 2653 2656 2658 2660 2663 2666 2669 2672 2675 2678 2681 2684 2687 2690 2692 2695 2698 2701 2704 2707 2710 2713 2716 2719 2721 2724 2727 2729 2732 2734 2737 2740 2742 2745 2748 2751 2753 2756 2759 2762 2765 2768 2771 2774 2777 2780 2783 2786 2788 2791 2794 2797 2800 2803 2805 2807 2810 2813 2816 2819 2821 2824 2827 2830 2832 2835 2838 2841 2844 2847 2850 2852 2855 2858 2861 2864 2867 2869 2872 2875 2878 2881 2883 2886 2889 2891 2894 2896 2898 2901 2903 2906 2909 2912 2915 2917 2920 2922 2925 2928 2931 2934 2937 2940 2943 2946 2948 2951 2954 2957 2959 2962 2965 2968 2971 2974 2977 2979 2982 2985 2988 2991 2994 2997 2999 3001 3004 3007 3010 3013 3016 3019 3021 3024 3027 3030 3033 3035 3038 3041 3044 3047 3050 3053 3056 3059 3062 3064 3067 3070 3073 3076 3079 3082 3084 3087 3089 3092 3095 3098 3101 3103 3106 3109 3111 3114 3117 3119 3122 3124 3127 3130 3133 3136 3139 3142 3145 3148 3150 3153 3155 3158 3161 3164 3167 3170 3173 3176 3179 3182 3185 3187 3190 3193 3196 3199 3202 3205 3208 3211 3214 3216 3219 3222 3225 3228 3230 3232 3235 3238 3240 3243 3246 3249 3252 3255 3258 3261 3264 3267 3270 3273 3276 3279 3282 3284 3287 3289 3292 3295 3298 3301 3304 3307 3310 3313 3316 3318 3321 3324 3327 3330 3333 3336 3339 3342 3345 3348 3351 3354 3357 3360 3363 3366 3369 3372 3375 3378 3381 3384 3387 3390 3393 3396 3399 3402 3405 3408 3411 3414 3417 3420 3423 3426 3429 3432 3435 3438 3441 3444 3447 3450 3453 3456 3459 3462 3465 3468 3471 3474 3477 3479 3482 3484 3487 3490 3493 3495 3498 3501 3503 3505 3508 3511 3514 3517 3520 3523 3526 3529 3532 3534 3537 3540 3543 3546 3549 3552 3555 3558 3561 3564 3567 3570 3573 3576 3579 3582 3585 3588 3591 3594 3597 3600 3603 3606 3609 3612 3615 3618 3621 3624 3627 3629 3632 3635 3638 3641 3643 3646 3649 3652 3655 3658 3661 3664 3666 3669 3672 3675 3678 3681 3684 3687 3689 3692 3695 3698 3701 3704 3707 3709 3712 3714 3717 3719 3722 3725 3728 3731 3734 3737 3740 3743 3745 3748 3751 3754 3757 3760 3763 3765 3768 3771 3773 3776 3779 3782 3785 3788 3791 3794 3797 3800 3803 3806 3809 3812 3814 3817 3819 3822 3825 3828 3831 3834 3837 3839 3842 3845 3848 3851 3853 3856 3859 3862 3865 3868 3870 3872 3875 3877 3880 3883 3886 3888 3891 3894 3897 3900 3903 3906 3909 3912 3915 3918 3921 3924 3927 3930 3933 3936 3939 3941 3944 3947 3950 3953 3956 3959 3962 3965 3968 3971 3974 3977 3980 3983 3986 3989 3992 3994 3997 4000 4003 4006 4009 4012 4014 4017 4019 4022 4025 4027 4030 4033 4036 4039 4042 4044 4047 4050 4052 4055 4057 4059 4061 4064 4067 4070 4073 4076 4079 4082 4085 4088 4090 4093 4096 4099 4101 4104 4107 4110 4113 4115 4118 4121 4124 4127 4130 4133 4136 4139 4142 4145 4148 4151 4154 4157 4160 4163 4166 4169 4172 4174 4177 4180 4183 4186 4188 4191 4194 4197 4200 4203 4206 4209 4212 4214 4217 4220 4223 4226 4229 4231 4234 4237 4240 4243 4246 4249 4252 4255 4258 4261 4264 4267 4270 4273 4276 4279 4282 4285 4288 4290 4293 4296 4298 4300 4302 4305 4308 4310 4312 4315 4318 4321 4324 4326 4329 4332 4335 4338 4341 4344 4347 4350 4352 4354 4357 4359 4362 4364 4367 4370 4373 4376 4379 4382 4385 4388 4390 4393 4396 4399 4402 4405 4408 4410 4413 4416 4419 4422 4425 4428 4431 4433 4436 4439 4442 4445 4448 4451 4454 4457 4460 4463 4466 4468 4471 4474 4477 4480 4483 4486 4489 4492 4495 4498 4501 4504 4507 4510 4513 4516 4519 4522 4525 4528 4531 4534 4536 4539 4542 4545 4548 4550 4553 4556 4559 4561 4564 4566 4569 4572 4575 4578 4581 4583 4586 4589 4592 4595 4598 4601 4604 4607 4610 4613 4616 4619 4622 4625 4628 4631 4634 4637 4640 4643 4646 4649 4652 4655 4658 4661 4663 4666 4669 4672 4675 4678 4681 4684 4687 4690 4692 4694 4697 4699 4702 4705 4708 4710 4713 4716 4718 4721 4724 4726 4729 4732 4735 4737 4740 4743 4746 4748 4751 4753 4756 4759 4762 4765 4768 4771 4774 4777 4780 4783 4786 4789 4791 4794 4797 4800 4803 4806 4809 4812 4815 4818 4821 4824 4827 4830 4833 4836 4839 4842 4844 4847 4850 4853 4855 4858 4861 4864 4866 4869 4872 4875 4878 4881 4884 4887 4889 4892 4895 4898 4901 4903 4906 4909 4912 4915 4918 4921 4924 4927 4929 4932 4935 4938 4941 4944 4947 4950 4953 4956 4959 4962 4965 4968 4971 4974 4977 4980 4983 4986 4989 4992 4995 4998 5001 5004 5007 5010 5013 5016 5019 5022 5025 5028 5030 5033 5036 5039 5042 5045 5048 5051 5054 5057 5060 5063 5066 5069 5072 5074 5077 5079 5082 5085 5088 5090 5093 5096 5099 5102 5105 5107 5110 5113 5116 5119 5122 5125 5128 5131 5133 5136 5139 5141 5144 5147 5150 5153 5156 5159 5162 5165 5168 5171 5174 5177 5179 5182 5185 5187 5190 5192 5195 5198 5201 5204 5206 5209 5212 5214 5217 5220 5223 5226 5229 5232 5235 5238 5241 5244 5247 5249 5252 5254 5257 5260 5262 5264 5267 5269 5272 5275 5278 5281 5283 5286 5289 5292 5295 5298 5301 5304 5307 5310 5313 5316 5318 5321 5324 5326 5329 5331 5334 5337 5340 5343 5346 5349 5352 5355 5358 5361 5363 5366 5369 5372 5375 5378 5381 5384 5387 5390 5393 5396 5399 5402 5405 5408 5411 5414 5417 5420 5423 5426 5429 5432 5435 5438 5441 5444 5447 5450 5453 5456 5459 5462 5465 5468 5470 5473 5476 5479 5482 5485 5488 5490 5493 5496 5499 5502 5504 5507 5510 5513 5516 5518 5521 5524 5527 5530 5533 5536 5539 5542 5545 5547 5550 5553 5556 5559 5562 5564 5566 5569 5572 5575 5577 5580 5582 5585 5588 5591 5594 5597 5600 5603 5606 5609 5611 5614 5616 5619 5622 5625 5628 5631 5633 5636 5638 5641 5644 5647 5650 5653 5656 5659 5661 5664 5667 5670 5673 5676 5679 5682 5685 5688 5691 5694 5697 5700 5703 5706 5709 5712 5715 5718 5721 5724 5726 5728 5730 5733 5736 5739 5742 5744 5747 5750 5753 5756 5759 5762 5765 5768 5771 5774 5777 5780 5783 5786 5789 5792 5795 5798 5801 5804 5807 5810 5813 5816 5819 5822 5825 5828 5831 5834 5837 5840 5843 5846 5849 5851 5854 5857 5860 5863 5866 5869 5872 5875 5878 5881 5884 5887 5890 5893 5896 5899 5902 5905 5907 5910 5913 5916 5918 5921 5924 5927 5930 5933 5936 5939 5942 5945 5947 5950 5953 5956 5959 5962 5965 5968 5971 5974 5977 5980 5983 5986 5989 5992 5995 5998 6000 6003 6005 6008 6011 6014 6017 6020 6023 6026 6029 6032 6035 6038 6041 6044 6046 6049 6052 6055 6058 6061 6064 6067 6069 6072 6075 6078 6081 6084 6087 6089 6092 6095 6098 6101 6104 6107 6110 6113 6116 6119 6122 6124 6127 6130 6133 6136 6139 6141 6144 6147 6150 6153 6156 6159 6161 6164 6167 6170 6173 6176 6178 6181 6183 6186 6189 6192 6195 6198 6201 6204 6207 6210 6213 6216 6219 6222 6225 6228 6230 6233 6236 6239 6242 6245 6248 6251 6254 6257 6260 6262 6264 6267 6270 6272 6275 6278 6280 6283 6285 6288 6291 6294 6297 6300 6303 6306 6309 6312 6314 6316 6319 6322 6325 6328 6331 6333 6336 6339 6342 6345 6348 6351 6354 6356 6359 6362 6365 6368 6371 6374 6377 6380 6383 6386 6389 6392 6395 6398 6401 6404 6407 6410 6413 6416 6419 6422 6425 6428 6431 6434 6437 6440 6443 6446 6449 6452 6455 6458 6461 6464 6467 6470 6473 6476 6479 6482 6485 6488 6490 6493 6496 6498 6501 6504 6507 6510 6513 6516 6519 6521 6524 6527 6530 6532 6535 6538 6540 6543 6546 6548 6550 6553 6556 6558 6561 6564 6567 6570 6573 6576 6579 6582 6585 6588 6591 6594 6597 6600 6603 6605 6608 6611 6614 6617 6620 6623 6626 6629 6632 6635 6638 6641 6644 6646 6649 6652 6655 6658 6661 6664 6667 6670 6673 6676 6679 6682 6685 6688 6691 6694 6697 6700 6703 6706 6709 6712 6715 6718 6721 6724 6726 6729 6732 6735 6738 6741 6744 6747 6750 6753 6756 6759 6762 6764 6767 6770 6773 6776 6779 6782 6785 6788 6791 6794 6797 6799 6802 6805 6808 6810 6813 6816 6819 6822 6825 6828 6830 6833 6836 6839 6842 6845 6848 6851 6854 6857 6860 6863 6866 6869 6872 6875 6878 6881 6884 6887 6890 6893 6896 6899 6902 6905 6907 6910 6912 6915 6918 6921 6924 6926 6929 6932 6934 6937 6940 6943 6946 6949 6952 6955 6958 6961 6964 6967 6970 6973 6976 6979 6982 6985 6988 6991 6994 6997 7000 7003 7006 7009 7012 7015 7018 7020 7023 7026 7029 7032 7035 7038 7041 7044 7047 7050 7053 7056 7059 7062 7065 7068 7071 7074 7076 7079 7082 7085 7088 7090 7093 7095 7098 7101 7104 7107 7110 7113 7116 7119 7122 7125 7128 7131 7134 7137 7140 7143 7146 7149 7152 7155 7158 7161 7164 7167 7170 7173 7176 7179 7182 7184 7187 7190 7193 7196 7199 7202 7205 7207 7210 7213 7216 7219 7222 7225 7228 7230 7233 7236 7239 7241 7244 7247 7250 7253 7256 7259 7262 7264 7267 7270 7273 7275 7277 7279 7282 7285 7287 7290 7293 7296 7298 7301 7304 7307 7310 7313 7316 7319 7322 7325 7327 7329 7332 7335 7338 7341 7344 7347 7350 7353 7356 7359 7362 7365 7367 7370 7373 7376 7379 7382 7385 7387 7390 7393 7396 7399 7402 7405 7408 7411 7414 7417 7420 7423 7426 7429 7432 7435 7438 7440 7443 7446 7449 7452 7454 7457 7460 7463 7466 7468 7471 7474 7477 7480 7483 7486 7489 7492 7495 7498 7501 7504 7507 7510 7513 7516 7519 7522 7525 7528 7531 7534 7537 7540 7543 7545 7548 7551 7554 7557 7560 7563 7566 7569 7571 7574 7577 7580 7583 7586 7589 7592 7595 7598 7601 7604 7606 7609 7612 7615 7618 7621 7624 7627 7630 7633 7636 7639 7642 7645 7648 7651 7653 7656 7659 7662 7665 7668 7670 7673 7676 7679 7682 7685 7688 7691 7694 7697 7700 7703 7706 7709 7711 7714 7717 7720 7723 7725 7728 7731 7733 7736 7739 7742 7745 7748 7751 7754 7757 7760 7763 7766 7769 7772 7775 7778 7781 7784 7787 7790 7793 7796 7799 7802 7805 7808 7811 7814 7817 7820 7823 7826 7829 7831 7834 7836 7839 7842 7845 7848 7851 7854 7857 7860 7862 7865 7868 7871 7874 7877 7880 7883 7886 7889 7892 7895 7897 7900 7902 7905 7908 7911 7914 7916 7919 7922 7925 7928 7931 7934 7937 7940 7943 7946 7949 7952 7954 7957 7960 7963 7966 7969 7972 7975 7978 7981 7983 7986 7989 7991 7994 7997 8000 8003 8005 8008 8010 8013 8016 8019 8022 8025 8028 8031 8034 8037 8040 8043 8046 8049 8052 8055 8058 8061 8064 8067 8070 8073 8075 8078 8081 8084 8087 8090 8093 8096 8098 8101 8103 8106 8109 8112 8115 8117 8119 8122 8125 8128 8131 8134 8136 8138 8141 8144 8147 8150 8152 8155 8158 8160 8162 8165 8167 8169 8171 8174 8177 8180 8183 8186 8189 8192 8195 8197 8199 8202 8205 8208 8211 8213 8215 8218 8221 8224 8227 8230 8233 8236 8239 8242 8244 8247 8250 8253 8256 8259 8262 8264 8267 8270 8273 8276 8279 8282 8285 8288 8290 8293 8296 8299 8302 8305 8308 8310 8313 8316 8318 8320 8323 8326 8328 8331 8333 8336 8338 8341 8344 8347 8349 8352 8354 8357 8360 8362 8364 8366 8369 8372 8375 8378 8380 8383 8385 8387 8390 8392 8394 8397 8400 8402 8405 8408 8411 8413 8416 8419 8422 8425 8428 8430 8433 8436 8439 8441 8443 8446 8449 8452 8454 8457 8460 8463 8466 8469 8471 8474 8477 8480 8483 8486 8489 8492 8495 8498 8501 8504 8507 8510 8513 8516 8519 8522 8524 8527 8530 8533 8536 8539 8542 8544 8547 8550 8553 8555 8558 8561 8564 8567 8570 8573 8575 8578 8580 8583 8586 8589 8592 8595 8598 8601 8604 8607 8610 8613 8616 8619 8622 8625 8628 8631 8634 8637 8640 8643 8646 8649 8651 8654 8657 8660 8662 8665 8668 8671 8674 8677 8680 8683 8686 8689 8692 8695 8698 8701 8704 8707 8710 8713 8716 8718 8721 8724 8727 8730 8733 8736 8739 8742 8745 8748 8751 8754 8757 8760 8763 8766 8769 8772 8775 8778 8781 8784 8786 8789 8792 8795 8798 8801 8804 8807 8810 8813 8816 8819 8822 8824 8827 8829 8832 8835 8838 8841 8844 8846 8849 8852 8855 8857 8860 8863 8865 8868 8870 8873 8876 8878 8880 8883 8886 8889 8892 8895 8898 8901 8904 8907 8910 8913 8916 8919 8922 8925 8928 8931 8933 8935 8938 8941 8944 8947 8950 8953 8956 8959 8962 8965 8968 8971 8974 8977 8980 8983 8986 8989 8992 8995 8998 9001 9003 9006 9008 9011 9014 9017 9019 9022 9025 9028 9030 9033 9036 9039 9042 9045 9048 9051 9054 9057 9059 9062 9065 9068 9070 9073 9076 9079 9082 9085 9088 9091 9094 9097 9099 9102 9105 9108 9111 9114 9117 9120 9123 9126 9129 9132 9135 9138 9141 9144 9147 9150 9153 9156 9159 9162 9165 9168 9171 9174 9177 9180 9183 9186 9189 9192 9195 9198 9201 9204 9207 9210 9213 9216 9219 9222 9225 9228 9231 9234 9236 9239 9242 9245 9248 9250 9252 9255 9258 9260 9262 9265 9268 9271 9274 9276 9279 9282 9285 9288 9291 9294 9297 9300 9303 9305 9308 9311 9314 9317 9319 9322 9325 9328 9331 9333 9336 9339 9342 9344 9346 9349 9352 9355 9358 9361 9364 9367 9370 9372 9375 9378 9381 9384 9387 9390 9392 9395 9398 9401 9404 9407 9410 9412 9415 9418 9421 9424 9426 9429 9431 9434 9436 9439 9442 9445 9447 9449 9452 9455 9458 9461 9463 9466 9468 9471 9474 9477 9480 9482 9484 9487 9489 9492 9495 9498 9501 9504 9506 9509 9512 9514 9516 9518 9520 9523 9526 9529 9531 9534 9536 9538 9541 9544 9547 9550 9553 9556 9559 9562 9565 9568 9571 9574 9577 9580 9583 9586 9589 9592 9595 9598 9600 9603 9606 9609 9612 9615 9617 9620 9623 9625 9628 9630 9633 9636 9639 9642 9645 9648 9651 9654 9657 9659 9662 9665 9667 9670 9672 9675 9678 9680 9682 9685 9687 9690 9693 9696 9698 9701 9703 9706 9709 9711 9714 9717 9719 9722 9725 9728 9731 9734 9737 9740 9743 9746 9749 9752 9755 9758 9761 9764 9767 9770 9773 9776 9779 9782 9785 9788 9791 9794 9797 9800 9802 9805 9808 9811 9813 9816 9819 9821 9824 9827 9830 9833 9836 9839 9842 9845 9848 9851 9854 9857 9860 9863 9866 9869 9872 9875 9878 9881 9884 9887 9889 9892 9895 9897 9900 9903 9905 9908 9911 9914 9916 9919 9922 9925 9928 9931 9934 9937 9940 9943 9946 9949 9952 9955 9958 9960 9963 9966 9968 9971 9974 9977 9979 9982 9985 9988 9991 9994 9997 10000 10003 10005 10008 10011 10014 10017 10019 10022 10025 10028 10031 10034 10037 10040 10043 10046 10049 10052 10055 10058 10061 10064 10067 10069 10072 10075 10078 10080 10083 10086 10089 10092 10095 10098 10101 10104 10107 10110 10113 10116 10119 10122 10125 10128 10131 10134 10137 10140 10143 10146 10149 10152 10155 10158 10161 10164 10167 10170 10173 10176 10179 10182 10185 10188 10191 10194 10197 10200 10203 10206 10209 10212 10215 10218 10221 10224 10227 10230 10233 10235 10238 10241 10243 10246 10249 10252 10255 10258 10261 10264 10267 10270 10273 10276 10279 10282 10285 10288 10291 10294 10297 10300 10302 10305 10307 10309 10311 10314 10317 10320 10323 10326 10329 10332 10335 10338 10341 10344 10347 10350 10353 10356 10359 10362 10364 10366 10369 10372 10375 10377 10380 10383 10386 10389 10391 10393 10396 10398 10401 10404 10407 10409 10412 10415 10418 10421 10423 10426 10429 10432 10435 10438 10440 10443 10446 10448 10450 10453 10456 10458 10461 10463 10466 10469 10471 10474 10477 10480 10483 10486 10489 10492 10495 10498 10500 10503 10506 10509 10512 10514 10517 10520 10523 10526 10529 10532 10535 10538 10541 10544 10547 10549 10552 10555 10558 10561 10564 10567 10570 10573 10576 10578 10581 10584 10587 10590 10593 10596 10599 10602 10604 10607 10610 10612 10615 10618 10621 10624 10627 10630 10633 10636 10639 10642 10645 10648 10651 10654 10657 10660 10663 10666 10668 10671 10674 10677 10680 10683 10686 10689 10692 10695 10698 10701 10703 10706 10709 10712 10715 10718 10721 10724 10726 10729 10732 10734 10737 10740 10743 10746 10748 10751 10754 10757 10760 10762 10765 10768 10771 10774 10776 10779 10781 10784 10787 10790 10793 10795 10798 10801 10804 10806 10809 10812 10815 10818 10821 10824 10827 10830 10833 10836 10839 10842 10845 10848 10851 10854 10857 10860 10863 10866 10869 10872 10875 10878 10881 10884 10887 10890 10893 10895 10898 10900 10903 10905 10907 10910 10913 10916 10918 10921 10924 10927 10930 10932 10935 10937 10940 10943 10946 10948 10951 10954 10957 10960 10963 10966 10969 10972 10974 10977 10980 10983 10986 10989 10992 10995 10998 11001 11004 11007 11010 11013 11016 11018 11021 11023 11026 11029 11032 11035 11038 11040 11043 11046 11049 11051 11054 11057 11060 11063 11065 11068 11071 11074 11077 11080 11083 11086 11089 11091 11094 11097 11099 11102 11105 11108 11111 11113 11116 11119 11122 11125 11128 11131 11133 11136 11139 11142 11145 11148 11150 11153 11155 11157 11160 11163 11166 11169 11172 11175 11178 11181 11184 11187 11190 11192 11195 11198 11201 11204 11207 11210 11213 11215 11218 11221 11224 11227 11230 11233 11236 11239 11242 11245 11248 11251 11254 11257 11260 11263 11266 11269 11272 11275 11278 11281 11284 11287 11290 11293 11296 11299 11302 11304 11307 11310 11313 11316 11318 11321 11324 11327 11330 11332 11335 11338 11341 11344 11347 11350 11353 11356 11359 11362 11365 11368 11370 11373 11376 11379 11382 11385 11388 11391 11394 11397 11400 11403 11406 11409 11412 11415 11418 11421 11424 11427 11430 11433 11436 11439 11442 11445 11448 11451 11454 11457 11460 11463 11466 11469 11472 11475 11477 11480 11483 11486 11488 11491 11494 11497 11500 11503 11506 11509 11512 11515 11518 11521 11524 11527 11529 11532 11535 11538 11541 11544 11547 11550 11553 11555 11557 11560 11562 11565 11568 11571 11574 11577 11579 11582 11585 11588 11591 11594 11596 11599 11602 11604 11607 11610 11613 11615 11618 11621 11623 11626 11629 11632 11635 11638 11640 11642 11645 11648 11651 11654 11657 11660 11663 11666 11669 11672 11675 11678 11681 11684 11686 11689 11692 11695 11698 11701 11703 11706 11708 11711 11714 11716 11719 11721 11723 11725 11728 11731 11734 11736 11739 11742 11745 11748 11751 11754 11757 11760 11762 11764 11767 11769 11772 11774 11777 11780 11783 11786 11789 11792 11795 11798 11801 11804 11807 11810 11813 11816 11819 11822 11825 11828 11831 11834 11837 11840 11843 11846 11849 11852 11855 11858 11861 11864 11867 11870 11873 11876 11879 11881 11884 11887 11890 11893 11896 11899 11902 11905 11908 11911 11914 11917 11920 11923 11926 11929 11932 11935 11938 11941 11944 11947 11950 11953 11956 11959 11961 11964 11967 11970 11973 11976 11979 11981 11984 11987 11989 11992 11994 11997 12000 12003 12006 12008 12011 12014 12017 12019 12022 12025 12028 12031 12034 12037 12039 12042 12045 12047 12050 12053 12056 12058 12061 12064 12066 12069 12072 12075 12078 12081 12083 12086 12089 12091 12093 12096 12099 12101 12104 12106 12109 12112 12115 12117 12120 12123 12125 12127 12130 12132 12135 12138 12140 12143 12146 12149 12152 12155 12158 12161 12164 12167 12170 12173 12176 12179 12182 12185 12188 12191 12194 12196 12199 12202 12205 12208 12211 12214 12217 12220 12223 12226 12228 12231 12234 12237 12240 12243 12246 12249 12251 12254 12257 12260 12263 12266 12269 12272 12275 12278 12281 12284 12287 12290 12293 12296 12299 12302 12305 12308 12311 12313 12315 12318 12321 12324 12327 12330 12333 12336 12339 12342 12345 12348 12350 12353 12356 12359 12362 12365 12368 12370 12373 12376 12379 12382 12384 12387 12390 12393 12396 12399 12402 12405 12408 12411 12413 12416 12419 12422 12425 12428 12431 12434 12437 12440 12443 12446 12449 12452 12455 12458 12461 12463 12466 12469 12472 12475 12478 12481 12484 12487 12490 12493 12496 12499 12502 12504 12507 12510 12513 12516 12519 12522 12525 12528 12531 12534 12536 12539 12542 12545 12547 12550 12553 12556 12559 12562 12565 12567 12570 12573 12576 12579 12582 12585 12588 12591 12594 12597 12600 12602 12605 12608 12611 12614 12617 12620 12623 12626 12628 12631 12634 12636 12639 12642 12644 12647 12649 12651 12654 12656 12659 12662 12665 12668 12670 12672 12675 12678 12681 12684 12687 12689 12692 12695 12698 12701 12703 12706 12709 12712 12714 12717 12720 12722 12725 12728 12731 12734 12737 12740 12743 12746 12749 12752 12754 12757 12759 12762 12764 12766 12769 12772 12775 12777 12780 12783 12785 12787 12790 12793 12796 12799 12802 12804 12807 12810 12813 12816 12819 12822 12825 12828 12831 12834 12837 12840 12843 12846 12849 12852 12854 12857 12860 12862 12865 12868 12871 12873 12876 12879 12882 12884 12887 12889 12892 12895 12898 12901 12904 12907 12910 12913 12915 12918 12921 12924 12926 12928 12931 12934 12937 12940 12943 12946 12949 12952 12955 12958 12961 12964 12967 12969 12972 12974 12977 12980 12983 12986 12989 12992 12995 12998 13001 13004 13007 13010 13013 13016 13019 13022 13025 13028 13031 13034 13037 13040 13043 13046 13049 13051 13054 13057 13060 13063 13065 13068 13070 13073 13076 13078 13081 13084 13087 13090 13093 13096 13099 13102 13105 13108 13111 13114 13117 13120 13123 13126 13129 13132 13135 13138 13141 13144 13147 13150 13153 13156 13159 13162 13165 13168 13171 13174 13176 13179 13182 13185 13188 13191 13194 13197 13199 13202 13205 13208 13211 13214 13217 13220 13223 13226 13229 13232 13234 13236 13239 13242 13245 13248 13251 13253 13256 13259 13261 13264 13266 13269 13272 13275 13278 13281 13284 13287 13290 13293 13296 13299 13302 13304 13307 13310 13313 13316 13319 13321 13323 13326 13329 13332 13335 13337 13340 13343 13346 13349 13352 13355 13358 13361 13364 13367 13369 13372 13375 13378 13381 13384 13387 13390 13393 13396 13399 13402 13405 13408 13411 13414 13417 13420 13423 13426 13429 13432 13435 13438 13441 13444 13447 13450 13453 13456 13459 13462 13465 13468 13471 13474 13477 13480 13483 13486 13489 13492 13495 13498 13501 13504 13507 13510 13513 13516 13519 13522 13525 13528 13531 13534 13537 13539 13542 13545 13548 13550 13553 13556 13559 13562 13565 13568 13571 13573 13576 13579 13582 13585 13588 13590 13593 13596 13599 13602 13604 13607 13610 13613 13616 13619 13622 13625 13628 13631 13634 13637 13640 13643 13646 13649 13651 13653 13656 13659 13662 13664 13666 13669 13672 13675 13678 13681 13684 13686 13689 13692 13694 13697 13700 13703 13706 13709 13712 13715 13718 13721 13724 13726 13728 13731 13734 13736 13739 13742 13745 13748 13751 13754 13757 13759 13762 13765 13768 13771 13774 13777 13780 13783 13786 13789 13792 13795 13798 13800 13803 13806 13809 13812 13815 13818 13820 13823 13826 13829 13832 13835 13838 13841 13844 13847 13849 13852 13855 13858 13861 13863 13866 13869 13872 13875 13878 13881 13884 13887 13889 13892 13895 13898 13901 13904 13907 13910 13913 13915 13918 13921 13924 13927 13930 13932 13934 13937 13940 13942 13945 13948 13951 13953 13956 13959 13962 13965 13968 13971 13973 13976 13979 13981 13984 13987 13989 13992 13995 13998 14001 14004 14006 14009 14012 14015 14018 14020 14023 14026 14029 14032 14035 14038 14041 14044 14047 14050 14053 14056 14058 14061 14064 14067 14070 14073 14075 14078 14081 14084 14087 14090 14093 14095 14098 14101 14104 14107 14110 14113 14116 14119 14122 14125 14128 14131 14134 14137 14140 14143 14146 14149 14152 14155 14157 14160 14163 14166 14169 14171 14174 14177 14180 14183 14186 14189 14191 14194 14197 14200 14203 14206 14209 14212 14215 14218 14220 14223 14226 14229 14232 14235 14238 14241 14244 14247 14250 14253 14256 14259 14262 14265 14268 14271 14274 14277 14280 14283 14286 14289 14292 14295 14298 14301 14304 14307 14310 14312 14315 14318 14321 14324 14327 14330 14333 14336 14338 14341 14344 14346 14349 14352 14355 14358 14361 14363 14366 14369 14372 14375 14377 14380 14383 14386 14389 14392 14395 14398 14401 14403 14406 14409 14412 14414 14417 14419 14422 14425 14428 14430 14432 14434 14437 14440 14443 14446 14448 14451 14454 14457 14460 14463 14466 14469 14472 14475 14478 14481 14483 14486 14489 14492 14495 14498 14501 14504 14507 14510 14513 14516 14519 14522 14525 14528 14531 14533 14536 14539 14542 14545 14548 14551 14554 14557 14560 14563 14566 14569 14572 14575 14578 14581 14584 14587 14590 14593 14596 14599 14602 14605 14608 14611 14614 14617 14620 14623 14626 14629 14632 14635 14638 14641 14644 14647 14650 14653 14656 14659 14662 14665 14668 14671 14674 14677 14680 14683 14686 14689 14692 14695 14698 14700 14703 14705 14708 14711 14713 14716 14719 14722 14725 14728 14731 14734 14736 14739 14742 14744 14747 14749 14752 14755 14758 14761 14764 14767 14770 14773 14776 14779 14782 14784 14787 14790 14792 14795 14798 14800 14803 14805 14808 14811 14814 14817 14820 14823 14826 14828 14831 14834 14837 14840 14843 14846 14849 14852 14855 14858 14861 14864 14867 14870 14873 14876 14879 14882 14885 14888 14891 14894 14896 14899 14902 14905 14908 14911 14914 14917 14920 14923 14926 14929 14932 14935 14937 14940 14943 14946 14949 14952 14955 14957 14960 14963 14966 14969 14972 14975 14978 14981 14984 14987 14990 14993 14996 14999 15002 15005 15008 15011 15014 15017 15020 15023 15026 15029 15032 15035 15038 15040 15043 15046 15049 15052 15055 15058 15061 15063 15066 15069 15072 15075 15078 15081 15084 15087 15090 15092 15095 15098 15101 15104 15106 15108 15110 15113 15116 15119 15122 15124 15127 15130 15132 15135 15138 15141 15144 15147 15150 15153 15156 15158 15161 15164 15166 15169 15172 15175 15177 15180 15183 15186 15188 15191 15194 15197 15199 15202 15205 15208 15211 15214 15217 15220 15223 15226 15229 15232 15235 15238 15241 15243 15246 15249 15252 15254 15257 15260 15262 15265 15268 15271 15274 15277 15280 15283 15286 15289 15292 15295 15298 15301 15304 15307 15310 15313 15315 15318 15320 15323 15326 15329 15332 15335 15338 15341 15344 15347 15349 15352 15354 15356 15359 15362 15365 15368 15371 15374 15377 15379 15382 15385 15387 15390 15392 15395 15398 15401 15404 15407 15410 15413 15416 15419 15422 15425 15428 15431 15434 15437 15439 15442 15445 15448 15451 15453 15456 15459 15462 15465 15468 15470 15472 15475 15478 15480 15483 15486 15489 15492 15494 15497 15500 15503 15506 15509 15512 15515 15518 15521 15524 15526 15529 15531 15534 15537 15540 15543 15545 15548 15551 15554 15557 15560 15563 15566 15569 15572 15575 15577 15580 15583 15586 15589 15591 15594 15597 15600 15603 15605 15608 15611 15614 15616 15618 15621 15623 15626 15629 15632 15635 15638 15641 15644 15646 15649 15651 15654 15657 15659 15661 15664 15666 15669 15672 15675 15678 15681 15684 15686 15689 15692 15695 15698 15701 15703 15706 15709 15712 15715 15718 15721 15724 15726 15729 15732 15735 15738 15741 15744 15747 15750 15753 15756 15759 15762 15765 15768 15771 15774 15776 15779 15782 15785 15788 15791 15794 15797 15800 15803 15806 15809 15812 15815 15818 15821 15824 15827 15830 15833 15835 15838 15841 15844 15847 15850 15853 15856 15859 15862 15865 15867 15870 15872 15875 15878 15881 15884 15887 15889 15892 15895 15897 15900 15903 15906 15909 15912 15915 15918 15921 15924 15926 15929 15932 15934 15937 15940 15943 15946 15949 15952 15954 15957 15960 15962 15964 15967 15970 15973 15976 15979 15981 15984 15987 15990 15993 15995 15998 16001 16004 16007 16010 16013 16016 16019 16022 16025 16028 16031 16034 16037 16040 16043 16046 16049 16052 16055 16058 16061 16064 16067 16070 16073 16076 16078 16081 16084 16087 16090 16093 16096 16099 16102 16105 16108 16111 16113 16116 16119 16122 16125 16128 16131 16134 16137 16140 16143 16146 16149 16152 16155 16158 16161 16164 16167 16170 16173 16176 16179 16182 16185 16188 16190 16193 16196 16199 16201 16204 16207 16210 16213 16216 16219 16222 16225 16228 16231 16234 16237 16240 16243 16246 16249 16252 16255 16258 16261 16263 16266 16269 16272 16275 16278 16281 16284 16287 16290 16293 16296 16299 16302 16305 16308 16311 16314 16317 16320 16323 16326 16329 16332 16335 16338 16341 16344 16346 16349 16352 16354 16357 16360 16363 16366 16369 16372 16375 16378 16381 16384 16387 16390 16392 16395 16398 16401 16404 16406 16408 16410 16413 16416 16419 16422 16425 16428 16431 16433 16436 16439 16442 16444 16447 16450 16453 16456 16459 16462 16465 16468 16470 16473 16476 16479 16482 16484 16487 16490 16492 16494 16497 16500 16503 16506 16508 16510 16513 16516 16518 16521 16523 16526 16529 16532 16535 16538 16541 16544 16547 16549 16552 16555 16558 16561 16564 16566 16568 16571 16573 16576 16578 16581 16583 16585 16587 16590 16593 16596 16599 16601 16604 16606 16609 16611 16614 16617 16620 16623 16626 16629 16631 16634 16637 16640 16643 16646 16649 16652 16654 16657 16659 16661 16664 16666 16669 16671 16674 16676 16679 16682 16685 16688 16691 16693 16696 16699 16701 16704 16707 16710 16713 16716 16718 16721 16724 16727 16730 16732 16734 16737 16740 16743 16746 16749 16752 16755 16758 16761 16764 16767 16770 16773 16776 16779 16782 16785 16788 16791 16793 16796 16798 16801 16804 16807 16809 16812 16815 16818 16820 16823 16826 16829 16832 16835 16837 16839 16842 16845 16848 16850 16853 16855 16858 16861 16864 16866 16868 16871 16874 16876 16878 16881 16883 16885 16887 16890 16892 16895 16898 16901 16903 16905 16908 16911 16914 16917 16920 16923 16926 16929 16932 16935 16938 16940 16942 16945 16948 16950 16953 16956 16959 16962 16965 16968 16971 16974 16977 16980 16983 16986 16989 16991 16994 16997 17000 17003 17006 17009 17012 17015 17017 17019 17022 17025 17028 17030 17033 17036 17038 17041 17044 17047 17050 17053 17055 17057 17060 17062 17065 17068 17071 17074 17077 17080 17083 17086 17089 17092 17095 17098 17101 17104 17107 17110 17113 17116 17119 17122 17125 17128 17131 17134 17137 17140 17143 17146 17148 17151 17154 17157 17160 17163 17166 17169 17172 17175 17178 17181 17183 17185 17188 17191 17193 17196 17199 17202 17205 17208 17211 17214 17217 17220 17222 17225 17228 17230 17233 17236 17239 17242 17245 17247 17250 17253 17256 17259 17262 17265 17268 17271 17274 17277 17280 17282 17285 17288 17291 17294 17297 17299 17302 17305 17308 17310 17313 17316 17319 17322 17325 17328 17331 17334 17337 17339 17341 17344 17347 17350 17353 17356 17358 17361 17364 17367 17369 17371 17374 17377 17380 17383 17386 17389 17392 17395 17398 17401 17404 17407 17410 17413 17416 17419 17422 17425 17428 17431 17434 17437 17440 17443 17446 17449 17452 17455 17458 17461 17464 17467 17470 17473 17476 17479 17482 17485 17488 17491 17494 17497 17500 17503 17506 17509 17512 17515 17518 17521 17524 17527 17530 17532 17535 17538 17541 17544 17546 17549 17552 17555 17558 17561 17564 17567 17570 17573 17576 17579 17582 17585 17588 17591 17594 17597 17599 17602 17604 17607 17610 17613 17615 17618 17621 17624 17627 17630 17633 17636 17639 17642 17645 17648 17651 17654 17656 17659 17662 17665 17668 17671 17674 17677 17680 17683 17686 17689 17692 17695 17698 17701 17704 17707 17710 17713 17716 17719 17722 17724 17727 17729 17732 17735 17738 17740 17743 17746 17748 17751 17754 17756 17758 17760 17763 17766 17769 17772 17775 17778 17781 17783 17786 17789 17791 17794 17797 17800 17803 17806 17809 17812 17815 17818 17821 17824 17826 17829 17832 17835 17838 17841 17843 17846 17849 17852 17855 17858 17861 17864 17867 17870 17873 17876 17879 17881 17884 17887 17890 17893 17896 17899 17901 17904 17907 17910 17913 17916 17919 17922 17925 17928 17931 17934 17937 17940 17943 17946 17949 17952 17955 17958 17961 17964 17967 17970 17973 17976 17979 17981 17984 17986 17989 17992 17995 17998 18001 18004 18007 18010 18013 18016 18019 18022 18025 18028 18031 18034 18036 18039 18042 18045 18048 18050 18053 18056 18059 18062 18065 18067 18070 18073 18076 18078 18081 18084 18086 18089 18092 18095 18098 18101 18104 18107 18110 18112 18115 18118 18121 18124 18127 18130 18133 18136 18139 18142 18145 18148 18151 18154 18157 18160 18163 18166 18169 18172 18175 18178 18181 18184 18186 18189 18192 18195 18198 18201 18204 18207 18210 18213 18215 18218 18220 18223 18226 18229 18232 18235 18238 18241 18244 18247 18249 18252 18255 18258 18261 18264 18267 18270 18273 18276 18279 18282 18285 18288 18290 18293 18296 18299 18301 18304 18307 18309 18312 18314 18317 18319 18321 18324 18327 18330 18332 18334 18337 18339 18342 18345 18348 18350 18353 18356 18359 18362 18365 18368 18371 18373 18376 18379 18382 18385 18388 18390 18393 18396 18399 18401 18403 18405 18408 18411 18414 18417 18420 18423 18425 18428 18431 18434 18437 18440 18443 18446 18449 18452 18455 18458 18460 18463 18465 18468 18471 18474 18476 18479 18482 18484 18487 18490 18493 18496 18499 18502 18505 18508 18511 18514 18517 18520 18523 18526 18529 18531 18534 18537 18540 18543 18546 18549 18552 18555 18558 18561 18564 18567 18570 18573 18576 18578 18581 18584 18587 18590 18593 18595 18598 18601 18604 18607 18609 18612 18615 18618 18621 18624 18627 18630 18633 18636 18638 18641 18644 18647 18649 18651 18654 18657 18659 18662 18665 18667 18670 18673 18675 18678 18681 18684 18687 18689 18692 18695 18697 18700 18703 18706 18709 18712 18715 18718 18721 18724 18727 18730 18732 18735 18738 18741 18744 18747 18750 18753 18756 18759 18762 18764 18767 18770 18773 18776 18779 18782 18785 18788 18791 18794 18797 18800 18803 18805 18808 18811 18814 18817 18820 18823 18825 18827 18830 18833 18836 18839 18841 18844 18847 18849 18852 18855 18857 18860 18863 18866 18869 18872 18875 18877 18879 18882 18885 18888 18890 18893 18896 18899 18902 18905 18908 18911 18913 18916 18919 18922 18925 18927 18930 18933 18936 18939 18942 18945 18948 18951 18954 18956 18959 18962 18965 18968 18970 18973 18976 18979 18982 18985 18988 18991 18994 18996 18999 19002 19005 19008 19011 19014 19017 19020 19023 19026 19029 19032 19035 19038 19041 19044 19047 19050 19053 19056 19059 19062 19065 19068 19070 19073 19076 19078 19081 19083 19086 19089 19092 19095 19098 19101 19104 19107 19110 19112 19115 19117 19120 19123 19126 19129 19132 19135 19138 19140 19143 19146 19149 19151 19154 19157 19159 19162 19165 19168 19170 19173 19175 19178 19181 19184 19186 19189 19192 19195 19198 19201 19203 19205 19208 19211 19214 19217 19220 19223 19226 19228 19231 19234 19236 19239 19242 19245 19248 19251 19254 19257 19260 19263 19266 19269 19272 19275 19278 19281 19284 19287 19290 19293 19296 19299 19302 19305 19308 19311 19314 19317 19320 19323 19326 19328 19330 19333 19336 19339 19342 19345 19347 19350 19352 19355 19358 19360 19363 19366 19369 19372 19375 19378 19381 19384 19387 19390 19393 19396 19399 19401 19404 19407 19410 19413 19415 19418 19421 19424 19427 19430 19433 19436 19439 19442 19445 19448 19451 19454 19457 19460 19463 19466 19469 19471 19474 19476 19479 19482 19484 19487 19490 19493 19496 19499 19502 19504 19507 19510 19513 19516 19519 19522 19525 19528 19531 19534 19537 19540 19543 19546 19549 19552 19555 19558 19561 19563 19566 19569 19572 19575 19577 19580 19583 19586 19589 19592 19595 19597 19600 19603 19606 19609 19611 19614 19617 19620 19623 19625 19627 19630 19633 19635 19638 19641 19644 19647 19649 19652 19654 19657 19659 19662 19664 19667 19670 19672 19675 19678 19681 19684 19686 19689 19692 19695 19697 19700 19703 19706 19709 19712 19715 19718 19720 19723 19726 19729 19732 19734 19737 19739 19742 19744 19747 19750 19753 19756 19759 19761 19764 19766 19769 19771 19774 19777 19780 19783 19786 19789 19792 19795 19798 19801 19804 19807 19810 19813 19816 19819 19822 19825 19828 19831 19834 19837 19840 19843 19846 19849 19852 19855 19857 19860 19863 19866 19869 19871 19874 19877 19880 19883 19886 19888 19891 19894 19897 19900 19903 19906 19908 19911 19914 19917 19920 19923 19926 19929 19932 19935 19938 19941 19944 19947 19950 19952 19955 19958 19961 19964 19967 19970 19972 19975 19978 19981 19984 19987 19990 19993 19995 19998 20001 20003 20006 20009 20011 20014 20017 20020 20023 20026 20029 20032 20035 20038 20041 20043 20046 20049 20052 20055 20058 20061 20064 20067 20070 20073 20076 20079 20082 20085 20088 20091 20094 20097 20100 20103 20106 20109 20112 20115 20118 20120 20123 20126 20128 20131 20134 20137 20139 20142 20145 20148 20151 20154 20157 20160 20163 20166 20169 20172 20175 20178 20181 20184 20187 20190 20193 20196 20199 20202 20204 20207 20210 20213 20215 20218 20221 20223 20226 20229 20232 20235 20238 20241 20244 20247 20250 20253 20256 20259 20262 20265 20268 20271 20274 20276 20279 20282 20284 20287 20290 20293 20296 20298 20301 20304 20307 20310 20313 20316 20319 20322 20325 20328 20331 20334 20337 20340 20342 20345 20348 20351 20354 20356 20359 20362 20365 20368 20371 20373 20376 20378 20381 20384 20387 20390 20393 20395 20398 20401 20404 20407 20409 20412 20415 20418 20421 20423 20426 20429 20432 20435 20438 20441 20444 20447 20449 20452 20455 20458 20461 20463 20466 20469 20472 20475 20477 20480 20483 20486 20489 20492 20495 20498 20501 20504 20507 20510 20513 20515 20518 20521 20524 20526 20529 20532 20535 20538 20540 20543 20546 20549 20552 20554 20557 20560 20563 20566 20569 20572 20575 20578 20581 20584 20587 20590 20592 20595 20598 20601 20604 20607 20610 20613 20616 20619 20622 20625 20628 20630 20633 20636 20639 20642 20645 20648 20651 20654 20657 20660 20663 20666 20669 20672 20675 20678 20681 20684 20687 20690 20693 20696 20699 20702 20705 20708 20711 20714 20717 20720 20723 20726 20729 20732 20735 20738 20741 20744 20747 20749 20752 20755 20758 20761 20764 20767 20770 20773 20775 20778 20780 20783 20786 20789 20792 20795 20798 20801 20804 20807 20810 20813 20816 20819 20822 20825 20828 20831 20834 20837 20840 20843 20846 20849 20852 20855 20858 20861 20864 20867 20870 20873 20876 20879 20882 20885 20888 20891 20894 20897 20900 20903 20906 20909 20912 20915 20918 20921 20924 20927 20930 20933 20936 20939 20942 20945 20948 20951 20954 20957 20960 20963 20966 20969 20972 20975 20978 20981 20984 20987 20990 20993 20996 20999 21002 21005 21008 21011 21014 21017 21020 21023 21026 21029 21032 21034 21037 21040 21043 21046 21049 21052 21055 21058 21061 21064 21067 21070 21073 21076 21079 21082 21085 21088 21091 21094 21097 21100 21103 21106 21109 21111 21114 21117 21120 21123 21126 21129 21132 21134 21137 21140 21143 21146 21148 21150 21153 21156 21158 21160 21163 21166 21169 21171 21174 21177 21179 21181 21184 21187 21190 21193 21196 21199 21202 21204 21207 21210 21212 21215 21218 21221 21224 21227 21229 21232 21235 21238 21241 21244 21247 21250 21253 21256 21259 21262 21265 21268 21271 21274 21277 21280 21283 21286 21289 21292 21295 21298 21301 21304 21307 21310 21313 21316 21319 21322 21325 21328 21331 21334 21337 21340 21343 21346 21349 21352 21355 21358 21361 21364 21367 21370 21373 21376 21379 21382 21385 21388 21391 21394 21397 21400 21403 21406 21409 21412 21415 21418 21421 21424 21427 21430 21433 21436 21439 21441 21444 21446 21449 21452 21455 21458 21461 21463 21465 21468 21471 21474 21477 21480 21483 21486 21489 21492 21495 21498 21501 21504 21507 21510 21513 21516 21519 21521 21524 21527 21529 21532 21535 21537 21540 21542 21545 21548 21550 21552 21554 21557 21560 21563 21566 21569 21571 21574 21577 21580 21583 21585 21588 21591 21594 21597 21599 21602 21605 21608 21611 21614 21616 21619 21621 21624 21627 21630 21633 21636 21638 21641 21644 21647 21649 21652 21655 21658 21661 21664 21667 21670 21673 21676 21679 21682 21685 21688 21691 21694 21697 21700 21703 21706 21709 21712 21714 21717 21720 21723 21726 21729 21732 21735 21738 21741 21744 21747 21750 21753 21756 21759 21762 21764 21767 21770 21772 21775 21778 21781 21784 21787 21790 21793 21795 21798 21801 21804 21807 21810 21813 21816 21819 21822 21825 21828 21831 21834 21837 21840 21843 21846 21848 21851 21854 21857 21860 21863 21865 21868 21871 21873 21876 21879 21882 21885 21888 21890 21893 21896 21899 21902 21905 21908 21911 21914 21917 21920 21922 21925 21928 21930 21933 21936 21939 21942 21945 21947 21949 21951 21953 21956 21959 21962 21965 21967 21970 21973 21976 21979 21982 21985 21987 21990 21993 21996 21999 22002 22005 22008 22011 22014 22017 22020 22023 22026 22028 22031 22034 22037 22040 22042 22044 22047 22050 22053 22056 22059 22062 22065 22068 22071 22074 22077 22080 22083 22085 22088 22091 22094 22097 22099 22101 22104 22107 22110 22112 22114 22117 22119 22122 22125 22128 22131 22133 22135 22138 22141 22144 22147 22150 22153 22156 22159 22162 22164 22167 22170 22173 22176 22179 22182 22185 22188 22191 22194 22197 22200 22203 22206 22209 22212 22215 22218 22221 22223 22226 22229 22232 22235 22238 22241 22244 22247 22250 22253 22256 22259 22262 22265 22268 22271 22274 22277 22280 22283 22286 22289 22292 22295 22298 22301 22304 22306 22309 22312 22315 22318 22321 22324 22327 22330 22333 22336 22338 22341 22343 22346 22349 22351 22354 22357 22360 22363 22366 22369 22372 22375 22378 22381 22384 22386 22389 22392 22394 22397 22399 22402 22405 22408 22411 22414 22417 22420 22423 22426 22429 22432 22434 22437 22440 22443 22446 22449 22452 22454 22457 22460 22463 22466 22468 22471 22474 22477 22480 22483 22486 22489 22492 22495 22498 22501 22503 22506 22509 22512 22515 22518 22521 22524 22527 22530 22533 22536 22539 22542 22545 22548 22551 22554 22556 22559 22562 22565 22568 22571 22574 22577 22579 22582 22585 22588 22591 22594 22597 22600 22603 22606 22608 22611 22614 22617 22620 22622 22624 22627 22630 22633 22636 22639 22642 22645 22648 22651 22654 22657 22660 22663 22666 22669 22672 22675 22678 22681 22684 22687 22690 22693 22696 22699 22702 22705 22708 22711 22714 22717 22720 22723 22726 22729 22732 22735 22738 22741 22744 22747 22750 22753 22756 22759 22762 22765 22768 22771 22774 22777 22780 22783 22786 22789 22792 22795 22798 22801 22804 22807 22810 22813 22816 22819 22822 22825 22828 22831 22834 22837 22840 22843 22846 22849 22852 22855 22858 22861 22864 22867 22870 22873 22876 22879 22881 22884 22886 22889 22892 22895 22898 22901 22904 22907 22910 22913 22916 22919 22921 22924 22927 22930 22932 22935 22938 22941 22944 22947 22950 22953 22956 22959 22962 22964 22967 22970 22973 22976 22979 22982 22985 22988 22991 22994 22997 23000 23003 23006 23009 23012 23015 23017 23020 23023 23025 23028 23031 23034 23037 23040 23042 23045 23047 23050 23052 23055 23058 23061 23064 23067 23070 23073 23076 23079 23082 23085 23088 23091 23094 23097 23100 23103 23106 23109 23112 23115 23118 23121 23124 23127 23130 23133 23136 23139 23142 23145 23148 23151 23154 23157 23160 23163 23166 23169 23172 23175 23178 23181 23183 23186 23189 23191 23194 23197 23200 23202 23205 23208 23211 23214 23217 23220 23223 23226 23229 23232 23235 23238 23241 23244 23247 23250 23253 23256 23259 23262 23265 23268 23271 23274 23277 23280 23283 23286 23289 23292 23295 23298 23301 23304 23307 23310 23313 23316 23319 23322 23325 23328 23331 23333 23336 23339 23342 23345 23347 23350 23353 23356 23359 23362 23365 23368 23371 23373 23376 23379 23382 23384 23387 23390 23393 23396 23399 23402 23405 23407 23410 23413 23416 23419 23422 23424 23427 23430 23433 23436 23439 23442 23445 23448 23451 23454 23457 23460 23463 23466 23469 23472 23474 23476 23479 23482 23485 23487 23490 23492 23495 23498 23501 23504 23507 23510 23513 23516 23519 23522 23525 23528 23531 23534 23536 23539 23542 23544 23546 23549 23552 23555 23558 23561 23564 23567 23570 23573 23576 23578 23581 23584 23586 23589 23592 23595 23598 23600 23603 23606 23608 23611 23614 23617 23620 23623 23626 23628 23631 23634 23637 23640 23643 23646 23648 23651 23654 23656 23659 23661 23664 23667 23670 23673 23676 23679 23682 23685 23688 23691 23694 23697 23700 23703 23706 23709 23712 23715 23717 23720 23723 23726 23729 23732 23735 23738 23741 23744 23747 23750 23752 23755 23758 23761 23764 23767 23770 23773 23776 23779 23782 23785 23787 23790 23793 23796 23799 23802 23804 23807 23810 23813 23816 23819 23822 23825 23828 23831 23834 23837 23840 23842 23845 23848 23851 23854 23857 23859 23862 23864 23867 23870 23873 23876 23879 23882 23885 23888 23891 23894 23897 23900 23903 23906 23909 23912 23915 23918 23921 23924 23927 23930 23932 23935 23938 23941 23944 23946 23949 23952 23955 23958 23961 23964 23967 23970 23973 23976 23979 23982 23985 23988 23991 23994 23997 24000 24003 24006 24009 24012 24015 24018 24021 24024 24027 24030 24033 24036 24039 24042 24045 24048 24051 24054 24057 24060 24063 24066 24069 24072 24075 24078 24081 24084 24087 24089 24092 24095 24098 24101 24104 24107 24110 24113 24116 24119 24122 24125 24128 24131 24134 24137 24139 24142 24145 24148 24151 24154 24157 24160 24163 24166 24169 24172 24175 24178 24181 24184 24186 24189 24192 24194 24197 24199 24202 24205 24208 24211 24214 24217 24219 24221 24224 24226 24229 24232 24235 24238 24241 24244 24247 24250 24253 24255 24258 24260 24263 24266 24269 24272 24275 24278 24281 24284 24287 24289 24291 24294 24296 24299 24302 24305 24308 24311 24314 24317 24319 24322 24324 24327 24330 24333 24336 24339 24342 24345 24348 24351 24354 24357 24360 24363 24366 24369 24372 24374 24377 24380 24382 24385 24388 24391 24394 24397 24399 24402 24405 24408 24411 24414 24417 24420 24423 24426 24429 24432 24435 24438 24441 24444 24447 24450 24453 24456 24459 24462 24464 24467 24470 24473 24476 24479 24482 24485 24488 24491 24494 24497 24500 24503 24506 24509 24512 24515 24518 24521 24523 24526 24529 24532 24535 24537 24540 24543 24546 24548 24551 24554 24557 24560 24563 24566 24569 24572 24575 24578 24581 24584 24586 24589 24592 24595 24598 24601 24604 24607 24610 24613 24616 24619 24622 24625 24628 24631 24634 24637 24640 24643 24646 24649 24651 24654 24657 24660 24663 24665 24668 24671 24674 24676 24679 24682 24685 24688 24691 24694 24697 24700 24703 24706 24709 24711 24714 24717 24720 24723 24725 24728 24731 24734 24737 24740 24743 24746 24748 24751 24754 24757 24760 24763 24766 24769 24772 24775 24778 24781 24784 24787 24790 24793 24795 24798 24801 24804 24807 24810 24813 24816 24818 24821 24824 24826 24829 24832 24834 24837 24840 24843 24845 24848 24851 24854 24857 24860 24862 24865 24868 24871 24873 24876 24879 24882 24885 24888 24891 24894 24897 24900 24903 24906 24909 24912 24914 24917 24920 24923 24926 24929 24932 24934 24937 24940 24943 24946 24948 24951 24954 24957 24960 24962 24964 24967 24969 24972 24974 24977 24980 24983 24986 24989 24992 24994 24997 25000 25003 25006 25009 25011 25014 25017 25020 25023 25026 25029 25031 25034 25037 25039 25042 25045 25048 25050 25052 25055 25058 25061 25064 25067 25070 25073 25075 25078 25081 25084 25087 25090 25092 25095 25098 25100 25103 25106 25109 25112 25114 25117 25119 25122 25125 25128 25131 25134 25136 25139 25142 25145 25147 25149 25152 25155 25158 25161 25164 25166 25169 25172 25175 25178 25180 25183 25185 25188 25191 25194 25196 25198 25201 25203 25205 25208 25211 25213 25216 25219 25221 25224 25226 25229 25232 25234 25237 25240 25243 25245 25248 25250 25252 25255 25257 25260 25263 25266 25269 25271 25274 25276 25279 25282 25284 25287 25289 25292 25295 25298 25301 25304 25307 25310 25313 25316 25319 25322 25324 25327 25330 25333 25335 25338 25341 25344 25347 25350 25352 25355 25358 25361 25364 25367 25369 25372 25375 25378 25381 25384 25387 25390 25393 25396 25398 25401 25404 25407 25409 25412 25415 25418 25421 25424 25427 25430 25433 25436 25439 25442 25445 25447 25450 25453 25456 25459 25462 25465 25468 25471 25474 25477 25479 25481 25484 25486 25489 25492 25495 25498 25500 25503 25505 25507 25510 25513 25516 25518 25521 25524 25526 25529 25531 25534 25537 25539 25542 25545 25547 25550 25553 25556 25559 25562 25564 25567 25570 25573 25575 25578 25580 25583 25586 25589 25592 25594 25597 25600 25603 25606 25609 25612 25614 25617 25620 25623 25626 25629 25632 25635 25638 25641 25643 25646 25649 25652 25655 25658 25661 25664 25667 25670 25673 25675 25678 25681 25684 25687 25689 25692 25695 25697 25700 25703 25706 25708 25711 25714 25717 25720 25723 25726 25728 25731 25734 25737 25740 25743 25746 25749 25752 25755 25758 25761 25764 25766 25769 25772 25775 25778 25780 25783 25786 25788 25790 25793 25795 25798 25801 25804 25807 25809 25812 25815 25818 25821 25824 25827 25830 25833 25836 25839 25842 25845 25848 25851 25854 25857 25860 25863 25866 25869 25872 25875 25878 25881 25884 25887 25890 25893 25895 25898 25901 25904 25907 25910 25913 25916 25919 25922 25924 25927 25930 25933 25935 25938 25941 25944 25947 25950 25953 25956 25959 25962 25965 25968 25971 25974 25977 25980 25983 25986 25988 25991 25994 25996 25998 26001 26004 26006 26009 26011 26014 26016 26019 26022 26025 26028 26031 26034 26037 26040 26043 26046 26049 26052 26055 26058 26061 26064 26067 26070 26073 26076 26079 26082 26085 26088 26091 26094 26097 26100 26103 26106 26109 26112 26115 26118 26120 26123 26126 26129 26132 26135 26138 26141 26144 26147 26150 26153 26156 26159 26162 26165 26168 26171 26173 26176 26179 26182 26185 26188 26191 26194 26196 26199 26202 26205 26208 26211 26214 26217 26220 26223 26226 26229 26231 26234 26237 26240 26243 26246 26249 26252 26255 26258 26261 26264 26267 26270 26273 26276 26279 26282 26285 26288 26291 26294 26297 26300 26303 26306 26309 26312 26315 26318 26321 26324 26327 26330 26333 26336 26339 26342 26345 26348 26351 26354 26357 26360 26363 26366 26369 26372 26375 26378 26381 26384 26387 26390 26393 26396 26399 26402 26405 26408 26411 26414 26417 26420 26423 26426 26429 26432 26435 26438 26441 26444 26447 26450 26453 26456 26459 26462 26465 26468 26470 26473 26476 26479 26481 26484 26486 26489 26492 26495 26498 26501 26504 26507 26510 26513 26516 26519 26521 26524 26527 26530 26533 26535 26538 26541 26544 26546 26549 26552 26555 26558 26561 26564 26567 26570 26573 26576 26579 26582 26585 26588 26591 26594 26597 26600 26603 26606 26609 26612 26615 26618 26621 26624 26627 26630 26633 26636 26639 26642 26645 26648 26651 26654 26657 26660 26663 26665 26668 26671 26674 26677 26680 26683 26686 26689 26692 26695 26698 26701 26704 26707 26710 26712 26714 26717 26720 26723 26726 26729 26732 26735 26738 26741 26744 26747 26750 26752 26754 26757 26760 26763 26766 26769 26772 26775 26778 26781 26784 26787 26790 26793 26795 26797 26800 26803 26806 26809 26812 26814 26817 26819 26821 26824 26826 26829 26831 26834 26836 26839 26841 26844 26847 26849 26852 26854 26857 26860 26863 26866 26869 26872 26875 26877 26879 26881 26884 26887 26890 26892 26895 26898 26901 26903 26906 26908 26910 26913 26916 26918 26921 26924 26927 26930 26933 26936 26939 26942 26945 26948 26951 26954 26957 26959 26962 26965 26968 26971 26973 26976 26978 26981 26983 26986 26989 26992 26994 26997 27000 27003 27006 27009 27012 27014 27017 27020 27023 27026 27028 27031 27034 27037 27039 27042 27045 27048 27051 27054 27057 27060 27063 27066 27069 27072 27075 27078 27081 27084 27086 27089 27092 27094 27097 27100 27103 27106 27109 27112 27115 27118 27121 27124 27126 27129 27132 27135 27137 27140 27142 27145 27148 27151 27154 27156 27159 27161 27164 27166 27168 27170 27173 27176 27179 27182 27184 27187 27190 27193 27195 27197 27199 27202 27204 27207 27210 27213 27216 27219 27222 27225 27228 27231 27234 27237 27240 27242 27245 27248 27251 27254 27257 27260 27262 27265 27268 27271 27274 27277 27280 27282 27285 27288 27291 27294 27297 27299 27302 27304 27307 27310 27313 27316 27319 27321 27323 27326 27329 27332 27334 27337 27340 27343 27345 27347 27350 27352 27355 27358 27360 27363 27366 27369 27372 27375 27378 27381 27384 27386 27389 27392 27395 27398 27401 27404 27406 27409 27412 27415 27418 27421 27424 27427 27430 27433 27436 27439 27442 27445 27448 27450 27452 27455 27458 27461 27464 27467 27470 27473 27476 27479 27482 27485 27488 27491 27494 27497 27500 27503 27506 27509 27512 27514 27517 27520 27523 27526 27528 27531 27533 27536 27539 27542 27544 27546 27549 27552 27554 27557 27560 27563 27566 27569 27572 27575 27578 27581 27584 27587 27590 27593 27596 27598 27601 27604 27607 27609 27612 27615 27618 27621 27624 27627 27630 27633 27636 27639 27642 27645 27648 27651 27654 27657 27660 27663 27666 27669 27672 27675 27678 27681 27684 27687 27690 27693 27696 27699 27702 27705 27708 27711 27714 27717 27720 27723 27726 27729 27732 27735 27738 27741 27744 27747 27750 27753 27755 27758 27761 27764 27767 27770 27773 27776 27779 27781 27784 27787 27790 27793 27796 27799 27802 27805 27807 27810 27813 27816 27818 27821 27824 27827 27829 27832 27834 27836 27839 27842 27845 27847 27850 27853 27856 27858 27861 27864 27867 27869 27872 27875 27877 27880 27882 27885 27887 27890 27893 27895 27898 27900 27903 27905 27908 27911 27914 27916 27919 27922 27924 27927 27930 27933 27936 27939 27942 27945 27948 27951 27954 27957 27960 27963 27966 27969 27972 27975 27978 27980 27983 27986 27989 27991 27994 27997 28000 28003 28006 28008 28011 28014 28016 28019 28022 28025 28028 28031 28034 28037 28040 28042 28045 28048 28050 28053 28055 28058 28061 28063 28066 28069 28072 28075 28078 28081 28084 28087 28090 28093 28096 28099 28102 28105 28108 28111 28114 28117 28120 28123 28126 28128 28131 28134 28137 28140 28143 28146 28149 28152 28155 28158 28161 28164 28167 28170 28173 28176 28179 28182 28185 28188 28191 28194 28197 28200 28203 28206 28209 28212 28214 28217 28220 28223 28226 28229 28232 28235 28237 28240 28243 28246 28249 28252 28255 28258 28261 28264 28267 28270 28272 28275 28278 28281 28283 28286 28289 28292 28295 28297 28300 28303 28306 28308 28311 28314 28317 28320 28322 28325 28328 28330 28333 28336 28339 28342 28345 28347 28350 28353 28356 28359 28362 28365 28368 28371 28374 28377 28380 28383 28385 28388 28391 28394 28397 28400 28402 28405 28408 28411 28414 28417 28420 28423 28426 28429 28432 28435 28438 28441 28444 28447 28450 28452 28455 28458 28461 28464 28467 28470 28473 28476 28479 28482 28485 28488 28491 28494 28497 28500 28503 28506 28509 28511 28514 28516 28518 28521 28524 28527 28530 28533 28536 28539 28542 28545 28548 28551 28553 28556 28558 28561 28564 28567 28570 28573 28576 28579 28582 28585 28588 28591 28594 28597 28600 28603 28606 28609 28611 28614 28617 28620 28623 28625 28628 28631 28634 28637 28640 28643 28646 28649 28652 28655 28657 28660 28663 28666 28669 28672 28675 28678 28680 28683 28686 28688 28691 28694 28697 28700 28702 28705 28707 28710 28713 28716 28719 28722 28725 28728 28731 28734 28737 28740 28743 28746 28749 28751 28754 28757 28760 28762 28765 28768 28770 28773 28776 28779 28782 28785 28788 28791 28793 28796 28799 28802 28805 28808 28811 28814 28817 28820 28823 28826 28829 28832 28835 28838 28841 28844 28847 28850 28853 28856 28859 28862 28865 28868 28871 28874 28877 28880 28883 28886 28889 28892 28895 28898 28901 28904 28907 28909 28911 28914 28917 28920 28923 28926 28929 28932 28935 28937 28940 28943 28946 28949 28952 28955 28958 28961 28964 28967 28970 28973 28976 28979 28982 28985 28988 28991 28994 28997 29000 29003 29006 29009 29012 29015 29018 29021 29024 29027 29030 29032 29035 29038 29040 29043 29046 29049 29051 29054 29056 29059 29061 29064 29067 29070 29073 29076 29079 29081 29084 29086 29089 29091 29094 29096 29099 29101 29104 29106 29109 29112 29115 29117 29120 29123 29125 29127 29130 29133 29135 29137 29139 29142 29144 29147 29150 29153 29155 29158 29160 29162 29165 29168 29170 29173 29176 29179 29182 29185 29188 29191 29193 29196 29198 29201 29203 29206 29209 29212 29215 29218 29221 29224 29227 29230 29233 29235 29238 29241 29244 29247 29250 29252 29254 29257 29260 29263 29266 29269 29272 29275 29278 29281 29284 29287 29290 29293 29296 29299 29302 29305 29308 29311 29314 29317 29320 29323 29326 29329 29332 29335 29338 29341 29344 29347 29350 29353 29356 29359 29362 29365 29367 29370 29373 29376 29378 29381 29384 29387 29390 29393 29396 29399 29402 29405 29408 29411 29414 29417 29420 29423 29425 29428 29431 29434 29436 29439 29442 29445 29448 29451 29454 29457 29460 29463 29466 29469 29472 29475 29477 29479 29482 29485 29488 29490 29493 29495 29498 29501 29504 29507 29510 29513 29516 29519 29522 29525 29528 29531 29534 29537 29540 29542 29545 29548 29551 29553 29556 29559 29562 29565 29567 29570 29572 29575 29578 29581 29584 29587 29590 29593 29595 29598 29601 29603 29605 29608 29611 29614 29617 29620 29623 29626 29629 29632 29635 29638 29641 29643 29646 29649 29652 29655 29657 29660 29663 29666 29669 29672 29675 29678 29681 29684 29687 29690 29693 29696 29699 29702 29705 29708 29711 29714 29717 29720 29723 29726 29728 29731 29734 29737 29740 29743 29746 29749 29752 29755 29758 29761 29764 29767 29770 29773 29776 29779 29782 29785 29788 29791 29794 29797 29800 29803 29805 29808 29810 29813 29816 29819 29821 29824 29827 29830 29832 29834 29837 29840 29842 29845 29848 29850 29853 29856 29859 29862 29865 29868 29871 29874 29877 29880 29883 29886 29889 29892 29895 29898 29901 29903 29906 29909 29912 29915 29918 29921 29924 29926 29929 29932 29935 29938 29941 29944 29947 29950 29953 29956 29959 29962 29964 29967 29970 29973 29976 29979 29982 29985 29988 29991 29994 29997 30000 30003 30006 30009 30012 30015 30018 30021 30024 30027 30030 30033 30035 30037 30040 30043 30046 30049 30052 30055 30058 30060 30063 30066 30069 30072 30075 30078 30081 30084 30087 30090 30093 30096 30099 30102 30105 30108 30111 30114 30117 30120 30123 30126 30129 30132 30135 30138 30141 30144 30147 30150 30153 30156 30159 30162 30165 30168 30171 30174 30177 30180 30183 30186 30189 30192 30195 30198 30201 30204 30207 30210 30213 30216 30219 30222 30225 30228 30231 30234 30237 30240 30243 30246 30249 30252 30255 30258 30261 30264 30267 30270 30273 30276 30279 30282 30285 30288 30291 30294 30297 30300 30303 30306 30308 30311 30314 30316 30319 30322 30325 30328 30331 30334 30337 30340 30343 30346 30349 30352 30355 30358 30361 30364 30367 30370 30373 30376 30379 30382 30385 30388 30391 30394 30397 30400 30403 30406 30409 30412 30415 30417 30420 30423 30426 30429 30432 30435 30438 30441 30444 30447 30450 30453 30456 30459 30461 30463 30466 30469 30472 30475 30478 30481 30484 30487 30490 30492 30495 30498 30501 30503 30506 30509 30512 30515 30518 30521 30524 30527 30530 30533 30536 30539 30542 30545 30548 30551 30554 30557 30560 30563 30566 30569 30572 30575 30578 30581 30584 30587 30589 30592 30595 30598 30601 30604 30607 30610 30613 30616 30619 30622 30625 30628 30631 30634 30637 30639 30642 30645 30648 30651 30654 30657 30660 30662 30665 30668 30671 30673 30676 30679 30682 30685 30688 30691 30694 30697 30700 30703 30706 30709 30712 30715 30718 30720 30723 30726 30729 30732 30735 30738 30740 30743 30746 30749 30751 30754 30757 30760 30763 30766 30769 30772 30775 30777 30780 30783 30786 30788 30791 30793 30796 30799 30802 30805 30808 30811 30814 30817 30820 30823 30826 30829 30832 30835 30838 30841 30844 30847 30850 30853 30856 30859 30862 30865 30868 30871 30874 30877 30880 30883 30886 30889 30892 30895 30898 30901 30904 30907 30910 30913 30916 30919 30922 30925 30928 30931 30934 30937 30940 30943 30946 30949 30952 30955 30958 30961 30964 30967 30970 30973 30976 30978 30981 30984 30987 30990 30993 30995 30998 31001 31004 31007 31010 31013 31016 31019 31022 31025 31028 31031 31034 31037 31040 31043 31046 31049 31051 31054 31057 31060 31063 31066 31069 31072 31074 31077 31080 31082 31085 31088 31091 31094 31097 31100 31103 31106 31109 31112 31115 31117 31120 31122 31124 31127 31130 31132 31135 31138 31140 31143 31146 31149 31151 31153 31155 31158 31161 31164 31167 31169 31172 31174 31176 31179 31182 31185 31187 31190 31192 31195 31198 31201 31203 31206 31209 31212 31215 31218 31221 31223 31226 31229 31232 31235 31237 31240 31242 31244 31246 31249 31252 31255 31257 31259 31262 31265 31268 31270 31273 31276 31279 31281 31284 31286 31288 31291 31294 31296 31298 31301 31303 31306 31309 31312 31314 31317 31320 31323 31325 31327 31329 31332 31334 31336 31339 31342 31345 31347 31350 31353 31356 31358 31361 31363 31366 31369 31372 31374 31377 31380 31382 31384 31387 31389 31392 31395 31397 31400 31402 31405 31408 31411 31414 31416 31419 31422 31425 31427 31430 31433 31436 31439 31442 31445 31448 31451 31454 31457 31460 31463 31466 31469 31472 31475 31478 31481 31484 31487 31490 31493 31496 31499 31501 31504 31507 31509 31512 31514 31516 31519 31521 31523 31526 31529 31532 31535 31537 31540 31543 31546 31549 31552 31555 31558 31561 31563 31566 31569 31572 31575 31578 31581 31583 31586 31588 31591 31594 31597 31600 31603 31606 31609 31611 31614 31617 31619 31622 31625 31628 31630 31633 31635 31638 31641 31644 31647 31649 31652 31654 
</DataArray>
<DataArray type="UInt32" Name="types" format="ascii">
5 3 5 5 5 3 5 5 5 5 5 3 5 5 5 3 5 5 5 5 5 3 5 5 3 5 5 5 5 5 5 5 5 5 5 5 5 5 5 5 5 3 5 5 5 5 5 5 5 5 5 5 5 5 5 5 5 5 5 3 5 5 5 5 5 5 5 5 5 5 5 5 3 5 5 5 5 5 3 5 3 5 5 5 5 5 5 3 5 5 5 5 5 5 5 5 5 5 5 5 5 5 5 5 5 5 5 5 5 5 5 5 5 5 5 5 3 5 5 3 5 3 5 5 5 5 5 5 5 5 3 5 5 3 5 5 5 5 5 5 5 3 5 5 3 5 5 5 5 5 5 5 5 3 5 5 5 5 3 5 5 3 5 5 5 5 5 3 5 5 5 5 5 5 5 5 5 3 5 3 5 5 5 5 5 5 5 3 5 5 3 3 5 5 5 5 3 5 5 5 5 5 3 5 5 5 5 5 5 3 5 5 5 3 5 5 5 5 5 5 5 5 5 5 5 5 5 5 5 5 5 5 5 5 5 5 3 5 5 3 5 5 5 5 5 5 5 5 5 5 5 5 5 5 5 5 5 5 3 5 5 5 5 5 5 5 5 5 5 3 5 5 5 5 5 5 5 3 3 3 5 5 5 5 5 5 5 5 5 3 5 5 5 5 5 5 5 3 5 5 5 3 5 5 3 5 5 5 5 5 5 5 5 5 5 5 5 5 5 5 3 5 5 5 3 5 5 5 5 5 5 5 5 5 5 5 5 5 5 5 5 5 5 5 5 5 5 5 5 5 5 5 3 5 5 3 5 5 5 5 5 5 5 5 5 5 3 5 5 5 3 5 5 5 5 5 5 5 3 5 5 5 5 3 5 3 5 5 5 5 5 3 5 5 5 5 5 5 5 5 5 5 5 3 5 3 5 3 3 5 3 5 5 3 5 5 5 5 5 5 5 5 5 5 5 5 5 5 5 3 5 5 5 5 5 5 5 3 3 5 5 5 5 5 5 5 5 5 5 5 5 5 5 5 3 5 5 5 3 5 3 3 5 5 5 5 3 5 3 5 5 5 5 5 5 5 5 5 5 3 5 5 5 3 5 5 5 5 5 5 5 5 5 3 5 3 5 3 5 5 3 3 5 5 5 5 3 5 5 5 5 3 3 5 5 5 5 5 5 3 5 5 5 5 5 5 5 5 5 5 3 5 5 5 3 5 3 5 5 5 3 5 5 3 5 5 3 3 5 5 5 5 5 5 5 5 5 5 5 5 5 5 5 5 5 5 5 3 5 5 5 5 3 3 5 5 3 5 5 5 5 3 5 5 5 3 5 5 5 5 5 5 3 5 5 5 5 5 5 5 3 5 5 3 5 3 5 5 5 5 5 5 5 5 5 5 5 3 3 5 5 5 5 5 5 5 5 5 3 5 5 5 5 5 5 5 5 5 5 5 5 5 5 5 5 5 5 5 5 5 5 5 5 5 5 5 5 5 5 5 5 3 5 5 5 5 3 5 5 5 5 5 5 5 5 5 5 5 3 5 3 5 5 5 5 5 3 5 5 5 5 5 5 5 5 5 5 5 5 5 5 5 5 5 5 5 5 5 5 5 5 5 5 5 5 5 5 5 5 5 5 5 5 5 5 5 5 5 5 5 5 5 5 5 3 5 5 5 5 5 5 5 5 5 5 5 5 5 5 5 5 5 5 5 5 5 5 5 5 5 5 5 5 3 5 5 5 5 5 5 5 5 5 5 5 5 5 5 5 5 5 3 5 5 5 5 5 5 5 5 5 5 5 5 5 5 5 5 5 5 5 5 5 5 5 5 5 5 5 5 5 5 5 5 5 5 5 5 3 5 5 3 5 5 5 5 5 5 5 5 5 5 5 5 5 5 5 5 3 5 5 5 5 3 3 5 5 3 5 5 5 5 5 5 5 5 5 3 3 5 5 5 5 3 5 5 5 5 3 5 5 5 3 5 5 5 5 5 5 5 5 5 3 5 5 5 5 5 5 5 5 5 5 5 5 5 5 5 5 5 5 5 5 5 5 5 5 3 5 5 5 5 5 5 5 5 3 5 5 5 5 3 5 5 5 5 3 3 5 5 5 5 5 5 5 5 5 5 3 5 5 5 5 5 5 5 5 5 3 5 5 3 5 3 5 5 3 5 5 5 3 5 5 5 5 5 5 5 5 5 5 5 3 5 5 5 5 5 3 3 5 5 5 5 3 5 5 5 3 5 5 5 5 5 5 3 5 5 5 5 5 3 5 5 5 5 3 5 5 3 5 3 3 5 3 5 5 5 5 3 5 3 5 5 5 5 5 5 5 5 3 5 5 5 3 5 5 5 5 5 5 3 5 5 5 5 5 5 3 3 5 5 5 5 5 5 3 5 5 5 5 3 5 5 5 5 5 5 5 5 5 3 5 5 5 5 5 5 3 5 3 5 5 5 5 3 5 5 3 5 5 3 5 3 5 5 5 5 5 5 5 5 3 5 3 5 5 5 5 5 5 5 5 5 5 3 5 5 5 5 5 5 5 5 5 3 5 5 5 5 3 3 5 5 3 5 5 5 5 5 5 5 5 5 5 5 5 5 5 3 5 3 5 5 5 5 5 5 5 5 5 3 5 5 5 5 5 5 5 5 5 5 5 5 5 5 5 5 5 5 5 5 5 5 5 5 5 5 5 5 5 5 5 5 5 5 5 5 5 5 5 5 5 5 5 5 5 5 5 5 5 5 5 5 5 3 5 3 5 5 5 3 5 5 3 3 5 5 5 5 5 5 5 5 5 3 5 5 5 5 5 5 5 5 5 5 5 5 5 5 5 5 5 5 5 5 5 5 5 5 5 5 5 5 5 5 5 3 5 5 5 5 3 5 5 5 5 5 5 5 3 5 5 5 5 5 5 5 3 5 5 5 5 5 5 3 5 3 5 3 5 5 5 5 5 5 5 5 3 5 5 5 5 5 5 3 5 5 3 5 5 5 5 5 5 5 5 5 5 5 5 5 3 5 3 5 5 5 5 5 5 3 5 5 5 5 3 5 5 5 5 5 3 3 5 3 5 5 5 3 5 5 5 5 5 5 5 5 5 5 5 5 5 5 5 5 5 3 5 5 5 5 5 5 5 5 5 5 5 5 5 5 5 5 5 3 5 5 5 5 5 5 3 5 3 5 5 3 5 5 5 5 5 3 5 5 3 5 3 3 3 5 5 5 5 5 5 5 5 5 3 5 5 5 3 5 5 5 5 3 5 5 5 5 5 5 5 5 5 5 5 5 5 5 5 5 5 5 5 3 5 5 5 5 3 5 5 5 5 5 5 5 5 3 5 5 5 5 5 3 5 5 5 5 5 5 5 5 5 5 5 5 5 5 5 5 5 5 5 3 5 5 3 3 3 5 5 3 3 5 5 5 5 3 5 5 5 5 5 5 5 5 3 3 5 3 5 3 5 5 5 5 5 5 5 5 3 5 5 5 5 5 5 3 5 5 5 5 5 5 5 3 5 5 5 5 5 5 5 5 5 5 5 3 5 5 5 5 5 5 5 5 5 5 5 5 5 5 5 5 5 5 5 5 5 5 3 5 5 5 5 3 5 5 5 3 5 3 5 5 5 5 5 3 5 5 5 5 5 5 5 5 5 5 5 5 5 5 5 5 5 5 5 5 5 5 5 5 5 5 3 5 5 5 5 5 5 5 5 5 3 3 5 3 5 5 5 3 5 5 3 5 5 3 5 5 5 3 5 5 5 3 5 3 5 5 5 5 5 5 5 5 5 5 5 5 3 5 5 5 5 5 5 5 5 5 5 5 5 5 5 5 5 5 3 5 5 5 3 5 5 5 3 5 5 5 5 5 5 5 3 5 5 5 5 3 5 5 5 5 5 5 5 5 3 5 5 5 5 5 5 5 5 5 5 5 5 5 5 5 5 5 5 5 5 5 5 5 5 5 5 5 5 5 5 5 5 5 3 5 5 5 5 5 5 5 5 5 5 5 5 5 5 3 5 3 5 5 5 3 5 5 5 5 5 3 5 5 5 5 5 5 5 5 3 5 5 3 5 5 5 5 5 5 5 5 5 5 5 5 3 5 5 3 5 3 5 5 5 5 3 5 5 3 5 5 5 5 5 5 5 5 5 5 5 3 5 3 5 5 3 3 5 3 5 5 5 5 3 5 5 5 5 5 5 5 5 5 5 5 3 5 5 3 5 3 5 5 5 5 5 5 5 5 5 5 3 5 5 5 5 5 5 5 5 5 5 5 5 5 5 5 5 5 5 5 5 5 5 5 5 5 5 5 5 5 5 5 5 5 5 5 3 5 5 5 5 5 5 3 5 5 5 5 3 5 5 5 5 3 5 5 5 5 5 5 5 5 5 3 5 5 5 5 5 3 3 5 5 5 3 5 3 5 5 5 5 5 5 5 5 5 3 5 3 5 5 5 5 5 3 5 3 5 5 5 5 5 5 5 3 5 5 5 5 5 5 5 5 5 5 5 5 5 5 5 5 5 5 5 5 5 3 3 3 5 5 5 5 3 5 5 5 5 5 5 5 5 5 5 5 5 5 5 5 5 5 5 5 5 5 5 5 5 5 5 5 5 5 5 5 5 5 5 5 3 5 5 5 5 5 5 5 5 5 5 5 5 5 5 5 5 5 5 3 5 5 5 3 5 5 5 5 5 5 5 5 5 3 5 5 5 5 5 5 5 5 5 5 5 5 5 5 5 5 5 3 5 3 5 5 5 5 5 5 5 5 5 5 5 5 5 3 5 5 5 5 5 5 5 3 5 5 5 5 5 5 3 5 5 5 5 5 5 5 5 5 5 5 3 5 5 5 5 5 3 5 5 5 5 5 5 3 5 5 5 5 5 3 5 3 5 5 5 5 5 5 5 5 5 5 5 5 5 5 5 3 5 5 5 5 5 5 5 5 5 5 3 3 5 5 3 5 5 3 5 3 5 5 5 5 5 5 5 5 5 3 3 5 5 5 5 5 3 5 5 5 5 5 5 5 3 5 5 5 5 5 5 5 5 5 5 5 5 5 5 5 5 5 5 5 5 5 5 5 5 5 5 5 5 5 5 5 5 5 5 5 5 5 5 5 5 5 5 5 5 3 5 5 3 5 5 5 5 5 5 5 3 5 5 5 3 5 5 3 5 5 3 3 5 5 3 5 5 5 5 5 5 5 5 5 5 5 5 5 5 5 3 5 5 5 5 5 5 5 5 5 5 5 5 5 3 5 5 5 5 5 5 5 5 5 5 5 5 5 5 5 5 5 5 5 5 5 5 5 5 5 5 3 5 5 5 5 5 5 5 5 5 5 5 5 3 5 5 5 5 5 5 5 5 5 5 5 3 5 5 5 3 5 5 5 5 5 5 3 5 5 5 5 5 5 5 5 5 5 5 5 5 5 5 5 5 5 5 5 5 5 5 5 5 3 5 3 5 5 5 5 3 5 5 3 5 5 5 5 5 5 5 5 5 5 5 5 5 5 5 5 5 5 5 5 5 5 5 5 5 5 5 5 3 5 5 5 5 5 5 5 5 5 5 5 5 5 5 5 5 5 5 3 5 5 5 5 3 5 3 5 5 5 5 5 5 5 5 5 5 5 5 5 5 5 5 5 5 5 5 5 5 5 5 5 5 5 5 5 3 5 5 5 5 5 5 5 3 5 5 5 5 5 5 5 3 5 5 5 3 5 5 5 5 5 5 5 3 5 5 5 3 3 3 5 5 3 5 5 5 3 5 5 5 5 5 5 5 5 5 3 3 5 5 5 5 5 5 5 5 5 5 5 5 3 5 5 5 5 5 5 3 5 5 5 5 5 5 5 5 5 5 5 5 5 5 5 5 5 3 5 5 5 5 3 5 5 5 5 3 5 5 5 5 5 5 5 5 5 5 5 5 5 5 5 5 5 5 5 5 5 5 5 5 5 3 5 5 5 5 5 5 5 5 3 5 5 5 5 5 5 5 5 5 5 5 3 5 5 5 5 5 5 5 5 5 5 5 5 5 5 5 3 5 5 5 5 5 3 5 5 5 5 5 5 5 5 5 5 5 5 5 3 5 5 5 5 3 5 5 3 5 5 5 5 5 5 5 5 5 5 5 5 5 5 5 5 5 5 5 5 5 5 5 5 5 5 5 5 5 5 5 5 3 5 3 5 5 5 5 5 5 5 5 3 5 5 5 5 5 5 5 5 5 5 5 3 5 3 5 5 5 5 3 5 5 5 5 5 5 5 5 5 5 5 5 3 5 5 5 5 5 5 5 5 5 3 5 5 3 5 5 5 5 3 5 3 5 5 5 5 5 5 5 5 5 5 5 5 5 5 5 5 5 5 5 5 5 3 5 5 5 5 5 5 5 3 5 3 5 5 5 5 3 3 5 5 5 5 5 3 3 5 5 5 5 3 5 5 3 3 5 3 3 3 5 5 5 5 5 5 5 5 3 3 5 5 5 5 3 3 5 5 5 5 5 5 5 5 5 3 5 5 5 5 5 5 3 5 5 5 5 5 5 5 5 3 5 5 5 5 5 5 3 5 5 3 3 5 5 3 5 3 5 3 5 5 5 3 5 3 5 5 3 3 3 5 5 5 5 3 5 3 3 5 3 3 5 5 3 5 5 5 3 5 5 5 5 5 3 5 5 5 3 3 5 5 5 3 5 5 5 5 5 3 5 5 5 5 5 5 5 5 5 5 5 5 5 5 5 5 5 3 5 5 5 5 5 5 3 5 5 5 3 5 5 5 5 5 5 3 5 3 5 5 5 5 5 5 5 5 5 5 5 5 5 5 5 5 5 5 5 5 5 5 5 3 5 5 5 3 5 5 5 5 5 5 5 5 5 5 5 5 5 5 5 5 5 5 3 5 5 5 5 5 5 5 5 5 5 5 5 5 5 5 5 5 5 5 5 5 5 3 5 5 5 5 5 5 5 5 5 5 5 5 3 5 3 5 5 5 5 5 3 5 5 5 3 5 5 3 5 3 5 5 3 3 5 5 5 5 5 5 5 5 5 5 5 5 5 5 5 5 5 3 3 5 5 5 5 5 5 5 5 5 5 5 5 5 5 5 5 5 5 5 5 5 5 3 5 3 5 5 5 3 5 5 5 3 5 5 5 5 5 5 5 5 5 3 5 5 5 3 5 5 5 5 5 5 5 5 5 3 5 5 5 5 5 5 5 5 5 5 5 5 5 5 5 5 5 5 5 5 5 5 5 5 5 5 5 5 5 5 5 5 5 5 5 5 5 5 5 5 5 5 5 5 5 3 5 5 5 5 3 3 5 5 3 3 5 5 5 5 3 5 5 5 5 5 5 5 5 5 3 5 5 5 5 3 5 5 5 5 3 5 5 5 3 3 5 5 5 5 5 5 5 5 3 5 5 5 5 5 5 3 5 5 5 5 5 5 3 5 5 5 5 3 5 3 5 3 5 5 5 3 3 5 5 5 5 3 5 3 5 5 5 5 3 3 5 3 5 5 5 5 5 3 5 5 3 3 3 3 5 5 5 3 5 3 3 5 5 5 5 5 5 5 5 5 5 5 5 5 5 5 5 5 5 5 5 3 5 5 5 5 5 3 5 5 3 5 3 5 5 5 5 5 5 5 5 5 3 5 5 3 5 3 5 5 3 3 5 3 5 5 5 3 5 3 5 5 3 5 5 3 5 5 5 5 5 5 5 5 5 5 5 5 5 5 5 5 5 5 5 5 5 5 5 5 5 5 5 3 5 5 5 3 5 5 3 5 5 5 5 5 5 5 5 5 5 5 5 5 5 5 5 5 5 5 5 5 5 3 5 5 3 5 5 3 5 5 5 3 5 5 5 5 5 5 5 5 5 5 5 5 5 5 3 5 5 3 5 5 5 3 5 5 5 5 5 5 5 5 3 5 5 5 5 3 5 5 5 5 5 5 5 5 5 5 5 5 5 5 5 5 3 5 5 5 3 5 5 5 5 5 5 5 5 5 5 5 5 5 5 5 5 5 5 5 5 5 5 5 5 5 5 5 5 5 5 5 5 5 5 5 5 5 5 5 5 5 5 5 5 5 5 5 5 5 5 5 3 5 5 3 5 5 5 5 5 5 5 5 5 5 5 5 5 5 5 5 5 5 5 3 5 3 3 3 5 5 5 5 5 5 5 5 5 5 5 5 5 5 5 5 5 3 3 5 5 5 3 5 5 5 5 3 3 5 3 5 5 5 3 5 5 5 5 3 5 5 5 5 5 3 5 5 3 3 5 5 3 5 3 5 5 3 5 5 5 5 5 5 5 5 5 3 5 5 5 5 3 5 5 5 5 5 5 5 5 5 5 5 3 5 5 5 5 5 5 5 5 5 3 5 5 5 5 5 5 5 5 3 5 5 3 5 5 5 5 5 5 5 5 5 5 5 5 5 5 5 5 5 5 3 5 5 5 5 5 5 5 5 5 5 5 3 5 5 5 5 5 5 5 3 5 5 3 5 5 5 5 3 5 5 5 5 3 5 5 5 5 3 5 3 5 5 5 5 3 5 5 5 3 5 5 5 5 5 5 5 5 5 5 5 5 5 5 5 5 5 5 5 5 5 5 5 5 5 5 5 5 5 3 5 3 5 3 3 5 5 5 3 5 5 5 5 3 5 3 5 5 5 3 5 5 5 5 5 5 5 5 3 5 5 5 5 5 5 5 5 5 5 5 5 5 5 3 5 3 5 5 5 5 5 3 5 5 5 3 5 5 5 5 3 5 5 5 5 5 5 5 5 3 5 5 3 5 5 5 5 3 5 5 5 5 5 5 3 5 5 5 5 5 3 5 3 3 5 5 5 5 5 5 5 5 5 5 5 3 5 5 5 5 5 5 5 3 5 5 5 5 5 5 5 5 5 5 5 5 5 5 5 5 5 5 5 5 5 5 5 5 5 5 5 5 5 3 5 5 5 5 3 5 5 5 5 3 5 5 5 5 5 5 5 5 5 5 5 5 3 5 5 5 5 5 5 5 5 5 5 5 5 5 5 5 5 5 5 5 5 5 5 5 5 5 5 5 5 5 5 5 5 5 5 5 3 5 5 5 3 5 5 5 5 5 5 5 5 5 5 5 5 5 3 5 5 5 5 5 5 5 5 3 3 5 3 5 5 5 5 5 3 5 5 5 5 5 3 5 5 3 5 5 5 3 5 5 3 5 5 5 5 5 3 3 5 5 5 5 5 5 5 5 5 5 5 5 5 5 3 5 5 5 5 5 3 5 3 5 5 3 5 3 3 3 5 5 5 3 5 5 5 5 5 5 5 5 3 3 5 3 5 3 5 5 5 5 5 5 5 5 5 5 5 5 5 5 5 5 5 5 5 5 5 5 5 5 5 5 5 5 5 5 5 5 5 5 5 3 5 5 5 5 5 5 5 5 5 5 5 5 5 5 5 5 5 5 5 5 5 5 5 5 5 5 3 5 5 5 5 5 5 3 5 5 3 5 3 5 5 5 5 3 5 5 5 3 5 5 5 5 5 5 3 5 5 3 5 5 5 3 5 5 3 5 5 5 5 5 3 5 5 3 3 5 5 3 5 3 5 5 5 3 5 5 3 3 5 3 5 5 3 5 5 5 5 5 5 5 5 5 5 5 5 5 5 5 5 5 5 3 5 5 5 5 5 5 5 5 5 5 3 5 5 5 5 5 5 5 3 5 5 5 5 5 5 5 5 5 5 5 5 5 5 5 5 5 5 5 5 3 3 5 5 5 5 5 5 5 5 5 5 5 3 5 5 5 5 5 5 3 5 5 5 5 3 5 5 5 5 5 5 5 5 5 3 5 5 5 5 5 5 5 5 5 5 5 5 5 5 5 5 3 5 5 5 5 5 5 5 5 5 5 5 5 5 3 5 5 5 5 5 5 5 5 5 5 3 5 5 5 3 5 5 5 5 5 5 3 5 5 5 5 5 5 5 5 5 5 5 3 5 5 5 5 5 5 5 5 3 5 5 3 5 5 3 5 3 3 5 3 5 5 5 5 3 3 5 5 5 5 5 3 5 5 5 5 3 5 5 5 3 5 5 3 5 5 5 5 5 5 5 5 5 5 3 5 3 5 3 3 5 5 5 3 5 5 3 3 5 5 5 5 5 3 5 5 5 5 5 5 5 5 5 5 5 5 5 5 5 5 3 5 5 3 5 5 5 3 5 5 5 3 5 3 5 5 5 5 5 5 5 5 3 5 5 5 3 3 5 5 5 5 5 5 5 5 5 5 5 5 5 3 5 3 5 5 5 5 5 5 5 5 5 5 5 5 5 5 5 5 5 5 5 5 5 5 5 5 5 3 5 5 5 5 3 5 3 5 5 3 5 5 5 5 5 5 5 5 5 5 5 5 5 5 5 5 5 5 5 5 5 5 5 5 5 5 5 5 5 5 5 5 3 5 5 5 5 5 5 5 3 5 5 5 5 5 5 5 5 5 5 5 3 3 5 5 5 5 5 3 5 5 3 5 3 5 5 5 5 5 5 5 5 5 5 5 5 3 5 5 5 5 5 3 3 5 5 5 5 3 5 5 5 5 5 5 5 5 5 5 3 5 5 5 5 5 5 5 5 5 5 5 5 5 5 5 5 5 5 5 5 5 5 5 5 5 5 5 5 5 5 5 5 5 5 5 5 5 5 5 5 5 5 5 5 5 5 5 5 5 5 5 5 5 5 5 5 3 5 5 5 3 5 5 5 5 5 5 5 3 5 5 5 5 5 3 5 5 5 5 3 5 5 5 5 5 5 5 5 5 5 5 5 5 5 5 3 3 5 5 5 3 3 5 5 5 5 5 5 3 5 5 3 5 5 5 5 5 5 5 5 5 5 3 3 5 5 3 5 5 5 5 5 5 5 3 5 5 5 5 5 5 5 5 5 5 5 5 5 3 5 5 5 5 5 5 3 5 5 5 5 5 5 5 5 5 3 5 5 5 5 3 5 5 5 5 5 5 5 5 3 5 5 5 5 5 5 5 5 3 5 5 5 5 5 3 3 5 5 3 5 5 5 3 5 5 5 5 5 5 3 5 5 3 5 5 3 5 5 5 5 5 3 5 5 5 5 3 5 5 5 5 5 5 5 5 5 5 5 5 3 5 5 5 5 5 3 5 5 5 5 5 5 3 5 5 5 5 5 5 5 5 5 5 5 5 5 5 5 5 5 5 5 5 3 5 5 5 5 3 5 5 5 5 5 5 3 5 5 5 5 5 5 5 5 5 3 5 5 5 5 5 5 5 5 5 5 5 5 5 5 5 5 5 5 5 5 5 5 5 5 5 5 5 5 5 5 3 5 5 5 5 5 5 5 5 3 5 5 3 5 5 5 5 5 3 5 5 5 5 3 5 5 5 5 5 5 5 5 3 5 5 5 3 5 3 5 5 5 3 3 3 5 5 5 5 3 5 5 5 5 5 5 5 5 5 5 5 3 5 5 5 5 5 5 5 5 5 5 5 5 5 5 5 5 3 5 5 5 5 5 5 5 5 5 5 5 5 5 5 5 5 5 5 5 5 5 5 5 5 5 5 5 5 5 5 5 5 5 5 5 5 5 5 5 5 5 5 5 5 5 5 5 5 5 5 5 5 5 5 5 3 5 3 5 5 3 5 5 5 5 5 5 5 3 5 5 3 5 3 5 5 5 5 5 5 5 5 5 5 5 3 5 5 3 5 5 3 5 3 5 5 5 5 5 5 5 3 5 5 5 5 5 5 5 5 5 5 5 5 5 5 5 5 5 5 5 5 5 5 3 5 5 5 5 5 5 5 5 5 5 5 5 5 3 5 5 5 5 5 5 3 5 5 5 5 5 5 5 5 5 5 5 5 5 5 5 5 5 5 5 5 5 5 5 5 5 5 5 3 5 5 5 5 5 5 5 3 5 5 5 5 5 5 5 5 5 3 5 5 5 5 3 3 3 5 5 5 5 3 5 5 3 5 5 5 5 5 5 5 5 3 5 5 3 5 5 5 3 5 5 5 3 5 5 5 3 5 5 5 5 5 5 5 5 5 5 5 5 5 5 3 5 5 5 3 5 5 3 5 5 5 5 5 5 5 5 5 5 5 5 5 5 5 5 5 3 5 3 5 5 5 5 5 5 5 5 5 3 5 3 3 5 5 5 5 5 5 5 3 5 5 3 5 3 5 5 5 5 5 5 5 5 5 5 5 5 5 5 5 3 5 5 5 5 3 5 5 5 5 5 3 3 5 5 3 5 5 5 5 3 5 5 5 5 5 5 5 5 5 5 3 5 3 5 5 5 5 3 5 5 5 5 5 5 5 5 5 5 3 5 5 5 5 3 5 5 5 5 3 5 5 5 3 3 5 3 5 5 5 5 5 5 5 3 5 3 5 5 3 3 5 3 5 5 5 5 5 5 3 5 5 5 5 5 3 5 5 5 5 5 5 5 3 5 5 5 5 5 5 5 5 5 5 5 5 5 5 5 5 3 5 5 5 5 5 5 5 5 5 5 5 5 5 5 5 5 5 5 5 3 5 5 5 5 5 5 5 5 5 5 3 5 3 5 5 5 5 5 3 5 5 3 5 5 5 5 5 5 5 5 5 3 5 5 3 5 5 5 5 5 5 3 5 5 3 3 5 5 5 5 5 3 5 5 5 5 3 5 5 5 5 5 5 5 5 5 5 5 5 5 5 5 5 5 5 5 5 5 5 5 5 5 5 5 3 5 5 5 5 5 5 5 5 5 5 5 3 5 5 5 5 5 5 5 5 5 5 5 5 5 5 5 5 5 5 5 5 5 5 5 5 5 3 5 5 5 3 5 5 5 5 5 5 5 5 5 5 5 5 5 5 5 5 5 5 5 5 3 5 5 5 5 5 5 5 5 5 5 5 5 5 5 5 5 5 5 5 5 5 5 5 5 5 5 5 3 5 5 3 5 5 5 5 5 5 5 5 5 5 5 5 3 5 5 5 5 3 3 3 5 5 5 5 5 5 5 3 5 5 5 3 5 5 5 5 5 5 5 5 3 5 5 5 5 3 5 5 3 3 5 5 5 5 3 3 5 5 3 5 3 5 5 5 5 5 5 5 5 3 5 5 5 5 5 3 3 5 3 5 3 5 3 3 3 5 5 5 5 3 5 3 5 3 5 5 5 5 5 5 3 5 5 5 5 5 5 5 3 5 3 3 5 3 5 3 5 3 5 5 5 5 5 3 5 5 3 5 5 5 5 5 3 5 5 5 5 3 3 5 5 5 5 5 5 5 5 5 5 5 5 5 5 5 5 5 5 5 3 5 3 5 5 5 3 5 5 5 3 5 5 5 5 5 3 3 5 5 5 3 5 3 5 5 5 3 3 5 5 3 3 5 3 3 3 5 3 5 5 5 3 3 5 5 5 5 5 5 5 5 5 5 5 3 3 5 5 3 5 5 5 5 5 5 5 5 5 5 5 5 5 3 5 5 5 5 5 5 5 5 3 3 5 5 5 3 5 5 3 5 5 5 5 5 3 3 5 3 5 5 5 5 5 5 5 5 5 5 5 5 5 5 5 5 5 5 5 5 5 5 5 5 5 5 5 5 3 5 5 5 5 5 5 5 5 5 5 5 3 3 5 5 3 5 5 5 5 5 5 5 5 5 3 5 5 3 5 5 5 5 5 3 5 5 5 5 5 5 5 5 5 5 5 3 5 5 5 5 5 3 5 5 5 3 5 5 5 5 5 5 5 5 5 3 3 5 5 5 5 5 3 5 5 5 3 3 5 5 5 5 5 5 5 5 5 5 5 5 5 5 5 5 5 5 5 5 5 5 5 5 5 5 5 5 5 5 5 5 5 5 5 5 5 5 5 5 5 5 5 5 5 5 5 5 5 5 5 5 5 3 5 5 5 5 3 5 5 5 5 5 5 5 5 5 5 5 5 5 5 5 5 5 3 5 3 5 5 5 3 5 5 5 5 5 5 5 5 5 5 5 5 5 3 5 5 5 5 5 5 5 5 5 5 5 5 5 5 5 5 5 5 5 5 5 5 3 5 3 5 5 5 3 5 5 3 5 5 3 3 3 5 5 5 5 5 5 5 3 5 5 3 5 5 5 5 5 5 5 5 5 5 5 3 5 5 5 5 5 3 5 5 5 5 5 5 5 5 5 5 5 5 3 5 5 5 5 5 5 3 5 5 5 5 5 5 5 5 5 5 5 5 5 5 5 5 5 5 5 5 5 5 5 5 5 5 3 5 3 5 5 5 5 5 5 5 5 5 5 5 5 5 5 5 5 3 5 5 5 5 3 5 5 5 5 5 3 5 5 5 3 5 5 3 5 5 5 5 5 5 5 5 3 5 5 5 5 5 5 5 5 5 5 5 5 5 5 5 5 5 5 5 5 5 5 5 5 3 5 5 5 5 5 5 5 5 5 3 5 3 5 5 5 5 5 5 5 5 5 3 5 5 5 5 5 5 5 5 5 5 5 5 5 3 5 5 5 3 5 5 3 5 3 5 3 3 5 5 5 3 3 5 3 5 5 5 3 5 5 5 5 5 5 5 3 5 5 5 5 5 3 5 5 5 3 3 3 5 5 5 5 5 5 3 5 5 5 5 5 5 5 5 5 5 5 3 5 3 5 5 5 3 5 5 3 5 5 5 5 5 5 5 5 5 5 5 5 5 5 5 3 5 5 5 5 5 5 5 5 5 5 5 5 5 5 5 3 5 5 5 5 5 3 5 5 5 5 3 5 5 5 5 5 5 5 5 5 3 5 5 5 3 3 5 5 3 5 5 3 5 5 3 5 5 5 5 3 5 5 3 5 5 5 5 5 5 5 5 5 5 5 3 5 5 5 5 5 5 5 5 5 5 3 5 5 5 5 5 5 5 5 5 5 5 5 5 3 5 5 5 5 5 5 3 3 5 5 5 5 3 5 5 3 5 5 3 5 5 5 5 5 5 3 3 5 5 5 3 5 5 5 5 5 5 5 3 5 5 5 5 3 5 5 5 5 5 5 5 5 5 3 5 5 5 5 3 5 5 5 5 5 5 5 5 3 5 5 5 5 5 5 5 5 5 5 5 5 5 5 5 5 5 5 5 5 5 5 5 5 3 5 5 3 5 3 5 5 5 5 5 5 5 5 5 3 5 3 5 5 5 5 5 5 5 3 5 5 5 3 5 5 3 5 5 5 3 5 3 5 5 5 3 5 5 5 5 5 3 3 5 5 5 5 5 5 5 3 5 5 3 5 5 5 5 5 5 5 5 5 5 5 5 5 5 5 5 5 5 5 5 5 5 5 5 5 5 5 5 5 5 3 3 5 5 5 5 5 3 5 3 5 5 3 5 5 5 5 5 5 5 5 5 5 5 5 5 3 5 5 5 5 3 5 5 5 5 5 5 5 5 5 5 5 5 5 5 5 5 5 5 3 5 3 5 5 3 5 5 5 5 5 5 3 5 5 5 5 5 5 5 5 5 5 5 5 5 5 5 5 5 5 5 3 5 5 5 5 3 5 5 5 5 5 5 3 5 5 5 5 3 5 5 5 5 3 3 5 5 3 5 5 5 5 3 5 3 5 3 5 3 5 5 3 5 5 5 5 3 5 5 5 3 5 5 5 5 5 5 5 3 5 5 5 5 3 5 3 5 3 5 5 5 5 5 3 5 3 5 3 5 5 5 5 5 5 5 5 5 5 5 5 5 5 5 5 5 5 5 5 5 5 5 5 5 5 5 5 3 5 5 5 5 3 5 5 5 5 5 3 5 5 5 5 5 5 3 5 5 5 5 5 5 5 5 5 5 5 5 5 5 3 5 5 5 5 5 5 3 5 5 5 5 5 5 5 3 5 5 3 5 5 3 5 5 5 5 5 5 5 5 5 5 3 5 5 5 5 5 5 5 5 5 5 5 5 5 5 5 5 5 5 5 5 5 5 5 5 5 3 5 5 3 5 5 5 3 5 5 5 5 5 5 5 5 5 5 5 5 5 5 5 5 5 5 5 5 5 3 5 5 5 3 5 5 3 5 5 5 5 5 5 5 5 5 5 5 5 5 5 5 5 5 3 5 5 3 5 5 5 5 3 5 5 5 5 5 5 5 5 5 5 5 5 5 5 3 5 5 5 5 3 5 5 5 5 5 3 5 3 5 5 5 5 5 3 5 5 5 5 3 5 5 5 5 3 5 5 5 5 5 5 5 5 3 5 5 5 5 3 5 5 5 5 3 5 5 5 5 5 5 5 5 5 5 5 5 3 5 5 5 3 5 5 5 5 3 5 5 5 5 3 5 5 5 5 5 5 5 5 5 5 5 5 3 5 5 5 5 5 5 5 5 5 5 5 5 3 5 5 5 5 5 5 5 5 5 5 5 5 5 5 5 5 5 5 5 5 5 5 5 5 5 5 5 5 5 5 5 5 5 5 5 5 5 5 5 3 5 5 5 5 5 5 5 5 3 5 3 5 5 5 5 5 5 5 5 5 5 5 5 5 5 5 5 5 5 5 5 5 5 5 5 5 5 5 5 5 5 5 5 5 5 5 5 5 5 5 5 5 5 5 5 5 5 5 5 5 5 5 5 5 5 5 5 5 5 5 5 5 5 5 5 5 5 5 5 5 5 5 5 5 5 5 5 5 5 5 5 5 5 5 5 3 5 5 5 5 5 5 5 5 5 5 5 5 5 5 5 5 5 5 5 5 5 5 5 5 5 3 5 5 5 5 5 5 5 3 5 5 5 5 3 3 5 5 3 3 5 5 5 3 5 5 3 3 5 5 5 5 5 5 5 3 5 5 3 5 5 5 5 5 3 5 5 5 5 5 5 5 5 5 5 5 5 5 5 5 5 5 5 5 5 5 5 5 5 5 5 5 5 5 5 5 5 5 5 5 5 5 5 5 5 5 5 5 5 5 5 5 5 5 5 5 5 5 5 5 5 5 5 5 5 5 5 5 5 5 5 5 5 5 5 3 5 3 5 5 5 5 5 3 3 5 5 5 5 5 5 5 5 5 5 5 5 5 5 5 5 5 5 3 5 5 3 5 5 3 5 3 5 5 3 3 3 5 5 5 5 5 3 5 5 5 5 3 5 5 5 5 3 5 5 5 5 5 3 5 3 5 5 5 5 5 3 5 5 5 3 5 5 5 5 5 5 5 5 5 5 5 5 5 5 5 5 5 5 5 5 5 3 5 5 5 5 5 5 5 5 5 5 5 5 5 5 5 5 3 5 5 3 5 5 5 5 5 5 5 3 5 5 5 5 5 5 5 5 5 5 5 5 5 5 5 5 5 3 5 5 5 5 5 3 5 5 3 5 5 5 5 5 3 5 5 5 5 5 5 5 5 5 5 3 5 5 3 5 5 5 5 5 3 3 3 3 5 5 5 5 3 5 5 5 5 5 5 3 5 5 5 5 5 5 5 5 5 5 5 5 5 3 5 5 5 5 3 3 5 5 5 5 5 5 5 5 5 5 5 5 5 3 5 5 5 5 3 3 5 5 5 3 3 5 3 5 5 5 5 3 3 5 5 5 5 5 5 5 5 5 3 5 5 5 5 5 5 5 5 5 5 5 5 5 5 5 5 5 5 5 3 5 5 5 5 5 5 5 5 5 5 5 5 5 5 5 5 5 5 5 5 5 5 5 5 5 5 5 3 5 5 5 5 5 5 5 5 5 5 3 5 3 5 5 3 5 5 5 5 5 5 5 5 5 5 5 3 5 5 3 5 3 5 5 5 5 5 5 5 5 5 5 5 3 5 5 5 5 5 5 3 5 5 5 5 3 5 5 5 5 5 5 5 5 5 5 5 3 5 5 5 5 5 5 5 5 5 5 5 5 5 5 5 5 5 3 5 5 5 5 5 5 5 3 5 5 5 5 5 5 5 5 5 3 5 5 5 5 3 3 5 5 5 5 5 5 5 5 5 5 5 5 5 5 5 5 5 5 5 5 5 5 5 5 5 5 5 5 5 5 5 5 5 5 5 5 5 5 5 5 5 5 5 5 5 5 5 5 5 5 5 5 5 5 5 5 5 5 5 5 5 5 5 5 5 5 5 5 5 5 5 5 5 5 5 5 5 5 5 5 5 5 5 5 5 3 5 3 5 5 5 5 5 5 5 5 5 5 5 3 5 5 5 3 5 5 5 5 5 5 5 5 5 5 3 5 5 5 5 5 5 5 5 5 5 5 5 5 5 5 5 5 3 5 5 3 5 5 5 5 5 3 5 3 5 3 5 5 5 5 5 5 5 5 5 5 5 5 5 5 5 5 5 5 5 5 5 5 5 5 5 5 5 5 5 5 5 5 5 5 5 5 5 5 5 5 5 5 5 3 5 5 3 5 5 5 3 5 5 5 5 5 5 5 5 5 5 5 5 5 5 5 5 5 5 5 5 5 5 5 5 5 5 5 5 5 5 5 5 5 5 5 5 5 5 5 5 5 5 5 3 5 5 5 5 3 5 5 5 5 5 5 5 5 3 5 5 5 3 5 5 5 5 5 5 5 3 5 5 5 5 5 3 5 5 5 5 5 5 5 5 5 5 5 5 5 5 5 5 3 3 5 5 5 3 5 3 5 5 5 5 5 5 5 5 5 5 5 5 5 5 3 5 5 3 3 5 5 5 5 5 5 5 5 5 5 3 5 5 3 5 5 5 5 3 5 5 3 5 5 5 5 5 5 3 5 5 5 5 5 5 3 5 5 3 5 3 5 5 5 5 5 5 5 5 5 5 5 5 5 5 5 5 5 5 3 5 5 5 5 5 5 5 5 5 5 5 3 5 5 5 5 5 5 5 5 5 5 5 3 5 5 5 5 5 3 5 5 5 5 5 5 5 5 5 5 5 5 3 5 5 5 5 5 3 5 3 5 5 5 5 5 5 5 5 5 5 5 5 5 5 5 5 5 5 5 5 5 5 3 5 5 5 5 3 5 5 5 5 5 5 5 5 5 5 5 5 5 5 5 5 5 5 5 5 5 5 5 5 5 5 5 5 5 5 5 5 5 5 5 5 5 5 5 5 5 5 5 5 5 5 5 3 5 5 5 5 5 5 5 5 5 5 5 5 5 5 5 5 3 5 5 5 5 5 5 5 5 5 5 5 5 5 5 5 3 5 5 3 5 3 5 5 5 5 5 5 3 3 5 3 5 5 5 5 5 5 5 5 5 3 5 3 5 5 5 5 5 5 5 5 5 3 3 5 3 5 5 5 5 5 5 5 3 5 3 5 5 5 5 5 5 5 5 5 5 5 5 5 5 5 5 3 5 5 3 5 5 5 5 5 3 5 5 5 5 5 5 5 5 5 5 5 5 5 5 5 5 5 5 5 5 5 3 5 5 5 5 5 5 5 5 5 5 5 5 5 5 5 5 5 5 5 3 5 5 5 5 3 5 5 5 3 5 5 5 5 5 5 5 5 5 5 5 5 3 5 5 5 5 5 5 5 5 5 5 5 5 5 5 5 5 5 5 5 5 5 3 5 5 5 5 3 5 5 5 3 5 5 5 5 5 5 5 5 5 5 5 3 5 5 5 5 3 5 5 5 5 5 5 5 3 5 5 5 5 5 5 5 5 5 5 5 5 5 5 5 3 5 5 5 5 5 5 5 3 5 5 3 5 5 3 5 5 5 3 5 5 5 5 5 3 5 5 5 3 5 5 5 5 5 5 5 5 5 5 5 5 5 3 5 5 5 5 5 5 3 5 5 5 5 3 5 5 5 5 3 3 5 3 5 3 5 5 5 5 5 5 3 5 5 5 5 5 3 5 5 5 5 5 5 3 5 5 3 5 5 5 3 3 5 5 5 5 5 5 5 3 5 5 5 5 5 3 5 5 3 5 5 5 5 3 5 3 5 5 5 5 5 3 5 5 5 3 3 5 5 5 5 5 3 5 5 5 5 3 5 3 5 5 5 3 3 5 3 3 5 5 3 5 5 3 5 3 5 5 3 5 5 5 3 5 3 3 5 3 5 5 5 5 3 5 3 5 5 3 5 3 5 5 5 5 5 5 5 5 5 5 5 3 5 5 5 3 5 5 5 5 5 3 5 5 5 5 5 3 5 5 5 5 5 5 5 5 5 3 5 5 5 3 5 5 5 5 5 5 5 5 5 5 5 5 3 5 5 5 5 5 5 5 5 5 5 3 3 5 3 5 5 5 5 3 5 3 3 5 5 5 3 5 5 3 5 3 5 5 3 5 5 3 5 5 5 5 5 3 5 5 5 3 5 3 5 5 5 5 3 5 5 5 5 5 5 3 5 5 5 5 5 5 5 5 5 3 5 5 5 5 5 5 5 5 5 5 3 5 5 5 5 3 5 5 3 5 5 5 3 5 5 5 5 5 5 3 5 5 5 5 5 5 5 5 5 5 5 5 3 5 5 5 5 3 5 5 3 3 5 3 5 5 5 5 3 5 5 5 5 5 5 5 5 5 5 5 5 5 5 5 5 5 5 5 5 5 5 5 5 5 5 5 5 3 5 5 5 5 5 5 5 5 5 3 5 5 5 3 5 5 5 5 5 5 5 5 5 5 5 5 5 5 5 5 5 3 5 5 3 3 5 5 3 5 3 5 3 5 5 5 5 5 5 5 5 5 5 5 5 5 5 5 5 5 5 5 5 5 5 5 5 5 5 5 5 5 5 5 5 5 5 3 5 5 5 5 5 5 5 5 5 5 5 5 5 5 5 5 5 3 5 5 5 5 5 5 5 3 5 5 5 5 5 5 5 5 5 5 5 3 5 5 5 5 5 5 5 5 5 5 5 5 5 5 5 5 5 5 5 5 5 5 5 5 5 5 5 5 5 5 5 5 5 5 5 5 5 5 5 5 5 5 5 5 5 5 5 5 5 5 5 5 5 5 5 5 5 5 5 5 5 5 5 5 5 5 5 5 5 5 5 5 5 5 5 5 5 5 5 3 5 5 5 3 5 3 5 5 5 5 5 5 5 5 5 5 5 3 5 5 5 5 3 5 5 5 3 5 5 5 5 5 5 5 5 5 5 5 5 5 5 5 5 5 5 5 5 5 5 5 5 5 5 5 5 5 5 5 5 5 5 5 5 5 5 5 3 5 5 5 5 5 5 5 5 5 5 5 5 5 5 5 3 3 5 5 5 5 5 5 5 5 5 5 5 5 3 3 5 5 5 5 5 5 5 5 5 5 5 5 5 3 3 5 5 5 5 5 3 5 3 3 5 3 5 3 5 3 5 3 5 5 3 5 3 5 5 5 5 5 5 5 3 3 3 5 5 5 3 5 5 5 3 5 3 3 5 5 3 5 5 5 5 5 5 5 5 5 5 5 5 5 3 5 5 5 5 3 5 3 5 3 5 5 5 3 5 5 5 5 5 5 3 5 5 5 5 3 5 5 5 3 5 5 5 5 5 5 5 5 5 5 5 5 5 5 5 3 5 5 3 5 5 5 5 5 5 5 5 5 5 3 5 5 5 3 5 3 5 5 5 5 3 5 3 5 3 3 3 5 5 5 5 3 5 5 5 3 3 3 5 3 5 5 5 5 5 5 5 5 5 5 5 5 3 5 5 5 5 5 5 3 5 5 5 5 5 5 3 5 5 5 5 5 3 5 3 5 5 5 5 5 3 3 5 5 5 3 5 5 5 3 3 5 3 5 5 3 5 5 5 5 5 5 5 5 3 5 5 5 5 5 5 3 5 5 5 5 5 5 5 5 5 5 5 5 5 5 3 3 5 5 5 5 5 5 5 5 5 5 5 5 5 5 5 5 5 5 5 5 3 5 5 5 5 3 5 3 5 5 5 3 3 5 5 3 5 5 5 5 5 5 5 5 5 5 5 5 5 5 3 5 5 5 3 5 5 5 5 5 5 5 5 5 5 5 5 5 5 5 5 5 5 5 5 5 5 5 5 5 5 5 5 5 5 5 5 5 5 5 5 5 5 5 5 5 5 5 5 5 5 5 5 3 5 5 5 5 5 5 5 5 3 5 5 5 5 5 5 5 5 3 5 5 5 3 5 5 5 3 5 3 3 5 5 5 3 5 5 5 3 5 5 5 3 5 5 3 5 3 5 3 5 5 3 5 3 5 3 5 5 5 3 5 5 3 5 5 5 5 5 5 5 5 5 5 5 5 5 5 5 5 5 5 3 5 5 5 3 5 5 5 5 5 3 5 5 3 5 5 5 5 5 5 5 5 3 5 5 3 5 3 5 5 3 5 5 5 5 5 5 5 5 5 5 5 5 5 5 5 5 5 5 5 5 5 3 5 5 5 5 5 5 5 5 5 5 5 5 5 5 5 5 5 5 5 5 5 5 5 5 5 5 5 5 3 5 5 5 5 5 5 5 3 5 5 5 5 5 5 5 5 5 5 5 3 5 5 5 3 5 5 5 5 3 5 5 5 3 5 5 5 5 3 5 5 3 5 5 5 5 5 3 5 5 5 5 5 5 5 5 5 5 5 5 3 5 5 5 5 5 3 5 5 5 5 5 5 5 5 5 5 5 5 5 5 5 5 3 5 5 5 5 5 5 5 5 5 5 5 5 5 5 5 5 5 5 5 3 5 3 3 5 5 5 5 5 5 5 5 5 5 5 3 5 3 5 5 5 5 5 5 5 5 5 5 5 5 5 5 5 5 5 3 5 5 5 5 3 5 5 5 5 5 5 5 5 5 5 3 5 5 5 5 5 5 5 3 5 5 3 5 5 5 5 3 5 3 5 5 5 5 5 5 5 5 5 5 5 5 5 5 3 5 5 5 3 5 5 3 5 5 5 5 5 5 5 3 5 5 5 5 5 5 5 5 5 5 5 5 5 5 5 5 5 5 5 5 5 5 5 5 5 5 5 5 5 5 5 5 5 5 5 5 5 5 3 3 5 5 5 5 5 5 5 5 3 5 5 5 5 5 5 5 5 5 5 5 5 5 5 5 5 5 5 5 5 5 5 5 5 5 5 5 5 5 5 5 3 5 5 3 5 5 5 3 5 3 5 3 5 5 5 5 5 5 3 5 3 5 3 5 3 5 3 5 3 5 5 5 3 5 5 3 3 5 5 3 3 3 5 3 5 5 5 3 5 3 3 5 5 3 5 5 5 5 5 5 5 3 5 3 5 3 5 5 5 5 5 5 5 5 5 5 3 5 5 5 5 5 3 3 5 5 5 5 5 5 5 5 5 5 5 5 5 5 5 5 5 5 5 5 5 5 5 5 5 5 5 5 5 5 5 5 5 5 5 5 5 3 5 5 5 3 5 5 5 5 5 5 5 5 5 5 5 5 5 5 5 3 5 5 5 3 5 5 5 5 5 5 5 5 5 5 5 5 5 3 3 5 5 5 3 5 3 5 5 5 5 5 5 5 5 5 5 5 5 5 5 5 3 5 5 5 3 5 5 5 5 3 5 3 5 5 5 5 5 5 5 3 5 5 3 3 5 5 5 5 5 5 5 5 5 5 5 5 3 5 5 5 5 3 5 5 5 5 5 5 5 5 5 5 5 5 5 5 5 5 5 5 5 5 5 5 5 3 5 5 5 5 5 5 5 5 5 5 5 5 5 5 5 5 5 5 5 5 5 5 5 5 5 3 5 3 5 5 5 3 5 5 5 3 3 5 5 3 5 5 3 5 5 5 5 5 5 5 5 5 5 5 5 5 5 5 5 5 3 5 5 5 5 5 5 5 3 5 5 5 5 5 5 5 5 5 5 5 5 3 5 5 5 5 5 5 5 5 5 5 5 5 5 5 5 5 5 5 5 5 5 5 5 3 3 5 5 5 5 5 5 5 3 5 5 5 5 5 5 5 5 5 5 5 5 5 5 5 5 5 5 5 5 5 5 5 5 5 5 5 5 5 5 5 5 5 5 5 5 5 5 5 5 5 5 5 5 5 5 5 5 5 5 5 5 5 5 5 5 5 5 5 5 5 5 5 5 5 5 5 5 5 5 5 5 5 5 5 5 5 5 5 5 5 5 3 5 5 3 5 5 5 5 5 5 5 5 5 5 5 5 5 5 5 5 5 5 5 5 5 5 5 5 5 5 5 5 5 5 5 5 5 3 5 5 5 5 5 5 5 5 5 5 5 5 5 5 3 3 5 5 5 5 5 5 5 5 5 3 5 5 5 3 5 5 5 5 5 5 5 5 5 5 5 5 5 5 5 5 5 5 5 5 5 5 5 5 5 5 5 5 3 5 5 5 5 5 5 5 5 5 5 5 5 5 5 5 5 3 5 5 5 5 5 5 5 3 5 5 5 3 5 5 5 5 5 5 5 5 5 5 5 5 5 5 5 3 5 5 5 5 5 5 3 5 5 5 3 5 5 5 5 5 5 5 5 3 5 5 5 3 5 3 5 5 5 5 5 5 5 5 5 5 5 5 5 5 5 5 5 5 5 5 5 5 5 5 5 5 5 5 5 5 5 5 5 5 5 5 5 5 5 5 5 5 5 5 5 5 5 5 5 5 5 5 5 5 5 5 5 5 5 5 5 3 5 5 5 5 5 3 5 5 5 5 5 5 5 5 5 5 5 5 5 5 5 5 5 5 3 5 5 5 5 5 5 5 3 5 5 3 5 5 5 5 5 5 5 5 5 5 5 3 5 3 3 5 5 3 5 5 3 5 5 5 3 3 3 5 5 5 5 3 5 3 3 5 5 5 3 5 3 5 5 5 3 5 5 5 5 5 5 3 5 5 5 5 3 5 3 3 3 5 5 5 3 3 5 5 5 3 5 5 5 3 5 3 3 5 5 3 3 5 3 5 5 5 3 5 5 5 3 3 3 5 3 3 5 5 5 3 5 5 5 3 5 3 5 5 5 3 5 5 3 3 5 3 5 5 3 5 3 5 5 5 5 3 5 5 5 3 5 5 5 5 5 5 5 5 5 5 5 5 5 5 5 5 5 5 5 5 5 5 5 5 3 5 5 3 5 3 3 5 3 3 5 5 5 5 3 5 5 5 5 5 5 5 5 3 5 5 5 5 5 5 3 5 3 5 5 5 5 5 5 5 3 5 5 3 5 5 5 3 5 3 5 5 5 5 3 5 3 
</DataArray>
</Cells>
<PointData Scalars="" Vectors="displacement," Tensors="">
<DataArray type="Float64" Name="displacement" NumberOfComponents="3" format="ascii">
0.014999787949817602 -2.1073533768694894e-08 0 0.014999231352011312 2.8183340365606014e-07 0 0.014690174714418117 -1.9639240206552639e-07 0 0.014999965173175556 5.5828139129127374e-09 0 0.014941971776381567 1.3839037575237323e-06 0 0.014999231352011312 2.8183340365606014e-07 0 0.014690174714418117 -1.9639240206552639e-07 0 0.014879316338170835 -5.4648579136360524e-06 0 0.015000000541270087 3.2866520597713388e-10 0 0.014998876614047819 -1.5166368870780175e-06 0 0.014999994009186082 -2.0019363578955021e-09 0 0.01488239896352039 -2.1195678740774447e-05 0 0.014879316338170835 -5.4648579136360524e-06 0 0.014872823396065221 3.0303791173061525e-05 0 0.014688657924820494 5.2224472244951873e-08 0 0.014115004135702318 -4.2111076385906745e-05 0 0.014690174714418117 -1.9639240206552639e-07 0 0.01488239896352039 -2.1195678740774447e-05 0 0.014879316338170835 -5.4648579136360524e-06 0 0.014687907149016939 -6.6839728987688169e-07 0 0.01338525667430001 -0.00016641998747601123 0 0.013872952596743123 8.9514776379572337e-08 0 0.01338525667430001 -0.00016641998747601123 0 0.01340085397761898 4.1691994067387417e-05 0 0.013872952596743123 8.9514776379572337e-08 0 0.01338525667430001 -0.00016641998747601123 0 0.01340085397761898 4.1691994067387417e-05 0 0.013093998291487025 9.1519894730256196e-05 0 0.01338525667430001 -0.00016641998747601123 0 0.013093998291487025 9.1519894730256196e-05 0 0.012681197804464148 2.2708170745960499e-05 0 0.014115004135702318 -4.2111076385906745e-05 0 0.013787864272659095 8.4206207585712942e-05 0 0.013093998291487025 9.1519894730256196e-05 0 0.012681197804464148 2.2708170745960499e-05 0 0.012779283620638385 0.00019547882313217886 0 0.01340085397761898 4.1691994067387417e-05 0 0.013872952596743123 8.9514776379572337e-08 0 0.013057034348901719 2.777588282275202e-07 0 0.01340085397761898 4.1691994067387417e-05 0 0.013093998291487025 9.1519894730256196e-05 0 0.013057034348901719 2.777588282275202e-07 0 0.013787864272659095 8.4206207585712942e-05 0 0.013546505920503729 0.0003633033014129927 0 0.014757122371653874 0.00019283816565405864 0 0.014889654917364444 0.00012320985857459558 0 0.014724640266591038 0.00041334743155041725 0 0.012681197804464148 2.2708170745960499e-05 0 0.012779283620638385 0.00019547882313217886 0 0.012592132865960561 0.00026174409217493647 0 0.01488239896352039 -2.1195678740774447e-05 0 0.014889654917364444 0.00012320985857459558 0 0.014872823396065221 3.0303791173061525e-05 0 0.014960892553169241 4.129268985643679e-05 0 0.014820863061344685 5.0152021092423452e-05 0 0.014900418432289012 -1.124245473096579e-05 0 0.014757122371653874 0.00019283816565405864 0 0.014960892553169241 4.129268985643679e-05 0 0.014820863061344685 5.0152021092423452e-05 0 0.014771031051601156 0.00017961931715512703 0 0.014911626600497982 3.8473655673847968e-05 0 0.014757122371653874 0.00019283816565405864 0 0.014889654917364444 0.00012320985857459558 0 0.014872823396065221 3.0303791173061525e-05 0 0.014820863061344685 5.0152021092423452e-05 0 0.014900418432289012 -1.124245473096579e-05 0 0.014808128243867706 -2.1971919328339946e-05 0 0.014941971776381567 1.3839037575237323e-06 0 0.014911626600497982 3.8473655673847968e-05 0 0.014998876614047819 -1.5166368870780175e-06 0 0.014960892553169241 4.129268985643679e-05 0 0.014962803509505646 -1.0280306154302342e-05 0 0.014960892553169241 4.129268985643679e-05 0 0.014900418432289012 -1.124245473096579e-05 0 0.014962803509505646 -1.0280306154302342e-05 0 0.014998876614047819 -1.5166368870780175e-06 0 0.014962803509505646 -1.0280306154302342e-05 0 0.014999994009186082 -2.0019363578955021e-09 0 0.014962803509505646 -1.0280306154302342e-05 0 0.014999994009186082 -2.0019363578955021e-09 0 0.014999779159938101 -8.6759438637036172e-08 0 0.014900418432289012 -1.124245473096579e-05 0 0.014962803509505646 -1.0280306154302342e-05 0 0.014999779159938101 -8.6759438637036172e-08 0 0.014999779159938101 -8.6759438637036172e-08 0 0.014873971139762892 -3.0032753806997155e-05 0 0.014808128243867706 -2.1971919328339946e-05 0 0.014999779159938101 -8.6759438637036172e-08 0 0.014873971139762892 -3.0032753806997155e-05 0 0.014999671973983086 -5.6696719916225217e-09 0 0.014873971139762892 -3.0032753806997155e-05 0 0.014999671973983086 -5.6696719916225217e-09 0 0.014885460619942075 1.8655835661781491e-06 0 0.014873971139762892 -3.0032753806997155e-05 0 0.014885460619942075 1.8655835661781491e-06 0 0.014532505812347706 -9.0048681816258457e-05 0 0.014873971139762892 -3.0032753806997155e-05 0 0.014808128243867706 -2.1971919328339946e-05 0 0.014532505812347706 -9.0048681816258457e-05 0 0.014900418432289012 -1.124245473096579e-05 0 0.014999779159938101 -8.6759438637036172e-08 0 0.014808128243867706 -2.1971919328339946e-05 0 0.014999913976452433 4.8221940360305681e-08 0 0.014885460619942075 1.8655835661781491e-06 0 0.014947823728608074 -7.7044978640129834e-05 0 0.014999671973983086 -5.6696719916225217e-09 0 0.014999913976452433 4.8221940360305681e-08 0 0.014885460619942075 1.8655835661781491e-06 0 0.014885460619942075 1.8655835661781491e-06 0 0.014947823728608074 -7.7044978640129834e-05 0 0.014532505812347706 -9.0048681816258457e-05 0 0.013744944157604955 -0.00010958255025861631 0 0.013986645839943974 0.00021569955899928026 0 0.013678477181337113 0.00016154182291707768 0 0.013744944157604955 -0.00010958255025861631 0 0.014532505812347706 -9.0048681816258457e-05 0 0.013986645839943974 0.00021569955899928026 0 0.014362773784819632 -7.7091158378100454e-05 0 0.014524498228571886 -8.903893796404401e-05 0 0.014532505812347706 -9.0048681816258457e-05 0 0.013986645839943974 0.00021569955899928026 0 0.01433074157182938 0.00022788363771118517 0 0.013986645839943974 0.00021569955899928026 0 0.01433074157182938 0.00022788363771118517 0 0.013937357538107749 0.00048617614215181474 0 0.013678477181337113 0.00016154182291707768 0 0.013617502846548449 0.00046060712417954195 0 0.013481005297120331 0.00036266296050378445 0 0.013986645839943974 0.00021569955899928026 0 0.013678477181337113 0.00016154182291707768 0 0.013617502846548449 0.00046060712417954195 0 0.014757122371653874 0.00019283816565405864 0 0.014820863061344685 5.0152021092423452e-05 0 0.0146433014444856 8.3381836527199297e-05 0 0.014820863061344685 5.0152021092423452e-05 0 0.014808128243867706 -2.1971919328339946e-05 0 0.0146433014444856 8.3381836527199297e-05 0 0.014532505812347706 -9.0048681816258457e-05 0 0.0146433014444856 8.3381836527199297e-05 0 0.01433074157182938 0.00022788363771118517 0 0.014808128243867706 -2.1971919328339946e-05 0 0.014532505812347706 -9.0048681816258457e-05 0 0.0146433014444856 8.3381836527199297e-05 0 0.01433074157182938 0.00022788363771118517 0 0.014557656354243761 0.00025316727562846558 0 0.014327483930278719 0.00042562050088453636 0 0.014757122371653874 0.00019283816565405864 0 0.014557656354243761 0.00025316727562846558 0 0.014724640266591038 0.00041334743155041725 0 0.0146433014444856 8.3381836527199297e-05 0 0.01433074157182938 0.00022788363771118517 0 0.014557656354243761 0.00025316727562846558 0 0.014757122371653874 0.00019283816565405864 0 0.0146433014444856 8.3381836527199297e-05 0 0.014557656354243761 0.00025316727562846558 0 0.014557656354243761 0.00025316727562846558 0 0.014327483930278719 0.00042562050088453636 0 0.014724640266591038 0.00041334743155041725 0 0.014327483930278719 0.00042562050088453636 0 0.014102779701607115 0.000791265929672186 0 0.014724640266591038 0.00041334743155041725 0 0.01433074157182938 0.00022788363771118517 0 0.014327483930278719 0.00042562050088453636 0 0.013937357538107749 0.00048617614215181474 0 0.014327483930278719 0.00042562050088453636 0 0.014102779701607115 0.000791265929672186 0 0.013937357538107749 0.00048617614215181474 0 0.01223462586552799 0.00076694774675303758 0 0.012350444812115394 0.00061246451909744619 0 0.012375799107252245 0.00030953990029457793 0 0.01319879851580461 0.00074329051539358878 0 0.013546505920503729 0.0003633033014129927 0 0.013617502846548449 0.00046060712417954195 0 0.013937357538107749 0.00048617614215181474 0 0.01342526467019748 0.00073463114343819591 0 0.013986645839943974 0.00021569955899928026 0 0.013617502846548449 0.00046060712417954195 0 0.013937357538107749 0.00048617614215181474 0 0.014102779701607115 0.000791265929672186 0 0.013937357538107749 0.00048617614215181474 0 0.01342526467019748 0.00073463114343819591 0 0.013617502846548449 0.00046060712417954195 0 0.01342526467019748 0.00073463114343819591 0 0.013380557026709941 0.0006406746453877138 0 0.01342526467019748 0.00073463114343819591 0 0.013380557026709941 0.0006406746453877138 0 0.013218783879505652 0.00079476235681379874 0 0.01342526467019748 0.00073463114343819591 0 0.013002552885321443 0.00090824399654065564 0 0.013218783879505652 0.00079476235681379874 0 0.014102779701607115 0.000791265929672186 0 0.01342526467019748 0.00073463114343819591 0 0.013002552885321443 0.00090824399654065564 0 0.013002552885321443 0.00090824399654065564 0 0.012394886752691247 0.0005685253904184884 0 0.012962481975859596 0.0006165898048493565 0 0.013002552885321443 0.00090824399654065564 0 0.01246538186157559 0.00082323831487318775 0 0.012394886752691247 0.0005685253904184884 0 0.013002552885321443 0.00090824399654065564 0 0.013218783879505652 0.00079476235681379874 0 0.012962481975859596 0.0006165898048493565 0 0.01223462586552799 0.00076694774675303758 0 0.012350444812115394 0.00061246451909744619 0 0.012142410413464935 0.00087643318897052068 0 0.012330949459351172 0.0007186273154769202 0 0.012350444812115394 0.00061246451909744619 0 0.012142410413464935 0.00087643318897052068 0 0.01319879851580461 0.00074329051539358878 0 0.013057214541371534 0.00086251945326710176 0 0.01223462586552799 0.00076694774675303758 0 0.013002552885321443 0.00090824399654065564 0 0.01246538186157559 0.00082323831487318775 0 0.01223462586552799 0.00076694774675303758 0 0.01246538186157559 0.00082323831487318775 0 0.012142410413464935 0.00087643318897052068 0 0.01246538186157559 0.00082323831487318775 0 0.011974439300057864 0.00071532365643927579 0 0.012394886752691247 0.0005685253904184884 0 0.01246538186157559 0.00082323831487318775 0 0.012142410413464935 0.00087643318897052068 0 0.011974439300057864 0.00071532365643927579 0 0.012142410413464935 0.00087643318897052068 0 0.011371505564040506 0.0010382303966646564 0 0.011974439300057864 0.00071532365643927579 0 0.012062555761928414 0.00091074952636036142 0 0.011868264972592229 0.00096226819342829254 0 0.012330949459351172 0.0007186273154769202 0 0.012142410413464935 0.00087643318897052068 0 0.0123703543789279 0.00091542371181673745 0 0.011868264972592229 0.00096226819342829254 0 0.011887945926054166 0.00049138099578418777 0 0.012330949459351172 0.0007186273154769202 0 0.0123703543789279 0.00091542371181673745 0 0.012495986178859336 0.00052377512818946499 0 0.0123703543789279 0.00091542371181673745 0 0.012495986178859336 0.00052377512818946499 0 0.012707749895453741 0.0010355656821198112 0 0.012330949459351172 0.0007186273154769202 0 0.012350444812115394 0.00061246451909744619 0 0.012495986178859336 0.00052377512818946499 0 0.012495986178859336 0.00052377512818946499 0 0.012424231002587011 0.00036677039594588137 0 0.01250193314667135 0.0004251854150844048 0 0.012495986178859336 0.00052377512818946499 0 0.012424231002587011 0.00036677039594588137 0 0.012304069102046272 0.00026594984979242981 0 0.012495986178859336 0.00052377512818946499 0 0.012304069102046272 0.00026594984979242981 0 0.01242051716156552 -5.7177853327552904e-05 0 0.012674883162459197 0.00055379781847790033 0 0.011887945926054166 0.00049138099578418777 0 0.012304069102046272 0.00026594984979242981 0 0.012111095085978421 7.5414074451461374e-05 0 0.01242051716156552 -5.7177853327552904e-05 0 0.012111095085978421 7.5414074451461374e-05 0 0.011749147184405808 5.0688885706045229e-05 0 0.012090842435680258 0.00020656749927081884 0 0.012304069102046272 0.00026594984979242981 0 0.012111095085978421 7.5414074451461374e-05 0 0.012090842435680258 0.00020656749927081884 0 0.011749147184405808 5.0688885706045229e-05 0 0.011425517660902657 2.8431831131533158e-07 0 0.012090842435680258 0.00020656749927081884 0 0.011749147184405808 5.0688885706045229e-05 0 0.011425517660902657 2.8431831131533158e-07 0 0.011419765069863958 -1.6324554164551546e-05 0 0.012090842435680258 0.00020656749927081884 0 0.012423371488067511 0.00021148430387547403 0 0.012241431322657887 4.2110067171917346e-07 0 0.011425517660902657 2.8431831131533158e-07 0 0.012090842435680258 0.00020656749927081884 0 0.012241431322657887 4.2110067171917346e-07 0 0.012424231002587011 0.00036677039594588137 0 0.012090842435680258 0.00020656749927081884 0 0.012423371488067511 0.00021148430387547403 0 0.012424231002587011 0.00036677039594588137 0 0.012304069102046272 0.00026594984979242981 0 0.012090842435680258 0.00020656749927081884 0 0.012423371488067511 0.00021148430387547403 0 0.012756922670150991 0.0001730089936982006 0 0.012599237363287713 0.00029911592496611886 0 0.012424231002587011 0.00036677039594588137 0 0.012423371488067511 0.00021148430387547403 0 0.012599237363287713 0.00029911592496611886 0 0.012423371488067511 0.00021148430387547403 0 0.012241431322657887 4.2110067171917346e-07 0 0.012756922670150991 0.0001730089936982006 0 0.013093998291487025 9.1519894730256196e-05 0 0.013057034348901719 2.777588282275202e-07 0 0.012756922670150991 0.0001730089936982006 0 0.012241431322657887 4.2110067171917346e-07 0 0.013057034348901719 2.777588282275202e-07 0 0.012756922670150991 0.0001730089936982006 0 0.013093998291487025 9.1519894730256196e-05 0 0.012756922670150991 0.0001730089936982006 0 0.012779283620638385 0.00019547882313217886 0 0.012756922670150991 0.0001730089936982006 0 0.012779283620638385 0.00019547882313217886 0 0.012599237363287713 0.00029911592496611886 0 0.012599237363287713 0.00029911592496611886 0 0.012592132865960561 0.00026174409217493647 0 0.01250193314667135 0.0004251854150844048 0 0.012779283620638385 0.00019547882313217886 0 0.012599237363287713 0.00029911592496611886 0 0.012592132865960561 0.00026174409217493647 0 0.012681197804464148 2.2708170745960499e-05 0 0.012592132865960561 0.00026174409217493647 0 0.012375799107252245 0.00030953990029457793 0 0.012592132865960561 0.00026174409217493647 0 0.012375799107252245 0.00030953990029457793 0 0.01250193314667135 0.0004251854150844048 0 0.012350444812115394 0.00061246451909744619 0 0.012375799107252245 0.00030953990029457793 0 0.01250193314667135 0.0004251854150844048 0 0.012350444812115394 0.00061246451909744619 0 0.012495986178859336 0.00052377512818946499 0 0.01250193314667135 0.0004251854150844048 0 0.012424231002587011 0.00036677039594588137 0 0.012599237363287713 0.00029911592496611886 0 0.01250193314667135 0.0004251854150844048 0 0.012663770204815425 -0.0003355578934397787 0 0.012599473298412781 -0.00019858738968467994 0 0.013538321274441975 3.7015720587220925e-05 0 0.012599473298412781 -0.00019858738968467994 0 0.012558760430866196 -0.00035686047745744415 0 0.012601596710325026 -0.00034294250614887959 0 0.014927684880435782 -6.1834468175390293e-05 0 0.014907272586151687 -5.505589525738932e-05 0 0.014925013134141461 -4.5322353524765544e-05 0 0.014931610353740231 -4.5624825288560414e-05 0 0.014927684880435782 -6.1834468175390293e-05 0 0.014925013134141461 -4.5322353524765544e-05 0 0.014931610353740231 -4.5624825288560414e-05 0 0.014925013134141461 -4.5322353524765544e-05 0 0.014933917234161327 -3.4700527348486625e-05 0 0.014750963333851751 5.4526735892484671e-05 0 0.014208800372192135 -0.00014701539674140727 0 0.012663770204815425 -0.0003355578934397787 0 0.012599473298412781 -0.00019858738968467994 0 0.012601596710325026 -0.00034294250614887959 0 0.014809499678568715 -0.00010839601348088233 0 0.014867248167198793 -9.6589470808744888e-05 0 0.014860127905740303 -8.605095076549226e-05 0 0.014208800372192135 -0.00014701539674140727 0 0.013839018720395247 -0.00049618721592850959 0 0.014927684880435782 -6.1834468175390293e-05 0 0.014907272586151687 -5.505589525738932e-05 0 0.014867248167198793 -9.6589470808744888e-05 0 0.014208800372192135 -0.00014701539674140727 0 0.015130367907911306 -7.4628912232537696e-05 0 0.014907272586151687 -5.505589525738932e-05 0 0.014890715190143197 -4.8533003688069413e-05 0 0.014867248167198793 -9.6589470808744888e-05 0 0.014890715190143197 -4.8533003688069413e-05 0 0.0149191880390402 -3.3462651156413524e-05 0 0.014909365095230857 -1.6666797400291784e-06 0 0.014907272586151687 -5.505589525738932e-05 0 0.014890715190143197 -4.8533003688069413e-05 0 0.0149191880390402 -3.3462651156413524e-05 0 0.0149191880390402 -3.3462651156413524e-05 0 0.014933917234161327 -3.4700527348486625e-05 0 0.014942026187985385 -2.1478808892305879e-05 0 0.0149191880390402 -3.3462651156413524e-05 0 0.014909365095230857 -1.6666797400291784e-06 0 0.014942026187985385 -2.1478808892305879e-05 0 0.0149191880390402 -3.3462651156413524e-05 0 0.014925013134141461 -4.5322353524765544e-05 0 0.014933917234161327 -3.4700527348486625e-05 0 0.014907272586151687 -5.505589525738932e-05 0 0.0149191880390402 -3.3462651156413524e-05 0 0.014925013134141461 -4.5322353524765544e-05 0 0.014989304593907351 2.5633086528865887e-06 0 0.014993196442349668 -3.6581044038343996e-06 0 0.014990296315763103 -2.8667675297204207e-06 0 0.014947886425290208 3.2635097088328793e-06 0 0.014966231959918121 -1.2366410710432726e-05 0 0.0150000258925846 -2.4396798361650956e-08 0 0.014989304593907351 2.5633086528865887e-06 0 0.014993196442349668 -3.6581044038343996e-06 0 0.0150000258925846 -2.4396798361650956e-08 0 0.014989304593907351 2.5633086528865887e-06 0 0.014999841028872286 9.1396147513580597e-08 0 0.014947886425290208 3.2635097088328793e-06 0 0.014909191880096859 3.4514256894720477e-05 0 0.014909365095230857 -1.6666797400291784e-06 0 0.014909150749156263 3.9829301866141514e-05 0 0.014866734019045128 -5.1640702670305322e-06 0 0.014989304593907351 2.5633086528865887e-06 0 0.014909150749156263 3.9829301866141514e-05 0 0.014999841028872286 9.1396147513580597e-08 0 0.014909150749156263 3.9829301866141514e-05 0 0.014999841028872286 9.1396147513580597e-08 0 0.014999840268321895 4.6628117227124677e-09 0 0.014909150749156263 3.9829301866141514e-05 0 0.014860681316100799 8.5599226831665991e-05 0 0.014999840268321895 4.6628117227124677e-09 0 0.014860681316100799 8.5599226831665991e-05 0 0.014667054313704417 -6.7553991466414728e-05 0 0.014866734019045128 -5.1640702670305322e-06 0 0.014909150749156263 3.9829301866141514e-05 0 0.014860681316100799 8.5599226831665991e-05 0 0.014866734019045128 -5.1640702670305322e-06 0 0.014667054313704417 -6.7553991466414728e-05 0 0.014866734019045128 -5.1640702670305322e-06 0 0.014853704665583707 -0.00011073320799183587 0 0.014622217938077277 -4.3092245481314496e-05 0 0.01492621421746749 -0.0002017865736526206 0 0.014890715190143197 -4.8533003688069413e-05 0 0.014866734019045128 -5.1640702670305322e-06 0 0.014853704665583707 -0.00011073320799183587 0 0.014890715190143197 -4.8533003688069413e-05 0 0.014909365095230857 -1.6666797400291784e-06 0 0.014866734019045128 -5.1640702670305322e-06 0 0.01492621421746749 -0.0002017865736526206 0 0.013839018720395247 -0.00049618721592850959 0 0.014853704665583707 -0.00011073320799183587 0 0.014867248167198793 -9.6589470808744888e-05 0 0.014860127905740303 -8.605095076549226e-05 0 0.014890715190143197 -4.8533003688069413e-05 0 0.014853704665583707 -0.00011073320799183587 0 0.014867248167198793 -9.6589470808744888e-05 0 0.014667054313704417 -6.7553991466414728e-05 0 0.014729237090894253 -0.00023127629663890695 0 0.0144973042209183 -0.00032442926759705085 0 0.0144973042209183 -0.00032442926759705085 0 0.014214304986898015 -0.00013766057815639047 0 0.014245785674543689 -0.00052510140544093531 0 0.014667054313704417 -6.7553991466414728e-05 0 0.0144973042209183 -0.00032442926759705085 0 0.014214304986898015 -0.00013766057815639047 0 0.014214304986898015 -0.00013766057815639047 0 0.014537141846478288 4.6437653423662647e-05 0 0.014256712234452773 0.00022536157568801154 0 0.014667054313704417 -6.7553991466414728e-05 0 0.014214304986898015 -0.00013766057815639047 0 0.014537141846478288 4.6437653423662647e-05 0 0.014860681316100799 8.5599226831665991e-05 0 0.014537141846478288 4.6437653423662647e-05 0 0.014256712234452773 0.00022536157568801154 0 0.014827517997466833 9.779901090591467e-05 0 0.014620928067197113 0.00011474633679568984 0 0.014860681316100799 8.5599226831665991e-05 0 0.014667054313704417 -6.7553991466414728e-05 0 0.014537141846478288 4.6437653423662647e-05 0 0.014860681316100799 8.5599226831665991e-05 0 0.014999840268321895 4.6628117227124677e-09 0 0.015002073311839989 2.759799712835277e-05 0 0.014999840268321895 4.6628117227124677e-09 0 0.015002073311839989 2.759799712835277e-05 0 0.01500008137359954 -7.3724076158797393e-09 0 0.014214304986898015 -0.00013766057815639047 0 0.014256712234452773 0.00022536157568801154 0 0.013723356022585266 0.00014352472475999862 0 0.014620928067197113 0.00011474633679568984 0 0.014374448023173461 5.0054667615526093e-05 0 0.015002073311839989 2.759799712835277e-05 0 0.015000219392879568 -2.122754868492246e-05 0 0.01500008137359954 -7.3724076158797393e-09 0 0.014999913976452433 4.8221940360305681e-08 0 0.015000219392879568 -2.122754868492246e-05 0 0.01500008137359954 -7.3724076158797393e-09 0 0.014362773784819632 -7.7091158378100454e-05 0 0.014374448023173461 5.0054667615526093e-05 0 0.014999913976452433 4.8221940360305681e-08 0 0.014947823728608074 -7.7044978640129834e-05 0 0.015000219392879568 -2.122754868492246e-05 0 0.013744944157604955 -0.00010958255025861631 0 0.013678477181337113 0.00016154182291707768 0 0.013603129856528782 -2.1515842017389186e-06 0 0.013744944157604955 -0.00010958255025861631 0 0.013723356022585266 0.00014352472475999862 0 0.013603129856528782 -2.1515842017389186e-06 0 0.014214304986898015 -0.00013766057815639047 0 0.013723356022585266 0.00014352472475999862 0 0.013603129856528782 -2.1515842017389186e-06 0 0.013603129856528782 -2.1515842017389186e-06 0 0.013481005297120331 0.00036266296050378445 0 0.013183131923187911 0.00047404542909162517 0 0.013594763565680613 6.2287508491178471e-06 0 0.013599016785452755 5.7274304766567686e-06 0 0.014214304986898015 -0.00013766057815639047 0 0.013603129856528782 -2.1515842017389186e-06 0 0.014008342110555232 -0.0004791584981010059 0 0.013678477181337113 0.00016154182291707768 0 0.013603129856528782 -2.1515842017389186e-06 0 0.013481005297120331 0.00036266296050378445 0 0.013481005297120331 0.00036266296050378445 0 0.013183131923187911 0.00047404542909162517 0 0.013380557026709941 0.0006406746453877138 0 0.013617502846548449 0.00046060712417954195 0 0.013481005297120331 0.00036266296050378445 0 0.013380557026709941 0.0006406746453877138 0 0.013183131923187911 0.00047404542909162517 0 0.013223570498860818 0.00071556863609006764 0 0.013103982737700018 0.00069639742460871458 0 0.013183131923187911 0.00047404542909162517 0 0.013380557026709941 0.0006406746453877138 0 0.013223570498860818 0.00071556863609006764 0 0.013218783879505652 0.00079476235681379874 0 0.013210990019558482 0.00076969565483753287 0 0.013223570498860818 0.00071556863609006764 0 0.013380557026709941 0.0006406746453877138 0 0.013218783879505652 0.00079476235681379874 0 0.013223570498860818 0.00071556863609006764 0 0.013218783879505652 0.00079476235681379874 0 0.013262391103646728 0.00062369385533267766 0 0.013229468779341693 0.0005427582336809876 0 0.013208634284090411 0.00077424308145951489 0 0.013229871167122405 0.00070113400573379545 0 0.013218783879505652 0.00079476235681379874 0 0.013229468779341693 0.0005427582336809876 0 0.012962481975859596 0.0006165898048493565 0 0.013229871167122405 0.00070113400573379545 0 0.013160685842885978 0.00064859594482944577 0 0.013262391103646728 0.00062369385533267766 0 0.013256834142890169 0.00050860117567904978 0 0.013229468779341693 0.0005427582336809876 0 0.013262391103646728 0.00062369385533267766 0 0.013238999874557013 0.00047742837161666616 0 0.013256834142890169 0.00050860117567904978 0 0.013210990019558482 0.00076969565483753287 0 0.013223570498860818 0.00071556863609006764 0 0.013158458982722694 0.00074675784091110661 0 0.013223570498860818 0.00071556863609006764 0 0.013103982737700018 0.00069639742460871458 0 0.013158458982722694 0.00074675784091110661 0 0.013103982737700018 0.00069639742460871458 0 0.013105026305395095 0.00074283027946554314 0 0.013158458982722694 0.00074675784091110661 0 0.013210990019558482 0.00076969565483753287 0 0.013158458982722694 0.00074675784091110661 0 0.013129685733179857 0.00078647859004518682 0 0.013105026305395095 0.00074283027946554314 0 0.013158458982722694 0.00074675784091110661 0 0.013129685733179857 0.00078647859004518682 0 0.013160685842885978 0.00064859594482944577 0 0.013119680378041738 0.00044908015447543681 0 0.013238999874557013 0.00047742837161666616 0 0.01314668331018262 0.00044288693910163145 0 0.013079790629205668 0.00039557613012551504 0 0.013129685733179857 0.00078647859004518682 0 0.013089187403078855 0.00078183337966968849 0 0.013074105436734894 0.00079527842612062897 0 0.013419226311622524 0.00029238859644857497 0 0.013297951183737972 0.00037480217397552147 0 0.013419226311622524 0.00029238859644857497 0 0.013119680378041738 0.00044908015447543681 0 0.013082330592873585 0.00078407709767206303 0 0.013089187403078855 0.00078183337966968849 0 0.013074105436734894 0.00079527842612062897 0 0.013105026305395095 0.00074283027946554314 0 0.01308368697305584 0.000786747906667941 0 0.013089187403078855 0.00078183337966968849 0 0.013105026305395095 0.00074283027946554314 0 0.013129685733179857 0.00078647859004518682 0 0.013089187403078855 0.00078183337966968849 0 0.013103982737700018 0.00069639742460871458 0 0.013105026305395095 0.00074283027946554314 0 0.01308368697305584 0.000786747906667941 0 0.013721455567224514 6.4468594007318343e-05 0 0.013419226311622524 0.00029238859644857497 0 0.014318027002519189 -0.000612554003684372 0 0.013992719024661133 -0.00038196170691197546 0 0.014228624644108399 -0.0006163931909334918 0 0.014318027002519189 -0.000612554003684372 0 0.014072167188991933 -8.823804426805236e-06 0 0.013992719024661133 -0.00038196170691197546 0 0.013992719024661133 -0.00038196170691197546 0 0.014228624644108399 -0.0006163931909334918 0 0.013781902977298928 -0.00057200648503273567 0 0.014228624644108399 -0.0006163931909334918 0 0.014245785674543689 -0.00052510140544093531 0 0.014611345178893989 -0.00053260807022646002 0 0.014008342110555232 -0.0004791584981010059 0 0.014318027002519189 -0.000612554003684372 0 0.014245785674543689 -0.00052510140544093531 0 0.013599016785452755 5.7274304766567686e-06 0 0.013721455567224514 6.4468594007318343e-05 0 0.014318027002519189 -0.000612554003684372 0 0.014228624644108399 -0.0006163931909334918 0 0.014245785674543689 -0.00052510140544093531 0 0.014214304986898015 -0.00013766057815639047 0 0.014008342110555232 -0.0004791584981010059 0 0.014245785674543689 -0.00052510140544093531 0 0.0144973042209183 -0.00032442926759705085 0 0.014245785674543689 -0.00052510140544093531 0 0.014611345178893989 -0.00053260807022646002 0 0.014729237090894253 -0.00023127629663890695 0 0.0144973042209183 -0.00032442926759705085 0 0.014611345178893989 -0.00053260807022646002 0 0.014729237090894253 -0.00023127629663890695 0 0.014611345178893989 -0.00053260807022646002 0 0.014888573423735294 -0.0003799749605185539 0 0.013637713172429119 -0.00090597280299607296 0 0.013165236540623234 -0.00070538150916492663 0 0.013107580521903698 -0.0011841187807083119 0 0.01414772345106158 -0.00074917781286459406 0 0.013839018720395247 -0.00049618721592850959 0 0.013637713172429119 -0.00090597280299607296 0 0.013482707779490448 -0.00058587566283106155 0 0.013165236540623234 -0.00070538150916492663 0 0.013637713172429119 -0.00090597280299607296 0 0.013781902977298928 -0.00057200648503273567 0 0.013482707779490448 -0.00058587566283106155 0 0.014228624644108399 -0.0006163931909334918 0 0.013637713172429119 -0.00090597280299607296 0 0.013781902977298928 -0.00057200648503273567 0 0.014229546594287214 -0.0006115078295979993 0 0.01414772345106158 -0.00074917781286459406 0 0.013781902977298928 -0.00057200648503273567 0 0.013601667651516285 -0.00034076766081191334 0 0.013482707779490448 -0.00058587566283106155 0 0.013992719024661133 -0.00038196170691197546 0 0.013601667651516285 -0.00034076766081191334 0 0.013733559087557457 -0.00015013303458023494 0 0.013992719024661133 -0.00038196170691197546 0 0.013781902977298928 -0.00057200648503273567 0 0.013601667651516285 -0.00034076766081191334 0 0.014072167188991933 -8.823804426805236e-06 0 0.013992719024661133 -0.00038196170691197546 0 0.013733559087557457 -0.00015013303458023494 0 0.014072167188991933 -8.823804426805236e-06 0 0.013733559087557457 -0.00015013303458023494 0 0.013617215547395218 1.7342976113375327e-05 0 0.014072167188991933 -8.823804426805236e-06 0 0.013617215547395218 1.7342976113375327e-05 0 0.013510278907421933 0.00023642300484657549 0 0.013601667651516285 -0.00034076766081191334 0 0.013733559087557457 -0.00015013303458023494 0 0.013439630709020404 -0.00011041244088621862 0 0.013733559087557457 -0.00015013303458023494 0 0.013617215547395218 1.7342976113375327e-05 0 0.013439630709020404 -0.00011041244088621862 0 0.013439630709020404 -0.00011041244088621862 0 0.013118934704386962 -1.8200325219459034e-05 0 0.013325588923249572 0.00011067105644931309 0 0.013617215547395218 1.7342976113375327e-05 0 0.013439630709020404 -0.00011041244088621862 0 0.013325588923249572 0.00011067105644931309 0 0.013439630709020404 -0.00011041244088621862 0 0.013289338269653041 -0.00034339048934355673 0 0.013118934704386962 -1.8200325219459034e-05 0 0.013289338269653041 -0.00034339048934355673 0 0.013482707779490448 -0.00058587566283106155 0 0.013165236540623234 -0.00070538150916492663 0 0.013601667651516285 -0.00034076766081191334 0 0.013439630709020404 -0.00011041244088621862 0 0.013289338269653041 -0.00034339048934355673 0 0.013601667651516285 -0.00034076766081191334 0 0.013289338269653041 -0.00034339048934355673 0 0.013482707779490448 -0.00058587566283106155 0 0.012966706454087436 -0.00027863975799689378 0 0.012769937461142534 -0.00051061554725569276 0 0.013165236540623234 -0.00070538150916492663 0 0.013289338269653041 -0.00034339048934355673 0 0.012966706454087436 -0.00027863975799689378 0 0.013165236540623234 -0.00070538150916492663 0 0.013289338269653041 -0.00034339048934355673 0 0.012966706454087436 -0.00027863975799689378 0 0.013118934704386962 -1.8200325219459034e-05 0 0.012966706454087436 -0.00027863975799689378 0 0.013118934704386962 -1.8200325219459034e-05 0 0.012779738610024351 2.9179169899715932e-05 0 0.012779738610024351 2.9179169899715932e-05 0 0.012627543973026819 -0.00022533872427526528 0 0.012455175778015757 6.2129092754222706e-05 0 0.012966706454087436 -0.00027863975799689378 0 0.012779738610024351 2.9179169899715932e-05 0 0.012627543973026819 -0.00022533872427526528 0 0.012966706454087436 -0.00027863975799689378 0 0.012769937461142534 -0.00051061554725569276 0 0.012627543973026819 -0.00022533872427526528 0 0.012769937461142534 -0.00051061554725569276 0 0.012627543973026819 -0.00022533872427526528 0 0.012391707340392071 -0.00049876241380088237 0 0.012531737443847718 -0.00055612993927029949 0 0.012440664185745361 -0.00036965515470230547 0 0.012769937461142534 -0.00051061554725569276 0 0.012728823047443646 -0.00086073746398707184 0 0.012391707340392071 -0.00049876241380088237 0 0.012769937461142534 -0.00051061554725569276 0 0.012728823047443646 -0.00086073746398707184 0 0.013165236540623234 -0.00070538150916492663 0 0.012531737443847718 -0.00055612993927029949 0 0.013839018720395247 -0.00049618721592850959 0 0.012728823047443646 -0.00086073746398707184 0 0.013165236540623234 -0.00070538150916492663 0 0.013107580521903698 -0.0011841187807083119 0 0.012610654529442123 -0.00031704365591250701 0 0.012558760430866196 -0.00035686047745744415 0 0.012601596710325026 -0.00034294250614887959 0 0.012663770204815425 -0.0003355578934397787 0 0.012601596710325026 -0.00034294250614887959 0 0.012597146585708843 -0.00034424817572694126 0 0.012663770204815425 -0.0003355578934397787 0 0.012597146585708843 -0.00034424817572694126 0 0.012506793922105261 -0.00035088356424260969 0 0.012610654529442123 -0.00031704365591250701 0 0.012597146585708843 -0.00034424817572694126 0 0.012506793922105261 -0.00035088356424260969 0 0.012610654529442123 -0.00031704365591250701 0 0.012601596710325026 -0.00034294250614887959 0 0.012597146585708843 -0.00034424817572694126 0 0.012411289267758866 0.00063050115532257425 0 0.012360288059827159 0.00056828389826355766 0 0.012299972757395474 0.00067686537609840461 0 0.012411289267758866 0.00063050115532257425 0 0.012360739465795923 0.00069335769469208209 0 0.012299972757395474 0.00067686537609840461 0 0.012411289267758866 0.00063050115532257425 0 0.012408059416755967 0.00070232227711045743 0 0.012448441564695968 0.00065425224412286778 0 0.012411289267758866 0.00063050115532257425 0 0.012360739465795923 0.00069335769469208209 0 0.012408059416755967 0.00070232227711045743 0 0.012448441564695968 0.00065425224412286778 0 0.012478113615042773 0.000615268772946087 0 0.012478444793156809 0.00067925967634809264 0 0.012478113615042773 0.000615268772946087 0 0.012451189249582823 0.00060606866398118782 0 0.012478444793156809 0.00067925967634809264 0 0.012408059416755967 0.00070232227711045743 0 0.012448441564695968 0.00065425224412286778 0 0.012478444793156809 0.00067925967634809264 0 0.012411289267758866 0.00063050115532257425 0 0.012448441564695968 0.00065425224412286778 0 0.012478113615042773 0.000615268772946087 0 0.012411289267758866 0.00063050115532257425 0 0.012478113615042773 0.000615268772946087 0 0.012454086854166367 0.00055368529288843339 0 0.012478113615042773 0.000615268772946087 0 0.012454086854166367 0.00055368529288843339 0 0.012525774338718985 0.00060768508535347142 0 0.012411289267758866 0.00063050115532257425 0 0.012454086854166367 0.00055368529288843339 0 0.012360288059827159 0.00056828389826355766 0 0.012454086854166367 0.00055368529288843339 0 0.012424483154071434 0.00047713176849659524 0 0.012360288059827159 0.00056828389826355766 0 0.012706427068408363 0.00043720721584830939 0 0.01245652198970779 0.00048251420194389988 0 0.012622985276344393 0.00027385148411858276 0 0.012959622129548284 0.00039841710286820904 0 0.012424483154071434 0.00047713176849659524 0 0.012454086854166367 0.00055368529288843339 0 0.012468776513151876 0.00048332179867807988 0 0.012424483154071434 0.00047713176849659524 0 0.012779738610024351 2.9179169899715932e-05 0 0.012622985276344393 0.00027385148411858276 0 0.012455175778015757 6.2129092754222706e-05 0 0.012779738610024351 2.9179169899715932e-05 0 0.012622985276344393 0.00027385148411858276 0 0.012959622129548284 0.00039841710286820904 0 0.013118934704386962 -1.8200325219459034e-05 0 0.012959622129548284 0.00039841710286820904 0 0.013325588923249572 0.00011067105644931309 0 0.013118934704386962 -1.8200325219459034e-05 0 0.012779738610024351 2.9179169899715932e-05 0 0.012959622129548284 0.00039841710286820904 0 0.012454086854166367 0.00055368529288843339 0 0.012468776513151876 0.00048332179867807988 0 0.012525774338718985 0.00060768508535347142 0 0.012468776513151876 0.00048332179867807988 0 0.012525774338718985 0.00060768508535347142 0 0.012609620504496238 0.00046451349824085168 0 0.012609620504496238 0.00046451349824085168 0 0.012730493440488858 0.00044074181202184595 0 0.012765829554035605 0.00052231612754681067 0 0.012525774338718985 0.00060768508535347142 0 0.012609620504496238 0.00046451349824085168 0 0.012765829554035605 0.00052231612754681067 0 0.012706427068408363 0.00043720721584830939 0 0.013167800655159616 0.0002490131112920316 0 0.012959622129548284 0.00039841710286820904 0 0.013510278907421933 0.00023642300484657549 0 0.013325588923249572 0.00011067105644931309 0 0.012468776513151876 0.00048332179867807988 0 0.012609620504496238 0.00046451349824085168 0 0.012726066325794736 0.00033616455705519967 0 0.012609620504496238 0.00046451349824085168 0 0.012730493440488858 0.00044074181202184595 0 0.012726066325794736 0.00033616455705519967 0 0.012730493440488858 0.00044074181202184595 0 0.012726066325794736 0.00033616455705519967 0 0.012826306157891309 0.0004313165983484481 0 0.013617215547395218 1.7342976113375327e-05 0 0.013510278907421933 0.00023642300484657549 0 0.013325588923249572 0.00011067105644931309 0 0.013132108276445988 0.00015902992757881393 0 0.012726066325794736 0.00033616455705519967 0 0.012843026400264444 0.00031940357888858849 0 0.013132108276445988 0.00015902992757881393 0 0.012843026400264444 0.00031940357888858849 0 0.01307910594506268 0.000247609060922578 0 0.013419226311622524 0.00029238859644857497 0 0.013167800655159616 0.0002490131112920316 0 0.013046683592420505 0.00041912486427002035 0 0.013119680378041738 0.00044908015447543681 0 0.01289793849830349 0.00033892775227074531 0 0.013119680378041738 0.00044908015447543681 0 0.012843026400264444 0.00031940357888858849 0 0.012982120816483022 0.00042299897955322153 0 0.013084821779054843 0.00025091055083781581 0 0.012726066325794736 0.00033616455705519967 0 0.012843026400264444 0.00031940357888858849 0 0.012826306157891309 0.0004313165983484481 0 0.012843026400264444 0.00031940357888858849 0 0.012826306157891309 0.0004313165983484481 0 0.012982120816483022 0.00042299897955322153 0 0.012730493440488858 0.00044074181202184595 0 0.012826306157891309 0.0004313165983484481 0 0.012765829554035605 0.00052231612754681067 0 0.012826306157891309 0.0004313165983484481 0 0.012982120816483022 0.00042299897955322153 0 0.012950507401361848 0.00050882630664251984 0 0.012982120816483022 0.00042299897955322153 0 0.012950507401361848 0.00050882630664251984 0 0.013045037704845615 0.00048219785714432288 0 0.012950507401361848 0.00050882630664251984 0 0.012765829554035605 0.00052231612754681067 0 0.013003809246444214 0.0006552459926693541 0 0.012525774338718985 0.00060768508535347142 0 0.012765829554035605 0.00052231612754681067 0 0.013003809246444214 0.0006552459926693541 0 0.012950507401361848 0.00050882630664251984 0 0.013003809246444214 0.0006552459926693541 0 0.013060233655625135 0.00054183483487705447 0 0.012527745078273247 0.00062028619928600963 0 0.012723726827259443 0.00061739240799976031 0 0.012826306157891309 0.0004313165983484481 0 0.012950507401361848 0.00050882630664251984 0 0.012765829554035605 0.00052231612754681067 0 0.012394904762523111 0.00062497463997103269 0 0.012392966540208491 0.0005840829852422814 0 0.012436262228669384 0.00057662982663466518 0 0.012525774338718985 0.00060768508535347142 0 0.012394904762523111 0.00062497463997103269 0 0.012436262228669384 0.00057662982663466518 0 0.012392966540208491 0.0005840829852422814 0 0.012436262228669384 0.00057662982663466518 0 0.01238548371331673 0.00055659153601559698 0 0.012478113615042773 0.000615268772946087 0 0.012525774338718985 0.00060768508535347142 0 0.012476249886172932 0.00059904141285542912 0 0.012525774338718985 0.00060768508535347142 0 0.012436262228669384 0.00057662982663466518 0 0.012476249886172932 0.00059904141285542912 0 0.012436262228669384 0.00057662982663466518 0 0.012476249886172932 0.00059904141285542912 0 0.012451189249582823 0.00060606866398118782 0 0.012301167043404036 0.00063819142951764408 0 0.012821268530672692 0.00055666953651176728 0 0.012436262228669384 0.00057662982663466518 0 0.012451189249582823 0.00060606866398118782 0 0.012429855921591453 0.00064113977256371004 0 0.012478113615042773 0.000615268772946087 0 0.012476249886172932 0.00059904141285542912 0 0.012451189249582823 0.00060606866398118782 0 0.012451189249582823 0.00060606866398118782 0 0.012429855921591453 0.00064113977256371004 0 0.0122777268682632 0.00063714614696969596 0 0.012404403854365482 0.00063795577780514175 0 0.012470426867858321 0.00062157166933610284 0 0.012436262228669384 0.00057662982663466518 0 0.01238548371331673 0.00055659153601559698 0 0.012330597628536284 0.00054956186557189438 0 0.011671860890062911 0.00022459437828610849 0 0.011729743768171229 0.00034093113695811802 0 0.011620721423843235 0.00035998349712377137 0 0.011978460096522901 0.00038088225690981084 0 0.012176228669224297 0.00048934197900022053 0 0.012392966540208491 0.0005840829852422814 0 0.01238548371331673 0.00055659153601559698 0 0.012373887541704008 0.00056529789654733299 0 0.01238548371331673 0.00055659153601559698 0 0.012373887541704008 0.00056529789654733299 0 0.012375905235165494 0.00056492797370224417 0 0.011671860890062911 0.00022459437828610849 0 0.011774301620013363 0.00023718108434165949 0 0.011729743768171229 0.00034093113695811802 0 0.011808176029321313 0.0002904452407493745 0 0.011774301620013363 0.00023718108434165949 0 0.011729743768171229 0.00034093113695811802 0 0.011808176029321313 0.0002904452407493745 0 0.011821717292741689 0.00021586229117345168 0 0.011774301620013363 0.00023718108434165949 0 0.011808176029321313 0.0002904452407493745 0 0.011821717292741689 0.00021586229117345168 0 0.011880604841811001 0.00023404372052292577 0 0.011821717292741689 0.00021586229117345168 0 0.011774301620013363 0.00023718108434165949 0 0.011768376896699673 0.00016412043192952808 0 0.011671860890062911 0.00022459437828610849 0 0.011774301620013363 0.00023718108434165949 0 0.011768376896699673 0.00016412043192952808 0 0.011821717292741689 0.00021586229117345168 0 0.011840261296257587 0.00015751815466458411 0 0.011880604841811001 0.00023404372052292577 0 0.011840261296257587 0.00015751815466458411 0 0.011884595867490909 0.00011392336120843378 0 0.011880604841811001 0.00023404372052292577 0 0.011821717292741689 0.00021586229117345168 0 0.011768376896699673 0.00016412043192952808 0 0.011840261296257587 0.00015751815466458411 0 0.011884595867490909 0.00011392336120843378 0 0.011813218250493243 8.8089145805385048e-05 0 0.011884063153219986 7.0118772417505572e-06 0 0.011840261296257587 0.00015751815466458411 0 0.011884595867490909 0.00011392336120843378 0 0.011813218250493243 8.8089145805385048e-05 0 0.011768376896699673 0.00016412043192952808 0 0.011813218250493243 8.8089145805385048e-05 0 0.011717877221264964 3.1961832567213787e-05 0 0.011768376896699673 0.00016412043192952808 0 0.011840261296257587 0.00015751815466458411 0 0.011813218250493243 8.8089145805385048e-05 0 0.011978460096522901 0.00038088225690981084 0 0.012468252233751745 0.00046902042711604208 0 0.011671860890062911 0.00022459437828610849 0 0.011768376896699673 0.00016412043192952808 0 0.011717877221264964 3.1961832567213787e-05 0 0.012392966540208491 0.0005840829852422814 0 0.012373887541704008 0.00056529789654733299 0 0.012354459016717861 0.00062288850947422013 0 0.012394904762523111 0.00062497463997103269 0 0.012392966540208491 0.0005840829852422814 0 0.012354459016717861 0.00062288850947422013 0 0.012723726827259443 0.00061739240799976031 0 0.012468252233751745 0.00046902042711604208 0 0.013003809246444214 0.0006552459926693541 0 0.013162488301799448 0.00059809870013106665 0 0.013154525930886844 0.00054360395483376027 0 0.013154525930886844 0.00054360395483376027 0 0.013118061797961451 0.00049427592443382579 0 0.013174171681060843 0.00050137743200341363 0 0.013154525930886844 0.00054360395483376027 0 0.013174171681060843 0.00050137743200341363 0 0.01320815925166186 0.00052049043063536458 0 0.013003809246444214 0.0006552459926693541 0 0.013154525930886844 0.00054360395483376027 0 0.013060233655625135 0.00054183483487705447 0 0.013154525930886844 0.00054360395483376027 0 0.013060233655625135 0.00054183483487705447 0 0.013118061797961451 0.00049427592443382579 0 0.012950507401361848 0.00050882630664251984 0 0.013060233655625135 0.00054183483487705447 0 0.013045037704845615 0.00048219785714432288 0 0.013060233655625135 0.00054183483487705447 0 0.013045037704845615 0.00048219785714432288 0 0.013118061797961451 0.00049427592443382579 0 0.012982120816483022 0.00042299897955322153 0 0.013045037704845615 0.00048219785714432288 0 0.0130901712381798 0.00044711434066823654 0 0.013045037704845615 0.00048219785714432288 0 0.0130901712381798 0.00044711434066823654 0 0.013118061797961451 0.00049427592443382579 0 0.013118061797961451 0.00049427592443382579 0 0.013174171681060843 0.00050137743200341363 0 0.013158465319744798 0.00046986113510530722 0 0.0130901712381798 0.00044711434066823654 0 0.013118061797961451 0.00049427592443382579 0 0.013158465319744798 0.00046986113510530722 0 0.0130901712381798 0.00044711434066823654 0 0.013158465319744798 0.00046986113510530722 0 0.01314668331018262 0.00044288693910163145 0 0.013158465319744798 0.00046986113510530722 0 0.01314668331018262 0.00044288693910163145 0 0.013187746001173437 0.00046644235643561157 0 0.0130901712381798 0.00044711434066823654 0 0.01314668331018262 0.00044288693910163145 0 0.013079790629205668 0.00039557613012551504 0 0.012982120816483022 0.00042299897955322153 0 0.0130901712381798 0.00044711434066823654 0 0.013079790629205668 0.00039557613012551504 0 0.013238999874557013 0.00047742837161666616 0 0.013217313356799897 0.00048933103881495783 0 0.013256834142890169 0.00050860117567904978 0 0.013238999874557013 0.00047742837161666616 0 0.013187746001173437 0.00046644235643561157 0 0.013217313356799897 0.00048933103881495783 0 0.013238999874557013 0.00047742837161666616 0 0.01314668331018262 0.00044288693910163145 0 0.013187746001173437 0.00046644235643561157 0 0.013158465319744798 0.00046986113510530722 0 0.013187746001173437 0.00046644235643561157 0 0.013217313356799897 0.00048933103881495783 0 0.013174171681060843 0.00050137743200341363 0 0.013217313356799897 0.00048933103881495783 0 0.013235948669598112 0.00050545674360040992 0 0.013174171681060843 0.00050137743200341363 0 0.013158465319744798 0.00046986113510530722 0 0.013217313356799897 0.00048933103881495783 0 0.013217313356799897 0.00048933103881495783 0 0.013235948669598112 0.00050545674360040992 0 0.013256834142890169 0.00050860117567904978 0 0.013235948669598112 0.00050545674360040992 0 0.01320815925166186 0.00052049043063536458 0 0.013263061562525895 0.00052343720360575267 0 0.013235948669598112 0.00050545674360040992 0 0.013263061562525895 0.00052343720360575267 0 0.013253753750907281 0.00049175621101391314 0 0.013162488301799448 0.00059809870013106665 0 0.013154525930886844 0.00054360395483376027 0 0.013263061562525895 0.00052343720360575267 0 0.013154525930886844 0.00054360395483376027 0 0.01320815925166186 0.00052049043063536458 0 0.013263061562525895 0.00052343720360575267 0 0.013174171681060843 0.00050137743200341363 0 0.013235948669598112 0.00050545674360040992 0 0.01320815925166186 0.00052049043063536458 0 0.012468252233751745 0.00046902042711604208 0 0.012564395633742294 0.00027425622178938309 0 0.011813218250493243 8.8089145805385048e-05 0 0.011717877221264964 3.1961832567213787e-05 0 0.011884063153219986 7.0118772417505572e-06 0 0.011884595867490909 0.00011392336120843378 0 0.011884063153219986 7.0118772417505572e-06 0 0.011977780678153737 4.868218503905067e-05 0 0.012564395633742294 0.00027425622178938309 0 0.012695540905817811 0.00021205716722458374 0 0.011884063153219986 7.0118772417505572e-06 0 0.011977780678153737 4.868218503905067e-05 0 0.012266733702327543 5.6310287809723646e-05 0 0.013263061562525895 0.00052343720360575267 0 0.013253753750907281 0.00049175621101391314 0 0.01317534171637073 0.00035006759476971375 0 0.013235948669598112 0.00050545674360040992 0 0.013253753750907281 0.00049175621101391314 0 0.013256834142890169 0.00050860117567904978 0 0.013253753750907281 0.00049175621101391314 0 0.013256834142890169 0.00050860117567904978 0 0.013229468779341693 0.0005427582336809876 0 0.013253753750907281 0.00049175621101391314 0 0.013229468779341693 0.0005427582336809876 0 0.01317534171637073 0.00035006759476971375 0 0.013229468779341693 0.0005427582336809876 0 0.01317534171637073 0.00035006759476971375 0 0.012962481975859596 0.0006165898048493565 0 0.011977780678153737 4.868218503905067e-05 0 0.012266733702327543 5.6310287809723646e-05 0 0.012184825003155852 0.00014497171931352395 0 0.012184851972753544 0.00020797528534425116 0 0.012184825003155852 0.00014497171931352395 0 0.012337535839904785 0.00016545451391933752 0 0.012266733702327543 5.6310287809723646e-05 0 0.012184825003155852 0.00014497171931352395 0 0.012337535839904785 0.00016545451391933752 0 0.012184851972753544 0.00020797528534425116 0 0.012184825003155852 0.00014497171931352395 0 0.012084077307744925 0.0001974154342246169 0 0.011973326167369422 6.4758435556027449e-05 0 0.011944486184721449 0.00021791292230985992 0 0.011884595867490909 0.00011392336120843378 0 0.011977780678153737 4.868218503905067e-05 0 0.011880604841811001 0.00023404372052292577 0 0.011977780678153737 4.868218503905067e-05 0 0.012084077307744925 0.0001974154342246169 0 0.012026871290312525 0.00026745091456880564 0 0.011977780678153737 4.868218503905067e-05 0 0.012184825003155852 0.00014497171931352395 0 0.012084077307744925 0.0001974154342246169 0 0.011944486184721449 0.00021791292230985992 0 0.012051192593524825 0.00034818324629133516 0 0.012026871290312525 0.00026745091456880564 0 0.012026870461411498 0.00026637629856895908 0 0.012017140235698789 0.0001703086591783923 0 0.011808176029321313 0.0002904452407493745 0 0.011880604841811001 0.00023404372052292577 0 0.011824279907328011 0.00036915282332069139 0 0.012026870461411498 0.00026637629856895908 0 0.012017140235698789 0.0001703086591783923 0 0.011954901055366498 0.00020623820013879478 0 0.012184851972753544 0.00020797528534425116 0 0.012084077307744925 0.0001974154342246169 0 0.012026870461411498 0.00026637629856895908 0 0.012084077307744925 0.0001974154342246169 0 0.012026871290312525 0.00026745091456880564 0 0.012026870461411498 0.00026637629856895908 0 0.012184851972753544 0.00020797528534425116 0 0.012026870461411498 0.00026637629856895908 0 0.012246779676287118 0.00025278033547820986 0 0.012184851972753544 0.00020797528534425116 0 0.012246779676287118 0.00025278033547820986 0 0.012337535839904785 0.00016545451391933752 0 0.011975857573277208 0.00025404385434767081 0 0.012201388335298245 0.00027884304777004944 0 0.012026870461411498 0.00026637629856895908 0 0.011874975036344902 0.00026662487364827604 0 0.011954901055366498 0.00020623820013879478 0 0.011874975036344902 0.00026662487364827604 0 0.011888045541561509 0.00013184266653165362 0 0.01173771148970199 0.0002438049315065345 0 0.011874975036344902 0.00026662487364827604 0 0.011888045541561509 0.00013184266653165362 0 0.011954901055366498 0.00020623820013879478 0 0.011888045541561509 0.00013184266653165362 0 0.012017140235698789 0.0001703086591783923 0 0.011954901055366498 0.00020623820013879478 0 0.01017606467936851 -3.9168488416990542e-05 0 0.0098818887337979808 -0.0001375895194708888 0 0.0086626994577076143 -0.0002777125246787907 0 0.0086275700706412613 -0.00025528060818382577 0 0.0086474076501715635 -0.00025579955348587559 0 0.012051192593524825 0.00034818324629133516 0 0.0098818887337979808 -0.0001375895194708888 0 0.011888045541561509 0.00013184266653165362 0 0.012017140235698789 0.0001703086591783923 0 0.011993625190517176 3.8217856345015742e-05 0 0.0086275700706412613 -0.00025528060818382577 0 0.0086474076501715635 -0.00025579955348587559 0 0.0086249940607170342 -0.00024878675121935145 0 0.0086626994577076143 -0.0002777125246787907 0 0.0086474076501715635 -0.00025579955348587559 0 0.0086681602318681716 -0.00025777846963379215 0 0.0086474076501715635 -0.00025579955348587559 0 0.008653950334915398 -0.00023770781131648622 0 0.0086681602318681716 -0.00025777846963379215 0 0.0086474076501715635 -0.00025579955348587559 0 0.008653950334915398 -0.00023770781131648622 0 0.0086249940607170342 -0.00024878675121935145 0 0.0072296543665714705 -0.00042723667728233064 0 0.0077193324093005524 -0.00042771477064863799 0 0.0060114777646887718 -0.00059746769344047861 0 0.0059474553907400739 -0.0004710277325976117 0 0.0060805696158681291 -0.0004655804718624772 0 0.0059474553907400739 -0.0004710277325976117 0 0.0060805696158681291 -0.0004655804718624772 0 0.005997346044073852 -0.00033963908912758252 0 0.0060114777646887718 -0.00059746769344047861 0 0.0059474553907400739 -0.0004710277325976117 0 0.0058958358587403127 -0.0005469914277748606 0 0.0058057735572022142 -0.00044184228819604875 0 0.0058554756445215487 -0.00049699431499403948 0 0.0058443701853142108 -0.00039451375431517817 0 0.0059474553907400739 -0.0004710277325976117 0 0.0058554756445215487 -0.00049699431499403948 0 0.0058443701853142108 -0.00039451375431517817 0 0.0058554756445215487 -0.00049699431499403948 0 0.0058310993169032417 -0.00055257369144144804 0 0.0058958358587403127 -0.0005469914277748606 0 0.0059474553907400739 -0.0004710277325976117 0 0.0058554756445215487 -0.00049699431499403948 0 0.0058958358587403127 -0.0005469914277748606 0 0.0058057735572022142 -0.00044184228819604875 0 0.0058554756445215487 -0.00049699431499403948 0 0.0057626816943661015 -0.00049718632028846745 0 0.0058554756445215487 -0.00049699431499403948 0 0.0058310993169032417 -0.00055257369144144804 0 0.0057626816943661015 -0.00049718632028846745 0 0.0060114777646887718 -0.00059746769344047861 0 0.0058958358587403127 -0.0005469914277748606 0 0.0058372381935773527 -0.00061404146168365394 0 0.0058310993169032417 -0.00055257369144144804 0 0.0058423319620326524 -0.00061371856891558843 0 0.0057866613483734787 -0.00056182865554891355 0 0.0067681237273887777 -0.00056747893258157983 0 0.0077193324093005524 -0.00042771477064863799 0 0.0058310993169032417 -0.00055257369144144804 0 0.0058958358587403127 -0.0005469914277748606 0 0.0058372381935773527 -0.00061404146168365394 0 0.0098818887337979808 -0.0001375895194708888 0 0.0082517703308595969 -0.0003432299906020184 0 0.0088811781474898415 -0.0002609533687701073 0 0.0088763602692398681 4.6923090521942892e-05 0 0.0085792359652833716 -8.1151081075522607e-06 0 0.0098818887337979808 -0.0001375895194708888 0 0.0077193324093005524 -0.00042771477064863799 0 0.0077193324093005524 -0.00042771477064863799 0 0.0082517703308595969 -0.0003432299906020184 0 0.0058423319620326524 -0.00061371856891558843 0 0.005803331393769786 -0.00062182899626232952 0 0.0057866613483734787 -0.00056182865554891355 0 0.0082517703308595969 -0.0003432299906020184 0 0.0088571266993259113 -0.00029786730108213524 0 0.0065179757468835434 -0.0010332285404233059 0 0.006093004859787564 -0.0007112236436637385 0 0.00605618312472672 -0.0011147267878655256 0 0.0056948101119532806 -0.00052471663461816699 0 0.0057866613483734787 -0.00056182865554891355 0 0.0057626816943661015 -0.00049718632028846745 0 0.0082517703308595969 -0.0003432299906020184 0 0.0056988986547297955 -0.00048667070020716973 0 0.005803331393769786 -0.00062182899626232952 0 0.0056948101119532806 -0.00052471663461816699 0 0.0057866613483734787 -0.00056182865554891355 0 0.0058310993169032417 -0.00055257369144144804 0 0.0057866613483734787 -0.00056182865554891355 0 0.0057626816943661015 -0.00049718632028846745 0 0.0056948101119532806 -0.00052471663461816699 0 0.0057626816943661015 -0.00049718632028846745 0 0.0057071058756820222 -0.00047517598939349084 0 0.0057626816943661015 -0.00049718632028846745 0 0.0057039391813248899 -0.00042552891438376775 0 0.0057530221405494705 -0.00040377610302489835 0 0.0057626816943661015 -0.00049718632028846745 0 0.0057071058756820222 -0.00047517598939349084 0 0.0057039391813248899 -0.00042552891438376775 0 0.0058057735572022142 -0.00044184228819604875 0 0.0057626816943661015 -0.00049718632028846745 0 0.0057530221405494705 -0.00040377610302489835 0 0.0056519147774949886 -0.00044812858239538079 0 0.005650426812646085 -0.00043186595198915323 0 0.005675040271187896 -0.00045254829419829148 0 0.0056901183230121102 -0.00048427585431755034 0 0.0056519147774949886 -0.00044812858239538079 0 0.0055981027376858531 -0.00045540055828435089 0 0.0056519147774949886 -0.00044812858239538079 0 0.0056154065607625847 -0.00042016104436427029 0 0.005650426812646085 -0.00043186595198915323 0 0.0056519147774949886 -0.00044812858239538079 0 0.0056154065607625847 -0.00042016104436427029 0 0.0055981027376858531 -0.00045540055828435089 0 0.0057071058756820222 -0.00047517598939349084 0 0.0057039391813248899 -0.00042552891438376775 0 0.005675040271187896 -0.00045254829419829148 0 0.0057039391813248899 -0.00042552891438376775 0 0.005675040271187896 -0.00045254829419829148 0 0.0056499223655382584 -0.00039976976013622161 0 0.005650426812646085 -0.00043186595198915323 0 0.005675040271187896 -0.00045254829419829148 0 0.0056499223655382584 -0.00039976976013622161 0 0.0056948101119532806 -0.00052471663461816699 0 0.0057071058756820222 -0.00047517598939349084 0 0.005675040271187896 -0.00045254829419829148 0 0.0056948101119532806 -0.00052471663461816699 0 0.0056519147774949886 -0.00044812858239538079 0 0.005675040271187896 -0.00045254829419829148 0 0.0056988986547297955 -0.00048667070020716973 0 0.0057507134570754983 -0.00051976579647456029 0 0.006093004859787564 -0.0007112236436637385 0 0.0056901183230121102 -0.00048427585431755034 0 0.0057898838800330386 -0.00082464435309650985 0 0.0056901183230121102 -0.00048427585431755034 0 0.0057898838800330386 -0.00082464435309650985 0 0.0054958175807852073 -0.00066045626599263408 0 0.006093004859787564 -0.0007112236436637385 0 0.0056901183230121102 -0.00048427585431755034 0 0.0056519147774949886 -0.00044812858239538079 0 0.006093004859787564 -0.0007112236436637385 0 0.0057898838800330386 -0.00082464435309650985 0 0.00605618312472672 -0.0011147267878655256 0 0.0057898838800330386 -0.00082464435309650985 0 0.00605618312472672 -0.0011147267878655256 0 0.005642843481500296 -0.0011749550659235837 0 0.011661013898596409 0.00042821417404393508 0 0.011663082488599961 0.00049943381119934042 0 0.011565131025261344 0.00048383101366072608 0 0.011661013898596409 0.00042821417404393508 0 0.011620721423843235 0.00035998349712377137 0 0.011565131025261344 0.00048383101366072608 0 0.0088571266993259113 -0.00029786730108213524 0 0.0094473600804768527 4.0678305786332059e-05 0 0.012176228669224297 0.00048934197900022053 0 0.0094473600804768527 4.0678305786332059e-05 0 0.011749641106666382 0.00051168338560905974 0 0.011663082488599961 0.00049943381119934042 0 0.011733655289181608 0.00044677366857810274 0 0.011824279907328011 0.00036915282332069139 0 0.011783850958540535 0.00048803844976306771 0 0.011733655289181608 0.00044677366857810274 0 0.011661013898596409 0.00042821417404393508 0 0.011663082488599961 0.00049943381119934042 0 0.011733655289181608 0.00044677366857810274 0 0.011783850958540535 0.00048803844976306771 0 0.011749641106666382 0.00051168338560905974 0 0.011733655289181608 0.00044677366857810274 0 0.011824279907328011 0.00036915282332069139 0 0.011733655289181608 0.00044677366857810274 0 0.011729743768171229 0.00034093113695811802 0 0.011661013898596409 0.00042821417404393508 0 0.011733655289181608 0.00044677366857810274 0 0.011729743768171229 0.00034093113695811802 0 0.011808176029321313 0.0002904452407493745 0 0.011824279907328011 0.00036915282332069139 0 0.011729743768171229 0.00034093113695811802 0 0.011661013898596409 0.00042821417404393508 0 0.011729743768171229 0.00034093113695811802 0 0.011620721423843235 0.00035998349712377137 0 0.01238548371331673 0.00055659153601559698 0 0.012347606398867179 0.00057635324983358323 0 0.012330597628536284 0.00054956186557189438 0 0.012375905235165494 0.00056492797370224417 0 0.012347606398867179 0.00057635324983358323 0 0.012348542892958727 0.00060800240207051237 0 0.01238548371331673 0.00055659153601559698 0 0.012375905235165494 0.00056492797370224417 0 0.012347606398867179 0.00057635324983358323 0 0.012330597628536284 0.00054956186557189438 0 0.012308225109356658 0.00058199377059865438 0 0.012231438470877721 0.00060151073129340298 0 0.012347606398867179 0.00057635324983358323 0 0.012330597628536284 0.00054956186557189438 0 0.012308225109356658 0.00058199377059865438 0 0.0085847850839148344 -6.310858472193414e-05 0 0.0086469249585817472 -0.00032530214189170669 0 0.0090329180916930204 2.4892610030141132e-05 0 0.012347606398867179 0.00057635324983358323 0 0.012308225109356658 0.00058199377059865438 0 0.012315346270439176 0.0006108909020193841 0 0.010919602053467198 0.00036190166883073909 0 0.0088049196475897852 4.4891373069641373e-06 0 0.012308225109356658 0.00058199377059865438 0 0.012315346270439176 0.0006108909020193841 0 0.012231438470877721 0.00060151073129340298 0 0.0085847850839148344 -6.310858472193414e-05 0 0.0083807503957417425 -0.00025644718995542642 0 0.0086469249585817472 -0.00032530214189170669 0 0.0085847850839148344 -6.310858472193414e-05 0 0.0081301242759808049 -0.00014866032716957513 0 0.0083807503957417425 -0.00025644718995542642 0 0.010919602053467198 0.00036190166883073909 0 0.0094473600804768527 4.0678305786332059e-05 0 0.012347606398867179 0.00057635324983358323 0 0.012315346270439176 0.0006108909020193841 0 0.012348542892958727 0.00060800240207051237 0 0.0064427796850883619 -0.00068235427566492527 0 0.0068924678286427284 -0.00052721929155352296 0 0.0094473600804768527 4.0678305786332059e-05 0 0.0064427796850883619 -0.00068235427566492527 0 0.0057898838800330386 -0.00082464435309650985 0 0.005642843481500296 -0.0011749550659235837 0 0.0054958175807852073 -0.00066045626599263408 0 0.0081301242759808049 -0.00014866032716957513 0 0.0083807503957417425 -0.00025644718995542642 0 0.0082298525042628339 -0.0006408260805815327 0 0.0083807503957417425 -0.00025644718995542642 0 0.0082298525042628339 -0.0006408260805815327 0 0.0086469249585817472 -0.00032530214189170669 0 0.0055468632103632667 -0.00057684428577962248 0 0.0055311629252933446 -0.00046699423137982831 0 0.0055981027376858531 -0.00045540055828435089 0 0.0064427796850883619 -0.00068235427566492527 0 0.0059781087943703917 -0.00040396941496825627 0 0.0056901183230121102 -0.00048427585431755034 0 0.0055468632103632667 -0.00057684428577962248 0 0.0055981027376858531 -0.00045540055828435089 0 0.0056515010591941684 -0.00071814490830094876 0 0.0064427796850883619 -0.00068235427566492527 0 0.0055417220863176247 -0.00050563494588298265 0 0.0055311629252933446 -0.00046699423137982831 0 0.0054741093567490786 -0.00049708328772678808 0 0.0055311629252933446 -0.00046699423137982831 0 0.0054610066118700217 -0.0004384447081421683 0 0.0054990067829172899 -0.00038819236836175797 0 0.0055311629252933446 -0.00046699423137982831 0 0.0055981027376858531 -0.00045540055828435089 0 0.0055681266897720334 -0.00041131546100856166 0 0.0056154065607625847 -0.00042016104436427029 0 0.0055981027376858531 -0.00045540055828435089 0 0.0055681266897720334 -0.00041131546100856166 0 0.0055311629252933446 -0.00046699423137982831 0 0.0054610066118700217 -0.0004384447081421683 0 0.0054741093567490786 -0.00049708328772678808 0 0.0054055804886560628 -0.00046625928988098332 0 0.0054610066118700217 -0.0004384447081421683 0 0.0054741093567490786 -0.00049708328772678808 0 0.0054055804886560628 -0.00046625928988098332 0 0.0054741093567490786 -0.00049708328772678808 0 0.005458822433392102 -0.00056664775450633543 0 0.0054055804886560628 -0.00046625928988098332 0 0.005458822433392102 -0.00056664775450633543 0 0.0053800238199788455 -0.00055625860205622075 0 0.0055417220863176247 -0.00050563494588298265 0 0.0054741093567490786 -0.00049708328772678808 0 0.005458822433392102 -0.00056664775450633543 0 0.0053800238199788455 -0.00055625860205622075 0 0.005325800623650602 -0.00046547506187199773 0 0.0052919330659913361 -0.00053484523618838899 0 0.0049315574288433155 -0.00026420369140731814 0 0.0088049196475897852 4.4891373069641373e-06 0 0.0053800238199788455 -0.00055625860205622075 0 0.0052919330659913361 -0.00053484523618838899 0 0.0053940550310091311 -0.00063629752301012444 0 0.0054055804886560628 -0.00046625928988098332 0 0.0053800238199788455 -0.00055625860205622075 0 0.005325800623650602 -0.00046547506187199773 0 0.0054055804886560628 -0.00046625928988098332 0 0.005325800623650602 -0.00046547506187199773 0 0.0053021712316347796 -0.00039666159594361133 0 0.0049315574288433155 -0.00026420369140731814 0 0.005330124142502001 -0.00037251907373426335 0 0.0054220551725700609 -0.00018578231265286061 0 0.0053612013970888526 -0.00019955420206639168 0 0.0053216800281781825 -0.00021422677291839078 0 0.005325800623650602 -0.00046547506187199773 0 0.0052919330659913361 -0.00053484523618838899 0 0.0052129573030629999 -0.00042447528604446389 0 0.005325800623650602 -0.00046547506187199773 0 0.0053021712316347796 -0.00039666159594361133 0 0.0052129573030629999 -0.00042447528604446389 0 0.0054220551725700609 -0.00018578231265286061 0 0.0053798380623513624 -0.00020262781445612367 0 0.0053612013970888526 -0.00019955420206639168 0 0.0054220551725700609 -0.00018578231265286061 0 0.0054068031464980116 -0.00022201605459826952 0 0.0054608432842818046 -0.00024239944998755578 0 0.0054220551725700609 -0.00018578231265286061 0 0.0054068031464980116 -0.00022201605459826952 0 0.0053798380623513624 -0.00020262781445612367 0 0.0095156715800452964 0.00022704780440300571 0 0.0093655776441209891 0.00019382332698744521 0 0.0094610966272511837 0.00026923516198530299 0 0.0054220551725700609 -0.00018578231265286061 0 0.0054608432842818046 -0.00024239944998755578 0 0.0055492488209528549 -0.0002623344671219033 0 0.0054257143831882137 -0.00027804289916505035 0 0.0054608432842818046 -0.00024239944998755578 0 0.0055257736552775313 -0.00026883373656345964 0 0.0081229740609456719 9.5549687528611289e-05 0 0.0088524968601311257 0.00020479022163029254 0 0.0054068031464980116 -0.00022201605459826952 0 0.0054257143831882137 -0.00027804289916505035 0 0.0054608432842818046 -0.00024239944998755578 0 0.0088524968601311257 0.00020479022163029254 0 0.011341255443035214 0.00056220833183738875 0 0.005458822433392102 -0.00056664775450633543 0 0.0053800238199788455 -0.00055625860205622075 0 0.0053940550310091311 -0.00063629752301012444 0 0.0068924678286427284 -0.00052721929155352296 0 0.0088049196475897852 4.4891373069641373e-06 0 0.0054608432842818046 -0.00024239944998755578 0 0.0055492488209528549 -0.0002623344671219033 0 0.0055257736552775313 -0.00026883373656345964 0 0.012226563698171431 0.00090225263831886313 0 0.012179762338457609 0.00089605179143593657 0 0.012220747154730554 0.0007675140845389871 0 0.0088049196475897852 4.4891373069641373e-06 0 0.0088524968601311257 0.00020479022163029254 0 0.012821268530672692 0.00055666953651176728 0 0.0088049196475897852 4.4891373069641373e-06 0 0.012429855921591453 0.00064113977256371004 0 0.012226563698171431 0.00090225263831886313 0 0.012220747154730554 0.0007675140845389871 0 0.012179762338457609 0.00089605179143593657 0 0.012220747154730554 0.0007675140845389871 0 0.012029583104217973 0.00078555765584019301 0 0.012220747154730554 0.0007675140845389871 0 0.0122777268682632 0.00063714614696969596 0 0.012029583104217973 0.00078555765584019301 0 0.012429855921591453 0.00064113977256371004 0 0.012220747154730554 0.0007675140845389871 0 0.0122777268682632 0.00063714614696969596 0 0.012470426867858321 0.00062157166933610284 0 0.011341255443035214 0.00056220833183738875 0 0.012408059416755967 0.00070232227711045743 0 0.012478444793156809 0.00067925967634809264 0 0.012389226849222494 0.0008009474261063132 0 0.012408059416755967 0.00070232227711045743 0 0.012319208724182762 0.00077136444371225181 0 0.012389226849222494 0.0008009474261063132 0 0.012360739465795923 0.00069335769469208209 0 0.012408059416755967 0.00070232227711045743 0 0.012319208724182762 0.00077136444371225181 0 0.012314526299914247 0.00086422724944874971 0 0.012319208724182762 0.00077136444371225181 0 0.012360776106658292 0.00082507930609114195 0 0.012370722750624471 0.0009782555781589345 0 0.011341255443035214 0.00056220833183738875 0 0.0081229740609456719 9.5549687528611289e-05 0 0.011341255443035214 0.00056220833183738875 0 0.010736479019958492 0.00024744397938964954 0 0.010251391928757087 -0.00012108460818535293 0 0.010044499349110999 0.00022637531181017231 0 0.010736479019958492 0.00024744397938964954 0 0.010251391928757087 -0.00012108460818535293 0 0.01144094043486088 8.2667601898720616e-05 0 0.010736479019958492 0.00024744397938964954 0 0.011224926260445054 0.00044690172115561817 0 0.01144094043486088 8.2667601898720616e-05 0 0.010251391928757087 -0.00012108460818535293 0 0.01144094043486088 8.2667601898720616e-05 0 0.010932057197429174 -0.00075998621540037704 0 0.010251391928757087 -0.00012108460818535293 0 0.0095071517262353428 -0.00012365917383909907 0 0.0094253820313245952 -0.00042435565694312865 0 0.010251391928757087 -0.00012108460818535293 0 0.0095071517262353428 -0.00012365917383909907 0 0.010044499349110999 0.00022637531181017231 0 0.0095956809101825878 -0.00010456852210964071 0 0.0098360082377662618 7.9816035298998434e-05 0 0.0095071517262353428 -0.00012365917383909907 0 0.0097336503026054198 -4.9480131997098289e-06 0 0.0098516919766221088 3.56586180715563e-05 0 0.0097336503026054198 -4.9480131997098289e-06 0 0.0099422788175400328 4.3162894436691931e-07 0 0.0092758419140915472 -7.1801689535471266e-07 0 0.0095071517262353428 -0.00012365917383909907 0 0.0097336503026054198 -4.9480131997098289e-06 0 0.0092758419140915472 -7.1801689535471266e-07 0 0.0099422788175400328 4.3162894436691931e-07 0 0.010016208149752421 3.1940485669123051e-05 0 0.01060840831455215 -6.8528173443556218e-07 0 0.0097336503026054198 -4.9480131997098289e-06 0 0.0099422788175400328 4.3162894436691931e-07 0 0.010016208149752421 3.1940485669123051e-05 0 0.0097336503026054198 -4.9480131997098289e-06 0 0.010016208149752421 3.1940485669123051e-05 0 0.0098516919766221088 3.56586180715563e-05 0 0.010016208149752421 3.1940485669123051e-05 0 0.0098516919766221088 3.56586180715563e-05 0 0.0099575406749068032 -0.00022222755864534 0 0.0098516919766221088 3.56586180715563e-05 0 0.0099575406749068032 -0.00022222755864534 0 0.0097339936622450433 -0.00028075753703560481 0 0.010016208149752421 3.1940485669123051e-05 0 0.01060840831455215 -6.8528173443556218e-07 0 0.0099575406749068032 -0.00022222755864534 0 0.010610711168122082 -8.0799087951726183e-07 0 0.010874698112613915 -3.0134031031716279e-05 0 0.011298372335667262 -9.9598367887335332e-05 0 0.010609618358210277 -5.8012908753680753e-08 0 0.01062245355620855 -0.00016180374758174631 0 0.010874698112613915 -3.0134031031716279e-05 0 0.011298372335667262 -9.9598367887335332e-05 0 0.01138332834963637 6.7096280243531637e-05 0 0.011425517660902657 2.8431831131533158e-07 0 0.010610711168122082 -8.0799087951726183e-07 0 0.010874698112613915 -3.0134031031716279e-05 0 0.011425517660902657 2.8431831131533158e-07 0 0.010874698112613915 -3.0134031031716279e-05 0 0.011419765069863958 -1.6324554164551546e-05 0 0.010991227504961378 -7.8002246452527714e-05 0 0.011640010171520066 -6.0893512431294034e-05 0 0.010874698112613915 -3.0134031031716279e-05 0 0.011419765069863958 -1.6324554164551546e-05 0 0.011894931355681869 -0.0002350654012988669 0 0.01062245355620855 -0.00016180374758174631 0 0.01072889133148402 0.00032965185878410284 0 0.011298372335667262 -9.9598367887335332e-05 0 0.01138332834963637 6.7096280243531637e-05 0 0.011739925078039748 4.213964840574332e-05 0 0.011749147184405808 5.0688885706045229e-05 0 0.011419765069863958 -1.6324554164551546e-05 0 0.011894931355681869 -0.0002350654012988669 0 0.012111095085978421 7.5414074451461374e-05 0 0.011749147184405808 5.0688885706045229e-05 0 0.011894931355681869 -0.0002350654012988669 0 0.011640010171520066 -6.0893512431294034e-05 0 0.011887945926054166 0.00049138099578418777 0 0.01138332834963637 6.7096280243531637e-05 0 0.011811709889203728 0.00022972024073041663 0 0.011739925078039748 4.213964840574332e-05 0 0.012111095085978421 7.5414074451461374e-05 0 0.011894931355681869 -0.0002350654012988669 0 0.01242051716156552 -5.7177853327552904e-05 0 0.011887945926054166 0.00049138099578418777 0 0.01072889133148402 0.00032965185878410284 0 0.010754793962940611 0.00096305781548416014 0 0.01066209369133596 0.00071889434398720328 0 0.010969935884602317 0.0008118907599877161 0 0.010570228700338111 0.00078844769537946989 0 0.010783081857787405 0.00052230017148621863 0 0.010969935884602317 0.0008118907599877161 0 0.01072889133148402 0.00032965185878410284 0 0.010913873868492413 0.00067295449445643578 0 0.0098360082377662618 7.9816035298998434e-05 0 0.01072889133148402 0.00032965185878410284 0 0.010044499349110999 0.00022637531181017231 0 0.010570228700338111 0.00078844769537946989 0 0.010783081857787405 0.00052230017148621863 0 0.010736479019958492 0.00024744397938964954 0 0.010044499349110999 0.00022637531181017231 0 0.010783081857787405 0.00052230017148621863 0 0.010736479019958492 0.00024744397938964954 0 0.010783081857787405 0.00052230017148621863 0 0.011224926260445054 0.00044690172115561817 0 0.010783081857787405 0.00052230017148621863 0 0.011224926260445054 0.00044690172115561817 0 0.011117584816118218 0.0006197002489783484 0 0.011117584816118218 0.0006197002489783484 0 0.010969935884602317 0.0008118907599877161 0 0.01145697068476683 0.00068987773081389658 0 0.011224926260445054 0.00044690172115561817 0 0.011117584816118218 0.0006197002489783484 0 0.01145697068476683 0.00068987773081389658 0 0.011371505564040506 0.0010382303966646564 0 0.010754793962940611 0.00096305781548416014 0 0.010969935884602317 0.0008118907599877161 0 0.010783081857787405 0.00052230017148621863 0 0.011117584816118218 0.0006197002489783484 0 0.010969935884602317 0.0008118907599877161 0 0.011371505564040506 0.0010382303966646564 0 0.010969935884602317 0.0008118907599877161 0 0.01145697068476683 0.00068987773081389658 0 0.011371505564040506 0.0010382303966646564 0 0.01145697068476683 0.00068987773081389658 0 0.011974439300057864 0.00071532365643927579 0 0.01145697068476683 0.00068987773081389658 0 0.011974439300057864 0.00071532365643927579 0 0.011785354231915051 0.00047827989464593434 0 0.011974439300057864 0.00071532365643927579 0 0.012394886752691247 0.0005685253904184884 0 0.011785354231915051 0.00047827989464593434 0 0.012394886752691247 0.0005685253904184884 0 0.012123855175774377 0.00028059860059718013 0 0.011785354231915051 0.00047827989464593434 0 0.012123855175774377 0.00028059860059718013 0 0.01246414026662556 0.00026456306847418779 0 0.012201308445790452 5.5009086012715269e-05 0 0.012123855175774377 0.00028059860059718013 0 0.011785354231915051 0.00047827989464593434 0 0.01144094043486088 8.2667601898720616e-05 0 0.011224926260445054 0.00044690172115561817 0 0.011785354231915051 0.00047827989464593434 0 0.01144094043486088 8.2667601898720616e-05 0 0.011224926260445054 0.00044690172115561817 0 0.01145697068476683 0.00068987773081389658 0 0.011785354231915051 0.00047827989464593434 0 0.012394886752691247 0.0005685253904184884 0 0.012962481975859596 0.0006165898048493565 0 0.01246414026662556 0.00026456306847418779 0 0.012394886752691247 0.0005685253904184884 0 0.012123855175774377 0.00028059860059718013 0 0.01246414026662556 0.00026456306847418779 0 0.012695540905817811 0.00021205716722458374 0 0.012463189375802906 0.00025678658277300022 0 0.01317534171637073 0.00035006759476971375 0 0.012962481975859596 0.0006165898048493565 0 0.01246414026662556 0.00026456306847418779 0 0.012266733702327543 5.6310287809723646e-05 0 0.01246414026662556 0.00026456306847418779 0 0.012337535839904785 0.00016545451391933752 0 0.01246414026662556 0.00026456306847418779 0 0.012337535839904785 0.00016545451391933752 0 0.012201308445790452 5.5009086012715269e-05 0 0.012337535839904785 0.00016545451391933752 0 0.012309415002815009 0.00016625385031486387 0 0.012201308445790452 5.5009086012715269e-05 0 0.011211286066068712 -4.584251277960249e-05 0 0.012714936463930284 -9.9172352107291368e-05 0 0.011211286066068712 -4.584251277960249e-05 0 0.010254084162507737 -0.0005475807209284519 0 0.012819864296850371 -0.00052304391658368823 0 0.012201308445790452 5.5009086012715269e-05 0 0.011987486842175916 -0.00067501351516431444 0 0.012246779676287118 0.00025278033547820986 0 0.012337535839904785 0.00016545451391933752 0 0.012309415002815009 0.00016625385031486387 0 0.012201388335298245 0.00027884304777004944 0 0.011211286066068712 -4.584251277960249e-05 0 0.012123855175774377 0.00028059860059718013 0 0.01144094043486088 8.2667601898720616e-05 0 0.012201308445790452 5.5009086012715269e-05 0 0.01144094043486088 8.2667601898720616e-05 0 0.012201308445790452 5.5009086012715269e-05 0 0.011987486842175916 -0.00067501351516431444 0 0.01144094043486088 8.2667601898720616e-05 0 0.011987486842175916 -0.00067501351516431444 0 0.010932057197429174 -0.00075998621540037704 0 0.0087354858465058301 -0.00031313428386039598 0 0.0087230298422977838 -0.00025161834273085596 0 0.0087775769246822549 -0.00036102025538437498 0 0.010254084162507737 -0.0005475807209284519 0 0.0098961753741919015 -0.00052783142839298329 0 0.0087354858465058301 -0.00031313428386039598 0 0.0087230298422977838 -0.00025161834273085596 0 0.008711451703148165 -0.00028644947416264462 0 0.0087230298422977838 -0.00025161834273085596 0 0.00877967753659286 -0.00016676028181995966 0 0.0087775769246822549 -0.00036102025538437498 0 0.0086626994577076143 -0.0002777125246787907 0 0.0087037137140692378 -0.00030505396582785151 0 0.0086914702049455637 -0.00026847479725459014 0 0.01017606467936851 -3.9168488416990542e-05 0 0.011211286066068712 -4.584251277960249e-05 0 0.0087037137140692378 -0.00030505396582785151 0 0.008711451703148165 -0.00028644947416264462 0 0.0086914702049455637 -0.00026847479725459014 0 0.0087037137140692378 -0.00030505396582785151 0 0.0087354858465058301 -0.00031313428386039598 0 0.008711451703148165 -0.00028644947416264462 0 0.0087230298422977838 -0.00025161834273085596 0 0.008711451703148165 -0.00028644947416264462 0 0.0086914702049455637 -0.00026847479725459014 0 0.0087230298422977838 -0.00025161834273085596 0 0.0086914702049455637 -0.00026847479725459014 0 0.00868874935953819 -0.00021775441992789935 0 0.0086626994577076143 -0.0002777125246787907 0 0.0086914702049455637 -0.00026847479725459014 0 0.0086681602318681716 -0.00025777846963379215 0 0.0086914702049455637 -0.00026847479725459014 0 0.0086681602318681716 -0.00025777846963379215 0 0.00868874935953819 -0.00021775441992789935 0 0.0072296543665714705 -0.00042723667728233064 0 0.0074818133621121106 -0.00039329605228220695 0 0.008653950334915398 -0.00023770781131648622 0 0.0086681602318681716 -0.00025777846963379215 0 0.00868874935953819 -0.00021775441992789935 0 0.0062254642245964777 -0.00057872097239552805 0 0.0060805696158681291 -0.0004655804718624772 0 0.0062497292865961434 -0.00033532031072770453 0 0.0060114777646887718 -0.00059746769344047861 0 0.0062254642245964777 -0.00057872097239552805 0 0.0060805696158681291 -0.0004655804718624772 0 0.0064682198684143386 -0.00054526343801267153 0 0.0065860303929969038 -0.00031058118903076911 0 0.0062497292865961434 -0.00033532031072770453 0 0.0087554172402186589 -0.00019113799917243885 0 0.0087743154312055083 -0.0002510612773603477 0 0.00877967753659286 -0.00016676028181995966 0 0.0087230298422977838 -0.00025161834273085596 0 0.0087554172402186589 -0.00019113799917243885 0 0.00877967753659286 -0.00016676028181995966 0 0.0087230298422977838 -0.00025161834273085596 0 0.00868874935953819 -0.00021775441992789935 0 0.0087554172402186589 -0.00019113799917243885 0 0.0074818133621121106 -0.00039329605228220695 0 0.0076099588531244504 -0.0003768088553147986 0 0.0062254642245964777 -0.00057872097239552805 0 0.0064682198684143386 -0.00054526343801267153 0 0.0062497292865961434 -0.00033532031072770453 0 0.0064682198684143386 -0.00054526343801267153 0 0.0068314902748355007 -0.00053692161463991719 0 0.0065860303929969038 -0.00031058118903076911 0 0.0076099588531244504 -0.0003768088553147986 0 0.0077971638222915857 -0.00037365087377432026 0 0.0068314902748355007 -0.00053692161463991719 0 0.0078100413120426844 -0.00026863373076731483 0 0.0070173557893272584 -8.9708601699419485e-05 0 0.0077971638222915857 -0.00037365087377432026 0 0.007819443794187449 -0.00029489242642897009 0 0.0087743154312055083 -0.0002510612773603477 0 0.0083325555043281194 -0.00011184344978982032 0 0.0078100413120426844 -0.00026863373076731483 0 0.0087743154312055083 -0.0002510612773603477 0 0.0083325555043281194 -0.00011184344978982032 0 0.0087198275922252978 -0.00011011651016783967 0 0.0083325555043281194 -0.00011184344978982032 0 0.0087198275922252978 -0.00011011651016783967 0 0.0086810111825058999 -0.00012135448382076067 0 0.0087198275922252978 -0.00011011651016783967 0 0.0086810111825058999 -0.00012135448382076067 0 0.0089228189769277322 -0.000161415348061973 0 0.0087743154312055083 -0.0002510612773603477 0 0.0087198275922252978 -0.00011011651016783967 0 0.00877967753659286 -0.00016676028181995966 0 0.0087198275922252978 -0.00011011651016783967 0 0.00877967753659286 -0.00016676028181995966 0 0.0089228189769277322 -0.000161415348061973 0 0.00877967753659286 -0.00016676028181995966 0 0.0089228189769277322 -0.000161415348061973 0 0.0087775769246822549 -0.00036102025538437498 0 0.0086810111825058999 -0.00012135448382076067 0 0.0089228189769277322 -0.000161415348061973 0 0.0089965644112523762 -0.00021589139573826034 0 0.0089228189769277322 -0.000161415348061973 0 0.0094253820313245952 -0.00042435565694312865 0 0.0089965644112523762 -0.00021589139573826034 0 0.0089228189769277322 -0.000161415348061973 0 0.0094253820313245952 -0.00042435565694312865 0 0.0087775769246822549 -0.00036102025538437498 0 0.010251391928757087 -0.00012108460818535293 0 0.0094253820313245952 -0.00042435565694312865 0 0.010932057197429174 -0.00075998621540037704 0 0.009481703886351299 -0.00045714685157711039 0 0.0098961753741919015 -0.00052783142839298329 0 0.0092749644687570749 4.9137559133042163e-08 0 0.0086763254318257266 -9.7919725327221823e-05 0 0.0092758419140915472 -7.1801689535471266e-07 0 0.0092562528739667475 -0.00021980999895162455 0 0.0090554078023305576 -0.00021115525094422526 0 0.0095071517262353428 -0.00012365917383909907 0 0.0092758419140915472 -7.1801689535471266e-07 0 0.0092562528739667475 -0.00021980999895162455 0 0.0094253820313245952 -0.00042435565694312865 0 0.0092562528739667475 -0.00021980999895162455 0 0.0089965644112523762 -0.00021589139573826034 0 0.0095071517262353428 -0.00012365917383909907 0 0.0094253820313245952 -0.00042435565694312865 0 0.0092562528739667475 -0.00021980999895162455 0 0.0089965644112523762 -0.00021589139573826034 0 0.0090554078023305576 -0.00021115525094422526 0 0.0085756781951478265 -0.00012620521201101031 0 0.0092562528739667475 -0.00021980999895162455 0 0.0089965644112523762 -0.00021589139573826034 0 0.0090554078023305576 -0.00021115525094422526 0 0.0092747995860003752 -2.1767072785314472e-07 0 0.0083524519443361565 2.1367998644951415e-06 0 0.0084334850673066127 1.4084722659696885e-07 0 0.0084334850673066127 1.4084722659696885e-07 0 0.0080327230642523433 -1.4667378217138759e-05 0 0.0075921992577037117 -1.9571785619289795e-07 0 0.0083524519443361565 2.1367998644951415e-06 0 0.0080327230642523433 -1.4667378217138759e-05 0 0.0079840516040127641 -0.00010090962215418672 0 0.0086763254318257266 -9.7919725327221823e-05 0 0.0081224356769541584 -0.00010905173941145512 0 0.0083524519443361565 2.1367998644951415e-06 0 0.0084334850673066127 1.4084722659696885e-07 0 0.0080327230642523433 -1.4667378217138759e-05 0 0.0090554078023305576 -0.00021115525094422526 0 0.0085756781951478265 -0.00012620521201101031 0 0.0079840516040127641 -0.00010090962215418672 0 0.0083325555043281194 -0.00011184344978982032 0 0.0086810111825058999 -0.00012135448382076067 0 0.0085756781951478265 -0.00012620521201101031 0 0.0086810111825058999 -0.00012135448382076067 0 0.0089965644112523762 -0.00021589139573826034 0 0.0085756781951478265 -0.00012620521201101031 0 0.0083325555043281194 -0.00011184344978982032 0 0.0085756781951478265 -0.00012620521201101031 0 0.0079840516040127641 -0.00010090962215418672 0 0.0083325555043281194 -0.00011184344978982032 0 0.0079840516040127641 -0.00010090962215418672 0 0.0078100413120426844 -0.00026863373076731483 0 0.0079840516040127641 -0.00010090962215418672 0 0.0078100413120426844 -0.00026863373076731483 0 0.0074829664659708103 -7.0146906840276823e-05 0 0.0080327230642523433 -1.4667378217138759e-05 0 0.0077711140741090895 -5.2418672896756502e-05 0 0.0075921992577037117 -1.9571785619289795e-07 0 0.0080327230642523433 -1.4667378217138759e-05 0 0.0079840516040127641 -0.00010090962215418672 0 0.0077711140741090895 -5.2418672896756502e-05 0 0.0077711140741090895 -5.2418672896756502e-05 0 0.0075921992577037117 -1.9571785619289795e-07 0 0.0074829664659708103 -7.0146906840276823e-05 0 0.0079840516040127641 -0.00010090962215418672 0 0.0077711140741090895 -5.2418672896756502e-05 0 0.0074829664659708103 -7.0146906840276823e-05 0 0.0075921992577037117 -1.9571785619289795e-07 0 0.0074829664659708103 -7.0146906840276823e-05 0 0.0067509733858567367 2.1401910773709477e-08 0 0.0078100413120426844 -0.00026863373076731483 0 0.0074829664659708103 -7.0146906840276823e-05 0 0.0073641874383743233 -9.2563511461453811e-05 0 0.0074829664659708103 -7.0146906840276823e-05 0 0.0073641874383743233 -9.2563511461453811e-05 0 0.0069947493139956799 2.9558515016950104e-05 0 0.0069947493139956799 2.9558515016950104e-05 0 0.0067509733858567367 2.1401910773709477e-08 0 0.0065287137365898406 6.5052229817459469e-05 0 0.0074829664659708103 -7.0146906840276823e-05 0 0.0069947493139956799 2.9558515016950104e-05 0 0.0067509733858567367 2.1401910773709477e-08 0 0.0070173557893272584 -8.9708601699419485e-05 0 0.0066538341174785173 -6.8096358153247816e-05 0 0.0065860303929969038 -0.00031058118903076911 0 0.0068314902748355007 -0.00053692161463991719 0 0.0070173557893272584 -8.9708601699419485e-05 0 0.0065860303929969038 -0.00031058118903076911 0 0.0078100413120426844 -0.00026863373076731483 0 0.0073641874383743233 -9.2563511461453811e-05 0 0.0070173557893272584 -8.9708601699419485e-05 0 0.0073641874383743233 -9.2563511461453811e-05 0 0.0069947493139956799 2.9558515016950104e-05 0 0.0070173557893272584 -8.9708601699419485e-05 0 0.0069947493139956799 2.9558515016950104e-05 0 0.0070173557893272584 -8.9708601699419485e-05 0 0.0066612785833740249 6.0623899881282316e-05 0 0.0070173557893272584 -8.9708601699419485e-05 0 0.0066538341174785173 -6.8096358153247816e-05 0 0.0066612785833740249 6.0623899881282316e-05 0 0.0066538341174785173 -6.8096358153247816e-05 0 0.0066612785833740249 6.0623899881282316e-05 0 0.0065351436987306655 -9.5687629391254203e-06 0 0.0069947493139956799 2.9558515016950104e-05 0 0.0066612785833740249 6.0623899881282316e-05 0 0.0066700572133758153 6.1614108167292218e-05 0 0.0066612785833740249 6.0623899881282316e-05 0 0.0066700572133758153 6.1614108167292218e-05 0 0.0064182664069987651 8.4711974824426173e-05 0 0.0066612785833740249 6.0623899881282316e-05 0 0.0064182664069987651 8.4711974824426173e-05 0 0.0065603838320594555 4.9658670732195931e-05 0 0.0066612785833740249 6.0623899881282316e-05 0 0.0065603838320594555 4.9658670732195931e-05 0 0.0065351436987306655 -9.5687629391254203e-06 0 0.0067509733858567367 2.1401910773709477e-08 0 0.0065287137365898406 6.5052229817459469e-05 0 0.0059088203168389201 4.3848602288825542e-07 0 0.0066700572133758153 6.1614108167292218e-05 0 0.0065287137365898406 6.5052229817459469e-05 0 0.0064182664069987651 8.4711974824426173e-05 0 0.0069947493139956799 2.9558515016950104e-05 0 0.0066700572133758153 6.1614108167292218e-05 0 0.0065287137365898406 6.5052229817459469e-05 0 0.0065287137365898406 6.5052229817459469e-05 0 0.0064182664069987651 8.4711974824426173e-05 0 0.0059088203168389201 4.3848602288825542e-07 0 0.0064182664069987651 8.4711974824426173e-05 0 0.0059088203168389201 4.3848602288825542e-07 0 0.0050696421560163449 -9.6588047403440737e-07 0 0.0050674403629979888 -1.2646024410347425e-07 0 0.0049433258324522783 -0.00027426977053750733 0 0.0050659506677103302 -1.2993761426552387e-06 0 0.0036858386548907266 -0.00039035238607213846 0 0.003927128018299115 -1.2532509341055502e-05 0 0.0064182664069987651 8.4711974824426173e-05 0 0.0050696421560163449 -9.6588047403440737e-07 0 0.0062389953874379834 -0.00023879945146674435 0 0.0064182664069987651 8.4711974824426173e-05 0 0.0062389953874379834 -0.00023879945146674435 0 0.0065603838320594555 4.9658670732195931e-05 0 0.0065603838320594555 4.9658670732195931e-05 0 0.0064935116380888027 -4.4735606639790801e-05 0 0.0064707049862473172 6.891319998411718e-05 0 0.0049433258324522783 -0.00027426977053750733 0 0.0047910700023772786 -0.00016148571930232544 0 0.0062389953874379834 -0.00023879945146674435 0 0.0065603838320594555 4.9658670732195931e-05 0 0.0064935116380888027 -4.4735606639790801e-05 0 0.0036858386548907266 -0.00039035238607213846 0 0.0030973526299426248 -0.0002781903109264874 0 0.0032597347283464394 7.2146114353066658e-05 0 0.0030973526299426248 -0.0002781903109264874 0 0.0032597347283464394 7.2146114353066658e-05 0 0.0029040071569387915 2.0333119846805115e-05 0 0.0032597347283464394 7.2146114353066658e-05 0 0.0029040071569387915 2.0333119846805115e-05 0 0.0029455876803164598 0.00014082172478749604 0 0.0032597347283464394 7.2146114353066658e-05 0 0.0035734688496083401 9.0984134892706307e-05 0 0.003927128018299115 -1.2532509341055502e-05 0 0.0032597347283464394 7.2146114353066658e-05 0 0.0035734688496083401 9.0984134892706307e-05 0 0.0031469031373472182 0.0001588649755482935 0 0.0035734688496083401 9.0984134892706307e-05 0 0.0042094127015549019 4.4204754008211787e-07 0 0.0033511761222824979 1.7911719108898238e-07 0 0.0035734688496083401 9.0984134892706307e-05 0 0.0042094127015549019 4.4204754008211787e-07 0 0.003927128018299115 -1.2532509341055502e-05 0 0.0050659506677103302 -1.2993761426552387e-06 0 0.0042094127015549019 4.4204754008211787e-07 0 0.003927128018299115 -1.2532509341055502e-05 0 0.0036858386548907266 -0.00039035238607213846 0 0.0032597347283464394 7.2146114353066658e-05 0 0.003927128018299115 -1.2532509341055502e-05 0 0.0026677164601991337 4.0102871235173079e-05 0 0.0027371854217928654 8.9595766018291142e-05 0 0.0028084820313697993 -0.00011130982667378642 0 0.0044204120843710035 0.00018375676791638576 0 0.0046049610049433403 3.310371938696326e-05 0 0.0026677164601991337 4.0102871235173079e-05 0 0.002633535316743929 0.0001359441696601647 0 0.0026344400110922916 0.00022389758731502149 0 0.0044204120843710035 0.00018375676791638576 0 0.004229049905464243 0.00036401873169497704 0 0.0026677164601991337 4.0102871235173079e-05 0 0.002633535316743929 0.0001359441696601647 0 0.0027371854217928654 8.9595766018291142e-05 0 0.0027371854217928654 8.9595766018291142e-05 0 0.0029040071569387915 2.0333119846805115e-05 0 0.0028059614826726809 0.00014299522287243425 0 0.0030973526299426248 -0.0002781903109264874 0 0.0029040071569387915 2.0333119846805115e-05 0 0.0028084820313697993 -0.00011130982667378642 0 0.0027371854217928654 8.9595766018291142e-05 0 0.0029040071569387915 2.0333119846805115e-05 0 0.0028084820313697993 -0.00011130982667378642 0 0.0064063677293733313 0.00018635408752019951 0 0.0064707049862473172 6.891319998411718e-05 0 0.0062591427669370378 0.00011664630795507261 0 0.0047910700023772786 -0.00016148571930232544 0 0.0046049610049433403 3.310371938696326e-05 0 0.0064935116380888027 -4.4735606639790801e-05 0 0.0064063677293733313 0.00018635408752019951 0 0.0064707049862473172 6.891319998411718e-05 0 0.0065603838320594555 4.9658670732195931e-05 0 0.0064707049862473172 6.891319998411718e-05 0 0.0064216195648036743 2.3327161725071471e-05 0 0.0064707049862473172 6.891319998411718e-05 0 0.0062591427669370378 0.00011664630795507261 0 0.0064216195648036743 2.3327161725071471e-05 0 0.0062591427669370378 0.00011664630795507261 0 0.0061731100764220604 -2.1109087978567215e-05 0 0.0064216195648036743 2.3327161725071471e-05 0 0.0061649743672357654 0.00032367956241756868 0 0.0064063677293733313 0.00018635408752019951 0 0.0062591427669370378 0.00011664630795507261 0 0.0061649743672357654 0.00032367956241756868 0 0.0059760264124452626 0.00021317135284090817 0 0.0058271957204632597 0.00049095555159369645 0 0.0061649743672357654 0.00032367956241756868 0 0.0062591427669370378 0.00011664630795507261 0 0.0059760264124452626 0.00021317135284090817 0 0.0062591427669370378 0.00011664630795507261 0 0.0060001117435287297 2.7117178996082131e-05 0 0.0059760264124452626 0.00021317135284090817 0 0.0062591427669370378 0.00011664630795507261 0 0.0060001117435287297 2.7117178996082131e-05 0 0.0061731100764220604 -2.1109087978567215e-05 0 0.0060001117435287297 2.7117178996082131e-05 0 0.0061731100764220604 -2.1109087978567215e-05 0 0.0059732026913245371 -9.7811823730326627e-05 0 0.0061731100764220604 -2.1109087978567215e-05 0 0.0061190536810238113 -0.00013300887806978458 0 0.0059732026913245371 -9.7811823730326627e-05 0 0.0061731100764220604 -2.1109087978567215e-05 0 0.0063025371457434603 -0.00011331348766737755 0 0.0064216195648036743 2.3327161725071471e-05 0 0.0061731100764220604 -2.1109087978567215e-05 0 0.0063025371457434603 -0.00011331348766737755 0 0.0061190536810238113 -0.00013300887806978458 0 0.0063025371457434603 -0.00011331348766737755 0 0.0061190536810238113 -0.00013300887806978458 0 0.0061227742415916227 -0.00023403650976748776 0 0.0061190536810238113 -0.00013300887806978458 0 0.0061227742415916227 -0.00023403650976748776 0 0.0059700385405894191 -0.00020902408567881421 0 0.0061190536810238113 -0.00013300887806978458 0 0.0059700385405894191 -0.00020902408567881421 0 0.0059732026913245371 -9.7811823730326627e-05 0 0.0065603838320594555 4.9658670732195931e-05 0 0.0064216195648036743 2.3327161725071471e-05 0 0.0065351436987306655 -9.5687629391254203e-06 0 0.0063025371457434603 -0.00011331348766737755 0 0.0065351436987306655 -9.5687629391254203e-06 0 0.0064719926272288316 -0.00014927101395738286 0 0.0063025371457434603 -0.00011331348766737755 0 0.0064216195648036743 2.3327161725071471e-05 0 0.0065351436987306655 -9.5687629391254203e-06 0 0.0064719926272288316 -0.00014927101395738286 0 0.0065860303929969038 -0.00031058118903076911 0 0.0062497292865961434 -0.00033532031072770453 0 0.0066538341174785173 -6.8096358153247816e-05 0 0.0064719926272288316 -0.00014927101395738286 0 0.0065860303929969038 -0.00031058118903076911 0 0.0066538341174785173 -6.8096358153247816e-05 0 0.0065351436987306655 -9.5687629391254203e-06 0 0.0064719926272288316 -0.00014927101395738286 0 0.0063025371457434603 -0.00011331348766737755 0 0.0064719926272288316 -0.00014927101395738286 0 0.0062497292865961434 -0.00033532031072770453 0 0.0061227742415916227 -0.00023403650976748776 0 0.005997346044073852 -0.00033963908912758252 0 0.0059700385405894191 -0.00020902408567881421 0 0.0063025371457434603 -0.00011331348766737755 0 0.0061227742415916227 -0.00023403650976748776 0 0.0062497292865961434 -0.00033532031072770453 0 0.0061227742415916227 -0.00023403650976748776 0 0.0062497292865961434 -0.00033532031072770453 0 0.005997346044073852 -0.00033963908912758252 0 0.0060805696158681291 -0.0004655804718624772 0 0.0062497292865961434 -0.00033532031072770453 0 0.005997346044073852 -0.00033963908912758252 0 0.0059474553907400739 -0.0004710277325976117 0 0.005997346044073852 -0.00033963908912758252 0 0.0058443701853142108 -0.00039451375431517817 0 0.005997346044073852 -0.00033963908912758252 0 0.0059700385405894191 -0.00020902408567881421 0 0.0058186236928297963 -0.00026764675273521191 0 0.005997346044073852 -0.00033963908912758252 0 0.0058186236928297963 -0.00026764675273521191 0 0.0058443701853142108 -0.00039451375431517817 0 0.0058186236928297963 -0.00026764675273521191 0 0.0058443701853142108 -0.00039451375431517817 0 0.0057585182925228399 -0.00034213063249246488 0 0.0058443701853142108 -0.00039451375431517817 0 0.0057530221405494705 -0.00040377610302489835 0 0.0057585182925228399 -0.00034213063249246488 0 0.0058057735572022142 -0.00044184228819604875 0 0.0058443701853142108 -0.00039451375431517817 0 0.0057530221405494705 -0.00040377610302489835 0 0.0057039391813248899 -0.00042552891438376775 0 0.0057530221405494705 -0.00040377610302489835 0 0.0056947928333745488 -0.00036332832354635285 0 0.0056947928333745488 -0.00036332832354635285 0 0.0057585182925228399 -0.00034213063249246488 0 0.0056828534173171191 -0.00028127815633359834 0 0.0057530221405494705 -0.00040377610302489835 0 0.0056947928333745488 -0.00036332832354635285 0 0.0057585182925228399 -0.00034213063249246488 0 0.0056499223655382584 -0.00039976976013622161 0 0.0056166635573678975 -0.00033139891051738924 0 0.0055941764789035524 -0.00038613697491202012 0 0.0056154065607625847 -0.00042016104436427029 0 0.0056499223655382584 -0.00039976976013622161 0 0.0055941764789035524 -0.00038613697491202012 0 0.0056154065607625847 -0.00042016104436427029 0 0.005650426812646085 -0.00043186595198915323 0 0.0056499223655382584 -0.00039976976013622161 0 0.0057039391813248899 -0.00042552891438376775 0 0.0056947928333745488 -0.00036332832354635285 0 0.0056499223655382584 -0.00039976976013622161 0 0.0056947928333745488 -0.00036332832354635285 0 0.0056499223655382584 -0.00039976976013622161 0 0.0056166635573678975 -0.00033139891051738924 0 0.0056947928333745488 -0.00036332832354635285 0 0.0056166635573678975 -0.00033139891051738924 0 0.0056828534173171191 -0.00028127815633359834 0 0.0056166635573678975 -0.00033139891051738924 0 0.0056828534173171191 -0.00028127815633359834 0 0.0055616701261513466 -0.00021499224914968041 0 0.0056828534173171191 -0.00028127815633359834 0 0.0056820016302931153 -0.00017690825133016407 0 0.0055616701261513466 -0.00021499224914968041 0 0.0058186236928297963 -0.00026764675273521191 0 0.0057585182925228399 -0.00034213063249246488 0 0.0056828534173171191 -0.00028127815633359834 0 0.0058186236928297963 -0.00026764675273521191 0 0.0056828534173171191 -0.00028127815633359834 0 0.0056820016302931153 -0.00017690825133016407 0 0.0056820016302931153 -0.00017690825133016407 0 0.0055915059256762397 -7.462420175724536e-05 0 0.0055616701261513466 -0.00021499224914968041 0 0.0056349034568509574 -8.8827817999794794e-05 0 0.0055411699597608301 -0.00024316105003940525 0 0.0055915059256762397 -7.462420175724536e-05 0 0.0056619377781316404 -9.7528714359676751e-05 0 0.0055515252015750968 -3.7017209463507162e-05 0 0.0056820016302931153 -0.00017690825133016407 0 0.0055915059256762397 -7.462420175724536e-05 0 0.0056619377781316404 -9.7528714359676751e-05 0 0.0056619377781316404 -9.7528714359676751e-05 0 0.005784409381582859 -6.0524953838134675e-05 0 0.0058101793661629571 -0.00015868525613232375 0 0.0056619377781316404 -9.7528714359676751e-05 0 0.005784409381582859 -6.0524953838134675e-05 0 0.0055515252015750968 -3.7017209463507162e-05 0 0.0060001117435287297 2.7117178996082131e-05 0 0.005784409381582859 -6.0524953838134675e-05 0 0.0059732026913245371 -9.7811823730326627e-05 0 0.005784409381582859 -6.0524953838134675e-05 0 0.0059732026913245371 -9.7811823730326627e-05 0 0.0058101793661629571 -0.00015868525613232375 0 0.0059700385405894191 -0.00020902408567881421 0 0.0059732026913245371 -9.7811823730326627e-05 0 0.0058101793661629571 -0.00015868525613232375 0 0.0059700385405894191 -0.00020902408567881421 0 0.0058186236928297963 -0.00026764675273521191 0 0.0058101793661629571 -0.00015868525613232375 0 0.0056820016302931153 -0.00017690825133016407 0 0.0056619377781316404 -9.7528714359676751e-05 0 0.0058101793661629571 -0.00015868525613232375 0 0.0058186236928297963 -0.00026764675273521191 0 0.0056820016302931153 -0.00017690825133016407 0 0.0058101793661629571 -0.00015868525613232375 0 0.0052372546449715243 -0.00034664551552033586 0 0.0053021712316347796 -0.00039666159594361133 0 0.0053159873669433302 -0.00031755288943738965 0 0.0052372546449715243 -0.00034664551552033586 0 0.0052557522883548641 -0.00028436896127608641 0 0.0051841536388945444 -0.00030991812678799418 0 0.0052372546449715243 -0.00034664551552033586 0 0.0053159873669433302 -0.00031755288943738965 0 0.0052557522883548641 -0.00028436896127608641 0 0.0052372546449715243 -0.00034664551552033586 0 0.0053021712316347796 -0.00039666159594361133 0 0.0052129573030629999 -0.00042447528604446389 0 0.0053021712316347796 -0.00039666159594361133 0 0.0053159873669433302 -0.00031755288943738965 0 0.005402603842234995 -0.00037413409917640757 0 0.0054055804886560628 -0.00046625928988098332 0 0.0053021712316347796 -0.00039666159594361133 0 0.005402603842234995 -0.00037413409917640757 0 0.0053159873669433302 -0.00031755288943738965 0 0.0054180214739793005 -0.00028072654528664561 0 0.005402603842234995 -0.00037413409917640757 0 0.0054180214739793005 -0.00028072654528664561 0 0.005464848808724946 -0.00032605102500528945 0 0.005402603842234995 -0.00037413409917640757 0 0.0054055804886560628 -0.00046625928988098332 0 0.0054610066118700217 -0.0004384447081421683 0 0.005402603842234995 -0.00037413409917640757 0 0.0054610066118700217 -0.0004384447081421683 0 0.005402603842234995 -0.00037413409917640757 0 0.0054990067829172899 -0.00038819236836175797 0 0.005464848808724946 -0.00032605102500528945 0 0.005402603842234995 -0.00037413409917640757 0 0.0054990067829172899 -0.00038819236836175797 0 0.0056166635573678975 -0.00033139891051738924 0 0.0054990067829172899 -0.00038819236836175797 0 0.0055941764789035524 -0.00038613697491202012 0 0.0055311629252933446 -0.00046699423137982831 0 0.0054990067829172899 -0.00038819236836175797 0 0.0055681266897720334 -0.00041131546100856166 0 0.0054990067829172899 -0.00038819236836175797 0 0.0055681266897720334 -0.00041131546100856166 0 0.0055941764789035524 -0.00038613697491202012 0 0.0056154065607625847 -0.00042016104436427029 0 0.0055681266897720334 -0.00041131546100856166 0 0.0055941764789035524 -0.00038613697491202012 0 0.005464848808724946 -0.00032605102500528945 0 0.0054990067829172899 -0.00038819236836175797 0 0.0055341008543004291 -0.00026438103125825651 0 0.0054180214739793005 -0.00028072654528664561 0 0.005464848808724946 -0.00032605102500528945 0 0.0055341008543004291 -0.00026438103125825651 0 0.0056166635573678975 -0.00033139891051738924 0 0.0054990067829172899 -0.00038819236836175797 0 0.0055616701261513466 -0.00021499224914968041 0 0.0055018437487779409 -0.00037938000400469742 0 0.0055411699597608301 -0.00024316105003940525 0 0.0054180214739793005 -0.00028072654528664561 0 0.0055341008543004291 -0.00026438103125825651 0 0.0054367227577245044 -0.00019847929398782355 0 0.0055341008543004291 -0.00026438103125825651 0 0.0054947926910860895 -0.00013346142512881123 0 0.0054367227577245044 -0.00019847929398782355 0 0.0054947926910860895 -0.00013346142512881123 0 0.005399295665432749 -9.7459830232460014e-05 0 0.0054988156787777681 -3.1512601083329072e-05 0 0.0055953150724274269 -0.00011144624002298181 0 0.0055341008543004291 -0.00026438103125825651 0 0.0054947926910860895 -0.00013346142512881123 0 0.0055953150724274269 -0.00011144624002298181 0 0.0054947926910860895 -0.00013346142512881123 0 0.0054988156787777681 -3.1512601083329072e-05 0 0.0054947926910860895 -0.00013346142512881123 0 0.005399295665432749 -9.7459830232460014e-05 0 0.0054367227577245044 -0.00019847929398782355 0 0.005399295665432749 -9.7459830232460014e-05 0 0.0054367227577245044 -0.00019847929398782355 0 0.005330704170907038 -0.00021667399051243189 0 0.0054180214739793005 -0.00028072654528664561 0 0.0054367227577245044 -0.00019847929398782355 0 0.005330704170907038 -0.00021667399051243189 0 0.0053159873669433302 -0.00031755288943738965 0 0.0054180214739793005 -0.00028072654528664561 0 0.005330704170907038 -0.00021667399051243189 0 0.0053159873669433302 -0.00031755288943738965 0 0.005330704170907038 -0.00021667399051243189 0 0.0052557522883548641 -0.00028436896127608641 0 0.005399295665432749 -9.7459830232460014e-05 0 0.005330704170907038 -0.00021667399051243189 0 0.0052768454467137195 -0.00010725485807926476 0 0.005330704170907038 -0.00021667399051243189 0 0.0052768454467137195 -0.00010725485807926476 0 0.0052157697758576102 -0.00020776535833748604 0 0.0052768454467137195 -0.00010725485807926476 0 0.0051433493110057795 -9.0987425627287932e-05 0 0.0052157697758576102 -0.00020776535833748604 0 0.005330704170907038 -0.00021667399051243189 0 0.0052157697758576102 -0.00020776535833748604 0 0.0052557522883548641 -0.00028436896127608641 0 0.0052157697758576102 -0.00020776535833748604 0 0.0052557522883548641 -0.00028436896127608641 0 0.0051841536388945444 -0.00030991812678799418 0 0.005181297747412726 0.00012157064250690864 0 0.0052124041272556742 2.3162736053411173e-05 0 0.0052441682461389699 8.4655421932631922e-05 0 0.005181297747412726 0.00012157064250690864 0 0.0052441682461389699 8.4655421932631922e-05 0 0.0052822276899927032 0.00014722626772310419 0 0.005180497063391634 0.00015611346270501538 0 0.0052084109651279135 4.0416550931478349e-05 0 0.0051835620134285613 0.00019353042348397461 0 0.0052124041272556742 2.3162736053411173e-05 0 0.0050430594425714889 4.5296024636484829e-05 0 0.0052768454467137195 -0.00010725485807926476 0 0.0051433493110057795 -9.0987425627287932e-05 0 0.0052124041272556742 2.3162736053411173e-05 0 0.0051433493110057795 -9.0987425627287932e-05 0 0.0052124041272556742 2.3162736053411173e-05 0 0.0050430594425714889 4.5296024636484829e-05 0 0.0052768454467137195 -0.00010725485807926476 0 0.0052124041272556742 2.3162736053411173e-05 0 0.0053272479261555769 -3.6996776242589395e-05 0 0.005399295665432749 -9.7459830232460014e-05 0 0.0052768454467137195 -0.00010725485807926476 0 0.0053272479261555769 -3.6996776242589395e-05 0 0.0052124041272556742 2.3162736053411173e-05 0 0.0053272479261555769 -3.6996776242589395e-05 0 0.0053032335686047181 4.8118964912091867e-05 0 0.0053272479261555769 -3.6996776242589395e-05 0 0.0053032335686047181 4.8118964912091867e-05 0 0.0053963298026332143 1.1920728616241856e-05 0 0.0052124041272556742 2.3162736053411173e-05 0 0.0053032335686047181 4.8118964912091867e-05 0 0.0052441682461389699 8.4655421932631922e-05 0 0.0053032335686047181 4.8118964912091867e-05 0 0.0052441682461389699 8.4655421932631922e-05 0 0.0052822276899927032 0.00014722626772310419 0 0.0053032335686047181 4.8118964912091867e-05 0 0.0053627911960465449 9.759224192071512e-05 0 0.0052822276899927032 0.00014722626772310419 0 0.0053627911960465449 9.759224192071512e-05 0 0.0054193297064907648 7.5514835382551053e-05 0 0.0054185052868003323 0.0001258762226365125 0 0.0053627911960465449 9.759224192071512e-05 0 0.0054193297064907648 7.5514835382551053e-05 0 0.0053963298026332143 1.1920728616241856e-05 0 0.0054193297064907648 7.5514835382551053e-05 0 0.0053963298026332143 1.1920728616241856e-05 0 0.0054594545502105558 4.1600180482587224e-05 0 0.0053032335686047181 4.8118964912091867e-05 0 0.0053627911960465449 9.759224192071512e-05 0 0.0053963298026332143 1.1920728616241856e-05 0 0.005399295665432749 -9.7459830232460014e-05 0 0.0053272479261555769 -3.6996776242589395e-05 0 0.0053963298026332143 1.1920728616241856e-05 0 0.005399295665432749 -9.7459830232460014e-05 0 0.0053963298026332143 1.1920728616241856e-05 0 0.0054988156787777681 -3.1512601083329072e-05 0 0.0053963298026332143 1.1920728616241856e-05 0 0.0054988156787777681 -3.1512601083329072e-05 0 0.0054594545502105558 4.1600180482587224e-05 0 0.0054988156787777681 -3.1512601083329072e-05 0 0.0055127107697055967 5.1217647220368128e-05 0 0.0055652147786485829 7.7464588574991586e-06 0 0.0054988156787777681 -3.1512601083329072e-05 0 0.0055127107697055967 5.1217647220368128e-05 0 0.0054594545502105558 4.1600180482587224e-05 0 0.0055127107697055967 5.1217647220368128e-05 0 0.0054594545502105558 4.1600180482587224e-05 0 0.005470670529609702 0.00010199242430106085 0 0.0054193297064907648 7.5514835382551053e-05 0 0.0054594545502105558 4.1600180482587224e-05 0 0.005470670529609702 0.00010199242430106085 0 0.0054193297064907648 7.5514835382551053e-05 0 0.005470670529609702 0.00010199242430106085 0 0.0054185052868003323 0.0001258762226365125 0 0.0055127107697055967 5.1217647220368128e-05 0 0.005470670529609702 0.00010199242430106085 0 0.0055180890066610115 0.00011349890065618563 0 0.0055127107697055967 5.1217647220368128e-05 0 0.0055180890066610115 0.00011349890065618563 0 0.0055612035371773632 7.7362495077880447e-05 0 0.0054817566888617541 0.00017874964529180105 0 0.0055260272543916208 0.00017225716089993599 0 0.0053580329281715539 0.00029533752503900019 0 0.0055180890066610115 0.00011349890065618563 0 0.0054992349814649037 0.00014383655283728211 0 0.0055260272543916208 0.00017225716089993599 0 0.0055180890066610115 0.00011349890065618563 0 0.0055260272543916208 0.00017225716089993599 0 0.0055612035371773632 7.7362495077880447e-05 0 0.0054992349814649037 0.00014383655283728211 0 0.0054679073371915899 0.00015157779069785961 0 0.0054817566888617541 0.00017874964529180105 0 0.005470670529609702 0.00010199242430106085 0 0.0055180890066610115 0.00011349890065618563 0 0.0054992349814649037 0.00014383655283728211 0 0.005470670529609702 0.00010199242430106085 0 0.0054992349814649037 0.00014383655283728211 0 0.0054679073371915899 0.00015157779069785961 0 0.005470670529609702 0.00010199242430106085 0 0.0054679073371915899 0.00015157779069785961 0 0.0054185052868003323 0.0001258762226365125 0 0.0054679073371915899 0.00015157779069785961 0 0.0054253105687012372 0.00016249355639213475 0 0.0054185052868003323 0.0001258762226365125 0 0.0054679073371915899 0.00015157779069785961 0 0.0054258806161986009 0.00019684250428420708 0 0.0054817566888617541 0.00017874964529180105 0 0.0054679073371915899 0.00015157779069785961 0 0.0054258806161986009 0.00019684250428420708 0 0.0054253105687012372 0.00016249355639213475 0 0.0054992349814649037 0.00014383655283728211 0 0.0054817566888617541 0.00017874964529180105 0 0.0055260272543916208 0.00017225716089993599 0 0.0034863718366328839 0.00059011709809531738 0 0.0034698483139335204 0.00047101062115050121 0 0.0030861601805461402 0.00037179092928668557 0 0.0045238673502011007 0.0003660535839442929 0 0.0044966580064921963 0.0004360841272468405 0 0.0034863718366328839 0.00059011709809531738 0 0.0035538709975172049 0.00055467246960569675 0 0.0034382675979308585 0.00050695170594433148 0 0.0034863718366328839 0.00059011709809531738 0 0.0034698483139335204 0.00047101062115050121 0 0.0034382675979308585 0.00050695170594433148 0 0.0032015726024653018 0.00036268903416743632 0 0.003074452749151268 0.00039476831821101937 0 0.0054258806161986009 0.00019684250428420708 0 0.0054817566888617541 0.00017874964529180105 0 0.0053580329281715539 0.00029533752503900019 0 0.0054258806161986009 0.00019684250428420708 0 0.0053580329281715539 0.00029533752503900019 0 0.0053869827405272127 0.00020417317777919321 0 0.0053454450240541249 0.00033689230704340463 0 0.0053580329281715539 0.00029533752503900019 0 0.0049008637827597686 0.00014460605200235777 0 0.0053580329281715539 0.00029533752503900019 0 0.0053285287130255907 0.0002130593665083585 0 0.0052660398406930882 0.0002499019861105692 0 0.0055260272543916208 0.00017225716089993599 0 0.0053454450240541249 0.00033689230704340463 0 0.0053580329281715539 0.00029533752503900019 0 0.0053580329281715539 0.00029533752503900019 0 0.0053285287130255907 0.0002130593665083585 0 0.0053869827405272127 0.00020417317777919321 0 0.0053285287130255907 0.0002130593665083585 0 0.0053869827405272127 0.00020417317777919321 0 0.0053675699204829364 0.00016393957281897676 0 0.0053869827405272127 0.00020417317777919321 0 0.0054253105687012372 0.00016249355639213475 0 0.0053675699204829364 0.00016393957281897676 0 0.0054258806161986009 0.00019684250428420708 0 0.0053869827405272127 0.00020417317777919321 0 0.0054253105687012372 0.00016249355639213475 0 0.0053627911960465449 9.759224192071512e-05 0 0.0054185052868003323 0.0001258762226365125 0 0.0053675699204829364 0.00016393957281897676 0 0.0054253105687012372 0.00016249355639213475 0 0.0054185052868003323 0.0001258762226365125 0 0.0053675699204829364 0.00016393957281897676 0 0.0053627911960465449 9.759224192071512e-05 0 0.0053675699204829364 0.00016393957281897676 0 0.0052822276899927032 0.00014722626772310419 0 0.0053285287130255907 0.0002130593665083585 0 0.0052822276899927032 0.00014722626772310419 0 0.0052660398406930882 0.0002499019861105692 0 0.0052822276899927032 0.00014722626772310419 0 0.0052660398406930882 0.0002499019861105692 0 0.0052210372427612013 0.00018512235614204662 0 0.0053285287130255907 0.0002130593665083585 0 0.0053675699204829364 0.00016393957281897676 0 0.0052822276899927032 0.00014722626772310419 0 0.0053454450240541249 0.00033689230704340463 0 0.0049008637827597686 0.00014460605200235777 0 0.0049212286557769993 0.00045980842201353553 0 0.0053272078521316747 0.00027842284399354314 0 0.005099359173810462 0.0002026047288631888 0 0.0049008637827597686 0.00014460605200235777 0 0.0046554347279825076 0.00051355940216578355 0 0.0049212286557769993 0.00045980842201353553 0 0.0052660398406930882 0.0002499019861105692 0 0.0051546346299845237 0.00022189127854924448 0 0.0052210372427612013 0.00018512235614204662 0 0.0049008637827597686 0.00014460605200235777 0 0.0044133383972658202 2.807999188528314e-05 0 0.0045659684357404395 0.00027726003942366115 0 0.0044133383972658202 2.807999188528314e-05 0 0.0045659684357404395 0.00027726003942366115 0 0.0043227810594825781 0.00043176394292222543 0 0.0046996163964154744 0.00019166573241514881 0 0.0041977314653633196 0.00030219681097257443 0 0.005099359173810462 0.0002026047288631888 0 0.0046996163964154744 0.00019166573241514881 0 0.0049008637827597686 0.00014460605200235777 0 0.0045659684357404395 0.00027726003942366115 0 0.0046554347279825076 0.00051355940216578355 0 0.005181297747412726 0.00012157064250690864 0 0.0051546346299845237 0.00022189127854924448 0 0.0052210372427612013 0.00018512235614204662 0 0.005180497063391634 0.00015611346270501538 0 0.0046996163964154744 0.00019166573241514881 0 0.005181297747412726 0.00012157064250690864 0 0.0052822276899927032 0.00014722626772310419 0 0.0052210372427612013 0.00018512235614204662 0 0.0055735252580329155 0.00025713458515251781 0 0.0057342395399043421 5.9037006939106025e-05 0 0.0053666352627227973 8.4539369986070493e-05 0 0.0055735252580329155 0.00025713458515251781 0 0.0059760264124452626 0.00021317135284090817 0 0.0057342395399043421 5.9037006939106025e-05 0 0.0055735252580329155 0.00025713458515251781 0 0.0059760264124452626 0.00021317135284090817 0 0.0058271957204632597 0.00049095555159369645 0 0.0060001117435287297 2.7117178996082131e-05 0 0.0059760264124452626 0.00021317135284090817 0 0.0057342395399043421 5.9037006939106025e-05 0 0.0060001117435287297 2.7117178996082131e-05 0 0.005784409381582859 -6.0524953838134675e-05 0 0.0057342395399043421 5.9037006939106025e-05 0 0.005784409381582859 -6.0524953838134675e-05 0 0.0057342395399043421 5.9037006939106025e-05 0 0.0055515252015750968 -3.7017209463507162e-05 0 0.0057342395399043421 5.9037006939106025e-05 0 0.0055515252015750968 -3.7017209463507162e-05 0 0.0053666352627227973 8.4539369986070493e-05 0 0.0055915059256762397 -7.462420175724536e-05 0 0.0055515252015750968 -3.7017209463507162e-05 0 0.0055607076230160882 -4.8850029072874785e-05 0 0.0054778163558039071 -3.8180646587006176e-05 0 0.0053160199192304209 3.1200670188217198e-05 0 0.0056349034568509574 -8.8827817999794794e-05 0 0.0053160199192304209 3.1200670188217198e-05 0 0.0055953150724274269 -0.00011144624002298181 0 0.0054988156787777681 -3.1512601083329072e-05 0 0.0055652147786485829 7.7464588574991586e-06 0 0.0055953150724274269 -0.00011144624002298181 0 0.0055652147786485829 7.7464588574991586e-06 0 0.0056560221016096861 4.884035073848658e-05 0 0.0055260272543916208 0.00017225716089993599 0 0.0055612035371773632 7.7362495077880447e-05 0 0.0056560221016096861 4.884035073848658e-05 0 0.0055652147786485829 7.7464588574991586e-06 0 0.0055612035371773632 7.7362495077880447e-05 0 0.0056560221016096861 4.884035073848658e-05 0 0.0045238673502011007 0.0003660535839442929 0 0.0053160199192304209 3.1200670188217198e-05 0 0.0055127107697055967 5.1217647220368128e-05 0 0.0055652147786485829 7.7464588574991586e-06 0 0.0055612035371773632 7.7362495077880447e-05 0 0.0055735252580329155 0.00025713458515251781 0 0.0053666352627227973 8.4539369986070493e-05 0 0.0050197185264377877 0.00015001407252962837 0 0.0053666352627227973 8.4539369986070493e-05 0 0.0050215011572983543 5.1069188962852488e-05 0 0.0050197185264377877 0.00015001407252962837 0 0.0055515252015750968 -3.7017209463507162e-05 0 0.0053666352627227973 8.4539369986070493e-05 0 0.0050215011572983543 5.1069188962852488e-05 0 0.0053160199192304209 3.1200670188217198e-05 0 0.0052314777656997519 2.5298196753652654e-05 0 0.0049135602405564359 -0.00010688309661104769 0 0.0050197185264377877 0.00015001407252962837 0 0.0043291113652670814 0.00041658492136214154 0 0.0055735252580329155 0.00025713458515251781 0 0.0050197185264377877 0.00015001407252962837 0 0.005015374894964209 0.00075543763235496296 0 0.0050197185264377877 0.00015001407252962837 0 0.005015374894964209 0.00075543763235496296 0 0.0043291113652670814 0.00041658492136214154 0 0.0035418684643485896 0.00059906836656418647 0 0.003892687009970365 0.00057373744636748675 0 0.0034863718366328839 0.00059011709809531738 0 0.005015374894964209 0.00075543763235496296 0 0.0043291113652670814 0.00041658492136214154 0 0.0035538709975172049 0.00055467246960569675 0 0.0049135602405564359 -0.00010688309661104769 0 0.0043291113652670814 0.00041658492136214154 0 0.0034863718366328839 0.00059011709809531738 0 0.0027540547168249841 0.00044246691134409955 0 0.0030861601805461402 0.00037179092928668557 0 0.0034863718366328839 0.00059011709809531738 0 0.0035538709975172049 0.00055467246960569675 0 0.0043291113652670814 0.00041658492136214154 0 0.0029643560832295201 0.00025329532428590266 0 0.0030861601805461402 0.00037179092928668557 0 0.0029748620003471958 0.00027476278377895754 0 0.0030861601805461402 0.00037179092928668557 0 0.0028488387585786936 0.00026497728434586387 0 0.0029748620003471958 0.00027476278377895754 0 0.0027540547168249841 0.00044246691134409955 0 0.0030861601805461402 0.00037179092928668557 0 0.0028488387585786936 0.00026497728434586387 0 0.0027540547168249841 0.00044246691134409955 0 0.0028488387585786936 0.00026497728434586387 0 0.0026776164430398343 0.00022648060702062375 0 0.0027540547168249841 0.00044246691134409955 0 0.0026303619239238531 0.00022262804495454797 0 0.0026776164430398343 0.00022648060702062375 0 0.003892687009970365 0.00057373744636748675 0 0.004229049905464243 0.00036401873169497704 0 0.0055735252580329155 0.00025713458515251781 0 0.005015374894964209 0.00075543763235496296 0 0.0058271957204632597 0.00049095555159369645 0 0.0027540547168249841 0.00044246691134409955 0 0.0026344400110922916 0.00022389758731502149 0 0.0026303619239238531 0.00022262804495454797 0 0.002633535316743929 0.0001359441696601647 0 0.0026344400110922916 0.00022389758731502149 0 0.0026303619239238531 0.00022262804495454797 0 0.002633535316743929 0.0001359441696601647 0 0.0026303619239238531 0.00022262804495454797 0 0.0025940727557829343 0.00016155932586905966 0 0.0026303619239238531 0.00022262804495454797 0 0.0025940727557829343 0.00016155932586905966 0 0.0026776164430398343 0.00022648060702062375 0 0.0025940727557829343 0.00016155932586905966 0 0.0026050394136337223 0.00016353605744879831 0 0.0025628551815939523 0.00014180159213552995 0 0.0026050394136337223 0.00016353605744879831 0 0.0025066084773972866 0.00012926201973448891 0 0.0025628551815939523 0.00014180159213552995 0 0.0026050394136337223 0.00016353605744879831 0 0.002707688798921401 0.00016627548672153787 0 0.0025715997106575878 0.00012033870040567589 0 0.0026050394136337223 0.00016353605744879831 0 0.0027288514959931225 0.00020127285948375417 0 0.002707688798921401 0.00016627548672153787 0 0.0025940727557829343 0.00016155932586905966 0 0.0026050394136337223 0.00016353605744879831 0 0.0026776164430398343 0.00022648060702062375 0 0.0026050394136337223 0.00016353605744879831 0 0.0026776164430398343 0.00022648060702062375 0 0.0027288514959931225 0.00020127285948375417 0 0.0028488387585786936 0.00026497728434586387 0 0.0026776164430398343 0.00022648060702062375 0 0.0027288514959931225 0.00020127285948375417 0 0.0028488387585786936 0.00026497728434586387 0 0.0027288514959931225 0.00020127285948375417 0 0.0028380608993202098 0.00021631492962516895 0 0.0028488387585786936 0.00026497728434586387 0 0.0029748620003471958 0.00027476278377895754 0 0.0028380608993202098 0.00021631492962516895 0 0.0029748620003471958 0.00027476278377895754 0 0.0028380608993202098 0.00021631492962516895 0 0.0029107797285059232 0.00022541787137999754 0 0.0028380608993202098 0.00021631492962516895 0 0.0028373103481021456 0.0001636160832832783 0 0.002707688798921401 0.00016627548672153787 0 0.0028380608993202098 0.00021631492962516895 0 0.0029107797285059232 0.00022541787137999754 0 0.0028373103481021456 0.0001636160832832783 0 0.0028373103481021456 0.0001636160832832783 0 0.002707688798921401 0.00016627548672153787 0 0.0027212550023585974 9.1734086798670559e-05 0 0.0027288514959931225 0.00020127285948375417 0 0.0028380608993202098 0.00021631492962516895 0 0.002707688798921401 0.00016627548672153787 0 0.002707688798921401 0.00016627548672153787 0 0.0027212550023585974 9.1734086798670559e-05 0 0.0025715997106575878 0.00012033870040567589 0 0.0028373103481021456 0.0001636160832832783 0 0.0027212550023585974 9.1734086798670559e-05 0 0.0028727049061718578 9.0111422203898611e-05 0 0.0027212550023585974 9.1734086798670559e-05 0 0.0028047171086897273 -4.1424493306377323e-06 0 0.0028727049061718578 9.0111422203898611e-05 0 0.0027212550023585974 9.1734086798670559e-05 0 0.0025889386777445868 -1.2646114423739283e-05 0 0.0025715997106575878 0.00012033870040567589 0 0.0027212550023585974 9.1734086798670559e-05 0 0.0028047171086897273 -4.1424493306377323e-06 0 0.0025889386777445868 -1.2646114423739283e-05 0 0.0015589175380131815 -3.3130573285643258e-05 0 0.0018443304743636937 -3.6672948539333664e-05 0 0.0025889386777445868 -1.2646114423739283e-05 0 0.0024011481237873056 0.00011133293843364534 0 0.0021931352190142591 8.4542853800234145e-05 0 0.0025889386777445868 -1.2646114423739283e-05 0 0.0024011481237873056 0.00011133293843364534 0 0.0025715997106575878 0.00012033870040567589 0 0.0024011481237873056 0.00011133293843364534 0 0.0021931352190142591 8.4542853800234145e-05 0 0.0025184127030873473 0.00013806480769459054 0 0.0024011481237873056 0.00011133293843364534 0 0.0025066084773972866 0.00012926201973448891 0 0.0025184127030873473 0.00013806480769459054 0 0.0025066084773972866 0.00012926201973448891 0 0.0025628551815939523 0.00014180159213552995 0 0.0025184127030873473 0.00013806480769459054 0 0.0026050394136337223 0.00016353605744879831 0 0.0025066084773972866 0.00012926201973448891 0 0.0025715997106575878 0.00012033870040567589 0 0.0024011481237873056 0.00011133293843364534 0 0.0025066084773972866 0.00012926201973448891 0 0.0025715997106575878 0.00012033870040567589 0 0.0044557495514146355 0.0007417104046479958 0 0.0047860295754696015 0.00083669453576878505 0 0.0042851478953453695 0.0010943041071725802 0 0.0034842591471163529 0.00051338563514283166 0 0.0036249516271747084 0.00065822494630471656 0 0.0027163868593565021 0.00041878291684468495 0 0.0027313032541003506 0.00039129870937811045 0 0.0027064808179210267 0.00043491224320304605 0 0.0027163868593565021 0.00041878291684468495 0 0.0027132699136580528 0.00044319129190597417 0 0.0027064808179210267 0.00043491224320304605 0 0.0027163868593565021 0.00041878291684468495 0 0.0027435829386786574 0.00035638984699928091 0 0.0027423530322554265 0.00041920388031639161 0 0.0027163868593565021 0.00041878291684468495 0 0.0027423530322554265 0.00041920388031639161 0 0.0027132699136580528 0.00044319129190597417 0 0.0027161931724007421 0.00056477313972158019 0 0.0034842591471163529 0.00051338563514283166 0 0.0045659684357404395 0.00027726003942366115 0 0.0046554347279825076 0.00051355940216578355 0 0.0043227810594825781 0.00043176394292222543 0 0.0044557495514146355 0.0007417104046479958 0 0.0046554347279825076 0.00051355940216578355 0 0.0043227810594825781 0.00043176394292222543 0 0.0044557495514146355 0.0007417104046479958 0 0.0046554347279825076 0.00051355940216578355 0 0.0047860295754696015 0.00083669453576878505 0 0.0027974848562477891 0.00037196298303031772 0 0.0027435829386786574 0.00035638984699928091 0 0.0028503848490842479 0.00028502852802303344 0 0.0044966580064921963 0.0004360841272468405 0 0.0034842591471163529 0.00051338563514283166 0 0.0034842591471163529 0.00051338563514283166 0 0.0030829903374250756 0.00042503365323194435 0 0.0034382675979308585 0.00050695170594433148 0 0.0034121065721369566 0.00054673785230554336 0 0.0034334914199638184 0.0005269568276043546 0 0.0053454450240541249 0.00033689230704340463 0 0.0049212286557769993 0.00045980842201353553 0 0.0047860295754696015 0.00083669453576878505 0 0.0046554347279825076 0.00051355940216578355 0 0.0049212286557769993 0.00045980842201353553 0 0.0047860295754696015 0.00083669453576878505 0 0.0027974848562477891 0.00037196298303031772 0 0.0027435829386786574 0.00035638984699928091 0 0.0027423530322554265 0.00041920388031639161 0 0.0027974848562477891 0.00037196298303031772 0 0.0027423530322554265 0.00041920388031639161 0 0.0028001151049672443 0.00041922993469962165 0 0.0027974848562477891 0.00037196298303031772 0 0.0028001151049672443 0.00041922993469962165 0 0.0028555794791424341 0.00037252574555134729 0 0.0028001151049672443 0.00041922993469962165 0 0.0028555794791424341 0.00037252574555134729 0 0.0028585416549326034 0.00044114702442380165 0 0.0028555794791424341 0.00037252574555134729 0 0.0029311028369729689 0.0004037565197983468 0 0.0028585416549326034 0.00044114702442380165 0 0.0028555794791424341 0.00037252574555134729 0 0.0029088124783015917 0.00031305940757868795 0 0.0029311028369729689 0.0004037565197983468 0 0.0027974848562477891 0.00037196298303031772 0 0.0028555794791424341 0.00037252574555134729 0 0.0028503848490842479 0.00028502852802303344 0 0.0032015726024653018 0.00036268903416743632 0 0.0030829903374250756 0.00042503365323194435 0 0.0034698483139335204 0.00047101062115050121 0 0.0034382675979308585 0.00050695170594433148 0 0.0034334914199638184 0.0005269568276043546 0 0.0029643560832295201 0.00025329532428590266 0 0.0028503848490842479 0.00028502852802303344 0 0.0029088124783015917 0.00031305940757868795 0 0.0028555794791424341 0.00037252574555134729 0 0.0028503848490842479 0.00028502852802303344 0 0.0029088124783015917 0.00031305940757868795 0 0.0029643560832295201 0.00025329532428590266 0 0.0029088124783015917 0.00031305940757868795 0 0.0029590750701695722 0.00027547758842510047 0 0.0029643560832295201 0.00025329532428590266 0 0.0029748620003471958 0.00027476278377895754 0 0.0029590750701695722 0.00027547758842510047 0 0.0029748620003471958 0.00027476278377895754 0 0.0029107797285059232 0.00022541787137999754 0 0.0029590750701695722 0.00027547758842510047 0 0.0029088124783015917 0.00031305940757868795 0 0.0029590750701695722 0.00027547758842510047 0 0.0029311028369729689 0.0004037565197983468 0 0.0029107797285059232 0.00022541787137999754 0 0.0029590750701695722 0.00027547758842510047 0 0.0029518324538137367 0.00016249751045007939 0 0.0029107797285059232 0.00022541787137999754 0 0.0028373103481021456 0.0001636160832832783 0 0.0029518324538137367 0.00016249751045007939 0 0.0029440131595464872 0.00029501579619877502 0 0.0030061303128703538 0.00024497021628649946 0 0.0028373103481021456 0.0001636160832832783 0 0.0029518324538137367 0.00016249751045007939 0 0.0028727049061718578 9.0111422203898611e-05 0 0.0029518324538137367 0.00016249751045007939 0 0.0028727049061718578 9.0111422203898611e-05 0 0.0029620162060838592 3.7422313032076702e-05 0 0.0030061303128703538 0.00024497021628649946 0 0.0020357587275672434 0.00035445210080554116 0 0.0028047171086897273 -4.1424493306377323e-06 0 0.0028727049061718578 9.0111422203898611e-05 0 0.0029620162060838592 3.7422313032076702e-05 0 0.0015589175380131815 -3.3130573285643258e-05 0 0.0020357587275672434 0.00035445210080554116 0 0.0004586970173950994 2.6392377857432739e-05 0 0.00030530522726826591 0.0001007627809512577 0 0.00036248334394586065 0.00021882088215230985 0 0.00030530522726826591 0.0001007627809512577 0 0.00034827909381658612 0.00031806204228753722 0 0.00036248334394586065 0.00021882088215230985 0 0.0020357587275672434 0.00035445210080554116 0 0.0013140027248892069 0.00021852104567107218 0 0.0023957545621670711 0.0004103925181668331 0 0.002573576308222132 0.00044936490705890618 0 0.0025809222731463075 0.00036691321438175 0 0.0023957545621670711 0.0004103925181668331 0 0.0025462833005944932 0.00027616715019639592 0 0.0024274756441721719 0.00016436148288874439 0 0.0023957545621670711 0.0004103925181668331 0 0.0025462833005944932 0.00027616715019639592 0 0.0025809222731463075 0.00036691321438175 0 0.0020357587275672434 0.00035445210080554116 0 0.0027870643324438144 0.00049995325429208286 0 0.0028985600653649826 0.00052656760231989462 0 0.002845831202788677 0.00048224258510584525 0 0.0028089286532024015 0.00050296561099821499 0 0.0029311028369729689 0.0004037565197983468 0 0.0028985600653649826 0.00052656760231989462 0 0.0028585416549326034 0.00044114702442380165 0 0.002845831202788677 0.00048224258510584525 0 0.0028158380193556093 0.00045726923840720061 0 0.0028089286532024015 0.00050296561099821499 0 0.0028985600653649826 0.00052656760231989462 0 0.002845831202788677 0.00048224258510584525 0 0.0028585416549326034 0.00044114702442380165 0 0.0028001151049672443 0.00041922993469962165 0 0.0028585416549326034 0.00044114702442380165 0 0.0028158380193556093 0.00045726923840720061 0 0.002845831202788677 0.00048224258510584525 0 0.0028585416549326034 0.00044114702442380165 0 0.0028158380193556093 0.00045726923840720061 0 0.0027423530322554265 0.00041920388031639161 0 0.0028001151049672443 0.00041922993469962165 0 0.0027696387117277688 0.00044978233367334094 0 0.0028001151049672443 0.00041922993469962165 0 0.0028158380193556093 0.00045726923840720061 0 0.0027696387117277688 0.00044978233367334094 0 0.0027423530322554265 0.00041920388031639161 0 0.0027696387117277688 0.00044978233367334094 0 0.0027050605352263927 0.0004597446802584869 0 0.0027696387117277688 0.00044978233367334094 0 0.0028089286532024015 0.00050296561099821499 0 0.0027050605352263927 0.0004597446802584869 0 0.00262463178636453 0.00043572544697880085 0 0.002573576308222132 0.00044936490705890618 0 0.0027050605352263927 0.0004597446802584869 0 0.0027870643324438144 0.00049995325429208286 0 0.0026715775589069247 0.00045811132901817011 0 0.0028158380193556093 0.00045726923840720061 0 0.0027696387117277688 0.00044978233367334094 0 0.0028089286532024015 0.00050296561099821499 0 0.00262463178636453 0.00043572544697880085 0 0.0025809222731463075 0.00036691321438175 0 0.0026952427862321818 0.00031899260565408904 0 0.00262463178636453 0.00043572544697880085 0 0.002573576308222132 0.00044936490705890618 0 0.0025809222731463075 0.00036691321438175 0 0.0025462833005944932 0.00027616715019639592 0 0.0025809222731463075 0.00036691321438175 0 0.0026952427862321818 0.00031899260565408904 0 0.0026952427862321818 0.00031899260565408904 0 0.0028339228207670611 0.00038430050237499768 0 0.0027933294990450416 0.00018112808104350472 0 0.002574800670989706 0.00045404105485162132 0 0.002935723507968543 0.00035129091878881573 0 0.002935723507968543 0.00035129091878881573 0 0.0028081557252832737 0.00023159169116767017 0 0.00262463178636453 0.00043572544697880085 0 0.0026952427862321818 0.00031899260565408904 0 0.0028339228207670611 0.00038430050237499768 0 0.00262463178636453 0.00043572544697880085 0 0.0027432766901239925 0.00042918165344738572 0 0.0027050605352263927 0.0004597446802584869 0 0.0027432766901239925 0.00042918165344738572 0 0.0027132699136580528 0.00044319129190597417 0 0.0027064808179210267 0.00043491224320304605 0 0.0027432766901239925 0.00042918165344738572 0 0.0027050605352263927 0.0004597446802584869 0 0.0027132699136580528 0.00044319129190597417 0 0.002935723507968543 0.00035129091878881573 0 0.0036249516271747084 0.00065822494630471656 0 0.0027423530322554265 0.00041920388031639161 0 0.0027050605352263927 0.0004597446802584869 0 0.0027132699136580528 0.00044319129190597417 0 0.0027518065284700896 -3.892307227979873e-05 0 0.0027933294990450416 0.00018112808104350472 0 0.0026125205592468768 0.00011782862796011216 0 0.0027518065284700896 -3.892307227979873e-05 0 0.0028286208208040471 0.00025250340892019822 0 0.0029667541174071528 -2.4435840155878803e-05 0 0.0027561767954974127 -2.5702767611067566e-05 0 0.0028081557252832737 0.00023159169116767017 0 0.0028961153412443838 0.00054226958552638807 0 0.0028286208208040471 0.00025250340892019822 0 0.0030152849844002822 0.00033855763239874596 0 0.0025462833005944932 0.00027616715019639592 0 0.0026952427862321818 0.00031899260565408904 0 0.0026125205592468768 0.00011782862796011216 0 0.0026952427862321818 0.00031899260565408904 0 0.0027933294990450416 0.00018112808104350472 0 0.0026125205592468768 0.00011782862796011216 0 0.0027518065284700896 -3.892307227979873e-05 0 0.0026125205592468768 0.00011782862796011216 0 0.0024469481384109047 -0.00010352652679026341 0 0.00034827909381658612 0.00031806204228753722 0 0.00038757126741603519 0.00041237159838324516 0 0.00055718291946895251 0.00026429413501453789 0 0.0026125205592468768 0.00011782862796011216 0 0.0024274756441721719 0.00016436148288874439 0 0.0024469481384109047 -0.00010352652679026341 0 0.0013140027248892069 0.00021852104567107218 0 0.0016257010162347206 9.73653010235793e-05 0 0.0025462833005944932 0.00027616715019639592 0 0.0026125205592468768 0.00011782862796011216 0 0.0024274756441721719 0.00016436148288874439 0 0.00036248334394586065 0.00021882088215230985 0 0.00038757126741603519 0.00041237159838324516 0 0.00041509993145189949 0.00031710457150719792 0 0.00034827909381658612 0.00031806204228753722 0 0.00036248334394586065 0.00021882088215230985 0 0.00038757126741603519 0.00041237159838324516 0 0.00038757126741603519 0.00041237159838324516 0 0.00050369447736314668 0.00012387126672228462 0 0.00029229291252218432 0.00020873175427804563 0 0.00038757126741603519 0.00041237159838324516 0 0.00050369447736314668 0.00012387126672228462 0 0.00055718291946895251 0.00026429413501453789 0 -0.000764668110830087 -0.00024132658566657986 0 -0.0018565859030984333 -0.00047816703037323625 0 0.00050369447736314668 0.00012387126672228462 0 0.00077712407471857738 -0.00010890331125391295 0 0.00033375091816129792 -0.00023200930362126507 0 -0.0036588584680850352 -0.00058343370988831605 0 -0.0037182008120313558 -0.000685969184887468 0 -0.0037097996463222897 -0.00063460499275927093 0 0.00050369447736314668 0.00012387126672228462 0 0.00029229291252218432 0.00020873175427804563 0 0.00033375091816129792 -0.00023200930362126507 0 0.00061898721521774682 5.5600445059300973e-05 0 0.00058002905164072178 5.7650486848001677e-05 0 0.00055718291946895251 0.00026429413501453789 0 0.00085964376087294201 -4.6705217865436345e-05 0 -0.000764668110830087 -0.00024132658566657986 0 -0.0036588584680850352 -0.00058343370988831605 0 -0.0037097996463222897 -0.00063460499275927093 0 -0.0036832871875679503 -0.00061707130292901321 0 -0.0005634112837904937 -0.0005806786171641175 0 -0.00044376235009652403 -0.00058558359794771942 0 -0.00058502921978788726 -0.00046956982483929179 0 0.00031848512447805712 -0.00043486360592276998 0 -0.00096609303490762975 -0.00032822612335440485 0 -0.0036588584680850352 -0.00058343370988831605 0 -0.0036062171455382716 -0.0006006637671314393 0 -0.0036453044674534672 -0.00061300375588694991 0 -0.000764668110830087 -0.00024132658566657986 0 -0.00096609303490762975 -0.00032822612335440485 0 0.00031848512447805712 -0.00043486360592276998 0 -0.000764668110830087 -0.00024132658566657986 0 -0.0036588584680850352 -0.00058343370988831605 0 -0.0036453044674534672 -0.00061300375588694991 0 -0.0036832871875679503 -0.00061707130292901321 0 0.00031848512447805712 -0.00043486360592276998 0 0.0016257010162347206 9.73653010235793e-05 0 0.00050369447736314668 0.00012387126672228462 0 0.00058002905164072178 5.7650486848001677e-05 0 0.00055718291946895251 0.00026429413501453789 0 0.0027518065284700896 -3.892307227979873e-05 0 0.0024469481384109047 -0.00010352652679026341 0 0.0026160609025296538 -0.00024249958345506028 0 0.0024761778049264614 -0.00041232998696552527 0 0.0024469481384109047 -0.00010352652679026341 0 0.0026160609025296538 -0.00024249958345506028 0 0.0024761778049264614 -0.00041232998696552527 0 0.0026160609025296538 -0.00024249958345506028 0 0.0026929902665465558 -0.00042702167775249576 0 0.00031848512447805712 -0.00043486360592276998 0 0.0015760533811017498 -0.00043238153592881355 0 -0.00062941839006931514 -0.00038851347419181353 0 -8.1577002661621569e-05 -0.00040744261093092037 0 -0.00060524925819178531 -0.00052444793495986651 0 0.0015760533811017498 -0.00043238153592881355 0 0.00058648998866641191 -0.0006352657234803237 0 0.0026160609025296538 -0.00024249958345506028 0 0.0026929902665465558 -0.00042702167775249576 0 0.0027956119215684009 -0.00025456655669284288 0 0.0026929902665465558 -0.00042702167775249576 0 0.0027956119215684009 -0.00025456655669284288 0 0.002915982635054209 -0.00037516795034824729 0 0.0026929902665465558 -0.00042702167775249576 0 0.002915982635054209 -0.00037516795034824729 0 0.0029069280543932517 -0.00044083831025482192 0 0.0027956119215684009 -0.00025456655669284288 0 0.0029428413972731084 -0.00027382059358950451 0 0.002915982635054209 -0.00037516795034824729 0 0.0027518065284700896 -3.892307227979873e-05 0 0.0026160609025296538 -0.00024249958345506028 0 0.0027956119215684009 -0.00025456655669284288 0 0.0029141591662675197 -0.00016328316052973603 0 0.0027956119215684009 -0.00025456655669284288 0 0.0029428413972731084 -0.00027382059358950451 0 0.0027518065284700896 -3.892307227979873e-05 0 0.0029141591662675197 -0.00016328316052973603 0 0.0027956119215684009 -0.00025456655669284288 0 0.0027518065284700896 -3.892307227979873e-05 0 0.0029141591662675197 -0.00016328316052973603 0 0.0029667541174071528 -2.4435840155878803e-05 0 3.3353475316726453e-05 0.00087947442696751244 0 -0.00015241510369934475 0.00077006305033795513 0 0.0014676912729358722 0.00088948296007158834 0 0.002348349960169947 0.00065908311614456844 0 0.0021931352190142591 8.4542853800234145e-05 0 0.002348349960169947 0.00065908311614456844 0 0.0021931352190142591 8.4542853800234145e-05 0 0.0025129440266602582 0.00026977351744295752 0 0.0014676912729358722 0.00088948296007158834 0 0.0021931352190142591 8.4542853800234145e-05 0 0.00097602745798888051 0.00036194583633397827 0 0.0018443304743636937 -3.6672948539333664e-05 0 0.0021699448604084182 6.3109283605935538e-05 0 0.0010043046477023901 -0.00013210063583493688 0 0.0021931352190142591 8.4542853800234145e-05 0 0.00097602745798888051 0.00036194583633397827 0 0.0010043046477023901 -0.00013210063583493688 0 0.00097602745798888051 0.00036194583633397827 0 0.00041509993145189949 0.00031710457150719792 0 0.0004586970173950994 2.6392377857432739e-05 0 0.00036248334394586065 0.00021882088215230985 0 0.00041509993145189949 0.00031710457150719792 0 0.0004586970173950994 2.6392377857432739e-05 0 0.0010043046477023901 -0.00013210063583493688 0 0.00041509993145189949 0.00031710457150719792 0 0.00038757126741603519 0.00041237159838324516 0 0.00041509993145189949 0.00031710457150719792 0 0.00022607740569667608 0.00068319890899646153 0 0.00097602745798888051 0.00036194583633397827 0 0.00041509993145189949 0.00031710457150719792 0 0.00022607740569667608 0.00068319890899646153 0 3.3353475316726453e-05 0.00087947442696751244 0 0.00023042015587078409 0.00073940424902590822 0 0.0014676912729358722 0.00088948296007158834 0 0.00097602745798888051 0.00036194583633397827 0 0.00022607740569667608 0.00068319890899646153 0 -0.0013909685785307682 0.00096263694918385825 0 0.00022607740569667608 0.00068319890899646153 0 -0.00085847271412828135 -0.00056674605101023328 0 0.00022607740569667608 0.00068319890899646153 0 0.00029229291252218432 0.00020873175427804563 0 -0.00085847271412828135 -0.00056674605101023328 0 0.00038757126741603519 0.00041237159838324516 0 0.00022607740569667608 0.00068319890899646153 0 0.00029229291252218432 0.00020873175427804563 0 0.00029229291252218432 0.00020873175427804563 0 0.00033375091816129792 -0.00023200930362126507 0 -0.00085847271412828135 -0.00056674605101023328 0 -0.0037182008120313558 -0.000685969184887468 0 -0.0033344392536339353 -0.00066597278700777582 0 -0.0035969823884806455 -0.00060367711390988809 0 -0.0018565859030984333 -0.00047816703037323625 0 -0.0020912076951096355 -0.00058183489796610982 0 -0.0020912076951096355 -0.00058183489796610982 0 -0.0028049814171290932 -0.00046322075401324125 0 -0.0013909685785307682 0.00096263694918385825 0 -0.00085847271412828135 -0.00056674605101023328 0 -0.0028232792800417946 -0.00042752452007361133 0 -0.0013909685785307682 0.00096263694918385825 0 -0.0027313270319705568 0.00089049068127450856 0 -0.0028232792800417946 -0.00042752452007361133 0 -0.0028232792800417946 -0.00042752452007361133 0 -0.0032045778205535241 -9.4079262074663327e-05 0 -0.0032333986328633921 0.00028299968115171937 0 -0.0028232792800417946 -0.00042752452007361133 0 -0.0032193612688709919 -0.00028343823603676474 0 -0.0032045778205535241 -9.4079262074663327e-05 0 -0.0032193612688709919 -0.00028343823603676474 0 -0.0032045778205535241 -9.4079262074663327e-05 0 -0.0033967776167596851 8.7254874648044484e-06 0 -0.0035912338879289783 -0.00011668282250899195 0 -0.0035576960886880187 -0.00012325569701730695 0 -0.00331289577161633 -0.0003719894340663667 0 -0.0028718613533191537 0.00023536817601707105 0 -0.0033973975439880828 -0.00044018400601107644 0 -0.0032193612688709919 -0.00028343823603676474 0 -0.0035576960886880187 -0.00012325569701730695 0 -0.00331289577161633 -0.0003719894340663667 0 -0.0032193612688709919 -0.00028343823603676474 0 -0.0033967776167596851 8.7254874648044484e-06 0 -0.0035576960886880187 -0.00012325569701730695 0 -0.0033967776167596851 8.7254874648044484e-06 0 -0.0035576960886880187 -0.00012325569701730695 0 -0.0035510656029099754 5.8726992290774437e-05 0 -0.003619524051365472 -0.00010335202450969413 0 -0.0035576960886880187 -0.00012325569701730695 0 -0.0035510656029099754 5.8726992290774437e-05 0 -0.0028718613533191537 0.00023536817601707105 0 -0.0029344019797118773 0.00023940925928748677 0 -0.003619524051365472 -0.00010335202450969413 0 -0.0036325459697749939 0.00022280814020682855 0 -0.0035510656029099754 5.8726992290774437e-05 0 -0.0033967776167596851 8.7254874648044484e-06 0 -0.0035510656029099754 5.8726992290774437e-05 0 -0.0035014904245144972 0.00027569346591696661 0 -0.0036325459697749939 0.00022280814020682855 0 -0.0035510656029099754 5.8726992290774437e-05 0 -0.0035014904245144972 0.00027569346591696661 0 -0.0033967776167596851 8.7254874648044484e-06 0 -0.0035014904245144972 0.00027569346591696661 0 -0.0032333986328633921 0.00028299968115171937 0 -0.0035014904245144972 0.00027569346591696661 0 -0.0032333986328633921 0.00028299968115171937 0 -0.0034738088184490998 0.00073324954903913116 0 -0.0036325459697749939 0.00022280814020682855 0 -0.0035014904245144972 0.00027569346591696661 0 -0.0036728007483139251 0.00049559664434158796 0 -0.0035014904245144972 0.00027569346591696661 0 -0.0036728007483139251 0.00049559664434158796 0 -0.0034738088184490998 0.00073324954903913116 0 -0.0027313270319705568 0.00089049068127450856 0 -0.0028232792800417946 -0.00042752452007361133 0 -0.0032333986328633921 0.00028299968115171937 0 -0.0032045778205535241 -9.4079262074663327e-05 0 -0.0033967776167596851 8.7254874648044484e-06 0 -0.0032333986328633921 0.00028299968115171937 0 -0.00015241510369934475 0.00077006305033795513 0 -0.00059435957658461917 0.00067666094501439176 0 0.002348349960169947 0.00065908311614456844 0 0.0026246312774749112 0.00049172291439975979 0 0.0025129440266602582 0.00026977351744295752 0 -0.0027313270319705568 0.00089049068127450856 0 -0.0032333986328633921 0.00028299968115171937 0 -0.0034738088184490998 0.00073324954903913116 0 0.0026298018474169536 0.00033150238068518055 0 0.0025129440266602582 0.00026977351744295752 0 0.0026496692841393738 0.00022621601619737716 0 0.0026246312774749112 0.00049172291439975979 0 0.0026298018474169536 0.00033150238068518055 0 0.0027322979150613005 0.00031611043846540486 0 0.0026246312774749112 0.00049172291439975979 0 0.0026298018474169536 0.00033150238068518055 0 0.0025129440266602582 0.00026977351744295752 0 0.0026298018474169536 0.00033150238068518055 0 0.0027322979150613005 0.00031611043846540486 0 0.0026496692841393738 0.00022621601619737716 0 0.0029703914699812642 -8.4754074155899231e-05 0 0.00018907864492617379 0.00010397319759321958 0 0.0029834867904002149 -5.2284230563939024e-05 0 0.0028364049039974197 -4.0618243112532509e-05 0 0.0028745855196545206 0.00016518362487990708 0 0.0029703914699812642 -8.4754074155899231e-05 0 0.0028448582837512664 0.00022297021171601867 0 0.0028349941114478466 0.00030125889087702666 0 0.0027322979150613005 0.00031611043846540486 0 0.0027801463778644084 0.00042381395357884906 0 0.0028349941114478466 0.00030125889087702666 0 0.0027322979150613005 0.00031611043846540486 0 0.0027823303563493285 0.00019942123123383162 0 -0.0036728007483139251 0.00049559664434158796 0 -0.0034738088184490998 0.00073324954903913116 0 -0.0040094028727826704 0.00071883794327711424 0 -0.0011967213087986435 -0.00015119366212583752 0 -0.00084531963625117195 0.00034791006906207815 0 -0.0015637623187827882 0.00046310242329587574 0 -0.00059435957658461917 0.00067666094501439176 0 0.00018907864492617379 0.00010397319759321958 0 0.0026246312774749112 0.00049172291439975979 0 0.0027322979150613005 0.00031611043846540486 0 0.0027801463778644084 0.00042381395357884906 0 -0.0036728007483139251 0.00049559664434158796 0 -0.0040094028727826704 0.00071883794327711424 0 -0.0038484484980808114 0.00035620921618462225 0 0.00018907864492617379 0.00010397319759321958 0 -0.0028407657414960849 0.00065271531053679777 0 -0.0011967213087986435 -0.00015119366212583752 0 -0.00027961518385587089 -0.00020184573237161794 0 -0.00047101099584725904 0.0001256316716369924 0 0.0029834867904002149 -5.2284230563939024e-05 0 0.0030467481158884284 -0.00021097386185846902 0 0.0028151893231007368 -0.00021879006017339332 0 0.00018907864492617379 0.00010397319759321958 0 0.0014169548334899053 -0.00024803236904617743 0 -0.0011967213087986435 -0.00015119366212583752 0 -0.00084531963625117195 0.00034791006906207815 0 -0.00047101099584725904 0.0001256316716369924 0 -0.0023537437072318813 0.00025893461258643622 0 -0.00098228109921039966 -7.4918399436053816e-05 0 -0.00084531963625117195 0.00034791006906207815 0 -0.0011380543300444283 0.00082377757866358258 0 -0.0015637623187827882 0.00046310242329587574 0 -0.00084531963625117195 0.00034791006906207815 0 -0.00048165301746293243 0.00033302043164743547 0 -0.00036718185403014614 0.00055394595442051541 0 -0.00084531963625117195 0.00034791006906207815 0 -0.0011380543300444283 0.00082377757866358258 0 -0.00036718185403014614 0.00055394595442051541 0 -0.0033463221938443083 -0.0003908092440355384 0 -0.0032968150404931581 -0.0003820241933635569 0 -0.0032578132492022613 -0.00043176493314437509 0 -0.00084531963625117195 0.00034791006906207815 0 -0.00048165301746293243 0.00033302043164743547 0 -0.00047101099584725904 0.0001256316716369924 0 -0.0019276506355662402 0.0010877106531480122 0 -0.0011380543300444283 0.00082377757866358258 0 -0.0015637623187827882 0.00046310242329587574 0 -0.0036325459697749939 0.00022280814020682855 0 -0.0036728007483139251 0.00049559664434158796 0 -0.0038484484980808114 0.00035620921618462225 0 -0.003619524051365472 -0.00010335202450969413 0 -0.0036325459697749939 0.00022280814020682855 0 -0.0038484484980808114 0.00035620921618462225 0 -0.0028718613533191537 0.00023536817601707105 0 -0.0028407657414960849 0.00065271531053679777 0 -0.0033703580311424653 -0.00034030661117315242 0 -0.0033463221938443083 -0.0003908092440355384 0 -0.0033623234445285984 -0.00035991238644897627 0 -0.0028718613533191537 0.00023536817601707105 0 -0.0023537437072318813 0.00025893461258643622 0 -0.0033623234445285984 -0.00035991238644897627 0 -0.0033411531693125509 -0.00035265075222804952 0 -0.0033712950342246859 -0.00034773886549440482 0 -0.0033623234445285984 -0.00035991238644897627 0 -0.0033685359466224347 -0.0003491539059892992 0 -0.0033712950342246859 -0.00034773886549440482 0 -0.0033685359466224347 -0.0003491539059892992 0 -0.0033712950342246859 -0.00034773886549440482 0 -0.0033650921491945791 -0.00035235809127658367 0 -0.0033703580311424653 -0.00034030661117315242 0 -0.0033623234445285984 -0.00035991238644897627 0 -0.0033685359466224347 -0.0003491539059892992 0 -0.0033703580311424653 -0.00034030661117315242 0 -0.0033685359466224347 -0.0003491539059892992 0 -0.0033650921491945791 -0.00035235809127658367 0 -0.0033463221938443083 -0.0003908092440355384 0 -0.0032968150404931581 -0.0003820241933635569 0 -0.0033411531693125509 -0.00035265075222804952 0 -0.0033463221938443083 -0.0003908092440355384 0 -0.0033623234445285984 -0.00035991238644897627 0 -0.0033411531693125509 -0.00035265075222804952 0 -0.0032968150404931581 -0.0003820241933635569 0 -0.0033411531693125509 -0.00035265075222804952 0 -0.0032740350200436258 -0.00034895062260972349 0 -0.0032968150404931581 -0.0003820241933635569 0 -0.0032740350200436258 -0.00034895062260972349 0 -0.0032312312947564924 -0.00037893315345077165 0 -0.0032968150404931581 -0.0003820241933635569 0 -0.0032312312947564924 -0.00037893315345077165 0 -0.0032578132492022613 -0.00043176493314437509 0 -0.0011201957540176496 -0.00023468091702069662 0 -0.0015569526333988296 -0.00017631117587498259 0 -0.0032740350200436258 -0.00034895062260972349 0 -0.0032312312947564924 -0.00037893315345077165 0 -0.0031931405471895577 -0.00031887908848556062 0 0.0010267192848036754 -9.1867598157845392e-05 0 0.00096867769112440882 -0.00010312730146656307 0 0.00099002280402676977 -0.00019173347829105786 0 0.00096867769112440882 -0.00010312730146656307 0 0.00085348353685499052 -0.00019698409116774424 0 0.00099002280402676977 -0.00019173347829105786 0 0.00096867769112440882 -0.00010312730146656307 0 0.00094511697672305397 -1.7377805302323696e-05 0 0.00085348353685499052 -0.00019698409116774424 0 0.00096867769112440882 -0.00010312730146656307 0 0.00098597754109872537 -3.7640963044493848e-05 0 0.00094511697672305397 -1.7377805302323696e-05 0 0.0010267192848036754 -9.1867598157845392e-05 0 0.00096867769112440882 -0.00010312730146656307 0 0.00098597754109872537 -3.7640963044493848e-05 0 0.00098597754109872537 -3.7640963044493848e-05 0 0.00094375686184434624 3.5629354606569938e-05 0 0.0010549914464932932 -7.0292236288663691e-06 0 0.00098597754109872537 -3.7640963044493848e-05 0 0.00094511697672305397 -1.7377805302323696e-05 0 0.00094375686184434624 3.5629354606569938e-05 0 0.00094511697672305397 -1.7377805302323696e-05 0 0.00094375686184434624 3.5629354606569938e-05 0 0.00095153378995925584 5.1936951662729847e-05 0 0.00090389212623889759 0.00012155134542129762 0 -0.00098228109921039966 -7.4918399436053816e-05 0 0.00036884541585177285 0.00027419343980198644 0 -5.3439669540761634e-05 0.00023632847411504774 0 -0.00036963245442921919 0.00053135640274206114 0 -5.3439669540761634e-05 0.00023632847411504774 0 -0.00031344385746010943 0.00029467529868110859 0 -0.00036963245442921919 0.00053135640274206114 0 -0.00031344385746010943 0.00029467529868110859 0 -0.00048165301746293243 0.00033302043164743547 0 -0.00047101099584725904 0.0001256316716369924 0 -0.00031344385746010943 0.00029467529868110859 0 -0.00048165301746293243 0.00033302043164743547 0 -0.00036963245442921919 0.00053135640274206114 0 -0.00068039584460651275 0.00033686974420708436 0 -0.00098228109921039966 -7.4918399436053816e-05 0 -0.0011201957540176496 -0.00023468091702069662 0 -0.00098228109921039966 -7.4918399436053816e-05 0 0.0010267192848036754 -9.1867598157845392e-05 0 0.00098597754109872537 -3.7640963044493848e-05 0 0.0010549914464932932 -7.0292236288663691e-06 0 0.00025162301488386419 -6.8518266340291832e-05 0 0.00085348353685499052 -0.00019698409116774424 0 0.00082447535802938465 6.163710899553606e-05 0 9.2497958613103507e-05 -6.0238019210096209e-05 0 0.00042522494390072536 -0.00020284881604332001 0 0.00025162301488386419 -6.8518266340291832e-05 0 0.00077719197717823481 4.461785950109028e-08 0 -8.1162943366085383e-05 -2.7448719671800829e-07 0 0.00025162301488386419 -6.8518266340291832e-05 0 -0.00061785763031615081 -0.00012588478396142758 0 -0.00025000056024967359 -1.7984613886952671e-05 0 0.00025162301488386419 -6.8518266340291832e-05 0 -8.1162943366085383e-05 -2.7448719671800829e-07 0 -0.00025000056024967359 -1.7984613886952671e-05 0 0.00094511697672305397 -1.7377805302323696e-05 0 0.00085348353685499052 -0.00019698409116774424 0 0.00082447535802938465 6.163710899553606e-05 0 0.00094375686184434624 3.5629354606569938e-05 0 0.00095153378995925584 5.1936951662729847e-05 0 0.0010657063968732123 4.5836749719748197e-05 0 0.00094511697672305397 -1.7377805302323696e-05 0 0.00095153378995925584 5.1936951662729847e-05 0 0.00082447535802938465 6.163710899553606e-05 0 0.00095153378995925584 5.1936951662729847e-05 0 0.00082447535802938465 6.163710899553606e-05 0 0.0010657063968732123 4.5836749719748197e-05 0 0.00082447535802938465 6.163710899553606e-05 0 0.00077719197717823481 4.461785950109028e-08 0 0.0011692168577761761 -1.2093731688815645e-05 0 0.00025162301488386419 -6.8518266340291832e-05 0 0.00082447535802938465 6.163710899553606e-05 0 0.00077719197717823481 4.461785950109028e-08 0 0.0011692168577761761 -1.2093731688815645e-05 0 0.0015062701521966039 -0.00012734520951069713 0 0.0016352901585944392 -2.7150336123608892e-07 0 0.00077719197717823481 4.461785950109028e-08 0 0.0011692168577761761 -1.2093731688815645e-05 0 0.0016352901585944392 -2.7150336123608892e-07 0 0.00082447535802938465 6.163710899553606e-05 0 0.0011692168577761761 -1.2093731688815645e-05 0 0.0010657063968732123 4.5836749719748197e-05 0 0.0011692168577761761 -1.2093731688815645e-05 0 0.0015062701521966039 -0.00012734520951069713 0 0.0010657063968732123 4.5836749719748197e-05 0 0.00036884541585177285 0.00027419343980198644 0 0.0010657063968732123 4.5836749719748197e-05 0 0.00055141298230121198 -0.00024509053236562397 0 0.00090389212623889759 0.00012155134542129762 0 0.0009383764862609074 7.5427703976565255e-05 0 0.0015062701521966039 -0.00012734520951069713 0 0.0010657063968732123 4.5836749719748197e-05 0 0.00055141298230121198 -0.00024509053236562397 0 0.0015183726781764844 -0.00016504079081149531 0 0.001476637336437089 -0.00024398579053691848 0 0.0015062701521966039 -0.00012734520951069713 0 0.0021446810959355367 -4.9041153637240713e-05 0 0.0021819452340303249 7.3988360719245202e-05 0 0.0015062701521966039 -0.00012734520951069713 0 0.0021446810959355367 -4.9041153637240713e-05 0 0.0025020926457317485 -0.00030329836219775922 0 0.002436306420155996 1.494005710159716e-05 0 0.0021446810959355367 -4.9041153637240713e-05 0 0.0025020926457317485 -0.00030329836219775922 0 0.002436306420155996 1.494005710159716e-05 0 0.0021446810959355367 -4.9041153637240713e-05 0 0.0021819452340303249 7.3988360719245202e-05 0 0.0015062701521966039 -0.00012734520951069713 0 0.0016352901585944392 -2.7150336123608892e-07 0 0.0021819452340303249 7.3988360719245202e-05 0 -5.3439669540761634e-05 0.00023632847411504774 0 -0.00027961518385587089 -0.00020184573237161794 0 -0.00047101099584725904 0.0001256316716369924 0 -5.3439669540761634e-05 0.00023632847411504774 0 -0.00031344385746010943 0.00029467529868110859 0 -0.00047101099584725904 0.0001256316716369924 0 0.00036884541585177285 0.00027419343980198644 0 -5.3439669540761634e-05 0.00023632847411504774 0 0.00055141298230121198 -0.00024509053236562397 0 -5.3439669540761634e-05 0.00023632847411504774 0 -0.00027961518385587089 -0.00020184573237161794 0 0.00055141298230121198 -0.00024509053236562397 0 0.0014169548334899053 -0.00024803236904617743 0 0.001476637336437089 -0.00024398579053691848 0 0.0028151893231007368 -0.00021879006017339332 0 0.0025020926457317485 -0.00030329836219775922 0 0.0027080324346634181 7.8641510782738532e-06 0 0.002436306420155996 1.494005710159716e-05 0 0.0025020926457317485 -0.00030329836219775922 0 0.0027080324346634181 7.8641510782738532e-06 0 0.0028151893231007368 -0.00021879006017339332 0 0.0027080324346634181 7.8641510782738532e-06 0 0.0028364049039974197 -4.0618243112532509e-05 0 0.0027080324346634181 7.8641510782738532e-06 0 0.0028364049039974197 -4.0618243112532509e-05 0 0.0028745855196545206 0.00016518362487990708 0 0.0029834867904002149 -5.2284230563939024e-05 0 0.0028151893231007368 -0.00021879006017339332 0 0.0028364049039974197 -4.0618243112532509e-05 0 0.0028098328089970954 0.00018033917379352602 0 0.0028745855196545206 0.00016518362487990708 0 0.0028567025748349683 0.00018850826289494045 0 0.0027080324346634181 7.8641510782738532e-06 0 0.0028098328089970954 0.00018033917379352602 0 0.0028745855196545206 0.00016518362487990708 0 0.0027080324346634181 7.8641510782738532e-06 0 0.0028098328089970954 0.00018033917379352602 0 0.0026265310809631829 0.00015948076097965059 0 0.002436306420155996 1.494005710159716e-05 0 0.0027080324346634181 7.8641510782738532e-06 0 0.0026265310809631829 0.00015948076097965059 0 0.0028098328089970954 0.00018033917379352602 0 0.0026265310809631829 0.00015948076097965059 0 0.0028640218054650133 0.00019703221154270426 0 0.0028098328089970954 0.00018033917379352602 0 0.0028640218054650133 0.00019703221154270426 0 0.0028769083345578845 0.00019594139197573211 0 0.0028098328089970954 0.00018033917379352602 0 0.0028769083345578845 0.00019594139197573211 0 0.0028567025748349683 0.00018850826289494045 0 0.0028769083345578845 0.00019594139197573211 0 0.002877473685107196 0.00018114346966822986 0 0.0028567025748349683 0.00018850826289494045 0 0.0016352901585944392 -2.7150336123608892e-07 0 0.0021819452340303249 7.3988360719245202e-05 0 0.0024933848039176334 3.8351486581535491e-07 0 0.002436306420155996 1.494005710159716e-05 0 0.0026265310809631829 0.00015948076097965059 0 0.0021819452340303249 7.3988360719245202e-05 0 0.0026265310809631829 0.00015948076097965059 0 0.0021819452340303249 7.3988360719245202e-05 0 0.0028027728520016852 0.00013837278603006696 0 0.0026265310809631829 0.00015948076097965059 0 0.0028640218054650133 0.00019703221154270426 0 0.0028027728520016852 0.00013837278603006696 0 0.0021819452340303249 7.3988360719245202e-05 0 0.0028027728520016852 0.00013837278603006696 0 0.0024933848039176334 3.8351486581535491e-07 0 0.0028027728520016852 0.00013837278603006696 0 0.0031469031373472182 0.0001588649755482935 0 0.0033511761222824979 1.7911719108898238e-07 0 0.0028027728520016852 0.00013837278603006696 0 0.0024933848039176334 3.8351486581535491e-07 0 0.0033511761222824979 1.7911719108898238e-07 0 0.0028640218054650133 0.00019703221154270426 0 0.0028027728520016852 0.00013837278603006696 0 0.0031469031373472182 0.0001588649755482935 0 0.0035734688496083401 9.0984134892706307e-05 0 0.0031469031373472182 0.0001588649755482935 0 0.0033511761222824979 1.7911719108898238e-07 0 0.0028769083345578845 0.00019594139197573211 0 0.0029732411386346747 0.00018361952026887973 0 0.002877473685107196 0.00018114346966822986 0 0.0029732411386346747 0.00018361952026887973 0 0.0029455876803164598 0.00014082172478749604 0 0.002877473685107196 0.00018114346966822986 0 0.0028640218054650133 0.00019703221154270426 0 0.0028769083345578845 0.00019594139197573211 0 0.0029732411386346747 0.00018361952026887973 0 0.0028640218054650133 0.00019703221154270426 0 0.0031469031373472182 0.0001588649755482935 0 0.0029732411386346747 0.00018361952026887973 0 0.0032597347283464394 7.2146114353066658e-05 0 0.0031469031373472182 0.0001588649755482935 0 0.0029732411386346747 0.00018361952026887973 0 0.0032597347283464394 7.2146114353066658e-05 0 0.0029732411386346747 0.00018361952026887973 0 0.0029455876803164598 0.00014082172478749604 0 0.0029455876803164598 0.00014082172478749604 0 0.002877473685107196 0.00018114346966822986 0 0.0028059614826726809 0.00014299522287243425 0 0.0029040071569387915 2.0333119846805115e-05 0 0.0029455876803164598 0.00014082172478749604 0 0.0028059614826726809 0.00014299522287243425 0 0.002877473685107196 0.00018114346966822986 0 0.0028059614826726809 0.00014299522287243425 0 0.002793423450592344 0.00017306953319561137 0 0.0028059614826726809 0.00014299522287243425 0 0.0026557042888503903 0.00014171857190781496 0 0.002793423450592344 0.00017306953319561137 0 0.0026557042888503903 0.00014171857190781496 0 0.0026849841887876063 0.00016802628275227683 0 0.002793423450592344 0.00017306953319561137 0 0.0027371854217928654 8.9595766018291142e-05 0 0.0028059614826726809 0.00014299522287243425 0 0.0026557042888503903 0.00014171857190781496 0 0.002633535316743929 0.0001359441696601647 0 0.0027371854217928654 8.9595766018291142e-05 0 0.0026557042888503903 0.00014171857190781496 0 0.002633535316743929 0.0001359441696601647 0 0.0025940727557829343 0.00016155932586905966 0 0.0026557042888503903 0.00014171857190781496 0 0.0025940727557829343 0.00016155932586905966 0 0.0025628551815939523 0.00014180159213552995 0 0.0026557042888503903 0.00014171857190781496 0 0.0026557042888503903 0.00014171857190781496 0 0.0026849841887876063 0.00016802628275227683 0 0.0025184127030873473 0.00013806480769459054 0 0.0025628551815939523 0.00014180159213552995 0 0.0026557042888503903 0.00014171857190781496 0 0.0025184127030873473 0.00013806480769459054 0 0.0025129440266602582 0.00026977351744295752 0 0.0025184127030873473 0.00013806480769459054 0 0.0026496692841393738 0.00022621601619737716 0 0.0021931352190142591 8.4542853800234145e-05 0 0.0025129440266602582 0.00026977351744295752 0 0.0025184127030873473 0.00013806480769459054 0 0.0026849841887876063 0.00016802628275227683 0 0.0025184127030873473 0.00013806480769459054 0 0.0026496692841393738 0.00022621601619737716 0 0.0026849841887876063 0.00016802628275227683 0 0.0026496692841393738 0.00022621601619737716 0 0.0027823303563493285 0.00019942123123383162 0 0.0027322979150613005 0.00031611043846540486 0 0.0026496692841393738 0.00022621601619737716 0 0.0027823303563493285 0.00019942123123383162 0 0.0028349941114478466 0.00030125889087702666 0 0.0027823303563493285 0.00019942123123383162 0 0.0028745855196545206 0.00016518362487990708 0 0.0027823303563493285 0.00019942123123383162 0 0.0028745855196545206 0.00016518362487990708 0 0.0028567025748349683 0.00018850826289494045 0 0.0027823303563493285 0.00019942123123383162 0 0.0028567025748349683 0.00018850826289494045 0 0.002793423450592344 0.00017306953319561137 0 0.002877473685107196 0.00018114346966822986 0 0.0028567025748349683 0.00018850826289494045 0 0.002793423450592344 0.00017306953319561137 0 0.0026849841887876063 0.00016802628275227683 0 0.0027823303563493285 0.00019942123123383162 0 0.002793423450592344 0.00017306953319561137 0 0.0030250363439214153 0.0011321405600084103 0 0.0026857193541283599 0.0010600072023935368 0 0.0030823313337055647 0.00086693793392410973 0 0.0030250363439214153 0.0011321405600084103 0 0.0031680699249016014 0.0011498642699478321 0 0.0032151328024537162 0.00091037141236901382 0 0.0030250363439214153 0.0011321405600084103 0 0.0032151328024537162 0.00091037141236901382 0 0.0030823313337055647 0.00086693793392410973 0 0.0028494608274965906 0.0010832031330452543 0 0.0030823313337055647 0.00086693793392410973 0 0.002880232181023905 0.00084109602803665421 0 0.0027539154623410188 0.0010775005672259705 0 0.003053364830451244 0.00088446562489501233 0 0.0026857193541283599 0.0010600072023935368 0 0.0030614286312044266 0.0014241881401242812 0 0.0024923118555396691 0.0015013925694991926 0 0.0011389434785733915 0.0011498113301598117 0 0.0011366179150018351 0.0011276092969368767 0 0.0030250363439214153 0.0011321405600084103 0 0.0026857193541283599 0.0010600072023935368 0 0.0030614286312044266 0.0014241881401242812 0 0.0031680699249016014 0.0011498642699478321 0 0.0030614286312044266 0.0014241881401242812 0 0.0033714922328459762 0.0011371736503189883 0 0.0030250363439214153 0.0011321405600084103 0 0.0031680699249016014 0.0011498642699478321 0 0.0030614286312044266 0.0014241881401242812 0 0.0011389434785733915 0.0011498113301598117 0 0.0020451094435482019 0.00055175956141058466 0 -0.00050087031363097898 0.00074219208149644503 0 -0.00076637191566154416 0.00076953836938478768 0 -0.00066767353652331029 0.00063954483565144022 0 0.0030614286312044266 0.0014241881401242812 0 0.0035332693412540336 0.0013479610280403378 0 0.0033714922328459762 0.0011371736503189883 0 0.0020451094435482019 0.00055175956141058466 0 0.0034796982899385105 0.0012786463529353954 0 0.0020451094435482019 0.00055175956141058466 0 0.0036673510392353282 0.00039177113131412219 0 0.0026048620694032361 -0.0002830258745354386 0 0.0029453966123208007 0.00011685269618830488 0 0.0031142900048751199 -0.00033897650896691359 0 0.0034820012088572689 0.0011931683097070611 0 0.0035605645929330434 0.00098519239331479997 0 0.0037901204781383372 0.0011579156232681732 0 0.0034820012088572689 0.0011931683097070611 0 0.0035605645929330434 0.00098519239331479997 0 0.0033564358345882692 0.0010421409543453955 0 0.0035605645929330434 0.00098519239331479997 0 0.0034386175484397729 0.00091768911478566813 0 0.0035504467983787816 0.00076130110670600854 0 0.0035605645929330434 0.00098519239331479997 0 0.0035504467983787816 0.00076130110670600854 0 0.0037408182822491472 0.00084803073544057199 0 0.0035605645929330434 0.00098519239331479997 0 0.0033564358345882692 0.0010421409543453955 0 0.0034386175484397729 0.00091768911478566813 0 0.0031680699249016014 0.0011498642699478321 0 0.0032151328024537162 0.00091037141236901382 0 0.0033714922328459762 0.0011371736503189883 0 0.0032151328024537162 0.00091037141236901382 0 0.0033564358345882692 0.0010421409543453955 0 0.0034386175484397729 0.00091768911478566813 0 0.0032151328024537162 0.00091037141236901382 0 0.0034386175484397729 0.00091768911478566813 0 0.0033622940479786753 0.00080943770502589865 0 0.0031900835139939245 0.00088251760312728865 0 0.0034796982899385105 0.0012786463529353954 0 0.0032151328024537162 0.00091037141236901382 0 0.0033622940479786753 0.00080943770502589865 0 0.0032343552394988864 0.00075974111034462957 0 0.0033622940479786753 0.00080943770502589865 0 0.0034159560527118812 0.00066661211447648474 0 0.0035504467983787816 0.00076130110670600854 0 0.0033622940479786753 0.00080943770502589865 0 0.0034159560527118812 0.00066661211447648474 0 0.0032343552394988864 0.00075974111034462957 0 0.0034159560527118812 0.00066661211447648474 0 0.0032343552394988864 0.00075974111034462957 0 0.0032645911863662404 0.0006015144906949012 0 0.0035504467983787816 0.00076130110670600854 0 0.0035265203946625097 0.00051599136769348497 0 0.0037804951128400702 0.00061895605641637823 0 0.0034159560527118812 0.00066661211447648474 0 0.0035504467983787816 0.00076130110670600854 0 0.0035265203946625097 0.00051599136769348497 0 0.0034386175484397729 0.00091768911478566813 0 0.0033622940479786753 0.00080943770502589865 0 0.0035504467983787816 0.00076130110670600854 0 0.0035265203946625097 0.00051599136769348497 0 0.0032645911863662404 0.0006015144906949012 0 0.0033251825410879564 0.00045450633432751373 0 0.0034159560527118812 0.00066661211447648474 0 0.0035265203946625097 0.00051599136769348497 0 0.0032645911863662404 0.0006015144906949012 0 0.0032645911863662404 0.0006015144906949012 0 0.0033251825410879564 0.00045450633432751373 0 0.0031781828161042561 0.0004209270657065959 0 0.0032645911863662404 0.0006015144906949012 0 0.0030317644569534505 0.00064425160448239478 0 0.0030827322859455566 0.00074969842198090012 0 0.0032645911863662404 0.0006015144906949012 0 0.0030317644569534505 0.00064425160448239478 0 0.0031781828161042561 0.0004209270657065959 0 0.0032343552394988864 0.00075974111034462957 0 0.0032645911863662404 0.0006015144906949012 0 0.0030827322859455566 0.00074969842198090012 0 0.0030827322859455566 0.00074969842198090012 0 0.0030823313337055647 0.00086693793392410973 0 0.002880232181023905 0.00084109602803665421 0 0.0032343552394988864 0.00075974111034462957 0 0.0030827322859455566 0.00074969842198090012 0 0.0030823313337055647 0.00086693793392410973 0 0.0032151328024537162 0.00091037141236901382 0 0.0032343552394988864 0.00075974111034462957 0 0.0030823313337055647 0.00086693793392410973 0 0.0030317644569534505 0.00064425160448239478 0 0.0030827322859455566 0.00074969842198090012 0 0.002880232181023905 0.00084109602803665421 0 0.0030317644569534505 0.00064425160448239478 0 0.002880232181023905 0.00084109602803665421 0 0.0028378160384015098 0.00051337154824074088 0 0.0030317644569534505 0.00064425160448239478 0 0.0028378160384015098 0.00051337154824074088 0 0.0031781828161042561 0.0004209270657065959 0 0.002880232181023905 0.00084109602803665421 0 0.0028378160384015098 0.00051337154824074088 0 0.0026067816819853691 0.00064709211718328677 0 0.0028378160384015098 0.00051337154824074088 0 0.0026067816819853691 0.00064709211718328677 0 0.002512107958196614 0.00036495339764353702 0 0.0026067816819853691 0.00064709211718328677 0 0.0022622647410067286 0.00063643607668498919 0 0.002512107958196614 0.00036495339764353702 0 0.0026067816819853691 0.00064709211718328677 0 0.0025334335502352791 0.00087496193451499821 0 0.0022622647410067286 0.00063643607668498919 0 0.0025334335502352791 0.00087496193451499821 0 0.0022622647410067286 0.00063643607668498919 0 0.002253893101432852 0.00094970587195417099 0 0.002880232181023905 0.00084109602803665421 0 0.0026067816819853691 0.00064709211718328677 0 0.0025334335502352791 0.00087496193451499821 0 0.0028494608274965906 0.0010832031330452543 0 0.002880232181023905 0.00084109602803665421 0 0.0025334335502352791 0.00087496193451499821 0 0.0022622647410067286 0.00063643607668498919 0 0.002013153036504759 0.00080286171375905163 0 0.0018512902629317727 0.00048597831964985051 0 0.002013153036504759 0.00080286171375905163 0 0.0018512902629317727 0.00048597831964985051 0 0.0017317089784984138 0.00086088245473986457 0 0.0022622647410067286 0.00063643607668498919 0 0.002253893101432852 0.00094970587195417099 0 0.002013153036504759 0.00080286171375905163 0 0.002013153036504759 0.00080286171375905163 0 0.0020095440230467367 0.0011482727225030653 0 0.0017317089784984138 0.00086088245473986457 0 0.00072264419716319196 0.0004444395886881756 0 0.00074263516670463518 0.00045124027394749072 0 0.00070432055634753502 0.00044087258425414976 0 0.0014919828851574818 0.00085577016883206904 0 0.0012130475104520679 0.00063689903950903798 0 0.002253893101432852 0.00094970587195417099 0 0.002013153036504759 0.00080286171375905163 0 0.0020095440230467367 0.0011482727225030653 0 0.002253893101432852 0.00094970587195417099 0 0.0020095440230467367 0.0011482727225030653 0 0.0022690476857104573 0.0011669570769672008 0 0.00072264419716319196 0.0004444395886881756 0 0.00074765409924638438 0.00047340461673958998 0 0.0007118376931024024 0.00047075949916308598 0 0.0020095440230467367 0.0011482727225030653 0 0.0022741047257521592 0.0013282250345702979 0 0.0022756644518964956 0.001454575532144902 0 0.0014919828851574818 0.00085577016883206904 0 0.00081317943526240275 0.00082424226309159082 0 0.0020095440230467367 0.0011482727225030653 0 0.0022690476857104573 0.0011669570769672008 0 0.0022741047257521592 0.0013282250345702979 0 0.00072264419716319196 0.0004444395886881756 0 0.0007118376931024024 0.00047075949916308598 0 0.00070432055634753502 0.00044087258425414976 0 0.0028494608274965906 0.0010832031330452543 0 0.002466956828650176 0.0011033815054912884 0 0.0025796542866424301 0.0012795481967175872 0 0.0028494608274965906 0.0010832031330452543 0 0.0025334335502352791 0.00087496193451499821 0 0.002466956828650176 0.0011033815054912884 0 0.0025334335502352791 0.00087496193451499821 0 0.002253893101432852 0.00094970587195417099 0 0.002466956828650176 0.0011033815054912884 0 0.002253893101432852 0.00094970587195417099 0 0.0022690476857104573 0.0011669570769672008 0 0.002466956828650176 0.0011033815054912884 0 0.0022690476857104573 0.0011669570769672008 0 0.002466956828650176 0.0011033815054912884 0 0.0023866809177761129 0.0012799275731535948 0 0.002517613694947669 0.0012885959645377539 0 0.0012947477011620934 0.0010102925416311311 0 0.0023866809177761129 0.0012799275731535948 0 0.0025796542866424301 0.0012795481967175872 0 0.0023081217567310621 0.001452577639429839 0 0.002466956828650176 0.0011033815054912884 0 0.0023866809177761129 0.0012799275731535948 0 0.0025796542866424301 0.0012795481967175872 0 0.0022690476857104573 0.0011669570769672008 0 0.0022741047257521592 0.0013282250345702979 0 0.0023866809177761129 0.0012799275731535948 0 0.0022741047257521592 0.0013282250345702979 0 0.0022756644518964956 0.001454575532144902 0 0.0023081217567310621 0.001452577639429839 0 0.0022741047257521592 0.0013282250345702979 0 0.0023866809177761129 0.0012799275731535948 0 0.0023081217567310621 0.001452577639429839 0 0.002281799525391706 0.0012989705667228266 0 0.0024923118555396691 0.0015013925694991926 0 0.0018714712505292367 0.001566355052880527 0 0.0026857193541283599 0.0010600072023935368 0 0.002281799525391706 0.0012989705667228266 0 0.0024923118555396691 0.0015013925694991926 0 0.0027539154623410188 0.0010775005672259705 0 0.002517613694947669 0.0012885959645377539 0 -0.00018131019817861069 0.00073993608528433131 0 -0.00014129463788994795 0.0006027677475597225 0 -0.00029354711078407507 0.00056698888407893402 0 -0.00018131019817861069 0.00073993608528433131 0 -0.00014129463788994795 0.0006027677475597225 0 1.6123066412765903e-05 0.00058665167026062076 0 -0.00018131019817861069 0.00073993608528433131 0 1.6123066412765903e-05 0.00058665167026062076 0 0.00024642226415391667 0.00071418611967171937 0 -0.00014129463788994795 0.0006027677475597225 0 -0.000105718264504415 0.0005119040748431564 0 -0.00029354711078407507 0.00056698888407893402 0 -0.00014129463788994795 0.0006027677475597225 0 -0.000105718264504415 0.0005119040748431564 0 1.6123066412765903e-05 0.00058665167026062076 0 0.00017458229469058368 0.00055224270397663349 0 6.658810645367127e-05 0.00036508401606034934 0 0.00014161551677136926 0.00040166698705647037 0 0.0011366179150018351 0.0011276092969368767 0 0.0012947477011620934 0.0010102925416311311 0 1.6123066412765903e-05 0.00058665167026062076 0 0.00028135007821597724 0.00071009954396199324 0 0.00024642226415391667 0.00071418611967171937 0 0.00081317943526240275 0.00082424226309159082 0 -0.00026150705120733591 0.00023534107790356711 0 1.6123066412765903e-05 0.00058665167026062076 0 0.00028135007821597724 0.00071009954396199324 0 -4.7914994218249689e-05 0.00034270685812402965 0 0.00081317943526240275 0.00082424226309159082 0 0.0012947477011620934 0.0010102925416311311 0 0.00017458229469058368 0.00055224270397663349 0 6.658810645367127e-05 0.00036508401606034934 0 -4.7914994218249689e-05 0.00034270685812402965 0 0.00014161551677136926 0.00040166698705647037 0 0.00012661818477080478 0.00033024585955714351 0 0.00022646175544093917 0.00035968466552265379 0 6.658810645367127e-05 0.00036508401606034934 0 0.00014161551677136926 0.00040166698705647037 0 0.00012661818477080478 0.00033024585955714351 0 0.00012661818477080478 0.00033024585955714351 0 0.00017238762218138077 0.00027172293512684836 0 8.7142151724268091e-05 0.00027815570396332858 0 6.658810645367127e-05 0.00036508401606034934 0 0.00012661818477080478 0.00033024585955714351 0 8.7142151724268091e-05 0.00027815570396332858 0 2.201838378602443e-05 0.00031744913338205494 0 -7.1374030307669898e-06 0.00027548020361307512 0 8.7142151724268091e-05 0.00027815570396332858 0 6.658810645367127e-05 0.00036508401606034934 0 2.201838378602443e-05 0.00031744913338205494 0 -4.7914994218249689e-05 0.00034270685812402965 0 6.658810645367127e-05 0.00036508401606034934 0 2.201838378602443e-05 0.00031744913338205494 0 8.7142151724268091e-05 0.00027815570396332858 0 3.4353554848454706e-05 0.00028682909335264051 0 -0.00034016003611831341 0.00058331234686861792 0 2.201838378602443e-05 0.00031744913338205494 0 -7.1374030307669898e-06 0.00027548020361307512 0 -4.7914994218249689e-05 0.00034270685812402965 0 -7.1374030307669898e-06 0.00027548020361307512 0 -4.7914994218249689e-05 0.00034270685812402965 0 -0.00029354711078407507 0.00056698888407893402 0 -0.000105718264504415 0.0005119040748431564 0 1.6123066412765903e-05 0.00058665167026062076 0 -4.7914994218249689e-05 0.00034270685812402965 0 -0.00021303990404889476 0.00038119342296592281 0 -0.00029106548095023669 0.00040324907730815597 0 -0.00029354711078407507 0.00056698888407893402 0 -0.000105718264504415 0.0005119040748431564 0 -4.7914994218249689e-05 0.00034270685812402965 0 -0.00029354711078407507 0.00056698888407893402 0 0.00037307904437393759 0.00050665944987620781 0 0.00027536169609962467 0.00045627006212316869 0 0.0003277098415272405 0.00037451905392539521 0 0.00081317943526240275 0.00082424226309159082 0 0.00047151691589217856 0.00045982425257949178 0 0.00017458229469058368 0.00055224270397663349 0 0.00014161551677136926 0.00040166698705647037 0 0.000203252060706649 0.00044007122501683068 0 0.0001884021569641814 0.0005303789295737979 0 0.00037307904437393759 0.00050665944987620781 0 0.00027536169609962467 0.00045627006212316869 0 0.00081317943526240275 0.00082424226309159082 0 0.00023308241327410237 0.00057917532584624259 0 0.00017458229469058368 0.00055224270397663349 0 0.00027536169609962467 0.00045627006212316869 0 0.000203252060706649 0.00044007122501683068 0 0.00027536169609962467 0.00045627006212316869 0 0.000203252060706649 0.00044007122501683068 0 0.00022646175544093917 0.00035968466552265379 0 0.00014161551677136926 0.00040166698705647037 0 0.000203252060706649 0.00044007122501683068 0 0.00022646175544093917 0.00035968466552265379 0 0.00012661818477080478 0.00033024585955714351 0 0.00022646175544093917 0.00035968466552265379 0 0.00017238762218138077 0.00027172293512684836 0 0.00022646175544093917 0.00035968466552265379 0 0.00029001948684844191 0.0002721476257964041 0 0.00017238762218138077 0.00027172293512684836 0 0.00022646175544093917 0.00035968466552265379 0 0.0003277098415272405 0.00037451905392539521 0 0.00029001948684844191 0.0002721476257964041 0 0.00027536169609962467 0.00045627006212316869 0 0.00022646175544093917 0.00035968466552265379 0 0.0003277098415272405 0.00037451905392539521 0 0.00037307904437393759 0.00050665944987620781 0 0.0003277098415272405 0.00037451905392539521 0 0.00043956720977568605 0.00033202791186960628 0 0.0003277098415272405 0.00037451905392539521 0 0.00029001948684844191 0.0002721476257964041 0 0.00043956720977568605 0.00033202791186960628 0 0.00041231165989315222 0.00018612558168671655 0 0.00029001948684844191 0.0002721476257964041 0 0.00043956720977568605 0.00033202791186960628 0 0.00041231165989315222 0.00018612558168671655 0 0.00029001948684844191 0.0002721476257964041 0 0.00016282490230702277 0.00013070644547658281 0 0.00029001948684844191 0.0002721476257964041 0 0.00017238762218138077 0.00027172293512684836 0 0.00016282490230702277 0.00013070644547658281 0 -0.00054306850260872922 0.00023075327126778215 0 -0.0015515506301333297 0.00012942801110071126 0 -0.0011287545992161633 -0.00032851112424655984 0 -2.9521503420264985e-05 0.00019464274872871631 0 -0.00084351354840707198 0.00019787882216964375 0 -0.0019533379488924133 0.00047744367041254739 0 -0.0013638669346469734 -0.00014671980285761667 0 -0.0019121948310429758 -0.00027658618574040867 0 -0.00084351354840707198 0.00019787882216964375 0 -0.0013351863476442278 -0.00016437022196832295 0 -0.00054306850260872922 0.00023075327126778215 0 -0.00056603220962500502 -0.00039141686633143542 0 -0.0011287545992161633 -0.00032851112424655984 0 -0.00021902026033070152 0.00030258042149219254 0 -0.00028750939328589222 0.00031704233297385673 0 -0.00025235112906733321 0.00022634736220800546 0 -0.00029106548095023669 0.00040324907730815597 0 -0.00028750939328589222 0.00031704233297385673 0 -0.00024877819285152973 0.00034752207490149702 0 -0.00021303990404889476 0.00038119342296592281 0 -0.00029106548095023669 0.00040324907730815597 0 -0.00024877819285152973 0.00034752207490149702 0 -0.00021303990404889476 0.00038119342296592281 0 -0.00021902026033070152 0.00030258042149219254 0 -0.00024877819285152973 0.00034752207490149702 0 -0.00021902026033070152 0.00030258042149219254 0 -0.00028750939328589222 0.00031704233297385673 0 -0.00024877819285152973 0.00034752207490149702 0 3.4353554848454706e-05 0.00028682909335264051 0 -0.00084351354840707198 0.00019787882216964375 0 -7.1374030307669898e-06 0.00027548020361307512 0 8.7142151724268091e-05 0.00027815570396332858 0 0.00016282490230702277 0.00013070644547658281 0 -0.00021303990404889476 0.00038119342296592281 0 -0.00021902026033070152 0.00030258042149219254 0 -0.00010819538045101005 0.00024815029503685876 0 0.00017238762218138077 0.00027172293512684836 0 8.7142151724268091e-05 0.00027815570396332858 0 0.00016282490230702277 0.00013070644547658281 0 -0.00021902026033070152 0.00030258042149219254 0 -0.00010819538045101005 0.00024815029503685876 0 -0.00025235112906733321 0.00022634736220800546 0 -0.00084351354840707198 0.00019787882216964375 0 -0.0014026048572545705 0.00033405924470565542 0 -0.0019533379488924133 0.00047744367041254739 0 -0.0024782059093775718 -0.00013599134499687432 0 -0.0019121948310429758 -0.00027658618574040867 0 -0.0019533379488924133 0.00047744367041254739 0 -0.0024782059093775718 -0.00013599134499687432 0 -0.0029763302705634281 0.00036247564763309539 0 -0.0024782059093775718 -0.00013599134499687432 0 -0.0029763302705634281 0.00036247564763309539 0 -0.0031813420001897724 -0.00027361643610626754 0 -0.0029763302705634281 0.00036247564763309539 0 -0.003976132753462946 0.00024898888478163994 0 -0.0031813420001897724 -0.00027361643610626754 0 -0.00028750939328589222 0.00031704233297385673 0 -0.00025235112906733321 0.00022634736220800546 0 -0.00043521795590813022 0.00019316758533458541 0 -0.0014026048572545705 0.00033405924470565542 0 -0.0034606009361199154 2.8563485437368055e-05 0 -0.0034606009361199154 2.8563485437368055e-05 0 -0.0051558337511455055 -9.8145153608712721e-05 0 -0.0033448151827342402 -7.3796562916361605e-05 0 -0.0036443787732211913 0.00012910087562524827 0 -0.0035929324885191024 -0.00010231789098837289 0 -0.0034606009361199154 2.8563485437368055e-05 0 -0.0053236814056255499 -0.00012148772335255167 0 -0.0065779010449858203 -0.00014751154135304108 0 -0.0066275414112434055 -0.00015937497376055596 0 -0.0066147808988367392 -0.00018489873681248891 0 -0.00049447100780048055 0.0003369679218731873 0 -0.00058177647343727386 0.00037463368431143545 0 -0.00064642672153233396 0.00031985551589176731 0 -0.00043521795590813022 0.00019316758533458541 0 -0.00049447100780048055 0.0003369679218731873 0 -0.00064642672153233396 0.00031985551589176731 0 -0.0034606009361199154 2.8563485437368055e-05 0 -0.0015831300825903641 0.00018773380332378592 0 -0.00028750939328589222 0.00031704233297385673 0 -0.00043521795590813022 0.00019316758533458541 0 -0.00037473319558313907 0.00036879635875608372 0 -0.00043521795590813022 0.00019316758533458541 0 -0.00049447100780048055 0.0003369679218731873 0 -0.00037473319558313907 0.00036879635875608372 0 -0.00029106548095023669 0.00040324907730815597 0 -0.00028750939328589222 0.00031704233297385673 0 -0.00037473319558313907 0.00036879635875608372 0 -0.00029106548095023669 0.00040324907730815597 0 -0.00036943835266715702 0.00046478211704875985 0 -0.00029354711078407507 0.00056698888407893402 0 -0.00029106548095023669 0.00040324907730815597 0 -0.00037473319558313907 0.00036879635875608372 0 -0.00036943835266715702 0.00046478211704875985 0 -0.00036943835266715702 0.00046478211704875985 0 -0.00043824400122673786 0.00055232225474890139 0 -0.00029354711078407507 0.00056698888407893402 0 -0.00037473319558313907 0.00036879635875608372 0 -0.00036943835266715702 0.00046478211704875985 0 -0.00047631428353950463 0.00044311811693423573 0 -0.00049447100780048055 0.0003369679218731873 0 -0.00037473319558313907 0.00036879635875608372 0 -0.00047631428353950463 0.00044311811693423573 0 -0.00049447100780048055 0.0003369679218731873 0 -0.00047631428353950463 0.00044311811693423573 0 -0.00058177647343727386 0.00037463368431143545 0 -0.00047631428353950463 0.00044311811693423573 0 -0.00058177647343727386 0.00037463368431143545 0 -0.0005911316934194132 0.00046465583416923332 0 -0.00047631428353950463 0.00044311811693423573 0 -0.0005539490220103937 0.00056310230034726377 0 -0.0005911316934194132 0.00046465583416923332 0 -0.00047631428353950463 0.00044311811693423573 0 -0.00043824400122673786 0.00055232225474890139 0 -0.0005539490220103937 0.00056310230034726377 0 -0.00036943835266715702 0.00046478211704875985 0 -0.00047631428353950463 0.00044311811693423573 0 -0.00043824400122673786 0.00055232225474890139 0 -0.00050087031363097898 0.00074219208149644503 0 -0.00043824400122673786 0.00055232225474890139 0 -0.0005539490220103937 0.00056310230034726377 0 -0.00050087031363097898 0.00074219208149644503 0 -0.0005539490220103937 0.00056310230034726377 0 -0.00066767353652331029 0.00063954483565144022 0 -0.00050087031363097898 0.00074219208149644503 0 -0.00043824400122673786 0.00055232225474890139 0 -0.00029354711078407507 0.00056698888407893402 0 -0.00050087031363097898 0.00074219208149644503 0 -0.00018131019817861069 0.00073993608528433131 0 -0.00029354711078407507 0.00056698888407893402 0 0.0020451094435482019 0.00055175956141058466 0 0.00084451564725996394 0.00023284437725301565 0 -0.00076637191566154416 0.00076953836938478768 0 -0.00078682587908555728 0.00059412428150839994 0 -0.00095384097313071367 0.0005711980676305345 0 -0.00078682587908555728 0.00059412428150839994 0 -0.00085345847614947215 0.000474894008749585 0 -0.00095384097313071367 0.0005711980676305345 0 -0.00076637191566154416 0.00076953836938478768 0 -0.00078682587908555728 0.00059412428150839994 0 -0.00066767353652331029 0.00063954483565144022 0 -0.0005539490220103937 0.00056310230034726377 0 -0.00066767353652331029 0.00063954483565144022 0 -0.00069778635039949939 0.00051125233525244583 0 -0.00078682587908555728 0.00059412428150839994 0 -0.00066767353652331029 0.00063954483565144022 0 -0.00069778635039949939 0.00051125233525244583 0 -0.0005539490220103937 0.00056310230034726377 0 -0.00069778635039949939 0.00051125233525244583 0 -0.0005911316934194132 0.00046465583416923332 0 -0.00069778635039949939 0.00051125233525244583 0 -0.0005911316934194132 0.00046465583416923332 0 -0.00067258540308663131 0.00040985893699460217 0 -0.00058177647343727386 0.00037463368431143545 0 -0.00067258540308663131 0.00040985893699460217 0 -0.0006644010741421615 0.00034493719939790012 0 -0.00058177647343727386 0.00037463368431143545 0 -0.0005911316934194132 0.00046465583416923332 0 -0.00067258540308663131 0.00040985893699460217 0 -0.00067258540308663131 0.00040985893699460217 0 -0.00077456418230876904 0.00039612184057278562 0 -0.00072235820114752256 0.0003523367492680922 0 -0.00069778635039949939 0.00051125233525244583 0 -0.00067258540308663131 0.00040985893699460217 0 -0.00077456418230876904 0.00039612184057278562 0 -0.00067258540308663131 0.00040985893699460217 0 -0.0006644010741421615 0.00034493719939790012 0 -0.00072235820114752256 0.0003523367492680922 0 -0.00077456418230876904 0.00039612184057278562 0 -0.00085345847614947215 0.000474894008749585 0 -0.00087862721145227148 0.00037806222444848614 0 -0.00077456418230876904 0.00039612184057278562 0 -0.00087862721145227148 0.00037806222444848614 0 -0.0008236849617959469 0.00033655275229466206 0 -0.00069778635039949939 0.00051125233525244583 0 -0.00077456418230876904 0.00039612184057278562 0 -0.00085345847614947215 0.000474894008749585 0 -0.00078682587908555728 0.00059412428150839994 0 -0.00069778635039949939 0.00051125233525244583 0 -0.00085345847614947215 0.000474894008749585 0 -0.00085345847614947215 0.000474894008749585 0 -0.00087862721145227148 0.00037806222444848614 0 -0.00099918184533994325 0.00038350125214620736 0 -0.0028243247201981364 -0.00030836191981302929 0 -0.00045402551513976775 0.0004110313635352521 0 -0.00087862721145227148 0.00037806222444848614 0 -0.00086706638581032314 0.00028052617905267743 0 -0.0008236849617959469 0.00033655275229466206 0 -0.00086706638581032314 0.00028052617905267743 0 -0.00087195768927850659 9.2221342290994577e-05 0 -0.00099918184533994325 0.00038350125214620736 0 -0.00087862721145227148 0.00037806222444848614 0 -0.00086706638581032314 0.00028052617905267743 0 -0.00099918184533994325 0.00038350125214620736 0 -0.00086706638581032314 0.00028052617905267743 0 -0.00077422921463773367 0.00029155870806658359 0 -0.00087195768927850659 9.2221342290994577e-05 0 -0.00077456418230876904 0.00039612184057278562 0 -0.0008236849617959469 0.00033655275229466206 0 -0.00077422921463773367 0.00029155870806658359 0 -0.00086706638581032314 0.00028052617905267743 0 -0.0008236849617959469 0.00033655275229466206 0 -0.00077422921463773367 0.00029155870806658359 0 -0.0015831300825903641 0.00018773380332378592 0 -0.0028243247201981364 -0.00030836191981302929 0 -0.00077422921463773367 0.00029155870806658359 0 -0.00066305959073128769 0.00028334026130817679 0 -0.00087195768927850659 9.2221342290994577e-05 0 -0.00072904044979992715 0.00055863891733075072 0 -0.0015831300825903641 0.00018773380332378592 0 -0.00058177647343727386 0.00037463368431143545 0 -0.0006644010741421615 0.00034493719939790012 0 -0.00066132291223585358 0.00028498357052706059 0 -0.0006644010741421615 0.00034493719939790012 0 -0.00066132291223585358 0.00028498357052706059 0 -0.00068478036750417321 0.00029923865440087855 0 -0.0015831300825903641 0.00018773380332378592 0 -0.0014555295669591594 0.0001409208841305861 0 -0.00077456418230876904 0.00039612184057278562 0 -0.00077422921463773367 0.00029155870806658359 0 -0.00072235820114752256 0.0003523367492680922 0 -0.00077422921463773367 0.00029155870806658359 0 -0.00066305959073128769 0.00028334026130817679 0 -0.00068478036750417321 0.00029923865440087855 0 -0.0006644010741421615 0.00034493719939790012 0 -0.00068478036750417321 0.00029923865440087855 0 -0.00072235820114752256 0.0003523367492680922 0 -0.00077422921463773367 0.00029155870806658359 0 -0.00068478036750417321 0.00029923865440087855 0 -0.00072235820114752256 0.0003523367492680922 0 -0.0036443787732211913 0.00012910087562524827 0 -0.0035929324885191024 -0.00010231789098837289 0 -0.0038719322340906464 -7.5180816492233167e-05 0 -0.0053236814056255499 -0.00012148772335255167 0 -0.0055527130744988584 -0.00084902133091218767 0 -0.0035929324885191024 -0.00010231789098837289 0 -0.0038719322340906464 -7.5180816492233167e-05 0 -0.0038467506876383012 -0.00013307814934487464 0 -0.00093921566130848353 0.00012721135846977165 0 -0.00099042381457033245 8.2595137807193436e-05 0 -0.0010183721033681747 0.00020811130653924033 0 -0.0028243247201981364 -0.00030836191981302929 0 -0.0055527130744988584 -0.00084902133091218767 0 -0.0040495560169228149 -0.0010506132482714663 0 -0.0039324478723872097 -0.0012916830236515339 0 -0.0043561199414734958 -0.0013403614643765743 0 -0.0055527130744988584 -0.00084902133091218767 0 -0.0046714645887695853 -0.0015847710808541068 0 -0.0028243247201981364 -0.00030836191981302929 0 -0.0046714645887695853 -0.0015847710808541068 0 -0.0046714645887695853 -0.0015847710808541068 0 -0.0021111313139589825 -0.00075776062879277361 0 -0.00099042381457033245 8.2595137807193436e-05 0 -0.0011016131339500657 0.00018120406165090855 0 -0.0012205195228623511 5.9492663662484776e-05 0 -0.00099042381457033245 8.2595137807193436e-05 0 -0.0011016131339500657 0.00018120406165090855 0 -0.0010183721033681747 0.00020811130653924033 0 -0.00093921566130848353 0.00012721135846977165 0 -0.0010183721033681747 0.00020811130653924033 0 -0.00099918184533994325 0.00038350125214620736 0 -0.0010183721033681747 0.00020811130653924033 0 -0.0010578277082182244 0.00027803826513213747 0 -0.00099918184533994325 0.00038350125214620736 0 -0.0011016131339500657 0.00018120406165090855 0 -0.0010578277082182244 0.00027803826513213747 0 -0.0011265710619859355 0.00035793641306575949 0 -0.0011016131339500657 0.00018120406165090855 0 -0.0010183721033681747 0.00020811130653924033 0 -0.0010578277082182244 0.00027803826513213747 0 -0.0010578277082182244 0.00027803826513213747 0 -0.00099918184533994325 0.00038350125214620736 0 -0.0011265710619859355 0.00035793641306575949 0 0.0035373108182032323 0.00056295007406305213 0 0.0036033055059186679 0.00081233998231699557 0 0.0033001915519324928 0.00050687494748482068 0 -0.0011016131339500657 0.00018120406165090855 0 -0.0011775139531929118 0.00016787000845455816 0 -0.0011265710619859355 0.00035793641306575949 0 0.0026141130710092882 -6.7510480167648869e-05 0 0.00095148340489257751 0.00046376898528804487 0 -0.0011775139531929118 0.00016787000845455816 0 -0.0012514642967685293 0.00018166446602101792 0 -0.0011265710619859355 0.00035793641306575949 0 -0.0011775139531929118 0.00016787000845455816 0 -0.0012205195228623511 5.9492663662484776e-05 0 -0.0012514642967685293 0.00018166446602101792 0 -0.0011016131339500657 0.00018120406165090855 0 -0.0011775139531929118 0.00016787000845455816 0 -0.0012205195228623511 5.9492663662484776e-05 0 -0.0021111313139589825 -0.00075776062879277361 0 0.0026141130710092882 -6.7510480167648869e-05 0 0.0035676651549039901 -0.00033238463645552931 0 0.0036218495239828449 -0.00038708901781225728 0 0.0035769694318059497 -0.0004030662736644155 0 0.0035676651549039901 -0.00033238463645552931 0 0.0036218495239828449 -0.00038708901781225728 0 0.0036169851992756108 -0.00048570968213141436 0 0.0036218495239828449 -0.00038708901781225728 0 0.0036539092793630976 -0.00025001331789578516 0 0.0036004288624607072 -0.00033604076728062712 0 0.0036218495239828449 -0.00038708901781225728 0 0.0036539092793630976 -0.00025001331789578516 0 0.0038252287018026051 -0.00019986230215899285 0 0.0036756634297289681 -0.00020743871892704358 0 0.0026141130710092882 -6.7510480167648869e-05 0 0.0034941052690356735 -0.00029865895475607302 0 0.0034180449400502246 -0.00033642387911942301 0 0.0035229659248002514 -0.00033624328610395142 0 0.0034941052690356735 -0.00029865895475607302 0 0.0035722960352662361 -0.00027751836565833904 0 0.0035229659248002514 -0.00033624328610395142 0 0.0036218495239828449 -0.00038708901781225728 0 0.0036004288624607072 -0.00033604076728062712 0 0.0036169851992756108 -0.00048570968213141436 0 0.0036004288624607072 -0.00033604076728062712 0 0.0035722960352662361 -0.00027751836565833904 0 0.0035229659248002514 -0.00033624328610395142 0 0.0036004288624607072 -0.00033604076728062712 0 0.0035229659248002514 -0.00033624328610395142 0 0.0036169851992756108 -0.00048570968213141436 0 0.0036539092793630976 -0.00025001331789578516 0 0.0036004288624607072 -0.00033604076728062712 0 0.0035722960352662361 -0.00027751836565833904 0 0.0035722960352662361 -0.00027751836565833904 0 0.0035249968215417308 -0.000228364488301008 0 0.0036193286951419273 -0.00017697179369482956 0 0.0036539092793630976 -0.00025001331789578516 0 0.0035722960352662361 -0.00027751836565833904 0 0.0036193286951419273 -0.00017697179369482956 0 0.0034941052690356735 -0.00029865895475607302 0 0.0035722960352662361 -0.00027751836565833904 0 0.0035249968215417308 -0.000228364488301008 0 0.0034941052690356735 -0.00029865895475607302 0 0.0035249968215417308 -0.000228364488301008 0 0.0034308220151278621 -0.0002916438418412476 0 0.0035249968215417308 -0.000228364488301008 0 0.0035504832092587372 -0.00010982673628415432 0 0.0036193286951419273 -0.00017697179369482956 0 0.0035249968215417308 -0.000228364488301008 0 0.0035504832092587372 -0.00010982673628415432 0 0.0034551540445867919 -0.00020839646221394782 0 0.0035504832092587372 -0.00010982673628415432 0 0.0036193286951419273 -0.00017697179369482956 0 0.0036640698613311421 -2.4288546030808559e-05 0 0.0036193286951419273 -0.00017697179369482956 0 0.0036640698613311421 -2.4288546030808559e-05 0 0.0037075340463442815 -0.00010391960330409103 0 0.0035504832092587372 -0.00010982673628415432 0 0.0036640698613311421 -2.4288546030808559e-05 0 0.0035992674544902447 1.7904280763832498e-05 0 0.0038252287018026051 -0.00019986230215899285 0 0.0037075340463442815 -0.00010391960330409103 0 0.0037704306557779085 9.9247075930372918e-05 0 0.0035373108182032323 0.00056295007406305213 0 0.0036033055059186679 0.00081233998231699557 0 0.0037425937351538716 0.00053806525192646385 0 0.0036033055059186679 0.00081233998231699557 0 0.0037425937351538716 0.00053806525192646385 0 0.0038518757069420108 0.00039708639716200174 0 0.0036640698613311421 -2.4288546030808559e-05 0 0.0037075340463442815 -0.00010391960330409103 0 0.0037704306557779085 9.9247075930372918e-05 0 0.0026141130710092882 -6.7510480167648869e-05 0 0.0039525661159931346 0.00029369152408841378 0 0.0036539092793630976 -0.00025001331789578516 0 0.0036193286951419273 -0.00017697179369482956 0 0.0037075340463442815 -0.00010391960330409103 0 0.0036539092793630976 -0.00025001331789578516 0 0.0038252287018026051 -0.00019986230215899285 0 0.0037075340463442815 -0.00010391960330409103 0 0.0037425937351538716 0.00053806525192646385 0 0.0036699931572534172 7.5424982443451165e-05 0 0.0035061836489561375 0.00036838939984026886 0 0.0037425937351538716 0.00053806525192646385 0 0.0038518757069420108 0.00039708639716200174 0 0.0038312528050976915 0.00029429696922667476 0 0.0037575611627011295 0.00054721928125909646 0 0.0037410359574603972 0.00011479548349309028 0 0.003693444850244774 7.1759367618392503e-05 0 0.0037222783124831005 0.00016276337638148171 0 0.0035992674544902447 1.7904280763832498e-05 0 0.0037704306557779085 9.9247075930372918e-05 0 0.003693444850244774 7.1759367618392503e-05 0 0.0037222783124831005 0.00016276337638148171 0 0.0036640698613311421 -2.4288546030808559e-05 0 0.003693444850244774 7.1759367618392503e-05 0 0.0035992674544902447 1.7904280763832498e-05 0 0.0036640698613311421 -2.4288546030808559e-05 0 0.0037704306557779085 9.9247075930372918e-05 0 0.003693444850244774 7.1759367618392503e-05 0 0.0037222783124831005 0.00016276337638148171 0 0.0037360347319255428 0.00027850604409269443 0 0.003787102976848583 0.00024800724548662095 0 0.0037704306557779085 9.9247075930372918e-05 0 0.0037222783124831005 0.00016276337638148171 0 0.003787102976848583 0.00024800724548662095 0 0.0038518757069420108 0.00039708639716200174 0 0.0038312528050976915 0.00029429696922667476 0 0.0038829765031281591 0.00024956915620490941 0 0.0038518757069420108 0.00039708639716200174 0 0.0038829765031281591 0.00024956915620490941 0 0.0039442998378236144 0.0002193171070758024 0 0.0039525661159931346 0.00029369152408841378 0 0.0038475546052750584 0.00023271972398176497 0 0.0038312528050976915 0.00029429696922667476 0 0.0038829765031281591 0.00024956915620490941 0 0.0038867199483213948 0.00020784216985371895 0 0.0036699931572534172 7.5424982443451165e-05 0 0.0034385612039162438 -0.00012866587360313544 0 0.0036092889713139091 -0.00038503732840616155 0 0.0036699931572534172 7.5424982443451165e-05 0 0.0033191098144637679 0.0001555646489408456 0 0.0034385612039162438 -0.00012866587360313544 0 0.0033191098144637679 0.0001555646489408456 0 0.0034385612039162438 -0.00012866587360313544 0 0.0031142900048751199 -0.00033897650896691359 0 0.0033191098144637679 0.0001555646489408456 0 0.0029453966123208007 0.00011685269618830488 0 0.0031142900048751199 -0.00033897650896691359 0 0.00084451564725996394 0.00023284437725301565 0 0.00095148340489257751 0.00046376898528804487 0 0.0033191098144637679 0.0001555646489408456 0 0.0029453966123208007 0.00011685269618830488 0 0.0033001915519324928 0.00050687494748482068 0 -0.00085345847614947215 0.000474894008749585 0 -0.00095384097313071367 0.0005711980676305345 0 -0.00099918184533994325 0.00038350125214620736 0 -0.00095384097313071367 0.0005711980676305345 0 -0.00099918184533994325 0.00038350125214620736 0 -0.0011265710619859355 0.00035793641306575949 0 0.0036699931572534172 7.5424982443451165e-05 0 0.0033191098144637679 0.0001555646489408456 0 0.0035061836489561375 0.00036838939984026886 0 0.0033191098144637679 0.0001555646489408456 0 0.0033001915519324928 0.00050687494748482068 0 0.0035061836489561375 0.00036838939984026886 0 0.0035373108182032323 0.00056295007406305213 0 0.0033001915519324928 0.00050687494748482068 0 0.0035061836489561375 0.00036838939984026886 0 0.0035373108182032323 0.00056295007406305213 0 0.0037425937351538716 0.00053806525192646385 0 0.0035061836489561375 0.00036838939984026886 0 0.0029141591662675197 -0.00016328316052973603 0 0.0030599314558172725 -0.00012437069096283567 0 0.0029667541174071528 -2.4435840155878803e-05 0 0.0030599314558172725 -0.00012437069096283567 0 0.0031734442273146845 -0.00014001671673780365 0 0.003128995217594987 -2.0420102525136206e-05 0 0.0030599314558172725 -0.00012437069096283567 0 0.003128995217594987 -2.0420102525136206e-05 0 0.0029667541174071528 -2.4435840155878803e-05 0 0.0030599314558172725 -0.00012437069096283567 0 0.003088379771324003 -0.0002254159262770119 0 0.0030065326675233575 -0.00021857652236564239 0 0.0030599314558172725 -0.00012437069096283567 0 0.003088379771324003 -0.0002254159262770119 0 0.0031734442273146845 -0.00014001671673780365 0 0.003088379771324003 -0.0002254159262770119 0 0.0030065326675233575 -0.00021857652236564239 0 0.0030249639974435035 -0.00027579498325975817 0 0.0029141591662675197 -0.00016328316052973603 0 0.0030065326675233575 -0.00021857652236564239 0 0.0029428413972731084 -0.00027382059358950451 0 0.0029141591662675197 -0.00016328316052973603 0 0.0030599314558172725 -0.00012437069096283567 0 0.0030065326675233575 -0.00021857652236564239 0 0.0030065326675233575 -0.00021857652236564239 0 0.0029428413972731084 -0.00027382059358950451 0 0.0030249639974435035 -0.00027579498325975817 0 0.0029428413972731084 -0.00027382059358950451 0 0.0030064521673158293 -0.00034381801370098226 0 0.0030249639974435035 -0.00027579498325975817 0 0.0029428413972731084 -0.00027382059358950451 0 0.0030064521673158293 -0.00034381801370098226 0 0.002915982635054209 -0.00037516795034824729 0 0.002915982635054209 -0.00037516795034824729 0 0.0029525096714646472 -0.00041651721807504997 0 0.0029069280543932517 -0.00044083831025482192 0 0.0019570730758265032 -0.00086284068595033942 0 0.0013040085453674879 -0.00065068298510952995 0 0.0030064521673158293 -0.00034381801370098226 0 0.002915982635054209 -0.00037516795034824729 0 0.0029708608767027829 -0.00042817853245648811 0 0.00076924422896456084 -0.00069878895812644753 0 0.00077773838888727702 -0.00070608709475162852 0 0.00075362253423473687 -0.00070748951695132263 0 9.5775407041506346e-05 -0.00058930224223493945 0 0.00058648998866641191 -0.0006352657234803237 0 0.0013040085453674879 -0.00065068298510952995 0 9.5775407041506346e-05 -0.00058930224223493945 0 0.0013040085453674879 -0.00065068298510952995 0 0.00058648998866641191 -0.0006352657234803237 0 -0.00052740361907792333 -0.00070864793329218298 0 -0.00057035669972790013 -0.00071033160534316147 0 -0.00055476420203371595 -0.00068613744229854194 0 0.00078039130960086964 -0.00060247908857067982 0 0.00080224991283146807 -0.00062227705690720374 0 0.00086847313996052031 -0.00056046303489930532 0 0.0013040085453674879 -0.00065068298510952995 0 0.0017939288101189259 -0.00049624928679385552 0 9.5775407041506346e-05 -0.00058930224223493945 0 0.00016292015815875326 -0.0005637836950280246 0 0.00080224991283146807 -0.00062227705690720374 0 0.00086655115021555215 -0.00059982843079484332 0 0.00090002022079974824 -0.00061324645401760684 0 0.00080224991283146807 -0.00062227705690720374 0 0.00086655115021555215 -0.00059982843079484332 0 0.00086847313996052031 -0.00056046303489930532 0 0.00086655115021555215 -0.00059982843079484332 0 0.00086847313996052031 -0.00056046303489930532 0 0.00090002022079974824 -0.00061324645401760684 0 0.0030064521673158293 -0.00034381801370098226 0 0.0029708608767027829 -0.00042817853245648811 0 0.0031100648379417794 -0.00036572497255674358 0 0.0017939288101189259 -0.00049624928679385552 0 0.0020705849985350744 -0.00061542886175809869 0 0.0030064521673158293 -0.00034381801370098226 0 0.0031100648379417794 -0.00036572497255674358 0 0.0030821224554563108 -0.00031686294891770993 0 0.003088379771324003 -0.0002254159262770119 0 0.0030249639974435035 -0.00027579498325975817 0 0.0030821224554563108 -0.00031686294891770993 0 0.0030064521673158293 -0.00034381801370098226 0 0.0030249639974435035 -0.00027579498325975817 0 0.0030821224554563108 -0.00031686294891770993 0 0.0031140362017309819 -0.00036961777490684245 0 0.0030821224554563108 -0.00031686294891770993 0 0.0031840974746192422 -0.00026563381117019534 0 0.003088379771324003 -0.0002254159262770119 0 0.0030821224554563108 -0.00031686294891770993 0 0.0031840974746192422 -0.00026563381117019534 0 0.0027091246725577801 -0.00040589232028293785 0 0.0028513376170394072 -0.00032969103693108326 0 0.003272207563639145 -0.00040184447347383511 0 0.0027091246725577801 -0.00040589232028293785 0 0.0028513376170394072 -0.00032969103693108326 0 0.0028791043748117367 -0.00017839713767127434 0 0.0031140362017309819 -0.00036961777490684245 0 0.0031840974746192422 -0.00026563381117019534 0 0.0032939732858900945 -0.00028395558776438432 0 0.0017939288101189259 -0.00049624928679385552 0 0.0028426989284404754 -2.8025702069539722e-05 0 0.00016292015815875326 -0.0005637836950280246 0 0.0028426989284404754 -2.8025702069539722e-05 0 0.0010617340599644348 -0.00032624735108143318 0 0.0013948869841054921 -0.00085434174482698297 0 0.0021196787696106715 0.00016835292205958857 0 0.0017939288101189259 -0.00049624928679385552 0 0.00016292015815875326 -0.0005637836950280246 0 0.0028513376170394072 -0.00032969103693108326 0 0.0028791043748117367 -0.00017839713767127434 0 0.003071558393981834 -0.00028718866245852214 0 0.0028426989284404754 -2.8025702069539722e-05 0 0.0031583142465723339 -5.4214026919630011e-05 0 0.0032939732858900945 -0.00028395558776438432 0 0.0033726877162168923 -0.00015462461937409673 0 0.0032660704212674261 -0.00017645213542136966 0 0.003088379771324003 -0.0002254159262770119 0 0.0031840974746192422 -0.00026563381117019534 0 0.0031734442273146845 -0.00014001671673780365 0 0.0031840974746192422 -0.00026563381117019534 0 0.0032939732858900945 -0.00028395558776438432 0 0.0032660704212674261 -0.00017645213542136966 0 0.0031840974746192422 -0.00026563381117019534 0 0.0032660704212674261 -0.00017645213542136966 0 0.0031734442273146845 -0.00014001671673780365 0 0.0031734442273146845 -0.00014001671673780365 0 0.0032939234875613405 -4.8979289443965791e-05 0 0.003128995217594987 -2.0420102525136206e-05 0 0.0032660704212674261 -0.00017645213542136966 0 0.0031734442273146845 -0.00014001671673780365 0 0.0032939234875613405 -4.8979289443965791e-05 0 0.0033726877162168923 -0.00015462461937409673 0 0.0032939234875613405 -4.8979289443965791e-05 0 0.0034440883348243294 -3.0727546649141242e-05 0 0.0033726877162168923 -0.00015462461937409673 0 0.0032660704212674261 -0.00017645213542136966 0 0.0032939234875613405 -4.8979289443965791e-05 0 0.0028426989284404754 -2.8025702069539722e-05 0 0.0034059071371104507 -8.5119878081067258e-05 0 0.0034440883348243294 -3.0727546649141242e-05 0 0.0035333390640465779 -0.00010372205820477326 0 0.0035760211657413703 5.6025276935980529e-05 0 0.0033067485584686719 -0.00026339097475292812 0 0.0033726877162168923 -0.00015462461937409673 0 0.0035333390640465779 -0.00010372205820477326 0 0.0028791043748117367 -0.00017839713767127434 0 0.003227860440249742 -5.6307454566136259e-05 0 0.0031281746598896139 -0.00021150813657392126 0 0.0033726877162168923 -0.00015462461937409673 0 0.0034440883348243294 -3.0727546649141242e-05 0 0.0035333390640465779 -0.00010372205820477326 0 0.003227860440249742 -5.6307454566136259e-05 0 0.0031281746598896139 -0.00021150813657392126 0 0.0032876351295287693 -0.00023079608697347784 0 0.0028791043748117367 -0.00017839713767127434 0 0.0031281746598896139 -0.00021150813657392126 0 0.003071558393981834 -0.00028718866245852214 0 0.00016292015815875326 -0.0005637836950280246 0 0.0021251227841510363 -0.00032414751210428909 0 0.0028513376170394072 -0.00032969103693108326 0 0.003071558393981834 -0.00028718866245852214 0 0.003272207563639145 -0.00040184447347383511 0 0.003071558393981834 -0.00028718866245852214 0 0.003272207563639145 -0.00040184447347383511 0 0.0032205859145374967 -0.00029523512960544549 0 0.003272207563639145 -0.00040184447347383511 0 0.0032205859145374967 -0.00029523512960544549 0 0.0033076373511663369 -0.00030883354101312064 0 0.0032205859145374967 -0.00029523512960544549 0 0.0032876351295287693 -0.00023079608697347784 0 0.0033076373511663369 -0.00030883354101312064 0 0.0031281746598896139 -0.00021150813657392126 0 0.0032205859145374967 -0.00029523512960544549 0 0.0032876351295287693 -0.00023079608697347784 0 0.0031281746598896139 -0.00021150813657392126 0 0.003071558393981834 -0.00028718866245852214 0 0.0032205859145374967 -0.00029523512960544549 0 0.003272207563639145 -0.00040184447347383511 0 0.0034180449400502246 -0.00033642387911942301 0 0.0035229659248002514 -0.00033624328610395142 0 0.0021251227841510363 -0.00032414751210428909 0 0.0034176548559612034 -0.00035883449124551317 0 0.0032876351295287693 -0.00023079608697347784 0 0.0033774361116426909 -0.00027008470802057617 0 0.0034181437141064591 -0.00014537253912548067 0 0.0032876351295287693 -0.00023079608697347784 0 0.0033774361116426909 -0.00027008470802057617 0 0.0033076373511663369 -0.00030883354101312064 0 0.003272207563639145 -0.00040184447347383511 0 0.0033076373511663369 -0.00030883354101312064 0 0.0033665660569490601 -0.00033674026623987913 0 0.003272207563639145 -0.00040184447347383511 0 0.0033665660569490601 -0.00033674026623987913 0 0.0034180449400502246 -0.00033642387911942301 0 0.0033774361116426909 -0.00027008470802057617 0 0.0033076373511663369 -0.00030883354101312064 0 0.0033665660569490601 -0.00033674026623987913 0 0.0033774361116426909 -0.00027008470802057617 0 0.0033665660569490601 -0.00033674026623987913 0 0.0034308220151278621 -0.0002916438418412476 0 0.0033665660569490601 -0.00033674026623987913 0 0.0034180449400502246 -0.00033642387911942301 0 0.0034308220151278621 -0.0002916438418412476 0 0.0034941052690356735 -0.00029865895475607302 0 0.0034180449400502246 -0.00033642387911942301 0 0.0034308220151278621 -0.0002916438418412476 0 0.0033774361116426909 -0.00027008470802057617 0 0.0034551540445867919 -0.00020839646221394782 0 0.0034181437141064591 -0.00014537253912548067 0 0.0035249968215417308 -0.000228364488301008 0 0.0034308220151278621 -0.0002916438418412476 0 0.0034551540445867919 -0.00020839646221394782 0 0.0033774361116426909 -0.00027008470802057617 0 0.0034308220151278621 -0.0002916438418412476 0 0.0034551540445867919 -0.00020839646221394782 0 0.0034059071371104507 -8.5119878081067258e-05 0 0.0035597619560307444 2.2915336109842283e-06 0 0.0035333390640465779 -0.00010372205820477326 0 0.0035992674544902447 1.7904280763832498e-05 0 0.0035760211657413703 5.6025276935980529e-05 0 0.0035504832092587372 -0.00010982673628415432 0 0.0034551540445867919 -0.00020839646221394782 0 0.0034181437141064591 -0.00014537253912548067 0 0.003227860440249742 -5.6307454566136259e-05 0 0.0034181437141064591 -0.00014537253912548067 0 0.0035992674544902447 1.7904280763832498e-05 0 0.003227860440249742 -5.6307454566136259e-05 0 0.0032876351295287693 -0.00023079608697347784 0 0.0034181437141064591 -0.00014537253912548067 0 0.0035504832092587372 -0.00010982673628415432 0 0.0034181437141064591 -0.00014537253912548067 0 0.0035992674544902447 1.7904280763832498e-05 0 0.0037222783124831005 0.00016276337638148171 0 0.0035992674544902447 1.7904280763832498e-05 0 0.0035760211657413703 5.6025276935980529e-05 0 0.0037222783124831005 0.00016276337638148171 0 0.0035760211657413703 5.6025276935980529e-05 0 0.0037360347319255428 0.00027850604409269443 0 0.0037360347319255428 0.00027850604409269443 0 0.00351596272222429 0.00019155672062114065 0 0.0034036296051833891 0.00040800537077541289 0 0.0035760211657413703 5.6025276935980529e-05 0 0.0037360347319255428 0.00027850604409269443 0 0.00351596272222429 0.00019155672062114065 0 0.00351596272222429 0.00019155672062114065 0 0.0033494420940891273 0.00020617625698363408 0 0.0034036296051833891 0.00040800537077541289 0 0.00351596272222429 0.00019155672062114065 0 0.0034153474120709099 8.0360039623841503e-05 0 0.0033494420940891273 0.00020617625698363408 0 0.0035760211657413703 5.6025276935980529e-05 0 0.00351596272222429 0.00019155672062114065 0 0.0034153474120709099 8.0360039623841503e-05 0 0.0032939234875613405 -4.8979289443965791e-05 0 0.0034440883348243294 -3.0727546649141242e-05 0 0.0034153474120709099 8.0360039623841503e-05 0 0.0034440883348243294 -3.0727546649141242e-05 0 0.0035760211657413703 5.6025276935980529e-05 0 0.0034153474120709099 8.0360039623841503e-05 0 0.0032939234875613405 -4.8979289443965791e-05 0 0.0034153474120709099 8.0360039623841503e-05 0 0.0032387544572643492 0.00010857706642881293 0 0.0032939234875613405 -4.8979289443965791e-05 0 0.0032387544572643492 0.00010857706642881293 0 0.003128995217594987 -2.0420102525136206e-05 0 0.0034153474120709099 8.0360039623841503e-05 0 0.0032387544572643492 0.00010857706642881293 0 0.0033494420940891273 0.00020617625698363408 0 0.0033494420940891273 0.00020617625698363408 0 0.0031753305272661935 0.00026461119346741732 0 0.0034036296051833891 0.00040800537077541289 0 0.0032387544572643492 0.00010857706642881293 0 0.0033494420940891273 0.00020617625698363408 0 0.0031753305272661935 0.00026461119346741732 0 0.0031753305272661935 0.00026461119346741732 0 0.0030152849844002822 0.00033855763239874596 0 0.0030542718019609971 0.00014969014172696329 0 0.0032387544572643492 0.00010857706642881293 0 0.0031753305272661935 0.00026461119346741732 0 0.0030542718019609971 0.00014969014172696329 0 0.0028286208208040471 0.00025250340892019822 0 0.0030152849844002822 0.00033855763239874596 0 0.0030542718019609971 0.00014969014172696329 0 0.0031800485898293902 0.00035955685301994637 0 0.0034952681896522134 0.00034844894346202358 0 0.0031753305272661935 0.00026461119346741732 0 0.0030152849844002822 0.00033855763239874596 0 0.0031258231013556828 0.00048622838864054391 0 0.0028286208208040471 0.00025250340892019822 0 0.0030542718019609971 0.00014969014172696329 0 0.0029667541174071528 -2.4435840155878803e-05 0 0.0032387544572643492 0.00010857706642881293 0 0.0030542718019609971 0.00014969014172696329 0 0.003128995217594987 -2.0420102525136206e-05 0 0.0030542718019609971 0.00014969014172696329 0 0.003128995217594987 -2.0420102525136206e-05 0 0.0029667541174071528 -2.4435840155878803e-05 0 0.0038217948229391156 0.00029457927125072034 0 0.0034952681896522134 0.00034844894346202358 0 0.0034786937773431253 0.00035684242584533372 0 0.0035523652994877935 0.00044671528284827332 0 0.003515170637901013 0.00049785328066454058 0 0.0028961153412443838 0.00054226958552638807 0 0.0030152849844002822 0.00033855763239874596 0 0.0031258231013556828 0.00048622838864054391 0 0.0034786937773431253 0.00035684242584533372 0 0.0035523652994877935 0.00044671528284827332 0 0.0035745723020437319 0.00033273274856594851 0 0.002935723507968543 0.00035129091878881573 0 0.0034952681896522134 0.00034844894346202358 0 0.0031753305272661935 0.00026461119346741732 0 0.0031329247429646404 0.0004785071069942446 0 0.0034036296051833891 0.00040800537077541289 0 0.0034952681896522134 0.00034844894346202358 0 0.0036950103739750977 0.0003415093218117625 0 0.0040464712979920254 0.0002761601948236158 0 0.0039999114295795881 0.00022862253710065916 0 0.0039556566480026282 0.00029660331188845283 0 0.0040631440308574931 0.00020920573692458381 0 0.0039999114295795881 0.00022862253710065916 0 0.0040288884216076338 0.00019827526562420019 0 0.0040631440308574931 0.00020920573692458381 0 0.0040464712979920254 0.0002761601948236158 0 0.0039999114295795881 0.00022862253710065916 0 0.0039999114295795881 0.00022862253710065916 0 0.0039755277234251596 0.00020379538343141875 0 0.0040288884216076338 0.00019827526562420019 0 0.0039999114295795881 0.00022862253710065916 0 0.0039755277234251596 0.00020379538343141875 0 0.0038876460637363333 0.00023076349348556121 0 0.0037298694596284011 0.00029758942860172005 0 0.0036950103739750977 0.0003415093218117625 0 0.0037360347319255428 0.00027850604409269443 0 0.0038876460637363333 0.00023076349348556121 0 0.0039556566480026282 0.00029660331188845283 0 0.0039999114295795881 0.00022862253710065916 0 0.0038876460637363333 0.00023076349348556121 0 0.0039556566480026282 0.00029660331188845283 0 0.0037360347319255428 0.00027850604409269443 0 0.0038876460637363333 0.00023076349348556121 0 0.00382898314338698 0.00024631189256182673 0 0.0037360347319255428 0.00027850604409269443 0 0.00382898314338698 0.00024631189256182673 0 0.003787102976848583 0.00024800724548662095 0 0.0038876460637363333 0.00023076349348556121 0 0.00382898314338698 0.00024631189256182673 0 0.0039312830933564942 0.00022299089661180564 0 0.0039755277234251596 0.00020379538343141875 0 0.0038876460637363333 0.00023076349348556121 0 0.0039312830933564942 0.00022299089661180564 0 0.0039755277234251596 0.00020379538343141875 0 0.0040235798539063929 0.00019620391896683526 0 0.0039312830933564942 0.00022299089661180564 0 0.0040288399829372587 0.00021517386984338347 0 0.0040235798539063929 0.00019620391896683526 0 0.0039312830933564942 0.00022299089661180564 0 0.0040288399829372587 0.00021517386984338347 0 0.0040947986017824548 0.00017899543959006009 0 0.0041142279993315149 0.00019536385380743753 0 0.0040288399829372587 0.00021517386984338347 0 0.0040947986017824548 0.00017899543959006009 0 0.0040235798539063929 0.00019620391896683526 0 0.0040947986017824548 0.00017899543959006009 0 0.004071895849053076 0.00017246223174247741 0 0.0041317817833519607 0.00016028754250202185 0 0.0040947986017824548 0.00017899543959006009 0 0.004071895849053076 0.00017246223174247741 0 0.0040235798539063929 0.00019620391896683526 0 0.004071895849053076 0.00017246223174247741 0 0.0040235798539063929 0.00019620391896683526 0 0.0040328546117354182 0.00018484449778088984 0 0.0039755277234251596 0.00020379538343141875 0 0.0040235798539063929 0.00019620391896683526 0 0.0040328546117354182 0.00018484449778088984 0 0.0040631440308574931 0.00020920573692458381 0 0.0040288884216076338 0.00019827526562420019 0 0.0040550902611276446 0.00017992391563137239 0 0.0039755277234251596 0.00020379538343141875 0 0.0040288884216076338 0.00019827526562420019 0 0.0040328546117354182 0.00018484449778088984 0 0.0040288884216076338 0.00019827526562420019 0 0.0040550902611276446 0.00017992391563137239 0 0.0040328546117354182 0.00018484449778088984 0 0.0040550902611276446 0.00017992391563137239 0 0.0040328546117354182 0.00018484449778088984 0 0.0040597921018181229 0.00017188789915798501 0 0.004071895849053076 0.00017246223174247741 0 0.0040748092428966824 0.00016527805619251035 0 0.0041317817833519607 0.00016028754250202185 0 0.004071895849053076 0.00017246223174247741 0 0.0040328546117354182 0.00018484449778088984 0 0.0040597921018181229 0.00017188789915798501 0 0.004071895849053076 0.00017246223174247741 0 0.0040748092428966824 0.00016527805619251035 0 0.0040597921018181229 0.00017188789915798501 0 0.0040748092428966824 0.00016527805619251035 0 0.0040645914289739208 0.00017068213209254856 0 0.0040670171443750822 0.00017087971708080091 0 0.0040550902611276446 0.00017992391563137239 0 0.0040597921018181229 0.00017188789915798501 0 0.0040645914289739208 0.00017068213209254856 0 0.0040748092428966824 0.00016527805619251035 0 0.0040597921018181229 0.00017188789915798501 0 0.0040645914289739208 0.00017068213209254856 0 0.0044557495514146355 0.0007417104046479958 0 0.0043227810594825781 0.00043176394292222543 0 0.0042304860052407396 0.00083040804401094868 0 0.0040623350297893743 0.00017296742101635378 0 0.0040683316905316281 0.00017409819041344188 0 0.0040691595253006356 0.00017441705961007285 0 0.0041977314653633196 0.00030219681097257443 0 0.0039096341520957582 0.00048342281002263491 0 0.0040550902611276446 0.00017992391563137239 0 0.0040646685251398071 0.00017392109177086221 0 0.0040645914289739208 0.00017068213209254856 0 0.0040646685251398071 0.00017392109177086221 0 0.0040660195792182659 0.00017188098367931255 0 0.0040645914289739208 0.00017068213209254856 0 0.0040660195792182659 0.00017188098367931255 0 0.0040645914289739208 0.00017068213209254856 0 0.0040670171443750822 0.00017087971708080091 0 0.0040660195792182659 0.00017188098367931255 0 0.0040670171443750822 0.00017087971708080091 0 0.0040623350297893743 0.00017296742101635378 0 0.0040660195792182659 0.00017188098367931255 0 0.0040623350297893743 0.00017296742101635378 0 0.0040683316905316281 0.00017409819041344188 0 0.0040646685251398071 0.00017392109177086221 0 0.0040683316905316281 0.00017409819041344188 0 0.0040705323351043219 0.00017697334676039739 0 0.0040646685251398071 0.00017392109177086221 0 0.0040660195792182659 0.00017188098367931255 0 0.0040683316905316281 0.00017409819041344188 0 0.0035523652994877935 0.00044671528284827332 0 0.0035322006811312609 0.0005595642942643333 0 0.0035354700677384847 0.00048695607059583943 0 0.0040631440308574931 0.00020920573692458381 0 0.0040550902611276446 0.00017992391563137239 0 0.0040705323351043219 0.00017697334676039739 0 0.0039096341520957582 0.00048342281002263491 0 0.0036249516271747084 0.00065822494630471656 0 0.0038217948229391156 0.00029457927125072034 0 0.0039096341520957582 0.00048342281002263491 0 0.0044557495514146355 0.0007417104046479958 0 0.0042304860052407396 0.00083040804401094868 0 0.0042851478953453695 0.0010943041071725802 0 0.0039103704662488779 0.00042405836078955172 0 0.0039096341520957582 0.00048342281002263491 0 0.0040550902611276446 0.00017992391563137239 0 0.0040646685251398071 0.00017392109177086221 0 0.0040705323351043219 0.00017697334676039739 0 0.0035523652994877935 0.00044671528284827332 0 0.0035354700677384847 0.00048695607059583943 0 0.003515170637901013 0.00049785328066454058 0 0.0035322006811312609 0.0005595642942643333 0 0.0035354700677384847 0.00048695607059583943 0 0.0035163611188757794 0.00049769133403565165 0 0.003610515965319108 0.00063658623172739071 0 0.0036249516271747084 0.00065822494630471656 0 0.0039132871861084842 0.00096080432961513185 0 0.0037408182822491472 0.00084803073544057199 0 0.0040578899228459466 0.0007392235405924443 0 0.0039132871861084842 0.00096080432961513185 0 0.0040998332471101073 0.00112111434301874 0 0.0040578899228459466 0.0007392235405924443 0 0.0037518562169861582 0.00032854390311399926 0 0.0040555454446898464 0.00057054733609639596 0 0.0035605645929330434 0.00098519239331479997 0 0.0037408182822491472 0.00084803073544057199 0 0.0037901204781383372 0.0011579156232681732 0 0.0039132871861084842 0.00096080432961513185 0 0.0037408182822491472 0.00084803073544057199 0 0.0037901204781383372 0.0011579156232681732 0 0.0036673510392353282 0.00039177113131412219 0 0.0037518562169861582 0.00032854390311399926 0 0.0039132871861084842 0.00096080432961513185 0 0.0037901204781383372 0.0011579156232681732 0 0.0040998332471101073 0.00112111434301874 0 0.0034385612039162438 -0.00012866587360313544 0 0.0031142900048751199 -0.00033897650896691359 0 0.0036092889713139091 -0.00038503732840616155 0 0.0039202012542469264 0.00020943400945974767 0 0.0039442998378236144 0.0002193171070758024 0 0.0039448564550877818 0.00021793417210486118 0 0.0037410359574603972 0.00011479548349309028 0 0.0037518562169861582 0.00032854390311399926 0 0.0038829765031281591 0.00024956915620490941 0 0.0038867199483213948 0.00020784216985371895 0 0.0039202012542469264 0.00020943400945974767 0 0.0038829765031281591 0.00024956915620490941 0 0.0039202012542469264 0.00020943400945974767 0 0.0039442998378236144 0.0002193171070758024 0 0.0039332394057742682 0.00020993290248990981 0 0.0039202012542469264 0.00020943400945974767 0 0.0039448564550877818 0.00021793417210486118 0 0.0037518562169861582 0.00032854390311399926 0 0.0038821980095777569 0.00028319599802358091 0 0.00382898314338698 0.00024631189256182673 0 0.003787102976848583 0.00024800724548662095 0 0.0039312830933564942 0.00022299089661180564 0 0.0038475546052750584 0.00023271972398176497 0 0.0039237924740128712 0.00022881745282552548 0 0.0039442998378236144 0.0002193171070758024 0 0.0039312830933564942 0.00022299089661180564 0 0.0039448564550877818 0.00021793417210486118 0 0.0039332394057742682 0.00020993290248990981 0 0.0039448564550877818 0.00021793417210486118 0 0.0039827825341466928 0.00023816083383782459 0 0.0039780149646548154 0.00023924185781258722 0 0.0039911006357694727 0.00025445733014210883 0 0.0039827825341466928 0.00023816083383782459 0 0.0039448564550877818 0.00021793417210486118 0 0.0039780149646548154 0.00023924185781258722 0 0.0039827825341466928 0.00023816083383782459 0 0.0039312830933564942 0.00022299089661180564 0 0.0039448564550877818 0.00021793417210486118 0 0.0039780149646548154 0.00023924185781258722 0 0.0040288399829372587 0.00021517386984338347 0 0.0039312830933564942 0.00022299089661180564 0 0.0039780149646548154 0.00023924185781258722 0 0.0040288399829372587 0.00021517386984338347 0 0.0039780149646548154 0.00023924185781258722 0 0.0040367637547700742 0.00022545496397344118 0 0.0040288399829372587 0.00021517386984338347 0 0.0040367637547700742 0.00022545496397344118 0 0.0041142279993315149 0.00019536385380743753 0 0.0039780149646548154 0.00023924185781258722 0 0.0040367637547700742 0.00022545496397344118 0 0.0039911006357694727 0.00025445733014210883 0 0.0040367637547700742 0.00022545496397344118 0 0.0039911006357694727 0.00025445733014210883 0 0.0040207989941198636 0.00021288888139657207 0 0.0039911006357694727 0.00025445733014210883 0 0.0039827825341466928 0.00023816083383782459 0 0.0039765830121269311 0.00029292538943733197 0 0.0040578899228459466 0.0007392235405924443 0 0.0037804951128400702 0.00061895605641637823 0 0.0039765830121269311 0.00029292538943733197 0 0.0040555454446898464 0.00057054733609639596 0 0.0039699307521981423 0.00026676701744034046 0 0.0035504467983787816 0.00076130110670600854 0 0.0037408182822491472 0.00084803073544057199 0 0.0037804951128400702 0.00061895605641637823 0 0.0037408182822491472 0.00084803073544057199 0 0.0040578899228459466 0.0007392235405924443 0 0.0037804951128400702 0.00061895605641637823 0 0.0037804951128400702 0.00061895605641637823 0 0.003753647084824654 0.00038849729904885314 0 0.0039765830121269311 0.00029292538943733197 0 0.0035265203946625097 0.00051599136769348497 0 0.0037804951128400702 0.00061895605641637823 0 0.003753647084824654 0.00038849729904885314 0 0.003753647084824654 0.00038849729904885314 0 0.0038346053756854407 0.00023660612041517213 0 0.0036337087502714637 0.00029445118095028621 0 0.0038346053756854407 0.00023660612041517213 0 0.0037395894956820516 0.00013245766115889941 0 0.0036337087502714637 0.00029445118095028621 0 0.003753647084824654 0.00038849729904885314 0 0.0038346053756854407 0.00023660612041517213 0 0.0039765830121269311 0.00029292538943733197 0 0.0038346053756854407 0.00023660612041517213 0 0.0037395894956820516 0.00013245766115889941 0 0.0038800850642576922 0.00011184260612835937 0 0.0038346053756854407 0.00023660612041517213 0 0.0038800850642576922 0.00011184260612835937 0 0.0039731717893815638 0.00015835133377094262 0 0.0038800850642576922 0.00011184260612835937 0 0.0039731717893815638 0.00015835133377094262 0 0.0039435155083077872 1.8272887316202475e-05 0 0.0038346053756854407 0.00023660612041517213 0 0.0039731717893815638 0.00015835133377094262 0 0.0039765830121269311 0.00029292538943733197 0 0.0039731717893815638 0.00015835133377094262 0 0.0039765830121269311 0.00029292538943733197 0 0.0040207989941198636 0.00021288888139657207 0 0.0039911006357694727 0.00025445733014210883 0 0.0039765830121269311 0.00029292538943733197 0 0.0040207989941198636 0.00021288888139657207 0 0.0040207989941198636 0.00021288888139657207 0 0.0040892034325570445 0.00018658598787412749 0 0.0040582508011378533 9.8849751198733333e-05 0 0.0040367637547700742 0.00022545496397344118 0 0.0040892034325570445 0.00018658598787412749 0 0.0041142279993315149 0.00019536385380743753 0 0.0040367637547700742 0.00022545496397344118 0 0.0040207989941198636 0.00021288888139657207 0 0.0040892034325570445 0.00018658598787412749 0 0.0040892034325570445 0.00018658598787412749 0 0.0040582508011378533 9.8849751198733333e-05 0 0.004258549450225595 0.00014076143604225717 0 0.0042759564596887957 9.2877868872846432e-05 0 0.0042711793457613032 0.00013534573210021854 0 0.0039731717893815638 0.00015835133377094262 0 0.0040582508011378533 9.8849751198733333e-05 0 0.0039435155083077872 1.8272887316202475e-05 0 0.0039731717893815638 0.00015835133377094262 0 0.0040207989941198636 0.00021288888139657207 0 0.0040582508011378533 9.8849751198733333e-05 0 0.0044878212188393723 7.7030645476331631e-05 0 0.004476889954541415 -7.802539638005325e-05 0 0.004402325105896639 2.1198694147304601e-05 0 0.0042759564596887957 9.2877868872846432e-05 0 0.0041563603745598714 1.4707686972357364e-05 0 0.0044878212188393723 7.7030645476331631e-05 0 0.0044776176822385466 4.8321963843197671e-05 0 0.004476889954541415 -7.802539638005325e-05 0 0.0044878212188393723 7.7030645476331631e-05 0 0.0044776176822385466 4.8321963843197671e-05 0 0.0043882105608103218 0.00016508132572111509 0 0.0044776176822385466 4.8321963843197671e-05 0 0.0045119580888308064 -4.8286837602450193e-05 0 0.0045370808478380547 2.6422860692275614e-05 0 0.0045087819665598607 -7.156753821437651e-05 0 0.0044930620974620904 -0.0001354256370628988 0 0.0044776176822385466 4.8321963843197671e-05 0 0.0045119580888308064 -4.8286837602450193e-05 0 0.004476889954541415 -7.802539638005325e-05 0 0.0045119580888308064 -4.8286837602450193e-05 0 0.004476889954541415 -7.802539638005325e-05 0 0.00446511348617283 -0.00017930754030544632 0 0.004476889954541415 -7.802539638005325e-05 0 0.0044691088151000303 -0.00020825233298960388 0 0.00446511348617283 -0.00017930754030544632 0 0.004476889954541415 -7.802539638005325e-05 0 0.0044074543553903247 -0.00026140352720467624 0 0.0044691088151000303 -0.00020825233298960388 0 0.004476889954541415 -7.802539638005325e-05 0 0.0044074543553903247 -0.00026140352720467624 0 0.004402325105896639 2.1198694147304601e-05 0 0.0044074543553903247 -0.00026140352720467624 0 0.0038523478714050795 -0.00066397565111126443 0 0.0037903710148187992 -0.00013793015857839131 0 0.0044074543553903247 -0.00026140352720467624 0 0.004402325105896639 2.1198694147304601e-05 0 0.0037903710148187992 -0.00013793015857839131 0 0.0041563603745598714 1.4707686972357364e-05 0 0.0038050200849674069 -0.00013233358818818825 0 0.0037395894956820516 0.00013245766115889941 0 0.0038800850642576922 0.00011184260612835937 0 0.0037903710148187992 -0.00013793015857839131 0 0.0038800850642576922 0.00011184260612835937 0 0.0039435155083077872 1.8272887316202475e-05 0 0.0037903710148187992 -0.00013793015857839131 0 0.0051835620134285613 0.00019353042348397461 0 0.0051482816329060429 0.00036638555403266718 0 0.0050200584970966243 0.00020696524178505648 0 0.0051482816329060429 0.00036638555403266718 0 0.0050200584970966243 0.00020696524178505648 0 0.0048464938233998946 0.00031406800009424132 0 0.0046996163964154744 0.00019166573241514881 0 0.004446816356858326 0.00026185679470041087 0 0.0040575670445469987 0.00018804008450092196 0 0.0040683113433733417 0.00017892748061609331 0 0.0040890041758517319 0.00020459539695650113 0 0.0040575670445469987 0.00018804008450092196 0 0.0040623350297893743 0.00017296742101635378 0 0.0040683113433733417 0.00017892748061609331 0 0.0040748092428966824 0.00016527805619251035 0 0.0040670171443750822 0.00017087971708080091 0 0.0040683113433733417 0.00017892748061609331 0 0.0040670171443750822 0.00017087971708080091 0 0.0040623350297893743 0.00017296742101635378 0 0.0040683113433733417 0.00017892748061609331 0 0.0040748092428966824 0.00016527805619251035 0 0.0040890041758517319 0.00020459539695650113 0 0.0041317817833519607 0.00016028754250202185 0 0.0040748092428966824 0.00016527805619251035 0 0.0040683113433733417 0.00017892748061609331 0 0.0040890041758517319 0.00020459539695650113 0 0.0050200584970966243 0.00020696524178505648 0 0.0048464938233998946 0.00031406800009424132 0 0.0048597699952691543 0.00011128777501333996 0 0.0040890041758517319 0.00020459539695650113 0 0.0043882105608103218 0.00016508132572111509 0 0.004258549450225595 0.00014076143604225717 0 0.004446816356858326 0.00026185679470041087 0 0.004394714267493543 0.00017554960536711196 0 0.0040890041758517319 0.00020459539695650113 0 0.0041317817833519607 0.00016028754250202185 0 0.004258549450225595 0.00014076143604225717 0 0.0048464938233998946 0.00031406800009424132 0 0.0043882105608103218 0.00016508132572111509 0 0.0046607005991826985 0.00010643553222170908 0 0.0040947986017824548 0.00017899543959006009 0 0.0041317817833519607 0.00016028754250202185 0 0.0041581874521073869 0.00016735684388624925 0 0.0041317817833519607 0.00016028754250202185 0 0.0041581874521073869 0.00016735684388624925 0 0.004258549450225595 0.00014076143604225717 0 0.0041581874521073869 0.00016735684388624925 0 0.0041142279993315149 0.00019536385380743753 0 0.004258549450225595 0.00014076143604225717 0 0.0040892034325570445 0.00018658598787412749 0 0.0041142279993315149 0.00019536385380743753 0 0.004258549450225595 0.00014076143604225717 0 0.0040947986017824548 0.00017899543959006009 0 0.0041581874521073869 0.00016735684388624925 0 0.0041142279993315149 0.00019536385380743753 0 0.0044878212188393723 7.7030645476331631e-05 0 0.0043882105608103218 0.00016508132572111509 0 0.004258549450225595 0.00014076143604225717 0 0.0043882105608103218 0.00016508132572111509 0 0.0045370808478380547 2.6422860692275614e-05 0 0.0046607005991826985 0.00010643553222170908 0 0.0044776176822385466 4.8321963843197671e-05 0 0.0043882105608103218 0.00016508132572111509 0 0.0045370808478380547 2.6422860692275614e-05 0 0.0045370808478380547 2.6422860692275614e-05 0 0.0046221051883277376 -9.1228530996572641e-05 0 0.0047096228956096308 -5.4387081186606223e-06 0 0.0045119580888308064 -4.8286837602450193e-05 0 0.0045370808478380547 2.6422860692275614e-05 0 0.0046221051883277376 -9.1228530996572641e-05 0 0.0046221051883277376 -9.1228530996572641e-05 0 0.0047096228956096308 -5.4387081186606223e-06 0 0.0047985165650236139 -0.00011706123105097118 0 0.0047096228956096308 -5.4387081186606223e-06 0 0.0048797714515849697 -1.1474765146470758e-05 0 0.0047985165650236139 -0.00011706123105097118 0 0.0047096228956096308 -5.4387081186606223e-06 0 0.0046607005991826985 0.00010643553222170908 0 0.0048597699952691543 0.00011128777501333996 0 0.0045370808478380547 2.6422860692275614e-05 0 0.0047096228956096308 -5.4387081186606223e-06 0 0.0046607005991826985 0.00010643553222170908 0 0.0048464938233998946 0.00031406800009424132 0 0.0046607005991826985 0.00010643553222170908 0 0.0048597699952691543 0.00011128777501333996 0 0.0048597699952691543 0.00011128777501333996 0 0.0048797714515849697 -1.1474765146470758e-05 0 0.0050430594425714889 4.5296024636484829e-05 0 0.0047096228956096308 -5.4387081186606223e-06 0 0.0048597699952691543 0.00011128777501333996 0 0.0048797714515849697 -1.1474765146470758e-05 0 0.0048797714515849697 -1.1474765146470758e-05 0 0.0050430594425714889 4.5296024636484829e-05 0 0.0049875567666560665 -0.00011173449502280555 0 0.0048797714515849697 -1.1474765146470758e-05 0 0.0049875567666560665 -0.00011173449502280555 0 0.0047985165650236139 -0.00011706123105097118 0 0.0051433493110057795 -9.0987425627287932e-05 0 0.0050430594425714889 4.5296024636484829e-05 0 0.0049875567666560665 -0.00011173449502280555 0 0.0051835620134285613 0.00019353042348397461 0 0.0050200584970966243 0.00020696524178505648 0 0.0050430594425714889 4.5296024636484829e-05 0 0.0050200584970966243 0.00020696524178505648 0 0.0048597699952691543 0.00011128777501333996 0 0.0050430594425714889 4.5296024636484829e-05 0 0.0052157697758576102 -0.00020776535833748604 0 0.0051841536388945444 -0.00030991812678799418 0 0.0050973350122196139 -0.00023089889218329537 0 0.0051841536388945444 -0.00030991812678799418 0 0.0050973350122196139 -0.00023089889218329537 0 0.0051302726465811419 -0.00037045856207246815 0 0.0051433493110057795 -9.0987425627287932e-05 0 0.0052157697758576102 -0.00020776535833748604 0 0.0050973350122196139 -0.00023089889218329537 0 0.0051433493110057795 -9.0987425627287932e-05 0 0.0050973350122196139 -0.00023089889218329537 0 0.0049875567666560665 -0.00011173449502280555 0 0.0049875567666560665 -0.00011173449502280555 0 0.004935604125554046 -0.00023228471715232716 0 0.0047985165650236139 -0.00011706123105097118 0 0.0050973350122196139 -0.00023089889218329537 0 0.0049875567666560665 -0.00011173449502280555 0 0.004935604125554046 -0.00023228471715232716 0 0.0050973350122196139 -0.00023089889218329537 0 0.004935604125554046 -0.00023228471715232716 0 0.0051302726465811419 -0.00037045856207246815 0 0.004935604125554046 -0.00023228471715232716 0 0.0048930097957364206 -0.00036243059151615118 0 0.0051302726465811419 -0.00037045856207246815 0 0.0046907290873556369 -0.00021273159581276514 0 0.0046368656750577428 -0.00025415807880708221 0 0.0046879649218191204 -0.0002877285228575691 0 0.0046945613584794509 -0.00020609369556987144 0 0.0046834011830627137 -0.00041134831430484682 0 0.004935604125554046 -0.00023228471715232716 0 0.0046907290873556369 -0.00021273159581276514 0 0.0048930097957364206 -0.00036243059151615118 0 0.0046907290873556369 -0.00021273159581276514 0 0.0047408005868268318 -0.00044123367801119674 0 0.0048930097957364206 -0.00036243059151615118 0 0.0046221051883277376 -9.1228530996572641e-05 0 0.0046907290873556369 -0.00021273159581276514 0 0.0047985165650236139 -0.00011706123105097118 0 0.004935604125554046 -0.00023228471715232716 0 0.0046907290873556369 -0.00021273159581276514 0 0.0047985165650236139 -0.00011706123105097118 0 0.0045119580888308064 -4.8286837602450193e-05 0 0.0046221051883277376 -9.1228530996572641e-05 0 0.0045751372535674109 -0.00017303982659186954 0 0.0046221051883277376 -9.1228530996572641e-05 0 0.0046907290873556369 -0.00021273159581276514 0 0.0045751372535674109 -0.00017303982659186954 0 0.0046907290873556369 -0.00021273159581276514 0 0.0045751372535674109 -0.00017303982659186954 0 0.0046368656750577428 -0.00025415807880708221 0 0.0045751372535674109 -0.00017303982659186954 0 0.0046368656750577428 -0.00025415807880708221 0 0.0045660919109343709 -0.00025456678401847559 0 0.0046368656750577428 -0.00025415807880708221 0 0.0046400381854971029 -0.00032307837280230706 0 0.0045660919109343709 -0.00025456678401847559 0 0.0046368656750577428 -0.00025415807880708221 0 0.0046400381854971029 -0.00032307837280230706 0 0.0046879649218191204 -0.0002877285228575691 0 0.0046400381854971029 -0.00032307837280230706 0 0.0045724230785784154 -0.00036893543009457354 0 0.0046618292280260296 -0.00040628192220456177 0 0.0046400381854971029 -0.00032307837280230706 0 0.0047058257929783482 -0.00036326720213338578 0 0.0046618292280260296 -0.00040628192220456177 0 0.0047833387808495775 -0.00069116575817999902 0 0.0047408005868268318 -0.00044123367801119674 0 0.0049361792149790022 -0.00055114668387968679 0 0.0046400381854971029 -0.00032307837280230706 0 0.0047058257929783482 -0.00036326720213338578 0 0.0046879649218191204 -0.0002877285228575691 0 0.0054102691519091637 -0.00021171423140987293 0 0.0046834011830627137 -0.00041134831430484682 0 0.0054155398876972738 -0.00025217027542885406 0 0.0053275288262015375 -0.00033123669266228549 0 0.0053707537345021534 -0.00024118862637639263 0 0.0054102691519091637 -0.00021171423140987293 0 0.0050775792894037679 -0.00047991901788632484 0 0.0047408005868268318 -0.00044123367801119674 0 0.0048930097957364206 -0.00036243059151615118 0 0.0049361792149790022 -0.00055114668387968679 0 0.0048930097957364206 -0.00036243059151615118 0 0.0049361792149790022 -0.00055114668387968679 0 0.0051302726465811419 -0.00037045856207246815 0 0.0053275288262015375 -0.00033123669266228549 0 0.0052142839765041389 -0.00033393951858342181 0 0.0051302726465811419 -0.00037045856207246815 0 0.0050775792894037679 -0.00047991901788632484 0 0.0051620239516724682 -0.00036497705234757945 0 0.0053275288262015375 -0.00033123669266228549 0 0.0053707537345021534 -0.00024118862637639263 0 0.0053228079089982323 -0.00024055369256270652 0 0.0053275288262015375 -0.00033123669266228549 0 0.0053228079089982323 -0.00024055369256270652 0 0.0052142839765041389 -0.00033393951858342181 0 0.0053228079089982323 -0.00024055369256270652 0 0.0052142839765041389 -0.00033393951858342181 0 0.0053216800281781825 -0.00021422677291839078 0 0.0051956111760050033 -0.00035110795626923787 0 0.0052142839765041389 -0.00033393951858342181 0 0.0052129573030629999 -0.00042447528604446389 0 0.0052372546449715243 -0.00034664551552033586 0 0.0051956111760050033 -0.00035110795626923787 0 0.0052129573030629999 -0.00042447528604446389 0 0.0052133289188172841 -0.00031754717438663989 0 0.005330124142502001 -0.00037251907373426335 0 0.0052372546449715243 -0.00034664551552033586 0 0.0051841536388945444 -0.00030991812678799418 0 0.0051956111760050033 -0.00035110795626923787 0 0.0051956111760050033 -0.00035110795626923787 0 0.0052142839765041389 -0.00033393951858342181 0 0.0051302726465811419 -0.00037045856207246815 0 0.0051841536388945444 -0.00030991812678799418 0 0.0051956111760050033 -0.00035110795626923787 0 0.0051302726465811419 -0.00037045856207246815 0 0.0045080777447782227 -6.6679251745994225e-05 0 0.0047428646222900418 -1.8893710166137774e-06 0 0.0047893544686474316 0.00022214447238388431 0 0.0045080777447782227 -6.6679251745994225e-05 0 0.0047428646222900418 -1.8893710166137774e-06 0 0.0046076209155719817 -0.00017629829635902838 0 0.0047428646222900418 -1.8893710166137774e-06 0 0.0051009276948428463 3.0910960292611123e-05 0 0.0049934615794498842 -0.00023857991644674916 0 0.0047428646222900418 -1.8893710166137774e-06 0 0.0046076209155719817 -0.00017629829635902838 0 0.0049934615794498842 -0.00023857991644674916 0 0.0044074543553903247 -0.00026140352720467624 0 0.0046076209155719817 -0.00017629829635902838 0 0.0049934615794498842 -0.00023857991644674916 0 0.0044408507974747265 -0.00026815741248939235 0 0.0044202258152256212 -0.00043767619319074006 0 0.0044074543553903247 -0.00026140352720467624 0 0.0044691088151000303 -0.00020825233298960388 0 0.0046076209155719817 -0.00017629829635902838 0 0.0045080777447782227 -6.6679251745994225e-05 0 0.0044691088151000303 -0.00020825233298960388 0 0.0046076209155719817 -0.00017629829635902838 0 0.00440535495340729 -0.00020804098898486188 0 0.0044930620974620904 -0.0001354256370628988 0 0.0045080777447782227 -6.6679251745994225e-05 0 0.0044691088151000303 -0.00020825233298960388 0 0.00446511348617283 -0.00017930754030544632 0 0.0045119580888308064 -4.8286837602450193e-05 0 0.0045751372535674109 -0.00017303982659186954 0 0.0044923329781152606 -0.00014619005336687934 0 0.0045751372535674109 -0.00017303982659186954 0 0.0044923329781152606 -0.00014619005336687934 0 0.0045660919109343709 -0.00025456678401847559 0 0.0044542444123426119 -0.00021976934342250349 0 0.0045660919109343709 -0.00025456678401847559 0 0.0045126482809549869 -0.00028171240588709552 0 0.0044542444123426119 -0.00021976934342250349 0 0.0044923329781152606 -0.00014619005336687934 0 0.0045660919109343709 -0.00025456678401847559 0 0.0044542444123426119 -0.00021976934342250349 0 0.0045126482809549869 -0.00028171240588709552 0 0.0044586503537606967 -0.00027391488488898418 0 0.0045126482809549869 -0.00028171240588709552 0 0.0044849014493424134 -0.00032430802188082613 0 0.0044586503537606967 -0.00027391488488898418 0 0.0045660919109343709 -0.00025456678401847559 0 0.0045126482809549869 -0.00028171240588709552 0 0.0045724230785784154 -0.00036893543009457354 0 0.0046400381854971029 -0.00032307837280230706 0 0.0045660919109343709 -0.00025456678401847559 0 0.0045724230785784154 -0.00036893543009457354 0 0.0062834438260136582 0.00062492706906351202 0 0.0061228955036574731 0.00071395078489214995 0 0.0061721030590119481 0.00059726678645133455 0 0.0061228955036574731 0.00071395078489214995 0 0.0060073051825984556 0.00063975150076188176 0 0.0061721030590119481 0.00059726678645133455 0 0.0045126482809549869 -0.00028171240588709552 0 0.0045724230785784154 -0.00036893543009457354 0 0.0044849014493424134 -0.00032430802188082613 0 0.0053821305038309827 0.00011940780120836567 0 0.0053157935599592743 0.00019840803525880029 0 0.0061228955036574731 0.00071395078489214995 0 0.0060073051825984556 0.00063975150076188176 0 0.0059421516460639702 0.00080707239832018417 0 0.0044542444123426119 -0.00021976934342250349 0 0.0044586503537606967 -0.00027391488488898418 0 0.004412859280512476 -0.00028136652563071237 0 0.00440535495340729 -0.00020804098898486188 0 0.0051289055696553624 0.00018778978244799786 0 0.0044849014493424134 -0.00032430802188082613 0 0.0044586503537606967 -0.00027391488488898418 0 0.004412859280512476 -0.00028136652563071237 0 0.0053157935599592743 0.00019840803525880029 0 0.0051289055696553624 0.00018778978244799786 0 0.0049377995664053893 0.00015523255729065161 0 0.004847992632772009 0.00020019181721177553 0 0.0052065275237673653 0.00039564100511627005 0 0.0047428646222900418 -1.8893710166137774e-06 0 0.0049377995664053893 0.00015523255729065161 0 0.0051009276948428463 3.0910960292611123e-05 0 0.0049377995664053893 0.00015523255729065161 0 0.0052065275237673653 0.00039564100511627005 0 0.0053205844060207922 0.00019924672975500424 0 0.0047428646222900418 -1.8893710166137774e-06 0 0.0049377995664053893 0.00015523255729065161 0 0.0047893544686474316 0.00022214447238388431 0 0.0049663234737552901 0.00022430035702365682 0 0.0051289055696553624 0.00018778978244799786 0 0.0060073051825984556 0.00063975150076188176 0 0.0058092952307479927 0.00066652694524681666 0 0.0059352120490636165 0.00050954818984745099 0 0.0060073051825984556 0.00063975150076188176 0 0.0059421516460639702 0.00080707239832018417 0 0.0058092952307479927 0.00066652694524681666 0 0.0051289055696553624 0.00018778978244799786 0 0.0055620247672148364 0.00057718155821544063 0 0.0052065275237673653 0.00039564100511627005 0 0.0055188950230373648 0.00034806895890113004 0 0.0053205844060207922 0.00019924672975500424 0 0.0052065275237673653 0.00039564100511627005 0 0.0055188950230373648 0.00034806895890113004 0 0.0056383093093588313 0.00047109375284857852 0 0.0055188950230373648 0.00034806895890113004 0 0.0055751815498582399 0.0002215713844306276 0 0.0053205844060207922 0.00019924672975500424 0 0.0055188950230373648 0.00034806895890113004 0 0.0056226370540018713 0.00032339779952210315 0 0.0056417180678015235 0.00038647432429506453 0 0.0056226370540018713 0.00032339779952210315 0 0.0056768879339175373 0.00034182377538357852 0 0.0056417180678015235 0.00038647432429506453 0 0.0055188950230373648 0.00034806895890113004 0 0.0056226370540018713 0.00032339779952210315 0 0.0055751815498582399 0.0002215713844306276 0 0.0056226370540018713 0.00032339779952210315 0 0.0055751815498582399 0.0002215713844306276 0 0.0056750117132633665 0.00028546528444321924 0 0.0055751815498582399 0.0002215713844306276 0 0.0057507838205174766 0.00028269910898078764 0 0.0054971304382013565 3.282207050606553e-05 0 0.0055751815498582399 0.0002215713844306276 0 0.0053205844060207922 0.00019924672975500424 0 0.0054971304382013565 3.282207050606553e-05 0 0.0053205844060207922 0.00019924672975500424 0 0.0051009276948428463 3.0910960292611123e-05 0 0.0054971304382013565 3.282207050606553e-05 0 0.0049377995664053893 0.00015523255729065161 0 0.0053205844060207922 0.00019924672975500424 0 0.0051009276948428463 3.0910960292611123e-05 0 0.0042206582569175545 -0.00063434771663189234 0 0.0048169810575045191 -0.00059908921130005766 0 0.0034734293037692564 -0.0013261711638904272 0 0.0037394857442737154 -0.0013213506754154228 0 0.0034591641492390519 -0.0015771412158284578 0 0.0042206582569175545 -0.00063434771663189234 0 0.0034620888946172721 -0.0015693146526625269 0 0.0034734293037692564 -0.0013261711638904272 0 0.0037632444372488433 -0.0012475175008585912 0 0.0037394857442737154 -0.0013213506754154228 0 0.0055751815498582399 0.0002215713844306276 0 0.0057507838205174766 0.00028269910898078764 0 0.0056750117132633665 0.00028546528444321924 0 0.0038414410788493777 -0.00085555882219866242 0 0.0042686771644840872 -0.0006327741409645907 0 0.0038414410788493777 -0.00085555882219866242 0 0.0042206582569175545 -0.00063434771663189234 0 0.0039938723313968612 -0.00081911623902189608 0 0.0038835040366751962 -0.00076706429851548926 0 0.0040632564428538191 -0.00060449263803093851 0 0.0044156709655146925 -0.00063870935900211352 0 0.0042686771644840872 -0.0006327741409645907 0 0.0057282548196894486 0.00029124832471063411 0 0.0057270471633235169 0.00029320436801798526 0 0.0057256639822186491 0.00030687787889193416 0 0.0057282548196894486 0.00029124832471063411 0 0.0057256639822186491 0.00030687787889193416 0 0.0057100490049123934 0.00031784237182102941 0 0.0057256639822186491 0.00030687787889193416 0 0.0057325028119904597 0.00031077305576984884 0 0.0057207609970421139 0.00032685056836275676 0 0.0057270471633235169 0.00029320436801798526 0 0.0057256639822186491 0.00030687787889193416 0 0.0057325028119904597 0.00031077305576984884 0 0.0042686771644840872 -0.0006327741409645907 0 0.0042206582569175545 -0.00063434771663189234 0 0.0057325028119904597 0.00031077305576984884 0 0.0057207609970421139 0.00032685056836275676 0 0.0057207842487418531 0.00035025058274462532 0 0.0057084317770232018 0.0003421483643971776 0 0.0057207609970421139 0.00032685056836275676 0 0.0057207842487418531 0.00035025058274462532 0 0.0057084317770232018 0.0003421483643971776 0 0.0057207609970421139 0.00032685056836275676 0 0.0057100490049123934 0.00031784237182102941 0 0.0057256639822186491 0.00030687787889193416 0 0.0057207609970421139 0.00032685056836275676 0 0.0057100490049123934 0.00031784237182102941 0 0.0057084317770232018 0.0003421483643971776 0 0.0056768879339175373 0.00034182377538357852 0 0.0057100490049123934 0.00031784237182102941 0 0.0056768879339175373 0.00034182377538357852 0 0.0056957689855915731 0.00036715103468229281 0 0.0056417180678015235 0.00038647432429506453 0 0.0057084317770232018 0.0003421483643971776 0 0.0056768879339175373 0.00034182377538357852 0 0.0056957689855915731 0.00036715103468229281 0 0.0056226370540018713 0.00032339779952210315 0 0.0056768879339175373 0.00034182377538357852 0 0.0056750117132633665 0.00028546528444321924 0 0.0056768879339175373 0.00034182377538357852 0 0.0057100490049123934 0.00031784237182102941 0 0.0056750117132633665 0.00028546528444321924 0 0.0057282548196894486 0.00029124832471063411 0 0.0057100490049123934 0.00031784237182102941 0 0.0056750117132633665 0.00028546528444321924 0 0.0057282548196894486 0.00029124832471063411 0 0.0057507838205174766 0.00028269910898078764 0 0.0056750117132633665 0.00028546528444321924 0 0.0042686771644840872 -0.0006327741409645907 0 0.00453218754268287 -0.00040410058797563027 0 0.0031685326045550475 -0.0011922031500106796 0 0.0031839201353570435 -0.0010350691370828789 0 0.0034845762537918127 -0.00092504551362269558 0 0.0031340624898586566 -0.0011918582416988808 0 0.0031839201353570435 -0.0010350691370828789 0 0.0030266797312999329 -0.00092228134218448415 0 0.0038414410788493777 -0.00085555882219866242 0 0.0033507345817089091 -0.0011970081131579486 0 0.0031408043669501856 -0.0011787308877095654 0 0.0031685326045550475 -0.0011922031500106796 0 0.0031839201353570435 -0.0010350691370828789 0 0.0038414410788493777 -0.00085555882219866242 0 0.0029401700000544991 -0.0010556321496029658 0 0.0034734293037692564 -0.0013261711638904272 0 0.0037632444372488433 -0.0012475175008585912 0 0.0032743050359102608 -0.0010292346101942729 0 0.0031340624898586566 -0.0011918582416988808 0 0.0030266797312999329 -0.00092228134218448415 0 0.0027404346699228732 -0.0010054494957788308 0 0.0030266797312999329 -0.00092228134218448415 0 0.0032155770861071109 -0.00071310449714998632 0 0.0028569722784091115 -0.0006712562721793979 0 0.0030266797312999329 -0.00092228134218448415 0 0.0028569722784091115 -0.0006712562721793979 0 0.0027404346699228732 -0.0010054494957788308 0 0.0031839201353570435 -0.0010350691370828789 0 0.0030266797312999329 -0.00092228134218448415 0 0.0032155770861071109 -0.00071310449714998632 0 0.0031839201353570435 -0.0010350691370828789 0 0.0032155770861071109 -0.00071310449714998632 0 0.0034845762537918127 -0.00092504551362269558 0 0.0032155770861071109 -0.00071310449714998632 0 0.0034575714055868805 -0.0004221854976482639 0 0.0030807132922349469 -0.00040149888373406273 0 0.0032155770861071109 -0.00071310449714998632 0 0.0028569722784091115 -0.0006712562721793979 0 0.0030807132922349469 -0.00040149888373406273 0 0.0028569722784091115 -0.0006712562721793979 0 0.0030807132922349469 -0.00040149888373406273 0 0.0028356737996157668 -0.0002713338238812066 0 0.0051009276948428463 3.0910960292611123e-05 0 0.0054971304382013565 3.282207050606553e-05 0 0.0049934615794498842 -0.00023857991644674916 0 0.00453218754268287 -0.00040410058797563027 0 0.0044202258152256212 -0.00043767619319074006 0 0.0034845762537918127 -0.00092504551362269558 0 0.0034622168712136778 -0.00068458105356386284 0 0.0038523478714050795 -0.00066397565111126443 0 0.0032155770861071109 -0.00071310449714998632 0 0.0034845762537918127 -0.00092504551362269558 0 0.0034622168712136778 -0.00068458105356386284 0 0.0032155770861071109 -0.00071310449714998632 0 0.0034622168712136778 -0.00068458105356386284 0 0.0034575714055868805 -0.0004221854976482639 0 0.0034622168712136778 -0.00068458105356386284 0 0.0038523478714050795 -0.00066397565111126443 0 0.0034575714055868805 -0.0004221854976482639 0 0.0038523478714050795 -0.00066397565111126443 0 0.0037903710148187992 -0.00013793015857839131 0 0.0034575714055868805 -0.0004221854976482639 0 0.0037395894956820516 0.00013245766115889941 0 0.0037903710148187992 -0.00013793015857839131 0 0.0035296627245896594 0.00011333594305682297 0 0.0037903710148187992 -0.00013793015857839131 0 0.0033475895969918685 -9.1940835954975466e-05 0 0.0035296627245896594 0.00011333594305682297 0 0.0037903710148187992 -0.00013793015857839131 0 0.0033475895969918685 -9.1940835954975466e-05 0 0.0034575714055868805 -0.0004221854976482639 0 0.0033475895969918685 -9.1940835954975466e-05 0 0.0034575714055868805 -0.0004221854976482639 0 0.0030807132922349469 -0.00040149888373406273 0 0.0030807132922349469 -0.00040149888373406273 0 0.0028356737996157668 -0.0002713338238812066 0 0.0030089478063439839 -1.4499357866378317e-05 0 0.0028356737996157668 -0.0002713338238812066 0 0.0030089478063439839 -1.4499357866378317e-05 0 0.0026762223558003612 7.2704078598621495e-05 0 0.0033475895969918685 -9.1940835954975466e-05 0 0.0030089478063439839 -1.4499357866378317e-05 0 0.0033013644041948158 0.00017519259233459905 0 0.0033475895969918685 -9.1940835954975466e-05 0 0.0030807132922349469 -0.00040149888373406273 0 0.0030089478063439839 -1.4499357866378317e-05 0 0.0030089478063439839 -1.4499357866378317e-05 0 0.0030587243791927693 0.00024621754934127903 0 0.0033013644041948158 0.00017519259233459905 0 0.0030089478063439839 -1.4499357866378317e-05 0 0.0030587243791927693 0.00024621754934127903 0 0.0028138529445228583 0.00027064024420566193 0 0.0030089478063439839 -1.4499357866378317e-05 0 0.0028138529445228583 0.00027064024420566193 0 0.0026762223558003612 7.2704078598621495e-05 0 0.0028378160384015098 0.00051337154824074088 0 0.0030587243791927693 0.00024621754934127903 0 0.0031781828161042561 0.0004209270657065959 0 0.0028378160384015098 0.00051337154824074088 0 0.0030587243791927693 0.00024621754934127903 0 0.0028138529445228583 0.00027064024420566193 0 0.0030587243791927693 0.00024621754934127903 0 0.0031781828161042561 0.0004209270657065959 0 0.0033013644041948158 0.00017519259233459905 0 0.0033251825410879564 0.00045450633432751373 0 0.0031781828161042561 0.0004209270657065959 0 0.0034263210882643832 0.00032378898104257615 0 0.0031781828161042561 0.0004209270657065959 0 0.0034263210882643832 0.00032378898104257615 0 0.0033013644041948158 0.00017519259233459905 0 0.0035265203946625097 0.00051599136769348497 0 0.0033251825410879564 0.00045450633432751373 0 0.0034263210882643832 0.00032378898104257615 0 0.0035265203946625097 0.00051599136769348497 0 0.003753647084824654 0.00038849729904885314 0 0.0036337087502714637 0.00029445118095028621 0 0.0035265203946625097 0.00051599136769348497 0 0.0034263210882643832 0.00032378898104257615 0 0.0036337087502714637 0.00029445118095028621 0 0.0034263210882643832 0.00032378898104257615 0 0.0036337087502714637 0.00029445118095028621 0 0.0035296627245896594 0.00011333594305682297 0 0.0037395894956820516 0.00013245766115889941 0 0.0036337087502714637 0.00029445118095028621 0 0.0035296627245896594 0.00011333594305682297 0 0.0034263210882643832 0.00032378898104257615 0 0.0035296627245896594 0.00011333594305682297 0 0.0033013644041948158 0.00017519259233459905 0 0.0033475895969918685 -9.1940835954975466e-05 0 0.0035296627245896594 0.00011333594305682297 0 0.0033013644041948158 0.00017519259233459905 0 0.0022322539118771237 2.993526903806606e-05 0 0.0021318793257936565 0.00030654691356974328 0 0.0018001236203784943 3.8149502276822968e-06 0 0.0022322539118771237 2.993526903806606e-05 0 0.0021318793257936565 0.00030654691356974328 0 0.002512107958196614 0.00036495339764353702 0 0.0018512902629317727 0.00048597831964985051 0 0.0021318793257936565 0.00030654691356974328 0 0.0018001236203784943 3.8149502276822968e-06 0 0.0022622647410067286 0.00063643607668498919 0 0.0018512902629317727 0.00048597831964985051 0 0.0021318793257936565 0.00030654691356974328 0 0.0022622647410067286 0.00063643607668498919 0 0.0021318793257936565 0.00030654691356974328 0 0.002512107958196614 0.00036495339764353702 0 0.0028378160384015098 0.00051337154824074088 0 0.0028138529445228583 0.00027064024420566193 0 0.002512107958196614 0.00036495339764353702 0 0.0028138529445228583 0.00027064024420566193 0 0.002512107958196614 0.00036495339764353702 0 0.0026762223558003612 7.2704078598621495e-05 0 0.0022716888655288613 3.4809370669920117e-05 0 0.0026532805476819203 7.1128242373073936e-05 0 0.0022322539118771237 2.993526903806606e-05 0 0.002512107958196614 0.00036495339764353702 0 0.0026762223558003612 7.2704078598621495e-05 0 0.0022979053204574451 3.6520570803197259e-05 0 0.0026762223558003612 7.2704078598621495e-05 0 0.0025583379294194064 -0.00035403443154633017 0 0.0028356737996157668 -0.0002713338238812066 0 0.0026762223558003612 7.2704078598621495e-05 0 0.0025583379294194064 -0.00035403443154633017 0 0.0028569722784091115 -0.0006712562721793979 0 0.0028356737996157668 -0.0002713338238812066 0 0.0025583379294194064 -0.00035403443154633017 0 0.0022979053204574451 3.6520570803197259e-05 0 0.0025583379294194064 -0.00035403443154633017 0 0.0022419480317309149 -0.00041144944354930128 0 0.0022979053204574451 3.6520570803197259e-05 0 0.0022419480317309149 -0.00041144944354930128 0 0.0019158913556911667 -0.00033099795267072592 0 0.0022716888655288613 3.4809370669920117e-05 0 0.0018411541482991603 6.366233370273511e-06 0 0.0022979053204574451 3.6520570803197259e-05 0 0.0018983528816237092 8.4305244636300268e-06 0 0.0019158913556911667 -0.00033099795267072592 0 0.0022419480317309149 -0.00041144944354930128 0 0.0019158913556911667 -0.00033099795267072592 0 0.001994607545844317 -0.0006356553149880111 0 0.0022419480317309149 -0.00041144944354930128 0 0.001994607545844317 -0.0006356553149880111 0 0.0023622194969695823 -0.00081875388744327021 0 0.0022504301330122005 -0.0006339806818863161 0 0.0027647092599671209 -0.00081675936024954636 0 0.0023899723791062344 -0.0010491038621029238 0 0.0021163604915686854 -0.00063663534650419652 0 0.0025791476666978817 -0.00081708569656308396 0 0.0022504301330122005 -0.0006339806818863161 0 0.0023899723791062344 -0.0010491038621029238 0 0.0020916460716009864 -0.00091971923333143148 0 0.0028569722784091115 -0.0006712562721793979 0 0.0025583379294194064 -0.00035403443154633017 0 0.0023622194969695823 -0.00081875388744327021 0 0.0028569722784091115 -0.0006712562721793979 0 0.0023622194969695823 -0.00081875388744327021 0 0.0027404346699228732 -0.0010054494957788308 0 0.0025583379294194064 -0.00035403443154633017 0 0.0022419480317309149 -0.00041144944354930128 0 0.0023622194969695823 -0.00081875388744327021 0 0.0025791476666978817 -0.00081708569656308396 0 0.0029401700000544991 -0.0010556321496029658 0 0.0027647092599671209 -0.00081675936024954636 0 0.0032743050359102608 -0.0010292346101942729 0 0.0027919881381484857 -0.0012324709297169968 0 0.0027919881381484857 -0.0012324709297169968 0 0.0028175907758494533 -0.0014780484593750521 0 0.0031345866282042989 -0.0014540734253594761 0 0.0032743050359102608 -0.0010292346101942729 0 0.0027919881381484857 -0.0012324709297169968 0 0.0031345866282042989 -0.0014540734253594761 0 0.0034734293037692564 -0.0013261711638904272 0 0.0032743050359102608 -0.0010292346101942729 0 0.0031345866282042989 -0.0014540734253594761 0 0.0034734293037692564 -0.0013261711638904272 0 0.0031345866282042989 -0.0014540734253594761 0 0.0034591641492390519 -0.0015771412158284578 0 0.0023899723791062344 -0.0010491038621029238 0 0.0020916460716009864 -0.00091971923333143148 0 0.0019941358414450969 -0.0011912166832828038 0 0.0027647092599671209 -0.00081675936024954636 0 0.0027919881381484857 -0.0012324709297169968 0 0.0023899723791062344 -0.0010491038621029238 0 0.0027919881381484857 -0.0012324709297169968 0 0.0028175907758494533 -0.0014780484593750521 0 0.0024524151678221736 -0.0014818969481420398 0 0.0027919881381484857 -0.0012324709297169968 0 0.0023899723791062344 -0.0010491038621029238 0 0.0024524151678221736 -0.0014818969481420398 0 0.0043101650092732847 -0.00071447616104544718 0 0.0041430091562039114 -0.00058105324131567371 0 0.0023899723791062344 -0.0010491038621029238 0 0.0024524151678221736 -0.0014818969481420398 0 0.0019941358414450969 -0.0011912166832828038 0 0.0061631341062123998 2.8998023820278834e-05 0 0.0062060942588717596 9.7904485609790813e-05 0 0.0061120441478665815 9.6339203100434203e-05 0 0.0061631341062123998 2.8998023820278834e-05 0 0.0062060942588717596 9.7904485609790813e-05 0 0.0062820291418948324 8.3161600484382703e-05 0 0.0061631341062123998 2.8998023820278834e-05 0 0.0061120441478665815 9.6339203100434203e-05 0 0.0059958094961819657 7.4896213217155082e-05 0 0.0028175907758494533 -0.0014780484593750521 0 0.0024524151678221736 -0.0014818969481420398 0 0.0028968911117865787 -0.0017418237167254973 0 0.0043101650092732847 -0.00071447616104544718 0 0.0043782761559472017 -0.00089658252943388317 0 0.006120408173939355 0.00014713103946387089 0 0.0061815650026321297 0.00016522845874296507 0 0.0061719680154101557 0.00011732272708265309 0 0.0061221723423541792 0.0001430350614640087 0 0.0060822871136671673 8.3442915683996094e-05 0 0.0061120441478665815 9.6339203100434203e-05 0 0.0061366264652852817 0.00018465202529809581 0 0.0059825053581190838 0.00019293838278880725 0 0.0062060942588717596 9.7904485609790813e-05 0 0.0061366264652852817 0.00018465202529809581 0 0.0062485574006823493 0.00015194944611243775 0 0.006120408173939355 0.00014713103946387089 0 0.0062477551724289026 0.00015286956217769009 0 0.0062060942588717596 9.7904485609790813e-05 0 0.0061120441478665815 9.6339203100434203e-05 0 0.0061366264652852817 0.00018465202529809581 0 0.0062403294348974984 0.00016341854926613268 0 0.006343751311229536 0.00014444518978794918 0 0.0061719680154101557 0.00011732272708265309 0 0.0062485574006823493 0.00015194944611243775 0 0.0062664635508882472 0.00018560668129844943 0 0.0061719680154101557 0.00011732272708265309 0 0.0061663029321922845 0.00020094785144351588 0 0.0062664635508882472 0.00018560668129844943 0 0.0061719680154101557 0.00011732272708265309 0 0.0061221723423541792 0.0001430350614640087 0 0.0061663029321922845 0.00020094785144351588 0 0.0061221723423541792 0.0001430350614640087 0 0.0061663029321922845 0.00020094785144351588 0 0.0060603709459475848 0.00016770784482455288 0 0.0063195603096434716 0.00011655282102433273 0 0.0062500580792996495 0.00023283720848512739 0 0.0060740921603944613 0.00023818962122310261 0 0.0063195603096434716 0.00011655282102433273 0 0.0063932641667973642 0.00014218864023523488 0 0.0063580296853677359 0.00022069453104476663 0 0.0063195603096434716 0.00011655282102433273 0 0.0063932641667973642 0.00014218864023523488 0 0.0064237080400219478 0.00011080535784341573 0 0.0059511178485177124 0.00023115855880368651 0 0.0060603709459475848 0.00016770784482455288 0 0.0060740921603944613 0.00023818962122310261 0 0.0059511178485177124 0.00023115855880368651 0 0.0060603709459475848 0.00016770784482455288 0 0.0059305674099345701 0.0001482275462577122 0 0.0059191880938031256 0.00020221838433283831 0 0.0059159255997125963 0.00033803431967001927 0 0.0061663029321922845 0.00020094785144351588 0 0.0060603709459475848 0.00016770784482455288 0 0.0060740921603944613 0.00023818962122310261 0 0.0062403294348974984 0.00016341854926613268 0 0.0060833272007993853 0.00023332226026165611 0 0.0061221723423541792 0.0001430350614640087 0 0.0060603709459475848 0.00016770784482455288 0 0.0060822871136671673 8.3442915683996094e-05 0 0.0060603709459475848 0.00016770784482455288 0 0.0060228625036951701 0.00010832151315467198 0 0.0060822871136671673 8.3442915683996094e-05 0 0.0060603709459475848 0.00016770784482455288 0 0.0060228625036951701 0.00010832151315467198 0 0.0059305674099345701 0.0001482275462577122 0 0.0060228625036951701 0.00010832151315467198 0 0.0059576518652534058 5.6140780088338111e-05 0 0.0059305674099345701 0.0001482275462577122 0 0.0060228625036951701 0.00010832151315467198 0 0.0059576518652534058 5.6140780088338111e-05 0 0.0060822871136671673 8.3442915683996094e-05 0 0.0051082414343133061 -0.00035115916231654343 0 0.0061815650026321297 0.00016522845874296507 0 0.0034243573401111162 -0.0020600244449589323 0 0.0032169949681815791 -0.0018233887097484753 0 0.0028968911117865787 -0.0017418237167254973 0 0.0051082414343133061 -0.00035115916231654343 0 0.0043782761559472017 -0.00089658252943388317 0 0.0034243573401111162 -0.0020600244449589323 0 0.0032169949681815791 -0.0018233887097484753 0 0.0035366973098344733 -0.0019303857255577963 0 0.0032169949681815791 -0.0018233887097484753 0 0.0035949741445165141 -0.0017487407056317381 0 0.0035366973098344733 -0.0019303857255577963 0 0.0061120441478665815 9.6339203100434203e-05 0 0.0059825053581190838 0.00019293838278880725 0 0.0059958094961819657 7.4896213217155082e-05 0 0.0057964350193394484 0.00017921871036171067 0 0.0059825053581190838 0.00019293838278880725 0 0.0059958094961819657 7.4896213217155082e-05 0 0.0031345866282042989 -0.0014540734253594761 0 0.0032169949681815791 -0.0018233887097484753 0 0.0028968911117865787 -0.0017418237167254973 0 0.0028175907758494533 -0.0014780484593750521 0 0.0031345866282042989 -0.0014540734253594761 0 0.0028968911117865787 -0.0017418237167254973 0 0.0031345866282042989 -0.0014540734253594761 0 0.0032169949681815791 -0.0018233887097484753 0 0.0034591641492390519 -0.0015771412158284578 0 0.0032743398588708597 -0.0017567623177204756 0 0.0034620888946172721 -0.0015693146526625269 0 0.0032169949681815791 -0.0018233887097484753 0 0.0036223648820543153 -0.0013885550247662833 0 0.0035949741445165141 -0.0017487407056317381 0 0.0040896018942074138 -0.00096052912920646422 0 0.0036223648820543153 -0.0013885550247662833 0 0.0038953501237635156 -0.0015414440871779709 0 0.0057325028119904597 0.00031077305576984884 0 0.0057220104232688666 0.00036458422675285981 0 0.0057207842487418531 0.00035025058274462532 0 0.0036223648820543153 -0.0013885550247662833 0 0.0035949741445165141 -0.0017487407056317381 0 0.0038953501237635156 -0.0015414440871779709 0 0.0057084317770232018 0.0003421483643971776 0 0.0057207842487418531 0.00035025058274462532 0 0.0056957689855915731 0.00036715103468229281 0 0.0057220104232688666 0.00036458422675285981 0 0.0057207842487418531 0.00035025058274462532 0 0.0057183251952431426 0.00036592384253921693 0 0.0057207842487418531 0.00035025058274462532 0 0.0056957689855915731 0.00036715103468229281 0 0.0057183251952431426 0.00036592384253921693 0 0.0057183251952431426 0.00036592384253921693 0 0.0057195541793411816 0.00036289179056143896 0 0.0056902686244400848 0.00039176963148962723 0 0.0056957689855915731 0.00036715103468229281 0 0.0057183251952431426 0.00036592384253921693 0 0.0056902686244400848 0.00039176963148962723 0 0.0057183251952431426 0.00036592384253921693 0 0.0057321200768882998 0.00034477133926615094 0 0.0057195541793411816 0.00036289179056143896 0 0.0057220104232688666 0.00036458422675285981 0 0.0057183251952431426 0.00036592384253921693 0 0.0057321200768882998 0.00034477133926615094 0 0.0057321200768882998 0.00034477133926615094 0 0.0057195541793411816 0.00036289179056143896 0 0.0057403343968680824 0.00032969180623830454 0 0.0057321200768882998 0.00034477133926615094 0 0.0057403343968680824 0.00032969180623830454 0 0.0057452133476296576 0.00030680491290458622 0 0.0057195541793411816 0.00036289179056143896 0 0.0057403343968680824 0.00032969180623830454 0 0.0057234460837888032 0.00035674458106759382 0 0.0057195541793411816 0.00036289179056143896 0 0.0056902686244400848 0.00039176963148962723 0 0.0057234460837888032 0.00035674458106759382 0 0.0057403343968680824 0.00032969180623830454 0 0.0057234460837888032 0.00035674458106759382 0 0.0057478389579118114 0.00031907767706169791 0 0.0057403343968680824 0.00032969180623830454 0 0.0057631919966829306 0.0002965843314079927 0 0.0057478389579118114 0.00031907767706169791 0 0.0057403343968680824 0.00032969180623830454 0 0.0057452133476296576 0.00030680491290458622 0 0.0057631919966829306 0.0002965843314079927 0 0.0035949741445165141 -0.0017487407056317381 0 0.0038953501237635156 -0.0015414440871779709 0 0.0037032335253864871 -0.0020650782942589034 0 0.0057452133476296576 0.00030680491290458622 0 0.0057695059267987413 0.00028609025338804098 0 0.005788469908711796 0.00027694655640107905 0 0.0057220104232688666 0.00036458422675285981 0 0.0057321200768882998 0.00034477133926615094 0 0.0057072339280179601 0.00031091587099840577 0 0.0057356259969745232 -7.2645906004352914e-05 0 0.0050728397347616187 -0.00042444753198196168 0 0.0048169810575045191 -0.00059908921130005766 0 0.0050728397347616187 -0.00042444753198196168 0 0.0051082414343133061 -0.00035115916231654343 0 0.0050728397347616187 -0.00042444753198196168 0 0.0034243573401111162 -0.0020600244449589323 0 0.0037032335253864871 -0.0020650782942589034 0 0.0035366973098344733 -0.0019303857255577963 0 0.0035949741445165141 -0.0017487407056317381 0 0.0037032335253864871 -0.0020650782942589034 0 0.0035366973098344733 -0.0019303857255577963 0 0.0057321200768882998 0.00034477133926615094 0 0.0057452133476296576 0.00030680491290458622 0 0.0057072339280179601 0.00031091587099840577 0 0.0058092952307479927 0.00066652694524681666 0 0.0056383093093588313 0.00047109375284857852 0 0.0059352120490636165 0.00050954818984745099 0 0.0055620247672148364 0.00057718155821544063 0 0.005576873247155007 0.00045459662871310782 0 0.0056383093093588313 0.00047109375284857852 0 0.0056417180678015235 0.00038647432429506453 0 0.0056902686244400848 0.00039176963148962723 0 0.0056383093093588313 0.00047109375284857852 0 0.0056902686244400848 0.00039176963148962723 0 0.0057046526091156522 0.00038615398644036285 0 0.0055188950230373648 0.00034806895890113004 0 0.0056383093093588313 0.00047109375284857852 0 0.0056417180678015235 0.00038647432429506453 0 0.0056957689855915731 0.00036715103468229281 0 0.0056417180678015235 0.00038647432429506453 0 0.0056902686244400848 0.00039176963148962723 0 0.0056902686244400848 0.00039176963148962723 0 0.0057234460837888032 0.00035674458106759382 0 0.0057046526091156522 0.00038615398644036285 0 0.0057234460837888032 0.00035674458106759382 0 0.0057466299948443168 0.00032827745307741161 0 0.0057478389579118114 0.00031907767706169791 0 0.0057234460837888032 0.00035674458106759382 0 0.0057046526091156522 0.00038615398644036285 0 0.0057466299948443168 0.00032827745307741161 0 0.0057046526091156522 0.00038615398644036285 0 0.0057622103161630873 0.00035550577403878141 0 0.0057466299948443168 0.00032827745307741161 0 0.0056383093093588313 0.00047109375284857852 0 0.0057046526091156522 0.00038615398644036285 0 0.0057622103161630873 0.00035550577403878141 0 0.0056383093093588313 0.00047109375284857852 0 0.0057622103161630873 0.00035550577403878141 0 0.0058504478000222602 0.00038566807208430509 0 0.0057622103161630873 0.00035550577403878141 0 0.0058320013251432247 0.00030790838077496762 0 0.0058504478000222602 0.00038566807208430509 0 0.0058320013251432247 0.00030790838077496762 0 0.0058372851484576214 0.00026670923285499094 0 0.005889817781965196 0.00026263615863288218 0 0.0057622103161630873 0.00035550577403878141 0 0.0058320013251432247 0.00030790838077496762 0 0.005789418697294278 0.00030331393119100634 0 0.005789418697294278 0.00030331393119100634 0 0.0058035912197982242 0.00027264060817486642 0 0.0058372851484576214 0.00026670923285499094 0 0.0058320013251432247 0.00030790838077496762 0 0.005789418697294278 0.00030331393119100634 0 0.0058372851484576214 0.00026670923285499094 0 0.005789418697294278 0.00030331393119100634 0 0.0057774875793588781 0.00028939908699273916 0 0.0058035912197982242 0.00027264060817486642 0 0.005789418697294278 0.00030331393119100634 0 0.0057774875793588781 0.00028939908699273916 0 0.0057466299948443168 0.00032827745307741161 0 0.0057622103161630873 0.00035550577403878141 0 0.005789418697294278 0.00030331393119100634 0 0.0057466299948443168 0.00032827745307741161 0 0.0057774875793588781 0.00028939908699273916 0 0.0057466299948443168 0.00032827745307741161 0 0.0057678451643947293 0.00029241925026663471 0 0.0057466299948443168 0.00032827745307741161 0 0.0057478389579118114 0.00031907767706169791 0 0.0057678451643947293 0.00029241925026663471 0 0.0057774875793588781 0.00028939908699273916 0 0.0057678451643947293 0.00029241925026663471 0 0.0057883292818506505 0.00026884418836884804 0 0.0057774875793588781 0.00028939908699273916 0 0.0058005205881528528 0.00025785675323562838 0 0.0057883292818506505 0.00026884418836884804 0 0.0058055458073041398 0.0002547536831253739 0 0.0058005205881528528 0.00025785675323562838 0 0.0057883292818506505 0.00026884418836884804 0 0.0058055458073041398 0.0002547536831253739 0 0.0058005205881528528 0.00025785675323562838 0 0.0058171001754248322 0.00023353425750982098 0 0.0058005205881528528 0.00025785675323562838 0 0.005830938278299491 0.00023835130865015324 0 0.0058171001754248322 0.00023353425750982098 0 0.0058005205881528528 0.00025785675323562838 0 0.0058035912197982242 0.00027264060817486642 0 0.005830938278299491 0.00023835130865015324 0 0.0057774875793588781 0.00028939908699273916 0 0.0058005205881528528 0.00025785675323562838 0 0.0058035912197982242 0.00027264060817486642 0 0.0058035912197982242 0.00027264060817486642 0 0.005830938278299491 0.00023835130865015324 0 0.0058372851484576214 0.00026670923285499094 0 0.005830938278299491 0.00023835130865015324 0 0.0058495553060679108 0.00021528127280894983 0 0.0058171001754248322 0.00023353425750982098 0 0.005830938278299491 0.00023835130865015324 0 0.0058495553060679108 0.00021528127280894983 0 0.0058729576246541043 0.00023022811822589947 0 0.0058495553060679108 0.00021528127280894983 0 0.0058729576246541043 0.00023022811822589947 0 0.0058992068790416664 0.00019659411057151833 0 0.0058729576246541043 0.00023022811822589947 0 0.0058372851484576214 0.00026670923285499094 0 0.005889817781965196 0.00026263615863288218 0 0.005830938278299491 0.00023835130865015324 0 0.0058729576246541043 0.00023022811822589947 0 0.0058372851484576214 0.00026670923285499094 0 0.005788469908711796 0.00027694655640107905 0 0.0057915964558243197 0.00027038027520248463 0 0.0058361880286873155 0.00025111656103901783 0 0.0058299441483918813 0.0002549452079558231 0 0.005788469908711796 0.00027694655640107905 0 0.0058361880286873155 0.00025111656103901783 0 0.0050728397347616187 -0.00042444753198196168 0 0.0059159255997125963 0.00033803431967001927 0 0.0059576518652534058 5.6140780088338111e-05 0 0.0058946776167381502 5.0772131249922573e-05 0 0.0059305674099345701 0.0001482275462577122 0 0.0057695059267987413 0.00028609025338804098 0 0.0058299441483918813 0.0002549452079558231 0 0.005788469908711796 0.00027694655640107905 0 0.0057452133476296576 0.00030680491290458622 0 0.005788469908711796 0.00027694655640107905 0 0.0057631919966829306 0.0002965843314079927 0 0.005788469908711796 0.00027694655640107905 0 0.0057631919966829306 0.0002965843314079927 0 0.0057915964558243197 0.00027038027520248463 0 0.0057631919966829306 0.0002965843314079927 0 0.0057478389579118114 0.00031907767706169791 0 0.0057678451643947293 0.00029241925026663471 0 0.0057678451643947293 0.00029241925026663471 0 0.0057915964558243197 0.00027038027520248463 0 0.0057883292818506505 0.00026884418836884804 0 0.0057631919966829306 0.0002965843314079927 0 0.0057678451643947293 0.00029241925026663471 0 0.0057915964558243197 0.00027038027520248463 0 0.0057915964558243197 0.00027038027520248463 0 0.0058132489796076294 0.00026031535415094192 0 0.0058361880286873155 0.00025111656103901783 0 0.0057915964558243197 0.00027038027520248463 0 0.0057883292818506505 0.00026884418836884804 0 0.0058132489796076294 0.00026031535415094192 0 0.0058055458073041398 0.0002547536831253739 0 0.0057883292818506505 0.00026884418836884804 0 0.0058132489796076294 0.00026031535415094192 0 0.0059511178485177124 0.00023115855880368651 0 0.0058522869583416733 0.00026525514423522098 0 0.0059261895538457437 0.00028561239811332462 0 0.0059511178485177124 0.00023115855880368651 0 0.0058522869583416733 0.00026525514423522098 0 0.0058361880286873155 0.00025111656103901783 0 0.0058132489796076294 0.00026031535415094192 0 0.0058522869583416733 0.00026525514423522098 0 0.0058361880286873155 0.00025111656103901783 0 0.0059511178485177124 0.00023115855880368651 0 0.0058299441483918813 0.0002549452079558231 0 0.0058361880286873155 0.00025111656103901783 0 0.0059261895538457437 0.00028561239811332462 0 0.0058257837182500681 0.00029296612945862804 0 0.0059922000707904833 0.00036430331679975652 0 0.0058522869583416733 0.00026525514423522098 0 0.0059261895538457437 0.00028561239811332462 0 0.0058257837182500681 0.00029296612945862804 0 0.0058132489796076294 0.00026031535415094192 0 0.0058522869583416733 0.00026525514423522098 0 0.0058257837182500681 0.00029296612945862804 0 0.0058055458073041398 0.0002547536831253739 0 0.0058132489796076294 0.00026031535415094192 0 0.0058257837182500681 0.00029296612945862804 0 0.011876115259240793 -0.00060380244484270192 0 0.011129414617479818 -0.00098270468796904094 0 0.011545766602450366 -0.0010334158574572137 0 0.011804178271179043 -0.0006006531508511736 0 0.011086478923677244 -0.0010013673764613124 0 0.011964311522004781 -0.00060328560339709548 0 0.011086478923677244 -0.0010013673764613124 0 0.011372510405269889 -0.000502345431920705 0 0.011545766602450366 -0.0010334158574572137 0 0.011804178271179043 -0.0006006531508511736 0 0.01244482401468296 -0.00091622365578007583 0 0.0087231884718173575 -0.00036053925229559587 0 0.0092183073405773877 -0.00027880231553822861 0 0.0058368929627149362 0.00019934730959079289 0 0.0058992068790416664 0.00019659411057151833 0 0.005951945234758965 0.00016650792432493838 0 0.010769546536450179 -0.0011719535260297409 0 0.010267312482077939 -0.0010767512719755644 0 0.010412688644033089 -0.00091707484843834392 0 0.010769546536450179 -0.0011719535260297409 0 0.010785407901987499 -0.00081210228033495814 0 0.010412688644033089 -0.00091707484843834392 0 0.0058495553060679108 0.00021528127280894983 0 0.0058368929627149362 0.00019934730959079289 0 0.0058992068790416664 0.00019659411057151833 0 0.0058495553060679108 0.00021528127280894983 0 0.0058368929627149362 0.00019934730959079289 0 0.0058171001754248322 0.00023353425750982098 0 0.010769546536450179 -0.0011719535260297409 0 0.011086478923677244 -0.0010013673764613124 0 0.010785407901987499 -0.00081210228033495814 0 0.011545766602450366 -0.0010334158574572137 0 0.010769546536450179 -0.0011719535260297409 0 0.011086478923677244 -0.0010013673764613124 0 0.0058257837182500681 0.00029296612945862804 0 0.0058368929627149362 0.00019934730959079289 0 0.0058171001754248322 0.00023353425750982098 0 0.0058055458073041398 0.0002547536831253739 0 0.0058257837182500681 0.00029296612945862804 0 0.0058171001754248322 0.00023353425750982098 0 0.0087231884718173575 -0.00036053925229559587 0 0.0081789497267971585 -0.00055592319480726781 0 0.011086478923677244 -0.0010013673764613124 0 0.011372510405269889 -0.000502345431920705 0 0.011023584499054785 -0.00069354041080001573 0 0.011372510405269889 -0.000502345431920705 0 0.011023584499054785 -0.00069354041080001573 0 0.010859014666375439 -0.00045187658172528305 0 0.011086478923677244 -0.0010013673764613124 0 0.011023584499054785 -0.00069354041080001573 0 0.010785407901987499 -0.00081210228033495814 0 0.011023584499054785 -0.00069354041080001573 0 0.010785407901987499 -0.00081210228033495814 0 0.010859014666375439 -0.00045187658172528305 0 0.010785407901987499 -0.00081210228033495814 0 0.010455300367651283 -0.00056176878256505554 0 0.010859014666375439 -0.00045187658172528305 0 0.010785407901987499 -0.00081210228033495814 0 0.010455300367651283 -0.00056176878256505554 0 0.010412688644033089 -0.00091707484843834392 0 0.01061578155676716 -0.00021085133793026013 0 0.010616967995651139 0.00014895614903721356 0 0.010191251822515733 -0.0001917289758733077 0 0.010455300367651283 -0.00056176878256505554 0 0.01061578155676716 -0.00021085133793026013 0 0.010859014666375439 -0.00045187658172528305 0 0.01061578155676716 -0.00021085133793026013 0 0.010859014666375439 -0.00045187658172528305 0 0.011081801159334222 -1.523186302406131e-05 0 0.01061578155676716 -0.00021085133793026013 0 0.011081801159334222 -1.523186302406131e-05 0 0.010616967995651139 0.00014895614903721356 0 0.011372510405269889 -0.000502345431920705 0 0.010859014666375439 -0.00045187658172528305 0 0.011081801159334222 -1.523186302406131e-05 0 0.011372510405269889 -0.000502345431920705 0 0.011081801159334222 -1.523186302406131e-05 0 0.01164524907235961 -0.0002066315349494515 0 0.011261675922342921 0.00035118391381144993 0 0.011081801159334222 -1.523186302406131e-05 0 0.011613211923276825 0.0001749829091594784 0 0.011261675922342921 0.00035118391381144993 0 0.011081801159334222 -1.523186302406131e-05 0 0.010930073442459986 0.00061727510702533285 0 0.011261675922342921 0.00035118391381144993 0 0.011613211923276825 0.0001749829091594784 0 0.011420713966289022 0.00062868911840947969 0 0.010616967995651139 0.00014895614903721356 0 0.010372355115908926 0.0004960344937218218 0 0.01091725137262568 0.00055207488188736961 0 0.011081801159334222 -1.523186302406131e-05 0 0.010616967995651139 0.00014895614903721356 0 0.010930073442459986 0.00061727510702533285 0 0.010661194049435906 0.00021092751100025588 0 0.010894152829911779 0.00054745494186094943 0 0.011964311522004781 -0.00060328560339709548 0 0.012142585929632115 -2.8172947417335679e-05 0 0.012802655727750332 -0.00017095181410217854 0 0.011876115259240793 -0.00060380244484270192 0 0.012758731439902573 -0.00014966935995299282 0 0.011964311522004781 -0.00060328560339709548 0 0.011372510405269889 -0.000502345431920705 0 0.01164524907235961 -0.0002066315349494515 0 0.012142585929632115 -2.8172947417335679e-05 0 0.01164524907235961 -0.0002066315349494515 0 0.011613211923276825 0.0001749829091594784 0 0.011081801159334222 -1.523186302406131e-05 0 0.01164524907235961 -0.0002066315349494515 0 0.011613211923276825 0.0001749829091594784 0 0.011964311522004781 -0.00060328560339709548 0 0.012142585929632115 -2.8172947417335679e-05 0 0.01164524907235961 -0.0002066315349494515 0 0.011613211923276825 0.0001749829091594784 0 0.012181586801643333 0.0004038949913791549 0 0.011804223195218465 0.00053834526854048116 0 0.011613211923276825 0.0001749829091594784 0 0.011804223195218465 0.00053834526854048116 0 0.011420713966289022 0.00062868911840947969 0 0.012142585929632115 -2.8172947417335679e-05 0 0.011613211923276825 0.0001749829091594784 0 0.012181586801643333 0.0004038949913791549 0 0.012142585929632115 -2.8172947417335679e-05 0 0.012181586801643333 0.0004038949913791549 0 0.012637727868787257 0.00027096152723432977 0 0.012637727868787257 0.00027096152723432977 0 0.012802655727750332 -0.00017095181410217854 0 0.013132719321707908 0.00034458763140262228 0 0.012637727868787257 0.00027096152723432977 0 0.013132719321707908 0.00034458763140262228 0 0.012927554700470504 0.00080078818154874021 0 0.012142585929632115 -2.8172947417335679e-05 0 0.012637727868787257 0.00027096152723432977 0 0.012802655727750332 -0.00017095181410217854 0 0.012692029121463362 -0.00013123971169433574 0 0.013544016604559247 -0.00022015820875068634 0 0.013475101356875496 -0.00072838362622608779 0 0.012692029121463362 -0.00013123971169433574 0 0.013629272769726263 0.00026862482370779297 0 0.013544016604559247 -0.00022015820875068634 0 0.012758731439902573 -0.00014966935995299282 0 0.013579818320034465 0.00025077546476212821 0 0.012802655727750332 -0.00017095181410217854 0 0.013132719321707908 0.00034458763140262228 0 0.013629272769726263 0.00026862482370779297 0 0.013132719321707908 0.00034458763140262228 0 0.013629272769726263 0.00026862482370779297 0 0.013693242263360739 0.00056467124004028332 0 0.013629272769726263 0.00026862482370779297 0 0.014052972809304492 0.0001487909843658046 0 0.013693242263360739 0.00056467124004028332 0 0.013841638969562479 4.3318083092665745e-05 0 0.014052972809304492 0.0001487909843658046 0 0.014041099535176358 -0.00011859463585457487 0 0.013629272769726263 0.00026862482370779297 0 0.013841638969562479 4.3318083092665745e-05 0 0.014052972809304492 0.0001487909843658046 0 0.013629272769726263 0.00026862482370779297 0 0.013841638969562479 4.3318083092665745e-05 0 0.013544016604559247 -0.00022015820875068634 0 0.014515709424265555 0.00015616333004788647 0 0.014052972809304492 0.0001487909843658046 0 0.013693242263360739 0.00056467124004028332 0 0.01450176868285019 0.00018344186437015028 0 0.014243050988566737 0.00033492375915948521 0 0.014052972809304492 0.0001487909843658046 0 0.014392387553359667 -3.6624365232204811e-05 0 0.014041099535176358 -0.00011859463585457487 0 0.014515709424265555 0.00015616333004788647 0 0.014052972809304492 0.0001487909843658046 0 0.014392387553359667 -3.6624365232204811e-05 0 0.014392387553359667 -3.6624365232204811e-05 0 0.014041099535176358 -0.00011859463585457487 0 0.014361163631106517 -0.00039679111752658901 0 0.014041099535176358 -0.00011859463585457487 0 0.013475101356875496 -0.00072838362622608779 0 0.014361163631106517 -0.00039679111752658901 0 0.014041099535176358 -0.00011859463585457487 0 0.013544016604559247 -0.00022015820875068634 0 0.013475101356875496 -0.00072838362622608779 0 0.013841638969562479 4.3318083092665745e-05 0 0.014041099535176358 -0.00011859463585457487 0 0.013544016604559247 -0.00022015820875068634 0 0.009846788245097049 -0.00018203377570352527 0 0.010424416916927646 -4.3527075730547435e-05 0 0.0062551208936399158 0.00036138747750561693 0 0.0064345174677813491 0.00029560671309158601 0 0.0063580296853677359 0.00022069453104476663 0 0.0064345174677813491 0.00029560671309158601 0 0.0063580296853677359 0.00022069453104476663 0 0.0064292522194847601 0.00017893135187466435 0 0.0063932641667973642 0.00014218864023523488 0 0.0063580296853677359 0.00022069453104476663 0 0.0064292522194847601 0.00017893135187466435 0 0.0063195603096434716 0.00011655282102433273 0 0.0063580296853677359 0.00022069453104476663 0 0.0062500580792996495 0.00023283720848512739 0 0.0062551208936399158 0.00036138747750561693 0 0.0063580296853677359 0.00022069453104476663 0 0.0062500580792996495 0.00023283720848512739 0 0.0062551208936399158 0.00036138747750561693 0 0.0060740921603944613 0.00023818962122310261 0 0.0059922000707904833 0.00036430331679975652 0 0.0062551208936399158 0.00036138747750561693 0 0.0062500580792996495 0.00023283720848512739 0 0.0060740921603944613 0.00023818962122310261 0 0.0059261895538457437 0.00028561239811332462 0 0.0060740921603944613 0.00023818962122310261 0 0.0059922000707904833 0.00036430331679975652 0 0.0059511178485177124 0.00023115855880368651 0 0.0059261895538457437 0.00028561239811332462 0 0.0060740921603944613 0.00023818962122310261 0 0.011804178271179043 -0.0006006531508511736 0 0.012692029121463362 -0.00013123971169433574 0 0.01244482401468296 -0.00091622365578007583 0 0.012692029121463362 -0.00013123971169433574 0 0.013475101356875496 -0.00072838362622608779 0 0.01244482401468296 -0.00091622365578007583 0 0.009846788245097049 -0.00018203377570352527 0 0.0092183073405773877 -0.00027880231553822861 0 0.012314526299914247 0.00086422724944874971 0 0.012184395964045665 0.00086784870995519159 0 0.01224251503358653 0.00079209656784631007 0 0.012184395964045665 0.00086784870995519159 0 0.01224251503358653 0.00079209656784631007 0 0.012127136185228871 0.00083083009242940046 0 0.012314526299914247 0.00086422724944874971 0 0.012319208724182762 0.00077136444371225181 0 0.01224251503358653 0.00079209656784631007 0 0.012319208724182762 0.00077136444371225181 0 0.01224251503358653 0.00079209656784631007 0 0.012299972757395474 0.00067686537609840461 0 0.01224251503358653 0.00079209656784631007 0 0.012127136185228871 0.00083083009242940046 0 0.012193233416520771 0.00073508262249827295 0 0.0091659901482553721 0.00017433757058100708 0 0.0086358771791629034 0.00033870128420681364 0 0.012184395964045665 0.00086784870995519159 0 0.012127136185228871 0.00083083009242940046 0 0.012026772577301231 0.00088378443566481063 0 0.0057674697331855304 -0.00059976178973608532 0 0.0055953416602456145 -0.00046901469730121684 0 0.0054480587606971958 -0.00061694042893350315 0 0.012127136185228871 0.00083083009242940046 0 0.012100126859886269 0.00074048579151066922 0 0.012193233416520771 0.00073508262249827295 0 0.012037034446010599 0.0008545562397019237 0 0.012003350637304027 0.00074998854419462571 0 0.012100126859886269 0.00074048579151066922 0 0.012127136185228871 0.00083083009242940046 0 0.012037034446010599 0.0008545562397019237 0 0.012100126859886269 0.00074048579151066922 0 0.012127136185228871 0.00083083009242940046 0 0.012037034446010599 0.0008545562397019237 0 0.012026772577301231 0.00088378443566481063 0 0.0093424196873286257 0.00047738111455997796 0 0.0086358771791629034 0.00033870128420681364 0 0.0057674697331855304 -0.00059976178973608532 0 0.0055953416602456145 -0.00046901469730121684 0 0.0057978773663104541 -0.00031141329337869793 0 0.0055953416602456145 -0.00046901469730121684 0 0.0054614135980921522 -0.00038413822693501875 0 0.0054480587606971958 -0.00061694042893350315 0 0.0055953416602456145 -0.00046901469730121684 0 0.0054614135980921522 -0.00038413822693501875 0 0.0055575058218165184 -0.00031686099497215764 0 0.0054614135980921522 -0.00038413822693501875 0 0.0055575058218165184 -0.00031686099497215764 0 0.0054592686748868467 -0.00026070245027708236 0 0.0055953416602456145 -0.00046901469730121684 0 0.0055575058218165184 -0.00031686099497215764 0 0.0057978773663104541 -0.00031141329337869793 0 0.0081229740609456719 9.5549687528611289e-05 0 0.0091659901482553721 0.00017433757058100708 0 0.0061554455563577254 -0.00053678213781606582 0 0.0057674697331855304 -0.00059976178973608532 0 0.0057978773663104541 -0.00031141329337869793 0 0.0081229740609456719 9.5549687528611289e-05 0 0.0053278956425037143 -0.00012317595538480225 0 0.0054068031464980116 -0.00022201605459826952 0 0.0054257143831882137 -0.00027804289916505035 0 0.005367096011247208 -0.00020740683784381384 0 0.0054068031464980116 -0.00022201605459826952 0 0.005367096011247208 -0.00020740683784381384 0 0.0053798380623513624 -0.00020262781445612367 0 0.005367096011247208 -0.00020740683784381384 0 0.0053798380623513624 -0.00020262781445612367 0 0.0053715890268132482 -0.00020005004652327109 0 0.0053715890268132482 -0.00020005004652327109 0 0.0053612013970888526 -0.00019955420206639168 0 0.0053626186342954213 -0.00020776771264450166 0 0.0053798380623513624 -0.00020262781445612367 0 0.0053715890268132482 -0.00020005004652327109 0 0.0053612013970888526 -0.00019955420206639168 0 0.0053228079089982323 -0.00024055369256270652 0 0.0053216800281781825 -0.00021422677291839078 0 0.0053626186342954213 -0.00020776771264450166 0 0.0053612013970888526 -0.00019955420206639168 0 0.0053216800281781825 -0.00021422677291839078 0 0.0053626186342954213 -0.00020776771264450166 0 0.0053707537345021534 -0.00024118862637639263 0 0.0053228079089982323 -0.00024055369256270652 0 0.0053904970780479008 -0.0002109417190816063 0 0.0053228079089982323 -0.00024055369256270652 0 0.0053626186342954213 -0.00020776771264450166 0 0.0053904970780479008 -0.0002109417190816063 0 0.0053626186342954213 -0.00020776771264450166 0 0.0054004850383064648 -0.00019037927466978631 0 0.0053904970780479008 -0.0002109417190816063 0 0.0054304274521755347 -0.00018390832979627678 0 0.0054004850383064648 -0.00019037927466978631 0 0.0053859499739951399 -0.00017635680255258463 0 0.0053626186342954213 -0.00020776771264450166 0 0.0054304274521755347 -0.00018390832979627678 0 0.0054004850383064648 -0.00019037927466978631 0 0.0053715890268132482 -0.00020005004652327109 0 0.0053626186342954213 -0.00020776771264450166 0 0.0054304274521755347 -0.00018390832979627678 0 0.0055575058218165184 -0.00031686099497215764 0 0.0057978773663104541 -0.00031141329337869793 0 0.0054304274521755347 -0.00018390832979627678 0 0.005367096011247208 -0.00020740683784381384 0 0.0053715890268132482 -0.00020005004652327109 0 0.0054304274521755347 -0.00018390832979627678 0 0.0053278956425037143 -0.00012317595538480225 0 0.0055436097009795701 -0.00025415135653529693 0 0.0055575058218165184 -0.00031686099497215764 0 0.0054304274521755347 -0.00018390832979627678 0 0.0054592686748868467 -0.00026070245027708236 0 0.0054304274521755347 -0.00018390832979627678 0 0.0054592686748868467 -0.00026070245027708236 0 0.0053859499739951399 -0.00017635680255258463 0 0.0054614135980921522 -0.00038413822693501875 0 0.0054592686748868467 -0.00026070245027708236 0 0.0053859499739951399 -0.00017635680255258463 0 0.0065550031760988892 0.00037213823078218556 0 0.0065340311627135952 0.00044001209587985488 0 0.0064860623340784037 0.00040902660967117232 0 0.0066012983764439353 0.00042496954197741019 0 0.0065550031760988892 0.00037213823078218556 0 0.0065340311627135952 0.00044001209587985488 0 0.0065340311627135952 0.00044001209587985488 0 0.0065347606217534011 0.00050541506925303706 0 0.0064899138507450585 0.00047771683651089624 0 0.0066012983764439353 0.00042496954197741019 0 0.0065340311627135952 0.00044001209587985488 0 0.0065347606217534011 0.00050541506925303706 0 0.0054004850383064648 -0.00019037927466978631 0 0.0053859499739951399 -0.00017635680255258463 0 0.0053904970780479008 -0.0002109417190816063 0 0.0065441208382839939 0.0005912232647732555 0 0.0066012983764439353 0.00042496954197741019 0 0.0065347606217534011 0.00050541506925303706 0 0.0054155398876972738 -0.00025217027542885406 0 0.0053859499739951399 -0.00017635680255258463 0 0.0053904970780479008 -0.0002109417190816063 0 0.0054102691519091637 -0.00021171423140987293 0 0.0057309423970210967 0.00010278439158895562 0 0.0054102691519091637 -0.00021171423140987293 0 0.0058708622886297392 0.00034026920663972657 0 0.0065441208382839939 0.0005912232647732555 0 0.0065347606217534011 0.00050541506925303706 0 0.0064838600488270068 0.00052657678952704092 0 0.0054155398876972738 -0.00025217027542885406 0 0.0053707537345021534 -0.00024118862637639263 0 0.0053904970780479008 -0.0002109417190816063 0 0.0053821305038309827 0.00011940780120836567 0 0.0058708622886297392 0.00034026920663972657 0 0.0062834438260136582 0.00062492706906351202 0 0.006425173867516119 0.00054928850933096368 0 0.0063462442930742697 0.00047035727195939979 0 0.0065347606217534011 0.00050541506925303706 0 0.0064826721084856008 0.00053806281265391255 0 0.0064899138507450585 0.00047771683651089624 0 0.0064243417504108325 0.00031834477151798256 0 0.0058708622886297392 0.00034026920663972657 0 0.0064826721084856008 0.00053806281265391255 0 0.0064899138507450585 0.00047771683651089624 0 0.0063934864653688592 0.00047401122647737856 0 0.0058708622886297392 0.00034026920663972657 0 0.0064283532799312842 0.00053540392246022458 0 0.0064860623340784037 0.00040902660967117232 0 0.0063996110217381481 0.00033374479426779538 0 0.0063934864653688592 0.00047401122647737856 0 0.0064899138507450585 0.00047771683651089624 0 0.0064860623340784037 0.00040902660967117232 0 0.0063934864653688592 0.00047401122647737856 0 0.0065340311627135952 0.00044001209587985488 0 0.0064899138507450585 0.00047771683651089624 0 0.0064860623340784037 0.00040902660967117232 0 0.0063996110217381481 0.00033374479426779538 0 0.0065179395784097406 0.00030431817632043057 0 0.0064581587385790619 0.00016216884513882995 0 0.0064860623340784037 0.00040902660967117232 0 0.0063996110217381481 0.00033374479426779538 0 0.0065179395784097406 0.00030431817632043057 0 0.0065550031760988892 0.00037213823078218556 0 0.0064860623340784037 0.00040902660967117232 0 0.0065179395784097406 0.00030431817632043057 0 0.0066012983764439353 0.00042496954197741019 0 0.0065550031760988892 0.00037213823078218556 0 0.0066714584252744432 0.00020338572100537153 0 0.0054614135980921522 -0.00038413822693501875 0 0.0053859499739951399 -0.00017635680255258463 0 0.0054480587606971958 -0.00061694042893350315 0 0.0065550031760988892 0.00037213823078218556 0 0.0065179395784097406 0.00030431817632043057 0 0.0066714584252744432 0.00020338572100537153 0 0.0057309423970210967 0.00010278439158895562 0 0.0086358771791629034 0.00033870128420681364 0 0.0086358771791629034 0.00033870128420681364 0 0.0091713691086072208 0.00059025076307260614 0 0.0065179395784097406 0.00030431817632043057 0 0.0066714584252744432 0.00020338572100537153 0 0.0064581587385790619 0.00016216884513882995 0 0.012024858871623198 0.00093995568072744861 0 0.011553564641513239 0.0009551080772044918 0 0.011833718844201807 0.00076812991160378887 0 0.012037034446010599 0.0008545562397019237 0 0.011833718844201807 0.00076812991160378887 0 0.012003350637304027 0.00074998854419462571 0 0.012037034446010599 0.0008545562397019237 0 0.012024858871623198 0.00093995568072744861 0 0.011833718844201807 0.00076812991160378887 0 0.0064581587385790619 0.00016216884513882995 0 0.0062290862934452048 0.00013047350090108161 0 0.0062625142709319629 0.00025765766354705015 0 0.0091713691086072208 0.00059025076307260614 0 0.0084707567191979454 0.00056192763616415211 0 0.0062290862934452048 0.00013047350090108161 0 0.0062625142709319629 0.00025765766354705015 0 0.0061030054307660052 0.00018795987045659528 0 0.0061312883078317873 0.00031328655166362257 0 0.0062625142709319629 0.00025765766354705015 0 0.0062769375698134202 0.00038913880380646759 0 0.0061312883078317873 0.00031328655166362257 0 0.0062625142709319629 0.00025765766354705015 0 0.0061030054307660052 0.00018795987045659528 0 0.0063996110217381481 0.00033374479426779538 0 0.0064581587385790619 0.00016216884513882995 0 0.0062625142709319629 0.00025765766354705015 0 0.0063996110217381481 0.00033374479426779538 0 0.0062625142709319629 0.00025765766354705015 0 0.0062769375698134202 0.00038913880380646759 0 0.0062769375698134202 0.00038913880380646759 0 0.0063462442930742697 0.00047035727195939979 0 0.0062293597065581508 0.00050348938377247103 0 0.0063996110217381481 0.00033374479426779538 0 0.0062769375698134202 0.00038913880380646759 0 0.0063934864653688592 0.00047401122647737856 0 0.0062674565934010742 0.00037933754112738622 0 0.0064283532799312842 0.00053540392246022458 0 0.0062834438260136582 0.00062492706906351202 0 0.0061721030590119481 0.00059726678645133455 0 0.0062293597065581508 0.00050348938377247103 0 0.0062834438260136582 0.00062492706906351202 0 0.0063462442930742697 0.00047035727195939979 0 0.0062293597065581508 0.00050348938377247103 0 0.0061721030590119481 0.00059726678645133455 0 0.0062293597065581508 0.00050348938377247103 0 0.0060983598008855465 0.00051454376028979099 0 0.0062293597065581508 0.00050348938377247103 0 0.0061661301090588363 0.00042599788871835196 0 0.0060983598008855465 0.00051454376028979099 0 0.0061312883078317873 0.00031328655166362257 0 0.0062769375698134202 0.00038913880380646759 0 0.0061661301090588363 0.00042599788871835196 0 0.0061661301090588363 0.00042599788871835196 0 0.0060720165026417177 0.000408649746493731 0 0.0060983598008855465 0.00051454376028979099 0 0.0062769375698134202 0.00038913880380646759 0 0.0062293597065581508 0.00050348938377247103 0 0.0061661301090588363 0.00042599788871835196 0 0.0061312883078317873 0.00031328655166362257 0 0.0061661301090588363 0.00042599788871835196 0 0.0060720165026417177 0.000408649746493731 0 0.0060720165026417177 0.000408649746493731 0 0.0059352120490636165 0.00050954818984745099 0 0.0059584395341573341 0.00036952798264103069 0 0.0060720165026417177 0.000408649746493731 0 0.0059584395341573341 0.00036952798264103069 0 0.0060087269391154285 0.00031410970405671194 0 0.0060720165026417177 0.000408649746493731 0 0.0060983598008855465 0.00051454376028979099 0 0.0059352120490636165 0.00050954818984745099 0 0.0060073051825984556 0.00063975150076188176 0 0.0060983598008855465 0.00051454376028979099 0 0.0059352120490636165 0.00050954818984745099 0 0.0060073051825984556 0.00063975150076188176 0 0.0061721030590119481 0.00059726678645133455 0 0.0060983598008855465 0.00051454376028979099 0 0.0056383093093588313 0.00047109375284857852 0 0.0059352120490636165 0.00050954818984745099 0 0.0058504478000222602 0.00038566807208430509 0 0.0059352120490636165 0.00050954818984745099 0 0.0059584395341573341 0.00036952798264103069 0 0.0058504478000222602 0.00038566807208430509 0 0.0059584395341573341 0.00036952798264103069 0 0.0058504478000222602 0.00038566807208430509 0 0.0059150129331391804 0.000312561126242668 0 0.0058320013251432247 0.00030790838077496762 0 0.0058504478000222602 0.00038566807208430509 0 0.0059150129331391804 0.000312561126242668 0 0.0058320013251432247 0.00030790838077496762 0 0.0059150129331391804 0.000312561126242668 0 0.005889817781965196 0.00026263615863288218 0 0.0059150129331391804 0.000312561126242668 0 0.005889817781965196 0.00026263615863288218 0 0.005956781310844126 0.00025300545251695153 0 0.0059150129331391804 0.000312561126242668 0 0.0060087269391154285 0.00031410970405671194 0 0.005956781310844126 0.00025300545251695153 0 0.0059584395341573341 0.00036952798264103069 0 0.0059150129331391804 0.000312561126242668 0 0.0060087269391154285 0.00031410970405671194 0 0.0061312883078317873 0.00031328655166362257 0 0.0060720165026417177 0.000408649746493731 0 0.0060087269391154285 0.00031410970405671194 0 0.0061312883078317873 0.00031328655166362257 0 0.0060087269391154285 0.00031410970405671194 0 0.0060333511662214257 0.00024010399458496495 0 0.0060087269391154285 0.00031410970405671194 0 0.0060333511662214257 0.00024010399458496495 0 0.005956781310844126 0.00025300545251695153 0 0.0062290862934452048 0.00013047350090108161 0 0.0061030054307660052 0.00018795987045659528 0 0.0060060973293969118 0.00012676949121243858 0 0.0061312883078317873 0.00031328655166362257 0 0.0060333511662214257 0.00024010399458496495 0 0.0061030054307660052 0.00018795987045659528 0 0.0060333511662214257 0.00024010399458496495 0 0.0060296143732534307 0.00018954859358424314 0 0.0059803903634571207 0.00020311702116847629 0 0.0060333511662214257 0.00024010399458496495 0 0.0059803903634571207 0.00020311702116847629 0 0.005956781310844126 0.00025300545251695153 0 0.0060333511662214257 0.00024010399458496495 0 0.0061030054307660052 0.00018795987045659528 0 0.0060296143732534307 0.00018954859358424314 0 0.0061030054307660052 0.00018795987045659528 0 0.006007178700570639 0.00013814709360375363 0 0.0060060973293969118 0.00012676949121243858 0 0.0061030054307660052 0.00018795987045659528 0 0.0060296143732534307 0.00018954859358424314 0 0.006007178700570639 0.00013814709360375363 0 0.0060296143732534307 0.00018954859358424314 0 0.0059924803566740233 0.00017556854263346043 0 0.0059803903634571207 0.00020311702116847629 0 0.0059924803566740233 0.00017556854263346043 0 0.0059869518007730676 0.00015775278112085505 0 0.006007178700570639 0.00013814709360375363 0 0.0060296143732534307 0.00018954859358424314 0 0.0059924803566740233 0.00017556854263346043 0 0.006007178700570639 0.00013814709360375363 0 0.0059924803566740233 0.00017556854263346043 0 0.0059687034909624579 0.00017737612019258121 0 0.0059803903634571207 0.00020311702116847629 0 0.0059924803566740233 0.00017556854263346043 0 0.0059687034909624579 0.00017737612019258121 0 0.0059869518007730676 0.00015775278112085505 0 0.0059687034909624579 0.00017737612019258121 0 0.0059772819631228168 0.00015233945429666198 0 0.0059869518007730676 0.00015775278112085505 0 0.0059687034909624579 0.00017737612019258121 0 0.0059803903634571207 0.00020311702116847629 0 0.0059278071652555863 0.00020897182862242118 0 0.0059687034909624579 0.00017737612019258121 0 0.0059278071652555863 0.00020897182862242118 0 0.005951945234758965 0.00016650792432493838 0 0.0058729576246541043 0.00023022811822589947 0 0.0058992068790416664 0.00019659411057151833 0 0.0059278071652555863 0.00020897182862242118 0 0.0058992068790416664 0.00019659411057151833 0 0.0059278071652555863 0.00020897182862242118 0 0.005951945234758965 0.00016650792432493838 0 0.0058729576246541043 0.00023022811822589947 0 0.005889817781965196 0.00026263615863288218 0 0.0059278071652555863 0.00020897182862242118 0 0.005889817781965196 0.00026263615863288218 0 0.0059278071652555863 0.00020897182862242118 0 0.005956781310844126 0.00025300545251695153 0 0.0059803903634571207 0.00020311702116847629 0 0.0059278071652555863 0.00020897182862242118 0 0.005956781310844126 0.00025300545251695153 0 0.0081789497267971585 -0.00055592319480726781 0 0.0084890232279574238 -0.00015010152079187653 0 0.0058368929627149362 0.00019934730959079289 0 0.005951945234758965 0.00016650792432493838 0 0.0060009727920968111 0.00013142924516996581 0 0.010769546536450179 -0.0011719535260297409 0 0.010267312482077939 -0.0010767512719755644 0 0.009890956314633945 -0.0013252261283146385 0 0.0084890232279574238 -0.00015010152079187653 0 0.010455460544554969 -0.00011977803019625324 0 0.010267312482077939 -0.0010767512719755644 0 0.009890956314633945 -0.0013252261283146385 0 0.0099882539748977848 -0.00088606957696555494 0 0.010267312482077939 -0.0010767512719755644 0 0.0099882539748977848 -0.00088606957696555494 0 0.010412688644033089 -0.00091707484843834392 0 0.005951945234758965 0.00016650792432493838 0 0.0059772819631228168 0.00015233945429666198 0 0.0060009727920968111 0.00013142924516996581 0 0.0059687034909624579 0.00017737612019258121 0 0.005951945234758965 0.00016650792432493838 0 0.0059772819631228168 0.00015233945429666198 0 0.0059772819631228168 0.00015233945429666198 0 0.0059925268211135545 0.00014462796272432806 0 0.0060009727920968111 0.00013142924516996581 0 0.0059772819631228168 0.00015233945429666198 0 0.0059869518007730676 0.00015775278112085505 0 0.0059925268211135545 0.00014462796272432806 0 0.010919415253823287 0.00088137976678120901 0 0.010219233438171436 0.00076397258854212554 0 0.010511911771167457 0.00060054824430939911 0 0.0084707567191979454 0.00056192763616415211 0 0.0084890232279574238 -0.00015010152079187653 0 0.0059869518007730676 0.00015775278112085505 0 0.0059925268211135545 0.00014462796272432806 0 0.006007178700570639 0.00013814709360375363 0 0.010511911771167457 0.00060054824430939911 0 0.010143745401682164 0.00037800533179357286 0 0.010757866736853309 0.00037144603626764253 0 0.0059925268211135545 0.00014462796272432806 0 0.006007178700570639 0.00013814709360375363 0 0.0060009727920968111 0.00013142924516996581 0 0.0084341144035460485 -0.0001575360191984549 0 0.0084890232279574238 -0.00015010152079187653 0 0.010219233438171436 0.00076397258854212554 0 0.010511911771167457 0.00060054824430939911 0 0.010143745401682164 0.00037800533179357286 0 0.011390791692074706 0.00046091828567498404 0 0.011484760324326529 0.00034153721543814757 0 0.011583699051044633 0.0004554810038869656 0 0.010455460544554969 -0.00011977803019625324 0 0.011228983983746089 0.00045458084001415969 0 0.011390791692074706 0.00046091828567498404 0 0.011355109258313949 0.00026323830912909445 0 0.011484760324326529 0.00034153721543814757 0 0.010455300367651283 -0.00056176878256505554 0 0.010032114659835906 -0.00089500259776931624 0 0.010191251822515733 -0.0001917289758733077 0 0.010455460544554969 -0.00011977803019625324 0 0.0108138128359348 2.202129267839728e-05 0 0.010455460544554969 -0.00011977803019625324 0 0.010251914538446275 -0.00075473179275811395 0 0.010455300367651283 -0.00056176878256505554 0 0.010032114659835906 -0.00089500259776931624 0 0.010412688644033089 -0.00091707484843834392 0 0.010455300367651283 -0.00056176878256505554 0 0.01061578155676716 -0.00021085133793026013 0 0.010191251822515733 -0.0001917289758733077 0 0.0108138128359348 2.202129267839728e-05 0 0.010691877434643785 0.00028757284297696139 0 0.010616967995651139 0.00014895614903721356 0 0.010191251822515733 -0.0001917289758733077 0 0.010372355115908926 0.0004960344937218218 0 0.011355109258313949 0.00026323830912909445 0 0.011453439848254745 0.00010832635192411181 0 0.01132168903232408 6.1412931609458441e-05 0 0.011355109258313949 0.00026323830912909445 0 0.011453439848254745 0.00010832635192411181 0 0.011516589121584136 0.00021667147273338237 0 0.011453439848254745 0.00010832635192411181 0 0.011516589121584136 0.00021667147273338237 0 0.011581224220078431 9.5560893074812629e-05 0 0.011355109258313949 0.00026323830912909445 0 0.011516589121584136 0.00021667147273338237 0 0.011484760324326529 0.00034153721543814757 0 0.011516589121584136 0.00021667147273338237 0 0.011484760324326529 0.00034153721543814757 0 0.011586486452494374 0.00030447022396484671 0 0.011586486452494374 0.00030447022396484671 0 0.01164732719884924 0.00020445881933833489 0 0.011704465462047578 0.00032257343548877827 0 0.011516589121584136 0.00021667147273338237 0 0.011586486452494374 0.00030447022396484671 0 0.01164732719884924 0.00020445881933833489 0 0.011516589121584136 0.00021667147273338237 0 0.01164732719884924 0.00020445881933833489 0 0.011581224220078431 9.5560893074812629e-05 0 0.01164732719884924 0.00020445881933833489 0 0.011581224220078431 9.5560893074812629e-05 0 0.011710438391643423 8.4133515937429284e-05 0 0.011782232228253857 0.00019865157311453819 0 0.011854907279120452 5.9021203984701773e-05 0 0.011710438391643423 8.4133515937429284e-05 0 0.01164732719884924 0.00020445881933833489 0 0.011782232228253857 0.00019865157311453819 0 0.011710438391643423 8.4133515937429284e-05 0 0.011782232228253857 0.00019865157311453819 0 0.011704465462047578 0.00032257343548877827 0 0.011840951657927871 0.00033753938270005511 0 0.01164732719884924 0.00020445881933833489 0 0.011782232228253857 0.00019865157311453819 0 0.011704465462047578 0.00032257343548877827 0 0.011704465462047578 0.00032257343548877827 0 0.011763597403555811 0.00044730431454780191 0 0.011840951657927871 0.00033753938270005511 0 0.011545242132016525 0.00042037645165960737 0 0.011228983983746089 0.00045458084001415969 0 0.011704465462047578 0.00032257343548877827 0 0.011763597403555811 0.00044730431454780191 0 0.011583699051044633 0.0004554810038869656 0 0.011586486452494374 0.00030447022396484671 0 0.011704465462047578 0.00032257343548877827 0 0.011583699051044633 0.0004554810038869656 0 0.011484760324326529 0.00034153721543814757 0 0.011586486452494374 0.00030447022396484671 0 0.011583699051044633 0.0004554810038869656 0 0.010919415253823287 0.00088137976678120901 0 0.011354324884579534 0.00039040182507120994 0 0.010757866736853309 0.00037144603626764253 0 0.010919415253823287 0.00088137976678120901 0 0.010511911771167457 0.00060054824430939911 0 0.010757866736853309 0.00037144603626764253 0 0.011553564641513239 0.0009551080772044918 0 0.010919415253823287 0.00088137976678120901 0 0.011354324884579534 0.00039040182507120994 0 0.011354324884579534 0.00039040182507120994 0 0.011833718844201807 0.00076812991160378887 0 0.011880421763612632 0.00045614923164465711 0 0.011553564641513239 0.0009551080772044918 0 0.011354324884579534 0.00039040182507120994 0 0.011833718844201807 0.00076812991160378887 0 0.011833718844201807 0.00076812991160378887 0 0.012027728354098165 0.00063543779661440051 0 0.011880421763612632 0.00045614923164465711 0 0.011833718844201807 0.00076812991160378887 0 0.012003350637304027 0.00074998854419462571 0 0.012027728354098165 0.00063543779661440051 0 0.011880421763612632 0.00045614923164465711 0 0.011963600193995148 0.00033365922996226655 0 0.012075035543228651 0.00046805975954911685 0 0.012027728354098165 0.00063543779661440051 0 0.011880421763612632 0.00045614923164465711 0 0.012075035543228651 0.00046805975954911685 0 0.011763597403555811 0.00044730431454780191 0 0.011880421763612632 0.00045614923164465711 0 0.011840951657927871 0.00033753938270005511 0 0.011545242132016525 0.00042037645165960737 0 0.011857135237724577 0.00044502605670074133 0 0.011880421763612632 0.00045614923164465711 0 0.011840951657927871 0.00033753938270005511 0 0.011963600193995148 0.00033365922996226655 0 0.011840951657927871 0.00033753938270005511 0 0.011950193549073829 0.00019260057154567946 0 0.011963600193995148 0.00033365922996226655 0 0.011782232228253857 0.00019865157311453819 0 0.011840951657927871 0.00033753938270005511 0 0.011950193549073829 0.00019260057154567946 0 0.011782232228253857 0.00019865157311453819 0 0.011950193549073829 0.00019260057154567946 0 0.011854907279120452 5.9021203984701773e-05 0 0.011950193549073829 0.00019260057154567946 0 0.012179801375188433 8.9711461000027278e-05 0 0.012021397375715497 -1.395544320406176e-05 0 0.011950193549073829 0.00019260057154567946 0 0.012114637052812351 0.00032164254305075472 0 0.012179801375188433 8.9711461000027278e-05 0 0.011950193549073829 0.00019260057154567946 0 0.011963600193995148 0.00033365922996226655 0 0.012114637052812351 0.00032164254305075472 0 0.011963600193995148 0.00033365922996226655 0 0.012114637052812351 0.00032164254305075472 0 0.012075035543228651 0.00046805975954911685 0 0.012114637052812351 0.00032164254305075472 0 0.012323010895331834 0.00029469108766583843 0 0.012252332094195831 0.00046893387845335307 0 0.012114637052812351 0.00032164254305075472 0 0.012252332094195831 0.00046893387845335307 0 0.012075035543228651 0.00046805975954911685 0 0.012114637052812351 0.00032164254305075472 0 0.012179801375188433 8.9711461000027278e-05 0 0.012323010895331834 0.00029469108766583843 0 0.012622985276344393 0.00027385148411858276 0 0.012323010895331834 0.00029469108766583843 0 0.012455175778015757 6.2129092754222706e-05 0 0.012179801375188433 8.9711461000027278e-05 0 0.012323010895331834 0.00029469108766583843 0 0.012455175778015757 6.2129092754222706e-05 0 0.012622985276344393 0.00027385148411858276 0 0.012323010895331834 0.00029469108766583843 0 0.012424483154071434 0.00047713176849659524 0 0.012323010895331834 0.00029469108766583843 0 0.012424483154071434 0.00047713176849659524 0 0.012252332094195831 0.00046893387845335307 0 0.012360288059827159 0.00056828389826355766 0 0.012252332094195831 0.00046893387845335307 0 0.012198023354870059 0.00062226658662157381 0 0.012424483154071434 0.00047713176849659524 0 0.012360288059827159 0.00056828389826355766 0 0.012252332094195831 0.00046893387845335307 0 0.012252332094195831 0.00046893387845335307 0 0.012075035543228651 0.00046805975954911685 0 0.012198023354870059 0.00062226658662157381 0 0.012027728354098165 0.00063543779661440051 0 0.012075035543228651 0.00046805975954911685 0 0.012198023354870059 0.00062226658662157381 0 0.012027728354098165 0.00063543779661440051 0 0.012198023354870059 0.00062226658662157381 0 0.012100126859886269 0.00074048579151066922 0 0.012003350637304027 0.00074998854419462571 0 0.012027728354098165 0.00063543779661440051 0 0.012100126859886269 0.00074048579151066922 0 0.012198023354870059 0.00062226658662157381 0 0.012100126859886269 0.00074048579151066922 0 0.012193233416520771 0.00073508262249827295 0 0.01224251503358653 0.00079209656784631007 0 0.012193233416520771 0.00073508262249827295 0 0.012299972757395474 0.00067686537609840461 0 0.012198023354870059 0.00062226658662157381 0 0.012193233416520771 0.00073508262249827295 0 0.012299972757395474 0.00067686537609840461 0 0.012360739465795923 0.00069335769469208209 0 0.012319208724182762 0.00077136444371225181 0 0.012299972757395474 0.00067686537609840461 0 0.012360288059827159 0.00056828389826355766 0 0.012198023354870059 0.00062226658662157381 0 0.012299972757395474 0.00067686537609840461 0 0.012667152843356132 -0.000336794270627922 0 0.013050416860006185 -0.00043057079653473673 0 0.012506793922105261 -0.00035088356424260969 0 0.012323217467825319 -0.00044642192629162323 0 0.012370464688539156 -0.00031344183269778586 0 0.012663770204815425 -0.0003355578934397787 0 0.012506793922105261 -0.00035088356424260969 0 0.012323217467825319 -0.00044642192629162323 0 0.012323217467825319 -0.00044642192629162323 0 0.012221147834647023 -0.00026933903471513572 0 0.012370464688539156 -0.00031344183269778586 0 0.012221147834647023 -0.00026933903471513572 0 0.012370464688539156 -0.00031344183269778586 0 0.012427904602469727 -0.00020608349478112091 0 0.012610654529442123 -0.00031704365591250701 0 0.012506793922105261 -0.00035088356424260969 0 0.012427904602469727 -0.00020608349478112091 0 0.012506793922105261 -0.00035088356424260969 0 0.012370464688539156 -0.00031344183269778586 0 0.012427904602469727 -0.00020608349478112091 0 0.012627543973026819 -0.00022533872427526528 0 0.012391707340392071 -0.00049876241380088237 0 0.0123675941088979 -0.00014911391312164823 0 0.012391707340392071 -0.00049876241380088237 0 0.0123675941088979 -0.00014911391312164823 0 0.012189159845354527 -0.00013569558741826881 0 0.012179801375188433 8.9711461000027278e-05 0 0.0123675941088979 -0.00014911391312164823 0 0.012455175778015757 6.2129092754222706e-05 0 0.012627543973026819 -0.00022533872427526528 0 0.0123675941088979 -0.00014911391312164823 0 0.012455175778015757 6.2129092754222706e-05 0 0.012179801375188433 8.9711461000027278e-05 0 0.012189159845354527 -0.00013569558741826881 0 0.012021397375715497 -1.395544320406176e-05 0 0.012179801375188433 8.9711461000027278e-05 0 0.0123675941088979 -0.00014911391312164823 0 0.012189159845354527 -0.00013569558741826881 0 0.012440664185745361 -0.00036965515470230547 0 0.01220670696485906 -0.0001603571326064486 0 0.012221147834647023 -0.00026933903471513572 0 0.012189159845354527 -0.00013569558741826881 0 0.012068642290704474 -0.00018048804313603006 0 0.012221147834647023 -0.00026933903471513572 0 0.012427904602469727 -0.00020608349478112091 0 0.012189159845354527 -0.00013569558741826881 0 0.012068642290704474 -0.00018048804313603006 0 0.012021397375715497 -1.395544320406176e-05 0 0.011908084042773659 -9.2456943110202859e-05 0 0.012189159845354527 -0.00013569558741826881 0 0.012068642290704474 -0.00018048804313603006 0 0.012021397375715497 -1.395544320406176e-05 0 0.012021397375715497 -1.395544320406176e-05 0 0.011854907279120452 5.9021203984701773e-05 0 0.011908084042773659 -9.2456943110202859e-05 0 0.011950193549073829 0.00019260057154567946 0 0.012021397375715497 -1.395544320406176e-05 0 0.011854907279120452 5.9021203984701773e-05 0 0.011854907279120452 5.9021203984701773e-05 0 0.011908084042773659 -9.2456943110202859e-05 0 0.011758574908630894 -3.8815420821874689e-05 0 0.012068642290704474 -0.00018048804313603006 0 0.011908084042773659 -9.2456943110202859e-05 0 0.011905516425353724 -0.00022669914788511864 0 0.011908084042773659 -9.2456943110202859e-05 0 0.011905516425353724 -0.00022669914788511864 0 0.011786272611637373 -0.00016987906599760756 0 0.011905516425353724 -0.00022669914788511864 0 0.01201526407422303 -0.00038681061607956076 0 0.011754016571405086 -0.00030387250328691459 0 0.012068642290704474 -0.00018048804313603006 0 0.011905516425353724 -0.00022669914788511864 0 0.01201526407422303 -0.00038681061607956076 0 0.013304192493945842 -0.00040565464758008588 0 0.013298758720100261 -0.00028180670052705705 0 0.012221147834647023 -0.00026933903471513572 0 0.012068642290704474 -0.00018048804313603006 0 0.01201526407422303 -0.00038681061607956076 0 0.013823426095819344 -0.00044408399477954813 0 0.014609656247816179 -0.00043005471143391983 0 0.014320838572722721 3.9911261125425676e-05 0 0.012323217467825319 -0.00044642192629162323 0 0.012221147834647023 -0.00026933903471513572 0 0.01201526407422303 -0.00038681061607956076 0 0.013050416860006185 -0.00043057079653473673 0 0.013304192493945842 -0.00040565464758008588 0 0.014609656247816179 -0.00043005471143391983 0 0.014891890363288396 -0.00019916688668807753 0 0.014836626783427597 -1.7034213679388477e-05 0 0.014891890363288396 -0.00019916688668807753 0 0.014894588377735874 -0.00024095441642248104 0 0.014906944399347338 -0.00027770492372797441 0 0.014609656247816179 -0.00043005471143391983 0 0.014891890363288396 -0.00019916688668807753 0 0.014906944399347338 -0.00027770492372797441 0 0.014891890363288396 -0.00019916688668807753 0 0.014894588377735874 -0.00024095441642248104 0 0.014941391718307138 -0.00013727669283911172 0 0.014894588377735874 -0.00024095441642248104 0 0.014970397490596745 -0.00017290390799059639 0 0.014941391718307138 -0.00013727669283911172 0 0.014894588377735874 -0.00024095441642248104 0 0.014906944399347338 -0.00027770492372797441 0 0.014744657772525451 -0.00011184770783249406 0 0.013298758720100261 -0.00028180670052705705 0 0.013209316410384158 -0.00022091951859543841 0 0.011754016571405086 -0.00030387250328691459 0 0.01161824618965825 -0.00019545331633992032 0 0.011518113545021887 -0.00021684993397559586 0 0.011754016571405086 -0.00030387250328691459 0 0.011707742049873099 -0.00019795114145043017 0 0.01161824618965825 -0.00019545331633992032 0 0.011754016571405086 -0.00030387250328691459 0 0.011786272611637373 -0.00016987906599760756 0 0.011707742049873099 -0.00019795114145043017 0 0.011905516425353724 -0.00022669914788511864 0 0.011754016571405086 -0.00030387250328691459 0 0.011786272611637373 -0.00016987906599760756 0 0.011908084042773659 -9.2456943110202859e-05 0 0.011786272611637373 -0.00016987906599760756 0 0.011758574908630894 -3.8815420821874689e-05 0 0.011786272611637373 -0.00016987906599760756 0 0.011707742049873099 -0.00019795114145043017 0 0.011673671158727647 -0.00012282641848983161 0 0.011786272611637373 -0.00016987906599760756 0 0.011758574908630894 -3.8815420821874689e-05 0 0.011673671158727647 -0.00012282641848983161 0 0.011854907279120452 5.9021203984701773e-05 0 0.011758574908630894 -3.8815420821874689e-05 0 0.011710438391643423 8.4133515937429284e-05 0 0.011758574908630894 -3.8815420821874689e-05 0 0.011710438391643423 8.4133515937429284e-05 0 0.011635825719961811 -9.9051519753084746e-06 0 0.011581224220078431 9.5560893074812629e-05 0 0.011635825719961811 -9.9051519753084746e-06 0 0.01152524955436275 7.2913262428907118e-07 0 0.011581224220078431 9.5560893074812629e-05 0 0.011710438391643423 8.4133515937429284e-05 0 0.011635825719961811 -9.9051519753084746e-06 0 0.011758574908630894 -3.8815420821874689e-05 0 0.011635825719961811 -9.9051519753084746e-06 0 0.011673671158727647 -0.00012282641848983161 0 0.011635825719961811 -9.9051519753084746e-06 0 0.011553183376749224 -0.00010844577694605543 0 0.01152524955436275 7.2913262428907118e-07 0 0.011635825719961811 -9.9051519753084746e-06 0 0.011673671158727647 -0.00012282641848983161 0 0.011553183376749224 -0.00010844577694605543 0 0.011707742049873099 -0.00019795114145043017 0 0.011673671158727647 -0.00012282641848983161 0 0.01161824618965825 -0.00019545331633992032 0 0.011673671158727647 -0.00012282641848983161 0 0.01161824618965825 -0.00019545331633992032 0 0.011553183376749224 -0.00010844577694605543 0 0.011447725777636256 -0.00013540403514096305 0 0.011553183376749224 -0.00010844577694605543 0 0.011518113545021887 -0.00021684993397559586 0 0.01161824618965825 -0.00019545331633992032 0 0.011553183376749224 -0.00010844577694605543 0 0.011518113545021887 -0.00021684993397559586 0 0.011447725777636256 -0.00013540403514096305 0 0.011553183376749224 -0.00010844577694605543 0 0.01142822595139654 -7.4857129814607758e-05 0 0.011553183376749224 -0.00010844577694605543 0 0.01152524955436275 7.2913262428907118e-07 0 0.01142822595139654 -7.4857129814607758e-05 0 0.01152524955436275 7.2913262428907118e-07 0 0.011432221630417653 2.3869583989433863e-05 0 0.01142822595139654 -7.4857129814607758e-05 0 0.011453439848254745 0.00010832635192411181 0 0.01152524955436275 7.2913262428907118e-07 0 0.011432221630417653 2.3869583989433863e-05 0 0.011453439848254745 0.00010832635192411181 0 0.011581224220078431 9.5560893074812629e-05 0 0.01152524955436275 7.2913262428907118e-07 0 0.01132168903232408 6.1412931609458441e-05 0 0.01142822595139654 -7.4857129814607758e-05 0 0.011292735751269729 -0.00014061113928486656 0 0.011453439848254745 0.00010832635192411181 0 0.011432221630417653 2.3869583989433863e-05 0 0.01132168903232408 6.1412931609458441e-05 0 0.010691877434643785 0.00028757284297696139 0 0.012445278938015019 0.00028813567292361621 0 0.011432221630417653 2.3869583989433863e-05 0 0.01132168903232408 6.1412931609458441e-05 0 0.01142822595139654 -7.4857129814607758e-05 0 0.013209316410384158 -0.00022091951859543841 0 0.012445278938015019 0.00028813567292361621 0 0.011447725777636256 -0.00013540403514096305 0 0.011518113545021887 -0.00021684993397559586 0 0.011292735751269729 -0.00014061113928486656 0 0.011447725777636256 -0.00013540403514096305 0 0.01142822595139654 -7.4857129814607758e-05 0 0.011292735751269729 -0.00014061113928486656 0 0.014648314930440191 -0.00021888903669170647 0 0.01427983626377529 4.8653362475010019e-05 0 0.014249566494630045 -9.8117925403217769e-05 0 0.014744657772525451 -0.00011184770783249406 0 0.014648314930440191 -0.00021888903669170647 0 0.01427983626377529 4.8653362475010019e-05 0 0.014885851949177853 -0.00023936522719014304 0 0.014308064898016986 -3.5285081100346543e-05 0 0.015022268643781386 -0.00018997940502753601 0 0.014987390237727631 -0.00021267220253116492 0 0.015041253497221666 -0.00022105112919128486 0 0.014894588377735874 -0.00024095441642248104 0 0.014744657772525451 -0.00011184770783249406 0 0.014648314930440191 -0.00021888903669170647 0 0.014854047373887206 -0.00022742088024901795 0 0.014885851949177853 -0.00023936522719014304 0 0.014894588377735874 -0.00024095441642248104 0 0.014987390237727631 -0.00021267220253116492 0 0.014970397490596745 -0.00017290390799059639 0 0.014987390237727631 -0.00021267220253116492 0 0.014970397490596745 -0.00017290390799059639 0 0.015007642119409827 -0.00015779532622497183 0 0.014970397490596745 -0.00017290390799059639 0 0.015007642119409827 -0.00015779532622497183 0 0.014988916638597811 -0.00010599120948833865 0 0.015022268643781386 -0.00018997940502753601 0 0.015007642119409827 -0.00015779532622497183 0 0.015056960205846423 -0.00015041441824196122 0 0.015007642119409827 -0.00015779532622497183 0 0.01502234164636577 -0.00010014114368634368 0 0.015056960205846423 -0.00015041441824196122 0 0.015022268643781386 -0.00018997940502753601 0 0.014987390237727631 -0.00021267220253116492 0 0.015007642119409827 -0.00015779532622497183 0 0.015007642119409827 -0.00015779532622497183 0 0.01502234164636577 -0.00010014114368634368 0 0.014988916638597811 -0.00010599120948833865 0 0.01502234164636577 -0.00010014114368634368 0 0.014988916638597811 -0.00010599120948833865 0 0.015007454554490839 -4.0324133020408167e-05 0 0.014988916638597811 -0.00010599120948833865 0 0.014964230313444064 -6.1111491715709713e-05 0 0.014941391718307138 -0.00013727669283911172 0 0.014970397490596745 -0.00017290390799059639 0 0.014988916638597811 -0.00010599120948833865 0 0.014941391718307138 -0.00013727669283911172 0 0.014988916638597811 -0.00010599120948833865 0 0.015007454554490839 -4.0324133020408167e-05 0 0.014964230313444064 -6.1111491715709713e-05 0 0.015007454554490839 -4.0324133020408167e-05 0 0.014985434205528577 -1.2222605223751443e-05 0 0.014964230313444064 -6.1111491715709713e-05 0 0.015007454554490839 -4.0324133020408167e-05 0 0.015004847540881465 -9.1144178152622798e-06 0 0.014985434205528577 -1.2222605223751443e-05 0 0.015004847540881465 -9.1144178152622798e-06 0 0.014999994203753078 -3.7905699119944688e-09 0 0.014985434205528577 -1.2222605223751443e-05 0 0.015004847540881465 -9.1144178152622798e-06 0 0.014999994203753078 -3.7905699119944688e-09 0 0.015000025356088721 -1.4648424485025508e-08 0 0.014999994203753078 -3.7905699119944688e-09 0 0.014985434205528577 -1.2222605223751443e-05 0 0.014999946710840631 -1.0158892458872947e-10 0 0.014985434205528577 -1.2222605223751443e-05 0 0.01495275589685049 -2.5168733725031612e-05 0 0.014964230313444064 -6.1111491715709713e-05 0 0.014985434205528577 -1.2222605223751443e-05 0 0.01495275589685049 -2.5168733725031612e-05 0 0.014965010744852252 -1.1210729239570537e-05 0 0.014985434205528577 -1.2222605223751443e-05 0 0.014999946710840631 -1.0158892458872947e-10 0 0.014965010744852252 -1.1210729239570537e-05 0 0.014999946710840631 -1.0158892458872947e-10 0 0.014965010744852252 -1.1210729239570537e-05 0 0.014999937984889527 -1.8003415286175086e-08 0 0.014965010744852252 -1.1210729239570537e-05 0 0.014906564330908922 -2.9838855436933669e-05 0 0.014946481019019305 -1.7921219026173581e-05 0 0.01495275589685049 -2.5168733725031612e-05 0 0.014965010744852252 -1.1210729239570537e-05 0 0.014906564330908922 -2.9838855436933669e-05 0 0.014906564330908922 -2.9838855436933669e-05 0 0.014964230313444064 -6.1111491715709713e-05 0 0.014923990420205969 -9.7197769719015953e-05 0 0.01495275589685049 -2.5168733725031612e-05 0 0.014906564330908922 -2.9838855436933669e-05 0 0.014964230313444064 -6.1111491715709713e-05 0 0.014964230313444064 -6.1111491715709713e-05 0 0.014941391718307138 -0.00013727669283911172 0 0.014923990420205969 -9.7197769719015953e-05 0 0.014891890363288396 -0.00019916688668807753 0 0.014941391718307138 -0.00013727669283911172 0 0.014923990420205969 -9.7197769719015953e-05 0 0.014906564330908922 -2.9838855436933669e-05 0 0.014923990420205969 -9.7197769719015953e-05 0 0.014836626783427597 -1.7034213679388477e-05 0 0.014891890363288396 -0.00019916688668807753 0 0.014923990420205969 -9.7197769719015953e-05 0 0.014836626783427597 -1.7034213679388477e-05 0 0.014811682046230516 -6.0807139944260387e-06 0 0.014642510150444646 1.5360569607533702e-05 0 0.014836626783427597 -1.7034213679388477e-05 0 0.014944653530447638 3.1497047543080905e-07 0 0.014914362579654367 -2.5123267143014039e-05 0 0.014609656247816179 -0.00043005471143391983 0 0.014836626783427597 -1.7034213679388477e-05 0 0.014320838572722721 3.9911261125425676e-05 0 0.014914362579654367 -2.5123267143014039e-05 0 0.014966325836186902 -1.6099100050641796e-05 0 0.014956072672920911 -1.3995037358852808e-05 0 0.014944653530447638 3.1497047543080905e-07 0 0.014914362579654367 -2.5123267143014039e-05 0 0.014956072672920911 -1.3995037358852808e-05 0 0.014906564330908922 -2.9838855436933669e-05 0 0.014836626783427597 -1.7034213679388477e-05 0 0.014914362579654367 -2.5123267143014039e-05 0 0.014906564330908922 -2.9838855436933669e-05 0 0.014914362579654367 -2.5123267143014039e-05 0 0.014946481019019305 -1.7921219026173581e-05 0 0.014965010744852252 -1.1210729239570537e-05 0 0.014946481019019305 -1.7921219026173581e-05 0 0.014999937984889527 -1.8003415286175086e-08 0 0.014999937984889527 -1.8003415286175086e-08 0 0.014966325836186902 -1.6099100050641796e-05 0 0.014999962706329367 -7.2699468755711334e-09 0 0.014946481019019305 -1.7921219026173581e-05 0 0.014999937984889527 -1.8003415286175086e-08 0 0.014966325836186902 -1.6099100050641796e-05 0 0.014914362579654367 -2.5123267143014039e-05 0 0.014946481019019305 -1.7921219026173581e-05 0 0.014966325836186902 -1.6099100050641796e-05 0 0.014966325836186902 -1.6099100050641796e-05 0 0.014980496996075579 -9.9806753922969898e-06 0 0.014956072672920911 -1.3995037358852808e-05 0 0.014966325836186902 -1.6099100050641796e-05 0 0.014980496996075579 -9.9806753922969898e-06 0 0.014999962706329367 -7.2699468755711334e-09 0 0.014980496996075579 -9.9806753922969898e-06 0 0.014999962706329367 -7.2699468755711334e-09 0 0.014993196442349668 -3.6581044038343996e-06 0 0.0150000258925846 -2.4396798361650956e-08 0 0.014999962706329367 -7.2699468755711334e-09 0 0.014993196442349668 -3.6581044038343996e-06 0 0.014980496996075579 -9.9806753922969898e-06 0 0.014993196442349668 -3.6581044038343996e-06 0 0.014990296315763103 -2.8667675297204207e-06 0 0.014931610353740231 -4.5624825288560414e-05 0 0.014933917234161327 -3.4700527348486625e-05 0 0.014941719252256161 -3.0167340468471102e-05 0 0.014933917234161327 -3.4700527348486625e-05 0 0.014942026187985385 -2.1478808892305879e-05 0 0.014941719252256161 -3.0167340468471102e-05 0 0.014942026187985385 -2.1478808892305879e-05 0 0.014941719252256161 -3.0167340468471102e-05 0 0.014949670214072374 -2.2702809432533034e-05 0 0.014966231959918121 -1.2366410710432726e-05 0 0.014958786964450355 -1.3923137893401293e-05 0 0.014944653530447638 3.1497047543080905e-07 0 0.014956072672920911 -1.3995037358852808e-05 0 0.014949670214072374 -2.2702809432533034e-05 0 0.014980496996075579 -9.9806753922969898e-06 0 0.014990296315763103 -2.8667675297204207e-06 0 0.014956072672920911 -1.3995037358852808e-05 0 0.014942026187985385 -2.1478808892305879e-05 0 0.014956072672920911 -1.3995037358852808e-05 0 0.014949670214072374 -2.2702809432533034e-05 0 0.013823426095819344 -0.00044408399477954813 0 0.014320838572722721 3.9911261125425676e-05 0 0.013538321274441975 3.7015720587220925e-05 0 0.014642510150444646 1.5360569607533702e-05 0 0.014153569366694117 -1.0907444757470972e-05 0 0.014944653530447638 3.1497047543080905e-07 0 0.014949670214072374 -2.2702809432533034e-05 0 0.014945884512670597 -3.0206393826629147e-05 0 0.014208800372192135 -0.00014701539674140727 0 0.014153569366694117 -1.0907444757470972e-05 0 0.014931610353740231 -4.5624825288560414e-05 0 0.014941719252256161 -3.0167340468471102e-05 0 0.014945884512670597 -3.0206393826629147e-05 0 0.012663770204815425 -0.0003355578934397787 0 0.013823426095819344 -0.00044408399477954813 0 0.013538321274441975 3.7015720587220925e-05 0 0.014931610353740231 -4.5624825288560414e-05 0 0.014924109817181192 -5.5145646080856039e-05 0 0.014945884512670597 -3.0206393826629147e-05 0 0.014941719252256161 -3.0167340468471102e-05 0 0.014949670214072374 -2.2702809432533034e-05 0 0.014945884512670597 -3.0206393826629147e-05 0 0.014900733570854856 3.3084664798673038e-05 0 0.014859388475906475 4.4921139583373958e-05 0 0.014860182994670302 2.9745829205204894e-05 0 0.014900733570854856 3.3084664798673038e-05 0 0.014859388475906475 4.4921139583373958e-05 0 0.014886342711543364 5.7013405082825334e-05 0 0.014900733570854856 3.3084664798673038e-05 0 0.014913923412037372 4.996015543226156e-05 0 0.014886342711543364 5.7013405082825334e-05 0 0.014900733570854856 3.3084664798673038e-05 0 0.014913923412037372 4.996015543226156e-05 0 0.014926000142930277 3.3047801985928348e-05 0 0.014900733570854856 3.3084664798673038e-05 0 0.014926000142930277 3.3047801985928348e-05 0 0.014934725882293149 1.7468756256555909e-05 0 0.014900733570854856 3.3084664798673038e-05 0 0.014909588087676888 1.4513761667968429e-05 0 0.014934725882293149 1.7468756256555909e-05 0 0.014900733570854856 3.3084664798673038e-05 0 0.014860182994670302 2.9745829205204894e-05 0 0.014909588087676888 1.4513761667968429e-05 0 0.014875425423550316 1.8730864651045517e-05 0 0.014860182994670302 2.9745829205204894e-05 0 0.014909588087676888 1.4513761667968429e-05 0 0.014875425423550316 1.8730864651045517e-05 0 0.014815959776417089 3.4629759017818313e-05 0 0.014859396303045929 2.6409302483956361e-05 0 0.014875425423550316 1.8730864651045517e-05 0 0.014815959776417089 3.4629759017818313e-05 0 0.014860182994670302 2.9745829205204894e-05 0 0.014815959776417089 3.4629759017818313e-05 0 0.014860182994670302 2.9745829205204894e-05 0 0.014793240360586884 4.6128480077561258e-05 0 0.014859388475906475 4.4921139583373958e-05 0 0.014860182994670302 2.9745829205204894e-05 0 0.014793240360586884 4.6128480077561258e-05 0 0.014859388475906475 4.4921139583373958e-05 0 0.014793240360586884 4.6128480077561258e-05 0 0.01484131637947125 7.0630744238437012e-05 0 0.014793240360586884 4.6128480077561258e-05 0 0.014799274382420803 7.7679538102535864e-05 0 0.01484131637947125 7.0630744238437012e-05 0 0.014793240360586884 4.6128480077561258e-05 0 0.014748968351993179 6.4490312915859132e-05 0 0.014799274382420803 7.7679538102535864e-05 0 0.014717437823858875 5.3716695803492011e-05 0 0.014618395044714618 6.7692230894922771e-05 0 0.014743760448142332 4.9690675090934313e-05 0 0.014793240360586884 4.6128480077561258e-05 0 0.014717437823858875 5.3716695803492011e-05 0 0.014743760448142332 4.9690675090934313e-05 0 0.014815959776417089 3.4629759017818313e-05 0 0.014793240360586884 4.6128480077561258e-05 0 0.014743760448142332 4.9690675090934313e-05 0 0.014793240360586884 4.6128480077561258e-05 0 0.014717437823858875 5.3716695803492011e-05 0 0.014748968351993179 6.4490312915859132e-05 0 0.014515709424265555 0.00015616333004788647 0 0.014804491396143746 0.00012800847947704635 0 0.014618395044714618 6.7692230894922771e-05 0 0.014748968351993179 6.4490312915859132e-05 0 0.014804491396143746 0.00012800847947704635 0 0.014618395044714618 6.7692230894922771e-05 0 0.014717437823858875 5.3716695803492011e-05 0 0.014748968351993179 6.4490312915859132e-05 0 0.014618395044714618 6.7692230894922771e-05 0 0.014799274382420803 7.7679538102535864e-05 0 0.014804491396143746 0.00012800847947704635 0 0.01484131637947125 7.0630744238437012e-05 0 0.014748968351993179 6.4490312915859132e-05 0 0.014799274382420803 7.7679538102535864e-05 0 0.014804491396143746 0.00012800847947704635 0 0.013132719321707908 0.00034458763140262228 0 0.013693242263360739 0.00056467124004028332 0 0.012927554700470504 0.00080078818154874021 0 0.014243050988566737 0.00033492375915948521 0 0.013918594640936146 0.00044423368248343623 0 0.014804491396143746 0.00012800847947704635 0 0.01484131637947125 7.0630744238437012e-05 0 0.01488090911192424 9.7678102549363392e-05 0 0.01484131637947125 7.0630744238437012e-05 0 0.014886342711543364 5.7013405082825334e-05 0 0.01488090911192424 9.7678102549363392e-05 0 0.014859388475906475 4.4921139583373958e-05 0 0.01484131637947125 7.0630744238437012e-05 0 0.014886342711543364 5.7013405082825334e-05 0 0.014904735872971774 6.7124550771381942e-05 0 0.014886342711543364 5.7013405082825334e-05 0 0.01488090911192424 9.7678102549363392e-05 0 0.014904735872971774 6.7124550771381942e-05 0 0.01488090911192424 9.7678102549363392e-05 0 0.014915463593983288 7.4564882363591792e-05 0 0.014913923412037372 4.996015543226156e-05 0 0.014904735872971774 6.7124550771381942e-05 0 0.014886342711543364 5.7013405082825334e-05 0 0.012181586801643333 0.0004038949913791549 0 0.012637727868787257 0.00027096152723432977 0 0.012927554700470504 0.00080078818154874021 0 0.013918594640936146 0.00044423368248343623 0 0.013475843281600477 0.00059035994413579227 0 0.012181586801643333 0.0004038949913791549 0 0.012927554700470504 0.00080078818154874021 0 0.012069844499203326 0.00073280854584418533 0 0.012927554700470504 0.00080078818154874021 0 0.012069844499203326 0.00073280854584418533 0 0.012164560666926597 0.0010371936333851413 0 0.012069844499203326 0.00073280854584418533 0 0.011828545486264228 0.00092615590405154837 0 0.012164560666926597 0.0010371936333851413 0 0.012181586801643333 0.0004038949913791549 0 0.012069844499203326 0.00073280854584418533 0 0.011804223195218465 0.00053834526854048116 0 0.012069844499203326 0.00073280854584418533 0 0.011804223195218465 0.00053834526854048116 0 0.011828545486264228 0.00092615590405154837 0 0.011828545486264228 0.00092615590405154837 0 0.011420713966289022 0.00062868911840947969 0 0.011259675954704817 0.0010944405698707842 0 0.011804223195218465 0.00053834526854048116 0 0.011828545486264228 0.00092615590405154837 0 0.011420713966289022 0.00062868911840947969 0 0.011609639660932564 0.0009914721328481322 0 0.01178889970815439 0.00089505748105132789 0 0.011828545486264228 0.00092615590405154837 0 0.011372982880689598 0.0010616871955975761 0 0.01149296738193142 0.0012370305334810418 0 0.014923840469243959 6.0428783204311767e-05 0 0.014915463593983288 7.4564882363591792e-05 0 0.014922806745680778 6.3658612007430742e-05 0 0.011828545486264228 0.00092615590405154837 0 0.012164560666926597 0.0010371936333851413 0 0.01149296738193142 0.0012370305334810418 0 0.013475843281600477 0.00059035994413579227 0 0.013490822938178852 0.00042753503664782436 0 0.014923840469243959 6.0428783204311767e-05 0 0.01491832218680246 6.0283376880892128e-05 0 0.014915463593983288 7.4564882363591792e-05 0 0.014904735872971774 6.7124550771381942e-05 0 0.01491832218680246 6.0283376880892128e-05 0 0.014915463593983288 7.4564882363591792e-05 0 0.014913923412037372 4.996015543226156e-05 0 0.014904735872971774 6.7124550771381942e-05 0 0.01491832218680246 6.0283376880892128e-05 0 0.010372355115908926 0.0004960344937218218 0 0.010668574712387354 0.00076796711973256006 0 0.01091725137262568 0.00055207488188736961 0 0.010372355115908926 0.0004960344937218218 0 0.010668574712387354 0.00076796711973256006 0 0.010540299726031432 0.0011423899309297542 0 0.010668574712387354 0.00076796711973256006 0 0.01091725137262568 0.00055207488188736961 0 0.01085645114750208 0.00085301225094321326 0 0.01091725137262568 0.00055207488188736961 0 0.01085645114750208 0.00085301225094321326 0 0.011201473152227132 0.00095028870645314932 0 0.010894152829911779 0.00054745494186094943 0 0.01178889970815439 0.00089505748105132789 0 0.011261675922342921 0.00035118391381144993 0 0.010930073442459986 0.00061727510702533285 0 0.011420713966289022 0.00062868911840947969 0 0.010930073442459986 0.00061727510702533285 0 0.011420713966289022 0.00062868911840947969 0 0.011259675954704817 0.0010944405698707842 0 0.012788435916394142 0.0005644293306749801 0 0.012684669324362921 0.00041140938519614332 0 0.0133228205539569 0.00019790757753220182 0 0.013490822938178852 0.00042753503664782436 0 0.014308064898016986 -3.5285081100346543e-05 0 0.01178889970815439 0.00089505748105132789 0 0.013490822938178852 0.00042753503664782436 0 0.01178889970815439 0.00089505748105132789 0 0.012445278938015019 0.00028813567292361621 0 0.01085645114750208 0.00085301225094321326 0 0.011201473152227132 0.00095028870645314932 0 0.010540299726031432 0.0011423899309297542 0 0.012788435916394142 0.0005644293306749801 0 0.013360939171483902 0.00039334401357339377 0 0.0133228205539569 0.00019790757753220182 0 0.012445278938015019 0.00028813567292361621 0 0.014308064898016986 -3.5285081100346543e-05 0 0.010668574712387354 0.00076796711973256006 0 0.01085645114750208 0.00085301225094321326 0 0.010540299726031432 0.0011423899309297542 0 0.015022268643781386 -0.00018997940502753601 0 0.015041253497221666 -0.00022105112919128486 0 0.015056960205846423 -0.00015041441824196122 0 0.014979826342222554 5.0314543645979538e-05 0 0.014969205762559329 4.2278834083801542e-05 0 0.014986276794013608 2.9578311888128531e-05 0 0.014308064898016986 -3.5285081100346543e-05 0 0.015084508621791616 -5.3964892384496587e-05 0 0.014953629091416318 6.020179227491479e-05 0 0.014969205762559329 4.2278834083801542e-05 0 0.014952936176628665 4.748548261295883e-05 0 0.014953629091416318 6.020179227491479e-05 0 0.014979826342222554 5.0314543645979538e-05 0 0.014969205762559329 4.2278834083801542e-05 0 0.014969205762559329 4.2278834083801542e-05 0 0.014986276794013608 2.9578311888128531e-05 0 0.01497154192720798 2.1966964657894766e-05 0 0.014927752618486055 4.8709333321525401e-05 0 0.01493082702544514 5.277464264742532e-05 0 0.014944727566169448 3.249489054681359e-05 0 0.014913923412037372 4.996015543226156e-05 0 0.014926000142930277 3.3047801985928348e-05 0 0.014927752618486055 4.8709333321525401e-05 0 0.014913923412037372 4.996015543226156e-05 0 0.01491832218680246 6.0283376880892128e-05 0 0.014927752618486055 4.8709333321525401e-05 0 0.014923840469243959 6.0428783204311767e-05 0 0.01491832218680246 6.0283376880892128e-05 0 0.014927752618486055 4.8709333321525401e-05 0 0.014923840469243959 6.0428783204311767e-05 0 0.014927752618486055 4.8709333321525401e-05 0 0.01493082702544514 5.277464264742532e-05 0 0.014923840469243959 6.0428783204311767e-05 0 0.014922806745680778 6.3658612007430742e-05 0 0.01493082702544514 5.277464264742532e-05 0 0.013490822938178852 0.00042753503664782436 0 0.014996420129243283 0.00012413889532680457 0 0.014996420129243283 0.00012413889532680457 0 0.014923414873962862 9.1190754363213557e-06 0 0.014952936176628665 4.748548261295883e-05 0 0.014944727566169448 3.249489054681359e-05 0 0.01497154192720798 2.1966964657894766e-05 0 0.014969205762559329 4.2278834083801542e-05 0 0.014952936176628665 4.748548261295883e-05 0 0.01497154192720798 2.1966964657894766e-05 0 0.014926000142930277 3.3047801985928348e-05 0 0.014944727566169448 3.249489054681359e-05 0 0.014934725882293149 1.7468756256555909e-05 0 0.014926000142930277 3.3047801985928348e-05 0 0.014927752618486055 4.8709333321525401e-05 0 0.014944727566169448 3.249489054681359e-05 0 0.014954454477659175 1.4967342187301639e-05 0 0.01496139896135003 4.4391277742213006e-06 0 0.014934725882293149 1.7468756256555909e-05 0 0.014944727566169448 3.249489054681359e-05 0 0.014954454477659175 1.4967342187301639e-05 0 0.014934725882293149 1.7468756256555909e-05 0 0.014954454477659175 1.4967342187301639e-05 0 0.01497154192720798 2.1966964657894766e-05 0 0.014973595715759846 4.4806819640243466e-06 0 0.014944727566169448 3.249489054681359e-05 0 0.014954454477659175 1.4967342187301639e-05 0 0.01497154192720798 2.1966964657894766e-05 0 0.01497154192720798 2.1966964657894766e-05 0 0.014973595715759846 4.4806819640243466e-06 0 0.014989689029208273 3.5005483618339859e-06 0 0.014973595715759846 4.4806819640243466e-06 0 0.014989689029208273 3.5005483618339859e-06 0 0.014992554348472567 -5.4352050790236868e-06 0 0.014954454477659175 1.4967342187301639e-05 0 0.014973595715759846 4.4806819640243466e-06 0 0.01496139896135003 4.4391277742213006e-06 0 0.014973595715759846 4.4806819640243466e-06 0 0.01496139896135003 4.4391277742213006e-06 0 0.014978320713686632 -2.6735151262557531e-06 0 0.015084508621791616 -5.3964892384496587e-05 0 0.015013044777127565 -3.529006579030913e-05 0 0.01502234164636577 -0.00010014114368634368 0 0.015056960205846423 -0.00015041441824196122 0 0.015046760533612135 -6.8397024212359022e-05 0 0.01497154192720798 2.1966964657894766e-05 0 0.014989689029208273 3.5005483618339859e-06 0 0.014994957126753656 1.0383121673351226e-05 0 0.014986276794013608 2.9578311888128531e-05 0 0.01497154192720798 2.1966964657894766e-05 0 0.014994957126753656 1.0383121673351226e-05 0 0.014989689029208273 3.5005483618339859e-06 0 0.014994957126753656 1.0383121673351226e-05 0 0.015010746967748187 -9.9345765633870961e-06 0 0.015007454554490839 -4.0324133020408167e-05 0 0.015046760533612135 -6.8397024212359022e-05 0 0.015010746967748187 -9.9345765633870961e-06 0 0.01502234164636577 -0.00010014114368634368 0 0.015007454554490839 -4.0324133020408167e-05 0 0.015046760533612135 -6.8397024212359022e-05 0 0.015013044777127565 -3.529006579030913e-05 0 0.01501414682373889 -1.371356002351523e-05 0 0.015007454554490839 -4.0324133020408167e-05 0 0.015004847540881465 -9.1144178152622798e-06 0 0.015010746967748187 -9.9345765633870961e-06 0 0.014989689029208273 3.5005483618339859e-06 0 0.015010746967748187 -9.9345765633870961e-06 0 0.014992554348472567 -5.4352050790236868e-06 0 0.015010746967748187 -9.9345765633870961e-06 0 0.015000025356088721 -1.4648424485025508e-08 0 0.014992554348472567 -5.4352050790236868e-06 0 0.015004847540881465 -9.1144178152622798e-06 0 0.015010746967748187 -9.9345765633870961e-06 0 0.015000025356088721 -1.4648424485025508e-08 0 0.014973595715759846 4.4806819640243466e-06 0 0.014978320713686632 -2.6735151262557531e-06 0 0.014992554348472567 -5.4352050790236868e-06 0 0.015000025356088721 -1.4648424485025508e-08 0 0.014992554348472567 -5.4352050790236868e-06 0 0.014999979264098224 -5.4565307765723258e-09 0 0.014978320713686632 -2.6735151262557531e-06 0 0.014999979264098224 -5.4565307765723258e-09 0 0.014999966886444494 -3.801914076818369e-09 0 0.014978320713686632 -2.6735151262557531e-06 0 0.014992554348472567 -5.4352050790236868e-06 0 0.014999979264098224 -5.4565307765723258e-09 0 0.014978320713686632 -2.6735151262557531e-06 0 0.014999966886444494 -3.801914076818369e-09 0 0.014975871940528365 -1.1875061502575862e-06 0 0.014999966886444494 -3.801914076818369e-09 0 0.014975871940528365 -1.1875061502575862e-06 0 0.014999952849698685 2.7915214712412015e-09 0 0.014975871940528365 -1.1875061502575862e-06 0 0.014947836292471773 3.0427422489270547e-06 0 0.014957047312749373 5.9904659609432977e-07 0 0.014978320713686632 -2.6735151262557531e-06 0 0.014975871940528365 -1.1875061502575862e-06 0 0.014947836292471773 3.0427422489270547e-06 0 0.01496139896135003 4.4391277742213006e-06 0 0.014978320713686632 -2.6735151262557531e-06 0 0.014947836292471773 3.0427422489270547e-06 0 0.014947836292471773 3.0427422489270547e-06 0 0.014926771033409473 4.2139336330847634e-06 0 0.014957047312749373 5.9904659609432977e-07 0 0.014947836292471773 3.0427422489270547e-06 0 0.014909588087676888 1.4513761667968429e-05 0 0.014926771033409473 4.2139336330847634e-06 0 0.014947836292471773 3.0427422489270547e-06 0 0.014909588087676888 1.4513761667968429e-05 0 0.014934725882293149 1.7468756256555909e-05 0 0.01496139896135003 4.4391277742213006e-06 0 0.014947836292471773 3.0427422489270547e-06 0 0.014934725882293149 1.7468756256555909e-05 0 0.014885403005829117 1.8472015970260815e-05 0 0.014916400685249612 1.1241492187901209e-05 0 0.014875425423550316 1.8730864651045517e-05 0 0.014896363017526268 1.6616360926357718e-05 0 0.014859396303045929 2.6409302483956361e-05 0 0.014875425423550316 1.8730864651045517e-05 0 0.014909588087676888 1.4513761667968429e-05 0 0.014926771033409473 4.2139336330847634e-06 0 0.014875425423550316 1.8730864651045517e-05 0 0.014926771033409473 4.2139336330847634e-06 0 0.014937561461286062 2.2983914792322361e-06 0 0.014926771033409473 4.2139336330847634e-06 0 0.014937561461286062 2.2983914792322361e-06 0 0.014957047312749373 5.9904659609432977e-07 0 0.014916400685249612 1.1241492187901209e-05 0 0.014958090235274651 5.8906227921226136e-06 0 0.014937561461286062 2.2983914792322361e-06 0 0.014976043718345201 1.1967254835144276e-06 0 0.014957047312749373 5.9904659609432977e-07 0 0.014975871940528365 -1.1875061502575862e-06 0 0.014957047312749373 5.9904659609432977e-07 0 0.014999952849698685 2.7915214712412015e-09 0 0.014976043718345201 1.1967254835144276e-06 0 0.014957047312749373 5.9904659609432977e-07 0 0.014999952849698685 2.7915214712412015e-09 0 0.014976043718345201 1.1967254835144276e-06 0 0.014999952849698685 2.7915214712412015e-09 0 0.014999986345337561 -4.5562470944178318e-10 0 0.014958090235274651 5.8906227921226136e-06 0 0.014999980100188205 -1.4289044408489376e-09 0 0.014940952509011266 1.488029465822853e-05 0 0.014999900665158633 2.1846946403586837e-08 0 0.014963321625136271 1.0755766753339633e-05 0 0.014999900665158633 2.1846946403586837e-08 0 0.014963321625136271 1.0755766753339633e-05 0 0.014999964113027307 6.7467476191895742e-09 0 0.014939511554640371 1.5972462832548419e-05 0 0.014963321625136271 1.0755766753339633e-05 0 0.014923717923114853 1.6441034896948555e-05 0 0.014939511554640371 1.5972462832548419e-05 0 0.014963321625136271 1.0755766753339633e-05 0 0.014999964113027307 6.7467476191895742e-09 0 0.014940952509011266 1.488029465822853e-05 0 0.014963321625136271 1.0755766753339633e-05 0 0.014923717923114853 1.6441034896948555e-05 0 0.014968902049647109 5.9839346148484483e-06 0 0.014999964113027307 6.7467476191895742e-09 0 0.014999872297518337 -2.2644485316648915e-09 0 0.014939511554640371 1.5972462832548419e-05 0 0.014968902049647109 5.9839346148484483e-06 0 0.014999964113027307 6.7467476191895742e-09 0 0.014939511554640371 1.5972462832548419e-05 0 0.014968902049647109 5.9839346148484483e-06 0 0.014931373002011456 1.6864994448477229e-05 0 0.014968902049647109 5.9839346148484483e-06 0 0.014931373002011456 1.6864994448477229e-05 0 0.014927391937095634 1.1209261874169653e-05 0 0.014939511554640371 1.5972462832548419e-05 0 0.014931373002011456 1.6864994448477229e-05 0 0.014894598969057636 2.8783717062237511e-05 0 0.014894598969057636 2.8783717062237511e-05 0 0.014874960611987186 2.8591870896912743e-05 0 0.014902732471588491 2.1364510653772727e-05 0 0.014931373002011456 1.6864994448477229e-05 0 0.014894598969057636 2.8783717062237511e-05 0 0.014902732471588491 2.1364510653772727e-05 0 0.014896363017526268 1.6616360926357718e-05 0 0.014940952509011266 1.488029465822853e-05 0 0.014923717923114853 1.6441034896948555e-05 0 0.014896363017526268 1.6616360926357718e-05 0 0.014923717923114853 1.6441034896948555e-05 0 0.014883907673211448 2.4718909464624632e-05 0 0.014939511554640371 1.5972462832548419e-05 0 0.014923717923114853 1.6441034896948555e-05 0 0.014883907673211448 2.4718909464624632e-05 0 0.014939511554640371 1.5972462832548419e-05 0 0.014894598969057636 2.8783717062237511e-05 0 0.014883907673211448 2.4718909464624632e-05 0 0.014896363017526268 1.6616360926357718e-05 0 0.014883907673211448 2.4718909464624632e-05 0 0.014859396303045929 2.6409302483956361e-05 0 0.014883907673211448 2.4718909464624632e-05 0 0.014859396303045929 2.6409302483956361e-05 0 0.014831715772381212 4.4605127564459122e-05 0 0.014815959776417089 3.4629759017818313e-05 0 0.014859396303045929 2.6409302483956361e-05 0 0.014831715772381212 4.4605127564459122e-05 0 0.014815959776417089 3.4629759017818313e-05 0 0.014831715772381212 4.4605127564459122e-05 0 0.014743760448142332 4.9690675090934313e-05 0 0.014831715772381212 4.4605127564459122e-05 0 0.014863718642456138 4.006611247734135e-05 0 0.0148195511488366 2.6324162758654821e-05 0 0.014894598969057636 2.8783717062237511e-05 0 0.014883907673211448 2.4718909464624632e-05 0 0.014831715772381212 4.4605127564459122e-05 0 0.014894598969057636 2.8783717062237511e-05 0 0.014831715772381212 4.4605127564459122e-05 0 0.014863718642456138 4.006611247734135e-05 0 0.014894598969057636 2.8783717062237511e-05 0 0.014863718642456138 4.006611247734135e-05 0 0.014874960611987186 2.8591870896912743e-05 0 0.014863718642456138 4.006611247734135e-05 0 0.014865137463537762 4.510366694361241e-05 0 0.014874960611987186 2.8591870896912743e-05 0 0.014776156397226009 6.3542639828227817e-05 0 0.014703807974102204 5.1357659252768874e-05 0 0.014863718642456138 4.006611247734135e-05 0 0.014865137463537762 4.510366694361241e-05 0 0.0148195511488366 2.6324162758654821e-05 0 0.014692954597781301 8.8595298776176842e-05 0 0.014658245218063472 2.8557575171298645e-05 0 0.014731379513197708 5.0661929148411288e-05 0 0.014658245218063472 2.8557575171298645e-05 0 0.014731379513197708 5.0661929148411288e-05 0 0.014699244788486325 1.3636230797934602e-05 0 0.014692954597781301 8.8595298776176842e-05 0 0.014658245218063472 2.8557575171298645e-05 0 0.014587407870953938 6.6639703533937715e-05 0 0.014658245218063472 2.8557575171298645e-05 0 0.014587407870953938 6.6639703533937715e-05 0 0.014606590163029161 3.131118367728215e-05 0 0.014587407870953938 6.6639703533937715e-05 0 0.014578200622926574 7.7330105762377107e-05 0 0.014584561024266302 5.2367880965300243e-05 0 0.014587407870953938 6.6639703533937715e-05 0 0.014584561024266302 5.2367880965300243e-05 0 0.014606590163029161 3.131118367728215e-05 0 0.014587407870953938 6.6639703533937715e-05 0 0.014578200622926574 7.7330105762377107e-05 0 0.014618395044714618 6.7692230894922771e-05 0 0.014703807974102204 5.1357659252768874e-05 0 0.014629288662854756 6.2769489238971121e-05 0 0.0148195511488366 2.6324162758654821e-05 0 0.014618395044714618 6.7692230894922771e-05 0 0.014743760448142332 4.9690675090934313e-05 0 0.014515709424265555 0.00015616333004788647 0 0.014578200622926574 7.7330105762377107e-05 0 0.014618395044714618 6.7692230894922771e-05 0 0.014831715772381212 4.4605127564459122e-05 0 0.0148195511488366 2.6324162758654821e-05 0 0.014743760448142332 4.9690675090934313e-05 0 0.014763963510165169 4.4514985645695617e-05 0 0.014744356150206741 4.9200783052176483e-05 0 0.014806152880267263 5.5246243188607577e-05 0 0.014763963510165169 4.4514985645695617e-05 0 0.014689463635942002 5.3921309025207232e-05 0 0.014708948192307714 5.7738538596990224e-05 0 0.014763963510165169 4.4514985645695617e-05 0 0.014689463635942002 5.3921309025207232e-05 0 0.014744356150206741 4.9200783052176483e-05 0 0.014689463635942002 5.3921309025207232e-05 0 0.014662063852125885 6.153883705934559e-05 0 0.014582300629826312 8.9022694381739461e-05 0 0.014689463635942002 5.3921309025207232e-05 0 0.014744356150206741 4.9200783052176483e-05 0 0.014719294211695162 5.5689914180672726e-05 0 0.014744356150206741 4.9200783052176483e-05 0 0.014719294211695162 5.5689914180672726e-05 0 0.014756094385965719 4.932788977886737e-05 0 0.014719294211695162 5.5689914180672726e-05 0 0.014756094385965719 4.932788977886737e-05 0 0.014749512459490478 4.5888805997325744e-05 0 0.014756094385965719 4.932788977886737e-05 0 0.014731379513197708 5.0661929148411288e-05 0 0.014749512459490478 4.5888805997325744e-05 0 0.014776156397226009 6.3542639828227817e-05 0 0.014800381600580292 5.7031218694947917e-05 0 0.014692954597781301 8.8595298776176842e-05 0 0.014731379513197708 5.0661929148411288e-05 0 0.014806152880267263 5.5246243188607577e-05 0 0.014756094385965719 4.932788977886737e-05 0 0.014731379513197708 5.0661929148411288e-05 0 0.014806152880267263 5.5246243188607577e-05 0 0.014744356150206741 4.9200783052176483e-05 0 0.014756094385965719 4.932788977886737e-05 0 0.014806152880267263 5.5246243188607577e-05 0 0.014806152880267263 5.5246243188607577e-05 0 0.014874960611987186 2.8591870896912743e-05 0 0.014837906284983455 2.8877146009081129e-05 0 0.014865137463537762 4.510366694361241e-05 0 0.014806152880267263 5.5246243188607577e-05 0 0.014874960611987186 2.8591870896912743e-05 0 0.014874960611987186 2.8591870896912743e-05 0 0.014837906284983455 2.8877146009081129e-05 0 0.014892419957548335 1.6188184788075495e-05 0 0.014763963510165169 4.4514985645695617e-05 0 0.014837906284983455 2.8877146009081129e-05 0 0.014809990294290889 2.942173502637714e-05 0 0.014763963510165169 4.4514985645695617e-05 0 0.014806152880267263 5.5246243188607577e-05 0 0.014837906284983455 2.8877146009081129e-05 0 0.014763963510165169 4.4514985645695617e-05 0 0.014809990294290889 2.942173502637714e-05 0 0.014759833214720578 4.4431678580891031e-05 0 0.014837906284983455 2.8877146009081129e-05 0 0.014809990294290889 2.942173502637714e-05 0 0.014874382456426246 9.9052409058412512e-06 0 0.014809990294290889 2.942173502637714e-05 0 0.014874382456426246 9.9052409058412512e-06 0 0.014835554415351331 1.4634934006535909e-05 0 0.014837906284983455 2.8877146009081129e-05 0 0.014874382456426246 9.9052409058412512e-06 0 0.014892419957548335 1.6188184788075495e-05 0 0.014874382456426246 9.9052409058412512e-06 0 0.014892419957548335 1.6188184788075495e-05 0 0.014939791448388784 3.0611460324608307e-06 0 0.014874382456426246 9.9052409058412512e-06 0 0.014931222619261003 3.0196407519128008e-06 0 0.014939791448388784 3.0611460324608307e-06 0 0.014874960611987186 2.8591870896912743e-05 0 0.014902732471588491 2.1364510653772727e-05 0 0.014892419957548335 1.6188184788075495e-05 0 0.014901154059708047 1.560522712900212e-05 0 0.014945039459475775 7.3214234372098906e-06 0 0.014892419957548335 1.6188184788075495e-05 0 0.014965069923950081 2.5225708636546829e-06 0 0.014939791448388784 3.0611460324608307e-06 0 0.014931373002011456 1.6864994448477229e-05 0 0.014902732471588491 2.1364510653772727e-05 0 0.014927391937095634 1.1209261874169653e-05 0 0.014902732471588491 2.1364510653772727e-05 0 0.014892419957548335 1.6188184788075495e-05 0 0.014927391937095634 1.1209261874169653e-05 0 0.014965069923950081 2.5225708636546829e-06 0 0.014939791448388784 3.0611460324608307e-06 0 0.014999934614028113 -8.8204849673240212e-09 0 0.014965069923950081 2.5225708636546829e-06 0 0.014999996956931752 5.7432805672753799e-09 0 0.014999934614028113 -8.8204849673240212e-09 0 0.014945039459475775 7.3214234372098906e-06 0 0.01499998025056664 4.3632257547219596e-09 0 0.014968902049647109 5.9839346148484483e-06 0 0.014927391937095634 1.1209261874169653e-05 0 0.014999872297518337 -2.2644485316648915e-09 0 0.014931222619261003 3.0196407519128008e-06 0 0.014939791448388784 3.0611460324608307e-06 0 0.01499993337083896 4.4243088346438672e-09 0 0.014939791448388784 3.0611460324608307e-06 0 0.014999934614028113 -8.8204849673240212e-09 0 0.01499993337083896 4.4243088346438672e-09 0 0.01499993337083896 4.4243088346438672e-09 0 0.01495025879213048 2.451398535895104e-06 0 0.01497598586326864 1.7583413856832187e-06 0 0.014931222619261003 3.0196407519128008e-06 0 0.01499993337083896 4.4243088346438672e-09 0 0.01495025879213048 2.451398535895104e-06 0 0.01495025879213048 2.451398535895104e-06 0 0.01497598586326864 1.7583413856832187e-06 0 0.014954247956723836 1.4729827862265088e-06 0 0.01495025879213048 2.451398535895104e-06 0 0.014954247956723836 1.4729827862265088e-06 0 0.014896442198883544 -4.1260474420829406e-08 0 0.01499993337083896 4.4243088346438672e-09 0 0.01497598586326864 1.7583413856832187e-06 0 0.014999940823536088 2.7065984544871521e-09 0 0.01497598586326864 1.7583413856832187e-06 0 0.014999940823536088 2.7065984544871521e-09 0 0.014986262290124017 4.0662367045847177e-07 0 0.01497598586326864 1.7583413856832187e-06 0 0.014986262290124017 4.0662367045847177e-07 0 0.014954247956723836 1.4729827862265088e-06 0 0.014999940823536088 2.7065984544871521e-09 0 0.014986262290124017 4.0662367045847177e-07 0 0.014999988871687199 4.2534593355794189e-09 0 0.014986262290124017 4.0662367045847177e-07 0 0.014999988871687199 4.2534593355794189e-09 0 0.014994146729073189 -1.1985432631369881e-06 0 0.014986262290124017 4.0662367045847177e-07 0 0.014994146729073189 -1.1985432631369881e-06 0 0.014991431701945062 -9.7332119396934193e-07 0 0.014980642684486623 1.515473572379378e-06 0 0.014963444698984092 6.6611932804700269e-07 0 0.014986262290124017 4.0662367045847177e-07 0 0.014954247956723836 1.4729827862265088e-06 0 0.014934922800360359 -1.9865563458293686e-06 0 0.014954247956723836 1.4729827862265088e-06 0 0.014934922800360359 -1.9865563458293686e-06 0 0.014925336355502177 -1.7256385235876165e-06 0 0.014934922800360359 -1.9865563458293686e-06 0 0.014906705374989594 -1.3405845967539734e-06 0 0.014925336355502177 -1.7256385235876165e-06 0 0.014991431701945062 -9.7332119396934193e-07 0 0.014984428645809846 5.667964279998902e-06 0 0.014985981969645569 5.8850271498202715e-08 0 0.014963444698984092 6.6611932804700269e-07 0 0.014945287627872799 3.0421045076003748e-06 0 0.014906705374989594 -1.3405845967539734e-06 0 0.014925336355502177 -1.7256385235876165e-06 0 0.014905688361673039 7.8375254801142267e-06 0 0.014925336355502177 -1.7256385235876165e-06 0 0.014896442198883544 -4.1260474420829406e-08 0 0.014917186760461731 -4.2225083957262528e-07 0 0.014885918593244608 2.7759858848415872e-06 0 0.014844334720291345 1.6079802432312328e-05 0 0.014835554415351331 1.4634934006535909e-05 0 0.014896442198883544 -4.1260474420829406e-08 0 0.014774258678333974 1.9415158894982756e-05 0 0.014874382456426246 9.9052409058412512e-06 0 0.014835554415351331 1.4634934006535909e-05 0 0.014896442198883544 -4.1260474420829406e-08 0 0.014874382456426246 9.9052409058412512e-06 0 0.014931222619261003 3.0196407519128008e-06 0 0.014896442198883544 -4.1260474420829406e-08 0 0.014931222619261003 3.0196407519128008e-06 0 0.01495025879213048 2.451398535895104e-06 0 0.014896442198883544 -4.1260474420829406e-08 0 0.014954247956723836 1.4729827862265088e-06 0 0.014925336355502177 -1.7256385235876165e-06 0 0.014896442198883544 -4.1260474420829406e-08 0 0.014981246810178928 2.4468401815924146e-07 0 0.01498394810643814 -2.1819003974168451e-06 0 0.014968093266967559 3.3743253951075748e-06 0 0.014981246810178928 2.4468401815924146e-07 0 0.014999981030741084 4.5935909525496569e-11 0 0.01498394810643814 -2.1819003974168451e-06 0 0.014999981030741084 4.5935909525496569e-11 0 0.014989504413021373 -4.8310470920880899e-07 0 0.014999986794412052 -3.9463693721209492e-09 0 0.014981246810178928 2.4468401815924146e-07 0 0.014999981030741084 4.5935909525496569e-11 0 0.014989504413021373 -4.8310470920880899e-07 0 0.014981246810178928 2.4468401815924146e-07 0 0.014989504413021373 -4.8310470920880899e-07 0 0.01497020092736245 4.9241588333732242e-06 0 0.014989504413021373 -4.8310470920880899e-07 0 0.014999986794412052 -3.9463693721209492e-09 0 0.014985981969645569 5.8850271498202715e-08 0 0.014999988871687199 4.2534593355794189e-09 0 0.014994146729073189 -1.1985432631369881e-06 0 0.014999986794412052 -3.9463693721209492e-09 0 0.014994146729073189 -1.1985432631369881e-06 0 0.014999986794412052 -3.9463693721209492e-09 0 0.014985981969645569 5.8850271498202715e-08 0 0.014994146729073189 -1.1985432631369881e-06 0 0.014991431701945062 -9.7332119396934193e-07 0 0.014985981969645569 5.8850271498202715e-08 0 0.014984428645809846 5.667964279998902e-06 0 0.014985981969645569 5.8850271498202715e-08 0 0.014970619592898703 8.0405065335802042e-06 0 0.014989504413021373 -4.8310470920880899e-07 0 0.014985981969645569 5.8850271498202715e-08 0 0.01497020092736245 4.9241588333732242e-06 0 0.014985981969645569 5.8850271498202715e-08 0 0.014970619592898703 8.0405065335802042e-06 0 0.01497020092736245 4.9241588333732242e-06 0 0.014970619592898703 8.0405065335802042e-06 0 0.01497020092736245 4.9241588333732242e-06 0 0.014954659350499009 1.3466951315950634e-05 0 0.01497020092736245 4.9241588333732242e-06 0 0.014955612114453933 1.1826590382032033e-05 0 0.014954659350499009 1.3466951315950634e-05 0 0.01497020092736245 4.9241588333732242e-06 0 0.014955612114453933 1.1826590382032033e-05 0 0.014968093266967559 3.3743253951075748e-06 0 0.014981246810178928 2.4468401815924146e-07 0 0.01497020092736245 4.9241588333732242e-06 0 0.014968093266967559 3.3743253951075748e-06 0 0.014942610448079825 1.9429759291840919e-05 0 0.014940226464158653 2.0175525576863005e-05 0 0.014929180975941477 2.4856161878732695e-05 0 0.014940226464158653 2.0175525576863005e-05 0 0.014928058866554735 2.660927991663799e-05 0 0.014929180975941477 2.4856161878732695e-05 0 0.014942610448079825 1.9429759291840919e-05 0 0.014947972754281023 1.6480080421865556e-05 0 0.014940226464158653 2.0175525576863005e-05 0 0.014955612114453933 1.1826590382032033e-05 0 0.014947972754281023 1.6480080421865556e-05 0 0.014954659350499009 1.3466951315950634e-05 0 0.014942610448079825 1.9429759291840919e-05 0 0.014955612114453933 1.1826590382032033e-05 0 0.014947972754281023 1.6480080421865556e-05 0 0.014947972754281023 1.6480080421865556e-05 0 0.014954659350499009 1.3466951315950634e-05 0 0.014940226464158653 2.0175525576863005e-05 0 0.014940226464158653 2.0175525576863005e-05 0 0.014945996932648677 2.0635960349204129e-05 0 0.014928058866554735 2.660927991663799e-05 0 0.014954659350499009 1.3466951315950634e-05 0 0.014940226464158653 2.0175525576863005e-05 0 0.014945996932648677 2.0635960349204129e-05 0 0.014945996932648677 2.0635960349204129e-05 0 0.014970242068426681 1.6430641707614486e-05 0 0.014945109427813167 2.9015167650899435e-05 0 0.014970619592898703 8.0405065335802042e-06 0 0.014954659350499009 1.3466951315950634e-05 0 0.014945996932648677 2.0635960349204129e-05 0 0.014970619592898703 8.0405065335802042e-06 0 0.014945996932648677 2.0635960349204129e-05 0 0.014970242068426681 1.6430641707614486e-05 0 0.014945287627872799 3.0421045076003748e-06 0 0.014926897460776278 1.5383118846248511e-05 0 0.014984428645809846 5.667964279998902e-06 0 0.014970619592898703 8.0405065335802042e-06 0 0.014970242068426681 1.6430641707614486e-05 0 0.014926897460776278 1.5383118846248511e-05 0 0.014909490965654304 2.9766257212663761e-05 0 0.014882905898242996 1.395079774188286e-05 0 0.014872969464654232 3.5761112610270852e-05 0 0.014887044742269508 2.5320617547954083e-05 0 0.014874651561866225 3.5357180064210552e-05 0 0.014871984191234778 3.5101296766605263e-05 0 0.014872969464654232 3.5761112610270852e-05 0 0.014874651561866225 3.5357180064210552e-05 0 0.014872969464654232 3.5761112610270852e-05 0 0.014887044742269508 2.5320617547954083e-05 0 0.014874651561866225 3.5357180064210552e-05 0 0.014869391458981062 3.5688776664155536e-05 0 0.014871984191234778 3.5101296766605263e-05 0 0.014869391458981062 3.5688776664155536e-05 0 0.01486431232962087 3.1625231228195326e-05 0 0.014871984191234778 3.5101296766605263e-05 0 0.01486431232962087 3.1625231228195326e-05 0 0.014871984191234778 3.5101296766605263e-05 0 0.014867293988382308 2.5397306205174292e-05 0 0.014871984191234778 3.5101296766605263e-05 0 0.014894495620543234 3.3490790802505903e-05 0 0.014872969464654232 3.5761112610270852e-05 0 0.014871984191234778 3.5101296766605263e-05 0 0.014894495620543234 3.3490790802505903e-05 0 0.014867293988382308 2.5397306205174292e-05 0 0.014898589101847609 3.1191962965575803e-05 0 0.014909490965654304 2.9766257212663761e-05 0 0.014945996932648677 2.0635960349204129e-05 0 0.014945109427813167 2.9015167650899435e-05 0 0.014919920864315199 3.0906279650047353e-05 0 0.014894495620543234 3.3490790802505903e-05 0 0.014945109427813167 2.9015167650899435e-05 0 0.014919920864315199 3.0906279650047353e-05 0 0.014945996932648677 2.0635960349204129e-05 0 0.014928058866554735 2.660927991663799e-05 0 0.014919920864315199 3.0906279650047353e-05 0 0.014928058866554735 2.660927991663799e-05 0 0.01491328567734209 3.1367968450207289e-05 0 0.014919714219372007 2.8774218865927988e-05 0 0.014928058866554735 2.660927991663799e-05 0 0.014919920864315199 3.0906279650047353e-05 0 0.01491328567734209 3.1367968450207289e-05 0 0.014894495620543234 3.3490790802505903e-05 0 0.01491328567734209 3.1367968450207289e-05 0 0.014901287627189567 2.960705411878369e-05 0 0.014894495620543234 3.3490790802505903e-05 0 0.014919920864315199 3.0906279650047353e-05 0 0.01491328567734209 3.1367968450207289e-05 0 0.01491328567734209 3.1367968450207289e-05 0 0.014911112242477447 3.0514792414685084e-05 0 0.014901287627189567 2.960705411878369e-05 0 0.01490367066389757 3.0584642433123203e-05 0 0.014907915510427947 3.5561737300191461e-05 0 0.014902093254184613 2.9590112491025907e-05 0 0.014911112242477447 3.0514792414685084e-05 0 0.014901287627189567 2.960705411878369e-05 0 0.01490367066389757 3.0584642433123203e-05 0 0.014911112242477447 3.0514792414685084e-05 0 0.01490367066389757 3.0584642433123203e-05 0 0.014915680840752727 2.9648299946324436e-05 0 0.014902497923084124 5.5002386633772639e-06 0 0.014956510141292059 0.00011448110181433424 0 0.014911112242477447 3.0514792414685084e-05 0 0.014919714219372007 2.8774218865927988e-05 0 0.014915680840752727 2.9648299946324436e-05 0 0.014935052484038943 -1.2884681905107496e-05 0 0.014956510141292059 0.00011448110181433424 0 0.014942610448079825 1.9429759291840919e-05 0 0.014929180975941477 2.4856161878732695e-05 0 0.014915680840752727 2.9648299946324436e-05 0 0.014919714219372007 2.8774218865927988e-05 0 0.014929180975941477 2.4856161878732695e-05 0 0.014915680840752727 2.9648299946324436e-05 0 0.01491328567734209 3.1367968450207289e-05 0 0.014911112242477447 3.0514792414685084e-05 0 0.014919714219372007 2.8774218865927988e-05 0 0.014928058866554735 2.660927991663799e-05 0 0.014919714219372007 2.8774218865927988e-05 0 0.014929180975941477 2.4856161878732695e-05 0 0.014844334720291345 1.6079802432312328e-05 0 0.014827032723017454 3.1771813059230597e-05 0 0.014759833214720578 4.4431678580891031e-05 0 0.014774258678333974 1.9415158894982756e-05 0 0.014716599886476714 5.0959453483428039e-05 0 0.014759833214720578 4.4431678580891031e-05 0 0.014716599886476714 5.0959453483428039e-05 0 0.014721635877761964 5.7524012068722907e-05 0 0.014835554415351331 1.4634934006535909e-05 0 0.014759833214720578 4.4431678580891031e-05 0 0.014774258678333974 1.9415158894982756e-05 0 0.014809990294290889 2.942173502637714e-05 0 0.014835554415351331 1.4634934006535909e-05 0 0.014759833214720578 4.4431678580891031e-05 0 0.014925336355502177 -1.7256385235876165e-06 0 0.014917186760461731 -4.2225083957262528e-07 0 0.014905688361673039 7.8375254801142267e-06 0 0.014917186760461731 -4.2225083957262528e-07 0 0.014905688361673039 7.8375254801142267e-06 0 0.0149064371490015 2.2031813232600089e-05 0 0.014906705374989594 -1.3405845967539734e-06 0 0.014882905898242996 1.395079774188286e-05 0 0.014905688361673039 7.8375254801142267e-06 0 0.014882905898242996 1.395079774188286e-05 0 0.014905688361673039 7.8375254801142267e-06 0 0.014887044742269508 2.5320617547954083e-05 0 0.014887044742269508 2.5320617547954083e-05 0 0.0149064371490015 2.2031813232600089e-05 0 0.014890095905423721 2.86302220677555e-05 0 0.014905688361673039 7.8375254801142267e-06 0 0.014887044742269508 2.5320617547954083e-05 0 0.0149064371490015 2.2031813232600089e-05 0 0.0149064371490015 2.2031813232600089e-05 0 0.014890095905423721 2.86302220677555e-05 0 0.014882232768041515 3.6081845482198605e-05 0 0.014716599886476714 5.0959453483428039e-05 0 0.01471301160716661 5.8312629887295372e-05 0 0.014706212323740284 6.0074843912378545e-05 0 0.014827032723017454 3.1771813059230597e-05 0 0.014681086316714853 4.8865533588265031e-05 0 0.0149064371490015 2.2031813232600089e-05 0 0.014882232768041515 3.6081845482198605e-05 0 0.014882238934946236 4.0990833384052468e-05 0 0.014874651561866225 3.5357180064210552e-05 0 0.014887044742269508 2.5320617547954083e-05 0 0.014880879655309365 3.2800306936870402e-05 0 0.014887044742269508 2.5320617547954083e-05 0 0.014890095905423721 2.86302220677555e-05 0 0.014880879655309365 3.2800306936870402e-05 0 0.014882232768041515 3.6081845482198605e-05 0 0.014880879655309365 3.2800306936870402e-05 0 0.01487278377786912 3.620369486490845e-05 0 0.014890095905423721 2.86302220677555e-05 0 0.014882232768041515 3.6081845482198605e-05 0 0.014880879655309365 3.2800306936870402e-05 0 0.014874651561866225 3.5357180064210552e-05 0 0.014880879655309365 3.2800306936870402e-05 0 0.01487278377786912 3.620369486490845e-05 0 0.014869391458981062 3.5688776664155536e-05 0 0.01487278377786912 3.620369486490845e-05 0 0.014863538267440884 3.5517276863152425e-05 0 0.014874651561866225 3.5357180064210552e-05 0 0.014869391458981062 3.5688776664155536e-05 0 0.01487278377786912 3.620369486490845e-05 0 0.01487278377786912 3.620369486490845e-05 0 0.014877122142660392 3.6660913236892071e-05 0 0.014863538267440884 3.5517276863152425e-05 0 0.014732060504552578 6.2471162228758224e-05 0 0.014681086316714853 4.8865533588265031e-05 0 0.014882232768041515 3.6081845482198605e-05 0 0.01487278377786912 3.620369486490845e-05 0 0.014877122142660392 3.6660913236892071e-05 0 0.014877122142660392 3.6660913236892071e-05 0 0.014863538267440884 3.5517276863152425e-05 0 0.01485597777619342 3.5961876388707133e-05 0 0.014681086316714853 4.8865533588265031e-05 0 0.014863120431144815 3.6059486478880476e-06 0 0.014858837960564067 3.1590370978481632e-05 0 0.014859864723014678 3.398763132971031e-05 0 0.01485597777619342 3.5961876388707133e-05 0 0.014869391458981062 3.5688776664155536e-05 0 0.01486431232962087 3.1625231228195326e-05 0 0.014863538267440884 3.5517276863152425e-05 0 0.01471301160716661 5.8312629887295372e-05 0 0.014710059204311897 6.0046687969197501e-05 0 0.014702647708232734 5.7824634526636665e-05 0 0.01471301160716661 5.8312629887295372e-05 0 0.014706212323740284 6.0074843912378545e-05 0 0.014710059204311897 6.0046687969197501e-05 0 0.014681086316714853 4.8865533588265031e-05 0 0.013939394481624576 -0.0002026737318758968 0 0.014706212323740284 6.0074843912378545e-05 0 0.014710059204311897 6.0046687969197501e-05 0 0.014705058495988335 6.2055159624917845e-05 0 0.014372052224427776 -0.00022081643711953882 0 0.013939394481624576 -0.0002026737318758968 0 0.014710059204311897 6.0046687969197501e-05 0 0.014720807814417676 5.2761987846087115e-05 0 0.014704170233660741 4.3298631476297404e-05 0 0.014710059204311897 6.0046687969197501e-05 0 0.014704170233660741 4.3298631476297404e-05 0 0.014702647708232734 5.7824634526636665e-05 0 0.014704170233660741 4.3298631476297404e-05 0 0.014683446082329575 5.204528587263111e-05 0 0.014702647708232734 5.7824634526636665e-05 0 0.014683446082329575 5.204528587263111e-05 0 0.014699463682446222 6.0740850520961566e-05 0 0.014662063852125885 6.153883705934559e-05 0 0.01471301160716661 5.8312629887295372e-05 0 0.014699463682446222 6.0740850520961566e-05 0 0.014702647708232734 5.7824634526636665e-05 0 0.014683446082329575 5.204528587263111e-05 0 0.014699463682446222 6.0740850520961566e-05 0 0.014702647708232734 5.7824634526636665e-05 0 0.01471301160716661 5.8312629887295372e-05 0 0.014699463682446222 6.0740850520961566e-05 0 0.014721635877761964 5.7524012068722907e-05 0 0.014699463682446222 6.0740850520961566e-05 0 0.014721635877761964 5.7524012068722907e-05 0 0.014708948192307714 5.7738538596990224e-05 0 0.014716599886476714 5.0959453483428039e-05 0 0.01471301160716661 5.8312629887295372e-05 0 0.014721635877761964 5.7524012068722907e-05 0 0.014759833214720578 4.4431678580891031e-05 0 0.014721635877761964 5.7524012068722907e-05 0 0.014708948192307714 5.7738538596990224e-05 0 0.014763963510165169 4.4514985645695617e-05 0 0.014759833214720578 4.4431678580891031e-05 0 0.014708948192307714 5.7738538596990224e-05 0 0.014689463635942002 5.3921309025207232e-05 0 0.014708948192307714 5.7738538596990224e-05 0 0.014662063852125885 6.153883705934559e-05 0 0.014699463682446222 6.0740850520961566e-05 0 0.014708948192307714 5.7738538596990224e-05 0 0.014662063852125885 6.153883705934559e-05 0 0.014584778268607386 -1.5285790304766779e-05 0 0.014648704756046221 2.2092169566124276e-05 0 0.014582300629826312 8.9022694381739461e-05 0 0.014662063852125885 6.153883705934559e-05 0 0.014648704756046221 2.2092169566124276e-05 0 0.014582300629826312 8.9022694381739461e-05 0 0.014584778268607386 -1.5285790304766779e-05 0 0.014601684670913592 -3.9451740070074416e-05 0 0.014648704756046221 2.2092169566124276e-05 0 0.014584778268607386 -1.5285790304766779e-05 0 0.014601684670913592 -3.9451740070074416e-05 0 0.014565760466625563 -7.6476426163115055e-05 0 0.014601684670913592 -3.9451740070074416e-05 0 0.014565760466625563 -7.6476426163115055e-05 0 0.014554658337840157 -0.00011720479901184892 0 0.014565760466625563 -7.6476426163115055e-05 0 0.014561102396431738 -8.1542433899454547e-05 0 0.014554658337840157 -0.00011720479901184892 0 0.014565760466625563 -7.6476426163115055e-05 0 0.014536976104667441 -0.00010085315371735169 0 0.014542553138334472 -7.4211993582026223e-05 0 0.014584778268607386 -1.5285790304766779e-05 0 0.014565760466625563 -7.6476426163115055e-05 0 0.014542553138334472 -7.4211993582026223e-05 0 0.012474361162553446 -0.0002186811802566926 0 0.015233994258006853 -7.9569923364013691e-05 0 0.014656950316201468 -3.0010414019117366e-05 0 0.01471554764440393 -7.9645572315439425e-05 0 0.014554658337840157 -0.00011720479901184892 0 0.014601684670913592 -3.9451740070074416e-05 0 0.014656950316201468 -3.0010414019117366e-05 0 0.014554658337840157 -0.00011720479901184892 0 0.014601684670913592 -3.9451740070074416e-05 0 0.014656950316201468 -3.0010414019117366e-05 0 0.014648704756046221 2.2092169566124276e-05 0 0.014704170233660741 4.3298631476297404e-05 0 0.014648704756046221 2.2092169566124276e-05 0 0.014722791225001397 1.058822429810779e-05 0 0.014656950316201468 -3.0010414019117366e-05 0 0.014648704756046221 2.2092169566124276e-05 0 0.014722791225001397 1.058822429810779e-05 0 0.014704170233660741 4.3298631476297404e-05 0 0.014683446082329575 5.204528587263111e-05 0 0.014648704756046221 2.2092169566124276e-05 0 0.014683446082329575 5.204528587263111e-05 0 0.014662063852125885 6.153883705934559e-05 0 0.014648704756046221 2.2092169566124276e-05 0 0.013939394481624576 -0.0002026737318758968 0 0.013668674790003473 -0.00012109529874812747 0 0.014720807814417676 5.2761987846087115e-05 0 0.014704170233660741 4.3298631476297404e-05 0 0.014722791225001397 1.058822429810779e-05 0 0.013939394481624576 -0.0002026737318758968 0 0.01368865059948471 -0.00023619910446221907 0 0.014859864723014678 3.398763132971031e-05 0 0.01485597777619342 3.5961876388707133e-05 0 0.014851035748265615 3.7305537168788986e-05 0 0.012474335810883296 -0.00066443696374742412 0 0.012556436726538224 -0.00033920157333639292 0 0.012173904718424892 -0.00037503453367109749 0 0.014863538267440884 3.5517276863152425e-05 0 0.01485597777619342 3.5961876388707133e-05 0 0.014851035748265615 3.7305537168788986e-05 0 0.01486431232962087 3.1625231228195326e-05 0 0.014863538267440884 3.5517276863152425e-05 0 0.014853957956684672 2.4378298356578351e-05 0 0.014810592645257102 -2.7572125677565417e-05 0 0.01368865059948471 -0.00023619910446221907 0 0.010187115922075668 -6.913362059998788e-05 0 0.010685773972570619 -0.00017151221444182852 0 0.012173904718424892 -0.00037503453367109749 0 0.012347945055148062 -4.2281549675361831e-05 0 0.012051617843959622 -7.0217695857923131e-05 0 0.012556436726538224 -0.00033920157333639292 0 0.012173904718424892 -0.00037503453367109749 0 0.012347945055148062 -4.2281549675361831e-05 0 0.0086293343176268352 3.7325413396159102e-06 0 0.0087389920237467365 -9.0913732783251696e-05 0 0.0088538395043876589 5.1847221549893984e-05 0 0.0086293343176268352 3.7325413396159102e-06 0 0.0085555616331769637 -3.9082007184483988e-05 0 0.0085809903263412892 -5.2993240047572842e-05 0 0.012556436726538224 -0.00033920157333639292 0 0.012347945055148062 -4.2281549675361831e-05 0 0.012640893438756674 -1.4550639964500389e-05 0 0.013668674790003473 -0.00012109529874812747 0 0.012474361162553446 -0.0002186811802566926 0 0.010187115922075668 -6.913362059998788e-05 0 0.012474361162553446 -0.0002186811802566926 0 0.014656950316201468 -3.0010414019117366e-05 0 0.014722791225001397 1.058822429810779e-05 0 0.01471554764440393 -7.9645572315439425e-05 0 0.0085555616331769637 -3.9082007184483988e-05 0 0.0085809903263412892 -5.2993240047572842e-05 0 0.008559404679825201 -6.5101248071206059e-05 0 0.013743919277567721 -0.00027942416164056678 0 0.013873154417862181 0.00018453366023399455 0 0.014067189641462368 -7.3637790373686732e-05 0 0.0085809903263412892 -5.2993240047572842e-05 0 0.0084288108483032021 -0.0001602632805272994 0 0.0086129993660582303 -0.00019817226868261363 0 0.0086197061555615025 0.00014083692861856578 0 0.0084921468290562862 -0.00017963580171304901 0 0.0082156764790024071 -0.00012997218666346814 0 0.0086129993660582303 -0.00019817226868261363 0 0.0083050849144704637 -0.00035358622324046011 0 0.0085555616331769637 -3.9082007184483988e-05 0 0.008559404679825201 -6.5101248071206059e-05 0 0.008557225581319371 -6.448389385936932e-05 0 0.012474361162553446 -0.0002186811802566926 0 0.0094333905338570712 0.00036683907495414439 0 0.0085026016913726972 -9.1780653972122866e-05 0 0.0086197061555615025 0.00014083692861856578 0 0.0081523336381455706 -0.00017308235924380527 0 0.0082156764790024071 -0.00012997218666346814 0 0.0083050849144704637 -0.00035358622324046011 0 0.0086197061555615025 0.00014083692861856578 0 0.0094333905338570712 0.00036683907495414439 0 0.0080449193555332584 -0.00020281566343253351 0 0.0094333905338570712 0.00036683907495414439 0 0.0080449193555332584 -0.00020281566343253351 0 0.0086197061555615025 0.00014083692861856578 0 0.0087266050153480476 0.00038741189653170602 0 0.0089137395644591881 0.00052399371766747031 0 0.008770033325221761 0.00053863064155189929 0 0.0087389920237467365 -9.0913732783251696e-05 0 0.0086129993660582303 -0.00019817226868261363 0 0.0089918339170883318 -0.00032008397626714019 0 0.0086293343176268352 3.7325413396159102e-06 0 0.0085809903263412892 -5.2993240047572842e-05 0 0.0087389920237467365 -9.0913732783251696e-05 0 0.0085809903263412892 -5.2993240047572842e-05 0 0.0087389920237467365 -9.0913732783251696e-05 0 0.0086129993660582303 -0.00019817226868261363 0 0.0086129993660582303 -0.00019817226868261363 0 0.0085598504559532985 -0.00052049388553871605 0 0.0089918339170883318 -0.00032008397626714019 0 0.0081523336381455706 -0.00017308235924380527 0 0.0083050849144704637 -0.00035358622324046011 0 0.0079653510190214744 -0.00075866889389164722 0 0.0086129993660582303 -0.00019817226868261363 0 0.0085598504559532985 -0.00052049388553871605 0 0.0083050849144704637 -0.00035358622324046011 0 0.0085598504559532985 -0.00052049388553871605 0 0.0083050849144704637 -0.00035358622324046011 0 0.0079653510190214744 -0.00075866889389164722 0 0.0080449193555332584 -0.00020281566343253351 0 0.0063497612391546811 -0.00055017596550463043 0 0.0080449193555332584 -0.00020281566343253351 0 0.0060502503183659352 -0.00033115946347638897 0 0.005767240459924319 -0.00044335987062809658 0 0.0058171568338679664 -0.00039546958693417093 0 0.0057608455258626023 -0.00031610315328441774 0 0.0067660572747871451 -6.4802670203036698e-05 0 0.0066117549008954304 2.408342244243404e-05 0 0.0065721919907629298 -4.0753454943046845e-05 0 0.0067660572747871451 -6.4802670203036698e-05 0 0.0065350340629778654 -0.00012912696820356335 0 0.0065721919907629298 -4.0753454943046845e-05 0 0.0067660572747871451 -6.4802670203036698e-05 0 0.0066117549008954304 2.408342244243404e-05 0 0.0067383495525043481 0.00014475715243987777 0 0.0060502503183659352 -0.00033115946347638897 0 0.0063112437711340015 -0.00018485362859309664 0 0.010770800963488762 4.1100824620761909e-05 0 0.010776600171609417 -8.7757326492013608e-05 0 0.014560449101383377 5.0537366597362509e-06 0 0.014536976104667441 -0.00010085315371735169 0 0.014464772180423259 -0.00021114452143797193 0 0.0066117549008954304 2.408342244243404e-05 0 0.0067383495525043481 0.00014475715243987777 0 0.0065636693989883877 5.9853793864402273e-05 0 0.014560449101383377 5.0537366597362509e-06 0 0.014561102396431738 -8.1542433899454547e-05 0 0.014536976104667441 -0.00010085315371735169 0 0.014565760466625563 -7.6476426163115055e-05 0 0.014561102396431738 -8.1542433899454547e-05 0 0.014536976104667441 -0.00010085315371735169 0 0.014560449101383377 5.0537366597362509e-06 0 0.014554658337840157 -0.00011720479901184892 0 0.014244325933320135 -1.1748032973192751e-05 0 0.014560449101383377 5.0537366597362509e-06 0 0.014561102396431738 -8.1542433899454547e-05 0 0.014554658337840157 -0.00011720479901184892 0 0.014554658337840157 -0.00011720479901184892 0 0.014244325933320135 -1.1748032973192751e-05 0 0.014067189641462368 -7.3637790373686732e-05 0 0.0070427545601693346 9.4477359032185191e-05 0 0.0070549900060595796 0.00012796216111276841 0 0.0067383495525043481 0.00014475715243987777 0 0.013873154417862181 0.00018453366023399455 0 0.014560449101383377 5.0537366597362509e-06 0 0.014244325933320135 -1.1748032973192751e-05 0 0.0094333905338570712 0.00036683907495414439 0 0.010770800963488762 4.1100824620761909e-05 0 0.0070427545601693346 9.4477359032185191e-05 0 0.0067660572747871451 -6.4802670203036698e-05 0 0.0067383495525043481 0.00014475715243987777 0 0.013743919277567721 -0.00027942416164056678 0 0.014554658337840157 -0.00011720479901184892 0 0.014067189641462368 -7.3637790373686732e-05 0 0.013873154417862181 0.00018453366023399455 0 0.014244325933320135 -1.1748032973192751e-05 0 0.014067189641462368 -7.3637790373686732e-05 0 0.011647378902315701 -2.8824130584685454e-05 0 0.011739055855441364 4.3597865792795013e-06 0 0.011742975593252611 6.3098696459955609e-05 0 0.011608928269544929 4.593464785523924e-05 0 0.011647378902315701 -2.8824130584685454e-05 0 0.011742975593252611 6.3098696459955609e-05 0 0.014891552142181639 2.4024601599457109e-05 0 0.014879707183291058 1.595494390978642e-05 0 0.01488896633543934 2.2591874595691389e-05 0 0.013479928586049879 4.0646781055348975e-05 0 0.013172556013042727 0.00019033396755387529 0 0.014897466571868497 2.7332587845799296e-05 0 0.01488896633543934 2.2591874595691389e-05 0 0.014902093254184613 2.9590112491025907e-05 0 0.014897466571868497 2.7332587845799296e-05 0 0.014891552142181639 2.4024601599457109e-05 0 0.01488896633543934 2.2591874595691389e-05 0 0.01490367066389757 3.0584642433123203e-05 0 0.014897466571868497 2.7332587845799296e-05 0 0.014902093254184613 2.9590112491025907e-05 0 0.014901287627189567 2.960705411878369e-05 0 0.014897466571868497 2.7332587845799296e-05 0 0.014891552142181639 2.4024601599457109e-05 0 0.014901287627189567 2.960705411878369e-05 0 0.01490367066389757 3.0584642433123203e-05 0 0.014897466571868497 2.7332587845799296e-05 0 0.014891552142181639 2.4024601599457109e-05 0 0.014883003896463453 2.417996797661084e-05 0 0.014879707183291058 1.595494390978642e-05 0 0.014901287627189567 2.960705411878369e-05 0 0.014891552142181639 2.4024601599457109e-05 0 0.014883003896463453 2.417996797661084e-05 0 0.014894495620543234 3.3490790802505903e-05 0 0.014901287627189567 2.960705411878369e-05 0 0.014883003896463453 2.417996797661084e-05 0 0.013479928586049879 4.0646781055348975e-05 0 0.012179205216706268 -0.00011015556642155784 0 0.011608928269544929 4.593464785523924e-05 0 0.011486705553855184 2.9665167723214716e-05 0 0.011558279278798824 -5.7908025609414019e-05 0 0.014883003896463453 2.417996797661084e-05 0 0.014879707183291058 1.595494390978642e-05 0 0.014851002288830949 1.2228210612543101e-05 0 0.014894495620543234 3.3490790802505903e-05 0 0.014883003896463453 2.417996797661084e-05 0 0.014867293988382308 2.5397306205174292e-05 0 0.014883003896463453 2.417996797661084e-05 0 0.014867293988382308 2.5397306205174292e-05 0 0.014851002288830949 1.2228210612543101e-05 0 0.01486431232962087 3.1625231228195326e-05 0 0.014853957956684672 2.4378298356578351e-05 0 0.014867293988382308 2.5397306205174292e-05 0 0.014853957956684672 2.4378298356578351e-05 0 0.014867293988382308 2.5397306205174292e-05 0 0.014851002288830949 1.2228210612543101e-05 0 0.01368865059948471 -0.00023619910446221907 0 0.012179205216706268 -0.00011015556642155784 0 0.0092718281588668825 -0.00090233905450336357 0 0.0097174926707130384 -0.00085574706469732163 0 0.0089422675488579299 -0.00044201629297986307 0 0.012661061861692087 -0.00058658862252649701 0 0.01188829807995433 0.00019484419550979437 0 0.012359686958574138 0.00024273352864645731 0 0.01368865059948471 -0.00023619910446221907 0 0.010685773972570619 -0.00017151221444182852 0 0.012179205216706268 -0.00011015556642155784 0 0.010685773972570619 -0.00017151221444182852 0 0.0097174926707130384 -0.00085574706469732163 0 0.0092769791510599366 0.00031697281667861449 0 0.0089422675488579299 -0.00044201629297986307 0 0.0087389920237467365 -9.0913732783251696e-05 0 0.0088538395043876589 5.1847221549893984e-05 0 0.0089918339170883318 -0.00032008397626714019 0 0.010685773972570619 -0.00017151221444182852 0 0.0070781169930496778 -0.00032034675868505651 0 0.005349749325417175 -0.00039321933557620511 0 0.0051143535991159316 -0.00046918577626646458 0 0.0051532512022877995 -0.00023726107144269541 0 0.0070362681765620055 -0.00045412421228565854 0 0.0070781169930496778 -0.00032034675868505651 0 0.0050513646699639862 -0.00040717668106658549 0 0.0049252468017678989 -0.00030787490254230562 0 0.0050875059326657649 -0.00030924337337961727 0 0.0070781169930496778 -0.00032034675868505651 0 0.007553618248317409 -7.3564457488135756e-05 0 0.0051598817399434883 -0.00044693048453368634 0 0.0050513646699639862 -0.00040717668106658549 0 0.0050537289168294157 -0.00048629737292878568 0 0.0050513646699639862 -0.00040717668106658549 0 0.0050331469370427781 -0.00048795957977361393 0 0.0049252468017678989 -0.00030787490254230562 0 0.0092769791510599366 0.00031697281667861449 0 0.0087549792035573771 0.00012363816218956817 0 0.0089953051710435546 0.00014234569501182754 0 0.0075512249200499907 -2.9265521590964032e-05 0 0.0057120866963907523 -8.8911172386045139e-05 0 0.0051598817399434883 -0.00044693048453368634 0 0.0050513646699639862 -0.00040717668106658549 0 0.0050875059326657649 -0.00030924337337961727 0 0.0070781169930496778 -0.00032034675868505651 0 0.0051212609295694898 -0.00021807084819127167 0 0.0050513646699639862 -0.00040717668106658549 0 0.0050331469370427781 -0.00048795957977361393 0 0.0050537289168294157 -0.00048629737292878568 0 0.0092718281588668825 -0.00090233905450336357 0 0.0089422675488579299 -0.00044201629297986307 0 0.008392569393190873 -1.5926137272754734e-05 0 0.012179205216706268 -0.00011015556642155784 0 0.0091441316117460598 -2.2111079345841826e-05 0 0.0075512249200499907 -2.9265521590964032e-05 0 0.007948716536439927 0.00012918868433153149 0 0.0075512249200499907 -2.9265521590964032e-05 0 0.0091441316117460598 -2.2111079345841826e-05 0 0.0092769791510599366 0.00031697281667861449 0 0.0089953051710435546 0.00014234569501182754 0 0.0089422675488579299 -0.00044201629297986307 0 0.0078475971712081826 -0.00014153189589174607 0 0.008481600914054848 0.00016816857020225865 0 0.0087119670959164616 -6.7001263797446877e-05 0 0.0086525903752325151 0.0001142055848984414 0 0.0087578792270511189 0.00012298946657378489 0 0.0089422675488579299 -0.00044201629297986307 0 0.0086644979908098302 0.00011726923521251784 0 0.0089422675488579299 -0.00044201629297986307 0 0.008392569393190873 -1.5926137272754734e-05 0 0.0075512249200499907 -2.9265521590964032e-05 0 0.007553618248317409 -7.3564457488135756e-05 0 0.0087578792270511189 0.00012298946657378489 0 0.0089953051710435546 0.00014234569501182754 0 0.0089422675488579299 -0.00044201629297986307 0 0.007553618248317409 -7.3564457488135756e-05 0 0.0083669088608084238 1.4300474061674765e-05 0 0.0075512249200499907 -2.9265521590964032e-05 0 0.0087228621672830915 -0.00050906328528988441 0 0.011608928269544929 4.593464785523924e-05 0 0.011558279278798824 -5.7908025609414019e-05 0 0.011647378902315701 -2.8824130584685454e-05 0 0.007948716536439927 0.00012918868433153149 0 0.0076844044626036513 0.00014929303801842028 0 0.0091441316117460598 -2.2111079345841826e-05 0 0.010299628272122739 0.00019054430070682157 0 0.0088906309545764388 0.00038449231223609592 0 0.0088627116396225933 0.00041307325548402062 0 0.0086719002697031901 0.00030907557671717745 0 0.0088627116396225933 0.00041307325548402062 0 0.0086719002697031901 0.00030907557671717745 0 0.0085815176313802071 0.0004012189493711654 0 0.0091441316117460598 -2.2111079345841826e-05 0 0.007948716536439927 0.00012918868433153149 0 0.0067698374638982279 -0.00012109798194722168 0 0.0067069067856652016 -6.3064456876093223e-05 0 0.0065906441161477291 -0.00013220027594598919 0 0.0068327587688183974 -0.00011513589259504806 0 0.0067671899520913735 -0.00012076733702276322 0 0.0067069067856652016 -6.3064456876093223e-05 0 0.0068327587688183974 -0.00011513589259504806 0 0.0067069067856652016 -6.3064456876093223e-05 0 0.0067428413819875955 3.7499179103600265e-05 0 0.007948716536439927 0.00012918868433153149 0 0.0070052908076824608 0.0002563357117376256 0 0.0067069067856652016 -6.3064456876093223e-05 0 0.006619516034149832 4.95523979065333e-05 0 0.0067428413819875955 3.7499179103600265e-05 0 0.0067069067856652016 -6.3064456876093223e-05 0 0.0065972908156666258 -3.2800825515034163e-05 0 0.0065906441161477291 -0.00013220027594598919 0 0.0065972908156666258 -3.2800825515034163e-05 0 0.006619516034149832 4.95523979065333e-05 0 0.0064754881821499927 1.3540834583123785e-05 0 0.0065972908156666258 -3.2800825515034163e-05 0 0.0065906441161477291 -0.00013220027594598919 0 0.0064754881821499927 1.3540834583123785e-05 0 0.0067069067856652016 -6.3064456876093223e-05 0 0.0065972908156666258 -3.2800825515034163e-05 0 0.006619516034149832 4.95523979065333e-05 0 0.010299628272122739 0.00019054430070682157 0 0.010279439391880018 0.0001986237344524675 0 0.0086719002697031901 0.00030907557671717745 0 0.0084415955531582966 0.00022538656858708182 0 0.0084320861232024084 0.00031108751375802602 0 0.0086719002697031901 0.00030907557671717745 0 0.0085815176313802071 0.0004012189493711654 0 0.0084320861232024084 0.00031108751375802602 0 0.0065261854229353876 0.0001707443838659332 0 0.0066545255878463355 0.00018240058585589257 0 0.0065712824230945424 0.00032270672222098909 0 0.0057824692141825338 -4.9800006413705226e-06 0 0.0053648132548516159 0.00013923313503572745 0 0.0057219911706229976 0.00014046775376803808 0 0.0053648132548516159 0.00013923313503572745 0 0.0065261854229353876 0.0001707443838659332 0 0.006619516034149832 4.95523979065333e-05 0 0.0064754881821499927 1.3540834583123785e-05 0 0.0065261854229353876 0.0001707443838659332 0 0.006619516034149832 4.95523979065333e-05 0 0.0066545255878463355 0.00018240058585589257 0 0.006619516034149832 4.95523979065333e-05 0 0.0067428413819875955 3.7499179103600265e-05 0 0.0066545255878463355 0.00018240058585589257 0 0.0057120866963907523 -8.8911172386045139e-05 0 0.0057824692141825338 -4.9800006413705226e-06 0 0.0049252468017678989 -0.00030787490254230562 0 0.0048358672215763534 -0.00014159062386803482 0 0.0050114142426241712 -0.000184781501100611 0 0.0048358672215763534 -0.00014159062386803482 0 0.0050114142426241712 -0.000184781501100611 0 0.0049452703313459636 -1.2039415474586881e-05 0 0.0050114142426241712 -0.000184781501100611 0 0.005096557617819214 -5.6633622382557416e-05 0 0.0049452703313459636 -1.2039415474586881e-05 0 0.0050114142426241712 -0.000184781501100611 0 0.0050564253350966551 -0.00033085649564550893 0 0.0051532512022877995 -0.00023726107144269541 0 0.0049252468017678989 -0.00030787490254230562 0 0.0050114142426241712 -0.000184781501100611 0 0.0050875059326657649 -0.00030924337337961727 0 0.0050381023476965591 -0.00022583731525181036 0 0.0051212609295694898 -0.00021807084819127167 0 0.0051143535991159316 -0.00046918577626646458 0 0.0050564253350966551 -0.00033085649564550893 0 0.0051532512022877995 -0.00023726107144269541 0 0.0051532512022877995 -0.00023726107144269541 0 0.005096557617819214 -5.6633622382557416e-05 0 0.0052691623006956879 -0.00011333749811824595 0 0.0050114142426241712 -0.000184781501100611 0 0.0051532512022877995 -0.00023726107144269541 0 0.005096557617819214 -5.6633622382557416e-05 0 0.005096557617819214 -5.6633622382557416e-05 0 0.0050296995610251034 9.6737327666529793e-05 0 0.0051912095913022437 7.2383269613802992e-05 0 0.005096557617819214 -5.6633622382557416e-05 0 0.0052691623006956879 -0.00011333749811824595 0 0.0051912095913022437 7.2383269613802992e-05 0 0.0050296995610251034 9.6737327666529793e-05 0 0.0051912095913022437 7.2383269613802992e-05 0 0.0050774795986197659 0.00020127148856036647 0 0.0050296995610251034 9.6737327666529793e-05 0 0.0049686044891317132 0.00018289208772764512 0 0.0050774795986197659 0.00020127148856036647 0 0.0049686044891317132 0.00018289208772764512 0 0.0049187348046618364 0.00011666851497177017 0 0.0048860315612968405 0.00021820022305514138 0 0.0050296995610251034 9.6737327666529793e-05 0 0.0049686044891317132 0.00018289208772764512 0 0.0049187348046618364 0.00011666851497177017 0 0.0050296995610251034 9.6737327666529793e-05 0 0.0049452703313459636 -1.2039415474586881e-05 0 0.0049187348046618364 0.00011666851497177017 0 0.005096557617819214 -5.6633622382557416e-05 0 0.0050296995610251034 9.6737327666529793e-05 0 0.0049452703313459636 -1.2039415474586881e-05 0 0.0049452703313459636 -1.2039415474586881e-05 0 0.0048531711250224098 4.5612683714724935e-05 0 0.0049187348046618364 0.00011666851497177017 0 0.0048358672215763534 -0.00014159062386803482 0 0.0048531711250224098 4.5612683714724935e-05 0 0.0047646570249578017 2.282265237089527e-05 0 0.0048358672215763534 -0.00014159062386803482 0 0.0049452703313459636 -1.2039415474586881e-05 0 0.0048531711250224098 4.5612683714724935e-05 0 0.0049187348046618364 0.00011666851497177017 0 0.0048416568371977891 0.00014854058195542096 0 0.0048860315612968405 0.00021820022305514138 0 0.0048531711250224098 4.5612683714724935e-05 0 0.0049187348046618364 0.00011666851497177017 0 0.0048416568371977891 0.00014854058195542096 0 0.0048531711250224098 4.5612683714724935e-05 0 0.0048416568371977891 0.00014854058195542096 0 0.0048032338327583619 0.00010520453464817901 0 0.0053648132548516159 0.00013923313503572745 0 0.0046858485930364093 0.00018952520792530611 0 0.0048435458511780658 9.8048137386677291e-05 0 0.004782412583619681 0.00012402075081827444 0 0.0047732539225312648 0.00016354123889275523 0 0.0048032338327583619 0.00010520453464817901 0 0.0047901314350542448 6.79798791357456e-05 0 0.0047732539225312648 0.00016354123889275523 0 0.0048416568371977891 0.00014854058195542096 0 0.004795275883310612 0.00016998278137869206 0 0.0048140056719847999 0.00021399823405221068 0 0.0048416568371977891 0.00014854058195542096 0 0.0048032338327583619 0.00010520453464817901 0 0.004795275883310612 0.00016998278137869206 0 0.0048032338327583619 0.00010520453464817901 0 0.004795275883310612 0.00016998278137869206 0 0.0047732539225312648 0.00016354123889275523 0 0.0048359308846906875 2.2774440860577529e-05 0 0.0048435458511780658 9.8048137386677291e-05 0 0.0047799946421837412 8.4388539042604734e-05 0 0.0049784097772893419 -8.7138817074157453e-06 0 0.0053648132548516159 0.00013923313503572745 0 0.0048531711250224098 4.5612683714724935e-05 0 0.0048032338327583619 0.00010520453464817901 0 0.0047646570249578017 2.282265237089527e-05 0 0.0057136371329069473 -8.7319097885622102e-05 0 0.0056196431164922773 -0.00032244276086576253 0 0.0054760447967192906 -0.00017394363097113583 0 0.0057136371329069473 -8.7319097885622102e-05 0 0.0054760447967192906 -0.00017394363097113583 0 0.0054448929942966795 2.206076689985269e-05 0 0.00561140174134104 -5.7465828515957771e-05 0 0.0063497612391546811 -0.00055017596550463043 0 0.0057136371329069473 -8.7319097885622102e-05 0 0.0059512421409297044 -0.00011992382957894769 0 0.0058944252823074205 3.9548290242043712e-05 0 0.0057136371329069473 -8.7319097885622102e-05 0 0.0059512421409297044 -0.00011992382957894769 0 0.0057938695720133422 -0.00028264643007236764 0 0.0058171568338679664 -0.00039546958693417093 0 0.0057938695720133422 -0.00028264643007236764 0 0.0059839268279757293 -0.00032881852427589839 0 0.0059512421409297044 -0.00011992382957894769 0 0.0057938695720133422 -0.00028264643007236764 0 0.0059839268279757293 -0.00032881852427589839 0 0.0057136371329069473 -8.7319097885622102e-05 0 0.0057938695720133422 -0.00028264643007236764 0 0.0056990179615177368 -0.00032108480366228192 0 0.0058171568338679664 -0.00039546958693417093 0 0.0057938695720133422 -0.00028264643007236764 0 0.0057608455258626023 -0.00031610315328441774 0 0.0058079949423330557 -0.00047895435673443677 0 0.0063497612391546811 -0.00055017596550463043 0 0.005349749325417175 -0.00039321933557620511 0 0.0056196431164922773 -0.00032244276086576253 0 0.0054760447967192906 -0.00017394363097113583 0 0.0070362681765620055 -0.00045412421228565854 0 0.0063497612391546811 -0.00055017596550463043 0 0.005349749325417175 -0.00039321933557620511 0 0.0052691623006956879 -0.00011333749811824595 0 0.0054760447967192906 -0.00017394363097113583 0 0.005349749325417175 -0.00039321933557620511 0 0.0051532512022877995 -0.00023726107144269541 0 0.0052691623006956879 -0.00011333749811824595 0 0.0052691623006956879 -0.00011333749811824595 0 0.0054760447967192906 -0.00017394363097113583 0 0.0054448929942966795 2.206076689985269e-05 0 0.0052691623006956879 -0.00011333749811824595 0 0.0054448929942966795 2.206076689985269e-05 0 0.0051912095913022437 7.2383269613802992e-05 0 0.0054448929942966795 2.206076689985269e-05 0 0.0051912095913022437 7.2383269613802992e-05 0 0.0052840732939179605 0.00021306445849534158 0 0.0051912095913022437 7.2383269613802992e-05 0 0.0052840732939179605 0.00021306445849534158 0 0.0050774795986197659 0.00020127148856036647 0 0.0054448929942966795 2.206076689985269e-05 0 0.0052840732939179605 0.00021306445849534158 0 0.0056810042033312762 0.0001980240127670681 0 0.0057136371329069473 -8.7319097885622102e-05 0 0.0054448929942966795 2.206076689985269e-05 0 0.0056810042033312762 0.0001980240127670681 0 0.0057136371329069473 -8.7319097885622102e-05 0 0.0056810042033312762 0.0001980240127670681 0 0.0058944252823074205 3.9548290242043712e-05 0 0.0056810042033312762 0.0001980240127670681 0 0.0060096423586589193 0.00017648920984673225 0 0.0059096379481842209 0.00033699486221544392 0 0.0056810042033312762 0.0001980240127670681 0 0.0058944252823074205 3.9548290242043712e-05 0 0.0060096423586589193 0.00017648920984673225 0 0.0060096423586589193 0.00017648920984673225 0 0.0062035201507862053 0.00016221948864433619 0 0.0061623917343988505 4.1186036026609879e-05 0 0.0060096423586589193 0.00017648920984673225 0 0.0062035201507862053 0.00016221948864433619 0 0.0061554442214790317 0.00031966073567712538 0 0.0062035201507862053 0.00016221948864433619 0 0.0061623917343988505 4.1186036026609879e-05 0 0.006330145386921511 8.8581624140432965e-05 0 0.0059512421409297044 -0.00011992382957894769 0 0.0058944252823074205 3.9548290242043712e-05 0 0.0061623917343988505 4.1186036026609879e-05 0 0.0058944252823074205 3.9548290242043712e-05 0 0.0060096423586589193 0.00017648920984673225 0 0.0061623917343988505 4.1186036026609879e-05 0 0.0059512421409297044 -0.00011992382957894769 0 0.006268471110751502 -0.0001214725896547399 0 0.0059839268279757293 -0.00032881852427589839 0 0.0059512421409297044 -0.00011992382957894769 0 0.0061623917343988505 4.1186036026609879e-05 0 0.006268471110751502 -0.0001214725896547399 0 0.0061623917343988505 4.1186036026609879e-05 0 0.006268471110751502 -0.0001214725896547399 0 0.0063132401191131476 -1.1452837656023353e-05 0 0.006268471110751502 -0.0001214725896547399 0 0.0063413191181970075 -5.1484078337836161e-05 0 0.0063132401191131476 -1.1452837656023353e-05 0 0.006268471110751502 -0.0001214725896547399 0 0.0063669972703381912 -7.6277682348929531e-05 0 0.0063413191181970075 -5.1484078337836161e-05 0 0.0063669972703381912 -7.6277682348929531e-05 0 0.0063413191181970075 -5.1484078337836161e-05 0 0.0063781970349567011 -3.879364422055336e-05 0 0.0063669972703381912 -7.6277682348929531e-05 0 0.0065350340629778654 -0.00012912696820356335 0 0.006475194733711733 -4.5912925084566171e-05 0 0.0062660797368707952 -0.00014954687907591831 0 0.0063112437711340015 -0.00018485362859309664 0 0.006268471110751502 -0.0001214725896547399 0 0.0063669972703381912 -7.6277682348929531e-05 0 0.0065350340629778654 -0.00012912696820356335 0 0.0064272298366791119 3.1951608940786406e-05 0 0.006486437969960822 0.00013161285984175381 0 0.0065574840217375785 0.00014248646918865903 0 0.0063413191181970075 -5.1484078337836161e-05 0 0.0064272298366791119 3.1951608940786406e-05 0 0.0063700151109562326 -4.0755345698909689e-05 0 0.0065022863663545495 4.8364722960145844e-05 0 0.0061662872593890704 6.156501040622445e-05 0 0.0063413191181970075 -5.1484078337836161e-05 0 0.0063132401191131476 -1.1452837656023353e-05 0 0.0064272298366791119 3.1951608940786406e-05 0 0.0063132401191131476 -1.1452837656023353e-05 0 0.0064272298366791119 3.1951608940786406e-05 0 0.006330145386921511 8.8581624140432965e-05 0 0.0064272298366791119 3.1951608940786406e-05 0 0.006330145386921511 8.8581624140432965e-05 0 0.0064113389616770322 8.9744628671518842e-05 0 0.006330145386921511 8.8581624140432965e-05 0 0.0063880338735688297 0.0001267526139181827 0 0.0064113389616770322 8.9744628671518842e-05 0 0.0061623917343988505 4.1186036026609879e-05 0 0.0063132401191131476 -1.1452837656023353e-05 0 0.006330145386921511 8.8581624140432965e-05 0 0.0062035201507862053 0.00016221948864433619 0 0.006330145386921511 8.8581624140432965e-05 0 0.006313199270616434 0.00019987308229253662 0 0.006330145386921511 8.8581624140432965e-05 0 0.006313199270616434 0.00019987308229253662 0 0.0063880338735688297 0.0001267526139181827 0 0.0063880338735688297 0.0001267526139181827 0 0.0063946939931254681 0.00011594264631465163 0 0.0063397555936052204 8.7593486886659624e-05 0 0.0063880338735688297 0.0001267526139181827 0 0.0063946939931254681 0.00011594264631465163 0 0.0064113389616770322 8.9744628671518842e-05 0 0.0062060942588717596 9.7904485609790813e-05 0 0.0062820291418948324 8.3161600484382703e-05 0 0.006264086560933765 0.00011089462846712104 0 0.0062820291418948324 8.3161600484382703e-05 0 0.0063155912998331433 0.00011540741600455943 0 0.006264086560933765 0.00011089462846712104 0 0.0062820291418948324 8.3161600484382703e-05 0 0.0063397555936052204 8.7593486886659624e-05 0 0.0063155912998331433 0.00011540741600455943 0 0.0063946939931254681 0.00011594264631465163 0 0.0063155912998331433 0.00011540741600455943 0 0.0062664635508882472 0.00018560668129844943 0 0.0063946939931254681 0.00011594264631465163 0 0.0063397555936052204 8.7593486886659624e-05 0 0.0063155912998331433 0.00011540741600455943 0 0.0062060942588717596 9.7904485609790813e-05 0 0.0062485574006823493 0.00015194944611243775 0 0.006264086560933765 0.00011089462846712104 0 0.0063155912998331433 0.00011540741600455943 0 0.0062485574006823493 0.00015194944611243775 0 0.0062664635508882472 0.00018560668129844943 0 0.0063155912998331433 0.00011540741600455943 0 0.0062485574006823493 0.00015194944611243775 0 0.006264086560933765 0.00011089462846712104 0 0.0064237080400219478 0.00011080535784341573 0 0.0064364928066208728 0.0001247485457141713 0 0.0064213625798059185 0.00013063986782011448 0 0.0063933322932124255 0.0001189952407776481 0 0.006343751311229536 0.00014444518978794918 0 0.0063946939931254681 0.00011594264631465163 0 0.0064237080400219478 0.00011080535784341573 0 0.0064364928066208728 0.0001247485457141713 0 0.0064364928066208728 0.0001247485457141713 0 0.0064654852357937335 0.00014605995365891188 0 0.0064521552294999757 0.00016243531841713307 0 0.0064364928066208728 0.0001247485457141713 0 0.0064292522194847601 0.00017893135187466435 0 0.0064521552294999757 0.00016243531841713307 0 0.0063932641667973642 0.00014218864023523488 0 0.0064237080400219478 0.00011080535784341573 0 0.0064213625798059185 0.00013063986782011448 0 0.0064364928066208728 0.0001247485457141713 0 0.0064213625798059185 0.00013063986782011448 0 0.0064292522194847601 0.00017893135187466435 0 0.0063932641667973642 0.00014218864023523488 0 0.0064213625798059185 0.00013063986782011448 0 0.0064292522194847601 0.00017893135187466435 0 0.0064272298366791119 3.1951608940786406e-05 0 0.0064113389616770322 8.9744628671518842e-05 0 0.0064391793710950824 9.8661511316365898e-05 0 0.0063946939931254681 0.00011594264631465163 0 0.0064113389616770322 8.9744628671518842e-05 0 0.0064391793710950824 9.8661511316365898e-05 0 0.0063946939931254681 0.00011594264631465163 0 0.0064364928066208728 0.0001247485457141713 0 0.0064391793710950824 9.8661511316365898e-05 0 0.0064364928066208728 0.0001247485457141713 0 0.0064391793710950824 9.8661511316365898e-05 0 0.0064654852357937335 0.00014605995365891188 0 0.0064391793710950824 9.8661511316365898e-05 0 0.006486437969960822 0.00013161285984175381 0 0.0064654852357937335 0.00014605995365891188 0 0.0064272298366791119 3.1951608940786406e-05 0 0.0064391793710950824 9.8661511316365898e-05 0 0.006486437969960822 0.00013161285984175381 0 0.006486437969960822 0.00013161285984175381 0 0.0065103163653213551 0.00019234275998438239 0 0.0065551088699101348 0.00019119877349948604 0 0.006486437969960822 0.00013161285984175381 0 0.0064654852357937335 0.00014605995365891188 0 0.0065103163653213551 0.00019234275998438239 0 0.0064654852357937335 0.00014605995365891188 0 0.0065103163653213551 0.00019234275998438239 0 0.006472894276687389 0.00020127707487509764 0 0.0065103163653213551 0.00019234275998438239 0 0.0065551088699101348 0.00019119877349948604 0 0.0065689657136361905 0.0002376944644978899 0 0.0064292522194847601 0.00017893135187466435 0 0.006472894276687389 0.00020127707487509764 0 0.0064521552294999757 0.00016243531841713307 0 0.0064654852357937335 0.00014605995365891188 0 0.006472894276687389 0.00020127707487509764 0 0.0064521552294999757 0.00016243531841713307 0 0.0064345174677813491 0.00029560671309158601 0 0.006472894276687389 0.00020127707487509764 0 0.0065066284383763816 0.00024430371299985325 0 0.0065103163653213551 0.00019234275998438239 0 0.006472894276687389 0.00020127707487509764 0 0.0065066284383763816 0.00024430371299985325 0 0.0064345174677813491 0.00029560671309158601 0 0.0064292522194847601 0.00017893135187466435 0 0.006472894276687389 0.00020127707487509764 0 0.014392387553359667 -3.6624365232204811e-05 0 0.014361163631106517 -0.00039679111752658901 0 0.014539554245030093 -6.1744198306589652e-05 0 0.010424416916927646 -4.3527075730547435e-05 0 0.010329419357108649 6.6858106179506826e-05 0 0.014361163631106517 -0.00039679111752658901 0 0.014539554245030093 -6.1744198306589652e-05 0 0.014616420327957354 -6.90134191547061e-05 0 0.014616420327957354 -6.90134191547061e-05 0 0.01459009113605181 -5.4718716419072485e-06 0 0.014602222664393929 -3.5476203253577784e-05 0 0.014539554245030093 -6.1744198306589652e-05 0 0.014616420327957354 -6.90134191547061e-05 0 0.01459009113605181 -5.4718716419072485e-06 0 0.01459009113605181 -5.4718716419072485e-06 0 0.014602222664393929 -3.5476203253577784e-05 0 0.014606590163029161 3.131118367728215e-05 0 0.014584561024266302 5.2367880965300243e-05 0 0.01459009113605181 -5.4718716419072485e-06 0 0.014606590163029161 3.131118367728215e-05 0 0.014584561024266302 5.2367880965300243e-05 0 0.01459009113605181 -5.4718716419072485e-06 0 0.01455270552255142 5.4822073338242127e-05 0 0.014539554245030093 -6.1744198306589652e-05 0 0.01459009113605181 -5.4718716419072485e-06 0 0.01455270552255142 5.4822073338242127e-05 0 0.014578200622926574 7.7330105762377107e-05 0 0.014584561024266302 5.2367880965300243e-05 0 0.01455270552255142 5.4822073338242127e-05 0 0.014515709424265555 0.00015616333004788647 0 0.014578200622926574 7.7330105762377107e-05 0 0.01455270552255142 5.4822073338242127e-05 0 0.014515709424265555 0.00015616333004788647 0 0.014392387553359667 -3.6624365232204811e-05 0 0.01455270552255142 5.4822073338242127e-05 0 0.014392387553359667 -3.6624365232204811e-05 0 0.014539554245030093 -6.1744198306589652e-05 0 0.01455270552255142 5.4822073338242127e-05 0 0.0065103163653213551 0.00019234275998438239 0 0.0065066284383763816 0.00024430371299985325 0 0.0065689657136361905 0.0002376944644978899 0 0.011495172090225752 8.3885781004815738e-05 0 0.015803360505411989 -0.00024580816816105309 0 0.014616420327957354 -6.90134191547061e-05 0 0.014467738475156118 -8.2579903421471181e-06 0 0.014602222664393929 -3.5476203253577784e-05 0 0.010329419357108649 6.6858106179506826e-05 0 0.011495172090225752 8.3885781004815738e-05 0 0.014658245218063472 2.8557575171298645e-05 0 0.014655975876630922 -3.5209975551342265e-05 0 0.014602222664393929 -3.5476203253577784e-05 0 0.014658245218063472 2.8557575171298645e-05 0 0.014602222664393929 -3.5476203253577784e-05 0 0.014606590163029161 3.131118367728215e-05 0 0.014658245218063472 2.8557575171298645e-05 0 0.014655975876630922 -3.5209975551342265e-05 0 0.014699244788486325 1.3636230797934602e-05 0 0.014699244788486325 1.3636230797934602e-05 0 0.014736481291462867 -6.3441782626941811e-06 0 0.014749512459490478 4.5888805997325744e-05 0 0.014731379513197708 5.0661929148411288e-05 0 0.014699244788486325 1.3636230797934602e-05 0 0.014749512459490478 4.5888805997325744e-05 0 0.011495172090225752 8.3885781004815738e-05 0 0.0090955049956708642 -0.00011473909879104483 0 0.014655975876630922 -3.5209975551342265e-05 0 0.014699244788486325 1.3636230797934602e-05 0 0.014736481291462867 -6.3441782626941811e-06 0 0.0065551088699101348 0.00019119877349948604 0 0.0065689657136361905 0.0002376944644978899 0 0.0066208980733136451 0.00021791789306076055 0 0.011341645488372878 -1.9041671232185163e-05 0 0.011478510118057323 -6.149337464253454e-05 0 0.0115002643655712 1.3355176625337118e-05 0 0.011495172090225752 8.3885781004815738e-05 0 0.013687219732258352 0.00024943190818813498 0 0.013889792216694541 -6.2634177580060611e-05 0 0.013692187765257198 0.00011843517895259321 0 0.014169097285519981 0.00015077432034757003 0 0.01362432507768694 -0.00016823543567591842 0 0.013889792216694541 -6.2634177580060611e-05 0 0.014022825117602227 -0.00026822433339147958 0 0.013687219732258352 0.00024943190818813498 0 0.014529448908050805 0.0001254222586265609 0 0.013889792216694541 -6.2634177580060611e-05 0 0.014093704218433589 -8.0039982272607231e-05 0 0.014022825117602227 -0.00026822433339147958 0 0.0090955049956708642 -0.00011473909879104483 0 0.013687219732258352 0.00024943190818813498 0 0.01362432507768694 -0.00016823543567591842 0 0.013889792216694541 -6.2634177580060611e-05 0 0.013692187765257198 0.00011843517895259321 0 0.014753311644781185 8.9747199269724887e-05 0 0.014749512459490478 4.5888805997325744e-05 0 0.014709555693567321 9.9211874418768536e-05 0 0.013687219732258352 0.00024943190818813498 0 0.01452192438477529 8.0764266419663038e-05 0 0.014529448908050805 0.0001254222586265609 0 0.01452237410580702 9.6736191834522582e-05 0 0.014719294211695162 5.5689914180672726e-05 0 0.014709555693567321 9.9211874418768536e-05 0 0.014582300629826312 8.9022694381739461e-05 0 0.014719294211695162 5.5689914180672726e-05 0 0.014749512459490478 4.5888805997325744e-05 0 0.014709555693567321 9.9211874418768536e-05 0 0.014689463635942002 5.3921309025207232e-05 0 0.014719294211695162 5.5689914180672726e-05 0 0.014582300629826312 8.9022694381739461e-05 0 0.014169097285519981 0.00015077432034757003 0 0.014582300629826312 8.9022694381739461e-05 0 0.014502617028844516 -4.8177774426401285e-05 0 0.014584778268607386 -1.5285790304766779e-05 0 0.014582300629826312 8.9022694381739461e-05 0 0.014502617028844516 -4.8177774426401285e-05 0 0.014440085638456947 -0.00012248764824553557 0 0.014502617028844516 -4.8177774426401285e-05 0 0.014275099394265389 -0.00012046253911101795 0 0.014440085638456947 -0.00012248764824553557 0 0.014502617028844516 -4.8177774426401285e-05 0 0.01450078698003901 -0.00011270478913675866 0 0.014584778268607386 -1.5285790304766779e-05 0 0.014502617028844516 -4.8177774426401285e-05 0 0.014542553138334472 -7.4211993582026223e-05 0 0.014502617028844516 -4.8177774426401285e-05 0 0.01450078698003901 -0.00011270478913675866 0 0.014542553138334472 -7.4211993582026223e-05 0 0.014536976104667441 -0.00010085315371735169 0 0.01450078698003901 -0.00011270478913675866 0 0.014542553138334472 -7.4211993582026223e-05 0 0.014169097285519981 0.00015077432034757003 0 0.014502617028844516 -4.8177774426401285e-05 0 0.014275099394265389 -0.00012046253911101795 0 0.013889792216694541 -6.2634177580060611e-05 0 0.014169097285519981 0.00015077432034757003 0 0.014093704218433589 -8.0039982272607231e-05 0 0.014169097285519981 0.00015077432034757003 0 0.014275099394265389 -0.00012046253911101795 0 0.014093704218433589 -8.0039982272607231e-05 0 0.014275099394265389 -0.00012046253911101795 0 0.014093704218433589 -8.0039982272607231e-05 0 0.014022825117602227 -0.00026822433339147958 0 0.014275099394265389 -0.00012046253911101795 0 0.014022825117602227 -0.00026822433339147958 0 0.014464772180423259 -0.00021114452143797193 0 0.0064075993556348392 4.3687617890599346e-05 0 0.0064555123963297035 2.7906334470347011e-05 0 0.0065281484151019729 8.0443108346834856e-05 0 0.0068749089328778009 -5.9186998542072621e-05 0 0.0065101767714350056 5.802507795345735e-05 0 0.0065281484151019729 8.0443108346834856e-05 0 0.0088094466879826121 -0.00012783364450532267 0 0.010776600171609417 -8.7757326492013608e-05 0 0.0088094466879826121 -0.00012783364450532267 0 0.0057954505816737393 0.00025574489336056317 0 0.0064075993556348392 4.3687617890599346e-05 0 0.0064555123963297035 2.7906334470347011e-05 0 0.0064126946637475396 4.2427751079064327e-06 0 0.0067383495525043481 0.00014475715243987777 0 0.0065101767714350056 5.802507795345735e-05 0 0.0065636693989883877 5.9853793864402273e-05 0 0.014536976104667441 -0.00010085315371735169 0 0.01450078698003901 -0.00011270478913675866 0 0.014464772180423259 -0.00021114452143797193 0 0.014440085638456947 -0.00012248764824553557 0 0.014275099394265389 -0.00012046253911101795 0 0.014464772180423259 -0.00021114452143797193 0 0.014440085638456947 -0.00012248764824553557 0 0.01450078698003901 -0.00011270478913675866 0 0.014464772180423259 -0.00021114452143797193 0 0.0064555123963297035 2.7906334470347011e-05 0 0.0065281484151019729 8.0443108346834856e-05 0 0.0065133074232980219 1.7350552723318922e-05 0 0.0065281484151019729 8.0443108346834856e-05 0 0.0065636693989883877 5.9853793864402273e-05 0 0.0065133074232980219 1.7350552723318922e-05 0 0.0065101767714350056 5.802507795345735e-05 0 0.0065281484151019729 8.0443108346834856e-05 0 0.0065636693989883877 5.9853793864402273e-05 0 0.0066117549008954304 2.408342244243404e-05 0 0.0065133074232980219 1.7350552723318922e-05 0 0.0065721919907629298 -4.0753454943046845e-05 0 0.0066117549008954304 2.408342244243404e-05 0 0.0065636693989883877 5.9853793864402273e-05 0 0.0065133074232980219 1.7350552723318922e-05 0 0.0065133074232980219 1.7350552723318922e-05 0 0.006475194733711733 -4.5912925084566171e-05 0 0.0064267017848606712 -1.9893793861556825e-05 0 0.0065133074232980219 1.7350552723318922e-05 0 0.006475194733711733 -4.5912925084566171e-05 0 0.0065721919907629298 -4.0753454943046845e-05 0 0.0065350340629778654 -0.00012912696820356335 0 0.006475194733711733 -4.5912925084566171e-05 0 0.0065721919907629298 -4.0753454943046845e-05 0 0.0064126946637475396 4.2427751079064327e-06 0 0.0063781970349567011 -3.879364422055336e-05 0 0.0063935140450021005 5.8390987760396072e-07 0 0.0064126946637475396 4.2427751079064327e-06 0 0.0064267017848606712 -1.9893793861556825e-05 0 0.0063781970349567011 -3.879364422055336e-05 0 0.0064555123963297035 2.7906334470347011e-05 0 0.0065133074232980219 1.7350552723318922e-05 0 0.0064267017848606712 -1.9893793861556825e-05 0 0.0064555123963297035 2.7906334470347011e-05 0 0.0064126946637475396 4.2427751079064327e-06 0 0.0064267017848606712 -1.9893793861556825e-05 0 0.0063669972703381912 -7.6277682348929531e-05 0 0.0064267017848606712 -1.9893793861556825e-05 0 0.0063781970349567011 -3.879364422055336e-05 0 0.0063669972703381912 -7.6277682348929531e-05 0 0.006475194733711733 -4.5912925084566171e-05 0 0.0064267017848606712 -1.9893793861556825e-05 0 0.0063413191181970075 -5.1484078337836161e-05 0 0.0063781970349567011 -3.879364422055336e-05 0 0.0063700151109562326 -4.0755345698909689e-05 0 0.0063781970349567011 -3.879364422055336e-05 0 0.0063700151109562326 -4.0755345698909689e-05 0 0.0063935140450021005 5.8390987760396072e-07 0 0.006486437969960822 0.00013161285984175381 0 0.0065551088699101348 0.00019119877349948604 0 0.0065574840217375785 0.00014248646918865903 0 0.0090955049956708642 -0.00011473909879104483 0 0.0061662872593890704 6.156501040622445e-05 0 0.0065551088699101348 0.00019119877349948604 0 0.0066208980733136451 0.00021791789306076055 0 0.0065574840217375785 0.00014248646918865903 0 0.0090955049956708642 -0.00011473909879104483 0 0.0088094466879826121 -0.00012783364450532267 0 0.0063831070813164126 4.5348827149627749e-05 0 0.0064526596662558017 3.1017979198937542e-05 0 0.0064076337483444969 3.0617402907721897e-05 0 0.0063700151109562326 -4.0755345698909689e-05 0 0.0064076337483444969 3.0617402907721897e-05 0 0.0063935140450021005 5.8390987760396072e-07 0 0.0063831070813164126 4.5348827149627749e-05 0 0.0063700151109562326 -4.0755345698909689e-05 0 0.0064076337483444969 3.0617402907721897e-05 0 0.0088094466879826121 -0.00012783364450532267 0 0.0063090133086783837 8.661701786843743e-05 0 0.0064075993556348392 4.3687617890599346e-05 0 0.0064076337483444969 3.0617402907721897e-05 0 0.0063935140450021005 5.8390987760396072e-07 0 0.0064075993556348392 4.3687617890599346e-05 0 0.0064126946637475396 4.2427751079064327e-06 0 0.0063935140450021005 5.8390987760396072e-07 0 0.0094267914561491171 0.0010127578882447351 0 0.0096724051451739963 0.00077452864663169049 0 0.0095421882180434948 0.00063257271311672049 0 0.01054840047219153 0.0004641654710403068 0 0.011257400156243838 0.00047989837265710708 0 0.012091125979593942 -2.9092080404443434e-05 0 0.011866132393361031 -7.2231058186577959e-05 0 0.011976022128216851 5.5033904546792042e-05 0 0.0094267914561491171 0.0010127578882447351 0 0.0093675297857462748 0.0010763595831608378 0 0.0095421882180434948 0.00063257271311672049 0 0.0094267914561491171 0.0010127578882447351 0 0.0095391630282985213 0.0010277483639445106 0 0.0095416699781954804 0.0010955711400793932 0 0.0094267914561491171 0.0010127578882447351 0 0.0095391630282985213 0.0010277483639445106 0 0.0095966191079939912 0.00096183567452425489 0 0.0095391630282985213 0.0010277483639445106 0 0.0095416699781954804 0.0010955711400793932 0 0.0095968080811555459 0.0010364515631370722 0 0.0095391630282985213 0.0010277483639445106 0 0.0095966191079939912 0.00096183567452425489 0 0.0095968080811555459 0.0010364515631370722 0 0.0094267914561491171 0.0010127578882447351 0 0.0095966191079939912 0.00096183567452425489 0 0.0096724051451739963 0.00077452864663169049 0 0.012091125979593942 -2.9092080404443434e-05 0 0.011979888052970126 -3.8742263893620222e-07 0 0.011866132393361031 -7.2231058186577959e-05 0 0.011979888052970126 -3.8742263893620222e-07 0 0.011866132393361031 -7.2231058186577959e-05 0 0.011082479909932361 7.0124899517363666e-08 0 0.01054840047219153 0.0004641654710403068 0 0.010409589449156003 0.0003599785195618361 0 0.0093675297857462748 0.0010763595831608378 0 0.0093295014142891035 0.0010183738863631254 0 0.0093904070634223003 0.00090394184759116068 0 0.0093675297857462748 0.0010763595831608378 0 0.0093904070634223003 0.00090394184759116068 0 0.0096381315545645083 0.0008196129046565613 0 0.0094267914561491171 0.0010127578882447351 0 0.0093675297857462748 0.0010763595831608378 0 0.0093295014142891035 0.0010183738863631254 0 0.0094521774160252342 0.0010920541422914831 0 0.0092735905588244745 0.00088888762997220015 0 0.0094267914561491171 0.0010127578882447351 0 0.0092727254602749821 0.0010141604783602282 0 0.009167498011487675 0.0010191801112985142 0 0.0094267914561491171 0.0010127578882447351 0 0.0095416699781954804 0.0010955711400793932 0 0.0096373938533946008 0.0012280199170508939 0 0.0094267914561491171 0.0010127578882447351 0 0.0093295014142891035 0.0010183738863631254 0 0.0092727254602749821 0.0010141604783602282 0 0.0095416699781954804 0.0010955711400793932 0 0.0096270803160002534 0.0010901237418942248 0 0.0096057476246322569 0.0011417982231231051 0 0.0095416699781954804 0.0010955711400793932 0 0.0096270803160002534 0.0010901237418942248 0 0.0095968080811555459 0.0010364515631370722 0 0.0093295014142891035 0.0010183738863631254 0 0.0092720392162139783 0.00096237288579615525 0 0.0093904070634223003 0.00090394184759116068 0 0.0092727254602749821 0.0010141604783602282 0 0.0092720392162139783 0.00096237288579615525 0 0.009167498011487675 0.0010191801112985142 0 0.0093295014142891035 0.0010183738863631254 0 0.0092727254602749821 0.0010141604783602282 0 0.0092720392162139783 0.00096237288579615525 0 0.0092720392162139783 0.00096237288579615525 0 0.009167498011487675 0.0010191801112985142 0 0.0091747145209936445 0.00086869073745827054 0 0.0092735905588244745 0.00088888762997220015 0 0.0093687072598190972 0.00085986972431035375 0 0.0096373938533946008 0.0012280199170508939 0 0.009757788226620984 0.0011867957714717856 0 0.010024122980743611 0.0012803161289468197 0 0.0096373938533946008 0.0012280199170508939 0 0.0096057476246322569 0.0011417982231231051 0 0.0096334291093563649 0.001176970511829044 0 0.0096373938533946008 0.0012280199170508939 0 0.0096498894459460752 0.0011982858983367979 0 0.0096334291093563649 0.001176970511829044 0 0.0096498894459460752 0.0011982858983367979 0 0.0096779323745352416 0.0011918875664604558 0 0.0096334291093563649 0.001176970511829044 0 0.0096373938533946008 0.0012280199170508939 0 0.0096498894459460752 0.0011982858983367979 0 0.0096779323745352416 0.0011918875664604558 0 0.0096373938533946008 0.0012280199170508939 0 0.0096779323745352416 0.0011918875664604558 0 0.009757788226620984 0.0011867957714717856 0 0.0096779323745352416 0.0011918875664604558 0 0.009757788226620984 0.0011867957714717856 0 0.0096868059086913025 0.0011597029762592445 0 0.009757788226620984 0.0011867957714717856 0 0.0097457191005662636 0.0011185780814259164 0 0.0096868059086913025 0.0011597029762592445 0 0.0098723113803327687 0.0011276224752098058 0 0.0099258444835235073 0.00098942834213190775 0 0.0097835972131598056 0.0010440026949367731 0 0.009757788226620984 0.0011867957714717856 0 0.0097457191005662636 0.0011185780814259164 0 0.0098723113803327687 0.0011276224752098058 0 0.0097457191005662636 0.0011185780814259164 0 0.0098723113803327687 0.0011276224752098058 0 0.0097835972131598056 0.0010440026949367731 0 0.0097457191005662636 0.0011185780814259164 0 0.0097033586777916774 0.0010780373225132624 0 0.0097835972131598056 0.0010440026949367731 0 0.0097457191005662636 0.0011185780814259164 0 0.0097033586777916774 0.0010780373225132624 0 0.00967139146632961 0.0011151389750065971 0 0.0095416699781954804 0.0010955711400793932 0 0.0096373938533946008 0.0012280199170508939 0 0.0096057476246322569 0.0011417982231231051 0 0.0097033586777916774 0.0010780373225132624 0 0.0096270803160002534 0.0010901237418942248 0 0.0096875291469006117 0.0010068521579057921 0 0.0097033586777916774 0.0010780373225132624 0 0.0096270803160002534 0.0010901237418942248 0 0.00967139146632961 0.0011151389750065971 0 0.0096270803160002534 0.0010901237418942248 0 0.0096426584661801536 0.0011432778105959246 0 0.00967139146632961 0.0011151389750065971 0 0.0096270803160002534 0.0010901237418942248 0 0.0096426584661801536 0.0011432778105959246 0 0.0096057476246322569 0.0011417982231231051 0 0.0096426584661801536 0.0011432778105959246 0 0.0096057476246322569 0.0011417982231231051 0 0.0096334291093563649 0.001176970511829044 0 0.0096779323745352416 0.0011918875664604558 0 0.0096426584661801536 0.0011432778105959246 0 0.0096334291093563649 0.001176970511829044 0 0.0097457191005662636 0.0011185780814259164 0 0.0096868059086913025 0.0011597029762592445 0 0.00967139146632961 0.0011151389750065971 0 0.0096779323745352416 0.0011918875664604558 0 0.0096426584661801536 0.0011432778105959246 0 0.0096868059086913025 0.0011597029762592445 0 0.0096426584661801536 0.0011432778105959246 0 0.0096868059086913025 0.0011597029762592445 0 0.00967139146632961 0.0011151389750065971 0 0.009757788226620984 0.0011867957714717856 0 0.0098723113803327687 0.0011276224752098058 0 0.010024122980743611 0.0012803161289468197 0 0.010029927841290193 0.0011069791068695058 0 0.010233858490117357 0.0011137903968820799 0 0.010024122980743611 0.0012803161289468197 0 0.0098723113803327687 0.0011276224752098058 0 0.010029927841290193 0.0011069791068695058 0 0.010024122980743611 0.0012803161289468197 0 0.0098723113803327687 0.0011276224752098058 0 0.010029927841290193 0.0011069791068695058 0 0.0099258444835235073 0.00098942834213190775 0 0.010029927841290193 0.0011069791068695058 0 0.010074163769467133 0.00092637002097190611 0 0.010233858490117357 0.0011137903968820799 0 0.010074163769467133 0.00092637002097190611 0 0.0099635743445202919 0.00065716841950942619 0 0.010274081034619579 0.00087751345997912305 0 0.010074163769467133 0.00092637002097190611 0 0.0099037138953430633 0.00083424038019485898 0 0.0099635743445202919 0.00065716841950942619 0 0.010029927841290193 0.0011069791068695058 0 0.010074163769467133 0.00092637002097190611 0 0.0099258444835235073 0.00098942834213190775 0 0.0099258444835235073 0.00098942834213190775 0 0.0099037138953430633 0.00083424038019485898 0 0.0097830551863897358 0.00092521181018607318 0 0.010074163769467133 0.00092637002097190611 0 0.0099258444835235073 0.00098942834213190775 0 0.0099037138953430633 0.00083424038019485898 0 0.0096875291469006117 0.0010068521579057921 0 0.0097830551863897358 0.00092521181018607318 0 0.0096859693272470238 0.00091858502805939961 0 0.0095966191079939912 0.00096183567452425489 0 0.0096875291469006117 0.0010068521579057921 0 0.0096859693272470238 0.00091858502805939961 0 0.0096270803160002534 0.0010901237418942248 0 0.0095968080811555459 0.0010364515631370722 0 0.0096875291469006117 0.0010068521579057921 0 0.0095966191079939912 0.00096183567452425489 0 0.0095968080811555459 0.0010364515631370722 0 0.0096875291469006117 0.0010068521579057921 0 0.0097033586777916774 0.0010780373225132624 0 0.0096875291469006117 0.0010068521579057921 0 0.0097835972131598056 0.0010440026949367731 0 0.0099258444835235073 0.00098942834213190775 0 0.0097835972131598056 0.0010440026949367731 0 0.0097830551863897358 0.00092521181018607318 0 0.0096875291469006117 0.0010068521579057921 0 0.0097835972131598056 0.0010440026949367731 0 0.0097830551863897358 0.00092521181018607318 0 0.0099037138953430633 0.00083424038019485898 0 0.0097830551863897358 0.00092521181018607318 0 0.0096724051451739963 0.00077452864663169049 0 0.0095966191079939912 0.00096183567452425489 0 0.0096859693272470238 0.00091858502805939961 0 0.0096724051451739963 0.00077452864663169049 0 0.0097830551863897358 0.00092521181018607318 0 0.0096859693272470238 0.00091858502805939961 0 0.0096724051451739963 0.00077452864663169049 0 0.0099037138953430633 0.00083424038019485898 0 0.0096724051451739963 0.00077452864663169049 0 0.0099635743445202919 0.00065716841950942619 0 0.0096724051451739963 0.00077452864663169049 0 0.0099635743445202919 0.00065716841950942619 0 0.0095421882180434948 0.00063257271311672049 0 0.010469030584144242 0.00067924815769490111 0 0.011257400156243838 0.00047989837265710708 0 0.011268708264337068 0.00067425132539853728 0 0.011533752019116748 0.00086090726007932781 0 0.011593519925432358 0.0006894782653426517 0 0.011268708264337068 0.00067425132539853728 0 0.01120876271322209 0.00085765520536265215 0 0.010964962333147033 0.00067570151447860123 0 0.011268708264337068 0.00067425132539853728 0 0.01120876271322209 0.00085765520536265215 0 0.011533752019116748 0.00086090726007932781 0 0.013104856488582898 0.00031295725069739388 0 0.013177619022097601 0.00031401305453865959 0 0.013164842118707533 0.00036723014126753854 0 0.012094206503053491 0.00060764115547886342 0 0.012725283919950757 0.00033475733227649346 0 0.012725283919950757 0.00033475733227649346 0 0.013128627822379146 0.00020274162524909674 0 0.012229031685109581 9.8999696167198709e-05 0 0.01235311062793357 9.7582430439759453e-05 0 0.012261454468154534 -6.1997055526124552e-07 0 0.014249658596262723 0.00043701176503708865 0 0.013702257241254038 0.00037677351826410731 0 0.01408822578667358 9.5547478948131763e-05 0 0.012725283919950757 0.00033475733227649346 0 0.011257400156243838 0.00047989837265710708 0 0.011257400156243838 0.00047989837265710708 0 0.012698845302524946 -4.2537867274294267e-05 0 0.012091125979593942 -2.9092080404443434e-05 0 0.011976022128216851 5.5033904546792042e-05 0 0.012403021609222178 -1.0315759062257562e-05 0 0.01235311062793357 9.7582430439759453e-05 0 0.012261454468154534 -6.1997055526124552e-07 0 0.012403021609222178 -1.0315759062257562e-05 0 0.012091125979593942 -2.9092080404443434e-05 0 0.011979888052970126 -3.8742263893620222e-07 0 0.012403021609222178 -1.0315759062257562e-05 0 0.011979888052970126 -3.8742263893620222e-07 0 0.012403021609222178 -1.0315759062257562e-05 0 0.012876123221121466 5.4649052101223465e-07 0 0.013128627822379146 0.00020274162524909674 0 0.012877321793876571 1.4262248858813078e-07 0 0.013702257241254038 0.00037677351826410731 0 0.012880167839673586 1.1324199078342744e-06 0 0.01408822578667358 9.5547478948131763e-05 0 0.01235311062793357 9.7582430439759453e-05 0 0.012403021609222178 -1.0315759062257562e-05 0 0.012876123221121466 5.4649052101223465e-07 0 0.012880167839673586 1.1324199078342744e-06 0 0.014344229537626142 -6.9095464819976497e-05 0 0.01499873107051519 -6.1987946118084357e-07 0 0.012880167839673586 1.1324199078342744e-06 0 0.01408822578667358 9.5547478948131763e-05 0 0.014344229537626142 -6.9095464819976497e-05 0 0.01408822578667358 9.5547478948131763e-05 0 0.014344229537626142 -6.9095464819976497e-05 0 0.014499545792756363 -1.6392736834448418e-05 0 0.014344229537626142 -6.9095464819976497e-05 0 0.01499873107051519 -6.1987946118084357e-07 0 0.014750594137694806 -5.7091576937439215e-05 0 0.01499873107051519 -6.1987946118084357e-07 0 0.014750594137694806 -5.7091576937439215e-05 0 0.014999621790302517 1.1319812905743922e-07 0 0.014344229537626142 -6.9095464819976497e-05 0 0.014750594137694806 -5.7091576937439215e-05 0 0.014731161346490215 -6.9074503765430517e-05 0 0.014750594137694806 -5.7091576937439215e-05 0 0.014999621790302517 1.1319812905743922e-07 0 0.014731161346490215 -6.9074503765430517e-05 0 0.014999938725749444 2.2411616497297281e-08 0 0.014951072284516611 -0.00010139308872019407 0 0.014999985533694886 -2.6514474363118222e-09 0 0.014991781281959445 -1.9572469587283238e-06 0 0.014992278406245027 -7.1372760763884593e-07 0 0.014999621790302517 1.1319812905743922e-07 0 0.014731161346490215 -6.9074503765430517e-05 0 0.014836236567385868 -4.1969693832631957e-05 0 0.014731161346490215 -6.9074503765430517e-05 0 0.014836236567385868 -4.1969693832631957e-05 0 0.014674135116462084 -4.1489963136631093e-05 0 0.014991781281959445 -1.9572469587283238e-06 0 0.014987552733523668 -4.5585404438600535e-06 0 0.014992278406245027 -7.1372760763884593e-07 0 0.014951072284516611 -0.00010139308872019407 0 0.014119137952438878 0.00017667930427086857 0 0.014991781281959445 -1.9572469587283238e-06 0 0.014987509306147267 -4.6762703344326794e-06 0 0.014987552733523668 -4.5585404438600535e-06 0 0.014987509306147267 -4.6762703344326794e-06 0 0.014979774620914635 -1.6510955865786154e-05 0 0.014987552733523668 -4.5585404438600535e-06 0 0.013152665654317526 0.00042301632927016107 0 0.013164842118707533 0.00036723014126753854 0 0.013107597068971934 0.00036828654708828158 0 0.013152665654317526 0.00042301632927016107 0 0.013107597068971934 0.00036828654708828158 0 0.013062361491391727 0.00039054430515844506 0 0.014119137952438878 0.00017667930427086857 0 0.014002977804753305 0.00021033617984533837 0 0.014499545792756363 -1.6392736834448418e-05 0 0.014674135116462084 -4.1489963136631093e-05 0 0.014459485961332195 7.7414142753429196e-05 0 0.014731161346490215 -6.9074503765430517e-05 0 0.014499545792756363 -1.6392736834448418e-05 0 0.014674135116462084 -4.1489963136631093e-05 0 0.014344229537626142 -6.9095464819976497e-05 0 0.014731161346490215 -6.9074503765430517e-05 0 0.014499545792756363 -1.6392736834448418e-05 0 0.014119137952438878 0.00017667930427086857 0 0.013865816209824095 0.00019402525033926395 0 0.012725283919950757 0.00033475733227649346 0 0.013865816209824095 0.00019402525033926395 0 0.01408822578667358 9.5547478948131763e-05 0 0.014499545792756363 -1.6392736834448418e-05 0 0.014459485961332195 7.7414142753429196e-05 0 0.014249658596262723 0.00043701176503708865 0 0.01408822578667358 9.5547478948131763e-05 0 0.014459485961332195 7.7414142753429196e-05 0 0.013104856488582898 0.00031295725069739388 0 0.013164842118707533 0.00036723014126753854 0 0.013107597068971934 0.00036828654708828158 0 0.013104856488582898 0.00031295725069739388 0 0.013107597068971934 0.00036828654708828158 0 0.013063451991533368 0.00034808041880766825 0 0.013107597068971934 0.00036828654708828158 0 0.013063451991533368 0.00034808041880766825 0 0.013062361491391727 0.00039054430515844506 0 0.013063451991533368 0.00034808041880766825 0 0.013011495390998766 0.00036024308501136481 0 0.013062361491391727 0.00039054430515844506 0 0.013063451991533368 0.00034808041880766825 0 0.013011495390998766 0.00036024308501136481 0 0.013029190402433775 0.00030885962306319336 0 0.014956804641602315 -1.5227031589506252e-05 0 0.014979774620914635 -1.6510955865786154e-05 0 0.014932043493555595 -4.1158395386175983e-05 0 0.014002977804753305 0.00021033617984533837 0 0.014012518287248813 1.8191073697350972e-05 0 0.013011495390998766 0.00036024308501136481 0 0.013062361491391727 0.00039054430515844506 0 0.012978840963358383 0.00035608724907790402 0 0.014956804641602315 -1.5227031589506252e-05 0 0.014979774620914635 -1.6510955865786154e-05 0 0.014982790039734224 -5.0358097935952054e-06 0 0.014956804641602315 -1.5227031589506252e-05 0 0.014988560655595898 1.0703478091089691e-06 0 0.014950595343792698 -1.5216325698180566e-05 0 0.014979774620914635 -1.6510955865786154e-05 0 0.014987552733523668 -4.5585404438600535e-06 0 0.014982790039734224 -5.0358097935952054e-06 0 0.014982790039734224 -5.0358097935952054e-06 0 0.014988560655595898 1.0703478091089691e-06 0 0.014992278406245027 -7.1372760763884593e-07 0 0.014987552733523668 -4.5585404438600535e-06 0 0.014982790039734224 -5.0358097935952054e-06 0 0.014992278406245027 -7.1372760763884593e-07 0 0.015046912436059266 -2.9216128586426168e-05 0 0.014722008629586052 9.948861101395694e-05 0 0.014956804641602315 -1.5227031589506252e-05 0 0.014982790039734224 -5.0358097935952054e-06 0 0.014988560655595898 1.0703478091089691e-06 0 0.014988560655595898 1.0703478091089691e-06 0 0.014999985679671798 2.3491959885798618e-09 0 0.014999986246215808 -2.885565327254969e-09 0 0.014988560655595898 1.0703478091089691e-06 0 0.014999985679671798 2.3491959885798618e-09 0 0.014992278406245027 -7.1372760763884593e-07 0 0.014999985533694886 -2.6514474363118222e-09 0 0.014999985679671798 2.3491959885798618e-09 0 0.014992278406245027 -7.1372760763884593e-07 0 0.014998997220926971 -2.1586247723693005e-06 0 0.015000004023539222 -6.0629621700070969e-11 0 0.01499999739611799 -1.3265028783448903e-09 0 0.014998997220926971 -2.1586247723693005e-06 0 0.015000004023539222 -6.0629621700070969e-11 0 0.015000447932442245 -3.5938953916422876e-06 0 0.014999973978907297 -3.2702318117469632e-08 0 0.015041934848617917 1.3779401272443706e-05 0 0.014988560655595898 1.0703478091089691e-06 0 0.014999986246215808 -2.885565327254969e-09 0 0.014990877788928353 2.4287988112011059e-06 0 0.014988560655595898 1.0703478091089691e-06 0 0.014990877788928353 2.4287988112011059e-06 0 0.014986589451532518 3.5131084521699585e-06 0 0.014998997220926971 -2.1586247723693005e-06 0 0.015000447932442245 -3.5938953916422876e-06 0 0.014997546798657257 -5.8953236459494598e-06 0 0.015000447932442245 -3.5938953916422876e-06 0 0.014997058187705506 -9.9629401194386304e-06 0 0.014997546798657257 -5.8953236459494598e-06 0 0.015041934848617917 1.3779401272443706e-05 0 0.014521532498483454 -1.1776064931583719e-05 0 0.014997058187705506 -9.9629401194386304e-06 0 0.014994488927487379 -1.1400237237536981e-05 0 0.014997546798657257 -5.8953236459494598e-06 0 0.014521532498483454 -1.1776064931583719e-05 0 0.014722008629586052 9.948861101395694e-05 0 0.014990877788928353 2.4287988112011059e-06 0 0.014984637589194827 2.6050866994634519e-06 0 0.014986589451532518 3.5131084521699585e-06 0 0.014860958559132392 8.2079569499943566e-05 0 0.014722008629586052 9.948861101395694e-05 0 0.013011495390998766 0.00036024308501136481 0 0.012978840963358383 0.00035608724907790402 0 0.012968574436546639 0.00032553431611739213 0 0.013970039645833968 0.00013567907283126507 0 0.014166892744202117 0.00015746169320455974 0 0.014005707108341876 3.9017516921815e-05 0 0.014166892744202117 0.00015746169320455974 0 0.014115034170842757 2.5404394632864214e-05 0 0.014005707108341876 3.9017516921815e-05 0 0.013012557016687703 0.00036294788945035226 0 0.012940566860830312 0.00030046848955013418 0 0.014722008629586052 9.948861101395694e-05 0 0.014012518287248813 1.8191073697350972e-05 0 0.014956804641602315 -1.5227031589506252e-05 0 0.014945247019844038 -1.5523168638436833e-05 0 0.014932043493555595 -4.1158395386175983e-05 0 0.013970039645833968 0.00013567907283126507 0 0.013937857568946468 -4.2700854291547179e-05 0 0.013896406245969321 -0.00010208691335373601 0 0.014143302647233166 -0.00010641506458835255 0 0.014193719079425153 0.0001002811750947878 0 0.014244155106650279 5.1120823083974355e-05 0 0.014115034170842757 2.5404394632864214e-05 0 0.014005707108341876 3.9017516921815e-05 0 0.013937857568946468 -4.2700854291547179e-05 0 0.014012518287248813 1.8191073697350972e-05 0 0.013971645843848418 -3.252018083090588e-05 0 0.013970039645833968 0.00013567907283126507 0 0.014005707108341876 3.9017516921815e-05 0 0.013937857568946468 -4.2700854291547179e-05 0 0.014521532498483454 -1.1776064931583719e-05 0 0.013879067602228385 3.0524799276853566e-05 0 0.01228892771167331 0.00033793444419715011 0 0.012315035923703404 0.00053110641240784338 0 0.012248102324507076 0.00033747926858376288 0 0.013163201225089545 0.00013472386477558207 0 0.013398103492413903 0.00013689490907503596 0 0.013457890248058848 0.00035566075112420368 0 0.013937857568946468 -4.2700854291547179e-05 0 0.013990582294839203 -8.6278076583369898e-05 0 0.013896406245969321 -0.00010208691335373601 0 0.013937857568946468 -4.2700854291547179e-05 0 0.013990582294839203 -8.6278076583369898e-05 0 0.014019579273637679 -6.0991718983052862e-05 0 0.012925723542525535 0.00018713670895509051 0 0.013879067602228385 3.0524799276853566e-05 0 0.011545924090391324 0.00066300405244849414 0 0.012232590885382285 0.00025637516207617836 0 0.01228892771167331 0.00033793444419715011 0 0.012315035923703404 0.00053110641240784338 0 0.012472254473884217 0.00047596958863656692 0 0.012925723542525535 0.00018713670895509051 0 0.013340388856304224 0.00031430754002693804 0 0.012315035923703404 0.00053110641240784338 0 0.01242272088015434 0.00059981322607188759 0 0.012472254473884217 0.00047596958863656692 0 0.010806937719626056 0.00075188245153249482 0 0.010748791755647481 0.00073527599874872594 0 0.010758378053255203 0.00078238240066583024 0 0.010748791755647481 0.00073527599874872594 0 0.010758378053255203 0.00078238240066583024 0 0.010833573366042978 0.0007685818674739701 0 0.014041247261387087 1.029157467340919e-08 0 0.013937857568946468 -4.2700854291547179e-05 0 0.014019579273637679 -6.0991718983052862e-05 0 0.010758378053255203 0.00078238240066583024 0 0.01091350724257782 0.00084336063062159881 0 0.010833573366042978 0.0007685818674739701 0 0.012232590885382285 0.00025637516207617836 0 0.011909001417726349 0.00060043976200436957 0 0.012936311043340339 0.00030367094420225102 0 0.012943191343372636 0.00031860537527177553 0 0.013029190402433775 0.00030885962306319336 0 0.012640785216366702 6.3106520963763097e-05 0 0.012757477083662207 6.4996566976148335e-05 0 0.012802045647639339 0.00018678788348202319 0 0.012925723542525535 0.00018713670895509051 0 0.012232590885382285 0.00025637516207617836 0 0.014012518287248813 1.8191073697350972e-05 0 0.012940566860830312 0.00030046848955013418 0 0.012925723542525535 0.00018713670895509051 0 0.012940566860830312 0.00030046848955013418 0 0.012232590885382285 0.00025637516207617836 0 0.012940566860830312 0.00030046848955013418 0 0.013011495390998766 0.00036024308501136481 0 0.012943191343372636 0.00031860537527177553 0 0.013029190402433775 0.00030885962306319336 0 0.01120876271322209 0.00085765520536265215 0 0.01091350724257782 0.00084336063062159881 0 0.010964962333147033 0.00067570151447860123 0 0.013104856488582898 0.00031295725069739388 0 0.013063451991533368 0.00034808041880766825 0 0.013029190402433775 0.00030885962306319336 0 0.012094206503053491 0.00060764115547886342 0 0.011909001417726349 0.00060043976200436957 0 0.0099635743445202919 0.00065716841950942619 0 0.010356771380955324 0.00068414246066422161 0 0.010274081034619579 0.00087751345997912305 0 0.010469030584144242 0.00067924815769490111 0 0.010698379461388583 0.0006849784435022971 0 0.010732444489246989 0.00072394985838176767 0 0.010698379461388583 0.0006849784435022971 0 0.010748791755647481 0.00073527599874872594 0 0.010356771380955324 0.00068414246066422161 0 0.01052995005496766 0.00086473980737431704 0 0.01091350724257782 0.00084336063062159881 0 0.010964962333147033 0.00067570151447860123 0 0.010833573366042978 0.0007685818674739701 0 0.010748791755647481 0.00073527599874872594 0 0.010964962333147033 0.00067570151447860123 0 0.010833573366042978 0.0007685818674739701 0 0.01052995005496766 0.00086473980737431704 0 0.010274081034619579 0.00087751345997912305 0 0.010429813886072951 0.0010198929912107165 0 0.010356771380955324 0.00068414246066422161 0 0.01052995005496766 0.00086473980737431704 0 0.010274081034619579 0.00087751345997912305 0 0.01052995005496766 0.00086473980737431704 0 0.010575339601307557 0.0010016538481086345 0 0.010429813886072951 0.0010198929912107165 0 0.010274081034619579 0.00087751345997912305 0 0.010233858490117357 0.0011137903968820799 0 0.010429813886072951 0.0010198929912107165 0 0.010074163769467133 0.00092637002097190611 0 0.010274081034619579 0.00087751345997912305 0 0.010233858490117357 0.0011137903968820799 0 0.010233858490117357 0.0011137903968820799 0 0.010421174916595078 0.0013129505882986414 0 0.010024122980743611 0.0012803161289468197 0 0.010233858490117357 0.0011137903968820799 0 0.010429813886072951 0.0010198929912107165 0 0.010399410107079021 0.0011523373607182786 0 0.010233858490117357 0.0011137903968820799 0 0.010399410107079021 0.0011523373607182786 0 0.010421174916595078 0.0013129505882986414 0 0.010575339601307557 0.0010016538481086345 0 0.010429813886072951 0.0010198929912107165 0 0.010501276223328112 0.0011559728223387608 0 0.010429813886072951 0.0010198929912107165 0 0.010399410107079021 0.0011523373607182786 0 0.010501276223328112 0.0011559728223387608 0 0.010399410107079021 0.0011523373607182786 0 0.010501276223328112 0.0011559728223387608 0 0.010421174916595078 0.0013129505882986414 0 0.010501276223328112 0.0011559728223387608 0 0.010686746928148498 0.0011049532876841004 0 0.010538774305501281 0.0012886350562447242 0 0.010686746928148498 0.0011049532876841004 0 0.010811784552202398 0.0012183249900794802 0 0.010538774305501281 0.0012886350562447242 0 0.010575339601307557 0.0010016538481086345 0 0.010686746928148498 0.0011049532876841004 0 0.01072781540006148 0.00087015438328506161 0 0.010575339601307557 0.0010016538481086345 0 0.010501276223328112 0.0011559728223387608 0 0.010686746928148498 0.0011049532876841004 0 0.010686746928148498 0.0011049532876841004 0 0.010811784552202398 0.0012183249900794802 0 0.010912655059548538 0.0011298168143879896 0 0.010686746928148498 0.0011049532876841004 0 0.010912655059548538 0.0011298168143879896 0 0.011081706192911147 0.00089003837211056687 0 0.010599374619811577 0.0011244076293692397 0 0.011371809059750855 0.00091691074669804492 0 0.011065900988095345 0.0011706956881389001 0 0.011399320189867132 0.0010042430025518818 0 0.011000166629925969 0.0013482315836603059 0 0.010811784552202398 0.0012183249900794802 0 0.010933561683919029 0.0012321890665818868 0 0.010912655059548538 0.0011298168143879896 0 0.010933561683919029 0.0012321890665818868 0 0.010912655059548538 0.0011298168143879896 0 0.011065900988095345 0.0011706956881389001 0 0.010912655059548538 0.0011298168143879896 0 0.011065900988095345 0.0011706956881389001 0 0.011052453531253212 0.0010636214151641165 0 0.011065900988095345 0.0011706956881389001 0 0.01115043776737663 0.0010623328694117835 0 0.011052453531253212 0.0010636214151641165 0 0.011247537447356928 0.00096212139325718596 0 0.011371809059750855 0.00091691074669804492 0 0.01115043776737663 0.0010623328694117835 0 0.011052453531253212 0.0010636214151641165 0 0.011081706192911147 0.00089003837211056687 0 0.010912655059548538 0.0011298168143879896 0 0.011052453531253212 0.0010636214151641165 0 0.011081706192911147 0.00089003837211056687 0 0.011545924090391324 0.00066300405244849414 0 0.011371809059750855 0.00091691074669804492 0 0.012315035923703404 0.00053110641240784338 0 0.012382111402161918 0.00072872284580110223 0 0.01242272088015434 0.00059981322607188759 0 0.011371809059750855 0.00091691074669804492 0 0.01061068635865027 0.00083678355470166797 0 0.010806937719626056 0.00075188245153249482 0 0.010883073750629751 0.00092318756861933609 0 0.01072781540006148 0.00087015438328506161 0 0.010806937719626056 0.00075188245153249482 0 0.010748791755647481 0.00073527599874872594 0 0.01072781540006148 0.00087015438328506161 0 0.010686746928148498 0.0011049532876841004 0 0.010993762967338278 0.00096905318296147593 0 0.01072781540006148 0.00087015438328506161 0 0.010748791755647481 0.00073527599874872594 0 0.01052995005496766 0.00086473980737431704 0 0.01072781540006148 0.00087015438328506161 0 0.01052995005496766 0.00086473980737431704 0 0.010575339601307557 0.0010016538481086345 0 0.01072781540006148 0.00087015438328506161 0 0.014341594591477583 0.00030403800042735039 0 0.014322616968260786 0.00029022195665360796 0 0.014170995680309766 0.00041850075631546087 0 0.014206025102914981 0.00034331019547559268 0 0.014126012277408014 0.00028301832390248877 0 0.01443531960453636 0.00013885507822254559 0 0.014341594591477583 0.00030403800042735039 0 0.014170995680309766 0.00041850075631546087 0 0.014404808838902638 0.00036646957523425353 0 0.013885869417974832 0.00026640232696609873 0 0.013506003730259347 -2.0202988092127935e-05 0 0.012833960391646238 0.0009958151534106268 0 0.014237274448105144 0.00024089102452177358 0 0.01239168592557739 0.00086646085117977911 0 0.014341594591477583 0.00030403800042735039 0 0.014397875740424792 0.00030411138397421443 0 0.014404808838902638 0.00036646957523425353 0 0.014341594591477583 0.00030403800042735039 0 0.014325822391214734 0.00029119675732408573 0 0.014397875740424792 0.00030411138397421443 0 0.014253555865895688 0.000252453698814348 0 0.014237274448105144 0.00024089102452177358 0 0.014325822391214734 0.00029119675732408573 0 0.014397875740424792 0.00030411138397421443 0 0.014436570058091491 0.00027140317937117853 0 0.014237274448105144 0.00024089102452177358 0 0.01398615147543566 0.00029106941887632309 0 0.01242272088015434 0.00059981322607188759 0 0.012521850922039345 0.00066451186136275825 0 0.012472254473884217 0.00047596958863656692 0 0.013541189681162368 0.00041212683269124302 0 0.013371722310119653 0.0004915125444694199 0 0.013301374080808082 0.00023277300028305359 0 0.01398615147543566 0.00029106941887632309 0 0.012879280728330016 0.0005649697252250931 0 0.012879280728330016 0.0005649697252250931 0 0.013340388856304224 0.00031430754002693804 0 0.012382111402161918 0.00072872284580110223 0 0.01242272088015434 0.00059981322607188759 0 0.012521850922039345 0.00066451186136275825 0 0.011371809059750855 0.00091691074669804492 0 0.012879280728330016 0.0005649697252250931 0 0.011729306893964977 0.00080697302421968149 0 0.012661816929477673 0.00037063215475633147 0 0.012833960391646238 0.0009958151534106268 0 0.013885869417974832 0.00026640232696609873 0 0.012833960391646238 0.0009958151534106268 0 0.01282756841678046 0.001213847401876968 0 0.013506003730259347 -2.0202988092127935e-05 0 0.012666030277459349 0.00037460589749784749 0 0.012833960391646238 0.0009958151534106268 0 0.012879280728330016 0.0005649697252250931 0 0.012853295669209591 0.00076766617687246781 0 0.011455162093913807 0.00093234624479299189 0 0.011349594246844756 0.0012455736880069182 0 0.011000166629925969 0.0013482315836603059 0 0.01239168592557739 0.00086646085117977911 0 0.010704267167009309 0.0014557185063427971 0 0.011729306893964977 0.00080697302421968149 0 0.012833960391646238 0.0009958151534106268 0 0.01282756841678046 0.001213847401876968 0 0.01115043776737663 0.0010623328694117835 0 0.011088298362714055 0.00088723354345944538 0 0.011399320189867132 0.0010042430025518818 0 0.011371809059750855 0.00091691074669804492 0 0.01239168592557739 0.00086646085117977911 0 0.011065900988095345 0.0011706956881389001 0 0.01115043776737663 0.0010623328694117835 0 0.011399320189867132 0.0010042430025518818 0 0.011455162093913807 0.00093234624479299189 0 0.011642036462065184 0.0011710473248534453 0 0.011349594246844756 0.0012455736880069182 0 0.01239168592557739 0.00086646085117977911 0 0.013449389801090599 0.00083721318324565504 0 0.014170995680309766 0.00041850075631546087 0 0.014455352733378012 0.00049180240462575169 0 0.014404808838902638 0.00036646957523425353 0 0.011455162093913807 0.00093234624479299189 0 0.011642036462065184 0.0011710473248534453 0 0.012126333772128059 0.0011766719903954306 0 0.014455352733378012 0.00049180240462575169 0 0.014487388644381271 0.00040447350331625231 0 0.014578489525893483 0.00041084821783308426 0 0.014487388644381271 0.00040447350331625231 0 0.014536885031256237 0.00036921871297060572 0 0.014505542357397995 0.00033304115862545832 0 0.014487388644381271 0.00040447350331625231 0 0.014404808838902638 0.00036646957523425353 0 0.014505542357397995 0.00033304115862545832 0 0.014455352733378012 0.00049180240462575169 0 0.014487388644381271 0.00040447350331625231 0 0.014404808838902638 0.00036646957523425353 0 0.014578489525893483 0.00041084821783308426 0 0.014675901947617261 0.00042889796720471473 0 0.014663069690217729 0.00052956838933965178 0 0.014455352733378012 0.00049180240462575169 0 0.014578489525893483 0.00041084821783308426 0 0.014663069690217729 0.00052956838933965178 0 0.014487388644381271 0.00040447350331625231 0 0.014578489525893483 0.00041084821783308426 0 0.014536885031256237 0.00036921871297060572 0 0.014578489525893483 0.00041084821783308426 0 0.014536885031256237 0.00036921871297060572 0 0.014574415925034981 0.00032756817669353424 0 0.014578489525893483 0.00041084821783308426 0 0.014683380258615059 0.000358282219130514 0 0.014675901947617261 0.00042889796720471473 0 0.014578489525893483 0.00041084821783308426 0 0.014639162555302298 0.00031944576168611193 0 0.014683380258615059 0.000358282219130514 0 0.014578489525893483 0.00041084821783308426 0 0.014639162555302298 0.00031944576168611193 0 0.014574415925034981 0.00032756817669353424 0 0.014536885031256237 0.00036921871297060572 0 0.014574415925034981 0.00032756817669353424 0 0.014505542357397995 0.00033304115862545832 0 0.014574415925034981 0.00032756817669353424 0 0.014545232871946751 0.00029865606884037639 0 0.014505542357397995 0.00033304115862545832 0 0.01458827682793047 0.00026782672219922282 0 0.014511981737888093 0.0002658724052077492 0 0.014546453074214606 0.00022568511102391957 0 0.014639162555302298 0.00031944576168611193 0 0.014574415925034981 0.00032756817669353424 0 0.01458827682793047 0.00026782672219922282 0 0.014545232871946751 0.00029865606884037639 0 0.01458827682793047 0.00026782672219922282 0 0.014511981737888093 0.0002658724052077492 0 0.014574415925034981 0.00032756817669353424 0 0.014545232871946751 0.00029865606884037639 0 0.01458827682793047 0.00026782672219922282 0 0.014639162555302298 0.00031944576168611193 0 0.01458827682793047 0.00026782672219922282 0 0.014664443977341256 0.00025248952582644548 0 0.014453273250340038 0.00030946161489486758 0 0.014404808838902638 0.00036646957523425353 0 0.014505542357397995 0.00033304115862545832 0 0.014453273250340038 0.00030946161489486758 0 0.014397875740424792 0.00030411138397421443 0 0.014404808838902638 0.00036646957523425353 0 0.014545232871946751 0.00029865606884037639 0 0.014505542357397995 0.00033304115862545832 0 0.014511981737888093 0.0002658724052077492 0 0.014511981737888093 0.0002658724052077492 0 0.014436570058091491 0.00027140317937117853 0 0.014476220531823104 0.00019349360636754847 0 0.014453273250340038 0.00030946161489486758 0 0.014505542357397995 0.00033304115862545832 0 0.014511981737888093 0.0002658724052077492 0 0.014453273250340038 0.00030946161489486758 0 0.014511981737888093 0.0002658724052077492 0 0.014436570058091491 0.00027140317937117853 0 0.014325822391214734 0.00029119675732408573 0 0.014436570058091491 0.00027140317937117853 0 0.014476220531823104 0.00019349360636754847 0 0.014237274448105144 0.00024089102452177358 0 0.014496567180195765 0.00018652111268750956 0 0.014453273250340038 0.00030946161489486758 0 0.014397875740424792 0.00030411138397421443 0 0.014436570058091491 0.00027140317937117853 0 0.014511981737888093 0.0002658724052077492 0 0.014476220531823104 0.00019349360636754847 0 0.014546453074214606 0.00022568511102391957 0 0.014476220531823104 0.00019349360636754847 0 0.014546453074214606 0.00022568511102391957 0 0.01453808504274293 0.00017996002990260747 0 0.014496567180195765 0.00018652111268750956 0 0.014512946010616968 0.0001817462108818119 0 0.014481453220470945 0.00019344535749886058 0 0.01453808504274293 0.00017996002990260747 0 0.014624497280102575 0.00012048234795747043 0 0.014505696985453211 0.00022741988135807588 0 0.014624497280102575 0.00012048234795747043 0 0.014515227050407857 0.00011626104530392926 0 0.014496567180195765 0.00018652111268750956 0 0.014603842539292497 0.00013329400198605718 0 0.014505696985453211 0.00022741988135807588 0 0.014515227050407857 0.00011626104530392926 0 0.01444579941348099 0.0001455462655264988 0 0.01458827682793047 0.00026782672219922282 0 0.014664443977341256 0.00025248952582644548 0 0.014625712513493224 0.00019779885019886452 0 0.014664443977341256 0.00025248952582644548 0 0.014625712513493224 0.00019779885019886452 0 0.014720396963724899 0.00020115052101023898 0 0.01458827682793047 0.00026782672219922282 0 0.014546453074214606 0.00022568511102391957 0 0.014625712513493224 0.00019779885019886452 0 0.014546453074214606 0.00022568511102391957 0 0.01453808504274293 0.00017996002990260747 0 0.014625712513493224 0.00019779885019886452 0 0.01453808504274293 0.00017996002990260747 0 0.014625712513493224 0.00019779885019886452 0 0.014624497280102575 0.00012048234795747043 0 0.014625712513493224 0.00019779885019886452 0 0.014624497280102575 0.00012048234795747043 0 0.014693228392949377 0.00014545719569379506 0 0.014625712513493224 0.00019779885019886452 0 0.014693228392949377 0.00014545719569379506 0 0.014720396963724899 0.00020115052101023898 0 0.014624497280102575 0.00012048234795747043 0 0.014691287095151325 6.3741129179462603e-05 0 0.014693228392949377 0.00014545719569379506 0 0.014624497280102575 0.00012048234795747043 0 0.014691287095151325 6.3741129179462603e-05 0 0.014557110332032804 4.4654282861211575e-05 0 0.014515227050407857 0.00011626104530392926 0 0.014461545264587537 6.5918424293686531e-05 0 0.01444579941348099 0.0001455462655264988 0 0.014624497280102575 0.00012048234795747043 0 0.014515227050407857 0.00011626104530392926 0 0.014557110332032804 4.4654282861211575e-05 0 0.014515227050407857 0.00011626104530392926 0 0.014557110332032804 4.4654282861211575e-05 0 0.014461545264587537 6.5918424293686531e-05 0 0.014557110332032804 4.4654282861211575e-05 0 0.014461545264587537 6.5918424293686531e-05 0 0.01447498863672288 -1.2806859350034777e-05 0 0.014461545264587537 6.5918424293686531e-05 0 0.014389577322847113 9.0054699553494466e-05 0 0.014386691691545076 1.1710080226854304e-05 0 0.014341141552642333 5.4541754757894677e-05 0 0.014389577322847113 9.0054699553494466e-05 0 0.014386691691545076 1.1710080226854304e-05 0 0.014341141552642333 5.4541754757894677e-05 0 0.014389577322847113 9.0054699553494466e-05 0 0.014306444442420404 0.00010310400602461133 0 0.014389577322847113 9.0054699553494466e-05 0 0.014362141731169 0.00019278241617776392 0 0.014306444442420404 0.00010310400602461133 0 0.014461545264587537 6.5918424293686531e-05 0 0.014389577322847113 9.0054699553494466e-05 0 0.01444579941348099 0.0001455462655264988 0 0.014389577322847113 9.0054699553494466e-05 0 0.01444579941348099 0.0001455462655264988 0 0.014362141731169 0.00019278241617776392 0 0.014344882557952339 0.00030130350487195652 0 0.014505696985453211 0.00022741988135807588 0 0.014362141731169 0.00019278241617776392 0 0.014505696985453211 0.00022741988135807588 0 0.01444579941348099 0.0001455462655264988 0 0.014362141731169 0.00019278241617776392 0 0.01398615147543566 0.00029106941887632309 0 0.014496567180195765 0.00018652111268750956 0 0.014362141731169 0.00019278241617776392 0 0.014296595472575899 0.00018503728234093634 0 0.014306444442420404 0.00010310400602461133 0 0.014344882557952339 0.00030130350487195652 0 0.014362141731169 0.00019278241617776392 0 0.014296595472575899 0.00018503728234093634 0 0.01398615147543566 0.00029106941887632309 0 0.013340388856304224 0.00031430754002693804 0 0.014344882557952339 0.00030130350487195652 0 0.014296595472575899 0.00018503728234093634 0 0.014216624791797668 0.00020331893163132476 0 0.014296595472575899 0.00018503728234093634 0 0.014216624791797668 0.00020331893163132476 0 0.014252927124247356 0.00012567227583521151 0 0.013879067602228385 3.0524799276853566e-05 0 0.013340388856304224 0.00031430754002693804 0 0.014252927124247356 0.00012567227583521151 0 0.014212885785656588 0.00010062084004483725 0 0.014244155106650279 5.1120823083974355e-05 0 0.014216624791797668 0.00020331893163132476 0 0.014252927124247356 0.00012567227583521151 0 0.014212885785656588 0.00010062084004483725 0 0.014191937776500858 0.00010031793853471564 0 0.014216624791797668 0.00020331893163132476 0 0.014212885785656588 0.00010062084004483725 0 0.013879067602228385 3.0524799276853566e-05 0 0.013951683493928212 3.5511092809927989e-05 0 0.014252927124247356 0.00012567227583521151 0 0.014306444442420404 0.00010310400602461133 0 0.014244155106650279 5.1120823083974355e-05 0 0.014296595472575899 0.00018503728234093634 0 0.014252927124247356 0.00012567227583521151 0 0.014306444442420404 0.00010310400602461133 0 0.014306444442420404 0.00010310400602461133 0 0.014297448110724503 5.1356818680684301e-05 0 0.014244155106650279 5.1120823083974355e-05 0 0.014341141552642333 5.4541754757894677e-05 0 0.014306444442420404 0.00010310400602461133 0 0.014297448110724503 5.1356818680684301e-05 0 0.014297448110724503 5.1356818680684301e-05 0 0.014244155106650279 5.1120823083974355e-05 0 0.014298146930144084 -3.2439292534697548e-06 0 0.014341141552642333 5.4541754757894677e-05 0 0.014297448110724503 5.1356818680684301e-05 0 0.014298146930144084 -3.2439292534697548e-06 0 0.014193719079425153 0.0001002811750947878 0 0.014212885785656588 0.00010062084004483725 0 0.014244155106650279 5.1120823083974355e-05 0 0.014143302647233166 -0.00010641506458835255 0 0.014298146930144084 -3.2439292534697548e-06 0 0.014364239993697932 -8.6805349177057921e-05 0 0.014143302647233166 -0.00010641506458835255 0 0.014244155106650279 5.1120823083974355e-05 0 0.014298146930144084 -3.2439292534697548e-06 0 0.014461545264587537 6.5918424293686531e-05 0 0.014386691691545076 1.1710080226854304e-05 0 0.01447498863672288 -1.2806859350034777e-05 0 0.014386691691545076 1.1710080226854304e-05 0 0.014364239993697932 -8.6805349177057921e-05 0 0.01447498863672288 -1.2806859350034777e-05 0 0.014298146930144084 -3.2439292534697548e-06 0 0.014386691691545076 1.1710080226854304e-05 0 0.014364239993697932 -8.6805349177057921e-05 0 0.014341141552642333 5.4541754757894677e-05 0 0.014298146930144084 -3.2439292534697548e-06 0 0.014386691691545076 1.1710080226854304e-05 0 0.014991669727201581 -1.382013811806039e-05 0 0.014996017923190013 -2.678005589242056e-06 0 0.014985714708807451 -5.9279413766972476e-06 0 0.014521532498483454 -1.1776064931583719e-05 0 0.014688391807247229 -5.7005896997056541e-05 0 0.014997058187705506 -9.9629401194386304e-06 0 0.014991669727201581 -1.382013811806039e-05 0 0.014994488927487379 -1.1400237237536981e-05 0 0.014991669727201581 -1.382013811806039e-05 0 0.014994488927487379 -1.1400237237536981e-05 0 0.014996017923190013 -2.678005589242056e-06 0 0.014995174595227156 -1.0554158886922073e-05 0 0.014996197005193241 -3.2214645104194289e-06 0 0.014994488927487379 -1.1400237237536981e-05 0 0.014997546798657257 -5.8953236459494598e-06 0 0.014996317595480889 -3.1562573561957422e-06 0 0.014998997220926971 -2.1586247723693005e-06 0 0.014997546798657257 -5.8953236459494598e-06 0 0.014996317595480889 -3.1562573561957422e-06 0 0.014996017923190013 -2.678005589242056e-06 0 0.014992999687135833 8.7617475991234734e-07 0 0.014985714708807451 -5.9279413766972476e-06 0 0.014996197005193241 -3.2214645104194289e-06 0 0.014999998173816547 -4.9621748916857725e-10 0 0.014996017923190013 -2.678005589242056e-06 0 0.014999991889541859 2.421061752951658e-09 0 0.014992999687135833 8.7617475991234734e-07 0 0.014996317595480889 -3.1562573561957422e-06 0 0.014999995576227236 -7.7826321096515919e-10 0 0.01499999739611799 -1.3265028783448903e-09 0 0.014998997220926971 -2.1586247723693005e-06 0 0.014996317595480889 -3.1562573561957422e-06 0 0.01499999739611799 -1.3265028783448903e-09 0 0.014999973369130252 5.5782618799143304e-09 0 0.014992999687135833 8.7617475991234734e-07 0 0.014970146915601884 3.0038412155256357e-06 0 0.014999991889541859 2.421061752951658e-09 0 0.014999973369130252 5.5782618799143304e-09 0 0.014992999687135833 8.7617475991234734e-07 0 0.014992999687135833 8.7617475991234734e-07 0 0.014970146915601884 3.0038412155256357e-06 0 0.014985714708807451 -5.9279413766972476e-06 0 0.014970146915601884 3.0038412155256357e-06 0 0.014985714708807451 -5.9279413766972476e-06 0 0.014969838468584549 -2.170774699766325e-05 0 0.014991669727201581 -1.382013811806039e-05 0 0.014985714708807451 -5.9279413766972476e-06 0 0.014969838468584549 -2.170774699766325e-05 0 0.014688391807247229 -5.7005896997056541e-05 0 0.01478048483345196 -4.1550472534392143e-05 0 0.014364239993697932 -8.6805349177057921e-05 0 0.01447498863672288 -1.2806859350034777e-05 0 0.014594824978159861 -6.9625204162643468e-05 0 0.014557110332032804 4.4654282861211575e-05 0 0.01447498863672288 -1.2806859350034777e-05 0 0.014594824978159861 -6.9625204162643468e-05 0 0.014691287095151325 6.3741129179462603e-05 0 0.014557110332032804 4.4654282861211575e-05 0 0.014594824978159861 -6.9625204162643468e-05 0 0.014970146915601884 3.0038412155256357e-06 0 0.014884651419671994 -8.186487353932754e-06 0 0.014967370826907422 -4.753789135744183e-06 0 0.01478048483345196 -4.1550472534392143e-05 0 0.014880572083541906 -1.3948652831083603e-05 0 0.014691287095151325 6.3741129179462603e-05 0 0.014594824978159861 -6.9625204162643468e-05 0 0.014884651419671994 -8.186487353932754e-06 0 0.014884651419671994 -8.186487353932754e-06 0 0.014967370826907422 -4.753789135744183e-06 0 0.014968067182661256 -3.1403578887642712e-06 0 0.014884651419671994 -8.186487353932754e-06 0 0.014936042455826946 2.4686000129168842e-05 0 0.014896620680210967 0.00010363911745089138 0 0.014970146915601884 3.0038412155256357e-06 0 0.014969838468584549 -2.170774699766325e-05 0 0.014884651419671994 -8.186487353932754e-06 0 0.014967370826907422 -4.753789135744183e-06 0 0.014999955422169824 1.9253987008820124e-10 0 0.014999971705746597 -8.3721159812354866e-09 0 0.014970146915601884 3.0038412155256357e-06 0 0.014967370826907422 -4.753789135744183e-06 0 0.014999955422169824 1.9253987008820124e-10 0 0.014999973369130252 5.5782618799143304e-09 0 0.014970146915601884 3.0038412155256357e-06 0 0.014999955422169824 1.9253987008820124e-10 0 0.014999981030741084 4.5935909525496569e-11 0 0.014999971705746597 -8.3721159812354866e-09 0 0.01498394810643814 -2.1819003974168451e-06 0 0.014967370826907422 -4.753789135744183e-06 0 0.014999971705746597 -8.3721159812354866e-09 0 0.01498394810643814 -2.1819003974168451e-06 0 0.014967370826907422 -4.753789135744183e-06 0 0.01498394810643814 -2.1819003974168451e-06 0 0.014968067182661256 -3.1403578887642712e-06 0 0.01498394810643814 -2.1819003974168451e-06 0 0.014968093266967559 3.3743253951075748e-06 0 0.014968067182661256 -3.1403578887642712e-06 0 0.014968093266967559 3.3743253951075748e-06 0 0.014968067182661256 -3.1403578887642712e-06 0 0.01495587316450349 1.0384724539441079e-05 0 0.014936042455826946 2.4686000129168842e-05 0 0.014990474532191492 4.226024811676813e-05 0 0.014896620680210967 0.00010363911745089138 0 0.014884651419671994 -8.186487353932754e-06 0 0.014968067182661256 -3.1403578887642712e-06 0 0.014936042455826946 2.4686000129168842e-05 0 0.014968067182661256 -3.1403578887642712e-06 0 0.014936042455826946 2.4686000129168842e-05 0 0.014990474532191492 4.226024811676813e-05 0 0.014955612114453933 1.1826590382032033e-05 0 0.014968093266967559 3.3743253951075748e-06 0 0.01495587316450349 1.0384724539441079e-05 0 0.014968787143355153 9.929438191193159e-07 0 0.014972123179261498 2.513501237147613e-05 0 0.014942610448079825 1.9429759291840919e-05 0 0.014955612114453933 1.1826590382032033e-05 0 0.01495587316450349 1.0384724539441079e-05 0 0.014990474532191492 4.226024811676813e-05 0 0.01502701084617443 0.00017387372589196075 0 0.014950048127975022 0.00016229388117698534 0 0.014942610448079825 1.9429759291840919e-05 0 0.01495587316450349 1.0384724539441079e-05 0 0.014941435496917557 2.0252935016559609e-05 0 0.014972123179261498 2.513501237147613e-05 0 0.014991292070761582 0.00011223513071474247 0 0.014942610448079825 1.9429759291840919e-05 0 0.014941435496917557 2.0252935016559609e-05 0 0.014944018114352069 3.242946529241355e-05 0 0.01502701084617443 0.00017387372589196075 0 0.014979771437098818 0.00021256203501948041 0 0.014950048127975022 0.00016229388117698534 0 0.01502701084617443 0.00017387372589196075 0 0.014979771437098818 0.00021256203501948041 0 0.015007697776639855 0.00025935312620458355 0 0.014950048127975022 0.00016229388117698534 0 0.014880793235215751 0.00020241422884862613 0 0.014928827972467088 0.00024208418351530746 0 0.014880793235215751 0.00020241422884862613 0 0.014928827972467088 0.00024208418351530746 0 0.014875775874995853 0.00026830132993010296 0 0.014979771437098818 0.00021256203501948041 0 0.014950048127975022 0.00016229388117698534 0 0.014928827972467088 0.00024208418351530746 0 0.014950048127975022 0.00016229388117698534 0 0.014896620680210967 0.00010363911745089138 0 0.014880793235215751 0.00020241422884862613 0 0.014990474532191492 4.226024811676813e-05 0 0.014950048127975022 0.00016229388117698534 0 0.014896620680210967 0.00010363911745089138 0 0.014884651419671994 -8.186487353932754e-06 0 0.014896620680210967 0.00010363911745089138 0 0.014788338353376172 0.00011353249145503138 0 0.014896620680210967 0.00010363911745089138 0 0.014788338353376172 0.00011353249145503138 0 0.014813282860149515 0.00017903030431677566 0 0.014691287095151325 6.3741129179462603e-05 0 0.014884651419671994 -8.186487353932754e-06 0 0.014788338353376172 0.00011353249145503138 0 0.014691287095151325 6.3741129179462603e-05 0 0.014788338353376172 0.00011353249145503138 0 0.014693228392949377 0.00014545719569379506 0 0.014788338353376172 0.00011353249145503138 0 0.014693228392949377 0.00014545719569379506 0 0.014720396963724899 0.00020115052101023898 0 0.014788338353376172 0.00011353249145503138 0 0.014720396963724899 0.00020115052101023898 0 0.014813282860149515 0.00017903030431677566 0 0.014720396963724899 0.00020115052101023898 0 0.014813282860149515 0.00017903030431677566 0 0.01474754538574286 0.00025431954288075909 0 0.014664443977341256 0.00025248952582644548 0 0.014720396963724899 0.00020115052101023898 0 0.01474754538574286 0.00025431954288075909 0 0.014896620680210967 0.00010363911745089138 0 0.014813282860149515 0.00017903030431677566 0 0.014880793235215751 0.00020241422884862613 0 0.014813282860149515 0.00017903030431677566 0 0.014880793235215751 0.00020241422884862613 0 0.01481447168247507 0.00026791738763135361 0 0.014813282860149515 0.00017903030431677566 0 0.01481447168247507 0.00026791738763135361 0 0.01474754538574286 0.00025431954288075909 0 0.01481447168247507 0.00026791738763135361 0 0.014849878870687781 0.00032953639566200653 0 0.014875775874995853 0.00026830132993010296 0 0.014880793235215751 0.00020241422884862613 0 0.01481447168247507 0.00026791738763135361 0 0.014875775874995853 0.00026830132993010296 0 0.014792954701263768 0.00033004260653131005 0 0.014849878870687781 0.00032953639566200653 0 0.01477907180065856 0.00039095607707934923 0 0.01481447168247507 0.00026791738763135361 0 0.014792954701263768 0.00033004260653131005 0 0.014742057945750085 0.00031787857556747043 0 0.01481447168247507 0.00026791738763135361 0 0.014792954701263768 0.00033004260653131005 0 0.014849878870687781 0.00032953639566200653 0 0.014639162555302298 0.00031944576168611193 0 0.014664443977341256 0.00025248952582644548 0 0.014695745850937849 0.00030054993804666584 0 0.014664443977341256 0.00025248952582644548 0 0.014695745850937849 0.00030054993804666584 0 0.01474754538574286 0.00025431954288075909 0 0.01481447168247507 0.00026791738763135361 0 0.01474754538574286 0.00025431954288075909 0 0.014742057945750085 0.00031787857556747043 0 0.014695745850937849 0.00030054993804666584 0 0.01474754538574286 0.00025431954288075909 0 0.014742057945750085 0.00031787857556747043 0 0.014792954701263768 0.00033004260653131005 0 0.014742057945750085 0.00031787857556747043 0 0.014727645486032051 0.00038415326851573822 0 0.014742057945750085 0.00031787857556747043 0 0.014683380258615059 0.000358282219130514 0 0.014727645486032051 0.00038415326851573822 0 0.014695745850937849 0.00030054993804666584 0 0.014742057945750085 0.00031787857556747043 0 0.014683380258615059 0.000358282219130514 0 0.014639162555302298 0.00031944576168611193 0 0.014695745850937849 0.00030054993804666584 0 0.014683380258615059 0.000358282219130514 0 0.014683380258615059 0.000358282219130514 0 0.014727645486032051 0.00038415326851573822 0 0.014675901947617261 0.00042889796720471473 0 0.014727645486032051 0.00038415326851573822 0 0.014733808486124456 0.00044960428824120823 0 0.01477907180065856 0.00039095607707934923 0 0.014727645486032051 0.00038415326851573822 0 0.014733808486124456 0.00044960428824120823 0 0.014675901947617261 0.00042889796720471473 0 0.014849878870687781 0.00032953639566200653 0 0.014838740191619782 0.00039484534042574007 0 0.01477907180065856 0.00039095607707934923 0 0.014792954701263768 0.00033004260653131005 0 0.014727645486032051 0.00038415326851573822 0 0.01477907180065856 0.00039095607707934923 0 0.014733808486124456 0.00044960428824120823 0 0.01477907180065856 0.00039095607707934923 0 0.014796347970330703 0.00042704473472526713 0 0.014733808486124456 0.00044960428824120823 0 0.014796347970330703 0.00042704473472526713 0 0.014779733718612886 0.00046907355872789135 0 0.014838740191619782 0.00039484534042574007 0 0.01477907180065856 0.00039095607707934923 0 0.014796347970330703 0.00042704473472526713 0 0.014796347970330703 0.00042704473472526713 0 0.014829874604655688 0.00045695079637241557 0 0.014779733718612886 0.00046907355872789135 0 0.014838740191619782 0.00039484534042574007 0 0.014796347970330703 0.00042704473472526713 0 0.014829874604655688 0.00045695079637241557 0 0.014838740191619782 0.00039484534042574007 0 0.014885330922616721 0.00043977340876665103 0 0.014907900005106136 0.00037243714096304705 0 0.014838740191619782 0.00039484534042574007 0 0.014885330922616721 0.00043977340876665103 0 0.014829874604655688 0.00045695079637241557 0 0.014849878870687781 0.00032953639566200653 0 0.014838740191619782 0.00039484534042574007 0 0.014907900005106136 0.00037243714096304705 0 0.014907900005106136 0.00037243714096304705 0 0.01498649272081443 0.00038822316160052673 0 0.014954353926399872 0.00033110802789983006 0 0.014907900005106136 0.00037243714096304705 0 0.01493863119056615 0.00042599672928832314 0 0.01498649272081443 0.00038822316160052673 0 0.014885330922616721 0.00043977340876665103 0 0.014907900005106136 0.00037243714096304705 0 0.01493863119056615 0.00042599672928832314 0 0.014885330922616721 0.00043977340876665103 0 0.01493863119056615 0.00042599672928832314 0 0.014934659998307521 0.00047998822732731137 0 0.01493863119056615 0.00042599672928832314 0 0.01498649272081443 0.00038822316160052673 0 0.014979286617999726 0.00044934082572621684 0 0.01498649272081443 0.00038822316160052673 0 0.015058729815348769 0.00032726710600020873 0 0.015039788614794431 0.00045394669715599281 0 0.014956510141292059 0.00011448110181433424 0 0.015020309924586988 0.00025819299588922051 0 0.01498649272081443 0.00038822316160052673 0 0.015039788614794431 0.00045394669715599281 0 0.014979286617999726 0.00044934082572621684 0 0.01498649272081443 0.00038822316160052673 0 0.014996821333523277 0.00031489087639384716 0 0.014954353926399872 0.00033110802789983006 0 0.014991292070761582 0.00011223513071474247 0 0.014956510141292059 0.00011448110181433424 0 0.014996821333523277 0.00031489087639384716 0 0.014964356272698985 0.00027648638245662843 0 0.014954353926399872 0.00033110802789983006 0 0.01502701084617443 0.00017387372589196075 0 0.015058729815348769 0.00032726710600020873 0 0.015007697776639855 0.00025935312620458355 0 0.014996821333523277 0.00031489087639384716 0 0.015058729815348769 0.00032726710600020873 0 0.015007697776639855 0.00025935312620458355 0 0.01498649272081443 0.00038822316160052673 0 0.014996821333523277 0.00031489087639384716 0 0.015058729815348769 0.00032726710600020873 0 0.014996821333523277 0.00031489087639384716 0 0.015007697776639855 0.00025935312620458355 0 0.014964356272698985 0.00027648638245662843 0 0.014979771437098818 0.00021256203501948041 0 0.015007697776639855 0.00025935312620458355 0 0.014964356272698985 0.00027648638245662843 0 0.014979771437098818 0.00021256203501948041 0 0.014928827972467088 0.00024208418351530746 0 0.014964356272698985 0.00027648638245662843 0 0.014928827972467088 0.00024208418351530746 0 0.014964356272698985 0.00027648638245662843 0 0.014911801154180391 0.0003043941810014586 0 0.014928827972467088 0.00024208418351530746 0 0.014875775874995853 0.00026830132993010296 0 0.014911801154180391 0.0003043941810014586 0 0.014849878870687781 0.00032953639566200653 0 0.014907900005106136 0.00037243714096304705 0 0.014911801154180391 0.0003043941810014586 0 0.014849878870687781 0.00032953639566200653 0 0.014875775874995853 0.00026830132993010296 0 0.014911801154180391 0.0003043941810014586 0 0.014964356272698985 0.00027648638245662843 0 0.014911801154180391 0.0003043941810014586 0 0.014954353926399872 0.00033110802789983006 0 0.014907900005106136 0.00037243714096304705 0 0.014911801154180391 0.0003043941810014586 0 0.014954353926399872 0.00033110802789983006 0 0.011552085551389564 0.00027979004531172044 0 0.01155618919011228 0.00026623502439466031 0 0.011610747336022997 0.00026667395192272574 0 0.011552085551389564 0.00027979004531172044 0 0.01155618919011228 0.00026623502439466031 0 0.011495565024343644 0.00027590238635362109 0 0.0081552822808510818 0.00016825604524171812 0 0.0081345862049250813 0.00021236618976732197 0 0.0081106427937793941 0.00020204492159053858 0 0.0081552822808510818 0.00016825604524171812 0 0.008248049982436674 0.00027602793114088557 0 0.0083256879971957132 0.0002675378158697771 0 0.0081552822808510818 0.00016825604524171812 0 0.0081345862049250813 0.00021236618976732197 0 0.008248049982436674 0.00027602793114088557 0 0.011552085551389564 0.00027979004531172044 0 0.011601738747754638 0.00029346452270745946 0 0.011610747336022997 0.00026667395192272574 0 0.013571751122733641 0.00045603264275734191 0 0.013172556013042727 0.00019033396755387529 0 0.0081552822808510818 0.00016825604524171812 0 0.0084336923008485054 0.00022744185856780693 0 0.0083256879971957132 0.0002675378158697771 0 0.0095161945288694868 0.00013923742711251808 0 0.010279439391880018 0.0001986237344524675 0 0.010279439391880018 0.0001986237344524675 0 0.013172556013042727 0.00019033396755387529 0 0.013172556013042727 0.00019033396755387529 0 0.015020309924586988 0.00025819299588922051 0 0.014891816713495766 0.00056615863398166587 0 0.015017157403396016 0.00057268159502946148 0 0.014984862769210362 0.00050195364724033758 0 0.015017157403396016 0.00057268159502946148 0 0.014984862769210362 0.00050195364724033758 0 0.015039788614794431 0.00045394669715599281 0 0.014984862769210362 0.00050195364724033758 0 0.015039788614794431 0.00045394669715599281 0 0.014979286617999726 0.00044934082572621684 0 0.014984862769210362 0.00050195364724033758 0 0.014979286617999726 0.00044934082572621684 0 0.014934659998307521 0.00047998822732731137 0 0.01493863119056615 0.00042599672928832314 0 0.014979286617999726 0.00044934082572621684 0 0.014934659998307521 0.00047998822732731137 0 0.014885330922616721 0.00043977340876665103 0 0.014934659998307521 0.00047998822732731137 0 0.014878774353541511 0.00050049312412999434 0 0.014891816713495766 0.00056615863398166587 0 0.014984862769210362 0.00050195364724033758 0 0.014934659998307521 0.00047998822732731137 0 0.014891816713495766 0.00056615863398166587 0 0.014934659998307521 0.00047998822732731137 0 0.014878774353541511 0.00050049312412999434 0 0.014891816713495766 0.00056615863398166587 0 0.014878774353541511 0.00050049312412999434 0 0.014810503262762837 0.00051227825205400095 0 0.014885330922616721 0.00043977340876665103 0 0.014878774353541511 0.00050049312412999434 0 0.014829874604655688 0.00045695079637241557 0 0.014829874604655688 0.00045695079637241557 0 0.014779733718612886 0.00046907355872789135 0 0.014810503262762837 0.00051227825205400095 0 0.014878774353541511 0.00050049312412999434 0 0.014829874604655688 0.00045695079637241557 0 0.014810503262762837 0.00051227825205400095 0 0.014891816713495766 0.00056615863398166587 0 0.014744118734033775 0.00057579650535212674 0 0.014810503262762837 0.00051227825205400095 0 0.014779733718612886 0.00046907355872789135 0 0.014732976132841797 0.0005085760610527624 0 0.014810503262762837 0.00051227825205400095 0 0.014733808486124456 0.00044960428824120823 0 0.014779733718612886 0.00046907355872789135 0 0.014732976132841797 0.0005085760610527624 0 0.014732976132841797 0.0005085760610527624 0 0.014744118734033775 0.00057579650535212674 0 0.014810503262762837 0.00051227825205400095 0 0.014732976132841797 0.0005085760610527624 0 0.014744118734033775 0.00057579650535212674 0 0.014541360163602531 0.00053147814287412046 0 0.011428272856420606 0.00042105787822100109 0 0.0091047057588699853 0.00041940106722506489 0 0.011428272856420606 0.00042105787822100109 0 0.013379800579739989 0.00088027568276077134 0 0.011712575577376498 0.00075969016134521414 0 0.011171459777917015 0.00057703303884081957 0 0.011019679726609569 0.00071545846188342721 0 0.014733808486124456 0.00044960428824120823 0 0.014675901947617261 0.00042889796720471473 0 0.014663069690217729 0.00052956838933965178 0 0.014733808486124456 0.00044960428824120823 0 0.014732976132841797 0.0005085760610527624 0 0.014663069690217729 0.00052956838933965178 0 0.015035702927755332 0.00052954984142047597 0 0.013379800579739989 0.00088027568276077134 0 0.0081073854916342558 0.00020015933953526396 0 0.0080985171523438558 0.00020751744989023664 0 0.0081103091908159789 0.00023045910871780835 0 0.0081073854916342558 0.00020015933953526396 0 0.0080985171523438558 0.00020751744989023664 0 0.0080948579488313369 0.00020245917490581961 0 0.0080985171523438558 0.00020751744989023664 0 0.0080956098608184254 0.000190178037247633 0 0.0081134790396385024 0.00021168501694227915 0 0.0081552822808510818 0.00016825604524171812 0 0.0081073854916342558 0.00020015933953526396 0 0.0081106427937793941 0.00020204492159053858 0 0.0095161945288694868 0.00013923742711251808 0 0.011428272856420606 0.00042105787822100109 0 0.013571751122733641 0.00045603264275734191 0 0.011428272856420606 0.00042105787822100109 0 0.0081073854916342558 0.00020015933953526396 0 0.0080948579488313369 0.00020245917490581961 0 0.0081106427937793941 0.00020204492159053858 0 0.0084279026812410889 7.3900992618457177e-05 0 0.0068562251562822966 0.0002015422486902171 0 0.0081345862049250813 0.00021236618976732197 0 0.0081106427937793941 0.00020204492159053858 0 0.0080928521887107599 0.00021043452081304288 0 0.0080948579488313369 0.00020245917490581961 0 0.0080928521887107599 0.00021043452081304288 0 0.008078850750713901 0.00019686976869446831 0 0.0080948579488313369 0.00020245917490581961 0 0.0081106427937793941 0.00020204492159053858 0 0.0080928521887107599 0.00021043452081304288 0 0.0068562251562822966 0.0002015422486902171 0 0.008007094570856901 0.00025070415688900892 0 0.0080605573757917149 0.00019880812608943314 0 0.008078850750713901 0.00019686976869446831 0 0.0080916076225893592 0.00014216470484085735 0 0.0080956098608184254 0.000190178037247633 0 0.008078850750713901 0.00019686976869446831 0 0.0080916076225893592 0.00014216470484085735 0 0.0080985171523438558 0.00020751744989023664 0 0.0080956098608184254 0.000190178037247633 0 0.008078850750713901 0.00019686976869446831 0 0.0080985171523438558 0.00020751744989023664 0 0.0080948579488313369 0.00020245917490581961 0 0.008078850750713901 0.00019686976869446831 0 0.0068562251562822966 0.0002015422486902171 0 0.0062570108137871864 1.3368451753241889e-05 0 0.0046649926707244089 -6.9001552130542985e-05 0 0.0045897197872694865 -5.6025336327868543e-05 0 0.0045625961025447716 -8.7675535064028623e-05 0 0.0046935116185098545 -0.00016609165795815673 0 0.0046649926707244089 -6.9001552130542985e-05 0 0.0045625961025447716 -8.7675535064028623e-05 0 0.0046935116185098545 -0.00016609165795815673 0 0.0046649926707244089 -6.9001552130542985e-05 0 0.0047479840756835586 -9.1350605095378965e-05 0 0.0046935116185098545 -0.00016609165795815673 0 0.0047479840756835586 -9.1350605095378965e-05 0 0.0048165645719029405 -0.00014808283702913281 0 0.0081345862049250813 0.00021236618976732197 0 0.007908521346473173 0.00034764029284889495 0 0.0082827441188685538 0.00037476590617063239 0 0.0068562251562822966 0.0002015422486902171 0 0.0067096089985354363 -2.6339025927341216e-05 0 0.0081345862049250813 0.00021236618976732197 0 0.008248049982436674 0.00027602793114088557 0 0.0082827441188685538 0.00037476590617063239 0 0.0085815176313802071 0.0004012189493711654 0 0.0084320861232024084 0.00031108751375802602 0 0.0082823374872478869 0.00038226266808601399 0 0.0076844044626036513 0.00014929303801842028 0 0.0067096089985354363 -2.6339025927341216e-05 0 0.010279439391880018 0.0001986237344524675 0 0.0097170724239826478 0.00030601022878725206 0 0.0084336923008485054 0.00022744185856780693 0 0.0084320861232024084 0.00031108751375802602 0 0.0083256879971957132 0.0002675378158697771 0 0.0084320861232024084 0.00031108751375802602 0 0.0083256879971957132 0.0002675378158697771 0 0.0082823374872478869 0.00038226266808601399 0 0.0076057325152049582 0.00053659406829409959 0 0.0067096089985354363 -2.6339025927341216e-05 0 0.008248049982436674 0.00027602793114088557 0 0.0083256879971957132 0.0002675378158697771 0 0.0082823374872478869 0.00038226266808601399 0 0.0067096089985354363 -2.6339025927341216e-05 0 0.0055540518316987307 -0.00010128026906248675 0 0.0047479840756835586 -9.1350605095378965e-05 0 0.0048165645719029405 -0.00014808283702913281 0 0.0048282132763486892 -6.1028531336021472e-05 0 0.0065906441161477291 -0.00013220027594598919 0 0.0064230348148891121 -0.00014436561614970074 0 0.0064754881821499927 1.3540834583123785e-05 0 0.0057219911706229976 0.00014046775376803808 0 0.0055540518316987307 -0.00010128026906248675 0 0.0048359308846906875 2.2774440860577529e-05 0 0.0048282132763486892 -6.1028531336021472e-05 0 0.004776611933177864 2.5637497645605997e-05 0 0.0048282132763486892 -6.1028531336021472e-05 0 0.0047300881419621351 -1.3415995759597248e-05 0 0.004776611933177864 2.5637497645605997e-05 0 0.0047479840756835586 -9.1350605095378965e-05 0 0.0048282132763486892 -6.1028531336021472e-05 0 0.0047300881419621351 -1.3415995759597248e-05 0 0.0047300881419621351 -1.3415995759597248e-05 0 0.004776611933177864 2.5637497645605997e-05 0 0.0047016163622700322 8.5162113045313719e-05 0 0.004776611933177864 2.5637497645605997e-05 0 0.0047799946421837412 8.4388539042604734e-05 0 0.0047016163622700322 8.5162113045313719e-05 0 0.0048359308846906875 2.2774440860577529e-05 0 0.004776611933177864 2.5637497645605997e-05 0 0.0047799946421837412 8.4388539042604734e-05 0 0.0048435458511780658 9.8048137386677291e-05 0 0.0047799946421837412 8.4388539042604734e-05 0 0.004782412583619681 0.00012402075081827444 0 0.0047799946421837412 8.4388539042604734e-05 0 0.0047440646616731287 0.00014359920078746159 0 0.004782412583619681 0.00012402075081827444 0 0.0047799946421837412 8.4388539042604734e-05 0 0.0047440646616731287 0.00014359920078746159 0 0.0047016163622700322 8.5162113045313719e-05 0 0.0047433894204671027 0.00018797358194862449 0 0.004698481903333873 0.00010921924083378602 0 0.0047455297221430737 0.0002307830861969529 0 0.0046818902079137446 0.00022742830136419169 0 0.0047120591126188736 0.00026811451411529722 0 0.0047455297221430737 0.0002307830861969529 0 0.0046818902079137446 0.00022742830136419169 0 0.0047000240108963235 0.00014054490417552171 0 0.0047440646616731287 0.00014359920078746159 0 0.0047732539225312648 0.00016354123889275523 0 0.0047552407629323961 0.00021302862086258699 0 0.0047440646616731287 0.00014359920078746159 0 0.004782412583619681 0.00012402075081827444 0 0.0047732539225312648 0.00016354123889275523 0 0.0045818503861796379 0.00019846454998508252 0 0.0045058157289718063 0.00031315904437647198 0 0.0045737423131137159 0.00020604566203602509 0 0.0045941119585010057 0.00025176515075757048 0 0.0045557106387358265 0.00028066320987001726 0 0.0046162801508429782 0.00021869247374501778 0 0.0045737423131137159 0.00020604566203602509 0 0.0046099763045938016 0.00018084376497496996 0 0.0046162801508429782 0.00021869247374501778 0 0.0046438448637317982 0.0001791523523732782 0 0.0046099763045938016 0.00018084376497496996 0 0.0046162801508429782 0.00021869247374501778 0 0.0045737423131137159 0.00020604566203602509 0 0.0045941119585010057 0.00025176515075757048 0 0.0046162801508429782 0.00021869247374501778 0 0.0045941119585010057 0.00025176515075757048 0 0.0046295758567067823 0.00026099293768410965 0 0.0046162801508429782 0.00021869247374501778 0 0.0046818902079137446 0.00022742830136419169 0 0.0046438448637317982 0.0001791523523732782 0 0.0046162801508429782 0.00021869247374501778 0 0.0046818902079137446 0.00022742830136419169 0 0.0046295758567067823 0.00026099293768410965 0 0.0046818902079137446 0.00022742830136419169 0 0.0046737711006785004 0.00027445079207084129 0 0.0046295758567067823 0.00026099293768410965 0 0.0046818902079137446 0.00022742830136419169 0 0.0046737711006785004 0.00027445079207084129 0 0.0047120591126188736 0.00026811451411529722 0 0.0046438448637317982 0.0001791523523732782 0 0.0047000240108963235 0.00014054490417552171 0 0.0046048696381026872 0.00011779356209960506 0 0.0046818902079137446 0.00022742830136419169 0 0.0046438448637317982 0.0001791523523732782 0 0.0047000240108963235 0.00014054490417552171 0 0.0045818503861796379 0.00019846454998508252 0 0.0046005593012110255 0.00013118707371502931 0 0.0045848020462536535 0.0002067149351260743 0 0.0045798422712359415 0.00012228101812477291 0 0.0045604931984032718 0.00019657899590633842 0 0.0045848020462536535 0.0002067149351260743 0 0.0046048696381026872 0.00011779356209960506 0 0.0045798422712359415 0.00012228101812477291 0 0.0045737423131137159 0.00020604566203602509 0 0.0046099763045938016 0.00018084376497496996 0 0.0046048696381026872 0.00011779356209960506 0 0.0046438448637317982 0.0001791523523732782 0 0.0046099763045938016 0.00018084376497496996 0 0.0046048696381026872 0.00011779356209960506 0 0.0045798422712359415 0.00012228101812477291 0 0.0045936230655403828 5.3216473666585569e-05 0 0.0045509474353359796 7.2103417981438995e-05 0 0.0045936230655403828 5.3216473666585569e-05 0 0.0045700763094048405 -2.700595069920105e-06 0 0.0045509474353359796 7.2103417981438995e-05 0 0.0046048696381026872 0.00011779356209960506 0 0.0045798422712359415 0.00012228101812477291 0 0.0045936230655403828 5.3216473666585569e-05 0 0.0046048696381026872 0.00011779356209960506 0 0.0045936230655403828 5.3216473666585569e-05 0 0.0046371184331711135 1.4473403691091823e-05 0 0.0045936230655403828 5.3216473666585569e-05 0 0.0046371184331711135 1.4473403691091823e-05 0 0.0045700763094048405 -2.700595069920105e-06 0 0.004698481903333873 0.00010921924083378602 0 0.0046379442566934093 2.1887367823601701e-05 0 0.0047000240108963235 0.00014054490417552171 0 0.0046048696381026872 0.00011779356209960506 0 0.0046371184331711135 1.4473403691091823e-05 0 0.0047300881419621351 -1.3415995759597248e-05 0 0.0047016163622700322 8.5162113045313719e-05 0 0.0046371184331711135 1.4473403691091823e-05 0 0.0046649926707244089 -6.9001552130542985e-05 0 0.0047300881419621351 -1.3415995759597248e-05 0 0.0046371184331711135 1.4473403691091823e-05 0 0.0046649926707244089 -6.9001552130542985e-05 0 0.0047479840756835586 -9.1350605095378965e-05 0 0.0047300881419621351 -1.3415995759597248e-05 0 0.0046649926707244089 -6.9001552130542985e-05 0 0.0046371184331711135 1.4473403691091823e-05 0 0.0045897197872694865 -5.6025336327868543e-05 0 0.0046371184331711135 1.4473403691091823e-05 0 0.0045897197872694865 -5.6025336327868543e-05 0 0.0045700763094048405 -2.700595069920105e-06 0 0.0045897197872694865 -5.6025336327868543e-05 0 0.0045303405596092338 -8.2095056706128907e-05 0 0.0045625961025447716 -8.7675535064028623e-05 0 0.0045303405596092338 -8.2095056706128907e-05 0 0.0046350525092108668 -6.1572704686293042e-05 0 0.0045625961025447716 -8.7675535064028623e-05 0 0.006343326938684047 7.9996154436606398e-06 0 0.0062570108137871864 1.3368451753241889e-05 0 0.0045897197872694865 -5.6025336327868543e-05 0 0.0045303405596092338 -8.2095056706128907e-05 0 0.0045700763094048405 -2.700595069920105e-06 0 0.0045303405596092338 -8.2095056706128907e-05 0 0.0046350525092108668 -6.1572704686293042e-05 0 0.0046895989995982485 -0.00021343211436469924 0 0.0045484391063920233 -9.9641200280916014e-05 0 0.0043061189422881644 -7.2764154323925055e-05 0 0.0045303405596092338 -8.2095056706128907e-05 0 0.0042718370095004175 4.8112108491825478e-05 0 0.0041057914243525506 3.2540605952411413e-05 0 0.0042718370095004175 4.8112108491825478e-05 0 0.0043964441883717325 9.4487181374639759e-05 0 0.0043129828568252357 0.00011046203885293236 0 0.0042718370095004175 4.8112108491825478e-05 0 0.0043129828568252357 0.00011046203885293236 0 0.004239591190397381 0.00014519233115120302 0 0.0042718370095004175 4.8112108491825478e-05 0 0.0044846742687398473 2.8557136290390596e-05 0 0.0043964441883717325 9.4487181374639759e-05 0 0.0042718370095004175 4.8112108491825478e-05 0 0.0041915958695907182 6.9344829872669395e-05 0 0.004239591190397381 0.00014519233115120302 0 0.0042718370095004175 4.8112108491825478e-05 0 0.0041915958695907182 6.9344829872669395e-05 0 0.0041057914243525506 3.2540605952411413e-05 0 0.0041915958695907182 6.9344829872669395e-05 0 0.0041498798403210024 7.9249951426584936e-05 0 0.004239591190397381 0.00014519233115120302 0 0.0041915958695907182 6.9344829872669395e-05 0 0.0041498798403210024 7.9249951426584936e-05 0 0.0041057914243525506 3.2540605952411413e-05 0 0.0045700763094048405 -2.700595069920105e-06 0 0.0044846742687398473 2.8557136290390596e-05 0 0.0045509474353359796 7.2103417981438995e-05 0 0.0045303405596092338 -8.2095056706128907e-05 0 0.0045700763094048405 -2.700595069920105e-06 0 0.0044846742687398473 2.8557136290390596e-05 0 0.0045303405596092338 -8.2095056706128907e-05 0 0.0042718370095004175 4.8112108491825478e-05 0 0.0044846742687398473 2.8557136290390596e-05 0 0.0044846742687398473 2.8557136290390596e-05 0 0.0043964441883717325 9.4487181374639759e-05 0 0.0044896784235771425 9.5676331587469162e-05 0 0.0043964441883717325 9.4487181374639759e-05 0 0.0044896784235771425 9.5676331587469162e-05 0 0.0044397556114327448 0.00014258284511363951 0 0.0044846742687398473 2.8557136290390596e-05 0 0.0044896784235771425 9.5676331587469162e-05 0 0.0045509474353359796 7.2103417981438995e-05 0 0.0044896784235771425 9.5676331587469162e-05 0 0.0045509474353359796 7.2103417981438995e-05 0 0.0045159457407669005 0.00014730871873873763 0 0.0045798422712359415 0.00012228101812477291 0 0.0045509474353359796 7.2103417981438995e-05 0 0.0045159457407669005 0.00014730871873873763 0 0.0045159457407669005 0.00014730871873873763 0 0.0045150076553164987 0.00022363897665962778 0 0.0044649535836208138 0.00020555811527741915 0 0.0045798422712359415 0.00012228101812477291 0 0.0045159457407669005 0.00014730871873873763 0 0.0045150076553164987 0.00022363897665962778 0 0.004578590257089339 0.00014504960629733237 0 0.0045522801085824197 0.00026319317860312919 0 0.0045150076553164987 0.00022363897665962778 0 0.0044507917969826534 0.00029245503408172134 0 0.004557543532105913 0.00033153317057364588 0 0.0045798422712359415 0.00012228101812477291 0 0.0045150076553164987 0.00022363897665962778 0 0.004557543532105913 0.00033153317057364588 0 0.0044507917969826534 0.00029245503408172134 0 0.0044649535836208138 0.00020555811527741915 0 0.0043664819557812382 0.00018584372824448467 0 0.0045150076553164987 0.00022363897665962778 0 0.0044507917969826534 0.00029245503408172134 0 0.0044649535836208138 0.00020555811527741915 0 0.0044649535836208138 0.00020555811527741915 0 0.0044397556114327448 0.00014258284511363951 0 0.0043664819557812382 0.00018584372824448467 0 0.0045159457407669005 0.00014730871873873763 0 0.0044649535836208138 0.00020555811527741915 0 0.0044397556114327448 0.00014258284511363951 0 0.0044896784235771425 9.5676331587469162e-05 0 0.0045159457407669005 0.00014730871873873763 0 0.0044397556114327448 0.00014258284511363951 0 0.0043964441883717325 9.4487181374639759e-05 0 0.0044397556114327448 0.00014258284511363951 0 0.0043664819557812382 0.00018584372824448467 0 0.0041309064106922477 0.00021873299868023561 0 0.0040210130412386795 0.00023265408080934749 0 0.0040638296264314845 8.5688374088465673e-05 0 0.0043964441883717325 9.4487181374639759e-05 0 0.0043129828568252357 0.00011046203885293236 0 0.0043664819557812382 0.00018584372824448467 0 0.004239591190397381 0.00014519233115120302 0 0.0043136221089775315 0.0003296265849264466 0 0.0040638296264314845 8.5688374088465673e-05 0 0.0042174335904047204 0.00027493178814038218 0 0.0040714870373671028 9.8292750793830711e-05 0 0.0043129828568252357 0.00011046203885293236 0 0.0043664819557812382 0.00018584372824448467 0 0.004239591190397381 0.00014519233115120302 0 0.0041498798403210024 7.9249951426584936e-05 0 0.004239591190397381 0.00014519233115120302 0 0.0040638296264314845 8.5688374088465673e-05 0 0.0044507917969826534 0.00029245503408172134 0 0.0043664819557812382 0.00018584372824448467 0 0.0043136221089775315 0.0003296265849264466 0 0.0043664819557812382 0.00018584372824448467 0 0.004239591190397381 0.00014519233115120302 0 0.0043136221089775315 0.0003296265849264466 0 0.0041309064106922477 0.00021873299868023561 0 0.0040493844079796081 0.0003148845062463198 0 0.0040210130412386795 0.00023265408080934749 0 0.0041309064106922477 0.00021873299868023561 0 0.0040493844079796081 0.0003148845062463198 0 0.0041353694870969581 0.00033751011321414006 0 0.0045848020462536535 0.0002067149351260743 0 0.004560534866511542 0.00029811276775333287 0 0.0045404132396851728 0.00027691422014697179 0 0.0042174335904047204 0.00027493178814038218 0 0.0044321151667535549 0.00035859874579184512 0 0.0043136221089775315 0.0003296265849264466 0 0.0044586359583734881 0.00036923285681211837 0 0.0045123071917638159 0.0005220541086548324 0 0.0041309064106922477 0.00021873299868023561 0 0.0041353694870969581 0.00033751011321414006 0 0.0042471187186501154 0.00034562246480448935 0 0.0045522801085824197 0.00026319317860312919 0 0.0044321151667535549 0.00035859874579184512 0 0.0045848020462536535 0.0002067149351260743 0 0.0045604931984032718 0.00019657899590633842 0 0.0045404132396851728 0.00027691422014697179 0 0.004557543532105913 0.00033153317057364588 0 0.0044586359583734881 0.00036923285681211837 0 0.0045123071917638159 0.0005220541086548324 0 0.0044507917969826534 0.00029245503408172134 0 0.004557543532105913 0.00033153317057364588 0 0.0044586359583734881 0.00036923285681211837 0 0.0044507917969826534 0.00029245503408172134 0 0.0043136221089775315 0.0003296265849264466 0 0.0044586359583734881 0.00036923285681211837 0 0.0048673418070212726 -1.8919870703995709e-05 0 0.0040838155781090218 0.00040892866731424826 0 0.0039272501244381162 0.00032787389752063562 0 0.0039179431873663335 0.00023806055281768752 0 0.0037563662705091538 0.00039155102818228416 0 0.0039179431873663335 0.00023806055281768752 0 0.0038328819149517014 0.00015790270539741246 0 0.0037563662705091538 0.00039155102818228416 0 0.0040493844079796081 0.0003148845062463198 0 0.0039272501244381162 0.00032787389752063562 0 0.0040210130412386795 0.00023265408080934749 0 0.0039272501244381162 0.00032787389752063562 0 0.0040210130412386795 0.00023265408080934749 0 0.0039179431873663335 0.00023806055281768752 0 0.0048673418070212726 -1.8919870703995709e-05 0 0.0043061189422881644 -7.2764154323925055e-05 0 0.0040638296264314845 8.5688374088465673e-05 0 0.0038328819149517014 0.00015790270539741246 0 0.0041057914243525506 3.2540605952411413e-05 0 0.0040210130412386795 0.00023265408080934749 0 0.0039179431873663335 0.00023806055281768752 0 0.0040638296264314845 8.5688374088465673e-05 0 0.0039179431873663335 0.00023806055281768752 0 0.0040638296264314845 8.5688374088465673e-05 0 0.0038328819149517014 0.00015790270539741246 0 0.0062217770184108418 4.3865211247118872e-05 0 0.0062666629498309406 -0.00012342854210377165 0 0.0061138077390141222 -2.6304073703486782e-05 0 0.0048673418070212726 -1.8919870703995709e-05 0 0.0068741455127499258 -3.2755274386107755e-05 0 0.0082063562836306708 -2.4407984357663992e-05 0 0.0082870776908236504 8.2423646816179319e-06 0 0.0082853881931857967 -7.6278405384346362e-05 0 0.0068741455127499258 -3.2755274386107755e-05 0 0.0072940597755479968 -9.847848632394085e-05 0 0.0046350525092108668 -6.1572704686293042e-05 0 0.0048818345877068197 -0.00017919097579897401 0 0.0046895989995982485 -0.00021343211436469924 0 0.0049238704768431339 -0.00035543904806510413 0 0.0048818345877068197 -0.00017919097579897401 0 0.0046895989995982485 -0.00021343211436469924 0 0.0041498798403210024 7.9249951426584936e-05 0 0.0040638296264314845 8.5688374088465673e-05 0 0.0041057914243525506 3.2540605952411413e-05 0 0.0081405324966601789 7.5528462621740055e-05 0 0.0081979518614496635 6.2714896779884018e-05 0 0.0081721782469357466 0.00011334753027091374 0 0.006343326938684047 7.9996154436606398e-06 0 0.0068741455127499258 -3.2755274386107755e-05 0 0.0081405324966601789 7.5528462621740055e-05 0 0.0081949402619875752 2.263171882766013e-05 0 0.0081979518614496635 6.2714896779884018e-05 0 0.0082063562836306708 -2.4407984357663992e-05 0 0.0081979518614496635 6.2714896779884018e-05 0 0.0082870776908236504 8.2423646816179319e-06 0 0.0081979518614496635 6.2714896779884018e-05 0 0.0082554493486068827 8.3195525425705147e-05 0 0.0082870776908236504 8.2423646816179319e-06 0 0.0068741455127499258 -3.2755274386107755e-05 0 0.0081633966952453924 -3.8459815686139732e-05 0 0.0082554493486068827 8.3195525425705147e-05 0 0.0082205699673429944 0.00014923372253924661 0 0.0083216404809119439 0.00010067584323082132 0 0.0081979518614496635 6.2714896779884018e-05 0 0.0082554493486068827 8.3195525425705147e-05 0 0.0082205699673429944 0.00014923372253924661 0 0.0082205699673429944 0.00014923372253924661 0 0.0082490701473220511 0.00020257728904316642 0 0.0082147079148849056 0.0002101922013387535 0 0.0082205699673429944 0.00014923372253924661 0 0.0082490701473220511 0.00020257728904316642 0 0.0083094435625386941 0.00018150221981495137 0 0.0082205699673429944 0.00014923372253924661 0 0.0081861635671899337 0.00019500109114442557 0 0.0081667092789561319 0.00015789624371808435 0 0.0082205699673429944 0.00014923372253924661 0 0.0081861635671899337 0.00019500109114442557 0 0.0082147079148849056 0.0002101922013387535 0 0.0082205699673429944 0.00014923372253924661 0 0.0081721782469357466 0.00011334753027091374 0 0.0081667092789561319 0.00015789624371808435 0 0.0081979518614496635 6.2714896779884018e-05 0 0.0082205699673429944 0.00014923372253924661 0 0.0081721782469357466 0.00011334753027091374 0 0.0081405324966601789 7.5528462621740055e-05 0 0.0081394638314353836 0.00013047514394845313 0 0.0080916076225893592 0.00014216470484085735 0 0.0081405324966601789 7.5528462621740055e-05 0 0.0081721782469357466 0.00011334753027091374 0 0.0081394638314353836 0.00013047514394845313 0 0.0081394638314353836 0.00013047514394845313 0 0.0081667092789561319 0.00015789624371808435 0 0.0081296141588631313 0.0001625121737868744 0 0.0081721782469357466 0.00011334753027091374 0 0.0081394638314353836 0.00013047514394845313 0 0.0081667092789561319 0.00015789624371808435 0 0.0081394638314353836 0.00013047514394845313 0 0.0080916076225893592 0.00014216470484085735 0 0.0081296141588631313 0.0001625121737868744 0 0.0080916076225893592 0.00014216470484085735 0 0.0081090619356224657 0.00017219710737499292 0 0.0081296141588631313 0.0001625121737868744 0 0.0080956098608184254 0.000190178037247633 0 0.0080916076225893592 0.00014216470484085735 0 0.0081090619356224657 0.00017219710737499292 0 0.0081090619356224657 0.00017219710737499292 0 0.0081201412528930407 0.00019224216543387102 0 0.0081296141588631313 0.0001625121737868744 0 0.0080956098608184254 0.000190178037247633 0 0.0081090619356224657 0.00017219710737499292 0 0.0081201412528930407 0.00019224216543387102 0 0.0080956098608184254 0.000190178037247633 0 0.0081201412528930407 0.00019224216543387102 0 0.0081134790396385024 0.00021168501694227915 0 0.0081667092789561319 0.00015789624371808435 0 0.0081296141588631313 0.0001625121737868744 0 0.008155683713488503 0.00019111613327147046 0 0.0081201412528930407 0.00019224216543387102 0 0.0081296141588631313 0.0001625121737868744 0 0.008155683713488503 0.00019111613327147046 0 0.0081861635671899337 0.00019500109114442557 0 0.0081667092789561319 0.00015789624371808435 0 0.008155683713488503 0.00019111613327147046 0 0.0081861635671899337 0.00019500109114442557 0 0.008155683713488503 0.00019111613327147046 0 0.0081845667960565964 0.00021739277462417354 0 0.008155683713488503 0.00019111613327147046 0 0.0081845667960565964 0.00021739277462417354 0 0.0081342210635739157 0.00022266328414055064 0 0.0081845667960565964 0.00021739277462417354 0 0.0081342210635739157 0.00022266328414055064 0 0.0081611602844961634 0.00027850382598920839 0 0.0081342210635739157 0.00022266328414055064 0 0.0081103091908159789 0.00023045910871780835 0 0.0081611602844961634 0.00027850382598920839 0 0.0081201412528930407 0.00019224216543387102 0 0.008155683713488503 0.00019111613327147046 0 0.0081342210635739157 0.00022266328414055064 0 0.0081201412528930407 0.00019224216543387102 0 0.0081134790396385024 0.00021168501694227915 0 0.0081342210635739157 0.00022266328414055064 0 0.0080985171523438558 0.00020751744989023664 0 0.0081134790396385024 0.00021168501694227915 0 0.0081103091908159789 0.00023045910871780835 0 0.0081134790396385024 0.00021168501694227915 0 0.0081342210635739157 0.00022266328414055064 0 0.0081103091908159789 0.00023045910871780835 0 0.013379800579739989 0.00088027568276077134 0 0.010191738183821441 0.0009465764675139417 0 0.012126333772128059 0.0011766719903954306 0 0.012804194355456525 0.0014087051884712123 0 0.012209322982171493 0.0014689522923829557 0 0.013449389801090599 0.00083721318324565504 0 0.013379800579739989 0.00088027568276077134 0 0.011171459777917015 0.00057703303884081957 0 0.011019679726609569 0.00071545846188342721 0 0.010319413752784033 0.00066816511565397465 0 0.0091047057588699853 0.00041940106722506489 0 0.010191738183821441 0.0009465764675139417 0 0.010191738183821441 0.0009465764675139417 0 0.0092687872167717122 0.00077597050945816073 0 0.0081845667960565964 0.00021739277462417354 0 0.0081611602844961634 0.00027850382598920839 0 0.0083427882980288675 0.00030479433550020552 0 0.012126333772128059 0.0011766719903954306 0 0.012209322982171493 0.0014689522923829557 0 0.011883746214891079 0.0012885406663945605 0 0.010208624816355694 0.0012291725226812229 0 0.010359265173731846 0.0012347311010374024 0 0.010390036026273645 0.0012668561391553197 0 0.010191738183821441 0.0009465764675139417 0 0.011233336191827238 0.0013960527186764294 0 0.011642036462065184 0.0011710473248534453 0 0.012126333772128059 0.0011766719903954306 0 0.011883746214891079 0.0012885406663945605 0 0.012209322982171493 0.0014689522923829557 0 0.011883746214891079 0.0012885406663945605 0 0.011633239312597181 0.0014224080191428284 0 0.011642036462065184 0.0011710473248534453 0 0.011883746214891079 0.0012885406663945605 0 0.011633239312597181 0.0014224080191428284 0 0.0083427882980288675 0.00030479433550020552 0 0.008632272001139904 0.00030413732433325693 0 0.0083778618378104689 0.00024131200713537303 0 0.011233336191827238 0.0013960527186764294 0 0.010735233207311883 0.0013205544465423947 0 0.010359265173731846 0.0012347311010374024 0 0.010390036026273645 0.0012668561391553197 0 0.010489736643216547 0.0012427124337812947 0 0.0092687872167717122 0.00077597050945816073 0 0.0090108412411623907 0.00052039099258093142 0 0.011642036462065184 0.0011710473248534453 0 0.011633239312597181 0.0014224080191428284 0 0.011349594246844756 0.0012455736880069182 0 0.010390036026273645 0.0012668561391553197 0 0.010489736643216547 0.0012427124337812947 0 0.01053164225029774 0.0012869841193466523 0 0.011633239312597181 0.0014224080191428284 0 0.011349594246844756 0.0012455736880069182 0 0.011045599584544293 0.0013772658506474866 0 0.0090108412411623907 0.00052039099258093142 0 0.0081896011479003737 0.00022001670867691643 0 0.0082713988612233523 0.00027316411942801322 0 0.0082419724691578308 0.00023074165907888358 0 0.0082067561900758604 0.00023738507449719585 0 0.0082419724691578308 0.00023074165907888358 0 0.0082147079148849056 0.0002101922013387535 0 0.0082067561900758604 0.00023738507449719585 0 0.0082713988612233523 0.00027316411942801322 0 0.0082419724691578308 0.00023074165907888358 0 0.0082753538191505903 0.00023320658263777517 0 0.0082753538191505903 0.00023320658263777517 0 0.0082490701473220511 0.00020257728904316642 0 0.0083094435625386941 0.00018150221981495137 0 0.0082419724691578308 0.00023074165907888358 0 0.0082753538191505903 0.00023320658263777517 0 0.0082490701473220511 0.00020257728904316642 0 0.0082419724691578308 0.00023074165907888358 0 0.0082490701473220511 0.00020257728904316642 0 0.0082147079148849056 0.0002101922013387535 0 0.0081845667960565964 0.00021739277462417354 0 0.0081962500555925709 0.00021602588058688906 0 0.0082067561900758604 0.00023738507449719585 0 0.0081861635671899337 0.00019500109114442557 0 0.0082147079148849056 0.0002101922013387535 0 0.0081962500555925709 0.00021602588058688906 0 0.0082337103628819051 0.00022741287889200572 0 0.0081896011479003737 0.00022001670867691643 0 0.0082147079148849056 0.0002101922013387535 0 0.0081962500555925709 0.00021602588058688906 0 0.0082067561900758604 0.00023738507449719585 0 0.0081845667960565964 0.00021739277462417354 0 0.0083427882980288675 0.00030479433550020552 0 0.0083778618378104689 0.00024131200713537303 0 0.0081861635671899337 0.00019500109114442557 0 0.0081845667960565964 0.00021739277462417354 0 0.0081962500555925709 0.00021602588058688906 0 0.0083622513130218786 0.00023182685494288726 0 0.0083946126789463428 0.00018394103256576301 0 0.0083094435625386941 0.00018150221981495137 0 0.008376943857404966 0.00028858046174987876 0 0.0084145646342131831 0.00027253428032023979 0 0.0083622513130218786 0.00023182685494288726 0 0.0084145646342131831 0.00027253428032023979 0 0.008471216408047438 0.00025651375094414106 0 0.0083946126789463428 0.00018394103256576301 0 0.0084145646342131831 0.00027253428032023979 0 0.0083622513130218786 0.00023182685494288726 0 0.0083946126789463428 0.00018394103256576301 0 0.0083622513130218786 0.00023182685494288726 0 0.0083177729436547075 0.000240208545601831 0 0.0083094435625386941 0.00018150221981495137 0 0.0082713988612233523 0.00027316411942801322 0 0.008376943857404966 0.00028858046174987876 0 0.0083177729436547075 0.000240208545601831 0 0.0082753538191505903 0.00023320658263777517 0 0.0083177729436547075 0.000240208545601831 0 0.0083094435625386941 0.00018150221981495137 0 0.0082713988612233523 0.00027316411942801322 0 0.0082753538191505903 0.00023320658263777517 0 0.0083177729436547075 0.000240208545601831 0 0.008376943857404966 0.00028858046174987876 0 0.0083622513130218786 0.00023182685494288726 0 0.0083177729436547075 0.000240208545601831 0 0.0083537059246329599 0.00028715841714892692 0 0.008376943857404966 0.00028858046174987876 0 0.0083858092907537676 0.00031420749350715327 0 0.010489736643216547 0.0012427124337812947 0 0.01053164225029774 0.0012869841193466523 0 0.010560516165432649 0.0012932441889601256 0 0.0090108412411623907 0.00052039099258093142 0 0.0095621895072621112 0.00083853791444575695 0 0.011045599584544293 0.0013772658506474866 0 0.011000166629925969 0.0013482315836603059 0 0.010538774305501281 0.0012886350562447242 0 0.0090108412411623907 0.00052039099258093142 0 0.0081158241509337505 0.00027395471328306849 0 0.011349594246844756 0.0012455736880069182 0 0.011045599584544293 0.0013772658506474866 0 0.011000166629925969 0.0013482315836603059 0 0.010933561683919029 0.0012321890665818868 0 0.011065900988095345 0.0011706956881389001 0 0.011000166629925969 0.0013482315836603059 0 0.010811784552202398 0.0012183249900794802 0 0.010933561683919029 0.0012321890665818868 0 0.011000166629925969 0.0013482315836603059 0 0.010811784552202398 0.0012183249900794802 0 0.011000166629925969 0.0013482315836603059 0 0.010538774305501281 0.0012886350562447242 0 0.01053164225029774 0.0012869841193466523 0 0.010560516165432649 0.0012932441889601256 0 0.010538774305501281 0.0012886350562447242 0 0.010735233207311883 0.0013205544465423947 0 0.010578351519116933 0.0012975535095620635 0 0.008376943857404966 0.00028858046174987876 0 0.0084145646342131831 0.00027253428032023979 0 0.0083858092907537676 0.00031420749350715327 0 0.0084145646342131831 0.00027253428032023979 0 0.0083858092907537676 0.00031420749350715327 0 0.0085187648233736347 0.00037885881675096502 0 0.010501276223328112 0.0011559728223387608 0 0.010538774305501281 0.0012886350562447242 0 0.010421174916595078 0.0013129505882986414 0 0.0095621895072621112 0.00083853791444575695 0 0.0094461672840535273 0.0008395028540465107 0 0.0084145646342131831 0.00027253428032023979 0 0.0085187648233736347 0.00037885881675096502 0 0.008471216408047438 0.00025651375094414106 0 0.010560516165432649 0.0012932441889601256 0 0.010538774305501281 0.0012886350562447242 0 0.010421174916595078 0.0013129505882986414 0 0.0085187648233736347 0.00037885881675096502 0 0.0086452646940925314 0.000323537816009114 0 0.0087018989490026625 0.00044585409122633522 0 0.0085187648233736347 0.00037885881675096502 0 0.0086452646940925314 0.000323537816009114 0 0.0085616440182548423 0.00027011598712850613 0 0.0094461672840535273 0.0008395028540465107 0 0.0093687072598190972 0.00085986972431035375 0 0.0085616440182548423 0.00027011598712850613 0 0.0084915749633356838 0.00017203073169248648 0 0.0086434944731767181 0.0001852137012907852 0 0.0086452646940925314 0.000323537816009114 0 0.0085616440182548423 0.00027011598712850613 0 0.0086434944731767181 0.0001852137012907852 0 0.0085187648233736347 0.00037885881675096502 0 0.0085616440182548423 0.00027011598712850613 0 0.008471216408047438 0.00025651375094414106 0 0.008471216408047438 0.00025651375094414106 0 0.0084915749633356838 0.00017203073169248648 0 0.0083946126789463428 0.00018394103256576301 0 0.0085616440182548423 0.00027011598712850613 0 0.008471216408047438 0.00025651375094414106 0 0.0084915749633356838 0.00017203073169248648 0 0.0084915749633356838 0.00017203073169248648 0 0.0084364806432315406 9.661899707423454e-05 0 0.0083946126789463428 0.00018394103256576301 0 0.0084915749633356838 0.00017203073169248648 0 0.0085030865135662104 7.577370078407234e-05 0 0.0084364806432315406 9.661899707423454e-05 0 0.0085030865135662104 7.577370078407234e-05 0 0.008668723180714032 4.3089731708214784e-05 0 0.0085736227557213027 0.00028274679291374189 0 0.0085092533847527276 8.8645268249325899e-05 0 0.0086203155725641765 0.00024764379956216954 0 0.0084915749633356838 0.00017203073169248648 0 0.0085030865135662104 7.577370078407234e-05 0 0.0086434944731767181 0.0001852137012907852 0 0.0085030865135662104 7.577370078407234e-05 0 0.0084364806432315406 9.661899707423454e-05 0 0.0084568325068859179 -6.7713198509295811e-06 0 0.0083288476540779519 8.5364959637828272e-05 0 0.0084459471795264272 3.3370506571886082e-06 0 0.0084364806432315406 9.661899707423454e-05 0 0.0083378082054966635 6.9198580367929059e-05 0 0.0084568325068859179 -6.7713198509295811e-06 0 0.0084364806432315406 9.661899707423454e-05 0 0.0083946126789463428 0.00018394103256576301 0 0.0083378082054966635 6.9198580367929059e-05 0 0.0083946126789463428 0.00018394103256576301 0 0.0083094435625386941 0.00018150221981495137 0 0.0083378082054966635 6.9198580367929059e-05 0 0.0082205699673429944 0.00014923372253924661 0 0.0083094435625386941 0.00018150221981495137 0 0.0083378082054966635 6.9198580367929059e-05 0 0.0082263212555158949 0.00014418359305014416 0 0.0083288476540779519 8.5364959637828272e-05 0 0.0083216404809119439 0.00010067584323082132 0 0.0082870776908236504 8.2423646816179319e-06 0 0.0083762756649091129 -2.0065951043736749e-05 0 0.0082554493486068827 8.3195525425705147e-05 0 0.0083216404809119439 0.00010067584323082132 0 0.0082870776908236504 8.2423646816179319e-06 0 0.0083216404809119439 0.00010067584323082132 0 0.0083762756649091129 -2.0065951043736749e-05 0 0.008436298883089513 2.0439687423472527e-05 0 0.0082870776908236504 8.2423646816179319e-06 0 0.0083762756649091129 -2.0065951043736749e-05 0 0.0083448735373586914 -6.0981228058640716e-05 0 0.0083762756649091129 -2.0065951043736749e-05 0 0.0083448735373586914 -6.0981228058640716e-05 0 0.0084001964602554782 -7.7454822595547282e-05 0 0.0082870776908236504 8.2423646816179319e-06 0 0.0083448735373586914 -6.0981228058640716e-05 0 0.0082853881931857967 -7.6278405384346362e-05 0 0.0072940597755479968 -9.847848632394085e-05 0 0.0068828256493849473 2.0371520047387022e-05 0 0.0083448735373586914 -6.0981228058640716e-05 0 0.0082853881931857967 -7.6278405384346362e-05 0 0.0083663340757254324 -0.00010493869502282407 0 0.0061138077390141222 -2.6304073703486782e-05 0 0.0059629896930339342 7.0415314136156509e-05 0 0.0059975145960434661 0.0001860397811819075 0 0.0062217770184108418 4.3865211247118872e-05 0 0.0061138077390141222 -2.6304073703486782e-05 0 0.0059975145960434661 0.0001860397811819075 0 0.0084001964602554782 -7.7454822595547282e-05 0 0.0083663340757254324 -0.00010493869502282407 0 0.0084405984202236897 -0.00010136647993677288 0 0.0083448735373586914 -6.0981228058640716e-05 0 0.0084001964602554782 -7.7454822595547282e-05 0 0.0083663340757254324 -0.00010493869502282407 0 0.0068828256493849473 2.0371520047387022e-05 0 0.0051377835973503193 0.00029310806570348572 0 0.0061287664160707064 0.00012742628478914383 0 0.0061547810322129838 0.00021779239932537113 0 0.0059888557229531101 0.00021705155869486265 0 0.0068828256493849473 2.0371520047387022e-05 0 0.0073338646115594817 1.8125902517622319e-05 0 0.0048673418070212726 -1.8919870703995709e-05 0 0.0051377835973503193 0.00029310806570348572 0 0.0046133409658725109 7.0283153883868502e-05 0 0.0043508505448276611 0.00023838690801731004 0 0.0045442650933592036 0.00034841970978746577 0 0.0084405984202236897 -0.00010136647993677288 0 0.0084496528258281075 -5.312437904723952e-05 0 0.008441486775211466 -5.7859907861365081e-05 0 0.0084405984202236897 -0.00010136647993677288 0 0.0084664148223533176 -0.00010384590802522254 0 0.0084496528258281075 -5.312437904723952e-05 0 0.0061547810322129838 0.00021779239932537113 0 0.0059888557229531101 0.00021705155869486265 0 0.0060153611667560754 0.00030844034603267793 0 0.0084001964602554782 -7.7454822595547282e-05 0 0.0084405984202236897 -0.00010136647993677288 0 0.0084455770506071757 -8.7908909918787845e-05 0 0.0084405984202236897 -0.00010136647993677288 0 0.0084455770506071757 -8.7908909918787845e-05 0 0.0084664148223533176 -0.00010384590802522254 0 0.0084455770506071757 -8.7908909918787845e-05 0 0.0084664148223533176 -0.00010384590802522254 0 0.0085433607902174885 -9.3893216014032769e-05 0 0.0084455770506071757 -8.7908909918787845e-05 0 0.008436298883089513 2.0439687423472527e-05 0 0.0085433607902174885 -9.3893216014032769e-05 0 0.0083762756649091129 -2.0065951043736749e-05 0 0.0084001964602554782 -7.7454822595547282e-05 0 0.0084455770506071757 -8.7908909918787845e-05 0 0.0083762756649091129 -2.0065951043736749e-05 0 0.0084455770506071757 -8.7908909918787845e-05 0 0.008436298883089513 2.0439687423472527e-05 0 0.0085030865135662104 7.577370078407234e-05 0 0.0084568325068859179 -6.7713198509295811e-06 0 0.0085433607902174885 -9.3893216014032769e-05 0 0.0084459471795264272 3.3370506571886082e-06 0 0.0085405999112198819 -8.2704315943667604e-05 0 0.0087159242996034166 -7.8336092079643976e-05 0 0.0085433607902174885 -9.3893216014032769e-05 0 0.008668723180714032 4.3089731708214784e-05 0 0.0087159242996034166 -7.8336092079643976e-05 0 0.0085433607902174885 -9.3893216014032769e-05 0 0.0085665092905100274 -0.00012888791524457742 0 0.0085433607902174885 -9.3893216014032769e-05 0 0.0084469168918190531 -0.00012915565055511474 0 0.0085665092905100274 -0.00012888791524457742 0 0.0084664148223533176 -0.00010384590802522254 0 0.0084469168918190531 -0.00012915565055511474 0 0.0084065464954914022 -8.1627653398627843e-05 0 0.0084664148223533176 -0.00010384590802522254 0 0.0085433607902174885 -9.3893216014032769e-05 0 0.0084469168918190531 -0.00012915565055511474 0 0.0084469168918190531 -0.00012915565055511474 0 0.0081633115395636537 -8.3946329374187822e-05 0 0.0085665092905100274 -0.00012888791524457742 0 0.0084469168918190531 -0.00012915565055511474 0 0.0081633115395636537 -8.3946329374187822e-05 0 0.0084065464954914022 -8.1627653398627843e-05 0 0.0081026576547523019 -9.2362327458701086e-05 0 0.0080128525695383583 -6.3390283956544985e-06 0 0.0081633115395636537 -8.3946329374187822e-05 0 0.0083160342784916325 8.0394472153750318e-06 0 0.0081630537923253338 0.00010734469663875973 0 0.0081633115395636537 -8.3946329374187822e-05 0 0.0083160342784916325 8.0394472153750318e-06 0 0.0084065464954914022 -8.1627653398627843e-05 0 0.0083160342784916325 8.0394472153750318e-06 0 0.0084496528258281075 -5.312437904723952e-05 0 0.008390094761450452 5.0936169952163841e-05 0 0.0084664148223533176 -0.00010384590802522254 0 0.0084496528258281075 -5.312437904723952e-05 0 0.0084065464954914022 -8.1627653398627843e-05 0 0.0083160342784916325 8.0394472153750318e-06 0 0.0084496528258281075 -5.312437904723952e-05 0 0.0084065464954914022 -8.1627653398627843e-05 0 0.0078961441574716008 -9.6077906844367624e-08 0 0.0077860885417294703 -5.6471878831140241e-05 0 0.0082646388507296234 -9.6713779202993585e-05 0 0.0078961441574716008 -9.6077906844367624e-08 0 0.0077860885417294703 -5.6471878831140241e-05 0 0.0071332130260615854 -3.9731005782456111e-07 0 0.0081633115395636537 -8.3946329374187822e-05 0 0.0077860885417294703 -5.6471878831140241e-05 0 0.0077970274847481511 -4.5923109842618996e-05 0 0.0081633115395636537 -8.3946329374187822e-05 0 0.0077860885417294703 -5.6471878831140241e-05 0 0.0082646388507296234 -9.6713779202993585e-05 0 0.0081633115395636537 -8.3946329374187822e-05 0 0.0082646388507296234 -9.6713779202993585e-05 0 0.0085665092905100274 -0.00012888791524457742 0 0.0078961441574716008 -9.6077906844367624e-08 0 0.0082646388507296234 -9.6713779202993585e-05 0 0.0086587783536226683 -1.8311949137435547e-07 0 0.0086587783536226683 -1.8311949137435547e-07 0 0.0085665092905100274 -0.00012888791524457742 0 0.0089751325386057696 -8.8060643303207708e-05 0 0.0082646388507296234 -9.6713779202993585e-05 0 0.0086587783536226683 -1.8311949137435547e-07 0 0.0085665092905100274 -0.00012888791524457742 0 0.0087159242996034166 -7.8336092079643976e-05 0 0.0085665092905100274 -0.00012888791524457742 0 0.0089751325386057696 -8.8060643303207708e-05 0 0.0086587783536226683 -1.8311949137435547e-07 0 0.0089751325386057696 -8.8060643303207708e-05 0 0.0094218522292909192 -4.1627485872592439e-07 0 0.0093906641100781844 -1.356961400573404e-05 0 0.0094218522292909192 -4.1627485872592439e-07 0 0.010182964127615978 1.0573278014197789e-06 0 0.0089751325386057696 -8.8060643303207708e-05 0 0.0093906641100781844 -1.356961400573404e-05 0 0.0094218522292909192 -4.1627485872592439e-07 0 0.0093906641100781844 -1.356961400573404e-05 0 0.010182964127615978 1.0573278014197789e-06 0 0.0093411736088653951 0.00027352160740326293 0 0.0093411736088653951 0.00027352160740326293 0 0.0089866738332340882 3.8798846653282934e-05 0 0.0089285482586576263 0.00032083373324705522 0 0.0093906641100781844 -1.356961400573404e-05 0 0.0093411736088653951 0.00027352160740326293 0 0.0089866738332340882 3.8798846653282934e-05 0 0.0087159242996034166 -7.8336092079643976e-05 0 0.0089751325386057696 -8.8060643303207708e-05 0 0.0089866738332340882 3.8798846653282934e-05 0 0.0089751325386057696 -8.8060643303207708e-05 0 0.0093906641100781844 -1.356961400573404e-05 0 0.0089866738332340882 3.8798846653282934e-05 0 0.0087159242996034166 -7.8336092079643976e-05 0 0.0089866738332340882 3.8798846653282934e-05 0 0.008668723180714032 4.3089731708214784e-05 0 0.0085030865135662104 7.577370078407234e-05 0 0.0085433607902174885 -9.3893216014032769e-05 0 0.008668723180714032 4.3089731708214784e-05 0 0.008668723180714032 4.3089731708214784e-05 0 0.0085736227557213027 0.00028274679291374189 0 0.0089285482586576263 0.00032083373324705522 0 0.0089866738332340882 3.8798846653282934e-05 0 0.008668723180714032 4.3089731708214784e-05 0 0.0089285482586576263 0.00032083373324705522 0 0.0089285482586576263 0.00032083373324705522 0 0.0087973136794317723 0.00064503954567789125 0 0.0092204027275240383 0.0006567826048477607 0 0.0085736227557213027 0.00028274679291374189 0 0.0089285482586576263 0.00032083373324705522 0 0.0087973136794317723 0.00064503954567789125 0 0.0086452646940925314 0.000323537816009114 0 0.0086434944731767181 0.0001852137012907852 0 0.0087828683651717827 0.00032477332023854097 0 0.0086203155725641765 0.00024764379956216954 0 0.0087569882964952418 0.00044814304977924851 0 0.0086452646940925314 0.000323537816009114 0 0.0087828683651717827 0.00032477332023854097 0 0.0087018989490026625 0.00044585409122633522 0 0.0087973136794317723 0.00064503954567789125 0 0.0091747145209936445 0.00086869073745827054 0 0.0092204027275240383 0.0006567826048477607 0 0.0089257228630193284 0.00050186527081972731 0 0.0087828683651717827 0.00032477332023854097 0 0.0087018989490026625 0.00044585409122633522 0 0.009167498011487675 0.0010191801112985142 0 0.0087973136794317723 0.00064503954567789125 0 0.0091747145209936445 0.00086869073745827054 0 0.0092735905588244745 0.00088888762997220015 0 0.0087569882964952418 0.00044814304977924851 0 0.0092204027275240383 0.0006567826048477607 0 0.0093904070634223003 0.00090394184759116068 0 0.0096381315545645083 0.0008196129046565613 0 0.0092720392162139783 0.00096237288579615525 0 0.0091747145209936445 0.00086869073745827054 0 0.0093904070634223003 0.00090394184759116068 0 0.0091747145209936445 0.00086869073745827054 0 0.0092204027275240383 0.0006567826048477607 0 0.0093904070634223003 0.00090394184759116068 0 0.011866132393361031 -7.2231058186577959e-05 0 0.011129555234106277 3.016969341279545e-05 0 0.011082479909932361 7.0124899517363666e-08 0 0.010184841253841472 -5.7364606195389588e-08 0 0.010409589449156003 0.0003599785195618361 0 0.010185045958348538 1.2680571511219701e-07 0 0.011129555234106277 3.016969341279545e-05 0 0.011082479909932361 7.0124899517363666e-08 0 0.010182964127615978 1.0573278014197789e-06 0 0.0093411736088653951 0.00027352160740326293 0 0.0096381315545645083 0.0008196129046565613 0 0.0093411736088653951 0.00027352160740326293 0 0.0092204027275240383 0.0006567826048477607 0 0.0096381315545645083 0.0008196129046565613 0 0.0093411736088653951 0.00027352160740326293 0 0.0089285482586576263 0.00032083373324705522 0 0.0092204027275240383 0.0006567826048477607 0 0.0044096743831651269 -0.00011477391381840561 0 0.0045384944402945254 -0.000125812046654856 0 0.0044378196543098884 -0.00014881407254289822 0 0.0045384944402945254 -0.000125812046654856 0 0.0046184583388520738 -9.133828984373003e-05 0 0.0046492813768752757 -7.0985905996455456e-05 0 0.0044096743831651269 -0.00011477391381840561 0 0.0045384944402945254 -0.000125812046654856 0 0.0046184583388520738 -9.133828984373003e-05 0 0.0044096743831651269 -0.00011477391381840561 0 0.0046802929759739457 -7.8006857535440022e-08 0 0.0039837299584613147 -4.9535844715517971e-07 0 0.0044096743831651269 -0.00011477391381840561 0 0.0046184583388520738 -9.133828984373003e-05 0 0.0046802929759739457 -7.8006857535440022e-08 0 0.0039837299584613147 -4.9535844715517971e-07 0 0.0041897070752851618 -7.2917199819998188e-05 0 0.0039303276437533076 -8.3245297155692603e-06 0 0.0044096743831651269 -0.00011477391381840561 0 0.0039837299584613147 -4.9535844715517971e-07 0 0.0041897070752851618 -7.2917199819998188e-05 0 0.0041897070752851618 -7.2917199819998188e-05 0 0.0044378196543098884 -0.00014881407254289822 0 0.0043122169629574861 -4.6969247365338051e-06 0 0.0044093038876816242 -0.00012324659929009246 0 0.0043587685710922636 -0.0002227451170303953 0 0.0044096743831651269 -0.00011477391381840561 0 0.0041897070752851618 -7.2917199819998188e-05 0 0.0044378196543098884 -0.00014881407254289822 0 0.0044378196543098884 -0.00014881407254289822 0 0.0044030689537441119 -0.00018208507221417365 0 0.004397867414029445 -0.00022388205684133736 0 0.0044030689537441119 -0.00018208507221417365 0 0.0043504990993803658 -0.00025013750914954403 0 0.004397867414029445 -0.00022388205684133736 0 0.0044378196543098884 -0.00014881407254289822 0 0.004397867414029445 -0.00022388205684133736 0 0.0044286415140677481 -0.00022504887696443018 0 0.0044378196543098884 -0.00014881407254289822 0 0.0044030689537441119 -0.00018208507221417365 0 0.0044608678999723895 -0.00014431120670411478 0 0.0044030689537441119 -0.00018208507221417365 0 0.0043281998072671225 -0.00016289791159793807 0 0.0043504990993803658 -0.00025013750914954403 0 0.0043281998072671225 -0.00016289791159793807 0 0.0041894697548759876 -0.00021391744068402857 0 0.0043504990993803658 -0.00025013750914954403 0 0.0044030689537441119 -0.00018208507221417365 0 0.0043281998072671225 -0.00016289791159793807 0 0.0044173860441766031 -0.00011513677815317832 0 0.0043281998072671225 -0.00016289791159793807 0 0.0044173860441766031 -0.00011513677815317832 0 0.0043394410805150715 -5.5614953883252117e-05 0 0.0044173860441766031 -0.00011513677815317832 0 0.0043394410805150715 -5.5614953883252117e-05 0 0.0044309533309326316 -6.2003395082788271e-05 0 0.0043281998072671225 -0.00016289791159793807 0 0.0043394410805150715 -5.5614953883252117e-05 0 0.0042353091850408095 -7.2164463956180992e-05 0 0.0045384944402945254 -0.000125812046654856 0 0.0044378196543098884 -0.00014881407254289822 0 0.0044608678999723895 -0.00014431120670411478 0 0.0044030689537441119 -0.00018208507221417365 0 0.0044173860441766031 -0.00011513677815317832 0 0.0044608678999723895 -0.00014431120670411478 0 0.0044173860441766031 -0.00011513677815317832 0 0.0045132304808548299 -7.4187575210862041e-05 0 0.0044309533309326316 -6.2003395082788271e-05 0 0.0044173860441766031 -0.00011513677815317832 0 0.0044608678999723895 -0.00014431120670411478 0 0.0045132304808548299 -7.4187575210862041e-05 0 0.0045384944402945254 -0.000125812046654856 0 0.0044608678999723895 -0.00014431120670411478 0 0.0045132304808548299 -7.4187575210862041e-05 0 0.0045132304808548299 -7.4187575210862041e-05 0 0.0046263712162896084 3.1107062414971505e-06 0 0.0046492813768752757 -7.0985905996455456e-05 0 0.0045384944402945254 -0.000125812046654856 0 0.0045132304808548299 -7.4187575210862041e-05 0 0.0046492813768752757 -7.0985905996455456e-05 0 0.0045132304808548299 -7.4187575210862041e-05 0 0.00450779146949768 -3.1213514089124732e-06 0 0.0044309533309326316 -6.2003395082788271e-05 0 0.00450779146949768 -3.1213514089124732e-06 0 0.0044309533309326316 -6.2003395082788271e-05 0 0.0044206882165925953 7.9074639398532983e-06 0 0.00450779146949768 -3.1213514089124732e-06 0 0.0044206882165925953 7.9074639398532983e-06 0 0.004478597612057226 0.00010599031847495774 0 0.00450779146949768 -3.1213514089124732e-06 0 0.0046263712162896084 3.1107062414971505e-06 0 0.004478597612057226 0.00010599031847495774 0 0.0045132304808548299 -7.4187575210862041e-05 0 0.00450779146949768 -3.1213514089124732e-06 0 0.0046263712162896084 3.1107062414971505e-06 0 0.0043394410805150715 -5.5614953883252117e-05 0 0.0043388155586610178 2.4341799625834923e-05 0 0.0042570727804316644 3.1939360342479177e-05 0 0.0043394410805150715 -5.5614953883252117e-05 0 0.0042570727804316644 3.1939360342479177e-05 0 0.0042353091850408095 -7.2164463956180992e-05 0 0.0043394410805150715 -5.5614953883252117e-05 0 0.0044206882165925953 7.9074639398532983e-06 0 0.0043388155586610178 2.4341799625834923e-05 0 0.0043394410805150715 -5.5614953883252117e-05 0 0.0044309533309326316 -6.2003395082788271e-05 0 0.0044206882165925953 7.9074639398532983e-06 0 0.0044206882165925953 7.9074639398532983e-06 0 0.0043388155586610178 2.4341799625834923e-05 0 0.0043395981695434028 0.00011172950094056771 0 0.0044206882165925953 7.9074639398532983e-06 0 0.0043395981695434028 0.00011172950094056771 0 0.004478597612057226 0.00010599031847495774 0 0.0043388155586610178 2.4341799625834923e-05 0 0.0043395981695434028 0.00011172950094056771 0 0.0042570727804316644 3.1939360342479177e-05 0 0.0043395981695434028 0.00011172950094056771 0 0.0043891680189851292 0.0002295661109269599 0 0.004478597612057226 0.00010599031847495774 0 0.0043891680189851292 0.0002295661109269599 0 0.004511060190773776 0.00022430464040119836 0 0.0044595971732265781 0.0003485469406735514 0 0.0043891680189851292 0.0002295661109269599 0 0.004478597612057226 0.00010599031847495774 0 0.004511060190773776 0.00022430464040119836 0 0.0043891680189851292 0.0002295661109269599 0 0.0043385380562057122 0.00033838514859853703 0 0.0042121928128525284 0.00022727018767470437 0 0.0043395981695434028 0.00011172950094056771 0 0.0043891680189851292 0.0002295661109269599 0 0.0042121928128525284 0.00022727018767470437 0 0.0046856713002377858 5.1667192003367127e-06 0 0.0044833702129186675 0.00034087852777200966 0 0.0046263712162896084 3.1107062414971505e-06 0 0.0046976744979085527 6.6342593036125194e-05 0 0.0047411292300179163 0.00023730891979076418 0 0.0046263712162896084 3.1107062414971505e-06 0 0.004511060190773776 0.00022430464040119836 0 0.0046338981432004055 0.00041171458828568328 0 0.0046263712162896084 3.1107062414971505e-06 0 0.004478597612057226 0.00010599031847495774 0 0.004511060190773776 0.00022430464040119836 0 0.0047589263047534214 5.3685483210477604e-05 0 0.004948047305142385 8.6046361875282868e-05 0 0.0046976744979085527 6.6342593036125194e-05 0 0.0049637684713518086 1.9764930300520805e-05 0 0.0051554660993837591 8.8666596118806073e-05 0 0.0049637684713518086 1.9764930300520805e-05 0 0.0047538688273909358 -1.6931386202220636e-05 0 0.0048435351644390435 -5.9897688469420673e-05 0 0.0046976744979085527 6.6342593036125194e-05 0 0.0049637684713518086 1.9764930300520805e-05 0 0.0047538688273909358 -1.6931386202220636e-05 0 0.0046263712162896084 3.1107062414971505e-06 0 0.0046976744979085527 6.6342593036125194e-05 0 0.0047538688273909358 -1.6931386202220636e-05 0 0.0046263712162896084 3.1107062414971505e-06 0 0.0047538688273909358 -1.6931386202220636e-05 0 0.0046492813768752757 -7.0985905996455456e-05 0 0.0047538688273909358 -1.6931386202220636e-05 0 0.0046492813768752757 -7.0985905996455456e-05 0 0.0048435351644390435 -5.9897688469420673e-05 0 0.0046184583388520738 -9.133828984373003e-05 0 0.0046492813768752757 -7.0985905996455456e-05 0 0.0048435351644390435 -5.9897688469420673e-05 0 0.0046802929759739457 -7.8006857535440022e-08 0 0.0048435351644390435 -5.9897688469420673e-05 0 0.0053768699086927264 -3.1127534023428884e-07 0 0.0046184583388520738 -9.133828984373003e-05 0 0.0046802929759739457 -7.8006857535440022e-08 0 0.0048435351644390435 -5.9897688469420673e-05 0 0.0049637684713518086 1.9764930300520805e-05 0 0.0048435351644390435 -5.9897688469420673e-05 0 0.0053768699086927264 -3.1127534023428884e-07 0 0.0049637684713518086 1.9764930300520805e-05 0 0.0053768699086927264 -3.1127534023428884e-07 0 0.0051554660993837591 8.8666596118806073e-05 0 0.0053768699086927264 -3.1127534023428884e-07 0 0.0060720660098298037 8.7693116972872755e-07 0 0.0051554660993837591 8.8666596118806073e-05 0 0.0060720660098298037 8.7693116972872755e-07 0 0.0051554660993837591 8.8666596118806073e-05 0 0.0058363853757947733 0.00019380667955001596 0 0.004948047305142385 8.6046361875282868e-05 0 0.0059777495561798445 0.00015994204022087545 0 0.0048797337770072639 0.00019077393127428166 0 0.0048811515554950417 0.00028749620328673861 0 0.0050191748452435543 0.00032109102465724371 0 0.0046976744979085527 6.6342593036125194e-05 0 0.0048797337770072639 0.00019077393127428166 0 0.0047411292300179163 0.00023730891979076418 0 0.0048797337770072639 0.00019077393127428166 0 0.0048811515554950417 0.00028749620328673861 0 0.0047411292300179163 0.00023730891979076418 0 0.0048886661407081299 0.00040126695185572418 0 0.0047736076731217224 0.00047789095937876834 0 0.0047411292300179163 0.00023730891979076418 0 0.0048811515554950417 0.00028749620328673861 0 0.0048886661407081299 0.00040126695185572418 0 0.0047411292300179163 0.00023730891979076418 0 0.0067179008542649502 0.00032860422774938448 0 0.006371415431032007 1.1351874464917898e-06 0 0.0069955633857562583 9.9016035750645102e-06 0 0.007322956338101828 0.00023262829331917184 0 0.0067179008542649502 0.00032860422774938448 0 0.0069955633857562583 9.9016035750645102e-06 0 0.0060738505694773503 2.4533137969675726e-10 0 0.0061825637665406221 2.7477999155764191e-07 0 0.0063696707619127534 4.8825988481196461e-10 0 0.0059777495561798445 0.00015994204022087545 0 0.0063699450991261761 2.8951160810528785e-07 0 0.006073324193475612 1.4489833414513393e-07 0 0.0059777495561798445 0.00015994204022087545 0 0.0048811515554950417 0.00028749620328673861 0 0.0048886661407081299 0.00040126695185572418 0 0.0050191748452435543 0.00032109102465724371 0 0.0060838802689836035 0.00031667011769853306 0 0.0059777495561798445 0.00015994204022087545 0 0.0069955633857562583 9.9016035750645102e-06 0 0.007437074053529006 -7.5506850129539453e-06 0 0.0071332130260615854 -3.9731005782456111e-07 0 0.006371415431032007 1.1351874464917898e-06 0 0.0069955633857562583 9.9016035750645102e-06 0 0.0071332130260615854 -3.9731005782456111e-07 0 0.007322956338101828 0.00023262829331917184 0 0.0069955633857562583 9.9016035750645102e-06 0 0.007437074053529006 -7.5506850129539453e-06 0 0.007322956338101828 0.00023262829331917184 0 0.007437074053529006 -7.5506850129539453e-06 0 0.0076650424093643458 0.0001372950744513399 0 0.007437074053529006 -7.5506850129539453e-06 0 0.0077970274847481511 -4.5923109842618996e-05 0 0.0076650424093643458 0.0001372950744513399 0 0.0060838802689836035 0.00031667011769853306 0 0.0062707033861549612 0.0003773380886989005 0 0.0077860885417294703 -5.6471878831140241e-05 0 0.007437074053529006 -7.5506850129539453e-06 0 0.0077970274847481511 -4.5923109842618996e-05 0 0.0077860885417294703 -5.6471878831140241e-05 0 0.007437074053529006 -7.5506850129539453e-06 0 0.0071332130260615854 -3.9731005782456111e-07 0 0.0046861181503953485 0.0004739880403527641 0 0.0048115589897732925 0.00048239871112787033 0 0.0047936625067615006 0.00040286940910399464 0 0.0083160342784916325 8.0394472153750318e-06 0 0.008390094761450452 5.0936169952163841e-05 0 0.0083289530935225769 0.00018547199598386308 0 0.008390094761450452 5.0936169952163841e-05 0 0.0083289530935225769 0.00018547199598386308 0 0.0084920581165369418 7.0635127455669598e-05 0 0.0064983000063875817 0.00034038764981148147 0 0.0067797964449988167 0.00014660621682345646 0 0.0084496528258281075 -5.312437904723952e-05 0 0.008390094761450452 5.0936169952163841e-05 0 0.0084920581165369418 7.0635127455669598e-05 0 0.0083160342784916325 8.0394472153750318e-06 0 0.0081630537923253338 0.00010734469663875973 0 0.0083289530935225769 0.00018547199598386308 0 0.0080128525695383583 -6.3390283956544985e-06 0 0.0062707033861549612 0.0003773380886989005 0 0.0046317050812306705 0.00054660143033911598 0 0.004694369696573563 0.00053381428804921065 0 0.0046861181503953485 0.0004739880403527641 0 0.0046317050812306705 0.00054660143033911598 0 0.004694369696573563 0.00053381428804921065 0 0.0046137933810439565 0.00050764851471271318 0 0.0081630537923253338 0.00010734469663875973 0 0.0081501155735930891 0.0002997272033341978 0 0.0083289530935225769 0.00018547199598386308 0 0.0062707033861549612 0.0003773380886989005 0 0.0064983000063875817 0.00034038764981148147 0 0.004694369696573563 0.00053381428804921065 0 0.0046861181503953485 0.0004739880403527641 0 0.0048115589897732925 0.00048239871112787033 0 0.0044105331317580753 0.0006681423121051844 0 0.0043064177835127363 0.00056455142884392928 0 0.0042228480383198468 0.00078564696196011365 0 0.0045065343064568109 0.00061935755539021089 0 0.0048411134410803096 0.00059369523295061224 0 0.0044105331317580753 0.0006681423121051844 0 0.0044573935515063454 0.00052096365745334257 0 0.0046137933810439565 0.00050764851471271318 0 0.0044105331317580753 0.0006681423121051844 0 0.0043064177835127363 0.00056455142884392928 0 0.0044573935515063454 0.00052096365745334257 0 0.0044573935515063454 0.00052096365745334257 0 0.0045290491541771106 0.0004463387255766798 0 0.0043912692297718913 0.00044174481731199054 0 0.0043064177835127363 0.00056455142884392928 0 0.0043912692297718913 0.00044174481731199054 0 0.0042305823844576871 0.0003982819795782499 0 0.0043064177835127363 0.00056455142884392928 0 0.0044573935515063454 0.00052096365745334257 0 0.0043912692297718913 0.00044174481731199054 0 0.0062707033861549612 0.0003773380886989005 0 0.0044833702129186675 0.00034087852777200966 0 0.0045065343064568109 0.00061935755539021089 0 0.0046305410940205311 0.00051391198423014577 0 0.0046317050812306705 0.00054660143033911598 0 0.0046137933810439565 0.00050764851471271318 0 0.0046338981432004055 0.00041171458828568328 0 0.0044573935515063454 0.00052096365745334257 0 0.0046137933810439565 0.00050764851471271318 0 0.0045290491541771106 0.0004463387255766798 0 0.0046137933810439565 0.00050764851471271318 0 0.0046338981432004055 0.00041171458828568328 0 0.0045290491541771106 0.0004463387255766798 0 0.0046338981432004055 0.00041171458828568328 0 0.0045290491541771106 0.0004463387255766798 0 0.0044595971732265781 0.0003485469406735514 0 0.004511060190773776 0.00022430464040119836 0 0.0046338981432004055 0.00041171458828568328 0 0.0044595971732265781 0.0003485469406735514 0 0.0043912692297718913 0.00044174481731199054 0 0.0043385380562057122 0.00033838514859853703 0 0.0042305823844576871 0.0003982819795782499 0 0.0045290491541771106 0.0004463387255766798 0 0.0043912692297718913 0.00044174481731199054 0 0.0044595971732265781 0.0003485469406735514 0 0.0043912692297718913 0.00044174481731199054 0 0.0044595971732265781 0.0003485469406735514 0 0.0043385380562057122 0.00033838514859853703 0 0.0043891680189851292 0.0002295661109269599 0 0.0044595971732265781 0.0003485469406735514 0 0.0043385380562057122 0.00033838514859853703 0 0.0042305823844576871 0.0003982819795782499 0 0.0040224052917640267 0.00029349112549433769 0 0.0041235713095291501 0.00052972100925701121 0 0.0042305823844576871 0.0003982819795782499 0 0.0040224052917640267 0.00029349112549433769 0 0.0042121928128525284 0.00022727018767470437 0 0.0043385380562057122 0.00033838514859853703 0 0.0042305823844576871 0.0003982819795782499 0 0.0042121928128525284 0.00022727018767470437 0 0.0039441415869895212 0.00032301727944826887 0 0.0040194685759359708 0.00053240413904107259 0 0.0038536804186111943 0.00051658140291398137 0 0.0039441415869895212 0.00032301727944826887 0 0.0038536804186111943 0.00051658140291398137 0 0.0037994374262985691 0.0003723028248181982 0 0.0039868290619114516 0.00030284810249514468 0 0.0040103304438959837 0.00053769658124564715 0 0.0040194685759359708 0.00053240413904107259 0 0.0039373061553016619 0.00067559819073319629 0 0.0038536804186111943 0.00051658140291398137 0 0.0039373061553016619 0.00067559819073319629 0 0.0038009157542189449 0.0006562415813873056 0 0.0038536804186111943 0.00051658140291398137 0 0.0043064177835127363 0.00056455142884392928 0 0.0041235713095291501 0.00052972100925701121 0 0.0042228480383198468 0.00078564696196011365 0 0.0043064177835127363 0.00056455142884392928 0 0.0042305823844576871 0.0003982819795782499 0 0.0041235713095291501 0.00052972100925701121 0 0.0040194685759359708 0.00053240413904107259 0 0.004100493345265333 0.00073678881762545892 0 0.0039373061553016619 0.00067559819073319629 0 0.0040103304438959837 0.00053769658124564715 0 0.0048411134410803096 0.00059369523295061224 0 0.004100493345265333 0.00073678881762545892 0 0.0039373061553016619 0.00067559819073319629 0 0.0039159645631931042 0.00084999363892000431 0 0.0048411134410803096 0.00059369523295061224 0 0.0049443798894032677 0.00061286789766293434 0 0.0059888557229531101 0.00021705155869486265 0 0.0060153611667560754 0.00030844034603267793 0 0.0058447831908379645 0.00030859453545822586 0 0.0039373061553016619 0.00067559819073319629 0 0.0039159645631931042 0.00084999363892000431 0 0.0037955711948790879 0.00077897300081346385 0 0.0073338646115594817 1.8125902517622319e-05 0 0.0067797964449988167 0.00014660621682345646 0 0.0058717252446284446 0.00040003243036607956 0 0.0060153611667560754 0.00030844034603267793 0 0.0058447831908379645 0.00030859453545822586 0 0.0079438257329519733 0.00021226997412835641 0 0.0067797964449988167 0.00014660621682345646 0 0.0048411134410803096 0.00059369523295061224 0 0.0067797964449988167 0.00014660621682345646 0 0.0051377835973503193 0.00029310806570348572 0 0.0040162491286807305 0.00062743939755946303 0 0.0044127111840501195 0.00043111605823749517 0 0.0044719708062976741 0.00062173520367976825 0 0.0045442650933592036 0.00034841970978746577 0 0.0043508505448276611 0.00023838690801731004 0 0.0044127111840501195 0.00043111605823749517 0 0.0045442650933592036 0.00034841970978746577 0 0.0037427777931946663 0.00095719030310473751 0 0.0036727149999065912 0.00080068582825764561 0 0.0037955711948790879 0.00077897300081346385 0 0.0051377835973503193 0.00029310806570348572 0 0.0049443798894032677 0.00061286789766293434 0 0.0037427777931946663 0.00095719030310473751 0 0.0039159645631931042 0.00084999363892000431 0 0.0037955711948790879 0.00077897300081346385 0 0.0037955711948790879 0.00077897300081346385 0 0.0038009157542189449 0.0006562415813873056 0 0.0037061017998984056 0.00067444715078647326 0 0.0036727149999065912 0.00080068582825764561 0 0.0037955711948790879 0.00077897300081346385 0 0.0037061017998984056 0.00067444715078647326 0 0.0039373061553016619 0.00067559819073319629 0 0.0037955711948790879 0.00077897300081346385 0 0.0038009157542189449 0.0006562415813873056 0 0.0038009157542189449 0.0006562415813873056 0 0.0037061017998984056 0.00067444715078647326 0 0.0037223769959910061 0.00057901328148156556 0 0.0037061017998984056 0.00067444715078647326 0 0.0036500154972339952 0.00060574449664970158 0 0.0037223769959910061 0.00057901328148156556 0 0.0037061017998984056 0.00067444715078647326 0 0.0035944109853657618 0.00063782913124691657 0 0.0036500154972339952 0.00060574449664970158 0 0.003700249051605875 0.00048402271178983971 0 0.0036550472360257899 0.00051435233809342721 0 0.0037563662705091538 0.00039155102818228416 0 0.0039321471128785914 0.00056767370160422414 0 0.0040838155781090218 0.00040892866731424826 0 0.0040162491286807305 0.00062743939755946303 0 0.0039321471128785914 0.00056767370160422414 0 0.0036727149999065912 0.00080068582825764561 0 0.0037061017998984056 0.00067444715078647326 0 0.0035944109853657618 0.00063782913124691657 0 0.0039321471128785914 0.00056767370160422414 0 0.0039025224197114928 0.00059390653831726907 0 0.003592545677300653 0.00063988914667353176 0 0.003596803873813224 0.00061227678666075415 0 0.0035134647085508573 0.000468659794071208 0 0.0039321471128785914 0.00056767370160422414 0 0.0035337164925280475 0.00041969788866237645 0 0.0035944109853657618 0.00063782913124691657 0 0.003596803873813224 0.00061227678666075415 0 0.0036500154972339952 0.00060574449664970158 0 0.003596803873813224 0.00061227678666075415 0 0.0036500154972339952 0.00060574449664970158 0 0.0036305671161337726 0.00052192725674635545 0 0.0036500154972339952 0.00060574449664970158 0 0.0036305671161337726 0.00052192725674635545 0 0.0037223769959910061 0.00057901328148156556 0 0.0036305671161337726 0.00052192725674635545 0 0.003717807831524843 0.00047126645656536171 0 0.0036306560988002201 0.00043681658730723689 0 0.0036305671161337726 0.00052192725674635545 0 0.0037223769959910061 0.00057901328148156556 0 0.003717807831524843 0.00047126645656536171 0 0.003596803873813224 0.00061227678666075415 0 0.0036305671161337726 0.00052192725674635545 0 0.0035134647085508573 0.000468659794071208 0 0.0036305671161337726 0.00052192725674635545 0 0.0036306560988002201 0.00043681658730723689 0 0.0035134647085508573 0.000468659794071208 0 0.0038009157542189449 0.0006562415813873056 0 0.0037223769959910061 0.00057901328148156556 0 0.0038536804186111943 0.00051658140291398137 0 0.0037223769959910061 0.00057901328148156556 0 0.003717807831524843 0.00047126645656536171 0 0.0038536804186111943 0.00051658140291398137 0 0.003717807831524843 0.00047126645656536171 0 0.0038536804186111943 0.00051658140291398137 0 0.0037994374262985691 0.0003723028248181982 0 0.003717807831524843 0.00047126645656536171 0 0.0036919341048308584 0.00037861125774889482 0 0.0037994374262985691 0.0003723028248181982 0 0.0036919341048308584 0.00037861125774889482 0 0.0037994374262985691 0.0003723028248181982 0 0.0036805198367916691 0.00027804489863288492 0 0.0036306560988002201 0.00043681658730723689 0 0.0035912374106351545 0.0003446320584701179 0 0.0035134647085508573 0.000468659794071208 0 0.003717807831524843 0.00047126645656536171 0 0.0036919341048308584 0.00037861125774889482 0 0.0036306560988002201 0.00043681658730723689 0 0.0036919341048308584 0.00037861125774889482 0 0.0035912374106351545 0.0003446320584701179 0 0.0036805198367916691 0.00027804489863288492 0 0.0036919341048308584 0.00037861125774889482 0 0.0036306560988002201 0.00043681658730723689 0 0.0035912374106351545 0.0003446320584701179 0 0.0035912374106351545 0.0003446320584701179 0 0.0035122896775503375 0.00031161625252007925 0 0.0035134647085508573 0.000468659794071208 0 0.0035912374106351545 0.0003446320584701179 0 0.003523763790821411 0.00022243223768033136 0 0.0035122896775503375 0.00031161625252007925 0 0.0035912374106351545 0.0003446320584701179 0 0.003523763790821411 0.00022243223768033136 0 0.0036805198367916691 0.00027804489863288492 0 0.003523763790821411 0.00022243223768033136 0 0.0036058657827245841 0.00015429286775983108 0 0.0036805198367916691 0.00027804489863288492 0 0.0034180913661366638 6.9473288602117496e-05 0 0.0036058657827245841 0.00015429286775983108 0 0.0036800589672790099 2.978398139808994e-05 0 0.003523763790821411 0.00022243223768033136 0 0.0034180913661366638 6.9473288602117496e-05 0 0.0036058657827245841 0.00015429286775983108 0 0.0037994676635175898 1.4481716439810907e-05 0 0.0038990195808331911 -3.1952963031055104e-05 0 0.0037685392529192246 -0.00010765542631493738 0 0.0037994676635175898 1.4481716439810907e-05 0 0.003889609932931404 6.7163399259870235e-05 0 0.0038990195808331911 -3.1952963031055104e-05 0 0.0037994676635175898 1.4481716439810907e-05 0 0.0036800589672790099 2.978398139808994e-05 0 0.0037685392529192246 -0.00010765542631493738 0 0.0037994676635175898 1.4481716439810907e-05 0 0.0036800589672790099 2.978398139808994e-05 0 0.0037772792907344185 0.00010300725753499714 0 0.0036800589672790099 2.978398139808994e-05 0 0.0037772792907344185 0.00010300725753499714 0 0.0037148422566424173 0.00016986456246147758 0 0.0036058657827245841 0.00015429286775983108 0 0.0036800589672790099 2.978398139808994e-05 0 0.0037148422566424173 0.00016986456246147758 0 0.0037772792907344185 0.00010300725753499714 0 0.0038041101038684107 0.00022478132474702589 0 0.003889609932931404 6.7163399259870235e-05 0 0.0037994676635175898 1.4481716439810907e-05 0 0.0037772792907344185 0.00010300725753499714 0 0.003889609932931404 6.7163399259870235e-05 0 0.0037772792907344185 0.00010300725753499714 0 0.0038041101038684107 0.00022478132474702589 0 0.0037148422566424173 0.00016986456246147758 0 0.0038041101038684107 0.00022478132474702589 0 0.0037148422566424173 0.00016986456246147758 0 0.0036805198367916691 0.00027804489863288492 0 0.0036058657827245841 0.00015429286775983108 0 0.0037148422566424173 0.00016986456246147758 0 0.0036805198367916691 0.00027804489863288492 0 0.0037994374262985691 0.0003723028248181982 0 0.0038041101038684107 0.00022478132474702589 0 0.0036805198367916691 0.00027804489863288492 0 0.0039441415869895212 0.00032301727944826887 0 0.0037994374262985691 0.0003723028248181982 0 0.0038041101038684107 0.00022478132474702589 0 0.0039868290619114516 0.00030284810249514468 0 0.0038940379056376746 7.8549399596709857e-05 0 0.0040224052917640267 0.00029349112549433769 0 0.0041180236472864243 0.00017386691348638382 0 0.0040247303766433803 0.00011808827476851256 0 0.0039441415869895212 0.00032301727944826887 0 0.0038041101038684107 0.00022478132474702589 0 0.003889609932931404 6.7163399259870235e-05 0 0.0040224052917640267 0.00029349112549433769 0 0.003889609932931404 6.7163399259870235e-05 0 0.0040247303766433803 0.00011808827476851256 0 0.0040224052917640267 0.00029349112549433769 0 0.0042121928128525284 0.00022727018767470437 0 0.0041180236472864243 0.00017386691348638382 0 0.0042121928128525284 0.00022727018767470437 0 0.0041180236472864243 0.00017386691348638382 0 0.0042139353266789819 0.0001234497267640119 0 0.0041180236472864243 0.00017386691348638382 0 0.0041404662006201331 7.3767240591641363e-05 0 0.0040247303766433803 0.00011808827476851256 0 0.0041180236472864243 0.00017386691348638382 0 0.0042139353266789819 0.0001234497267640119 0 0.0041404662006201331 7.3767240591641363e-05 0 0.0043395981695434028 0.00011172950094056771 0 0.0042121928128525284 0.00022727018767470437 0 0.0042139353266789819 0.0001234497267640119 0 0.0043395981695434028 0.00011172950094056771 0 0.0042139353266789819 0.0001234497267640119 0 0.0042570727804316644 3.1939360342479177e-05 0 0.0042570727804316644 3.1939360342479177e-05 0 0.0041404662006201331 7.3767240591641363e-05 0 0.0041860917485715332 5.7548930003045361e-06 0 0.0042139353266789819 0.0001234497267640119 0 0.0042570727804316644 3.1939360342479177e-05 0 0.0041404662006201331 7.3767240591641363e-05 0 0.0041404662006201331 7.3767240591641363e-05 0 0.0041860917485715332 5.7548930003045361e-06 0 0.0041234980447237557 -2.457815169882658e-05 0 0.0041404662006201331 7.3767240591641363e-05 0 0.0041234980447237557 -2.457815169882658e-05 0 0.0040547762431254845 3.0851083855714805e-05 0 0.0041860917485715332 5.7548930003045361e-06 0 0.0041234980447237557 -2.457815169882658e-05 0 0.0042353091850408095 -7.2164463956180992e-05 0 0.0042570727804316644 3.1939360342479177e-05 0 0.0041860917485715332 5.7548930003045361e-06 0 0.0042353091850408095 -7.2164463956180992e-05 0 0.003889609932931404 6.7163399259870235e-05 0 0.0040247303766433803 0.00011808827476851256 0 0.0039654340906368447 2.5119885383023554e-05 0 0.0040247303766433803 0.00011808827476851256 0 0.0040547762431254845 3.0851083855714805e-05 0 0.0039654340906368447 2.5119885383023554e-05 0 0.0041404662006201331 7.3767240591641363e-05 0 0.0040247303766433803 0.00011808827476851256 0 0.0040547762431254845 3.0851083855714805e-05 0 0.0040547762431254845 3.0851083855714805e-05 0 0.0040188394953756361 -3.0087274676689114e-05 0 0.0039654340906368447 2.5119885383023554e-05 0 0.0041234980447237557 -2.457815169882658e-05 0 0.0040547762431254845 3.0851083855714805e-05 0 0.0040188394953756361 -3.0087274676689114e-05 0 0.0040188394953756361 -3.0087274676689114e-05 0 0.0039404833591823087 -1.4046010558646299e-05 0 0.0039654340906368447 2.5119885383023554e-05 0 0.0040188394953756361 -3.0087274676689114e-05 0 0.0039404833591823087 -1.4046010558646299e-05 0 0.0038971708052080952 -1.8433346285362291e-05 0 0.0039404833591823087 -1.4046010558646299e-05 0 0.0039654340906368447 2.5119885383023554e-05 0 0.0038990195808331911 -3.1952963031055104e-05 0 0.003889609932931404 6.7163399259870235e-05 0 0.0039654340906368447 2.5119885383023554e-05 0 0.0038990195808331911 -3.1952963031055104e-05 0 0.0039404833591823087 -1.4046010558646299e-05 0 0.0038990195808331911 -3.1952963031055104e-05 0 0.0038971708052080952 -1.8433346285362291e-05 0 0.0038971708052080952 -1.8433346285362291e-05 0 0.0035675404906923228 0.00015312849353915924 0 0.003922367089198112 9.5711638667288088e-05 0 0.0039099163882963554 -3.4881526136793523e-05 0 0.0038203640080505881 1.9806714119148035e-05 0 0.0038990195808331911 -3.1952963031055104e-05 0 0.0038971708052080952 -1.8433346285362291e-05 0 0.003922367089198112 9.5711638667288088e-05 0 0.0040188394953756361 -3.0087274676689114e-05 0 0.0038971708052080952 -1.8433346285362291e-05 0 0.0041894697548759876 -0.00021391744068402857 0 0.0041234980447237557 -2.457815169882658e-05 0 0.0040188394953756361 -3.0087274676689114e-05 0 0.0041894697548759876 -0.00021391744068402857 0 0.0041234980447237557 -2.457815169882658e-05 0 0.0042353091850408095 -7.2164463956180992e-05 0 0.0041894697548759876 -0.00021391744068402857 0 0.0043281998072671225 -0.00016289791159793807 0 0.0042353091850408095 -7.2164463956180992e-05 0 0.0041894697548759876 -0.00021391744068402857 0 0.0035675404906923228 0.00015312849353915924 0 0.0037533030394479717 0.0003473403911781287 0 0.0035363318750085419 0.00055203373727226652 0 0.0038203640080505881 1.9806714119148035e-05 0 0.0040356044213592165 -4.8327122196646709e-05 0 0.0035675404906923228 0.00015312849353915924 0 0.0037533030394479717 0.0003473403911781287 0 0.003922367089198112 9.5711638667288088e-05 0 0.0037533030394479717 0.0003473403911781287 0 0.0039755011001979179 0.00034816678125198608 0 0.003922367089198112 9.5711638667288088e-05 0 0.00315527587955292 1.7459668727917554e-05 0 0.0035002738881337926 -0.00010485796297289171 0 0.0037655127712674227 -0.00046255535904953855 0 0.0036101658928286021 -0.000236857939213949 0 0.0038252873069772385 -0.00024079743037967922 0 0.00315527587955292 1.7459668727917554e-05 0 0.003883989199471772 -5.3059352540411836e-05 0 0.0032683021957076639 0.00014867752878157227 0 0.0032545681700963105 0.00014974860377697398 0 0.0032807660961198361 0.00011721238796007653 0 0.0032545681700963105 0.00014974860377697398 0 0.0032807660961198361 0.00011721238796007653 0 0.0033124971059524423 0.00011480883224859746 0 0.0034180913661366638 6.9473288602117496e-05 0 0.0036800589672790099 2.978398139808994e-05 0 0.0036101658928286021 -0.000236857939213949 0 0.0034180913661366638 6.9473288602117496e-05 0 0.0032807660961198361 0.00011721238796007653 0 0.0033124971059524423 0.00011480883224859746 0 0.0033930004701427209 8.0655261188587352e-05 0 0.0035002738881337926 -0.00010485796297289171 0 0.0038990195808331911 -3.1952963031055104e-05 0 0.0038252873069772385 -0.00024079743037967922 0 0.0037685392529192246 -0.00010765542631493738 0 0.0036101658928286021 -0.000236857939213949 0 0.0038252873069772385 -0.00024079743037967922 0 0.0037685392529192246 -0.00010765542631493738 0 0.0036800589672790099 2.978398139808994e-05 0 0.0036101658928286021 -0.000236857939213949 0 0.0037685392529192246 -0.00010765542631493738 0 0.0038917414237809715 -4.0962367578027158e-05 0 0.003883989199471772 -5.3059352540411836e-05 0 0.0033132046226655664 0.00010937141866844826 0 0.0033314172649261593 0.00010283173066783 0 0.0033031240393395804 0.000124674557487198 0 0.0033132046226655664 0.00010937141866844826 0 0.0033314172649261593 0.00010283173066783 0 0.0033518314278602451 0.00011580742966274654 0 0.0034180913661366638 6.9473288602117496e-05 0 0.0033314172649261593 0.00010283173066783 0 0.0033124971059524423 0.00011480883224859746 0 0.0033314172649261593 0.00010283173066783 0 0.0033124971059524423 0.00011480883224859746 0 0.0033031240393395804 0.000124674557487198 0 0.0032545681700963105 0.00014974860377697398 0 0.0033124971059524423 0.00011480883224859746 0 0.0033031240393395804 0.000124674557487198 0 0.0028807346218284375 0.00050195586089744827 0 0.0026395944190116989 0.0007646416617662304 0 0.0026267915564225307 0.00044604235012596117 0 0.0030635501709267883 0.00033267324282159656 0 0.0031012803147588025 0.00034236235399038895 0 0.0024843990705423666 0.00058123551922467892 0 0.0026395944190116989 0.0007646416617662304 0 0.0026267915564225307 0.00044604235012596117 0 0.0031711493491080643 0.00027576835665417328 0 0.0031621534962674273 0.00035039222331019818 0 0.0030623700903763726 0.00031596601514373668 0 0.0028356262338530922 0.00043853264071403364 0 0.0025770661932337947 0.00039789063036850357 0 0.0024843990705423666 0.00058123551922467892 0 0.002332488297576762 0.00039878147779296477 0 0.0024317928513389745 0.00041087766055352115 0 0.0024843990705423666 0.00058123551922467892 0 0.0024317928513389745 0.00041087766055352115 0 0.0026267915564225307 0.00044604235012596117 0 0.0031621534962674273 0.00035039222331019818 0 0.0031712107646665703 0.00044648860121525004 0 0.0030623700903763726 0.00031596601514373668 0 0.0028356262338530922 0.00043853264071403364 0 0.0031012803147588025 0.00034236235399038895 0 0.0031711493491080643 0.00027576835665417328 0 0.0031621534962674273 0.00035039222331019818 0 0.0032434248346025702 0.00036325428180631681 0 0.0031621534962674273 0.00035039222331019818 0 0.0032434248346025702 0.00036325428180631681 0 0.0031712107646665703 0.00044648860121525004 0 0.0031012803147588025 0.00034236235399038895 0 0.0034165101996279736 0.000476047640040963 0 0.0033132046226655664 0.00010937141866844826 0 0.003308682221378742 0.00010866826732948724 0 0.0033023492327592893 0.00013501803033705187 0 0.0033132046226655664 0.00010937141866844826 0 0.0033031240393395804 0.000124674557487198 0 0.003308682221378742 0.00010866826732948724 0 0.0033638472540963469 0.00025608841559023927 0 0.0033718971530291536 0.00027101262316872078 0 0.0033824711736389641 0.00027195539315662964 0 0.0033638472540963469 0.00025608841559023927 0 0.0033718971530291536 0.00027101262316872078 0 0.003353730948600041 0.00026884041154559248 0 0.0033718971530291536 0.00027101262316872078 0 0.003353730948600041 0.00026884041154559248 0 0.0033705221831700251 0.00028804640061356438 0 0.0031012803147588025 0.00034236235399038895 0 0.0033748664295774901 0.00019246076132758565 0 0.0033718971530291536 0.00027101262316872078 0 0.0033766646243685908 0.00028125904727043324 0 0.0033824711736389641 0.00027195539315662964 0 0.0037708053019319325 0.00049025232213343727 0 0.0038254047536186069 0.00055512119457683858 0 0.003738741581088419 0.00052826543426770327 0 0.0034165101996279736 0.000476047640040963 0 0.0037076419696367665 0.00047236811510828334 0 0.0034165101996279736 0.000476047640040963 0 0.0039851069344353498 0.00055615341278722778 0 0.0034133242816709653 0.00068566655795501317 0 0.003294061402480365 0.00082314942814275531 0 0.0032740996196117499 0.00081207823297895149 0 0.0043957598559742784 0.00055374267802553228 0 0.0044070608126182895 0.00053886827661166182 0 0.0044199466728768793 0.00056942430663827349 0 0.0044933353662081135 0.00057850953742935769 0 0.0042371121728869863 0.00057508468901583181 0 0.0038254047536186069 0.00055512119457683858 0 0.003821306466013437 0.00057545628090125149 0 0.003738741581088419 0.00052826543426770327 0 0.0040359663040801484 0.00069154320189777332 0 0.0039851069344353498 0.00055615341278722778 0 0.0044070608126182895 0.00053886827661166182 0 0.0044644079358082452 0.00054202545832315679 0 0.0045228360669152179 0.00067074027294961979 0 0.0044070608126182895 0.00053886827661166182 0 0.0044199466728768793 0.00056942430663827349 0 0.0044212100657481362 0.00057083205833270896 0 0.0040926714361511568 0.00090706807482472435 0 0.0039873000784350224 0.0007880443334619885 0 0.0040626069246619398 0.00084685546153395025 0 0.0037076419696367665 0.00047236811510828334 0 0.0036943572255695644 0.00058493102745090083 0 0.0033718971530291536 0.00027101262316872078 0 0.0033766646243685908 0.00028125904727043324 0 0.0033608850111035947 0.00028825310338022103 0 0.0033766646243685908 0.00028125904727043324 0 0.0033608850111035947 0.00028825310338022103 0 0.0033912100414948201 0.00029151370634435592 0 0.0034256087426141617 0.00025898079146581174 0 0.0037076419696367665 0.00047236811510828334 0 0.0037076419696367665 0.00047236811510828334 0 0.0040359663040801484 0.00069154320189777332 0 0.0040926714361511568 0.00090706807482472435 0 0.0041010380004043168 0.00086758152713864401 0 0.0040626069246619398 0.00084685546153395025 0 0.0040359663040801484 0.00069154320189777332 0 0.0040926072472748792 0.00076515628751856464 0 0.0033912100414948201 0.00029151370634435592 0 0.0033824711736389641 0.00027195539315662964 0 0.0034223628175644059 0.00029114993141652473 0 0.0033023492327592893 0.00013501803033705187 0 0.0033835718861684899 0.00018403439943828149 0 0.0034223628175644059 0.00029114993141652473 0 0.0033748664295774901 0.00019246076132758565 0 0.003409988604390493 0.00028849103013422865 0 0.0033608850111035947 0.00028825310338022103 0 0.0033912100414948201 0.00029151370634435592 0 0.0033755330182832243 0.00033725635147351796 0 0.0033912100414948201 0.00029151370634435592 0 0.0034223628175644059 0.00029114993141652473 0 0.0034062982722144583 0.00031055747322038604 0 0.0033766646243685908 0.00028125904727043324 0 0.0033912100414948201 0.00029151370634435592 0 0.0033824711736389641 0.00027195539315662964 0 0.0033023492327592893 0.00013501803033705187 0 0.0033518314278602451 0.00011580742966274654 0 0.0033835718861684899 0.00018403439943828149 0 0.0033132046226655664 0.00010937141866844826 0 0.0033023492327592893 0.00013501803033705187 0 0.0033518314278602451 0.00011580742966274654 0 0.003523763790821411 0.00022243223768033136 0 0.0034180913661366638 6.9473288602117496e-05 0 0.0034152410703896015 0.00016622358360243936 0 0.0034180913661366638 6.9473288602117496e-05 0 0.0033518314278602451 0.00011580742966274654 0 0.0034152410703896015 0.00016622358360243936 0 0.0034180913661366638 6.9473288602117496e-05 0 0.0033314172649261593 0.00010283173066783 0 0.0033518314278602451 0.00011580742966274654 0 0.0033518314278602451 0.00011580742966274654 0 0.0034152410703896015 0.00016622358360243936 0 0.0033835718861684899 0.00018403439943828149 0 0.0034152410703896015 0.00016622358360243936 0 0.0034234536274757167 0.00023144363330342802 0 0.0034688208047116511 0.00024527669481519654 0 0.003523763790821411 0.00022243223768033136 0 0.0034152410703896015 0.00016622358360243936 0 0.0034688208047116511 0.00024527669481519654 0 0.0034152410703896015 0.00016622358360243936 0 0.0033835718861684899 0.00018403439943828149 0 0.0034234536274757167 0.00023144363330342802 0 0.0033835718861684899 0.00018403439943828149 0 0.0034234536274757167 0.00023144363330342802 0 0.0034223628175644059 0.00029114993141652473 0 0.0034234536274757167 0.00023144363330342802 0 0.0034223628175644059 0.00029114993141652473 0 0.0034563725196128776 0.00029290772884441523 0 0.003523763790821411 0.00022243223768033136 0 0.0034688208047116511 0.00024527669481519654 0 0.0035122896775503375 0.00031161625252007925 0 0.0034234536274757167 0.00023144363330342802 0 0.0034688208047116511 0.00024527669481519654 0 0.0034563725196128776 0.00029290772884441523 0 0.0034688208047116511 0.00024527669481519654 0 0.0034563725196128776 0.00029290772884441523 0 0.0035122896775503375 0.00031161625252007925 0 0.0034851438581870423 0.00037061137886189234 0 0.0034277872569316967 0.00033172941951261395 0 0.0034949041423452459 0.00046819659466583967 0 0.0034769592641009754 0.00031743949565272463 0 0.0035337164925280475 0.00041969788866237645 0 0.0034563725196128776 0.00029290772884441523 0 0.0035122896775503375 0.00031161625252007925 0 0.0035134647085508573 0.000468659794071208 0 0.0034563725196128776 0.00029290772884441523 0 0.0034700666743458148 0.00033673633691668782 0 0.0035722941448779518 0.00039878422508357272 0 0.0034223628175644059 0.00029114993141652473 0 0.0034700666743458148 0.00033673633691668782 0 0.0034277872569316967 0.00033172941951261395 0 0.0034223628175644059 0.00029114993141652473 0 0.0034563725196128776 0.00029290772884441523 0 0.0034700666743458148 0.00033673633691668782 0 0.0034700666743458148 0.00033673633691668782 0 0.0034851438581870423 0.00037061137886189234 0 0.0034277872569316967 0.00033172941951261395 0 0.0034700666743458148 0.00033673633691668782 0 0.0034851438581870423 0.00037061137886189234 0 0.0035722941448779518 0.00039878422508357272 0 0.0034277872569316967 0.00033172941951261395 0 0.0033755330182832243 0.00033725635147351796 0 0.0034949041423452459 0.00046819659466583967 0 0.0033912100414948201 0.00029151370634435592 0 0.0034062982722144583 0.00031055747322038604 0 0.0033755330182832243 0.00033725635147351796 0 0.0034223628175644059 0.00029114993141652473 0 0.0034277872569316967 0.00033172941951261395 0 0.0034062982722144583 0.00031055747322038604 0 0.0034277872569316967 0.00033172941951261395 0 0.0034062982722144583 0.00031055747322038604 0 0.0033755330182832243 0.00033725635147351796 0 0.0036943572255695644 0.00058493102745090083 0 0.003677649859070794 0.00054810443260706735 0 0.0040057735722949387 0.00068909953568061779 0 0.0039648236258610602 0.00062453997857272114 0 0.0038615791461455665 0.00066159758533833703 0 0.0039873000784350224 0.0007880443334619885 0 0.0040057735722949387 0.00068909953568061779 0 0.0038615791461455665 0.00066159758533833703 0 0.0039648236258610602 0.00062453997857272114 0 0.0038615791461455665 0.00066159758533833703 0 0.0039401165615668386 0.00056075672331929707 0 0.0040057735722949387 0.00068909953568061779 0 0.0039648236258610602 0.00062453997857272114 0 0.0040493465385210347 0.00058741563177996698 0 0.0036550472360257899 0.00051435233809342721 0 0.0035722941448779518 0.00039878422508357272 0 0.0034949041423452459 0.00046819659466583967 0 0.0034851438581870423 0.00037061137886189234 0 0.0035722941448779518 0.00039878422508357272 0 0.0034949041423452459 0.00046819659466583967 0 0.003700249051605875 0.00048402271178983971 0 0.0038615791461455665 0.00066159758533833703 0 0.0038448521916162864 0.00052698799811238574 0 0.0036839121505819906 0.00049228582277008228 0 0.003677649859070794 0.00054810443260706735 0 0.003700249051605875 0.00048402271178983971 0 0.0036550472360257899 0.00051435233809342721 0 0.0034949041423452459 0.00046819659466583967 0 0.003700249051605875 0.00048402271178983971 0 0.0038448521916162864 0.00052698799811238574 0 0.0038100973927423553 0.00045400413005138062 0 0.0038448521916162864 0.00052698799811238574 0 0.0039045636520096813 0.00047505657614135366 0 0.0038100973927423553 0.00045400413005138062 0 0.0038615791461455665 0.00066159758533833703 0 0.0038448521916162864 0.00052698799811238574 0 0.0039401165615668386 0.00056075672331929707 0 0.0039648236258610602 0.00062453997857272114 0 0.0039401165615668386 0.00056075672331929707 0 0.0040493465385210347 0.00058741563177996698 0 0.0039401165615668386 0.00056075672331929707 0 0.0040062246246810916 0.00049232396358357211 0 0.0040493465385210347 0.00058741563177996698 0 0.0039401165615668386 0.00056075672331929707 0 0.0040062246246810916 0.00049232396358357211 0 0.0039045636520096813 0.00047505657614135366 0 0.0038448521916162864 0.00052698799811238574 0 0.0039401165615668386 0.00056075672331929707 0 0.0039045636520096813 0.00047505657614135366 0 0.0039045636520096813 0.00047505657614135366 0 0.0039729462856583596 0.00040674738043189833 0 0.0038724087909713118 0.00040980810269812984 0 0.0040062246246810916 0.00049232396358357211 0 0.0039045636520096813 0.00047505657614135366 0 0.0039729462856583596 0.00040674738043189833 0 0.0040062246246810916 0.00049232396358357211 0 0.0039729462856583596 0.00040674738043189833 0 0.004076628655812862 0.00040754164414572301 0 0.0040493844079796081 0.0003148845062463198 0 0.0039272501244381162 0.00032787389752063562 0 0.0039729462856583596 0.00040674738043189833 0 0.0040493844079796081 0.0003148845062463198 0 0.0039729462856583596 0.00040674738043189833 0 0.004076628655812862 0.00040754164414572301 0 0.0039272501244381162 0.00032787389752063562 0 0.0039729462856583596 0.00040674738043189833 0 0.0038724087909713118 0.00040980810269812984 0 0.0039272501244381162 0.00032787389752063562 0 0.0037563662705091538 0.00039155102818228416 0 0.0038724087909713118 0.00040980810269812984 0 0.003700249051605875 0.00048402271178983971 0 0.0037563662705091538 0.00039155102818228416 0 0.0038100973927423553 0.00045400413005138062 0 0.0037563662705091538 0.00039155102818228416 0 0.0038724087909713118 0.00040980810269812984 0 0.0038100973927423553 0.00045400413005138062 0 0.0039045636520096813 0.00047505657614135366 0 0.0038724087909713118 0.00040980810269812984 0 0.0038100973927423553 0.00045400413005138062 0 0.0041676921252052071 0.00042112213589793783 0 0.0042471187186501154 0.00034562246480448935 0 0.0042036901157552469 0.00052472063013115754 0 0.004441324315221277 0.0003977758185403985 0 0.0044310371316599855 0.0003870396770669484 0 0.0044175064957352392 0.00044648551659105774 0 0.0044321151667535549 0.00035859874579184512 0 0.0043012182709509196 0.00049019423366092904 0 0.0045058157289718063 0.00031315904437647198 0 0.0044321151667535549 0.00035859874579184512 0 0.0041353694870969581 0.00033751011321414006 0 0.0041676921252052071 0.00042112213589793783 0 0.0042471187186501154 0.00034562246480448935 0 0.0041353694870969581 0.00033751011321414006 0 0.0041676921252052071 0.00042112213589793783 0 0.004076628655812862 0.00040754164414572301 0 0.0040493844079796081 0.0003148845062463198 0 0.0041353694870969581 0.00033751011321414006 0 0.004076628655812862 0.00040754164414572301 0 0.0040062246246810916 0.00049232396358357211 0 0.004076628655812862 0.00040754164414572301 0 0.0041010372785784477 0.00049009659817115961 0 0.0041676921252052071 0.00042112213589793783 0 0.004076628655812862 0.00040754164414572301 0 0.0041010372785784477 0.00049009659817115961 0 0.0041676921252052071 0.00042112213589793783 0 0.0041513342929954131 0.00049418690052443516 0 0.0041010372785784477 0.00049009659817115961 0 0.0041513342929954131 0.00049418690052443516 0 0.0041010372785784477 0.00049009659817115961 0 0.0041329439109623221 0.00054131157940467804 0 0.0040062246246810916 0.00049232396358357211 0 0.0041010372785784477 0.00049009659817115961 0 0.0040493465385210347 0.00058741563177996698 0 0.0041329439109623221 0.00054131157940467804 0 0.0042036901157552469 0.00052472063013115754 0 0.004128614467133202 0.00060670953384575621 0 0.0041010372785784477 0.00049009659817115961 0 0.0040493465385210347 0.00058741563177996698 0 0.0041329439109623221 0.00054131157940467804 0 0.0040493465385210347 0.00058741563177996698 0 0.0041329439109623221 0.00054131157940467804 0 0.004128614467133202 0.00060670953384575621 0 0.0045058157289718063 0.00031315904437647198 0 0.0044340831633171082 0.0004235374986400716 0 0.0044959985963970491 0.00022770338387655297 0 0.0044551053617834608 0.00037576023126744686 0 0.0045075611959422088 0.00031293153400013211 0 0.004441324315221277 0.0003977758185403985 0 0.0044233430029893489 0.0004663742743364948 0 0.0044175064957352392 0.00044648551659105774 0 0.0041676921252052071 0.00042112213589793783 0 0.0041513342929954131 0.00049418690052443516 0 0.0042036901157552469 0.00052472063013115754 0 0.0041513342929954131 0.00049418690052443516 0 0.0041329439109623221 0.00054131157940467804 0 0.0042036901157552469 0.00052472063013115754 0 0.0044551053617834608 0.00037576023126744686 0 0.0044957375064708302 0.00041485942119884068 0 0.004516936214235847 0.00035242750128067668 0 0.0044551053617834608 0.00037576023126744686 0 0.004516936214235847 0.00035242750128067668 0 0.0045075611959422088 0.00031293153400013211 0 0.0044340831633171082 0.0004235374986400716 0 0.0044118472924114475 0.0005228095444142183 0 0.0044233430029893489 0.0004663742743364948 0 0.0044068428220599056 0.00050211413902143164 0 0.0044087669946187664 0.0005291670623263589 0 0.0044551053617834608 0.00037576023126744686 0 0.0044957375064708302 0.00041485942119884068 0 0.0044498141403329838 0.00049738123855384625 0 0.0042036901157552469 0.00052472063013115754 0 0.0041516414308591723 0.00070611827432776465 0 0.004128614467133202 0.00060670953384575621 0 0.0044233430029893489 0.0004663742743364948 0 0.0044175064957352392 0.00044648551659105774 0 0.0044068428220599056 0.00050211413902143164 0 0.0043012182709509196 0.00049019423366092904 0 0.0042968165454413581 0.00059988443420741879 0 0.0044551053617834608 0.00037576023126744686 0 0.0044498141403329838 0.00049738123855384625 0 0.0044087669946187664 0.0005291670623263589 0 0.0044957375064708302 0.00041485942119884068 0 0.0044926789105413142 0.00046508921386097604 0 0.0044498141403329838 0.00049738123855384625 0 0.0040057735722949387 0.00068909953568061779 0 0.0040493465385210347 0.00058741563177996698 0 0.0040835839123853765 0.0006704496058632858 0 0.0040493465385210347 0.00058741563177996698 0 0.004128614467133202 0.00060670953384575621 0 0.0040835839123853765 0.0006704496058632858 0 0.0041516414308591723 0.00070611827432776465 0 0.004128614467133202 0.00060670953384575621 0 0.0040835839123853765 0.0006704496058632858 0 0.0041516414308591723 0.00070611827432776465 0 0.0040835839123853765 0.0006704496058632858 0 0.0040756377605772843 0.00076158433148601262 0 0.0040057735722949387 0.00068909953568061779 0 0.0040835839123853765 0.0006704496058632858 0 0.0040756377605772843 0.00076158433148601262 0 0.00410283746301684 0.0008703478140581611 0 0.0041516414308591723 0.00070611827432776465 0 0.0040756377605772843 0.00076158433148601262 0 0.0043957598559742784 0.00055374267802553228 0 0.0044068428220599056 0.00050211413902143164 0 0.0044087669946187664 0.0005291670623263589 0 0.0040359663040801484 0.00069154320189777332 0 0.0042968165454413581 0.00059988443420741879 0 0.0039873000784350224 0.0007880443334619885 0 0.0040057735722949387 0.00068909953568061779 0 0.0040756377605772843 0.00076158433148601262 0 0.0043957598559742784 0.00055374267802553228 0 0.0044087669946187664 0.0005291670623263589 0 0.0044070608126182895 0.00053886827661166182 0 0.00410283746301684 0.0008703478140581611 0 0.0040756377605772843 0.00076158433148601262 0 0.0040626069246619398 0.00084685546153395025 0 0.0039873000784350224 0.0007880443334619885 0 0.0040756377605772843 0.00076158433148601262 0 0.0040626069246619398 0.00084685546153395025 0 0.0044926789105413142 0.00046508921386097604 0 0.0044498141403329838 0.00049738123855384625 0 0.0045078686832907156 0.00049422817099760473 0 0.0044498141403329838 0.00049738123855384625 0 0.0044644079358082452 0.00054202545832315679 0 0.0045078686832907156 0.00049422817099760473 0 0.0044498141403329838 0.00049738123855384625 0 0.0044347638578193802 0.00052039215571682718 0 0.0044644079358082452 0.00054202545832315679 0 0.0044498141403329838 0.00049738123855384625 0 0.0044347638578193802 0.00052039215571682718 0 0.0044087669946187664 0.0005291670623263589 0 0.0044277535675170164 0.00053137480119504264 0 0.0044070608126182895 0.00053886827661166182 0 0.0044644079358082452 0.00054202545832315679 0 0.0044347638578193802 0.00052039215571682718 0 0.0044277535675170164 0.00053137480119504264 0 0.0044644079358082452 0.00054202545832315679 0 0.0044347638578193802 0.00052039215571682718 0 0.0044087669946187664 0.0005291670623263589 0 0.0044277535675170164 0.00053137480119504264 0 0.0044087669946187664 0.0005291670623263589 0 0.0044277535675170164 0.00053137480119504264 0 0.0044070608126182895 0.00053886827661166182 0 0.0044644079358082452 0.00054202545832315679 0 0.0045341751317311673 0.00054529784184545558 0 0.0045078686832907156 0.00049422817099760473 0 0.0045341751317311673 0.00054529784184545558 0 0.0046212208098979435 0.00054608370560422213 0 0.0045724179330270615 0.00047468348422279499 0 0.0045341751317311673 0.00054529784184545558 0 0.0045078686832907156 0.00049422817099760473 0 0.0045724179330270615 0.00047468348422279499 0 0.0046212208098979435 0.00054608370560422213 0 0.0046285050758012791 0.00044087631101805282 0 0.0045724179330270615 0.00047468348422279499 0 0.0047972513232830164 0.00043704546816560806 0 0.0047256594151106014 0.00042710911823726005 0 0.0046212208098979435 0.00054608370560422213 0 0.0046285050758012791 0.00044087631101805282 0 0.0047091592681742997 0.0004313133928391249 0 0.0046285050758012791 0.00044087631101805282 0 0.0046341766585443313 0.00037074767340383795 0 0.0047091592681742997 0.0004313133928391249 0 0.0046285050758012791 0.00044087631101805282 0 0.0045664266542013139 0.00039660771325769248 0 0.0046341766585443313 0.00037074767340383795 0 0.0045078686832907156 0.00049422817099760473 0 0.0045273175011157742 0.00044897625140521324 0 0.0045724179330270615 0.00047468348422279499 0 0.0044957375064708302 0.00041485942119884068 0 0.0044926789105413142 0.00046508921386097604 0 0.0045273175011157742 0.00044897625140521324 0 0.0044926789105413142 0.00046508921386097604 0 0.0045078686832907156 0.00049422817099760473 0 0.0045273175011157742 0.00044897625140521324 0 0.0045273175011157742 0.00044897625140521324 0 0.0045724179330270615 0.00047468348422279499 0 0.0045664266542013139 0.00039660771325769248 0 0.0046285050758012791 0.00044087631101805282 0 0.0045724179330270615 0.00047468348422279499 0 0.0045664266542013139 0.00039660771325769248 0 0.0044957375064708302 0.00041485942119884068 0 0.0045273175011157742 0.00044897625140521324 0 0.0045664266542013139 0.00039660771325769248 0 0.0044957375064708302 0.00041485942119884068 0 0.0045664266542013139 0.00039660771325769248 0 0.004516936214235847 0.00035242750128067668 0 0.0045664266542013139 0.00039660771325769248 0 0.004562521215884816 0.00029589047350820475 0 0.0046341766585443313 0.00037074767340383795 0 0.0045664266542013139 0.00039660771325769248 0 0.004516936214235847 0.00035242750128067668 0 0.004562521215884816 0.00029589047350820475 0 0.004516936214235847 0.00035242750128067668 0 0.0045075611959422088 0.00031293153400013211 0 0.004562521215884816 0.00029589047350820475 0 0.0045784172998538679 0.00031078512518463235 0 0.0046291677891076542 0.00036391118447945246 0 0.0046341766585443313 0.00037074767340383795 0 0.0046717481472701907 0.00033597055429666586 0 0.0046452688734062155 0.00030839928122914604 0 0.0046341766585443313 0.00037074767340383795 0 0.0046717481472701907 0.00033597055429666586 0 0.0047109697976965431 0.00036040353036216177 0 0.0046013936615339306 0.0003269319114466673 0 0.0046341766585443313 0.00037074767340383795 0 0.0046452688734062155 0.00030839928122914604 0 0.0046452688734062155 0.00030839928122914604 0 0.0046737711006785004 0.00027445079207084129 0 0.0046977830603612556 0.0003059693584614302 0 0.0046717481472701907 0.00033597055429666586 0 0.0046452688734062155 0.00030839928122914604 0 0.0046977830603612556 0.0003059693584614302 0 0.0046452688734062155 0.00030839928122914604 0 0.0046737711006785004 0.00027445079207084129 0 0.0046295758567067823 0.00026099293768410965 0 0.0046452688734062155 0.00030839928122914604 0 0.0046295758567067823 0.00026099293768410965 0 0.0046061388055272413 0.00028591831412836191 0 0.0045941119585010057 0.00025176515075757048 0 0.0046295758567067823 0.00026099293768410965 0 0.0046061388055272413 0.00028591831412836191 0 0.0045941119585010057 0.00025176515075757048 0 0.0045557106387358265 0.00028066320987001726 0 0.0046061388055272413 0.00028591831412836191 0 0.0045557106387358265 0.00028066320987001726 0 0.0046013936615339306 0.0003269319114466673 0 0.0046061388055272413 0.00028591831412836191 0 0.0045058157289718063 0.00031315904437647198 0 0.0045784172998538679 0.00031078512518463235 0 0.0044959985963970491 0.00022770338387655297 0 0.0045075611959422088 0.00031293153400013211 0 0.004562521215884816 0.00029589047350820475 0 0.0046013936615339306 0.0003269319114466673 0 0.0046452688734062155 0.00030839928122914604 0 0.0046061388055272413 0.00028591831412836191 0 0.0047455297221430737 0.0002307830861969529 0 0.0047459344360914557 0.00030380436012462898 0 0.0047831576966130473 0.00031072356394047998 0 0.0047433894204671027 0.00018797358194862449 0 0.0047709636387544144 0.00026412604240899287 0 0.0047459344360914557 0.00030380436012462898 0 0.0047831576966130473 0.00031072356394047998 0 0.0047617811227479772 0.00034943086469159124 0 0.0047459344360914557 0.00030380436012462898 0 0.0047120591126188736 0.00026811451411529722 0 0.0046977830603612556 0.0003059693584614302 0 0.0047455297221430737 0.0002307830861969529 0 0.0047459344360914557 0.00030380436012462898 0 0.0047120591126188736 0.00026811451411529722 0 0.0046737711006785004 0.00027445079207084129 0 0.0047120591126188736 0.00026811451411529722 0 0.0046977830603612556 0.0003059693584614302 0 0.0047459344360914557 0.00030380436012462898 0 0.0046977830603612556 0.0003059693584614302 0 0.0047109697976965431 0.00036040353036216177 0 0.0047109697976965431 0.00036040353036216177 0 0.0047617811227479772 0.00034943086469159124 0 0.0047091592681742997 0.0004313133928391249 0 0.0047694490471465257 0.00035025086845571628 0 0.0047256594151106014 0.00042710911823726005 0 0.0047459344360914557 0.00030380436012462898 0 0.0047109697976965431 0.00036040353036216177 0 0.0047617811227479772 0.00034943086469159124 0 0.0046341766585443313 0.00037074767340383795 0 0.0047109697976965431 0.00036040353036216177 0 0.0047091592681742997 0.0004313133928391249 0 0.0046717481472701907 0.00033597055429666586 0 0.0046977830603612556 0.0003059693584614302 0 0.0047109697976965431 0.00036040353036216177 0 0.0047617811227479772 0.00034943086469159124 0 0.0047643075469792637 0.00039618628375456014 0 0.0047731651061998417 0.00036317001653661502 0 0.0047831576966130473 0.00031072356394047998 0 0.0047617811227479772 0.00034943086469159124 0 0.0047731651061998417 0.00036317001653661502 0 0.0047617811227479772 0.00034943086469159124 0 0.0047643075469792637 0.00039618628375456014 0 0.0047681386603590477 0.00040541893380192592 0 0.0047643075469792637 0.00039618628375456014 0 0.0047681386603590477 0.00040541893380192592 0 0.0047757698351085891 0.00040070846333141393 0 0.0048236556361706479 0.0004091200160451837 0 0.0047681386603590477 0.00040541893380192592 0 0.0047757698351085891 0.00040070846333141393 0 0.0047643075469792637 0.00039618628375456014 0 0.0047757698351085891 0.00040070846333141393 0 0.0047620109448653636 0.00042362036734345729 0 0.0047757698351085891 0.00040070846333141393 0 0.0047932053779985951 0.00038846074920055205 0 0.0047620109448653636 0.00042362036734345729 0 0.0047932053779985951 0.00038846074920055205 0 0.004854270690445011 0.00027269444436774299 0 0.0047603440128750367 0.00037906056677110739 0 0.0045840765151785859 0.00025008340191319669 0 0.0047368858506359078 0.00036426921603742901 0 0.0047603440128750367 0.00037906056677110739 0 0.0048041515826370155 0.00031597159261221853 0 0.0047464479257465636 0.00014408491832694918 0 0.0043269972251390523 0.00025700887254496486 0 0.0047603440128750367 0.00037906056677110739 0 0.0047464479257465636 0.00014408491832694918 0 0.0047603440128750367 0.00037906056677110739 0 0.0048166020471601409 0.00037241966146727372 0 0.0048041515826370155 0.00031597159261221853 0 0.0047757698351085891 0.00040070846333141393 0 0.0047603440128750367 0.00037906056677110739 0 0.0048166020471601409 0.00037241966146727372 0 0.0047757698351085891 0.00040070846333141393 0 0.0047932053779985951 0.00038846074920055205 0 0.0047603440128750367 0.00037906056677110739 0 0.0048236556361706479 0.0004091200160451837 0 0.0048166020471601409 0.00037241966146727372 0 0.0048760036225108574 0.00035004092303984213 0 0.0048236556361706479 0.0004091200160451837 0 0.0047757698351085891 0.00040070846333141393 0 0.0048166020471601409 0.00037241966146727372 0 0.0048236556361706479 0.0004091200160451837 0 0.0048993348500422527 0.00035575230704070431 0 0.0048760036225108574 0.00035004092303984213 0 0.0047972513232830164 0.00043704546816560806 0 0.0042371121728869863 0.00057508468901583181 0 0.0045341751317311673 0.00054529784184545558 0 0.0046212208098979435 0.00054608370560422213 0 0.0045228360669152179 0.00067074027294961979 0 0.0044644079358082452 0.00054202545832315679 0 0.0045341751317311673 0.00054529784184545558 0 0.0045228360669152179 0.00067074027294961979 0 0.0042371121728869863 0.00057508468901583181 0 0.0033850951976308404 0.00051148232626366046 0 0.004207892667066713 0.00078718634214481318 0 0.0039629179268686867 0.0006510457062238904 0 0.003880540746467414 0.00043804402042697203 0 0.0032740996196117499 0.00081207823297895149 0 0.0032297306641742734 0.00062598406095235786 0 0.0030448234551368834 0.00056952389599878553 0 0.0039851069344353498 0.00055615341278722778 0 0.0042371121728869863 0.00057508468901583181 0 0.0048993348500422527 0.00035575230704070431 0 0.0048760036225108574 0.00035004092303984213 0 0.0048591010694654744 0.00033113646820915845 0 0.0042371121728869863 0.00057508468901583181 0 0.0046967398765783925 0.00037785958518709521 0 0.0048011732842174843 0.00039481507410030865 0 0.0046967398765783925 0.00037785958518709521 0 0.0034133242816709653 0.00068566655795501317 0 0.0032740996196117499 0.00081207823297895149 0 0.0032297306641742734 0.00062598406095235786 0 0.0046967398765783925 0.00037785958518709521 0 0.0047356095533066514 0.00010336619653448285 0 0.0048041515826370155 0.00031597159261221853 0 0.0048764886432361961 0.00032555362047677518 0 0.0047464479257465636 0.00014408491832694918 0 0.0048166020471601409 0.00037241966146727372 0 0.0048041515826370155 0.00031597159261221853 0 0.0048764886432361961 0.00032555362047677518 0 0.0048166020471601409 0.00037241966146727372 0 0.0048760036225108574 0.00035004092303984213 0 0.0048764886432361961 0.00032555362047677518 0 0.0030448234551368834 0.00056952389599878553 0 0.0030023212003222246 0.00037559355551952087 0 0.0028308686667713949 0.00033573287116461624 0 0.0033850951976308404 0.00051148232626366046 0 0.0032830344381375334 0.00020506542997438727 0 0.0046967398765783925 0.00037785958518709521 0 0.0041938665759404916 0.00016507413893243524 0 0.0050117030167824324 0.00026749063765651467 0 0.0047835478437671603 2.6457375816842698e-06 0 0.0046680664144314677 6.8297183082114939e-05 0 0.0039629179268686867 0.0006510457062238904 0 0.003880540746467414 0.00043804402042697203 0 0.0036735834334526876 0.00034279771253270736 0 0.003880540746467414 0.00043804402042697203 0 0.0035459976883380081 8.736952160470532e-05 0 0.0036735834334526876 0.00034279771253270736 0 0.0030448234551368834 0.00056952389599878553 0 0.0031846712037267317 0.00042335042907072867 0 0.0030023212003222246 0.00037559355551952087 0 0.0032297306641742734 0.00062598406095235786 0 0.0030448234551368834 0.00056952389599878553 0 0.0031846712037267317 0.00042335042907072867 0 0.0034165101996279736 0.000476047640040963 0 0.0031060476566556489 0.00037840805763668476 0 0.0034133242816709653 0.00068566655795501317 0 0.0032297306641742734 0.00062598406095235786 0 0.0031846712037267317 0.00042335042907072867 0 0.0030623700903763726 0.00031596601514373668 0 0.0029520642563000484 0.00017737029767276173 0 0.0030992893278423699 0.00018629888757290566 0 0.0031711493491080643 0.00027576835665417328 0 0.0030623700903763726 0.00031596601514373668 0 0.0030992893278423699 0.00018629888757290566 0 0.0030023212003222246 0.00037559355551952087 0 0.0028308686667713949 0.00033573287116461624 0 0.0029520642563000484 0.00017737029767276173 0 0.0031060476566556489 0.00037840805763668476 0 0.0029675463336932459 0.00018635614840508004 0 0.0031846712037267317 0.00042335042907072867 0 0.0030023212003222246 0.00037559355551952087 0 0.0029520642563000484 0.00017737029767276173 0 0.0035459976883380081 8.736952160470532e-05 0 0.0033768746272899957 3.252272874603142e-05 0 0.0032025988626307833 -0.0002700493161441224 0 0.0035459976883380081 8.736952160470532e-05 0 0.0033768746272899957 3.252272874603142e-05 0 0.0036735834334526876 0.00034279771253270736 0 0.0040531470565287973 -0.00014491434200178163 0 0.0041938665759404916 0.00016507413893243524 0 0.0045402411586241698 -0.00029711370197826599 0 0.0042753401015899325 -0.00014227950026926762 0 0.0046680664144314677 6.8297183082114939e-05 0 0.0045402411586241698 -0.00029711370197826599 0 0.0042621623608920011 -0.0003753647030054994 0 0.0042753401015899325 -0.00014227950026926762 0 0.0042876222902109521 -0.0001308564259976964 0 0.0047356095533066514 0.00010336619653448285 0 0.0043269972251390523 0.00025700887254496486 0 0.0042753401015899325 -0.00014227950026926762 0 0.0047464479257465636 0.00014408491832694918 0 0.0045402411586241698 -0.00029711370197826599 0 0.0047835478437671603 2.6457375816842698e-06 0 0.0046680664144314677 6.8297183082114939e-05 0 0.0018610243088040129 0.00028331852106766266 0 0.0019420732563439796 -3.5400021100795271e-05 0 0.0017164559209677467 8.1585049805818933e-05 0 0.0018610243088040129 0.00028331852106766266 0 0.0021771911639867766 0.00023547991613670548 0 0.0019420732563439796 -3.5400021100795271e-05 0 0.0018610243088040129 0.00028331852106766266 0 0.0016447493318362911 0.00022865539632857957 0 0.0017164559209677467 8.1585049805818933e-05 0 0.0016447493318362911 0.00022865539632857957 0 0.0016666860873319382 0.00041563790820100795 0 0.0014191467785100048 0.00015408746517690705 0 0.0016917744775892117 0.00041163781249719064 0 0.0015953527214452123 0.00040333965787536373 0 0.0014191467785100048 0.00015408746517690705 0 0.0015779587159767082 0.0001276848207664084 0 0.0016447493318362911 0.00022865539632857957 0 0.0017164559209677467 8.1585049805818933e-05 0 0.0018610243088040129 0.00028331852106766266 0 0.0016447493318362911 0.00022865539632857957 0 0.0016666860873319382 0.00041563790820100795 0 0.0045402411586241698 -0.00029711370197826599 0 0.0042621623608920011 -0.0003753647030054994 0 0.0042407192122784166 -0.00066856988983717198 0 0.0040531470565287973 -0.00014491434200178163 0 0.002697423289403829 2.6288456819556574e-05 0 0.0033768746272899957 3.252272874603142e-05 0 0.0032025988626307833 -0.0002700493161441224 0 0.0030751235912255142 -0.00028357014947767126 0 0.0022819533708529115 0.00018432998636593194 0 0.002697423289403829 2.6288456819556574e-05 0 0.0028308686667713949 0.00033573287116461624 0 0.0026264832838313584 0.00011775711257547941 0 0.0029306403338175704 0.00015566088944220168 0 0.0032830344381375334 0.00020506542997438727 0 0.0022819533708529115 0.00018432998636593194 0 0.0022819533708529115 0.00018432998636593194 0 0.0024876712374993751 0.00031256615766570088 0 0.0018610243088040129 0.00028331852106766266 0 0.0016666860873319382 0.00041563790820100795 0 0.0020314352046910448 0.00046185307639817172 0 0.0028308686667713949 0.00033573287116461624 0 0.0029306403338175704 0.00015566088944220168 0 0.0029520642563000484 0.00017737029767276173 0 0.0020314352046910448 0.00046185307639817172 0 0.0024063289003508148 0.00050571886459018368 0 0.0021771911639867766 0.00023547991613670548 0 0.0024876712374993751 0.00031256615766570088 0 0.0025770661932337947 0.00039789063036850357 0 0.0029306403338175704 0.00015566088944220168 0 0.0029520642563000484 0.00017737029767276173 0 0.0030992893278423699 0.00018629888757290566 0 0.0023333940693495607 0.00039934463677563324 0 0.0023797722894970705 0.00024013948457153605 0 0.0021354936183411643 0.00016962413436031614 0 0.0025770661932337947 0.00039789063036850357 0 0.0021256573839936472 0.00019626499890121121 0 0.0025770661932337947 0.00039789063036850357 0 0.0024171892769898739 0.00039147634128702704 0 0.0023333940693495607 0.00039934463677563324 0 0.0023797722894970705 0.00024013948457153605 0 0.0024317928513389745 0.00041087766055352115 0 0.002325739499195627 6.8803419161358914e-05 0 0.0021354936183411643 0.00016962413436031614 0 0.002193509073902962 -5.0500662118552011e-05 0 0.0023797722894970705 0.00024013948457153605 0 0.002325739499195627 6.8803419161358914e-05 0 0.0021354936183411643 0.00016962413436031614 0 0.0018610243088040129 0.00028331852106766266 0 0.0020314352046910448 0.00046185307639817172 0 0.0021771911639867766 0.00023547991613670548 0 0.0021354936183411643 0.00016962413436031614 0 0.002193509073902962 -5.0500662118552011e-05 0 0.0019420732563439796 -3.5400021100795271e-05 0 0.0021256573839936472 0.00019626499890121121 0 0.0019655187521169784 -1.7145753804737356e-05 0 0.002193509073902962 -5.0500662118552011e-05 0 0.0021139225660809641 -0.00017952690028972913 0 0.0019420732563439796 -3.5400021100795271e-05 0 0.002193509073902962 -5.0500662118552011e-05 0 0.0022788179567312813 -0.00021527010728352068 0 0.0024186137486770713 -0.0001024509924351494 0 0.002325739499195627 6.8803419161358914e-05 0 0.002193509073902962 -5.0500662118552011e-05 0 0.0024186137486770713 -0.0001024509924351494 0 0.002193509073902962 -5.0500662118552011e-05 0 0.0022788179567312813 -0.00021527010728352068 0 0.0021139225660809641 -0.00017952690028972913 0 0.0022788179567312813 -0.00021527010728352068 0 0.0021688063088108364 -0.00033177920948399074 0 0.0023263786869348242 -0.00035439200496707003 0 0.0022788179567312813 -0.00021527010728352068 0 0.0021139225660809641 -0.00017952690028972913 0 0.0021688063088108364 -0.00033177920948399074 0 0.0022788179567312813 -0.00021527010728352068 0 0.0023263786869348242 -0.00035439200496707003 0 0.0024463457616449372 -0.00026782386356126252 0 0.0021139225660809641 -0.00017952690028972913 0 0.0020014687602960754 -0.00028460670324879976 0 0.0019420732563439796 -3.5400021100795271e-05 0 0.0021139225660809641 -0.00017952690028972913 0 0.0020014687602960754 -0.00028460670324879976 0 0.0021688063088108364 -0.00033177920948399074 0 0.0020014687602960754 -0.00028460670324879976 0 0.0017522014413118938 -0.00014830654652588476 0 0.0017916385477799919 -0.0004362500032501391 0 0.0020014687602960754 -0.00028460670324879976 0 0.0019420732563439796 -3.5400021100795271e-05 0 0.0017522014413118938 -0.00014830654652588476 0 0.0019420732563439796 -3.5400021100795271e-05 0 0.0017164559209677467 8.1585049805818933e-05 0 0.0017522014413118938 -0.00014830654652588476 0 0.0017164559209677467 8.1585049805818933e-05 0 0.0017522014413118938 -0.00014830654652588476 0 0.0015395873402370935 7.5118861928604914e-06 0 0.0015779587159767082 0.0001276848207664084 0 0.0017164559209677467 8.1585049805818933e-05 0 0.0015395873402370935 7.5118861928604914e-06 0 0.0017522014413118938 -0.00014830654652588476 0 0.0014976251240112013 -0.00019953888872755964 0 0.0015395873402370935 7.5118861928604914e-06 0 0.0017522014413118938 -0.00014830654652588476 0 0.0017916385477799919 -0.0004362500032501391 0 0.0014976251240112013 -0.00019953888872755964 0 0.0015872616777249308 -0.00025425370031733626 0 0.0013837976101863979 -6.5785933164455479e-05 0 0.0014420776407607066 -7.8779722031968556e-05 0 0.0012568747694586345 7.0048003934741561e-05 0 0.0012924306593698554 -0.00016446685799685479 0 0.0020014687602960754 -0.00028460670324879976 0 0.0017916385477799919 -0.0004362500032501391 0 0.0020793329964299322 -0.00047628308965796246 0 0.0015872616777249308 -0.00025425370031733626 0 0.0019922242855646534 -0.00041244405301161185 0 0.0014420776407607066 -7.8779722031968556e-05 0 0.0014918672795359827 -0.00023875731905679767 0 0.0014008218270001056 -0.0002706179813308611 0 0.0014420776407607066 -7.8779722031968556e-05 0 0.0014918672795359827 -0.00023875731905679767 0 0.0016159890671959907 -0.00022981525548112581 0 0.0014420776407607066 -7.8779722031968556e-05 0 0.0014008218270001056 -0.0002706179813308611 0 0.0012924306593698554 -0.00016446685799685479 0 0.0015216197731995811 -0.0003538993181626976 0 0.0012788403843382564 -0.0001549703637124875 0 0.0014663201975221338 -0.00032388821447537343 0 0.0013607322597958584 -0.00054622893176036662 0 0.0011391097377004668 -0.00039052324062490302 0 0.0014663201975221338 -0.00032388821447537343 0 0.0016788352342864924 -0.00050967744160087169 0 0.0013607322597958584 -0.00054622893176036662 0 0.0014918672795359827 -0.00023875731905679767 0 0.0015087927729080584 -0.00037616869750159524 0 0.0016159890671959907 -0.00022981525548112581 0 0.0015216197731995811 -0.0003538993181626976 0 0.00061767879403416023 -0.00068610459000263658 0 0.0014918672795359827 -0.00023875731905679767 0 0.0014008218270001056 -0.0002706179813308611 0 0.0015087927729080584 -0.00037616869750159524 0 0.00061767879403416023 -0.00068610459000263658 0 -0.00017497002175668352 -0.00073725878972365124 0 -0.0018101585400467856 -0.00076027296707260883 0 -0.0018461743907401658 -0.00062798926022214409 0 -0.0016968182271816458 -0.00057697413520250106 0 -0.0018101585400467856 -0.00076027296707260883 0 -0.0018461743907401658 -0.00062798926022214409 0 -0.0019729298902765834 -0.00062444127249019446 0 -0.0018461743907401658 -0.00062798926022214409 0 -0.0019078472513834655 -0.00057796195078230639 0 -0.001846521789240561 -0.00053726473170804753 0 -0.0018461743907401658 -0.00062798926022214409 0 -0.0016968182271816458 -0.00057697413520250106 0 -0.001846521789240561 -0.00053726473170804753 0 0.0016788352342864924 -0.00050967744160087169 0 0.0013607322597958584 -0.00054622893176036662 0 0.0015064305800922375 -0.00079014135444719486 0 0.0013607322597958584 -0.00054622893176036662 0 0.0015064305800922375 -0.00079014135444719486 0 0.0011151433708282551 -0.00079157872718288121 0 0.0022904933676230117 -0.0010891433044793043 0 0.0021256555394119714 -0.00088309704785542351 0 0.0023083790375740764 -0.00085883118028489943 0 0.0022904933676230117 -0.0010891433044793043 0 0.0020078961439617023 -0.0010291735336486658 0 0.0021256555394119714 -0.00088309704785542351 0 0.0004502636009417399 -0.00097920158953491033 0 -0.00037432661905835614 -0.00084507437665857642 0 0.0018265515360567828 -0.00087064486779523244 0 0.0020078961439617023 -0.0010291735336486658 0 0.0021256555394119714 -0.00088309704785542351 0 -0.0018461743907401658 -0.00062798926022214409 0 -0.0019729298902765834 -0.00062444127249019446 0 -0.0019078472513834655 -0.00057796195078230639 0 -0.0019729298902765834 -0.00062444127249019446 0 -0.0019078472513834655 -0.00057796195078230639 0 -0.0019568107525630572 -0.00057406252704228706 0 0.00061767879403416023 -0.00068610459000263658 0 -0.00037432661905835614 -0.00084507437665857642 0 0.00061767879403416023 -0.00068610459000263658 0 0.0019922242855646534 -0.00041244405301161185 0 0.0018265515360567828 -0.00087064486779523244 0 0.0020894630387320598 -0.00069835385200058117 0 0.0020111497081244565 -0.00063172570993027437 0 0.0018265515360567828 -0.00087064486779523244 0 0.0020894630387320598 -0.00069835385200058117 0 0.0021256555394119714 -0.00088309704785542351 0 0.0020894630387320598 -0.00069835385200058117 0 0.002209772629963829 -0.00074610948957300768 0 0.0021256555394119714 -0.00088309704785542351 0 0.002209772629963829 -0.00074610948957300768 0 0.0021256555394119714 -0.00088309704785542351 0 0.0023083790375740764 -0.00085883118028489943 0 0.002209772629963829 -0.00074610948957300768 0 0.0023083790375740764 -0.00085883118028489943 0 0.0023934674523450805 -0.0007356718255519337 0 0.002209772629963829 -0.00074610948957300768 0 0.0022959987444675406 -0.00060328284469417476 0 0.0023934674523450805 -0.0007356718255519337 0 0.0020894630387320598 -0.00069835385200058117 0 0.002209772629963829 -0.00074610948957300768 0 0.002159648198343671 -0.00063391400878897288 0 0.002209772629963829 -0.00074610948957300768 0 0.002159648198343671 -0.00063391400878897288 0 0.0022959987444675406 -0.00060328284469417476 0 0.0021744192924074033 -0.00054913521612991569 0 0.0022959987444675406 -0.00060328284469417476 0 0.0022448896891235802 -0.00046706390757826426 0 0.002159648198343671 -0.00063391400878897288 0 0.0021744192924074033 -0.00054913521612991569 0 0.0022959987444675406 -0.00060328284469417476 0 0.0022959987444675406 -0.00060328284469417476 0 0.0022448896891235802 -0.00046706390757826426 0 0.0023858631307794101 -0.00048950563202636039 0 0.0017916385477799919 -0.0004362500032501391 0 0.0020487905025697471 -0.00064801865565560694 0 0.0020793329964299322 -0.00047628308965796246 0 0.0020397185156725778 -0.00064506144112261234 0 0.0020954308225618777 -0.00063881626566680231 0 0.0020952709643766504 -0.00057732047456523215 0 0.0019922242855646534 -0.00041244405301161185 0 0.0019952926973450897 -0.00052714552214178361 0 0.0020894630387320598 -0.00069835385200058117 0 0.0020397185156725778 -0.00064506144112261234 0 0.0020954308225618777 -0.00063881626566680231 0 0.0021059219613940947 -0.00058406089369605213 0 0.0019922242855646534 -0.00041244405301161185 0 0.0020894630387320598 -0.00069835385200058117 0 0.002159648198343671 -0.00063391400878897288 0 0.0020954308225618777 -0.00063881626566680231 0 0.002159648198343671 -0.00063391400878897288 0 0.0020954308225618777 -0.00063881626566680231 0 0.0020952709643766504 -0.00057732047456523215 0 0.0021744192924074033 -0.00054913521612991569 0 0.0020952709643766504 -0.00057732047456523215 0 0.0020793329964299322 -0.00047628308965796246 0 0.0020487905025697471 -0.00064801865565560694 0 0.0020952709643766504 -0.00057732047456523215 0 0.0020793329964299322 -0.00047628308965796246 0 0.002159648198343671 -0.00063391400878897288 0 0.0021744192924074033 -0.00054913521612991569 0 0.0020952709643766504 -0.00057732047456523215 0 0.0020014687602960754 -0.00028460670324879976 0 0.0020793329964299322 -0.00047628308965796246 0 0.0021688063088108364 -0.00033177920948399074 0 0.0022448896891235802 -0.00046706390757826426 0 0.0023263786869348242 -0.00035439200496707003 0 0.0023858631307794101 -0.00048950563202636039 0 0.0021744192924074033 -0.00054913521612991569 0 0.0020793329964299322 -0.00047628308965796246 0 0.0022448896891235802 -0.00046706390757826426 0 0.0020793329964299322 -0.00047628308965796246 0 0.0022448896891235802 -0.00046706390757826426 0 0.0021688063088108364 -0.00033177920948399074 0 0.0022448896891235802 -0.00046706390757826426 0 0.0021688063088108364 -0.00033177920948399074 0 0.0023263786869348242 -0.00035439200496707003 0 0.0023263786869348242 -0.00035439200496707003 0 0.0025229114680390429 -0.00039843052987485636 0 0.0023858631307794101 -0.00048950563202636039 0 0.0023263786869348242 -0.00035439200496707003 0 0.0025229114680390429 -0.00039843052987485636 0 0.0024463457616449372 -0.00026782386356126252 0 0.0025229114680390429 -0.00039843052987485636 0 0.0023858631307794101 -0.00048950563202636039 0 0.0024990986817998982 -0.00059740044079553993 0 0.0025229114680390429 -0.00039843052987485636 0 0.0026496499783139307 -0.00049360154471555129 0 0.0024990986817998982 -0.00059740044079553993 0 0.0025229114680390429 -0.00039843052987485636 0 0.0026851026228291363 -0.00035071635699979647 0 0.0026496499783139307 -0.00049360154471555129 0 0.0026851026228291363 -0.00035071635699979647 0 0.0026496499783139307 -0.00049360154471555129 0 0.002821637052913667 -0.00043121896062754954 0 0.0026496499783139307 -0.00049360154471555129 0 0.0027347582025939138 -0.00066574010548856553 0 0.002821637052913667 -0.00043121896062754954 0 0.0026496499783139307 -0.00049360154471555129 0 0.0027347582025939138 -0.00066574010548856553 0 0.0024990986817998982 -0.00059740044079553993 0 0.0027347582025939138 -0.00066574010548856553 0 0.0024990986817998982 -0.00059740044079553993 0 0.0025370282819033078 -0.00084885663176208573 0 0.0022959987444675406 -0.00060328284469417476 0 0.0023858631307794101 -0.00048950563202636039 0 0.0024990986817998982 -0.00059740044079553993 0 0.0022959987444675406 -0.00060328284469417476 0 0.0024990986817998982 -0.00059740044079553993 0 0.0023934674523450805 -0.0007356718255519337 0 0.0023083790375740764 -0.00085883118028489943 0 0.0023934674523450805 -0.0007356718255519337 0 0.0025370282819033078 -0.00084885663176208573 0 0.0024990986817998982 -0.00059740044079553993 0 0.0023934674523450805 -0.0007356718255519337 0 0.0025370282819033078 -0.00084885663176208573 0 0.0027347582025939138 -0.00066574010548856553 0 0.0025370282819033078 -0.00084885663176208573 0 0.0027795689470337241 -0.00093832123202117115 0 0.0025370282819033078 -0.00084885663176208573 0 0.0027795689470337241 -0.00093832123202117115 0 0.0025586628932347962 -0.0011517066786916259 0 0.0015505244362758522 -0.00047899711710221534 0 6.3721307131373565e-05 -0.00041026919992371511 0 0.0022904933676230117 -0.0010891433044793043 0 0.0023083790375740764 -0.00085883118028489943 0 0.0025370282819033078 -0.00084885663176208573 0 0.0022904933676230117 -0.0010891433044793043 0 0.0025370282819033078 -0.00084885663176208573 0 0.0025586628932347962 -0.0011517066786916259 0 0.00012100490576177865 -8.7060783468311586e-05 0 4.6801809068803342e-05 -6.8842729346283959e-05 0 7.7523953518954207e-05 -0.00011274708489673357 0 4.6801809068803342e-05 -6.8842729346283959e-05 0 4.1809000695067768e-05 -0.00014009935031826713 0 7.7523953518954207e-05 -0.00011274708489673357 0 0.0015505244362758522 -0.00047899711710221534 0 0.0016976985960166743 -0.00035162326987952521 0 0.0027347582025939138 -0.00066574010548856553 0 0.0027795689470337241 -0.00093832123202117115 0 0.0029918986177667789 -0.00072472063190104829 0 -0.00048922773181362571 -4.4379192074966165e-05 0 -0.00055057885917584421 3.8180590053902965e-05 0 0.00012100490576177865 -8.7060783468311586e-05 0 0.00010832573698824719 -6.2519766565817368e-06 0 0.00014734999748232131 -1.5754512976351526e-05 0 0.00012100490576177865 -8.7060783468311586e-05 0 4.6801809068803342e-05 -6.8842729346283959e-05 0 0.00010832573698824719 -6.2519766565817368e-06 0 0.0016976985960166743 -0.00035162326987952521 0 0.00035645924866232125 0.00011035441037849962 0 0.00010832573698824719 -6.2519766565817368e-06 0 0.00016968443260393271 5.8563262580370182e-05 0 0.00014734999748232131 -1.5754512976351526e-05 0 0.0029918986177667789 -0.00072472063190104829 0 0.0029888590580214652 -0.00052116302920256045 0 0.0031890365144077192 -0.00051191482865853093 0 0.0027347582025939138 -0.00066574010548856553 0 0.0029918986177667789 -0.00072472063190104829 0 0.0029888590580214652 -0.00052116302920256045 0 0.0027347582025939138 -0.00066574010548856553 0 0.0029888590580214652 -0.00052116302920256045 0 0.002821637052913667 -0.00043121896062754954 0 0.0026851026228291363 -0.00035071635699979647 0 0.002821637052913667 -0.00043121896062754954 0 0.0028196743160388751 -0.00022471336779664099 0 0.0029888590580214652 -0.00052116302920256045 0 0.002821637052913667 -0.00043121896062754954 0 0.0030398034840391983 -0.00030519478182735601 0 0.0029888590580214652 -0.00052116302920256045 0 0.0030398034840391983 -0.00030519478182735601 0 0.0031890365144077192 -0.00051191482865853093 0 0.0030182657634077845 -3.6951905550452101e-05 0 0.0031933615347531502 4.9295547253022888e-05 0 0.003193638919045443 -8.5477313537502054e-05 0 0.0030398034840391983 -0.00030519478182735601 0 0.0030182657634077845 -3.6951905550452101e-05 0 0.003193638919045443 -8.5477313537502054e-05 0 0.0030182657634077845 -3.6951905550452101e-05 0 0.0028196743160388751 -0.00022471336779664099 0 0.0027382328045077861 -6.3226867278468494e-06 0 0.0030398034840391983 -0.00030519478182735601 0 0.0030182657634077845 -3.6951905550452101e-05 0 0.0028196743160388751 -0.00022471336779664099 0 0.002821637052913667 -0.00043121896062754954 0 0.0030398034840391983 -0.00030519478182735601 0 0.0028196743160388751 -0.00022471336779664099 0 0.0026851026228291363 -0.00035071635699979647 0 0.0028196743160388751 -0.00022471336779664099 0 0.002608950739330442 -0.00020402603100333456 0 0.0025229114680390429 -0.00039843052987485636 0 0.0026851026228291363 -0.00035071635699979647 0 0.002608950739330442 -0.00020402603100333456 0 0.0025229114680390429 -0.00039843052987485636 0 0.002608950739330442 -0.00020402603100333456 0 0.0024463457616449372 -0.00026782386356126252 0 0.002608950739330442 -0.00020402603100333456 0 0.0024463457616449372 -0.00026782386356126252 0 0.0024186137486770713 -0.0001024509924351494 0 0.0022788179567312813 -0.00021527010728352068 0 0.0024463457616449372 -0.00026782386356126252 0 0.0024186137486770713 -0.0001024509924351494 0 0.002325739499195627 6.8803419161358914e-05 0 0.0024186137486770713 -0.0001024509924351494 0 0.0025061349641802891 8.9391600703275342e-05 0 0.0024186137486770713 -0.0001024509924351494 0 0.0025694543205739676 -5.511347160891878e-05 0 0.0025061349641802891 8.9391600703275342e-05 0 0.002608950739330442 -0.00020402603100333456 0 0.0024186137486770713 -0.0001024509924351494 0 0.0025694543205739676 -5.511347160891878e-05 0 0.0028196743160388751 -0.00022471336779664099 0 0.002608950739330442 -0.00020402603100333456 0 0.0027382328045077861 -6.3226867278468494e-06 0 0.0025694543205739676 -5.511347160891878e-05 0 0.0027382328045077861 -6.3226867278468494e-06 0 0.0025061349641802891 8.9391600703275342e-05 0 0.002608950739330442 -0.00020402603100333456 0 0.0025694543205739676 -5.511347160891878e-05 0 0.0027382328045077861 -6.3226867278468494e-06 0 0.0027382328045077861 -6.3226867278468494e-06 0 0.0025061349641802891 8.9391600703275342e-05 0 0.0026918093297622252 0.00024461027894220839 0 0.0027382328045077861 -6.3226867278468494e-06 0 0.0026918093297622252 0.00024461027894220839 0 0.0029029348152371207 0.00015844266574058016 0 0.0023797722894970705 0.00024013948457153605 0 0.002325739499195627 6.8803419161358914e-05 0 0.0025061349641802891 8.9391600703275342e-05 0 0.0025061349641802891 8.9391600703275342e-05 0 0.0025261697237984309 0.00028417501844814639 0 0.0026918093297622252 0.00024461027894220839 0 0.0023797722894970705 0.00024013948457153605 0 0.0025061349641802891 8.9391600703275342e-05 0 0.0025261697237984309 0.00028417501844814639 0 0.0023797722894970705 0.00024013948457153605 0 0.0025261697237984309 0.00028417501844814639 0 0.0024317928513389745 0.00041087766055352115 0 0.0025261697237984309 0.00028417501844814639 0 0.0024317928513389745 0.00041087766055352115 0 0.0026267915564225307 0.00044604235012596117 0 0.0028807346218284375 0.00050195586089744827 0 0.0026918093297622252 0.00024461027894220839 0 0.0026267915564225307 0.00044604235012596117 0 0.0025261697237984309 0.00028417501844814639 0 0.0026918093297622252 0.00024461027894220839 0 0.0026267915564225307 0.00044604235012596117 0 0.0030635501709267883 0.00033267324282159656 0 0.0031831333552554564 0.00017096045503836531 0 0.0028807346218284375 0.00050195586089744827 0 0.0026918093297622252 0.00024461027894220839 0 0.0029029348152371207 0.00015844266574058016 0 0.0028807346218284375 0.00050195586089744827 0 0.0031701016264287837 0.0001735170398220861 0 0.0029029348152371207 0.00015844266574058016 0 0.0032545681700963105 0.00014974860377697398 0 0.0033031240393395804 0.000124674557487198 0 0.0031701016264287837 0.0001735170398220861 0 0.0030182657634077845 -3.6951905550452101e-05 0 0.0031701016264287837 0.0001735170398220861 0 0.0031933615347531502 4.9295547253022888e-05 0 0.0031701016264287837 0.0001735170398220861 0 0.0031933615347531502 4.9295547253022888e-05 0 0.0032463328608875355 0.0001456232451112026 0 0.0030182657634077845 -3.6951905550452101e-05 0 0.0031701016264287837 0.0001735170398220861 0 0.0029029348152371207 0.00015844266574058016 0 0.0030182657634077845 -3.6951905550452101e-05 0 0.0027382328045077861 -6.3226867278468494e-06 0 0.0029029348152371207 0.00015844266574058016 0 0.0026968021478961613 0.00017551558003976064 0 0.0012641399227733428 0.00022384787943873925 0 0.0020269409081222077 0.00018242359277535893 0 0.0019384262319084601 0.00026499632365989314 0 0.0020654917894297295 0.00038811525352810852 0 0.0019384262319084601 0.00026499632365989314 0 0.0017971006800019478 0.00034073398382028443 0 0.0020654917894297295 0.00038811525352810852 0 0.0020269409081222077 0.00018242359277535893 0 0.0019384262319084601 0.00026499632365989314 0 0.0018627520959081283 0.00014719623496652998 0 0.0032589250033746866 5.6161865678496694e-05 0 0.0031933615347531502 4.9295547253022888e-05 0 0.0032463328608875355 0.0001456232451112026 0 0.0032867494427834374 0.00012228241651680673 0 0.0032589250033746866 5.6161865678496694e-05 0 0.0033026602729720402 -1.4391010508992302e-05 0 0.0032589250033746866 5.6161865678496694e-05 0 0.0031933615347531502 4.9295547253022888e-05 0 0.0032391995396126995 1.1356503144599627e-05 0 0.0032867494427834374 0.00012228241651680673 0 0.0032589250033746866 5.6161865678496694e-05 0 0.0032463328608875355 0.0001456232451112026 0 0.0032545681700963105 0.00014974860377697398 0 0.0031701016264287837 0.0001735170398220861 0 0.0032463328608875355 0.0001456232451112026 0 0.0032683021957076639 0.00014867752878157227 0 0.0032545681700963105 0.00014974860377697398 0 0.0032463328608875355 0.0001456232451112026 0 0.0019897268555824433 -2.8530117591688929e-05 0 0.0020269409081222077 0.00018242359277535893 0 0.0018627520959081283 0.00014719623496652998 0 0.0032683021957076639 0.00014867752878157227 0 0.0032867494427834374 0.00012228241651680673 0 0.0032463328608875355 0.0001456232451112026 0 0.00315527587955292 1.7459668727917554e-05 0 0.0026968021478961613 0.00017551558003976064 0 0.00315527587955292 1.7459668727917554e-05 0 0.0028879088078633511 0.00035190215338859644 0 0.0037533030394479717 0.0003473403911781287 0 0.0038106632177552636 0.00060111150650961939 0 0.0035363318750085419 0.00055203373727226652 0 0.0037533030394479717 0.0003473403911781287 0 0.0039755011001979179 0.00034816678125198608 0 0.0038106632177552636 0.00060111150650961939 0 0.0035675404906923228 0.00015312849353915924 0 0.0035363318750085419 0.00055203373727226652 0 0.0032169310280950624 0.00043145551027526662 0 0.0035363318750085419 0.00055203373727226652 0 0.0033031804095690095 0.00081980287411443601 0 0.0032169310280950624 0.00043145551027526662 0 0.0035363318750085419 0.00055203373727226652 0 0.0036248332294274142 0.00087611711596656289 0 0.0033031804095690095 0.00081980287411443601 0 0.0017104694726720754 0.00053193890556244494 0 0.0012884080275272006 0.0010638255455166692 0 0.0019384262319084601 0.00026499632365989314 0 0.0018627520959081283 0.00014719623496652998 0 0.0017971006800019478 0.00034073398382028443 0 0.0018627520959081283 0.00014719623496652998 0 0.0017367466674127043 0.00032986898013070921 0 0.0017971006800019478 0.00034073398382028443 0 0.0028879088078633511 0.00035190215338859644 0 0.0017104694726720754 0.00053193890556244494 0 0.0038106632177552636 0.00060111150650961939 0 0.0035363318750085419 0.00055203373727226652 0 0.0036248332294274142 0.00087611711596656289 0 0.0017104694726720754 0.00053193890556244494 0 0.00045391073222664766 0.00057868421637703141 0 -0.00070700902627981706 0.0010559234950836885 0 -0.00078627207804643062 0.0010181074913286822 0 -0.00057787370638001255 0.00078809549766903689 0 -0.00078627207804643062 0.0010181074913286822 0 -0.00057787370638001255 0.00078809549766903689 0 -0.00078176678299578597 0.00071043987220603916 0 -0.00078627207804643062 0.0010181074913286822 0 -0.00078176678299578597 0.00071043987220603916 0 -0.00097844117375876782 0.0007122593650242345 0 -0.00070700902627981706 0.0010559234950836885 0 -0.00057787370638001255 0.00078809549766903689 0 -0.00038242920939804604 0.0012156434218379996 0 -0.00057787370638001255 0.00078809549766903689 0 -0.00067520995520944037 0.00052393507838966943 0 -0.00042512597991122572 0.00050212684719952709 0 -0.00057787370638001255 0.00078809549766903689 0 -0.00067520995520944037 0.00052393507838966943 0 -0.00078176678299578597 0.00071043987220603916 0 -0.00067520995520944037 0.00052393507838966943 0 -0.00078176678299578597 0.00071043987220603916 0 -0.00086044731469206968 0.00048902730497235071 0 -0.00078176678299578597 0.00071043987220603916 0 -0.00097844117375876782 0.0007122593650242345 0 -0.00086044731469206968 0.00048902730497235071 0 -0.00097844117375876782 0.0007122593650242345 0 -0.0010192624548953897 0.00050302980671454835 0 -0.00086044731469206968 0.00048902730497235071 0 -0.00097844117375876782 0.0007122593650242345 0 -0.0011022073324416645 0.00089935480507896963 0 -0.0011555591389389541 0.0005944637347124501 0 -0.00097844117375876782 0.0007122593650242345 0 -0.0011555591389389541 0.0005944637347124501 0 -0.0010192624548953897 0.00050302980671454835 0 -0.00078627207804643062 0.0010181074913286822 0 -0.00097844117375876782 0.0007122593650242345 0 -0.0011022073324416645 0.00089935480507896963 0 0.00045391073222664766 0.00057868421637703141 0 0.0012641399227733428 0.00022384787943873925 0 0.0033026602729720402 -1.4391010508992302e-05 0 0.003193638919045443 -8.5477313537502054e-05 0 0.0032581838972260816 -0.00025686282831658249 0 0.0031933615347531502 4.9295547253022888e-05 0 0.0032391995396126995 1.1356503144599627e-05 0 0.003193638919045443 -8.5477313537502054e-05 0 0.0032391995396126995 1.1356503144599627e-05 0 0.0033026602729720402 -1.4391010508992302e-05 0 0.003193638919045443 -8.5477313537502054e-05 0 0.0032589250033746866 5.6161865678496694e-05 0 0.0032391995396126995 1.1356503144599627e-05 0 0.0033026602729720402 -1.4391010508992302e-05 0 0.0030398034840391983 -0.00030519478182735601 0 0.003193638919045443 -8.5477313537502054e-05 0 0.0032581838972260816 -0.00025686282831658249 0 0.0012641399227733428 0.00022384787943873925 0 0.0010875154755294826 0.00018508610170749285 0 0.0010875154755294826 0.00018508610170749285 0 0.00035645924866232125 0.00011035441037849962 0 0.0030398034840391983 -0.00030519478182735601 0 0.0032581838972260816 -0.00025686282831658249 0 0.0031890365144077192 -0.00051191482865853093 0 -0.0011555591389389541 0.0005944637347124501 0 -0.0011195047393922298 0.00038471928285623393 0 -0.0011816913706783731 0.00029982801093046566 0 -0.0011555591389389541 0.0005944637347124501 0 -0.0011195047393922298 0.00038471928285623393 0 -0.0010192624548953897 0.00050302980671454835 0 -0.0011195047393922298 0.00038471928285623393 0 -0.0011555958691946879 0.00030752984112156857 0 -0.0010747664998106963 0.00028656497083353531 0 -0.00063879695540640477 -7.8162090744924217e-05 0 0.00035645924866232125 0.00011035441037849962 0 -0.0010192624548953897 0.00050302980671454835 0 -0.00097932772723591981 0.0003526373139787815 0 -0.00086044731469206968 0.00048902730497235071 0 -0.0011195047393922298 0.00038471928285623393 0 -0.0010192624548953897 0.00050302980671454835 0 -0.00097932772723591981 0.0003526373139787815 0 -0.0011195047393922298 0.00038471928285623393 0 -0.00097932772723591981 0.0003526373139787815 0 -0.0010747664998106963 0.00028656497083353531 0 -0.00097932772723591981 0.0003526373139787815 0 -0.00091445025972316965 0.00025071849729251796 0 -0.00082351674189611555 0.00030342743060607049 0 -0.00097932772723591981 0.0003526373139787815 0 -0.00091445025972316965 0.00025071849729251796 0 -0.0010066505639257665 0.00022037619371652697 0 -0.00097932772723591981 0.0003526373139787815 0 -0.0010066505639257665 0.00022037619371652697 0 -0.0010747664998106963 0.00028656497083353531 0 -0.0010066505639257665 0.00022037619371652697 0 -0.0010935878332670023 0.00019228907259335825 0 -0.0010275364125623366 0.00011506592719820711 0 -0.0010066505639257665 0.00022037619371652697 0 -0.0010275364125623366 0.00011506592719820711 0 -0.0008947550187581952 0.00012117751057496837 0 -0.00091445025972316965 0.00025071849729251796 0 -0.0010066505639257665 0.00022037619371652697 0 -0.0008947550187581952 0.00012117751057496837 0 -0.0011555958691946879 0.00030752984112156857 0 -0.0010935878332670023 0.00019228907259335825 0 -0.0011527960829906419 0.00011450986040022563 0 0.00035645924866232125 0.00011035441037849962 0 -0.00055057885917584421 3.8180590053902965e-05 0 -0.0010066505639257665 0.00022037619371652697 0 -0.0010747664998106963 0.00028656497083353531 0 -0.0010935878332670023 0.00019228907259335825 0 -0.0011555958691946879 0.00030752984112156857 0 -0.0010747664998106963 0.00028656497083353531 0 -0.0010935878332670023 0.00019228907259335825 0 -0.0010935878332670023 0.00019228907259335825 0 -0.0011527960829906419 0.00011450986040022563 0 -0.0010275364125623366 0.00011506592719820711 0 -0.0011527960829906419 0.00011450986040022563 0 -0.0010275364125623366 0.00011506592719820711 0 -0.001003787036017867 -1.3121643450199191e-05 0 -0.0010275364125623366 0.00011506592719820711 0 -0.001003787036017867 -1.3121643450199191e-05 0 -0.0008947550187581952 0.00012117751057496837 0 -0.001003787036017867 -1.3121643450199191e-05 0 -0.00086418157857802219 -8.5435598624714087e-05 0 -0.00096560288936486471 -0.00010510261857364937 0 -0.001003787036017867 -1.3121643450199191e-05 0 -0.0010606759817113997 -9.5493558354321751e-05 0 -0.00096560288936486471 -0.00010510261857364937 0 -0.0011556537475517037 -2.7721141632817878e-05 0 -0.0011527960829906419 0.00011450986040022563 0 -0.001003787036017867 -1.3121643450199191e-05 0 -0.0011556537475517037 -2.7721141632817878e-05 0 -0.001003787036017867 -1.3121643450199191e-05 0 -0.0010606759817113997 -9.5493558354321751e-05 0 -0.00086418157857802219 -8.5435598624714087e-05 0 -0.00080404621189594078 1.0202063795545859e-05 0 -0.00076609666227957815 -0.00010660116225538285 0 -0.00080404621189594078 1.0202063795545859e-05 0 -0.00063997634618841062 -2.0854172298787072e-05 0 -0.00076609666227957815 -0.00010660116225538285 0 -0.001003787036017867 -1.3121643450199191e-05 0 -0.00086418157857802219 -8.5435598624714087e-05 0 -0.00080404621189594078 1.0202063795545859e-05 0 -0.00080404621189594078 1.0202063795545859e-05 0 -0.0008947550187581952 0.00012117751057496837 0 -0.00079407393581914989 0.00016445362990175264 0 -0.00080404621189594078 1.0202063795545859e-05 0 -0.00069845952886156415 0.00010408002284786023 0 -0.00079407393581914989 0.00016445362990175264 0 -0.001003787036017867 -1.3121643450199191e-05 0 -0.00080404621189594078 1.0202063795545859e-05 0 -0.0008947550187581952 0.00012117751057496837 0 -0.00080404621189594078 1.0202063795545859e-05 0 -0.00069845952886156415 0.00010408002284786023 0 -0.00063997634618841062 -2.0854172298787072e-05 0 -0.00069845952886156415 0.00010408002284786023 0 -0.00057131400538985714 9.1731122653248743e-05 0 -0.00063997634618841062 -2.0854172298787072e-05 0 -0.00069845952886156415 0.00010408002284786023 0 -0.00058089159234937945 0.00020196072678612171 0 -0.00057131400538985714 9.1731122653248743e-05 0 -0.00069845952886156415 0.00010408002284786023 0 -0.00070423293615351967 0.00024285527439976142 0 -0.00058089159234937945 0.00020196072678612171 0 -0.00069845952886156415 0.00010408002284786023 0 -0.00070423293615351967 0.00024285527439976142 0 -0.00079407393581914989 0.00016445362990175264 0 -0.00070423293615351967 0.00024285527439976142 0 -0.00058089159234937945 0.00020196072678612171 0 -0.00060375697641274048 0.0003390705695577984 0 -0.00091445025972316965 0.00025071849729251796 0 -0.0008947550187581952 0.00012117751057496837 0 -0.00079407393581914989 0.00016445362990175264 0 -0.00070423293615351967 0.00024285527439976142 0 -0.00079407393581914989 0.00016445362990175264 0 -0.00082351674189611555 0.00030342743060607049 0 -0.00091445025972316965 0.00025071849729251796 0 -0.00079407393581914989 0.00016445362990175264 0 -0.00082351674189611555 0.00030342743060607049 0 -0.00097932772723591981 0.0003526373139787815 0 -0.00082351674189611555 0.00030342743060607049 0 -0.00086044731469206968 0.00048902730497235071 0 -0.00070423293615351967 0.00024285527439976142 0 -0.00082351674189611555 0.00030342743060607049 0 -0.00071907184039030157 0.00036944132732937902 0 -0.00082351674189611555 0.00030342743060607049 0 -0.00086044731469206968 0.00048902730497235071 0 -0.00071907184039030157 0.00036944132732937902 0 -0.00067520995520944037 0.00052393507838966943 0 -0.00086044731469206968 0.00048902730497235071 0 -0.00071907184039030157 0.00036944132732937902 0 -0.00067520995520944037 0.00052393507838966943 0 -0.00060375697641274048 0.0003390705695577984 0 -0.00042512597991122572 0.00050212684719952709 0 -0.00058089159234937945 0.00020196072678612171 0 -0.00060375697641274048 0.0003390705695577984 0 -0.00045329446696249902 0.0003077078212735477 0 -0.00070423293615351967 0.00024285527439976142 0 -0.00060375697641274048 0.0003390705695577984 0 -0.00071907184039030157 0.00036944132732937902 0 -0.00067520995520944037 0.00052393507838966943 0 -0.00060375697641274048 0.0003390705695577984 0 -0.00071907184039030157 0.00036944132732937902 0 -0.00042512597991122572 0.00050212684719952709 0 -0.00025230452169315668 0.00030239013193265624 0 -7.1775031606857034e-05 0.00056417513849385634 0 -0.00042512597991122572 0.00050212684719952709 0 -0.00045329446696249902 0.0003077078212735477 0 -0.00025230452169315668 0.00030239013193265624 0 -0.00045329446696249902 0.0003077078212735477 0 -0.00025230452169315668 0.00030239013193265624 0 -0.00043649458193629364 0.0001676040340895098 0 -0.00060375697641274048 0.0003390705695577984 0 -0.00042512597991122572 0.00050212684719952709 0 -0.00045329446696249902 0.0003077078212735477 0 -8.4499579310901721e-06 0.00028240483031898961 0 0.00048689812099285423 0.00049373853333743386 0 -7.1775031606857034e-05 0.00056417513849385634 0 -0.00025230452169315668 0.00030239013193265624 0 -8.4499579310901721e-06 0.00028240483031898961 0 -7.1775031606857034e-05 0.00056417513849385634 0 -0.00025230452169315668 0.00030239013193265624 0 -8.4499579310901721e-06 0.00028240483031898961 0 -0.00024405413379176782 0.00014959900951419666 0 -8.4499579310901721e-06 0.00028240483031898961 0 -0.00024405413379176782 0.00014959900951419666 0 -7.4153421960381966e-05 0.00013430153052543717 0 -0.00025230452169315668 0.00030239013193265624 0 -0.00024405413379176782 0.00014959900951419666 0 -0.00043649458193629364 0.0001676040340895098 0 -0.00024405413379176782 0.00014959900951419666 0 -0.00046817121507265486 4.9583315164237464e-05 0 -0.00034741772224643376 4.1918442775530583e-05 0 -0.00024405413379176782 0.00014959900951419666 0 -0.00043649458193629364 0.0001676040340895098 0 -0.00046817121507265486 4.9583315164237464e-05 0 -0.00024405413379176782 0.00014959900951419666 0 -0.00034741772224643376 4.1918442775530583e-05 0 -7.4153421960381966e-05 0.00013430153052543717 0 -0.00058089159234937945 0.00020196072678612171 0 -0.00045329446696249902 0.0003077078212735477 0 -0.00043649458193629364 0.0001676040340895098 0 -0.00043649458193629364 0.0001676040340895098 0 -0.00057131400538985714 9.1731122653248743e-05 0 -0.00046817121507265486 4.9583315164237464e-05 0 -0.00058089159234937945 0.00020196072678612171 0 -0.00043649458193629364 0.0001676040340895098 0 -0.00057131400538985714 9.1731122653248743e-05 0 -0.00057131400538985714 9.1731122653248743e-05 0 -0.00063997634618841062 -2.0854172298787072e-05 0 -0.00046817121507265486 4.9583315164237464e-05 0 -0.00063997634618841062 -2.0854172298787072e-05 0 -0.00046817121507265486 4.9583315164237464e-05 0 -0.00054014089008651636 -3.8294823352299076e-05 0 -0.00034741772224643376 4.1918442775530583e-05 0 -0.00054014089008651636 -3.8294823352299076e-05 0 -0.00042080810906057817 -2.8301674959566559e-05 0 -0.00046817121507265486 4.9583315164237464e-05 0 -0.00034741772224643376 4.1918442775530583e-05 0 -0.00054014089008651636 -3.8294823352299076e-05 0 -0.00064340633136579072 -8.5210206920368622e-05 0 -0.00054014089008651636 -3.8294823352299076e-05 0 -0.00042080810906057817 -2.8301674959566559e-05 0 -0.00064340633136579072 -8.5210206920368622e-05 0 -0.00054014089008651636 -3.8294823352299076e-05 0 -0.00069895452744108289 -0.00010544449498987391 0 -0.00063997634618841062 -2.0854172298787072e-05 0 -0.00054014089008651636 -3.8294823352299076e-05 0 -0.00069895452744108289 -0.00010544449498987391 0 -0.00063997634618841062 -2.0854172298787072e-05 0 -0.00069895452744108289 -0.00010544449498987391 0 -0.00076609666227957815 -0.00010660116225538285 0 0.00022227241605985069 -1.2089414968203185e-05 0 0.00065305780734453353 -2.461050639982961e-07 0 -0.00022487374664032761 1.1569018151875401e-07 0 7.7332619015247166e-05 -5.7309909177807696e-05 0 -0.00042743867758679135 -7.299618635823828e-05 0 -0.00064340633136579072 -8.5210206920368622e-05 0 -0.00042080810906057817 -2.8301674959566559e-05 0 -0.00072225313697340979 -9.4358339932511508e-05 0 0.00022227241605985069 -1.2089414968203185e-05 0 0.00058327276406831873 -4.1865291397023488e-05 0 -0.00010925926488341448 -1.7673413963933253e-06 0 -0.00034741772224643376 4.1918442775530583e-05 0 -0.00042080810906057817 -2.8301674959566559e-05 0 -7.4153421960381966e-05 0.00013430153052543717 0 7.7332619015247166e-05 -5.7309909177807696e-05 0 0.00043721652004788598 3.6629038990836748e-05 0 0.00058327276406831873 -4.1865291397023488e-05 0 0.00065305780734453353 -2.461050639982961e-07 0 0.0010175335471639992 -8.8691045513485133e-05 0 0.00022227241605985069 -1.2089414968203185e-05 0 0.00058327276406831873 -4.1865291397023488e-05 0 0.00065305780734453353 -2.461050639982961e-07 0 0.00065305780734453353 -2.461050639982961e-07 0 0.0010175335471639992 -8.8691045513485133e-05 0 0.00153096260817691 6.1746850256266313e-08 0 0.0010175335471639992 -8.8691045513485133e-05 0 0.0010266955173892772 -0.00015812039944243517 0 0.001287397692406698 7.3416666743760168e-05 0 0.00058327276406831873 -4.1865291397023488e-05 0 0.0010175335471639992 -8.8691045513485133e-05 0 0.0010266955173892772 -0.00015812039944243517 0 0.0010266955173892772 -0.00015812039944243517 0 0.001287397692406698 7.3416666743760168e-05 0 0.00048689812099285423 0.00049373853333743386 0 -8.4499579310901721e-06 0.00028240483031898961 0 -7.4153421960381966e-05 0.00013430153052543717 0 0.00048689812099285423 0.00049373853333743386 0 0.00043721652004788598 3.6629038990836748e-05 0 0.00047734124981777735 0.00051924036543095353 0 0.0010175335471639992 -8.8691045513485133e-05 0 0.001287397692406698 7.3416666743760168e-05 0 0.00153096260817691 6.1746850256266313e-08 0 0.001287397692406698 7.3416666743760168e-05 0 0.00153096260817691 6.1746850256266313e-08 0 0.0018468943326431372 2.9494154404462675e-05 0 0.0018468943326431372 2.9494154404462675e-05 0 0.0024092240721903923 -1.8858905612244564e-07 0 0.0022550743152671008 -5.4820973832878859e-05 0 0.00153096260817691 6.1746850256266313e-08 0 0.0018468943326431372 2.9494154404462675e-05 0 0.0024092240721903923 -1.8858905612244564e-07 0 0.0024092240721903923 -1.8858905612244564e-07 0 0.0026102636046049805 -7.8558314227131036e-06 0 0.0022550743152671008 -5.4820973832878859e-05 0 0.0012543597559206063 0.00049035528575168733 0 0.0027502865143918648 0.00055183822672560826 0 0.0026102636046049805 -7.8558314227131036e-06 0 0.0022550743152671008 -5.4820973832878859e-05 0 0.0023940133856156552 0.0001757174905193645 0 0.00058210194472299473 0.00096700633320298014 0 0.00029681590256902665 0.0011120055452567379 0 0.00044242483784388527 0.0014500127817617518 0 0.00058210194472299473 0.00096700633320298014 0 0.00031008137948230547 0.00081686930114205011 0 0.00029681590256902665 0.0011120055452567379 0 0.00058210194472299473 0.00096700633320298014 0 0.00031008137948230547 0.00081686930114205011 0 0.00048689812099285423 0.00049373853333743386 0 0.0013736675892410549 -2.3751771209197283e-05 0 0.0012543597559206063 0.00049035528575168733 0 0.001287397692406698 7.3416666743760168e-05 0 0.0018468943326431372 2.9494154404462675e-05 0 0.0022550743152671008 -5.4820973832878859e-05 0 0.001287397692406698 7.3416666743760168e-05 0 0.00058210194472299473 0.00096700633320298014 0 0.00048689812099285423 0.00049373853333743386 0 0.00031008137948230547 0.00081686930114205011 0 0.00048689812099285423 0.00049373853333743386 0 -7.1775031606857034e-05 0.00056417513849385634 0 -7.1775031606857034e-05 0.00056417513849385634 0 -0.00024167328771916395 0.00084590637943036658 0 5.1320813315809269e-05 0.00087446568099649839 0 0.00031008137948230547 0.00081686930114205011 0 -7.1775031606857034e-05 0.00056417513849385634 0 5.1320813315809269e-05 0.00087446568099649839 0 -0.00057787370638001255 0.00078809549766903689 0 -0.00042512597991122572 0.00050212684719952709 0 -0.00024167328771916395 0.00084590637943036658 0 -0.00042512597991122572 0.00050212684719952709 0 -7.1775031606857034e-05 0.00056417513849385634 0 -0.00024167328771916395 0.00084590637943036658 0 -0.00024167328771916395 0.00084590637943036658 0 3.2648265351697534e-05 0.0011517350077587119 0 -0.00038242920939804604 0.0012156434218379996 0 -0.00057787370638001255 0.00078809549766903689 0 -0.00024167328771916395 0.00084590637943036658 0 -0.00038242920939804604 0.0012156434218379996 0 0.00031008137948230547 0.00081686930114205011 0 5.1320813315809269e-05 0.00087446568099649839 0 0.00029681590256902665 0.0011120055452567379 0 -0.00024167328771916395 0.00084590637943036658 0 5.1320813315809269e-05 0.00087446568099649839 0 3.2648265351697534e-05 0.0011517350077587119 0 5.1320813315809269e-05 0.00087446568099649839 0 3.2648265351697534e-05 0.0011517350077587119 0 0.00029681590256902665 0.0011120055452567379 0 3.2648265351697534e-05 0.0011517350077587119 0 0.00029681590256902665 0.0011120055452567379 0 0.00030354415903854464 0.0013223392114959074 0 3.2648265351697534e-05 0.0011517350077587119 0 0.00018930955098046441 0.001416932651909402 0 -0.00038242920939804604 0.0012156434218379996 0 3.2648265351697534e-05 0.0011517350077587119 0 0.00030354415903854464 0.0013223392114959074 0 0.00018930955098046441 0.001416932651909402 0 0.001066255076981785 0.0014335444288752219 0 0.0022459021343506727 0.00064381914814182152 0 0.0022459021343506727 0.00064381914814182152 0 0.0012884080275272006 0.0010638255455166692 0 0.0028731190745839262 0.00074005519407188062 0 0.0033031804095690095 0.00081980287411443601 0 0.0032169310280950624 0.00043145551027526662 0 0.0043935186855355839 -0.00025987159810437533 0 0.004397867414029445 -0.00022388205684133736 0 0.0044286415140677481 -0.00022504887696443018 0 0.0043935186855355839 -0.00025987159810437533 0 0.0043504990993803658 -0.00025013750914954403 0 0.004397867414029445 -0.00022388205684133736 0 0.0022459021343506727 0.00064381914814182152 0 0.0040356044213592165 -4.8327122196646709e-05 0 0.0043587685710922636 -0.0002227451170303953 0 0.0027502865143918648 0.00055183822672560826 0 0.0043122169629574861 -4.6969247365338051e-06 0 0.0039303276437533076 -8.3245297155692603e-06 0 0.0042707729134891462 0.0004369455345976815 0 0.0041897070752851618 -7.2917199819998188e-05 0 0.0043122169629574861 -4.6969247365338051e-06 0 0.0039303276437533076 -8.3245297155692603e-06 0 0.0039837299584613147 -4.9535844715517971e-07 0 0.0032885775401051316 9.4105878980370148e-07 0 0.0039303276437533076 -8.3245297155692603e-06 0 0.0032885775401051316 9.4105878980370148e-07 0 0.0039303276437533076 -8.3245297155692603e-06 0 0.0042707729134891462 0.0004369455345976815 0 0.0024092240721903923 -1.8858905612244564e-07 0 0.0026102636046049805 -7.8558314227131036e-06 0 0.0032860075156042629 6.2433883543757696e-07 0 0.0026102636046049805 -7.8558314227131036e-06 0 0.0032860075156042629 6.2433883543757696e-07 0 0.0023940133856156552 0.0001757174905193645 0 0.0032880687358241836 1.0393819315958117e-07 0 0.0027502865143918648 0.00055183822672560826 0 0.0043935186855355839 -0.00025987159810437533 0 0.0044286415140677481 -0.00022504887696443018 0 0.0044142430571234561 -0.00025245058845208891 0 0.00029681590256902665 0.0011120055452567379 0 0.00030354415903854464 0.0013223392114959074 0 0.00044242483784388527 0.0014500127817617518 0 0.0022459021343506727 0.00064381914814182152 0 0.0027502865143918648 0.00055183822672560826 0 0.00030354415903854464 0.0013223392114959074 0 0.00022524470154490722 0.0014013328294536934 0 0.00044242483784388527 0.0014500127817617518 0 0.00065561784746121681 0.00015746725015706049 0 0.00074611975506774634 7.9957120005915192e-05 0 0.0006358748141169295 5.162853907894825e-05 0 0.00065561784746121681 0.00015746725015706049 0 0.00074888021482937895 0.00020389416678289339 0 0.00074611975506774634 7.9957120005915192e-05 0 0.00065561784746121681 0.00015746725015706049 0 0.0006358748141169295 5.162853907894825e-05 0 0.00054331127302356794 0.00013342500174880025 0 0.00065561784746121681 0.00015746725015706049 0 0.00056608509162984664 0.00021793408097232249 0 0.00065618581936085422 0.00025896293652226111 0 0.00065561784746121681 0.00015746725015706049 0 0.00074888021482937895 0.00020389416678289339 0 0.00065618581936085422 0.00025896293652226111 0 0.00083810442496740599 0.00016338760843023377 0 0.00074611975506774634 7.9957120005915192e-05 0 0.00089847753323559355 5.2702148903133826e-05 0 0.00074888021482937895 0.00020389416678289339 0 0.00083810442496740599 0.00016338760843023377 0 0.00080756828988704085 0.00026193850366034474 0 0.00074888021482937895 0.00020389416678289339 0 0.00083810442496740599 0.00016338760843023377 0 0.00074611975506774634 7.9957120005915192e-05 0 0.00074611975506774634 7.9957120005915192e-05 0 0.00089847753323559355 5.2702148903133826e-05 0 0.00077080608312108463 -5.3103106621794479e-05 0 0.00014425036432001213 0.00025770053973555234 0 0.0024718226230959614 -0.00033414133389267001 0 0.0041850144667471183 0.00034222922941666296 0 0.0024718226230959614 -0.00033414133389267001 0 0.00074611975506774634 7.9957120005915192e-05 0 0.0006358748141169295 5.162853907894825e-05 0 0.00077080608312108463 -5.3103106621794479e-05 0 0.0006358748141169295 5.162853907894825e-05 0 0.00059668614570756269 -9.7327358670687604e-05 0 0.0010843432209992232 -0.00020611981278928371 0 0.0041850144667471183 0.00034222922941666296 0 0.0025507058187883352 0.0006935302863769542 0 0.0061785390166083694 0.0010108822353561643 0 0.0051470256306727193 0.0012874788341328924 0 0.0060381474626252617 0.00086932259758752076 0 0.00059668614570756269 -9.7327358670687604e-05 0 0.00029308399958133987 4.0945327369923787e-05 0 0.00039897675994728576 7.0852268022625787e-05 0 0.00051140499575391034 6.218393472421777e-05 0 0.00039897675994728576 7.0852268022625787e-05 0 0.00044029075091443976 0.00011316871222621206 0 0.00059668614570756269 -9.7327358670687604e-05 0 0.00051140499575391034 6.218393472421777e-05 0 0.00039897675994728576 7.0852268022625787e-05 0 0.0006358748141169295 5.162853907894825e-05 0 0.00051140499575391034 6.218393472421777e-05 0 0.00054331127302356794 0.00013342500174880025 0 0.0006358748141169295 5.162853907894825e-05 0 0.00059668614570756269 -9.7327358670687604e-05 0 0.00051140499575391034 6.218393472421777e-05 0 0.0049711162325808481 0.0010145121826633549 0 0.0051470256306727193 0.0012874788341328924 0 0.0060381474626252617 0.00086932259758752076 0 0.0055809029680171374 0.00095519429300269278 0 0.0059255655351758271 0.00087668712044590804 0 0.00029308399958133987 4.0945327369923787e-05 0 0.00039897675994728576 7.0852268022625787e-05 0 0.00026832403398649105 0.00011400787122914939 0 0.00039897675994728576 7.0852268022625787e-05 0 0.00026832403398649105 0.00011400787122914939 0 0.00032458127322959786 0.0001335184285512942 0 0.00029308399958133987 4.0945327369923787e-05 0 0.00026832403398649105 0.00011400787122914939 0 0.00021776821897741925 0.00014237663828463608 0 0.00032458127322959786 0.0001335184285512942 0 0.00019833789217009256 0.00021081533685692513 0 0.0004360705808925361 0.00019480673226671041 0 0.00026832403398649105 0.00011400787122914939 0 0.00032458127322959786 0.0001335184285512942 0 0.00019833789217009256 0.00021081533685692513 0 0.00032458127322959786 0.0001335184285512942 0 0.00044029075091443976 0.00011316871222621206 0 0.0004360705808925361 0.00019480673226671041 0 0.00039897675994728576 7.0852268022625787e-05 0 0.00032458127322959786 0.0001335184285512942 0 0.00044029075091443976 0.00011316871222621206 0 0.00051140499575391034 6.218393472421777e-05 0 0.00054331127302356794 0.00013342500174880025 0 0.00044029075091443976 0.00011316871222621206 0 0.00054331127302356794 0.00013342500174880025 0 0.00044029075091443976 0.00011316871222621206 0 0.0004360705808925361 0.00019480673226671041 0 0.00065561784746121681 0.00015746725015706049 0 0.00054331127302356794 0.00013342500174880025 0 0.00056608509162984664 0.00021793408097232249 0 0.00054331127302356794 0.00013342500174880025 0 0.0004360705808925361 0.00019480673226671041 0 0.00056608509162984664 0.00021793408097232249 0 0.00056608509162984664 0.00021793408097232249 0 0.00050393812269157099 0.0003684362219921763 0 0.00065618581936085422 0.00025896293652226111 0 0.0004360705808925361 0.00019480673226671041 0 0.00056608509162984664 0.00021793408097232249 0 0.00050393812269157099 0.0003684362219921763 0 0.00017335373699325866 0.00020828498152381287 0 4.6696469907244607e-05 0.00017764992950629465 0 0.00019833789217009256 0.00021081533685692513 0 0.0004360705808925361 0.00019480673226671041 0 0.00050393812269157099 0.0003684362219921763 0 0.00019833789217009256 0.00021081533685692513 0 -0.00039461685306747373 2.4481686916772353e-05 0 2.3955410101298163e-05 6.3895926979110656e-05 0 -0.00039461685306747373 2.4481686916772353e-05 0 2.3955410101298163e-05 6.3895926979110656e-05 0 0.00012413986087692153 -0.00018709409834460669 0 -0.00039461685306747373 2.4481686916772353e-05 0 0.00012413986087692153 -0.00018709409834460669 0 -0.00053065884551930121 -0.00052234903637596189 0 -0.00039461685306747373 2.4481686916772353e-05 0 -0.0010438795439374707 -0.00049014592249658497 0 -0.00053065884551930121 -0.00052234903637596189 0 0.00069171591896561256 0.00034407310309083635 0 0.00074219350131232752 0.00039536456315756994 0 0.0006956484651971127 0.00044784434044227228 0 4.6696469907244607e-05 0.00017764992950629465 0 -0.00016289197636574018 -1.6788107512521082e-05 0 0.00050393812269157099 0.0003684362219921763 0 0.00069171591896561256 0.00034407310309083635 0 0.0006956484651971127 0.00044784434044227228 0 0.00074888021482937895 0.00020389416678289339 0 0.00069171591896561256 0.00034407310309083635 0 0.00065618581936085422 0.00025896293652226111 0 0.00050393812269157099 0.0003684362219921763 0 0.00069171591896561256 0.00034407310309083635 0 0.00065618581936085422 0.00025896293652226111 0 0.00074888021482937895 0.00020389416678289339 0 0.00069171591896561256 0.00034407310309083635 0 0.00080756828988704085 0.00026193850366034474 0 0.00069171591896561256 0.00034407310309083635 0 0.00080756828988704085 0.00026193850366034474 0 0.00080643952053155617 0.00035860306565478666 0 0.00074219350131232752 0.00039536456315756994 0 0.00080643952053155617 0.00035860306565478666 0 0.00079637520290004322 0.00043500014569206519 0 0.00069171591896561256 0.00034407310309083635 0 0.00074219350131232752 0.00039536456315756994 0 0.00080643952053155617 0.00035860306565478666 0 0.00080643952053155617 0.00035860306565478666 0 0.00089194957101828816 0.00040457643889213403 0 0.0010213018553289481 0.00029231839316840367 0 0.00080643952053155617 0.00035860306565478666 0 0.00089194957101828816 0.00040457643889213403 0 0.00079637520290004322 0.00043500014569206519 0 0.0010095878870744256 0.0002940297798853668 0 0.0011417300272833569 0.00050722278157388123 0 0.00089194957101828816 0.00040457643889213403 0 0.0010213018553289481 0.00029231839316840367 0 0.00085664576259868706 0.00044684285779757963 0 0.0010213018553289481 0.00029231839316840367 0 0.0014581124063501542 0.00024900456214169516 0 0.0011652100580626839 8.6720215946490232e-05 0 0.0010213018553289481 0.00029231839316840367 0 0.00092879062511312584 8.7622789838339977e-05 0 0.0011652100580626839 8.6720215946490232e-05 0 0.00080756828988704085 0.00026193850366034474 0 0.00080643952053155617 0.00035860306565478666 0 0.00095607967212836954 0.00021412228841760866 0 0.00081547511793385514 0.00034487219513617515 0 0.00095204230834858143 0.0001422249328238459 0 0.00080643952053155617 0.00035860306565478666 0 0.0010213018553289481 0.00029231839316840367 0 0.00092879062511312584 8.7622789838339977e-05 0 0.0018512902629317727 0.00048597831964985051 0 0.0014581124063501542 0.00024900456214169516 0 0.0014320680715713817 0.00058824622785379969 0 0.0010213018553289481 0.00029231839316840367 0 0.0014581124063501542 0.00024900456214169516 0 0.0014320680715713817 0.00058824622785379969 0 0.0014581124063501542 0.00024900456214169516 0 0.0013878787447132019 -1.8517298327928756e-05 0 0.0011652100580626839 8.6720215946490232e-05 0 0.0018001236203784943 3.8149502276822968e-06 0 0.0014581124063501542 0.00024900456214169516 0 0.0013878787447132019 -1.8517298327928756e-05 0 0.0018512902629317727 0.00048597831964985051 0 0.0018001236203784943 3.8149502276822968e-06 0 0.0014581124063501542 0.00024900456214169516 0 0.0018983528816237092 8.4305244636300268e-06 0 0.0019158913556911667 -0.00033099795267072592 0 0.0016685619134611061 -0.00022766299985037592 0 0.0018983528816237092 8.4305244636300268e-06 0 0.0013878787447132019 -1.8517298327928756e-05 0 0.0016685619134611061 -0.00022766299985037592 0 0.0018411541482991603 6.366233370273511e-06 0 0.0014137702595123721 -2.0591355650192598e-05 0 0.0013878787447132019 -1.8517298327928756e-05 0 0.0015026429033727989 -0.00032676597034273153 0 0.0012282271213391359 -0.00029319319096645697 0 0.0015026429033727989 -0.00032676597034273153 0 0.0012282271213391359 -0.00029319319096645697 0 0.001561707272655222 -0.00063005673838473035 0 0.0015026429033727989 -0.00032676597034273153 0 0.0016685619134611061 -0.00022766299985037592 0 0.0016540088444517904 -0.00046819903015487923 0 0.0013878787447132019 -1.8517298327928756e-05 0 0.0015026429033727989 -0.00032676597034273153 0 0.0016685619134611061 -0.00022766299985037592 0 0.0019158913556911667 -0.00033099795267072592 0 0.0016685619134611061 -0.00022766299985037592 0 0.0016540088444517904 -0.00046819903015487923 0 0.00083810442496740599 0.00016338760843023377 0 0.00080756828988704085 0.00026193850366034474 0 0.00095607967212836954 0.00021412228841760866 0 0.00095607967212836954 0.00021412228841760866 0 0.0010900070340204948 3.2210781514029725e-05 0 0.00089847753323559355 5.2702148903133826e-05 0 0.00083810442496740599 0.00016338760843023377 0 0.00095607967212836954 0.00021412228841760866 0 0.00089847753323559355 5.2702148903133826e-05 0 0.00095204230834858143 0.0001422249328238459 0 0.0011264000691416356 -8.9838494271267269e-05 0 0.0013878787447132019 -1.8517298327928756e-05 0 0.0011652100580626839 8.6720215946490232e-05 0 0.0012282271213391359 -0.00029319319096645697 0 0.00092879062511312584 8.7622789838339977e-05 0 0.0011652100580626839 8.6720215946490232e-05 0 0.0012282271213391359 -0.00029319319096645697 0 0.0010900070340204948 3.2210781514029725e-05 0 0.00089847753323559355 5.2702148903133826e-05 0 0.00097988437783741119 -0.00011304060346772256 0 0.00089847753323559355 5.2702148903133826e-05 0 0.00097988437783741119 -0.00011304060346772256 0 0.00077080608312108463 -5.3103106621794479e-05 0 0.0017859887630376642 -0.00089230745554164646 0 0.0018052057439032255 -0.00083853391953010964 0 0.0019746733655882959 -0.00091091128549269777 0 0.0011439154615556653 -0.00049153219411967122 0 0.0024718226230959614 -0.00033414133389267001 0 0.0043479633592505371 -0.00040658697242016177 0 0.0024718226230959614 -0.00033414133389267001 0 0.0010900070340204948 3.2210781514029725e-05 0 0.00097988437783741119 -0.00011304060346772256 0 0.0012207395377163096 -0.00016826656100225984 0 0.0017859887630376642 -0.00089230745554164646 0 0.0017465374067424408 -0.0008622085405241923 0 0.0017518003219099199 -0.00086174510573332717 0 0.0011439154615556653 -0.00049153219411967122 0 0.0015747707413136045 -0.0005394240215236193 0 0.0017859887630376642 -0.00089230745554164646 0 0.0017465374067424408 -0.0008622085405241923 0 0.0017313193421697442 -0.00085765922240412309 0 0.0017859887630376642 -0.00089230745554164646 0 0.0017518003219099199 -0.00086174510573332717 0 0.0018052057439032255 -0.00083853391953010964 0 0.0062854159938356014 0.00013145034407641433 0 0.0062902448759482796 0.00017796802056821933 0 0.0063198687832926904 8.3689148269780722e-05 0 0.0043479633592505371 -0.00040658697242016177 0 0.003957371784704981 -0.00038851983911293575 0 0.0017518003219099199 -0.00086174510573332717 0 0.0018052057439032255 -0.00083853391953010964 0 0.0017041610797338025 -0.0009060834801827947 0 0.0017518003219099199 -0.00086174510573332717 0 0.0017333267182231551 -0.00086096898497004784 0 0.0017041610797338025 -0.0009060834801827947 0 0.0017465374067424408 -0.0008622085405241923 0 0.0017518003219099199 -0.00086174510573332717 0 0.0017333267182231551 -0.00086096898497004784 0 0.0062854159938356014 0.00013145034407641433 0 0.0063095055975109383 9.68003568326159e-05 0 0.0062355357140501865 0.00013545613533604762 0 0.0062854159938356014 0.00013145034407641433 0 0.0062902448759482796 0.00017796802056821933 0 0.0062355357140501865 0.00013545613533604762 0 0.0022504301330122005 -0.0006339806818863161 0 0.0016573597354864031 -0.00064217394483931454 0 0.0016540088444517904 -0.00046819903015487923 0 0.0021163604915686854 -0.00063663534650419652 0 0.0016876337875110165 -0.00047387418319953507 0 0.0019158913556911667 -0.00033099795267072592 0 0.001994607545844317 -0.0006356553149880111 0 0.0016540088444517904 -0.00046819903015487923 0 0.0015026429033727989 -0.00032676597034273153 0 0.0016540088444517904 -0.00046819903015487923 0 0.001561707272655222 -0.00063005673838473035 0 0.0011264000691416356 -8.9838494271267269e-05 0 0.0015747707413136045 -0.0005394240215236193 0 0.0016573597354864031 -0.00064217394483931454 0 0.0016540088444517904 -0.00046819903015487923 0 0.001561707272655222 -0.00063005673838473035 0 0.0016573597354864031 -0.00064217394483931454 0 0.0015694575845767785 -0.00062974081845583506 0 0.0017763961612615703 -0.00082910574593586474 0 0.0016013732387246365 -0.00055651255945930289 0 0.0015747707413136045 -0.0005394240215236193 0 0.0017465374067424408 -0.0008622085405241923 0 0.0017313193421697442 -0.00085765922240412309 0 0.0017397809436220353 -0.00085186521216438528 0 0.0017397809436220353 -0.00085186521216438528 0 0.0017333267182231551 -0.00086096898497004784 0 0.0017763961612615703 -0.00082910574593586474 0 0.0017465374067424408 -0.0008622085405241923 0 0.0017397809436220353 -0.00085186521216438528 0 0.0017333267182231551 -0.00086096898497004784 0 0.0017333267182231551 -0.00086096898497004784 0 0.0017041610797338025 -0.0009060834801827947 0 0.0017763961612615703 -0.00082910574593586474 0 0.0017313193421697442 -0.00085765922240412309 0 0.0017397809436220353 -0.00085186521216438528 0 0.0017763961612615703 -0.00082910574593586474 0 0.0015747707413136045 -0.0005394240215236193 0 0.0017681126574634694 -0.00085330444516586591 0 0.0022504301330122005 -0.0006339806818863161 0 0.0017763961612615703 -0.00082910574593586474 0 0.0020916460716009864 -0.00091971923333143148 0 0.0022504301330122005 -0.0006339806818863161 0 0.0016573597354864031 -0.00064217394483931454 0 0.0017763961612615703 -0.00082910574593586474 0 0.0017763961612615703 -0.00082910574593586474 0 0.0020916460716009864 -0.00091971923333143148 0 0.0019941358414450969 -0.0011912166832828038 0 0.0017041610797338025 -0.0009060834801827947 0 0.0017763961612615703 -0.00082910574593586474 0 0.0019941358414450969 -0.0011912166832828038 0 0.003957371784704981 -0.00038851983911293575 0 0.0041430091562039114 -0.00058105324131567371 0 0.0063198687832926904 8.3689148269780722e-05 0 0.0062671870233978431 3.5448170940495317e-05 0 0.0063264785460613723 7.4920856464289403e-05 0 0.0062820291418948324 8.3161600484382703e-05 0 0.0063397555936052204 8.7593486886659624e-05 0 0.0062671870233978431 3.5448170940495317e-05 0 0.0063397555936052204 8.7593486886659624e-05 0 0.0062671870233978431 3.5448170940495317e-05 0 0.0063264785460613723 7.4920856464289403e-05 0 0.0061631341062123998 2.8998023820278834e-05 0 0.0062820291418948324 8.3161600484382703e-05 0 0.0062671870233978431 3.5448170940495317e-05 0 0.0063095055975109383 9.68003568326159e-05 0 0.0063385930930098221 8.7429547489991107e-05 0 0.006261824212104642 7.855159105285118e-05 0 0.0062854159938356014 0.00013145034407641433 0 0.0063198687832926904 8.3689148269780722e-05 0 0.0063095055975109383 9.68003568326159e-05 0 0.0063198687832926904 8.3689148269780722e-05 0 0.0063095055975109383 9.68003568326159e-05 0 0.0063264785460613723 7.4920856464289403e-05 0 0.0063095055975109383 9.68003568326159e-05 0 0.0063264785460613723 7.4920856464289403e-05 0 0.0063385930930098221 8.7429547489991107e-05 0 0.0063880338735688297 0.0001267526139181827 0 0.0063397555936052204 8.7593486886659624e-05 0 0.0063385930930098221 8.7429547489991107e-05 0 0.0063397555936052204 8.7593486886659624e-05 0 0.0063264785460613723 7.4920856464289403e-05 0 0.0063385930930098221 8.7429547489991107e-05 0 0.0063880338735688297 0.0001267526139181827 0 0.0063385930930098221 8.7429547489991107e-05 0 0.006261824212104642 7.855159105285118e-05 0 0.006313199270616434 0.00019987308229253662 0 0.0063880338735688297 0.0001267526139181827 0 0.0063812824353196348 0.00037122193787156456 0 0.0063881090012386857 0.00013413648171446728 0 0.0062807005906114124 0.00024639982248381582 0 0.006313199270616434 0.00019987308229253662 0 0.0063812824353196348 0.00037122193787156456 0 0.0061554442214790317 0.00031966073567712538 0 0.0062035201507862053 0.00016221948864433619 0 0.006313199270616434 0.00019987308229253662 0 0.0061554442214790317 0.00031966073567712538 0 0.0061780675496101722 0.00048771473970618751 0 0.0063812824353196348 0.00037122193787156456 0 0.0061554442214790317 0.00031966073567712538 0 0.0061780675496101722 0.00048771473970618751 0 0.0063812824353196348 0.00037122193787156456 0 0.0062897669630372407 0.00062719664929959847 0 0.0063095055975109383 9.68003568326159e-05 0 0.006261824212104642 7.855159105285118e-05 0 0.0062355357140501865 0.00013545613533604762 0 0.0062807005906114124 0.00024639982248381582 0 0.00644448338092751 0.00039331483933483712 0 0.006261824212104642 7.855159105285118e-05 0 0.0062355357140501865 0.00013545613533604762 0 0.0061084085435169433 0.00016674144059981294 0 0.0062355357140501865 0.00013545613533604762 0 0.0061084085435169433 0.00016674144059981294 0 0.0061519454696904782 0.00029841342530868484 0 0.0061780675496101722 0.00048771473970618751 0 0.0062897669630372407 0.00062719664929959847 0 0.0060937224487351066 0.00067879859388970151 0 0.0059709719403816496 0.00034012051300585949 0 0.0061084085435169433 0.00016674144059981294 0 0.0061519454696904782 0.00029841342530868484 0 0.0062897669630372407 0.00062719664929959847 0 0.0060381474626252617 0.00086932259758752076 0 0.0060937224487351066 0.00067879859388970151 0 0.0061785390166083694 0.0010108822353561643 0 0.0062897669630372407 0.00062719664929959847 0 0.0060381474626252617 0.00086932259758752076 0 0.0041850144667471183 0.00034222922941666296 0 0.00644448338092751 0.00039331483933483712 0 0.0062902448759482796 0.00017796802056821933 0 0.0062355357140501865 0.00013545613533604762 0 0.0061519454696904782 0.00029841342530868484 0 0.0058527143812417267 0.00089168169000848391 0 0.0059328364656071999 0.00080670395398803503 0 0.0060381474626252617 0.00086932259758752076 0 0.0059328364656071999 0.00080670395398803503 0 0.005998774267608903 0.00076681603534026871 0 0.0059341897307425345 0.00070871580105813362 0 0.005832332377051593 0.0007808713121046822 0 0.0059328364656071999 0.00080670395398803503 0 0.0059341897307425345 0.00070871580105813362 0 0.0058527143812417267 0.00089168169000848391 0 0.005832332377051593 0.0007808713121046822 0 0.0059328364656071999 0.00080670395398803503 0 0.0059328364656071999 0.00080670395398803503 0 0.0060381474626252617 0.00086932259758752076 0 0.005998774267608903 0.00076681603534026871 0 0.005998774267608903 0.00076681603534026871 0 0.0060937224487351066 0.00067879859388970151 0 0.0059341897307425345 0.00070871580105813362 0 0.0060381474626252617 0.00086932259758752076 0 0.005998774267608903 0.00076681603534026871 0 0.0060937224487351066 0.00067879859388970151 0 0.0060937224487351066 0.00067879859388970151 0 0.0059341897307425345 0.00070871580105813362 0 0.0059703371908473579 0.00051302164624305452 0 0.0061780675496101722 0.00048771473970618751 0 0.0060937224487351066 0.00067879859388970151 0 0.0059703371908473579 0.00051302164624305452 0 0.005832332377051593 0.0007808713121046822 0 0.0059341897307425345 0.00070871580105813362 0 0.0057886860127303059 0.00063165163126642184 0 0.0059341897307425345 0.00070871580105813362 0 0.0059703371908473579 0.00051302164624305452 0 0.0057886860127303059 0.00063165163126642184 0 0.0061780675496101722 0.00048771473970618751 0 0.0059703371908473579 0.00051302164624305452 0 0.0061554442214790317 0.00031966073567712538 0 0.0059703371908473579 0.00051302164624305452 0 0.0061554442214790317 0.00031966073567712538 0 0.0059096379481842209 0.00033699486221544392 0 0.0060096423586589193 0.00017648920984673225 0 0.0061554442214790317 0.00031966073567712538 0 0.0059096379481842209 0.00033699486221544392 0 0.0056810042033312762 0.0001980240127670681 0 0.0059096379481842209 0.00033699486221544392 0 0.0057093592703981715 0.00043433452154648111 0 0.0059703371908473579 0.00051302164624305452 0 0.0057093592703981715 0.00043433452154648111 0 0.0057886860127303059 0.00063165163126642184 0 0.0059703371908473579 0.00051302164624305452 0 0.0059096379481842209 0.00033699486221544392 0 0.0057093592703981715 0.00043433452154648111 0 0.0057093592703981715 0.00043433452154648111 0 0.005441208982765431 0.00049332762287787927 0 0.0055445695831955024 0.00071847471080205673 0 0.0056810042033312762 0.0001980240127670681 0 0.0057093592703981715 0.00043433452154648111 0 0.005441208982765431 0.00049332762287787927 0 0.0052833811268300172 0.00022407150691781713 0 0.0052880940264115458 0.00037776460260444567 0 0.0052840732939179605 0.00021306445849534158 0 0.0056810042033312762 0.0001980240127670681 0 0.005441208982765431 0.00049332762287787927 0 0.0052840732939179605 0.00021306445849534158 0 0.0050733630632878021 0.00031322488877112193 0 0.0051826179894986996 0.00030667383768651248 0 0.0052840732939179605 0.00021306445849534158 0 0.0050733630632878021 0.00031322488877112193 0 0.0050774795986197659 0.00020127148856036647 0 0.0050733630632878021 0.00031322488877112193 0 0.0051826179894986996 0.00030667383768651248 0 0.0050970090816511836 0.00038563775227567788 0 0.0052880940264115458 0.00037776460260444567 0 0.0055408093464186618 0.00058734480783267093 0 0.0051826179894986996 0.00030667383768651248 0 0.0050970090816511836 0.00038563775227567788 0 0.0051700032466204301 0.00040764229410352707 0 0.0050733630632878021 0.00031322488877112193 0 0.0050970090816511836 0.00038563775227567788 0 0.0049890062613738954 0.00039611731638576993 0 0.0050970090816511836 0.00038563775227567788 0 0.0050109270713065181 0.00047089045012743897 0 0.0049890062613738954 0.00039611731638576993 0 0.0050970090816511836 0.00038563775227567788 0 0.0050109270713065181 0.00047089045012743897 0 0.0051312618199607848 0.00048418364961511995 0 0.0050970090816511836 0.00038563775227567788 0 0.0051312618199607848 0.00048418364961511995 0 0.0051700032466204301 0.00040764229410352707 0 0.0056669810563069736 0.00083217836127934307 0 0.0057233873024342885 0.00076942234603949639 0 0.0055445695831955024 0.00071847471080205673 0 0.0055408093464186618 0.00058734480783267093 0 0.0038457836769899933 0.00089107828860576646 0 0.0051312618199607848 0.00048418364961511995 0 0.0051700032466204301 0.00040764229410352707 0 0.0051958764176606416 0.0005268265388323612 0 0.0056669810563069736 0.00083217836127934307 0 0.0055445695831955024 0.00071847471080205673 0 0.0056231173151049764 0.00094053282442847427 0 0.0056669810563069736 0.00083217836127934307 0 0.0057603854265466624 0.00084942552825786031 0 0.0056231173151049764 0.00094053282442847427 0 0.0056669810563069736 0.00083217836127934307 0 0.0057603854265466624 0.00084942552825786031 0 0.0057233873024342885 0.00076942234603949639 0 0.005832332377051593 0.0007808713121046822 0 0.0057603854265466624 0.00084942552825786031 0 0.0057233873024342885 0.00076942234603949639 0 0.0058527143812417267 0.00089168169000848391 0 0.005832332377051593 0.0007808713121046822 0 0.0057603854265466624 0.00084942552825786031 0 0.005832332377051593 0.0007808713121046822 0 0.0057233873024342885 0.00076942234603949639 0 0.0057886860127303059 0.00063165163126642184 0 0.0057233873024342885 0.00076942234603949639 0 0.0057886860127303059 0.00063165163126642184 0 0.0055445695831955024 0.00071847471080205673 0 0.0057093592703981715 0.00043433452154648111 0 0.0057886860127303059 0.00063165163126642184 0 0.0055445695831955024 0.00071847471080205673 0 0.0047709636387544144 0.00026412604240899287 0 0.0048010551316338759 0.00033191745907144019 0 0.0047831576966130473 0.00031072356394047998 0 0.0047979176637389541 0.00033812766457844037 0 0.0047731651061998417 0.00036317001653661502 0 0.0047552407629323961 0.00021302862086258699 0 0.0047979176637389541 0.00033812766457844037 0 0.0048140056719847999 0.00021399823405221068 0 0.004795275883310612 0.00016998278137869206 0 0.0047552407629323961 0.00021302862086258699 0 0.0048140056719847999 0.00021399823405221068 0 0.004795275883310612 0.00016998278137869206 0 0.0047732539225312648 0.00016354123889275523 0 0.0047552407629323961 0.00021302862086258699 0 0.0047979176637389541 0.00033812766457844037 0 0.0048140056719847999 0.00021399823405221068 0 0.0048860315612968405 0.00021820022305514138 0 0.0048416568371977891 0.00014854058195542096 0 0.0048140056719847999 0.00021399823405221068 0 0.0048860315612968405 0.00021820022305514138 0 0.0047979176637389541 0.00033812766457844037 0 0.0048860315612968405 0.00021820022305514138 0 0.0049459845927804485 0.00027336177789261459 0 0.0047979176637389541 0.00033812766457844037 0 0.0049459845927804485 0.00027336177789261459 0 0.0049121293248797823 0.00036094686586619299 0 0.0049686044891317132 0.00018289208772764512 0 0.0048860315612968405 0.00021820022305514138 0 0.0049459845927804485 0.00027336177789261459 0 0.0049686044891317132 0.00018289208772764512 0 0.0049459845927804485 0.00027336177789261459 0 0.0050774795986197659 0.00020127148856036647 0 0.0050733630632878021 0.00031322488877112193 0 0.0049459845927804485 0.00027336177789261459 0 0.0050774795986197659 0.00020127148856036647 0 0.0050733630632878021 0.00031322488877112193 0 0.0049459845927804485 0.00027336177789261459 0 0.0049121293248797823 0.00036094686586619299 0 0.0049890062613738954 0.00039611731638576993 0 0.0048344983053550533 0.00044495925261314766 0 0.0049121293248797823 0.00036094686586619299 0 0.0050733630632878021 0.00031322488877112193 0 0.0049890062613738954 0.00039611731638576993 0 0.0049121293248797823 0.00036094686586619299 0 0.0050109270713065181 0.00047089045012743897 0 0.0049890062613738954 0.00039611731638576993 0 0.0048344983053550533 0.00044495925261314766 0 0.0048344983053550533 0.00044495925261314766 0 0.0048058778259450026 0.00040371031351965712 0 0.004714901660745883 0.0004592032834258842 0 0.0048344983053550533 0.00044495925261314766 0 0.0049121293248797823 0.00036094686586619299 0 0.0048058778259450026 0.00040371031351965712 0 0.0047979176637389541 0.00033812766457844037 0 0.0048058778259450026 0.00040371031351965712 0 0.0047689544310081161 0.00040144120989296596 0 0.0047979176637389541 0.00033812766457844037 0 0.0049121293248797823 0.00036094686586619299 0 0.0048058778259450026 0.00040371031351965712 0 0.0048058778259450026 0.00040371031351965712 0 0.0047689544310081161 0.00040144120989296596 0 0.004714901660745883 0.0004592032834258842 0 0.0047620109448653636 0.00042362036734345729 0 0.0047689544310081161 0.00040144120989296596 0 0.004714901660745883 0.0004592032834258842 0 0.0047643075469792637 0.00039618628375456014 0 0.0047620109448653636 0.00042362036734345729 0 0.0047689544310081161 0.00040144120989296596 0 0.0047979176637389541 0.00033812766457844037 0 0.0047731651061998417 0.00036317001653661502 0 0.0047689544310081161 0.00040144120989296596 0 0.0047643075469792637 0.00039618628375456014 0 0.0047731651061998417 0.00036317001653661502 0 0.0047689544310081161 0.00040144120989296596 0 0.0047932053779985951 0.00038846074920055205 0 0.004854270690445011 0.00027269444436774299 0 0.0047511873664911972 0.00042692253241607861 0 0.004854270690445011 0.00027269444436774299 0 0.0047511873664911972 0.00042692253241607861 0 0.0047631730819332379 -5.9047241432415664e-05 0 0.0047932053779985951 0.00038846074920055205 0 0.0047620109448653636 0.00042362036734345729 0 0.0047511873664911972 0.00042692253241607861 0 0.0047620109448653636 0.00042362036734345729 0 0.0047511873664911972 0.00042692253241607861 0 0.004714901660745883 0.0004592032834258842 0 0.0047511873664911972 0.00042692253241607861 0 0.004714901660745883 0.0004592032834258842 0 0.004526602559648994 0.00050618486728923134 0 0.0047511873664911972 0.00042692253241607861 0 0.004526602559648994 0.00050618486728923134 0 0.0047631730819332379 -5.9047241432415664e-05 0 0.0044836886159090733 0.00054906706651536524 0 0.0040356880058622178 0.0007323186043105463 0 0.004526602559648994 0.00050618486728923134 0 0.0031195396077902762 0.00094744507505663137 0 0.0035943763132954172 -3.810792693842934e-05 0 0.0048344983053550533 0.00044495925261314766 0 0.004714901660745883 0.0004592032834258842 0 0.004526602559648994 0.00050618486728923134 0 0.0048344983053550533 0.00044495925261314766 0 0.004526602559648994 0.00050618486728923134 0 0.0048785309931391021 0.00057998885064415682 0 0.0050109270713065181 0.00047089045012743897 0 0.0048344983053550533 0.00044495925261314766 0 0.0048785309931391021 0.00057998885064415682 0 0.002813190226589944 0.00022349481327617687 0 0.0031195396077902762 0.00094744507505663137 0 0.0035943763132954172 -3.810792693842934e-05 0 0.0035943763132954172 -3.810792693842934e-05 0 0.0033743864636442788 -0.00069935129978170518 0 0.0026087733025448763 -0.00050997205513687817 0 0.002813190226589944 0.00022349481327617687 0 0.0035943763132954172 -3.810792693842934e-05 0 0.0026087733025448763 -0.00050997205513687817 0 0.0033743864636442788 -0.00069935129978170518 0 0.0026087733025448763 -0.00050997205513687817 0 0.0031465639234658891 -0.0014604307352509426 0 0.0021555699033875254 -0.00015802513694116992 0 0.0024084252539762429 -0.00048896198958192129 0 0.0033743864636442788 -0.00069935129978170518 0 0.0041167702923322344 -0.00080065624661479083 0 0.0031465639234658891 -0.0014604307352509426 0 0.0035943763132954172 -3.810792693842934e-05 0 0.0033743864636442788 -0.00069935129978170518 0 0.0041167702923322344 -0.00080065624661479083 0 0.0037984042097012997 -0.00054548929271294776 0 0.0024084252539762429 -0.00048896198958192129 0 0.003359040071826701 -0.00024269006303327255 0 0.0036073602958041919 -0.00044536136255660255 0 0.0033028996851453486 -0.00056100374323694597 0 0.0035943763132954172 -3.810792693842934e-05 0 0.0041167702923322344 -0.00080065624661479083 0 0.0042844257512344736 -8.4180247038368979e-05 0 0.004526602559648994 0.00050618486728923134 0 0.0035943763132954172 -3.810792693842934e-05 0 0.0042844257512344736 -8.4180247038368979e-05 0 0.004526602559648994 0.00050618486728923134 0 0.0042844257512344736 -8.4180247038368979e-05 0 0.0047631730819332379 -5.9047241432415664e-05 0 0.0041167702923322344 -0.00080065624661479083 0 0.0042844257512344736 -8.4180247038368979e-05 0 0.0047631730819332379 -5.9047241432415664e-05 0 0.0037984042097012997 -0.00054548929271294776 0 0.0042684931363505567 -3.9775861081847303e-05 0 0.003359040071826701 -0.00024269006303327255 0 0.0038423697426119207 1.9528740640244708e-05 0 0.0036073602958041919 -0.00044536136255660255 0 0.0038423697426119207 1.9528740640244708e-05 0 0.0039714629445628874 -0.00039780682177983006 0 0.0036073602958041919 -0.00044536136255660255 0 0.0042753401015899325 -0.00014227950026926762 0 0.0038423697426119207 1.9528740640244708e-05 0 0.0039714629445628874 -0.00039780682177983006 0 0.0042621623608920011 -0.0003753647030054994 0 0.0042753401015899325 -0.00014227950026926762 0 0.0039714629445628874 -0.00039780682177983006 0 0.0045840765151785859 0.00025008340191319669 0 0.0042684931363505567 -3.9775861081847303e-05 0 0.0043269972251390523 0.00025700887254496486 0 0.0042753401015899325 -0.00014227950026926762 0 0.0038423697426119207 1.9528740640244708e-05 0 0.0013443737261914686 0.00061935054206665064 0 0.0014110940062750943 0.00049163347584270042 0 0.0012004641469898043 0.00040916567975536643 0 0.0015048236495888263 0.0006841428576717072 0 0.0012647283208583274 0.00080232268973836317 0 0.0016833173457476342 0.00083845151458628226 0 0.0013443737261914686 0.00061935054206665064 0 0.0012647283208583274 0.00080232268973836317 0 0.0012004641469898043 0.00040916567975536643 0 0.0013443737261914686 0.00061935054206665064 0 0.0015048236495888263 0.0006841428576717072 0 0.0012647283208583274 0.00080232268973836317 0 0.0015048236495888263 0.0006841428576717072 0 0.0014110940062750943 0.00049163347584270042 0 0.0015995509128786374 0.00051209898649598711 0 0.0013443737261914686 0.00061935054206665064 0 0.0015048236495888263 0.0006841428576717072 0 0.0014110940062750943 0.00049163347584270042 0 0.00021776821897741925 0.00014237663828463608 0 0.00016346063335210344 0.00014273827321466574 0 0.00022700618734982042 0.00017843520497701318 0 0.0020063010625951043 0.00080780868411736316 0 0.00057546651890179215 0.00017359343684553394 0 0.00019833789217009256 0.00021081533685692513 0 0.00021776821897741925 0.00014237663828463608 0 0.00022700618734982042 0.00017843520497701318 0 0.00026832403398649105 0.00011400787122914939 0 0.00019833789217009256 0.00021081533685692513 0 0.00021776821897741925 0.00014237663828463608 0 0.00029308399958133987 4.0945327369923787e-05 0 0.00021776821897741925 0.00014237663828463608 0 0.00016346063335210344 0.00014273827321466574 0 0.0055809029680171374 0.00095519429300269278 0 0.0038457836769899933 0.00089107828860576646 0 0.0049711162325808481 0.0010145121826633549 0 0.0051470256306727193 0.0012874788341328924 0 0.0037958218407785761 0.0015600697718604723 0 0.0025507058187883352 0.0006935302863769542 0 0.0020063010625951043 0.00080780868411736316 0 0.0049711162325808481 0.0010145121826633549 0 0.0036804695091960274 0.0012510455122659188 0 0.0037958218407785761 0.0015600697718604723 0 0.0058527143812417267 0.00089168169000848391 0 0.0057603854265466624 0.00084942552825786031 0 0.0056231173151049764 0.00094053282442847427 0 0.0011964806905864029 0.00107296977621988 0 0.0011481285855730447 0.0009390633844536425 0 0.0016833173457476342 0.00083845151458628226 0 0.0020063010625951043 0.00080780868411736316 0 0.0013457549389850653 0.0008762263377374615 0 0.0038457836769899933 0.00089107828860576646 0 0.0020063010625951043 0.00080780868411736316 0 0.0038457836769899933 0.00089107828860576646 0 0.0033255369684540587 0.00079990731195135481 0 0.0050109270713065181 0.00047089045012743897 0 0.0051312618199607848 0.00048418364961511995 0 0.0050675029117005534 0.00055837199640183159 0 0.0051312618199607848 0.00048418364961511995 0 0.0051958764176606416 0.0005268265388323612 0 0.0050675029117005534 0.00055837199640183159 0 0.0011964806905864029 0.00107296977621988 0 0.0018256930225412651 0.0010279464798835494 0 0.0016833173457476342 0.00083845151458628226 0 0.0050109270713065181 0.00047089045012743897 0 0.0048785309931391021 0.00057998885064415682 0 0.0050675029117005534 0.00055837199640183159 0 0.0040356880058622178 0.0007323186043105463 0 0.0033255369684540587 0.00079990731195135481 0 0.0031195396077902762 0.00094744507505663137 0 0.0018256930225412651 0.0010279464798835494 0 0.0019448772949070526 0.00049748062450818194 0 0.002813190226589944 0.00022349481327617687 0 0.0031195396077902762 0.00094744507505663137 0 0.0019448772949070526 0.00049748062450818194 0 0.0015048236495888263 0.0006841428576717072 0 0.0016833173457476342 0.00083845151458628226 0 0.0015995509128786374 0.00051209898649598711 0 0.0019448772949070526 0.00049748062450818194 0 0.0016833173457476342 0.00083845151458628226 0 0.0015995509128786374 0.00051209898649598711 0 0.0018256930225412651 0.0010279464798835494 0 0.0019448772949070526 0.00049748062450818194 0 0.0016833173457476342 0.00083845151458628226 0 0.0019448772949070526 0.00049748062450818194 0 0.0015995509128786374 0.00051209898649598711 0 0.0016776036418208035 0.0003269241914655546 0 0.0015995509128786374 0.00051209898649598711 0 0.0016776036418208035 0.0003269241914655546 0 0.0014952443276413693 0.00032781413530292625 0 0.0016776036418208035 0.0003269241914655546 0 0.0017020420207474272 0.00020718606042567116 0 0.0015541056894019529 0.00020962468418405869 0 0.0016776036418208035 0.0003269241914655546 0 0.0015541056894019529 0.00020962468418405869 0 0.0014952443276413693 0.00032781413530292625 0 0.0015541056894019529 0.00020962468418405869 0 0.0014008121114620206 0.00020186802134199188 0 0.0014952443276413693 0.00032781413530292625 0 0.0019448772949070526 0.00049748062450818194 0 0.0016776036418208035 0.0003269241914655546 0 0.0017020420207474272 0.00020718606042567116 0 0.001927331891087368 0.00048275093794919818 0 0.0021555699033875254 -0.00015802513694116992 0 0.002813190226589944 0.00022349481327617687 0 0.0019448772949070526 0.00049748062450818194 0 0.0026087733025448763 -0.00050997205513687817 0 0.0017020420207474272 0.00020718606042567116 0 0.001524262027730467 5.185314568673185e-05 0 0.0016087460877470768 4.1213741392290781e-05 0 0.0017020420207474272 0.00020718606042567116 0 0.0015289608965234314 0.00012225375861370686 0 0.001524262027730467 5.185314568673185e-05 0 0.0017020420207474272 0.00020718606042567116 0 0.0015541056894019529 0.00020962468418405869 0 0.0015289608965234314 0.00012225375861370686 0 0.0015541056894019529 0.00020962468418405869 0 0.0014384945189134851 0.0001126599736461664 0 0.0014008121114620206 0.00020186802134199188 0 0.0015541056894019529 0.00020962468418405869 0 0.0015289608965234314 0.00012225375861370686 0 0.0014384945189134851 0.0001126599736461664 0 0.0015289608965234314 0.00012225375861370686 0 0.0014384945189134851 0.0001126599736461664 0 0.0014721114008305911 6.9936895112762898e-05 0 0.0014008121114620206 0.00020186802134199188 0 0.0012923597588355574 0.00022628360985262185 0 0.001309315060534211 9.1166932825501089e-05 0 0.0014384945189134851 0.0001126599736461664 0 0.0014008121114620206 0.00020186802134199188 0 0.001309315060534211 9.1166932825501089e-05 0 0.0014110940062750943 0.00049163347584270042 0 0.001351390428804588 0.00032906964895087527 0 0.0012004641469898043 0.00040916567975536643 0 0.0014008121114620206 0.00020186802134199188 0 0.001351390428804588 0.00032906964895087527 0 0.0014952443276413693 0.00032781413530292625 0 0.0014008121114620206 0.00020186802134199188 0 0.001351390428804588 0.00032906964895087527 0 0.0012923597588355574 0.00022628360985262185 0 0.0014110940062750943 0.00049163347584270042 0 0.001351390428804588 0.00032906964895087527 0 0.0014952443276413693 0.00032781413530292625 0 0.0014110940062750943 0.00049163347584270042 0 0.0015995509128786374 0.00051209898649598711 0 0.0014952443276413693 0.00032781413530292625 0 0.0012004641469898043 0.00040916567975536643 0 0.0012192201731955064 0.00016652752965470478 0 0.0012923597588355574 0.00022628360985262185 0 2.3955410101298163e-05 6.3895926979110656e-05 0 0.00022700618734982042 0.00017843520497701318 0 0.00012413986087692153 -0.00018709409834460669 0 0.00057546651890179215 0.00017359343684553394 0 0.00067947775744525111 2.7938146959815112e-05 0 0.00019833789217009256 0.00021081533685692513 0 2.3955410101298163e-05 6.3895926979110656e-05 0 0.00022700618734982042 0.00017843520497701318 0 0.001351390428804588 0.00032906964895087527 0 0.0012004641469898043 0.00040916567975536643 0 0.0012923597588355574 0.00022628360985262185 0 0.0012192201731955064 0.00016652752965470478 0 0.0012923597588355574 0.00022628360985262185 0 0.001309315060534211 9.1166932825501089e-05 0 0.001309315060534211 9.1166932825501089e-05 0 0.0012830191628115709 3.0978880724773737e-05 0 0.0012348400244276126 6.0607339595614715e-05 0 0.0012192201731955064 0.00016652752965470478 0 0.001309315060534211 9.1166932825501089e-05 0 0.0012348400244276126 6.0607339595614715e-05 0 0.001309315060534211 9.1166932825501089e-05 0 0.0012830191628115709 3.0978880724773737e-05 0 0.0013452697831855362 3.1672702494414803e-05 0 0.0012830191628115709 3.0978880724773737e-05 0 0.0013235764923491338 1.2887752990872629e-05 0 0.0013452697831855362 3.1672702494414803e-05 0 0.0012830191628115709 3.0978880724773737e-05 0 0.0013235764923491338 1.2887752990872629e-05 0 0.0012906116408402547 -2.1934806209164251e-06 0 0.0013452697831855362 3.1672702494414803e-05 0 0.0013962369816287966 2.5331495726237161e-05 0 0.0013677617948224356 1.2126885340094428e-05 0 0.0013235764923491338 1.2887752990872629e-05 0 0.0013452697831855362 3.1672702494414803e-05 0 0.0013677617948224356 1.2126885340094428e-05 0 0.0013452697831855362 3.1672702494414803e-05 0 0.0013962369816287966 2.5331495726237161e-05 0 0.0014029826911494223 5.462880998298931e-05 0 0.0014384945189134851 0.0001126599736461664 0 0.001309315060534211 9.1166932825501089e-05 0 0.0014029826911494223 5.462880998298931e-05 0 0.001309315060534211 9.1166932825501089e-05 0 0.0013452697831855362 3.1672702494414803e-05 0 0.0014029826911494223 5.462880998298931e-05 0 0.0014384945189134851 0.0001126599736461664 0 0.0014029826911494223 5.462880998298931e-05 0 0.0014721114008305911 6.9936895112762898e-05 0 0.0015289608965234314 0.00012225375861370686 0 0.0014721114008305911 6.9936895112762898e-05 0 0.001524262027730467 5.185314568673185e-05 0 0.0014721114008305911 6.9936895112762898e-05 0 0.0014506258045387129 2.584125235850958e-05 0 0.001524262027730467 5.185314568673185e-05 0 0.0014029826911494223 5.462880998298931e-05 0 0.0014721114008305911 6.9936895112762898e-05 0 0.0014506258045387129 2.584125235850958e-05 0 0.0013962369816287966 2.5331495726237161e-05 0 0.0014029826911494223 5.462880998298931e-05 0 0.0014506258045387129 2.584125235850958e-05 0 0.001524262027730467 5.185314568673185e-05 0 0.0015132008608421889 -2.1346681527473814e-06 0 0.0016087460877470768 4.1213741392290781e-05 0 0.0014506258045387129 2.584125235850958e-05 0 0.001524262027730467 5.185314568673185e-05 0 0.0014712152142540927 7.2955431273846234e-06 0 0.001524262027730467 5.185314568673185e-05 0 0.0015132008608421889 -2.1346681527473814e-06 0 0.0014712152142540927 7.2955431273846234e-06 0 0.0015132008608421889 -2.1346681527473814e-06 0 0.0014712152142540927 7.2955431273846234e-06 0 0.0014417116982006117 1.0269539168410959e-06 0 0.0014712152142540927 7.2955431273846234e-06 0 0.0014179379958126877 5.2412112891092728e-06 0 0.0014264862559829074 9.164787743332579e-06 0 0.0014712152142540927 7.2955431273846234e-06 0 0.0014179379958126877 5.2412112891092728e-06 0 0.0014417116982006117 1.0269539168410959e-06 0 0.0014506258045387129 2.584125235850958e-05 0 0.0014712152142540927 7.2955431273846234e-06 0 0.0014264862559829074 9.164787743332579e-06 0 0.0014264862559829074 9.164787743332579e-06 0 0.0013905091299970277 9.5853665834590539e-06 0 0.0013889566128926459 1.3447067478287611e-05 0 0.0014179379958126877 5.2412112891092728e-06 0 0.0014264862559829074 9.164787743332579e-06 0 0.0013905091299970277 9.5853665834590539e-06 0 0.0013905091299970277 9.5853665834590539e-06 0 0.0013796516724631552 8.0720148927942799e-06 0 0.0013444150656300687 1.2748215801484359e-05 0 0.0014179379958126877 5.2412112891092728e-06 0 0.0013905091299970277 9.5853665834590539e-06 0 0.0013796516724631552 8.0720148927942799e-06 0 0.0013962369816287966 2.5331495726237161e-05 0 0.0014506258045387129 2.584125235850958e-05 0 0.0014078962306502023 1.3539544492518181e-05 0 0.0014506258045387129 2.584125235850958e-05 0 0.0014264862559829074 9.164787743332579e-06 0 0.0014078962306502023 1.3539544492518181e-05 0 0.0014264862559829074 9.164787743332579e-06 0 0.0014078962306502023 1.3539544492518181e-05 0 0.0013889566128926459 1.3447067478287611e-05 0 0.0013962369816287966 2.5331495726237161e-05 0 0.0014078962306502023 1.3539544492518181e-05 0 0.0013677617948224356 1.2126885340094428e-05 0 0.0014078962306502023 1.3539544492518181e-05 0 0.0013876843209658977 1.5840754408824667e-05 0 0.0013677617948224356 1.2126885340094428e-05 0 0.0013876843209658977 1.5840754408824667e-05 0 0.0013781693613865499 2.1196781377460634e-05 0 0.0013889566128926459 1.3447067478287611e-05 0 0.0014078962306502023 1.3539544492518181e-05 0 0.0013876843209658977 1.5840754408824667e-05 0 0.0013889566128926459 1.3447067478287611e-05 0 0.0013781693613865499 2.1196781377460634e-05 0 0.0013541620108076576 3.3147649002884372e-05 0 0.0013817381123520844 2.7556494319642919e-05 0 0.0013876843209658977 1.5840754408824667e-05 0 0.0013781693613865499 2.1196781377460634e-05 0 0.0013817381123520844 2.7556494319642919e-05 0 0.0013876843209658977 1.5840754408824667e-05 0 0.0013817381123520844 2.7556494319642919e-05 0 0.0013680826395260546 1.5892407352380451e-05 0 0.0013905091299970277 9.5853665834590539e-06 0 0.0013459020752519439 2.1461515025988199e-05 0 0.0013444150656300687 1.2748215801484359e-05 0 0.0013905091299970277 9.5853665834590539e-06 0 0.0013459020752519439 2.1461515025988199e-05 0 0.0013889566128926459 1.3447067478287611e-05 0 0.0013459020752519439 2.1461515025988199e-05 0 0.0013889566128926459 1.3447067478287611e-05 0 0.0013541620108076576 3.3147649002884372e-05 0 0.0013781693613865499 2.1196781377460634e-05 0 0.0013889566128926459 1.3447067478287611e-05 0 0.0013541620108076576 3.3147649002884372e-05 0 0.0013459020752519439 2.1461515025988199e-05 0 0.0013541620108076576 3.3147649002884372e-05 0 0.001287596937167252 4.0332725056170871e-05 0 0.0013541620108076576 3.3147649002884372e-05 0 0.0012969265605293659 6.1166059994017787e-05 0 0.0013757875022195321 5.01869840752725e-05 0 0.0012969265605293659 6.1166059994017787e-05 0 0.0013757875022195321 5.01869840752725e-05 0 0.0013581445249876878 9.8741868204092572e-05 0 0.0013541620108076576 3.3147649002884372e-05 0 0.0012969265605293659 6.1166059994017787e-05 0 0.001287596937167252 4.0332725056170871e-05 0 0.0013739911551251178 2.3645219808099482e-05 0 0.0013757875022195321 5.01869840752725e-05 0 0.0013736574414630379 3.7712088158964102e-06 0 0.0013757875022195321 5.01869840752725e-05 0 0.0013736574414630379 3.7712088158964102e-06 0 0.0013581445249876878 9.8741868204092572e-05 0 0.0013739911551251178 2.3645219808099482e-05 0 0.0013817381123520844 2.7556494319642919e-05 0 0.0013757875022195321 5.01869840752725e-05 0 0.0013739911551251178 2.3645219808099482e-05 0 0.0013817381123520844 2.7556494319642919e-05 0 0.0013680826395260546 1.5892407352380451e-05 0 0.0013541620108076576 3.3147649002884372e-05 0 0.0013817381123520844 2.7556494319642919e-05 0 0.0013757875022195321 5.01869840752725e-05 0 0.0013739911551251178 2.3645219808099482e-05 0 0.0013436996527066878 1.7385554681471588e-05 0 0.0013736574414630379 3.7712088158964102e-06 0 0.0013436996527066878 1.7385554681471588e-05 0 0.0012573518348842733 -3.2220569621402523e-05 0 0.0013736574414630379 3.7712088158964102e-06 0 0.0013739911551251178 2.3645219808099482e-05 0 0.0013436996527066878 1.7385554681471588e-05 0 0.0013680826395260546 1.5892407352380451e-05 0 0.00093379212013680753 7.4693080550518239e-05 0 -0.00041873572912722555 0.00023925919044804258 0 0.0013436996527066878 1.7385554681471588e-05 0 0.0012517558406444792 7.4638534638150347e-05 0 0.0012573518348842733 -3.2220569621402523e-05 0 0.001440179238733956 -3.297012507604922e-05 0 0.00093379212013680753 7.4693080550518239e-05 0 0.0013436996527066878 1.7385554681471588e-05 0 0.0013360040017610538 4.0255023676146474e-06 0 0.0013110408993145006 -6.2090633888324591e-06 0 0.0013360040017610538 4.0255023676146474e-06 0 0.0013110408993145006 -6.2090633888324591e-06 0 0.0012906116408402547 -2.1934806209164251e-06 0 0.00093379212013680753 7.4693080550518239e-05 0 0.0011575465690753077 -1.9613800354275584e-05 0 0.0013235764923491338 1.2887752990872629e-05 0 0.0013360040017610538 4.0255023676146474e-06 0 0.0012906116408402547 -2.1934806209164251e-06 0 0.0013235764923491338 1.2887752990872629e-05 0 0.0013360040017610538 4.0255023676146474e-06 0 0.0013677617948224356 1.2126885340094428e-05 0 0.0013436996527066878 1.7385554681471588e-05 0 0.0013360040017610538 4.0255023676146474e-06 0 0.0013680826395260546 1.5892407352380451e-05 0 0.0013360040017610538 4.0255023676146474e-06 0 0.0013677617948224356 1.2126885340094428e-05 0 0.0013680826395260546 1.5892407352380451e-05 0 0.0013876843209658977 1.5840754408824667e-05 0 0.0013677617948224356 1.2126885340094428e-05 0 0.0013680826395260546 1.5892407352380451e-05 0 0.0015953527214452123 0.00040333965787536373 0 0.0014191467785100048 0.00015408746517690705 0 0.00142020074734059 0.00023331779457393283 0 0.0015779587159767082 0.0001276848207664084 0 0.0016447493318362911 0.00022865539632857957 0 0.0014191467785100048 0.00015408746517690705 0 0.0022819533708529115 0.00018432998636593194 0 0.001271146010357957 0.00018387592647961065 0 0.0015669607323800683 0.00038243131846555338 0 0.00142020074734059 0.00023331779457393283 0 0.0012401829443590567 0.00032606222797973124 0 0.0014191467785100048 0.00015408746517690705 0 0.00142020074734059 0.00023331779457393283 0 0.0012797904137768538 0.00019291153859893272 0 0.002697423289403829 2.6288456819556574e-05 0 0.0013660020819370169 0.00011465049517841449 0 0.0042407192122784166 -0.00066856988983717198 0 0.0039714629445628874 -0.00039780682177983006 0 0.0036476315993650113 -0.00075732801425590108 0 0.002697423289403829 2.6288456819556574e-05 0 0.0025146740014468424 -0.0002407344515960122 0 0.0042621623608920011 -0.0003753647030054994 0 0.0042407192122784166 -0.00066856988983717198 0 0.0039714629445628874 -0.00039780682177983006 0 0.0039714629445628874 -0.00039780682177983006 0 0.0036073602958041919 -0.00044536136255660255 0 0.0036476315993650113 -0.00075732801425590108 0 0.0036073602958041919 -0.00044536136255660255 0 0.0036476315993650113 -0.00075732801425590108 0 0.0033028996851453486 -0.00056100374323694597 0 0.0012401829443590567 0.00032606222797973124 0 0.0012797904137768538 0.00019291153859893272 0 0.0011702285274989308 0.00019640013722929859 0 0.0012401829443590567 0.00032606222797973124 0 0.0011702285274989308 0.00019640013722929859 0 0.0011226661283653266 0.00023088840170382656 0 0.0014191467785100048 0.00015408746517690705 0 0.0012797904137768538 0.00019291153859893272 0 0.0011947203766436265 9.7266261058983404e-05 0 0.00142020074734059 0.00023331779457393283 0 0.0012401829443590567 0.00032606222797973124 0 0.0012797904137768538 0.00019291153859893272 0 0.0012797904137768538 0.00019291153859893272 0 0.0011702285274989308 0.00019640013722929859 0 0.0011947203766436265 9.7266261058983404e-05 0 0.0012401829443590567 0.00032606222797973124 0 0.0011226661283653266 0.00023088840170382656 0 0.0010113911338386489 0.00026681015478459744 0 0.0011702285274989308 0.00019640013722929859 0 0.0010776801118450876 0.00014948621640592546 0 0.0011947203766436265 9.7266261058983404e-05 0 0.0011702285274989308 0.00019640013722929859 0 0.0010776801118450876 0.00014948621640592546 0 0.0011226661283653266 0.00023088840170382656 0 0.0011235165923747135 0.00018073514819614829 0 0.0018802696034039507 -0.00019743631708938846 0 0.0010776801118450876 0.00014948621640592546 0 0.0011226661283653266 0.00023088840170382656 0 0.0010113911338386489 0.00026681015478459744 0 0.003359040071826701 -0.00024269006303327255 0 0.0033028996851453486 -0.00056100374323694597 0 0.0028702928072004198 -0.00052408088870020664 0 0.0025146740014468424 -0.0002407344515960122 0 0.0018802696034039507 -0.00019743631708938846 0 0.0036476315993650113 -0.00075732801425590108 0 0.0033028996851453486 -0.00056100374323694597 0 0.0030240681954377025 -0.0008348191974416856 0 0.0014222467599700537 -6.3405417722149914e-05 0 0.0013696592951722645 -7.6138473675179931e-06 0 0.0013538384790488767 -1.0085591876196785e-05 0 0.0024084252539762429 -0.00048896198958192129 0 0.0018802696034039507 -0.00019743631708938846 0 0.0033028996851453486 -0.00056100374323694597 0 0.0028702928072004198 -0.00052408088870020664 0 0.0030240681954377025 -0.0008348191974416856 0 0.0016906449725141988 -0.00034936592148542022 0 0.0024084252539762429 -0.00048896198958192129 0 0.0014222467599700537 -6.3405417722149914e-05 0 0.0014417116982006117 1.0269539168410959e-06 0 0.0013696592951722645 -7.6138473675179931e-06 0 0.0015132008608421889 -2.1346681527473814e-06 0 0.0014222467599700537 -6.3405417722149914e-05 0 0.0014417116982006117 1.0269539168410959e-06 0 0.0014179379958126877 5.2412112891092728e-06 0 0.0014417116982006117 1.0269539168410959e-06 0 0.0013931741350319837 2.9339208892086501e-07 0 0.0014179379958126877 5.2412112891092728e-06 0 0.0013931741350319837 2.9339208892086501e-07 0 0.0013652361249847933 3.4362832766442172e-06 0 0.0013931741350319837 2.9339208892086501e-07 0 0.001359324873843191 -3.3438098560765301e-06 0 0.0013652361249847933 3.4362832766442172e-06 0 0.0013931741350319837 2.9339208892086501e-07 0 0.0013696592951722645 -7.6138473675179931e-06 0 0.001359324873843191 -3.3438098560765301e-06 0 0.0014417116982006117 1.0269539168410959e-06 0 0.0013931741350319837 2.9339208892086501e-07 0 0.0013696592951722645 -7.6138473675179931e-06 0 0.0016999162018309329 -0.00019148375416731713 0 0.0018802696034039507 -0.00019743631708938846 0 0.0013696592951722645 -7.6138473675179931e-06 0 0.0013495839397690385 -8.8068500377001103e-06 0 0.0013422346193855956 -2.0727562631109111e-05 0 0.0013696592951722645 -7.6138473675179931e-06 0 0.0013495839397690385 -8.8068500377001103e-06 0 0.001359324873843191 -3.3438098560765301e-06 0 0.001359324873843191 -3.3438098560765301e-06 0 0.0013245311833777417 -2.759015489266446e-06 0 0.0013652361249847933 3.4362832766442172e-06 0 0.0013495839397690385 -8.8068500377001103e-06 0 0.0013422346193855956 -2.0727562631109111e-05 0 0.0013245311833777417 -2.759015489266446e-06 0 0.0013495839397690385 -8.8068500377001103e-06 0 0.001359324873843191 -3.3438098560765301e-06 0 0.0013245311833777417 -2.759015489266446e-06 0 0.0012368458574369011 7.1787657897681184e-06 0 0.0013422346193855956 -2.0727562631109111e-05 0 0.0013245311833777417 -2.759015489266446e-06 0 0.0013245311833777417 -2.759015489266446e-06 0 0.0013364605863569615 7.9519073403359477e-06 0 0.0012934292588932595 1.1877728990173526e-05 0 0.0012368458574369011 7.1787657897681184e-06 0 0.0013245311833777417 -2.759015489266446e-06 0 0.0012934292588932595 1.1877728990173526e-05 0 0.0013364605863569615 7.9519073403359477e-06 0 0.0013444150656300687 1.2748215801484359e-05 0 0.0012934292588932595 1.1877728990173526e-05 0 0.0013364605863569615 7.9519073403359477e-06 0 0.0013796516724631552 8.0720148927942799e-06 0 0.0013444150656300687 1.2748215801484359e-05 0 0.0014179379958126877 5.2412112891092728e-06 0 0.0013796516724631552 8.0720148927942799e-06 0 0.0013652361249847933 3.4362832766442172e-06 0 0.0013364605863569615 7.9519073403359477e-06 0 0.0013796516724631552 8.0720148927942799e-06 0 0.0013652361249847933 3.4362832766442172e-06 0 0.0013245311833777417 -2.759015489266446e-06 0 0.0013364605863569615 7.9519073403359477e-06 0 0.0013652361249847933 3.4362832766442172e-06 0 0.0012368458574369011 7.1787657897681184e-06 0 0.0012683122373317094 2.9650393492490232e-05 0 0.0011855288358108575 6.2061506205750969e-05 0 0.0013157686441866696 2.3709773846439036e-05 0 0.0013444150656300687 1.2748215801484359e-05 0 0.0012934292588932595 1.1877728990173526e-05 0 0.0013157686441866696 2.3709773846439036e-05 0 0.0012934292588932595 1.1877728990173526e-05 0 0.0012683122373317094 2.9650393492490232e-05 0 0.0013459020752519439 2.1461515025988199e-05 0 0.0013157686441866696 2.3709773846439036e-05 0 0.0013444150656300687 1.2748215801484359e-05 0 0.0012368458574369011 7.1787657897681184e-06 0 0.0012934292588932595 1.1877728990173526e-05 0 0.0012683122373317094 2.9650393492490232e-05 0 0.0012683122373317094 2.9650393492490232e-05 0 0.001287596937167252 4.0332725056170871e-05 0 0.0011855288358108575 6.2061506205750969e-05 0 0.0013157686441866696 2.3709773846439036e-05 0 0.0012683122373317094 2.9650393492490232e-05 0 0.001287596937167252 4.0332725056170871e-05 0 0.0013459020752519439 2.1461515025988199e-05 0 0.0013157686441866696 2.3709773846439036e-05 0 0.001287596937167252 4.0332725056170871e-05 0 0.0012969265605293659 6.1166059994017787e-05 0 0.0010916430084981117 0.00011399043229296774 0 0.0013581445249876878 9.8741868204092572e-05 0 0.0011156608835692944 0.00011818274362658207 0 0.0010834891905241919 0.00012500813352757923 0 0.0012969265605293659 6.1166059994017787e-05 0 0.001287596937167252 4.0332725056170871e-05 0 0.001202260110085123 7.0822628012919291e-05 0 0.0012969265605293659 6.1166059994017787e-05 0 0.0010916430084981117 0.00011399043229296774 0 0.001202260110085123 7.0822628012919291e-05 0 0.0010916430084981117 0.00011399043229296774 0 0.0011463112121797886 8.1534108655612091e-05 0 0.001202260110085123 7.0822628012919291e-05 0 0.001287596937167252 4.0332725056170871e-05 0 0.001202260110085123 7.0822628012919291e-05 0 0.0011855288358108575 6.2061506205750969e-05 0 0.0011463112121797886 8.1534108655612091e-05 0 0.001202260110085123 7.0822628012919291e-05 0 0.0011855288358108575 6.2061506205750969e-05 0 0.0011855288358108575 6.2061506205750969e-05 0 0.0011157968438099321 8.5940005094141479e-05 0 0.0011336184348224175 6.3842344900816352e-05 0 0.0011463112121797886 8.1534108655612091e-05 0 0.0011855288358108575 6.2061506205750969e-05 0 0.0011157968438099321 8.5940005094141479e-05 0 0.0010916430084981117 0.00011399043229296774 0 0.0011157968438099321 8.5940005094141479e-05 0 0.0010680937637171874 0.00010804946492420579 0 0.0010916430084981117 0.00011399043229296774 0 0.0011463112121797886 8.1534108655612091e-05 0 0.0011157968438099321 8.5940005094141479e-05 0 0.0011157968438099321 8.5940005094141479e-05 0 0.0011106319564466024 6.8632859342424452e-05 0 0.0010680937637171874 0.00010804946492420579 0 0.0011157968438099321 8.5940005094141479e-05 0 0.0011106319564466024 6.8632859342424452e-05 0 0.0011336184348224175 6.3842344900816352e-05 0 0.0012368458574369011 7.1787657897681184e-06 0 0.0011855288358108575 6.2061506205750969e-05 0 0.0011336184348224175 6.3842344900816352e-05 0 0.0010776801118450876 0.00014948621640592546 0 0.0011336184348224175 6.3842344900816352e-05 0 0.0011947203766436265 9.7266261058983404e-05 0 0.0011235165923747135 0.00018073514819614829 0 0.0011544715064890697 4.690541586717983e-05 0 0.0011336184348224175 6.3842344900816352e-05 0 0.0011947203766436265 9.7266261058983404e-05 0 0.0011658357762917352 6.5883538993587792e-05 0 0.0011658357762917352 6.5883538993587792e-05 0 0.0011597233339351606 2.5916662216264853e-05 0 0.0012568747694586345 7.0048003934741561e-05 0 0.0011947203766436265 9.7266261058983404e-05 0 0.0011658357762917352 6.5883538993587792e-05 0 0.0012568747694586345 7.0048003934741561e-05 0 0.0011106319564466024 6.8632859342424452e-05 0 0.0011336184348224175 6.3842344900816352e-05 0 0.0011658357762917352 6.5883538993587792e-05 0 0.0011106319564466024 6.8632859342424452e-05 0 0.0011658357762917352 6.5883538993587792e-05 0 0.0011597233339351606 2.5916662216264853e-05 0 0.0011947203766436265 9.7266261058983404e-05 0 0.0014976251240112013 -0.00019953888872755964 0 0.0015395873402370935 7.5118861928604914e-06 0 0.0012029039064558197 8.7997123418059523e-05 0 0.0013837976101863979 -6.5785933164455479e-05 0 0.0014191467785100048 0.00015408746517690705 0 0.0011947203766436265 9.7266261058983404e-05 0 0.0015395873402370935 7.5118861928604914e-06 0 0.0015779587159767082 0.0001276848207664084 0 0.0014191467785100048 0.00015408746517690705 0 0.0015395873402370935 7.5118861928604914e-06 0 0.0014663201975221338 -0.00032388821447537343 0 0.0012924306593698554 -0.00016446685799685479 0 0.0011391097377004668 -0.00039052324062490302 0 0.0011607809870096476 -0.00021746852108546179 0 0.0012924306593698554 -0.00016446685799685479 0 0.0011391097377004668 -0.00039052324062490302 0 0.0011607809870096476 -0.00021746852108546179 0 0.0012924306593698554 -0.00016446685799685479 0 0.0011896636396605945 -6.8586988831313879e-05 0 0.0011597233339351606 2.5916662216264853e-05 0 0.0012568747694586345 7.0048003934741561e-05 0 0.0011896636396605945 -6.8586988831313879e-05 0 0.0012568747694586345 7.0048003934741561e-05 0 0.0012924306593698554 -0.00016446685799685479 0 0.0011896636396605945 -6.8586988831313879e-05 0 0.0011896636396605945 -6.8586988831313879e-05 0 0.0011032565970621256 -7.9476228212716786e-06 0 0.0010975359747805186 -0.00015664118793570791 0 0.0011597233339351606 2.5916662216264853e-05 0 0.0011896636396605945 -6.8586988831313879e-05 0 0.0011032565970621256 -7.9476228212716786e-06 0 0.0011106319564466024 6.8632859342424452e-05 0 0.0011597233339351606 2.5916662216264853e-05 0 0.0011032565970621256 -7.9476228212716786e-06 0 0.0011032565970621256 -7.9476228212716786e-06 0 0.0010975359747805186 -0.00015664118793570791 0 0.00099458360404700626 -7.7103610682565928e-05 0 0.0011607809870096476 -0.00021746852108546179 0 0.0011896636396605945 -6.8586988831313879e-05 0 0.0010975359747805186 -0.00015664118793570791 0 0.0011607809870096476 -0.00021746852108546179 0 0.0010851435163238045 -0.00030933052333373818 0 0.0011391097377004668 -0.00039052324062490302 0 0.0011607809870096476 -0.00021746852108546179 0 0.0010975359747805186 -0.00015664118793570791 0 0.0010851435163238045 -0.00030933052333373818 0 0.0010975359747805186 -0.00015664118793570791 0 0.0010851435163238045 -0.00030933052333373818 0 0.00096137539093980352 -0.00029586945589900863 0 0.00096137539093980352 -0.00029586945589900863 0 0.00077260261481277431 -0.00014750784929594773 0 0.00062017979649819151 -0.00038591716710498187 0 0.00096137539093980352 -0.00029586945589900863 0 0.00099458360404700626 -7.7103610682565928e-05 0 0.00077260261481277431 -0.00014750784929594773 0 0.0010975359747805186 -0.00015664118793570791 0 0.00096137539093980352 -0.00029586945589900863 0 0.00099458360404700626 -7.7103610682565928e-05 0 0.0011032565970621256 -7.9476228212716786e-06 0 0.00099458360404700626 -7.7103610682565928e-05 0 0.0010680937637171874 0.00010804946492420579 0 0.0011106319564466024 6.8632859342424452e-05 0 0.0011032565970621256 -7.9476228212716786e-06 0 0.0010680937637171874 0.00010804946492420579 0 0.00099458360404700626 -7.7103610682565928e-05 0 0.00086526792535618758 -2.3584232271987088e-05 0 0.00077260261481277431 -0.00014750784929594773 0 0.00099458360404700626 -7.7103610682565928e-05 0 0.0010680937637171874 0.00010804946492420579 0 0.00086526792535618758 -2.3584232271987088e-05 0 0.0010916430084981117 0.00011399043229296774 0 0.0010680937637171874 0.00010804946492420579 0 0.00099382197276757416 5.8003227816716474e-05 0 0.00086526792535618758 -2.3584232271987088e-05 0 0.00066395922370892399 -1.6270355677854238e-06 0 0.00077260261481277431 -0.00014750784929594773 0 0.0010916430084981117 0.00011399043229296774 0 0.00094002303424843016 0.00016192406877843911 0 0.00099382197276757416 5.8003227816716474e-05 0 0.0010680937637171874 0.00010804946492420579 0 0.00086526792535618758 -2.3584232271987088e-05 0 0.00066395922370892399 -1.6270355677854238e-06 0 0.0010680937637171874 0.00010804946492420579 0 0.00066395922370892399 -1.6270355677854238e-06 0 0.0003098529600571121 0.00014212362947983124 0 0.0010403802291116251 0.0001190855617681812 0 0.00062495192431752541 8.950076890523883e-05 0 0.00066395922370892399 -1.6270355677854238e-06 0 0.00044435448405049288 -0.00017980329673743448 0 0.0003098529600571121 0.00014212362947983124 0 0.00066395922370892399 -1.6270355677854238e-06 0 0.00044435448405049288 -0.00017980329673743448 0 0.00077260261481277431 -0.00014750784929594773 0 0.00044435448405049288 -0.00017980329673743448 0 0.00077260261481277431 -0.00014750784929594773 0 0.00062017979649819151 -0.00038591716710498187 0 0.00044435448405049288 -0.00017980329673743448 0 0.00062017979649819151 -0.00038591716710498187 0 0.00024838933511308405 -0.00049070339424684447 0 0.00062017979649819151 -0.00038591716710498187 0 0.00049940040005256713 -0.00070017157981795035 0 0.00087166471749517576 -0.0004947285760683516 0 0.00062017979649819151 -0.00038591716710498187 0 0.00049940040005256713 -0.00070017157981795035 0 0.00024838933511308405 -0.00049070339424684447 0 0.00049940040005256713 -0.00070017157981795035 0 0.00087166471749517576 -0.0004947285760683516 0 0.00058904000573210412 -0.0012430060876953333 0 0.001026771889699761 -0.00046156346617622914 0 0.00016790687496405214 -0.001054152917556832 0 0.00049940040005256713 -0.00070017157981795035 0 0.0001511355198403411 -0.00092853757213913696 0 0.00058904000573210412 -0.0012430060876953333 0 0.00087166471749517576 -0.0004947285760683516 0 0.0010354185515454842 -0.00047170767211179214 0 0.0010363131358787179 -0.00063717404116499048 0 0.00087166471749517576 -0.0004947285760683516 0 0.0010363131358787179 -0.00063717404116499048 0 0.00089272009443246646 -0.00069369553941614362 0 0.00087166471749517576 -0.0004947285760683516 0 0.00089272009443246646 -0.00069369553941614362 0 0.00075587354336248782 -0.00073080313760028428 0 0.00096137539093980352 -0.00029586945589900863 0 0.00062017979649819151 -0.00038591716710498187 0 0.00087166471749517576 -0.0004947285760683516 0 0.00096137539093980352 -0.00029586945589900863 0 0.00087166471749517576 -0.0004947285760683516 0 0.0010354185515454842 -0.00047170767211179214 0 0.0010354185515454842 -0.00047170767211179214 0 0.0010363131358787179 -0.00063717404116499048 0 0.0011391097377004668 -0.00039052324062490302 0 0.0010851435163238045 -0.00030933052333373818 0 0.00096137539093980352 -0.00029586945589900863 0 0.0010354185515454842 -0.00047170767211179214 0 0.0010851435163238045 -0.00030933052333373818 0 0.0010354185515454842 -0.00047170767211179214 0 0.0011391097377004668 -0.00039052324062490302 0 0.00090919655289339472 -0.00067571757578791967 0 0.0010994256234135864 -0.00042240728439833043 0 0.0013607322597958584 -0.00054622893176036662 0 0.0011151433708282551 -0.00079157872718288121 0 0.0011391097377004668 -0.00039052324062490302 0 0.00071216338503040657 -0.00073200897463760969 0 0.0011151433708282551 -0.00079157872718288121 0 0.0011391097377004668 -0.00039052324062490302 0 -0.00046699000061762653 -2.6496601057498876e-05 0 -0.0011959202132610744 -0.00024864084629863957 0 -0.00078559679340717249 -0.00055654273946519365 0 0.00053257215815074406 -0.00014357124131713318 0 -4.9719343698369633e-05 -0.00033133463010609672 0 0.00022882273708855512 -1.7064240379188696e-05 0 0.00012080634640792099 -0.00012772017369591619 0 -0.0010820241970648861 9.1904812692906399e-05 0 -0.0010820241970648861 9.1904812692906399e-05 0 -0.00041873572912722555 0.00023925919044804258 0 -0.00041873572912722555 0.00023925919044804258 0 0.0011436980315223902 8.4544662220757338e-05 0 -5.2580547799040207e-05 0.00016487752697441768 0 0.00022882273708855512 -1.7064240379188696e-05 0 0.00048412327222610411 0.00018483434883061176 0 -4.9719343698369633e-05 -0.00033133463010609672 0 -5.2580547799040207e-05 0.00016487752697441768 0 0.00022882273708855512 -1.7064240379188696e-05 0 0.00053257215815074406 -0.00014357124131713318 0 0.00022882273708855512 -1.7064240379188696e-05 0 0.00048412327222610411 0.00018483434883061176 0 0.00048412327222610411 0.00018483434883061176 0 0.00073838608329173001 6.0068929288965991e-05 0 0.00094002303424843016 0.00016192406877843911 0 0.00012080634640792099 -0.00012772017369591619 0 0.00062495192431752541 8.950076890523883e-05 0 0.00053257215815074406 -0.00014357124131713318 0 0.00073838608329173001 6.0068929288965991e-05 0 0.00099382197276757416 5.8003227816716474e-05 0 0.00053257215815074406 -0.00014357124131713318 0 0.00048412327222610411 0.00018483434883061176 0 0.00073838608329173001 6.0068929288965991e-05 0 0.0011436980315223902 8.4544662220757338e-05 0 0.0010834891905241919 0.00012500813352757923 0 0.00073838608329173001 6.0068929288965991e-05 0 0.00094002303424843016 0.00016192406877843911 0 0.00099382197276757416 5.8003227816716474e-05 0 0.00044435448405049288 -0.00017980329673743448 0 0.0003098529600571121 0.00014212362947983124 0 4.6031990412759062e-05 -0.00022442776285556978 0 0.00044435448405049288 -0.00017980329673743448 0 4.6031990412759062e-05 -0.00022442776285556978 0 0.00024838933511308405 -0.00049070339424684447 0 -0.00046699000061762653 -2.6496601057498876e-05 0 0.0003098529600571121 0.00014212362947983124 0 4.6031990412759062e-05 -0.00022442776285556978 0 -0.00046699000061762653 -2.6496601057498876e-05 0 4.6031990412759062e-05 -0.00022442776285556978 0 -0.00034376826880257996 -0.00062141311025164085 0 4.6031990412759062e-05 -0.00022442776285556978 0 -0.00034376826880257996 -0.00062141311025164085 0 0.00024838933511308405 -0.00049070339424684447 0 -0.00034376826880257996 -0.00062141311025164085 0 0.00024838933511308405 -0.00049070339424684447 0 0.0001511355198403411 -0.00092853757213913696 0 0.00049940040005256713 -0.00070017157981795035 0 0.00024838933511308405 -0.00049070339424684447 0 0.0001511355198403411 -0.00092853757213913696 0 0.00012463945168404673 -0.00097127069295604898 0 0.00016790687496405214 -0.001054152917556832 0 -7.8580937851992399e-06 -0.00094009881428214486 0 -0.00032546152450731283 -0.0010916773628050129 0 6.4912910629064811e-06 -0.0012593438931353942 0 -0.00034376826880257996 -0.00062141311025164085 0 -7.8580937851992399e-06 -0.00094009881428214486 0 -0.00032546152450731283 -0.0010916773628050129 0 -0.00033888831994620351 -0.00062435140633428608 0 0.00012463945168404673 -0.00097127069295604898 0 -0.00034376826880257996 -0.00062141311025164085 0 -0.00032546152450731283 -0.0010916773628050129 0 -0.00075031722596875534 -0.0010177114984079368 0 -0.00034376826880257996 -0.00062141311025164085 0 -0.00075031722596875534 -0.0010177114984079368 0 -0.00078559679340717249 -0.00055654273946519365 0 -0.00046699000061762653 -2.6496601057498876e-05 0 -0.00034376826880257996 -0.00062141311025164085 0 -0.00078559679340717249 -0.00055654273946519365 0 -0.0010820241970648861 9.1904812692906399e-05 0 -0.0012367947674404808 -0.00070302549276307982 0 -0.0011959202132610744 -0.00024864084629863957 0 -0.00078559679340717249 -0.00055654273946519365 0 -0.0011854395971417149 -0.00092681871809915516 0 -0.00075031722596875534 -0.0010177114984079368 0 -0.00078559679340717249 -0.00055654273946519365 0 -0.0011854395971417149 -0.00092681871809915516 0 -0.0012506281533655669 -0.00047283150053120752 0 -0.0019080244722473731 -0.00074401961606548916 0 -0.0018184442066971238 0.00021325306868630775 0 -0.0018034416373243144 -0.00053786732939260264 0 -0.0019688945027539185 0.00075427595768467375 0 -0.0017695134648398577 -0.00027847146426961003 0 -0.0026019219570044588 0.00018719814070516019 0 -0.0026923843461390731 -0.00055676373132242639 0 -0.0017695134648398577 -0.00027847146426961003 0 -0.002211463742361018 0.00092761297208643909 0 -0.0026019219570044588 0.00018719814070516019 0 -0.0017695134648398577 -0.00027847146426961003 0 -0.002211463742361018 0.00092761297208643909 0 -0.001583278740363248 0.0011229344428444661 0 -0.0020849458115627562 0.00094375348581594691 0 -0.0019688945027539185 0.00075427595768467375 0 -0.002211463742361018 0.00092761297208643909 0 -0.0020862837897926831 0.0010840598364331522 0 -0.0020421970980663046 0.0010436765884608095 0 -0.0012654331111309294 0.00038462489631367201 0 -0.0012506281533655669 -0.00047283150053120752 0 -0.0018184442066971238 0.00021325306868630775 0 -0.0036028889994982956 0.00018485978209895843 0 -0.0031406083761676309 0.00082798851970227328 0 -0.0042089672874243969 0.00036919948548685554 0 -0.0039094671876595197 2.5012976907597131e-05 0 -0.0036028889994982956 0.00018485978209895843 0 -0.0042089672874243969 0.00036919948548685554 0 -0.0039094671876595197 2.5012976907597131e-05 0 -0.0042089672874243969 0.00036919948548685554 0 -0.0040586487881782186 -0.00030105237078252312 0 -0.0039094671876595197 2.5012976907597131e-05 0 -0.003767916892237625 -0.00015431596455741224 0 -0.0040586487881782186 -0.00030105237078252312 0 -0.0039094671876595197 2.5012976907597131e-05 0 -0.003767916892237625 -0.00015431596455741224 0 -0.0036028889994982956 0.00018485978209895843 0 -0.003767916892237625 -0.00015431596455741224 0 -0.0033034444604304845 -0.00023419365383070101 0 -0.0036028889994982956 0.00018485978209895843 0 -0.0033034444604304845 -0.00023419365383070101 0 -0.0036028889994982956 0.00018485978209895843 0 -0.0031466909788280986 0.00028008527592505983 0 -0.0036028889994982956 0.00018485978209895843 0 -0.0031466909788280986 0.00028008527592505983 0 -0.0031406083761676309 0.00082798851970227328 0 -0.0031466909788280986 0.00028008527592505983 0 -0.0026019219570044588 0.00018719814070516019 0 -0.0031406083761676309 0.00082798851970227328 0 -0.0033034444604304845 -0.00023419365383070101 0 -0.0031466909788280986 0.00028008527592505983 0 -0.0026019219570044588 0.00018719814070516019 0 -0.0033034444604304845 -0.00023419365383070101 0 -0.0026019219570044588 0.00018719814070516019 0 -0.0026923843461390731 -0.00055676373132242639 0 -0.002211463742361018 0.00092761297208643909 0 -0.0026019219570044588 0.00018719814070516019 0 -0.0031406083761676309 0.00082798851970227328 0 -0.0021747993162714225 0.0010732901349442016 0 -0.002176055949615736 0.0011228092047877742 0 -0.002211463742361018 0.00092761297208643909 0 -0.0020862837897926831 0.0010840598364331522 0 -0.0031406083761676309 0.00082798851970227328 0 -0.0020862837897926831 0.0010840598364331522 0 -0.0014740474006130584 0.0013518628216310316 0 -0.001812022989411132 0.00091918778737474745 0 -0.0014740474006130584 0.0013518628216310316 0 -0.00096756355180138123 0.001363402533003694 0 -0.00097736385631243326 0.0015656575504426394 0 -0.002176055949615736 0.0011228092047877742 0 -0.0032940455171553075 0.00085667311702359206 0 -0.0014740474006130584 0.0013518628216310316 0 -0.0011274808556156945 0.0010736644816233662 0 -0.00096756355180138123 0.001363402533003694 0 -0.0014740474006130584 0.0013518628216310316 0 -0.0011274808556156945 0.0010736644816233662 0 -0.0014418189391722431 0.00098487913835785244 0 -0.00112857310008271 0.001261690799333515 0 -0.0015714376660299859 0.0012239748007462461 0 -0.0011274808556156945 0.0010736644816233662 0 -0.0012180034936862428 0.00080809974210183978 0 -0.00093704570017640249 0.00068354523032441072 0 -0.0011274808556156945 0.0010736644816233662 0 -0.0012180034936862428 0.00080809974210183978 0 -0.0014418189391722431 0.00098487913835785244 0 -0.0012180034936862428 0.00080809974210183978 0 -0.0014418189391722431 0.00098487913835785244 0 -0.0013588259076315863 0.00065319539299857918 0 -0.0014740474006130584 0.0013518628216310316 0 -0.0014418189391722431 0.00098487913835785244 0 -0.001812022989411132 0.00091918778737474745 0 -0.0014418189391722431 0.00098487913835785244 0 -0.0016257919688394613 0.00065527220462225017 0 -0.0013588259076315863 0.00065319539299857918 0 -0.0014418189391722431 0.00098487913835785244 0 -0.001812022989411132 0.00091918778737474745 0 -0.0016257919688394613 0.00065527220462225017 0 -0.001812022989411132 0.00091918778737474745 0 -0.0016257919688394613 0.00065527220462225017 0 -0.0018444929628235222 0.00039850366878656668 0 -0.0016257919688394613 0.00065527220462225017 0 -0.0016720912252577312 0.00041443654860393519 0 -0.0014495583120550204 0.00045034029804523343 0 -0.0016257919688394613 0.00065527220462225017 0 -0.0016720912252577312 0.00041443654860393519 0 -0.0018444929628235222 0.00039850366878656668 0 -0.0016720912252577312 0.00041443654860393519 0 -0.0014495583120550204 0.00045034029804523343 0 -0.0015016130280365461 0.00026431166825062962 0 -0.0014495583120550204 0.00045034029804523343 0 -0.0015016130280365461 0.00026431166825062962 0 -0.0013040923626988128 0.00026370996856525528 0 -0.0016257919688394613 0.00065527220462225017 0 -0.0014495583120550204 0.00045034029804523343 0 -0.0013588259076315863 0.00065319539299857918 0 -0.0012038797925004096 0.0004897519770163467 0 -0.00094893073694757356 9.423622602470878e-05 0 -0.00093704570017640249 0.00068354523032441072 0 -0.0012180034936862428 0.00080809974210183978 0 -0.0012038797925004096 0.0004897519770163467 0 -0.0013588259076315863 0.00065319539299857918 0 -0.0014495583120550204 0.00045034029804523343 0 -0.0012038797925004096 0.0004897519770163467 0 -0.0013588259076315863 0.00065319539299857918 0 -0.0014495583120550204 0.00045034029804523343 0 -0.0012038797925004096 0.0004897519770163467 0 -0.0013040923626988128 0.00026370996856525528 0 -0.0012180034936862428 0.00080809974210183978 0 -0.0012038797925004096 0.0004897519770163467 0 -0.00093704570017640249 0.00068354523032441072 0 -0.0019688945027539185 0.00075427595768467375 0 -0.0020793062824880286 0.00087651305258642251 0 -0.0021225115750164061 0.00086073056847753326 0 -0.0020535443161910478 0.00088163952082299891 0 -0.0020659220785971301 0.00078065469232015215 0 -0.0010820241970648861 9.1904812692906399e-05 0 -0.0019688945027539185 0.00075427595768467375 0 -0.0020421970980663046 0.0010436765884608095 0 -0.0020313637520696882 0.00090720052302747738 0 -0.0020659220785971301 0.00078065469232015215 0 -0.0020421970980663046 0.0010436765884608095 0 -0.0020441115412480372 0.00099684917676938901 0 -0.0020313637520696882 0.00090720052302747738 0 -0.0020862837897926831 0.0010840598364331522 0 -0.0020421970980663046 0.0010436765884608095 0 -0.0020441115412480372 0.00099684917676938901 0 -0.001812022989411132 0.00091918778737474745 0 -0.0019825325192456321 0.00092756941732488173 0 -0.0019761825853466782 0.00076795930963576128 0 -0.0019825325192456321 0.00092756941732488173 0 -0.0020313637520696882 0.00090720052302747738 0 -0.0019761825853466782 0.00076795930963576128 0 -0.0020862837897926831 0.0010840598364331522 0 -0.0020441115412480372 0.00099684917676938901 0 -0.0019825325192456321 0.00092756941732488173 0 -0.0020862837897926831 0.0010840598364331522 0 -0.001812022989411132 0.00091918778737474745 0 -0.0019825325192456321 0.00092756941732488173 0 -0.0020441115412480372 0.00099684917676938901 0 -0.0019825325192456321 0.00092756941732488173 0 -0.0020313637520696882 0.00090720052302747738 0 -0.0020313637520696882 0.00090720052302747738 0 -0.0019761825853466782 0.00076795930963576128 0 -0.0020659220785971301 0.00078065469232015215 0 -0.0018125150690759461 0.00098402473750396654 0 -0.0016692006381415765 0.00029571768660373548 0 -0.0016720912252577312 0.00041443654860393519 0 -0.0017495386677016985 0.00039666482104899428 0 -0.001647460612073656 0.00019176440594827413 0 -0.0017002762591043308 0.00033301501944069421 0 -0.0016692006381415765 0.00029571768660373548 0 -0.00041873572912722555 0.00023925919044804258 0 -0.0016692006381415765 0.00029571768660373548 0 -0.0021225115750164061 0.00086073056847753326 0 -0.0021404966778719443 0.00076524669757433285 0 -0.0020659220785971301 0.00078065469232015215 0 -0.00042154196034306212 -0.00014791086874650996 0 -0.00084797576287914012 -0.00017547187709652327 0 -0.00057983124948298229 1.4975529470844753e-05 0 -0.0021404966778719443 0.00076524669757433285 0 -0.0019761825853466782 0.00076795930963576128 0 -0.0020659220785971301 0.00078065469232015215 0 -0.00057983124948298229 1.4975529470844753e-05 0 -0.00065724428694054584 0.000294691871927646 0 -0.00075200608611136939 6.0851287180065688e-05 0 -0.0004232955455860553 0.0001552698058136098 0 -0.00042154196034306212 -0.00014791086874650996 0 -0.00057983124948298229 1.4975529470844753e-05 0 0.0012881736562684086 -4.8043628255976547e-05 0 0.0012906116408402547 -2.1934806209164251e-06 0 0.0012130233989614972 -8.2042558455403301e-06 0 -0.0004232955455860553 0.0001552698058136098 0 -0.00057983124948298229 1.4975529470844753e-05 0 -0.00065724428694054584 0.000294691871927646 0 0.00093379212013680753 7.4693080550518239e-05 0 -0.00046031689404433504 -0.00024540999413746135 0 -0.0018986993583453868 -0.00023918817021320086 0 -0.001587409149783454 -0.0001138285828517991 0 -0.0018064461621292119 8.5737406027912419e-05 0 -0.0018986993583453868 -0.00023918817021320086 0 -0.001587409149783454 -0.0001138285828517991 0 -0.0015390747424662674 -0.00043218064942938516 0 -0.00046031689404433504 -0.00024540999413746135 0 -0.0012903629018266539 6.6453377375027991e-05 0 -0.0017495386677016985 0.00039666482104899428 0 -0.0018064461621292119 8.5737406027912419e-05 0 -0.001647460612073656 0.00019176440594827413 0 -0.0016692006381415765 0.00029571768660373548 0 -0.0012903629018266539 6.6453377375027991e-05 0 -0.00084797576287914012 -0.00017547187709652327 0 -0.00057983124948298229 1.4975529470844753e-05 0 -0.00075200608611136939 6.0851287180065688e-05 0 -0.001587409149783454 -0.0001138285828517991 0 -0.0018064461621292119 8.5737406027912419e-05 0 -0.001647460612073656 0.00019176440594827413 0 -0.001587409149783454 -0.0001138285828517991 0 -0.001647460612073656 0.00019176440594827413 0 -0.0013772692397349103 2.7466930942465358e-06 0 -0.001647460612073656 0.00019176440594827413 0 -0.0015016130280365461 0.00026431166825062962 0 -0.0013772692397349103 2.7466930942465358e-06 0 -0.0016720912252577312 0.00041443654860393519 0 -0.001647460612073656 0.00019176440594827413 0 -0.0015016130280365461 0.00026431166825062962 0 -0.0015016130280365461 0.00026431166825062962 0 -0.0013772692397349103 2.7466930942465358e-06 0 -0.0013040923626988128 0.00026370996856525528 0 -0.0013772692397349103 2.7466930942465358e-06 0 -0.0010858586020810093 -0.00016388909783357416 0 -0.00094893073694757356 9.423622602470878e-05 0 -0.0013772692397349103 2.7466930942465358e-06 0 -0.0013040923626988128 0.00026370996856525528 0 -0.00094893073694757356 9.423622602470878e-05 0 -0.0012038797925004096 0.0004897519770163467 0 -0.0013040923626988128 0.00026370996856525528 0 -0.00094893073694757356 9.423622602470878e-05 0 -0.0013772692397349103 2.7466930942465358e-06 0 -0.0010858586020810093 -0.00016388909783357416 0 -0.0012500276771282308 -0.00030735990882828373 0 -0.0010858586020810093 -0.00016388909783357416 0 -0.0012500276771282308 -0.00030735990882828373 0 -0.0010186282899604332 -0.00046783904378347219 0 -0.001587409149783454 -0.0001138285828517991 0 -0.0012500276771282308 -0.00030735990882828373 0 -0.0015390747424662674 -0.00043218064942938516 0 -0.001587409149783454 -0.0001138285828517991 0 -0.0013772692397349103 2.7466930942465358e-06 0 -0.0012500276771282308 -0.00030735990882828373 0 -0.0010781108372426929 -0.00052363623039207343 0 -0.00086480476920142223 -0.00061829933690108277 0 -0.00073046625075774327 -0.00091550575945107933 0 -0.0012500276771282308 -0.00030735990882828373 0 -0.0010781108372426929 -0.00052363623039207343 0 -0.0015390747424662674 -0.00043218064942938516 0 -0.0010797857181279594 -0.00057331246376813737 0 -0.0011919270369375873 -0.00064811019963057447 0 -0.0012500276771282308 -0.00030735990882828373 0 -0.0010781108372426929 -0.00052363623039207343 0 -0.0010186282899604332 -0.00046783904378347219 0 -0.0010781108372426929 -0.00052363623039207343 0 -0.0010438795439374707 -0.00049014592249658497 0 -0.0010186282899604332 -0.00046783904378347219 0 0.00079637520290004322 0.00043500014569206519 0 0.0006956484651971127 0.00044784434044227228 0 0.00080545719507020563 0.0004697159099657694 0 0.00074219350131232752 0.00039536456315756994 0 0.00079637520290004322 0.00043500014569206519 0 0.0006956484651971127 0.00044784434044227228 0 -0.00016289197636574018 -1.6788107512521082e-05 0 -0.00014166653570075086 -2.6314282157160978e-07 0 -0.00086480476920142223 -0.00061829933690108277 0 -0.0010438795439374707 -0.00049014592249658497 0 -0.00053065884551930121 -0.00052234903637596189 0 -0.0010781108372426929 -0.00052363623039207343 0 -0.00086480476920142223 -0.00061829933690108277 0 -0.0010438795439374707 -0.00049014592249658497 0 -0.00053065884551930121 -0.00052234903637596189 0 -0.00010018374288119508 -0.00067303613164937945 0 -0.00073046625075774327 -0.00091550575945107933 0 -0.00086480476920142223 -0.00061829933690108277 0 -0.00053065884551930121 -0.00052234903637596189 0 -0.00073046625075774327 -0.00091550575945107933 0 0.00012413986087692153 -0.00018709409834460669 0 -0.00053065884551930121 -0.00052234903637596189 0 -0.00010018374288119508 -0.00067303613164937945 0 0.00067947775744525111 2.7938146959815112e-05 0 0.00063880874365814736 -0.0003367793342793079 0 -0.00046031689404433504 -0.00024540999413746135 0 0.00063880874365814736 -0.0003367793342793079 0 0.0012830191628115709 3.0978880724773737e-05 0 0.0012130233989614972 -8.2042558455403301e-06 0 0.0012348400244276126 6.0607339595614715e-05 0 0.0012830191628115709 3.0978880724773737e-05 0 0.0012906116408402547 -2.1934806209164251e-06 0 0.0012130233989614972 -8.2042558455403301e-06 0 -0.00046031689404433504 -0.00024540999413746135 0 -0.0011919270369375873 -0.00064811019963057447 0 -0.0003096785407660079 -0.0011726284008838717 0 -0.00010018374288119508 -0.00067303613164937945 0 -0.00073046625075774327 -0.00091550575945107933 0 0.00080333682768404151 0.00044986121959910742 0 0.00074263516670463518 0.00045124027394749072 0 0.00074677168969546949 0.0004437087621741084 0 0.00080333682768404151 0.00044986121959910742 0 0.00077736583716642453 0.00044532534484061222 0 0.00074677168969546949 0.0004437087621741084 0 0.0018512902629317727 0.00048597831964985051 0 0.0017317089784984138 0.00086088245473986457 0 0.0014320680715713817 0.00058824622785379969 0 0.0012130475104520679 0.00063689903950903798 0 0.0011417300272833569 0.00050722278157388123 0 0.00080333682768404151 0.00044986121959910742 0 0.00074263516670463518 0.00045124027394749072 0 0.00085664576259868706 0.00044684285779757963 0 0.00089194957101828816 0.00040457643889213403 0 0.00085664576259868706 0.00044684285779757963 0 0.00084255307782595543 0.00044706633280601542 0 0.00080333682768404151 0.00044986121959910742 0 0.00085664576259868706 0.00044684285779757963 0 0.00084255307782595543 0.00044706633280601542 0 0.00079637520290004322 0.00043500014569206519 0 0.00084255307782595543 0.00044706633280601542 0 0.00080545719507020563 0.0004697159099657694 0 0.00089194957101828816 0.00040457643889213403 0 0.00079637520290004322 0.00043500014569206519 0 0.00084255307782595543 0.00044706633280601542 0 0.00084255307782595543 0.00044706633280601542 0 0.00080545719507020563 0.0004697159099657694 0 0.00080691873107363414 0.00045465947261103651 0 0.00080333682768404151 0.00044986121959910742 0 0.00084255307782595543 0.00044706633280601542 0 0.00080691873107363414 0.00045465947261103651 0 0.00080333682768404151 0.00044986121959910742 0 0.00080691873107363414 0.00045465947261103651 0 0.00077736583716642453 0.00044532534484061222 0 0.00077736583716642453 0.00044532534484061222 0 0.00073416460270403234 0.00045130178719530258 0 0.00070402859234180439 0.00045013892697829099 0 0.00080691873107363414 0.00045465947261103651 0 0.00077736583716642453 0.00044532534484061222 0 0.00078805192755536336 0.00042588828528782583 0 0.00059510663812983357 0.00044729184998895644 0 0.00029602767935165433 0.00015541112694865693 0 0.00080545719507020563 0.0004697159099657694 0 0.00080691873107363414 0.00045465947261103651 0 0.00078805192755536336 0.00042588828528782583 0 -0.00014166653570075086 -2.6314282157160978e-07 0 0.00029602767935165433 0.00015541112694865693 0 -0.0010186282899604332 -0.00046783904378347219 0 -0.00057704628882635151 -7.7743348067242852e-05 0 -0.00085583481727198433 -7.4393943189139696e-05 0 -0.0010858586020810093 -0.00016388909783357416 0 -0.0010186282899604332 -0.00046783904378347219 0 -0.00085583481727198433 -7.4393943189139696e-05 0 -0.0010858586020810093 -0.00016388909783357416 0 -0.00085583481727198433 -7.4393943189139696e-05 0 -0.00094893073694757356 9.423622602470878e-05 0 -0.00085583481727198433 -7.4393943189139696e-05 0 -0.00094893073694757356 9.423622602470878e-05 0 -0.0006475523449440678 0.00022756966558621158 0 0.00029602767935165433 0.00015541112694865693 0 -2.7483273678761393e-05 0.00037927640929569955 0 0.00070487013670004171 0.00045932334109605557 0 0.00070402859234180439 0.00045013892697829099 0 0.00067236430732508525 0.00045074314635906905 0 -0.00057704628882635151 -7.7743348067242852e-05 0 -0.00085583481727198433 -7.4393943189139696e-05 0 -0.0006475523449440678 0.00022756966558621158 0 0.00073416460270403234 0.00045130178719530258 0 0.00070487013670004171 0.00045932334109605557 0 0.00070402859234180439 0.00045013892697829099 0 0.00070402859234180439 0.00045013892697829099 0 0.00061646796559088589 0.00045739938732247974 0 0.00067236430732508525 0.00045074314635906905 0 0.00070402859234180439 0.00045013892697829099 0 0.00070432055634753502 0.00044087258425414976 0 0.00061646796559088589 0.00045739938732247974 0 0.00077736583716642453 0.00044532534484061222 0 0.00070402859234180439 0.00045013892697829099 0 0.00074677168969546949 0.0004437087621741084 0 0.00070402859234180439 0.00045013892697829099 0 0.00074677168969546949 0.0004437087621741084 0 0.00070432055634753502 0.00044087258425414976 0 0.00074263516670463518 0.00045124027394749072 0 0.00074677168969546949 0.0004437087621741084 0 0.00070432055634753502 0.00044087258425414976 0 0.0007118376931024024 0.00047075949916308598 0 0.00070432055634753502 0.00044087258425414976 0 0.00061646796559088589 0.00045739938732247974 0 0.00037307904437393759 0.00050665944987620781 0 0.00061646796559088589 0.00045739938732247974 0 0.00043956720977568605 0.00033202791186960628 0 0.00047151691589217856 0.00045982425257949178 0 0.00064020748484393351 0.00046661760968925585 0 0.00061646796559088589 0.00045739938732247974 0 0.00067236430732508525 0.00045074314635906905 0 0.0006549812547333721 0.00040724517280502011 0 0.00061646796559088589 0.00045739938732247974 0 0.00053295423828473849 0.00031204861073155538 0 0.0006549812547333721 0.00040724517280502011 0 0.00053295423828473849 0.00031204861073155538 0 0.0006549812547333721 0.00040724517280502011 0 0.00061766070493132817 0.00031046405381175197 0 0.00061646796559088589 0.00045739938732247974 0 0.00053295423828473849 0.00031204861073155538 0 0.00043956720977568605 0.00033202791186960628 0 -0.00096143146786335321 0.00013356501316139034 0 -0.00087838569959389212 0.00058099518141995605 0 -0.00094893073694757356 9.423622602470878e-05 0 -0.0006475523449440678 0.00022756966558621158 0 -0.00095131605768439525 0.00052559765871296486 0 -0.0006475523449440678 0.00022756966558621158 0 -0.00075249279633864716 0.00067925985977444769 0 -0.00095131605768439525 0.00052559765871296486 0 0.00070487013670004171 0.00045932334109605557 0 0.0006549812547333721 0.00040724517280502011 0 0.00074882509418432402 0.00036233732502979421 0 0.00070487013670004171 0.00045932334109605557 0 0.00067236430732508525 0.00045074314635906905 0 0.0006549812547333721 0.00040724517280502011 0 -2.7483273678761393e-05 0.00037927640929569955 0 0.00039004725562934275 0.00043325868668542511 0 0.0006549812547333721 0.00040724517280502011 0 0.00061766070493132817 0.00031046405381175197 0 0.00074882509418432402 0.00036233732502979421 0 -0.0011274808556156945 0.0010736644816233662 0 -0.00093704570017640249 0.00068354523032441072 0 -0.00094956591559806425 0.0013680092663749196 0 -0.00075249279633864716 0.00067925985977444769 0 -0.00095131605768439525 0.00052559765871296486 0 -0.00096845814371468106 0.00092402160633452645 0 -0.00087838569959389212 0.00058099518141995605 0 -0.0015714376660299859 0.0012239748007462461 0 0.00039004725562934275 0.00043325868668542511 0 -0.0028616002963815761 0.0006856680733505682 0 -0.00075249279633864716 0.00067925985977444769 0 -0.00096845814371468106 0.00092402160633452645 0 -0.00085887214755797615 0.001102244673910598 0 -0.0015714376660299859 0.0012239748007462461 0 -0.0032940455171553075 0.00085667311702359206 0 0.00074882509418432402 0.00036233732502979421 0 0.00068420313702137621 0.0001850827911133081 0 0.00089784515535267493 6.221498292928447e-06 0 0.00061766070493132817 0.00031046405381175197 0 0.00074882509418432402 0.00036233732502979421 0 0.00068420313702137621 0.0001850827911133081 0 0.00061766070493132817 0.00031046405381175197 0 0.00068420313702137621 0.0001850827911133081 0 0.00049996448870751769 0.00022092551763921593 0 0.00068420313702137621 0.0001850827911133081 0 0.00063648369246903922 2.0763181023432553e-05 0 0.00049996448870751769 0.00022092551763921593 0 -0.0050808027414430889 0.00078761917582264966 0 -0.0057242719617301794 0.00048564517215247168 0 -0.0053434883994690598 0.00056113968535507043 0 0.00068420313702137621 0.0001850827911133081 0 0.00063648369246903922 2.0763181023432553e-05 0 0.00089784515535267493 6.221498292928447e-06 0 0.00063648369246903922 2.0763181023432553e-05 0 0.00089784515535267493 6.221498292928447e-06 0 0.00044321260000613778 -0.00036059978394799731 0 -0.0028616002963815761 0.0006856680733505682 0 -0.0025012425869727485 4.6078394534025806e-05 0 -0.0055828771541182425 0.0011312339399632222 0 -0.005436666340620731 0.00126108291369717 0 -0.0055293302902298409 0.00097408150662466281 0 -0.0028616002963815761 0.0006856680733505682 0 -0.0032202186562230394 0.00097956695625009741 0 -0.0022929724534052542 0.0011859314576407626 0 -0.0027289263013832179 0.00054104234989768097 0 -0.0022896103288059279 0.00074580016481848982 0 -0.0055893530038091145 0.0011947436654289598 0 -0.0055828771541182425 0.0011312339399632222 0 -0.005436666340620731 0.00126108291369717 0 -0.0015714376660299859 0.0012239748007462461 0 -0.0028616002963815761 0.0006856680733505682 0 -0.0028616002963815761 0.0006856680733505682 0 -0.0032940455171553075 0.00085667311702359206 0 0.00041231165989315222 0.00018612558168671655 0 0.00053295423828473849 0.00031204861073155538 0 0.00043956720977568605 0.00033202791186960628 0 -2.9521503420264985e-05 0.00019464274872871631 0 0.00045137176577986465 0.00022775593091544518 0 0.00041231165989315222 0.00018612558168671655 0 0.00053295423828473849 0.00031204861073155538 0 0.00049996448870751769 0.00022092551763921593 0 0.00053295423828473849 0.00031204861073155538 0 0.00061766070493132817 0.00031046405381175197 0 0.00049996448870751769 0.00022092551763921593 0 0.00063648369246903922 2.0763181023432553e-05 0 0.00049996448870751769 0.00022092551763921593 0 0.00044321260000613778 -0.00036059978394799731 0 0.00049996448870751769 0.00022092551763921593 0 -9.7242907341458181e-05 -0.00022936667013943911 0 0.00044321260000613778 -0.00036059978394799731 0 -0.00054306850260872922 0.00023075327126778215 0 0.00049996448870751769 0.00022092551763921593 0 -9.7242907341458181e-05 -0.00022936667013943911 0 -0.00054306850260872922 0.00023075327126778215 0 -9.7242907341458181e-05 -0.00022936667013943911 0 -0.00056603220962500502 -0.00039141686633143542 0 -0.0032919413669792925 -0.0003279816837546533 0 -0.0025012425869727485 4.6078394534025806e-05 0 -9.7242907341458181e-05 -0.00022936667013943911 0 -0.00037215204994756285 -0.00082530987339852742 0 -0.00056603220962500502 -0.00039141686633143542 0 -9.7242907341458181e-05 -0.00022936667013943911 0 -0.00037215204994756285 -0.00082530987339852742 0 0.00044321260000613778 -0.00036059978394799731 0 -0.0061920011201580189 0.00018753393850280011 0 -0.0057242719617301794 0.00048564517215247168 0 -0.0060194510072511739 0.00011129045201769903 0 -0.0057242719617301794 0.00048564517215247168 0 -0.005856801885747707 7.5980035125999536e-05 0 -0.0060194510072511739 0.00011129045201769903 0 -0.0057242719617301794 0.00048564517215247168 0 -0.005856801885747707 7.5980035125999536e-05 0 -0.0054896573965687156 0.00020301174750893023 0 -0.0060701381159829464 0.00044434586489245563 0 -0.0059770683583074743 0.00010217643966559811 0 -0.005856801885747707 7.5980035125999536e-05 0 -0.0060936678228412713 -7.5098269635668046e-05 0 -0.005885859436905976 -0.00018669518240768354 0 -0.005856801885747707 7.5980035125999536e-05 0 -0.0054896573965687156 0.00020301174750893023 0 -0.005885859436905976 -0.00018669518240768354 0 -0.0062040273623238697 9.9932812857640706e-06 0 -0.0060194510072511739 0.00011129045201769903 0 -0.0060936678228412713 -7.5098269635668046e-05 0 -0.005856801885747707 7.5980035125999536e-05 0 -0.0060194510072511739 0.00011129045201769903 0 -0.0060936678228412713 -7.5098269635668046e-05 0 -0.0062040273623238697 9.9932812857640706e-06 0 -0.0060936678228412713 -7.5098269635668046e-05 0 -0.0062761398542862286 -0.00011199365099291795 0 -0.0061920011201580189 0.00018753393850280011 0 -0.0062040273623238697 9.9932812857640706e-06 0 -0.0060194510072511739 0.00011129045201769903 0 -0.005436666340620731 0.00126108291369717 0 -0.0055293302902298409 0.00097408150662466281 0 -0.0054715733206223017 0.00072757474444469863 0 -0.0032940455171553075 0.00085667311702359206 0 -0.0050914298385803464 -0.00016846326331950516 0 -0.0055890604871784008 0.0011951089747700753 0 -0.0055828771541182425 0.0011312339399632222 0 -0.0058980234752368625 0.00075885177934456962 0 -0.0055828771541182425 0.0011312339399632222 0 -0.0056639267483198632 0.00086145396319259652 0 -0.0058980234752368625 0.00075885177934456962 0 -0.0042089672874243969 0.00036919948548685554 0 -0.0042674451282575208 -0.0010894785090296817 0 -0.0040586487881782186 -0.00030105237078252312 0 -0.0055304971567530416 0.00084406777474156582 0 -0.0055293302902298409 0.00097408150662466281 0 -0.0054715733206223017 0.00072757474444469863 0 -0.0055481566264138178 0.00076985558378777372 0 -0.0055304971567530416 0.00084406777474156582 0 -0.0054715733206223017 0.00072757474444469863 0 -0.0055481566264138178 0.00076985558378777372 0 -0.0055304971567530416 0.00084406777474156582 0 -0.0055860877821505735 0.00082496808394542053 0 -0.0055304971567530416 0.00084406777474156582 0 -0.005573930389927163 0.00089327602644614511 0 -0.0055860877821505735 0.00082496808394542053 0 -0.0055293302902298409 0.00097408150662466281 0 -0.005573930389927163 0.00089327602644614511 0 -0.005580317846269508 0.00098710699618590912 0 -0.0055304971567530416 0.00084406777474156582 0 -0.0055293302902298409 0.00097408150662466281 0 -0.005573930389927163 0.00089327602644614511 0 -0.005573930389927163 0.00089327602644614511 0 -0.005580317846269508 0.00098710699618590912 0 -0.0056639267483198632 0.00086145396319259652 0 -0.0055828771541182425 0.0011312339399632222 0 -0.005580317846269508 0.00098710699618590912 0 -0.0056639267483198632 0.00086145396319259652 0 -0.0055828771541182425 0.0011312339399632222 0 -0.0055293302902298409 0.00097408150662466281 0 -0.005580317846269508 0.00098710699618590912 0 -0.005573930389927163 0.00089327602644614511 0 -0.0056639267483198632 0.00086145396319259652 0 -0.0055860877821505735 0.00082496808394542053 0 -0.0055481566264138178 0.00076985558378777372 0 -0.0055860877821505735 0.00082496808394542053 0 -0.0056116216390933241 0.00074100857671877422 0 -0.0056639267483198632 0.00086145396319259652 0 -0.0055860877821505735 0.00082496808394542053 0 -0.0056116216390933241 0.00074100857671877422 0 -0.0056639267483198632 0.00086145396319259652 0 -0.005748031495067669 0.0007322122643864062 0 -0.0056116216390933241 0.00074100857671877422 0 -0.0028616002963815761 0.0006856680733505682 0 -0.0060701381159829464 0.00044434586489245563 0 -0.0050808027414430889 0.00078761917582264966 0 -0.0053434883994690598 0.00056113968535507043 0 -0.0054896573965687156 0.00020301174750893023 0 -0.0056639267483198632 0.00086145396319259652 0 -0.0058980234752368625 0.00075885177934456962 0 -0.005748031495067669 0.0007322122643864062 0 -0.0057242719617301794 0.00048564517215247168 0 -0.0053434883994690598 0.00056113968535507043 0 -0.0054896573965687156 0.00020301174750893023 0 -0.0058980234752368625 0.00075885177934456962 0 -0.0058504214847273119 0.00049846860474253953 0 -0.0061975945482206311 0.0003282706087351617 0 -0.0058504214847273119 0.00049846860474253953 0 -0.005748031495067669 0.0007322122643864062 0 -0.0056758744607991974 0.0006222101053153028 0 -0.0058980234752368625 0.00075885177934456962 0 -0.0058504214847273119 0.00049846860474253953 0 -0.005748031495067669 0.0007322122643864062 0 -0.0055450481312746339 0.00046398849791948128 0 -0.0054715733206223017 0.00072757474444469863 0 -0.0054660554560562674 0.00018194436065929485 0 -0.005748031495067669 0.0007322122643864062 0 -0.0056116216390933241 0.00074100857671877422 0 -0.0056758744607991974 0.0006222101053153028 0 -0.0056116216390933241 0.00074100857671877422 0 -0.0056758744607991974 0.0006222101053153028 0 -0.0055751898678074877 0.00063349688440429827 0 -0.0058504214847273119 0.00049846860474253953 0 -0.0056758744607991974 0.0006222101053153028 0 -0.0056929355981893744 0.00041190758021255247 0 -0.0056758744607991974 0.0006222101053153028 0 -0.005611388246598091 0.00053420759906862021 0 -0.0056929355981893744 0.00041190758021255247 0 -0.005611388246598091 0.00053420759906862021 0 -0.0055450481312746339 0.00046398849791948128 0 -0.0056929355981893744 0.00041190758021255247 0 -0.0056758744607991974 0.0006222101053153028 0 -0.005611388246598091 0.00053420759906862021 0 -0.0055751898678074877 0.00063349688440429827 0 -0.005611388246598091 0.00053420759906862021 0 -0.0055450481312746339 0.00046398849791948128 0 -0.0055751898678074877 0.00063349688440429827 0 -0.0055450481312746339 0.00046398849791948128 0 -0.0055751898678074877 0.00063349688440429827 0 -0.0054715733206223017 0.00072757474444469863 0 -0.0055481566264138178 0.00076985558378777372 0 -0.0055513972112026513 0.00071795713579391721 0 -0.0054715733206223017 0.00072757474444469863 0 -0.0056116216390933241 0.00074100857671877422 0 -0.0055751898678074877 0.00063349688440429827 0 -0.0055513972112026513 0.00071795713579391721 0 -0.0055751898678074877 0.00063349688440429827 0 -0.0055513972112026513 0.00071795713579391721 0 -0.0054715733206223017 0.00072757474444469863 0 -0.0055481566264138178 0.00076985558378777372 0 -0.0056116216390933241 0.00074100857671877422 0 -0.0055513972112026513 0.00071795713579391721 0 -0.0050914298385803464 -0.00016846326331950516 0 -0.0049025655396475066 -0.00052642575577236165 0 -0.0054660554560562674 0.00018194436065929485 0 -0.0055923367101922963 0.00031755193836480541 0 -0.0056671578852979737 0.00021488662203460597 0 -0.0055450481312746339 0.00046398849791948128 0 -0.0054660554560562674 0.00018194436065929485 0 -0.0055923367101922963 0.00031755193836480541 0 -0.0055450481312746339 0.00046398849791948128 0 -0.0055923367101922963 0.00031755193836480541 0 -0.0056929355981893744 0.00041190758021255247 0 -0.0055923367101922963 0.00031755193836480541 0 -0.0056929355981893744 0.00041190758021255247 0 -0.0056671578852979737 0.00021488662203460597 0 -0.0058504214847273119 0.00049846860474253953 0 -0.0059122078041165572 0.00023565713975184151 0 -0.0061975945482206311 0.0003282706087351617 0 -0.0056929355981893744 0.00041190758021255247 0 -0.0056671578852979737 0.00021488662203460597 0 -0.0059122078041165572 0.00023565713975184151 0 -0.0058504214847273119 0.00049846860474253953 0 -0.0056929355981893744 0.00041190758021255247 0 -0.0059122078041165572 0.00023565713975184151 0 -0.0059122078041165572 0.00023565713975184151 0 -0.005888288899005065 5.1370792974668076e-06 0 -0.0061587027853385583 -2.7523870053992895e-06 0 -0.0056671578852979737 0.00021488662203460597 0 -0.0059122078041165572 0.00023565713975184151 0 -0.005888288899005065 5.1370792974668076e-06 0 -0.0054660554560562674 0.00018194436065929485 0 -0.0055624102074222481 -0.00014528977425114049 0 -0.0054366288981713591 -0.00050630000867927215 0 -0.0049025655396475066 -0.00052642575577236165 0 -0.0051687958405343759 -0.0006916487015065654 0 -0.0056671578852979737 0.00021488662203460597 0 -0.005888288899005065 5.1370792974668076e-06 0 -0.0055678311756999378 -2.572538739237587e-05 0 -0.0056466126036227148 0.00015940557407351599 0 -0.0055698000824015576 -3.3741708235460053e-05 0 -0.0054660554560562674 0.00018194436065929485 0 -0.0056671578852979737 0.00021488662203460597 0 -0.0055624102074222481 -0.00014528977425114049 0 -0.0060936678228412713 -7.5098269635668046e-05 0 -0.005885859436905976 -0.00018669518240768354 0 -0.0062514834885366594 -0.00027204450452288895 0 -0.0060936678228412713 -7.5098269635668046e-05 0 -0.0062514834885366594 -0.00027204450452288895 0 -0.0062761398542862286 -0.00011199365099291795 0 -0.0059122078041165572 0.00023565713975184151 0 -0.0061975945482206311 0.0003282706087351617 0 -0.0061587027853385583 -2.7523870053992895e-06 0 -0.0061975945482206311 0.0003282706087351617 0 -0.0061587027853385583 -2.7523870053992895e-06 0 -0.0064494198961789519 -0.00012524301881988123 0 -0.0059770683583074743 0.00010217643966559811 0 -0.0063277995163009103 -0.00025332810989589575 0 -0.0062044560399071788 -0.00038673306336598591 0 -0.0062514834885366594 -0.00027204450452288895 0 -0.0064057948385011559 -0.00038467775270285462 0 -0.005885859436905976 -0.00018669518240768354 0 -0.0062044560399071788 -0.00038673306336598591 0 -0.0062514834885366594 -0.00027204450452288895 0 -0.0063277995163009103 -0.00025332810989589575 0 -0.0064577804764787217 -0.00042024918420995613 0 -0.0064494198961789519 -0.00012524301881988123 0 -0.0064065795965773525 -0.00040775911250030188 0 -0.0064801481073613193 -0.00044568238110837417 0 -0.0064065795965773525 -0.00040775911250030188 0 -0.0064686825535170142 -0.00050644745758952686 0 -0.0064801481073613193 -0.00044568238110837417 0 -0.0064065795965773525 -0.00040775911250030188 0 -0.0061817935574909897 -0.00028194172556482363 0 -0.0063667952074545255 -0.00054686217521548303 0 -0.0064065795965773525 -0.00040775911250030188 0 -0.0064686825535170142 -0.00050644745758952686 0 -0.0063667952074545255 -0.00054686217521548303 0 -0.0061587027853385583 -2.7523870053992895e-06 0 -0.0064494198961789519 -0.00012524301881988123 0 -0.0061817935574909897 -0.00028194172556482363 0 -0.0064494198961789519 -0.00012524301881988123 0 -0.0064065795965773525 -0.00040775911250030188 0 -0.0061817935574909897 -0.00028194172556482363 0 -0.005888288899005065 5.1370792974668076e-06 0 -0.0061587027853385583 -2.7523870053992895e-06 0 -0.0061817935574909897 -0.00028194172556482363 0 -0.005888288899005065 5.1370792974668076e-06 0 -0.0061817935574909897 -0.00028194172556482363 0 -0.0058003440165740041 -0.000254339505747652 0 -0.005888288899005065 5.1370792974668076e-06 0 -0.0055678311756999378 -2.572538739237587e-05 0 -0.0058003440165740041 -0.000254339505747652 0 -0.0055698000824015576 -3.3741708235460053e-05 0 -0.0051687958405343759 -0.0006916487015065654 0 -0.0055678311756999378 -2.572538739237587e-05 0 -0.0058003440165740041 -0.000254339505747652 0 -0.0053778119445694822 -0.00034619274428926894 0 -0.0058003440165740041 -0.000254339505747652 0 -0.0053778119445694822 -0.00034619274428926894 0 -0.0055730468104274134 -0.00047824161805531929 0 -0.0051687958405343759 -0.0006916487015065654 0 -0.0052151474682390385 -0.00052279981309139728 0 -0.0058003440165740041 -0.000254339505747652 0 -0.0055730468104274134 -0.00047824161805531929 0 -0.0057860860491769448 -0.00074930257280897688 0 -0.0053437163773934543 -0.00047832391461437968 0 -0.0054701041355700317 -0.00072673506971919607 0 -0.0050784676146506018 -0.00091202620279986666 0 -0.0053437163773934543 -0.00047832391461437968 0 -0.0055730468104274134 -0.00047824161805531929 0 -0.0054701041355700317 -0.00072673506971919607 0 -0.0053778119445694822 -0.00034619274428926894 0 -0.0053437163773934543 -0.00047832391461437968 0 -0.0055730468104274134 -0.00047824161805531929 0 -0.0055730468104274134 -0.00047824161805531929 0 -0.0054701041355700317 -0.00072673506971919607 0 -0.0057860860491769448 -0.00074930257280897688 0 -0.0061817935574909897 -0.00028194172556482363 0 -0.0059425284403478232 -0.00053131216776024866 0 -0.0063667952074545255 -0.00054686217521548303 0 -0.0058081823191596296 -0.00027032861068873967 0 -0.0058370934423960866 -0.00064808025948142819 0 -0.0061817935574909897 -0.00028194172556482363 0 -0.0058003440165740041 -0.000254339505747652 0 -0.0059425284403478232 -0.00053131216776024866 0 -0.0059425284403478232 -0.00053131216776024866 0 -0.0060053489604594158 -0.00093822425023723944 0 -0.0063667952074545255 -0.00054686217521548303 0 -0.0058370934423960866 -0.00064808025948142819 0 -0.0064952341489854177 -0.00095453505047170348 0 -0.0064952341489854177 -0.00095453505047170348 0 -0.006338408108294202 -0.00051827874087639924 0 -0.0057860860491769448 -0.00074930257280897688 0 -0.0055381201403494626 -0.0010146898077745888 0 -0.0058268795123438497 -0.0012734993124116844 0 -0.0054701041355700317 -0.00072673506971919607 0 -0.0055381201403494626 -0.0010146898077745888 0 -0.0050784676146506018 -0.00091202620279986666 0 -0.0055381201403494626 -0.0010146898077745888 0 -0.0052952882584332882 -0.0013008547768081421 0 -0.0058268795123438497 -0.0012734993124116844 0 -0.0055381201403494626 -0.0010146898077745888 0 -0.0052952882584332882 -0.0013008547768081421 0 -0.0050784676146506018 -0.00091202620279986666 0 -0.0054701041355700317 -0.00072673506971919607 0 -0.0057860860491769448 -0.00074930257280897688 0 -0.0055381201403494626 -0.0010146898077745888 0 -0.0064952341489854177 -0.00095453505047170348 0 -0.006312953875114883 -0.0014229236794884141 0 -0.0052952882584332882 -0.0013008547768081421 0 -0.0058268795123438497 -0.0012734993124116844 0 -0.0052065762514455511 -0.0017515214995728876 0 -0.0074255745842683411 -0.0010324520200836501 0 -0.0074085015370302246 -0.0010914773566657173 0 -0.0073551259794796264 -0.0010817758749354684 0 -0.0065653522275525107 -0.00051534376671614644 0 -0.0065885850240201896 -0.00050046431013768132 0 -0.0065478940003770008 -0.00050382725637497516 0 -0.0074255745842683411 -0.0010324520200836501 0 -0.0074367080500229504 -0.0011178643938731952 0 -0.0074085015370302246 -0.0010914773566657173 0 -0.0064952341489854177 -0.00095453505047170348 0 -0.00703330265786869 -0.00078184901794500707 0 -0.0065653522275525107 -0.00051534376671614644 0 -0.0065885850240201896 -0.00050046431013768132 0 -0.0065865203767855379 -0.00050796491528696142 0 -0.0065653522275525107 -0.00051534376671614644 0 -0.0065478940003770008 -0.00050382725637497516 0 -0.006474315619604913 -0.00052269504969137211 0 -0.0065885850240201896 -0.00050046431013768132 0 -0.0065478940003770008 -0.00050382725637497516 0 -0.0066122545535644726 -0.00049127973026644872 0 -0.0065478940003770008 -0.00050382725637497516 0 -0.0065364990379081604 -0.00050824340011311692 0 -0.006474315619604913 -0.00052269504969137211 0 -0.0065478940003770008 -0.00050382725637497516 0 -0.0065771726668546141 -0.0004987380357333595 0 -0.0065364990379081604 -0.00050824340011311692 0 -0.0065478940003770008 -0.00050382725637497516 0 -0.0065771726668546141 -0.0004987380357333595 0 -0.0066122545535644726 -0.00049127973026644872 0 -0.0065364990379081604 -0.00050824340011311692 0 -0.0065620775778624917 -0.00049252136139663831 0 -0.0065199151935296778 -0.00049496697763353815 0 -0.0065771726668546141 -0.0004987380357333595 0 -0.0065364990379081604 -0.00050824340011311692 0 -0.006601820822615026 -0.00048677407973977087 0 -0.0065364990379081604 -0.00050824340011311692 0 -0.006601820822615026 -0.00048677407973977087 0 -0.0065620775778624917 -0.00049252136139663831 0 -0.0065364990379081604 -0.00050824340011311692 0 -0.0064686825535170142 -0.00050644745758952686 0 -0.006474315619604913 -0.00052269504969137211 0 -0.0065364990379081604 -0.00050824340011311692 0 -0.0064686825535170142 -0.00050644745758952686 0 -0.0065199151935296778 -0.00049496697763353815 0 -0.0064686825535170142 -0.00050644745758952686 0 -0.0063667952074545255 -0.00054686217521548303 0 -0.006474315619604913 -0.00052269504969137211 0 -0.0065653522275525107 -0.00051534376671614644 0 -0.0063667952074545255 -0.00054686217521548303 0 -0.006474315619604913 -0.00052269504969137211 0 -0.0044940623454424733 -0.0013918120984954573 0 -0.0043910782486949254 -0.0013937147789911759 0 -0.004460941960796167 -0.0015274083848651877 0 -0.0044940623454424733 -0.0013918120984954573 0 -0.004460941960796167 -0.0015274083848651877 0 -0.0046128225763550539 -0.0014325042142770369 0 -0.0044940623454424733 -0.0013918120984954573 0 -0.0045625465636866961 -0.0013305424033998022 0 -0.0044714950389197414 -0.0013168342216158238 0 -0.0044940623454424733 -0.0013918120984954573 0 -0.0043910782486949254 -0.0013937147789911759 0 -0.0044714950389197414 -0.0013168342216158238 0 -0.0043910782486949254 -0.0013937147789911759 0 -0.0043207957491800493 -0.001338802299484083 0 -0.0042659202688442553 -0.0014071628298241968 0 -0.0043910782486949254 -0.0013937147789911759 0 -0.0043294151266471135 -0.0014902217976958841 0 -0.004460941960796167 -0.0015274083848651877 0 -0.0043910782486949254 -0.0013937147789911759 0 -0.0043294151266471135 -0.0014902217976958841 0 -0.0042659202688442553 -0.0014071628298241968 0 -0.0043294151266471135 -0.0014902217976958841 0 -0.0043401563749709184 -0.0016212365082965766 0 -0.004460941960796167 -0.0015274083848651877 0 -0.0043401563749709184 -0.0016212365082965766 0 -0.004460941960796167 -0.0015274083848651877 0 -0.0044525591316115325 -0.0016643666535882708 0 -0.004460941960796167 -0.0015274083848651877 0 -0.0046128225763550539 -0.0014325042142770369 0 -0.0046165296874829701 -0.0016425077207353259 0 -0.004460941960796167 -0.0015274083848651877 0 -0.0046165296874829701 -0.0016425077207353259 0 -0.0044525591316115325 -0.0016643666535882708 0 -0.0048103430629740547 -0.0015250689764043882 0 -0.0046128225763550539 -0.0014325042142770369 0 -0.0046165296874829701 -0.0016425077207353259 0 -0.0052952882584332882 -0.0013008547768081421 0 -0.0048103430629740547 -0.0015250689764043882 0 -0.0050784676146506018 -0.00091202620279986666 0 -0.0052952882584332882 -0.0013008547768081421 0 -0.0048103430629740547 -0.0015250689764043882 0 -0.0052065762514455511 -0.0017515214995728876 0 -0.00480900464395449 -0.0014948426154104337 0 -0.0048552977090674338 -0.0011798225936263691 0 -0.0048103430629740547 -0.0015250689764043882 0 -0.0046790381211954191 -0.0013510919196202502 0 -0.0046128225763550539 -0.0014325042142770369 0 -0.0046790381211954191 -0.0013510919196202502 0 -0.0046128225763550539 -0.0014325042142770369 0 -0.0045625465636866961 -0.0013305424033998022 0 -0.0044940623454424733 -0.0013918120984954573 0 -0.0046128225763550539 -0.0014325042142770369 0 -0.0045625465636866961 -0.0013305424033998022 0 -0.0045625465636866961 -0.0013305424033998022 0 -0.0045077160906897909 -0.0012754855762339996 0 -0.0044714950389197414 -0.0013168342216158238 0 -0.0045625465636866961 -0.0013305424033998022 0 -0.0045482187838049885 -0.0012620542212925243 0 -0.0045951558960782698 -0.0013019075890650833 0 -0.0045482187838049885 -0.0012620542212925243 0 -0.0045077160906897909 -0.0012754855762339996 0 -0.0045040918914670972 -0.0012208438362813776 0 -0.0045625465636866961 -0.0013305424033998022 0 -0.0045482187838049885 -0.0012620542212925243 0 -0.0045077160906897909 -0.0012754855762339996 0 -0.0053652145594327606 -0.00033804216929782401 0 -0.0053437163773934543 -0.00047832391461437968 0 -0.0050784676146506018 -0.00091202620279986666 0 -0.0045946681411981639 -0.0012257840795642926 0 -0.0046790381211954191 -0.0013510919196202502 0 -0.0045872995975450694 -0.0012616904765770959 0 -0.0046790381211954191 -0.0013510919196202502 0 -0.0045951558960782698 -0.0013019075890650833 0 -0.0045872995975450694 -0.0012616904765770959 0 -0.0046790381211954191 -0.0013510919196202502 0 -0.0045625465636866961 -0.0013305424033998022 0 -0.0045951558960782698 -0.0013019075890650833 0 -0.0051687958405343759 -0.0006916487015065654 0 -0.0048552977090674338 -0.0011798225936263691 0 -0.0045482187838049885 -0.0012620542212925243 0 -0.0045951558960782698 -0.0013019075890650833 0 -0.0045872995975450694 -0.0012616904765770959 0 -0.0045946681411981639 -0.0012257840795642926 0 -0.0045650160669573293 -0.0012221737176420788 0 -0.0045314568614588319 -0.0011911407233456588 0 -0.0045946681411981639 -0.0012257840795642926 0 -0.0045872995975450694 -0.0012616904765770959 0 -0.0045650160669573293 -0.0012221737176420788 0 -0.0045872995975450694 -0.0012616904765770959 0 -0.0045650160669573293 -0.0012221737176420788 0 -0.0045386320170270221 -0.0012144608128445804 0 -0.0045482187838049885 -0.0012620542212925243 0 -0.0045872995975450694 -0.0012616904765770959 0 -0.0045386320170270221 -0.0012144608128445804 0 -0.0045386320170270221 -0.0012144608128445804 0 -0.0044967310246401973 -0.0011855843235923447 0 -0.0044988210886046541 -0.0011718918136126607 0 -0.0045386320170270221 -0.0012144608128445804 0 -0.0044967310246401973 -0.0011855843235923447 0 -0.0045040918914670972 -0.0012208438362813776 0 -0.0045386320170270221 -0.0012144608128445804 0 -0.0045314568614588319 -0.0011911407233456588 0 -0.0044988210886046541 -0.0011718918136126607 0 -0.0045650160669573293 -0.0012221737176420788 0 -0.0045386320170270221 -0.0012144608128445804 0 -0.0045314568614588319 -0.0011911407233456588 0 -0.0045077160906897909 -0.0012754855762339996 0 -0.0045040918914670972 -0.0012208438362813776 0 -0.0044582375585513418 -0.001231395398681963 0 -0.0045482187838049885 -0.0012620542212925243 0 -0.0045386320170270221 -0.0012144608128445804 0 -0.0045040918914670972 -0.0012208438362813776 0 -0.0044967310246401973 -0.0011855843235923447 0 -0.0045040918914670972 -0.0012208438362813776 0 -0.0044630542323271525 -0.001170736191250233 0 -0.0044582375585513418 -0.001231395398681963 0 -0.004427014744435096 -0.0011775947379881 0 -0.0044630542323271525 -0.001170736191250233 0 -0.0045040918914670972 -0.0012208438362813776 0 -0.0044582375585513418 -0.001231395398681963 0 -0.0044630542323271525 -0.001170736191250233 0 -0.0043911405091712893 -0.0012149416811094403 0 -0.0044582375585513418 -0.001231395398681963 0 -0.004427014744435096 -0.0011775947379881 0 -0.0043911405091712893 -0.0012149416811094403 0 -0.0044582375585513418 -0.001231395398681963 0 -0.0043968619819377474 -0.0012896421197982136 0 -0.0043910782486949254 -0.0013937147789911759 0 -0.0043968619819377474 -0.0012896421197982136 0 -0.0044714950389197414 -0.0013168342216158238 0 -0.0044582375585513418 -0.001231395398681963 0 -0.0043968619819377474 -0.0012896421197982136 0 -0.0044714950389197414 -0.0013168342216158238 0 -0.0045077160906897909 -0.0012754855762339996 0 -0.0044582375585513418 -0.001231395398681963 0 -0.0044714950389197414 -0.0013168342216158238 0 -0.0043910782486949254 -0.0013937147789911759 0 -0.0043968619819377474 -0.0012896421197982136 0 -0.0043207957491800493 -0.001338802299484083 0 -0.0043968619819377474 -0.0012896421197982136 0 -0.0043207957491800493 -0.001338802299484083 0 -0.0043300719009704064 -0.0012720985949535555 0 -0.0043911405091712893 -0.0012149416811094403 0 -0.004382094799171875 -0.0011434791319435043 0 -0.0042424625665417543 -0.0012216753934189951 0 -0.0043911405091712893 -0.0012149416811094403 0 -0.0043300719009704064 -0.0012720985949535555 0 -0.0042424625665417543 -0.0012216753934189951 0 -0.0043911405091712893 -0.0012149416811094403 0 -0.0043968619819377474 -0.0012896421197982136 0 -0.0043300719009704064 -0.0012720985949535555 0 -0.001829348042798573 -0.0024017852158806146 0 -0.0012367428165345877 -0.0022009379733178964 0 -0.0011520556408129018 -0.0028076978788205151 0 -0.0031492000536558003 -0.0017515872611521047 0 -0.0025224656419422778 -0.0020955372891353794 0 -0.0043911405091712893 -0.0012149416811094403 0 -0.004382094799171875 -0.0011434791319435043 0 -0.004427014744435096 -0.0011775947379881 0 -0.004382094799171875 -0.0011434791319435043 0 -0.004427014744435096 -0.0011775947379881 0 -0.0044274588705118818 -0.0011477888273591513 0 -0.004382094799171875 -0.0011434791319435043 0 -0.0044274588705118818 -0.0011477888273591513 0 -0.0044172941000500494 -0.0011332790873175801 0 -0.0031492000536558003 -0.0017515872611521047 0 -0.0036158517628625537 -0.0014782833019389091 0 -0.001829348042798573 -0.0024017852158806146 0 -0.0028083896397199147 -0.0018563993226352014 0 -0.0020012314968338735 -0.0016986335907374984 0 -0.001829348042798573 -0.0024017852158806146 0 -0.0016268963381153279 -0.001989342301299725 0 -0.0020012314968338735 -0.0016986335907374984 0 -0.001829348042798573 -0.0024017852158806146 0 -0.0016268963381153279 -0.001989342301299725 0 -0.0012367428165345877 -0.0022009379733178964 0 -0.0044478478364427991 -0.0011267486358382778 0 -0.0045946681411981639 -0.0012257840795642926 0 -0.0045314568614588319 -0.0011911407233456588 0 -0.0044478478364427991 -0.0011267486358382778 0 -0.0045314568614588319 -0.0011911407233456588 0 -0.0044988210886046541 -0.0011718918136126607 0 -0.0044478478364427991 -0.0011267486358382778 0 -0.0044988210886046541 -0.0011718918136126607 0 -0.0044498138830252523 -0.0011414886877482912 0 -0.0044988210886046541 -0.0011718918136126607 0 -0.0044710748561721716 -0.0011590136531879167 0 -0.0044498138830252523 -0.0011414886877482912 0 -0.0044967310246401973 -0.0011855843235923447 0 -0.0044988210886046541 -0.0011718918136126607 0 -0.0044710748561721716 -0.0011590136531879167 0 -0.0044710748561721716 -0.0011590136531879167 0 -0.0044498138830252523 -0.0011414886877482912 0 -0.0044375391943525929 -0.0011363828891795256 0 -0.0044375391943525929 -0.0011363828891795256 0 -0.0044630542323271525 -0.001170736191250233 0 -0.0044274588705118818 -0.0011477888273591513 0 -0.0044710748561721716 -0.0011590136531879167 0 -0.0044375391943525929 -0.0011363828891795256 0 -0.0044630542323271525 -0.001170736191250233 0 -0.0044967310246401973 -0.0011855843235923447 0 -0.0044710748561721716 -0.0011590136531879167 0 -0.0044630542323271525 -0.001170736191250233 0 -0.004427014744435096 -0.0011775947379881 0 -0.0044630542323271525 -0.001170736191250233 0 -0.0044274588705118818 -0.0011477888273591513 0 -0.0044375391943525929 -0.0011363828891795256 0 -0.0044172941000500494 -0.0011332790873175801 0 -0.0044038422656904243 -0.0011209981854948265 0 -0.0044375391943525929 -0.0011363828891795256 0 -0.0044274588705118818 -0.0011477888273591513 0 -0.0044172941000500494 -0.0011332790873175801 0 -0.0044172941000500494 -0.0011332790873175801 0 -0.0044038422656904243 -0.0011209981854948265 0 -0.004337047726187716 -0.0011088797696705191 0 -0.0044478478364427991 -0.0011267486358382778 0 -0.0044038422656904243 -0.0011209981854948265 0 -0.004337047726187716 -0.0011088797696705191 0 -0.0044498138830252523 -0.0011414886877482912 0 -0.0044375391943525929 -0.0011363828891795256 0 -0.0044038422656904243 -0.0011209981854948265 0 -0.0044478478364427991 -0.0011267486358382778 0 -0.0044498138830252523 -0.0011414886877482912 0 -0.0044038422656904243 -0.0011209981854948265 0 -0.0042674451282575208 -0.0010894785090296817 0 -0.004337047726187716 -0.0011088797696705191 0 -0.0041747806680952999 -0.0010224780655227013 0 -0.0036158517628625537 -0.0014782833019389091 0 -0.0041710366410134744 -0.0010348639654381543 0 -0.0044172941000500494 -0.0011332790873175801 0 -0.004337047726187716 -0.0011088797696705191 0 -0.0041747806680952999 -0.0010224780655227013 0 -0.0028083896397199147 -0.0018563993226352014 0 -0.003176844473954082 -0.0010822778952356497 0 -0.0041747806680952999 -0.0010224780655227013 0 -0.0042674451282575208 -0.0010894785090296817 0 -0.0044478478364427991 -0.0011267486358382778 0 -0.004337047726187716 -0.0011088797696705191 0 -0.0028083896397199147 -0.0018563993226352014 0 -0.003176844473954082 -0.0010822778952356497 0 -0.0024841483418529321 -0.0011503477790227017 0 -0.003176844473954082 -0.0010822778952356497 0 -0.0026923843461390731 -0.00055676373132242639 0 -0.0024841483418529321 -0.0011503477790227017 0 -0.0033034444604304845 -0.00023419365383070101 0 -0.0026923843461390731 -0.00055676373132242639 0 -0.0031795628204664846 -0.00063695658076021221 0 -0.003176844473954082 -0.0010822778952356497 0 -0.0026923843461390731 -0.00055676373132242639 0 -0.0031795628204664846 -0.00063695658076021221 0 -0.0042674451282575208 -0.0010894785090296817 0 -0.0040586487881782186 -0.00030105237078252312 0 -0.0040501381441938765 -0.0006551070863253176 0 -0.003176844473954082 -0.0010822778952356497 0 -0.0038111520054205958 -0.00085148438881235851 0 -0.0041747806680952999 -0.0010224780655227013 0 -0.003176844473954082 -0.0010822778952356497 0 -0.0035680235076116554 -0.00065719282301103315 0 -0.0038111520054205958 -0.00085148438881235851 0 -0.003176844473954082 -0.0010822778952356497 0 -0.0031795628204664846 -0.00063695658076021221 0 -0.0035680235076116554 -0.00065719282301103315 0 -0.0033034444604304845 -0.00023419365383070101 0 -0.0031795628204664846 -0.00063695658076021221 0 -0.0035680235076116554 -0.00065719282301103315 0 -0.0033034444604304845 -0.00023419365383070101 0 -0.0035680235076116554 -0.00065719282301103315 0 -0.0038251153364666102 -0.0004548096279591688 0 -0.003767916892237625 -0.00015431596455741224 0 -0.0033034444604304845 -0.00023419365383070101 0 -0.0038251153364666102 -0.0004548096279591688 0 -0.0035680235076116554 -0.00065719282301103315 0 -0.0038251153364666102 -0.0004548096279591688 0 -0.0040501381441938765 -0.0006551070863253176 0 -0.003767916892237625 -0.00015431596455741224 0 -0.0038251153364666102 -0.0004548096279591688 0 -0.0040586487881782186 -0.00030105237078252312 0 -0.0038251153364666102 -0.0004548096279591688 0 -0.0040586487881782186 -0.00030105237078252312 0 -0.0040501381441938765 -0.0006551070863253176 0 -0.0040501381441938765 -0.0006551070863253176 0 -0.0040861781385889764 -0.00086120232376058631 0 -0.0038111520054205958 -0.00085148438881235851 0 -0.0042674451282575208 -0.0010894785090296817 0 -0.0040501381441938765 -0.0006551070863253176 0 -0.0040861781385889764 -0.00086120232376058631 0 -0.0035680235076116554 -0.00065719282301103315 0 -0.0040501381441938765 -0.0006551070863253176 0 -0.0038111520054205958 -0.00085148438881235851 0 -0.0042674451282575208 -0.0010894785090296817 0 -0.0040861781385889764 -0.00086120232376058631 0 -0.0041747806680952999 -0.0010224780655227013 0 -0.0040861781385889764 -0.00086120232376058631 0 -0.0038111520054205958 -0.00085148438881235851 0 -0.0041747806680952999 -0.0010224780655227013 0 -0.0019080244722473731 -0.00074401961606548916 0 -0.0020012314968338735 -0.0016986335907374984 0 -0.0012358577114742824 -0.0013339729693396083 0 -0.0016268963381153279 -0.001989342301299725 0 -0.0020012314968338735 -0.0016986335907374984 0 -0.0012358577114742824 -0.0013339729693396083 0 -0.0028083896397199147 -0.0018563993226352014 0 -0.0020012314968338735 -0.0016986335907374984 0 -0.0024841483418529321 -0.0011503477790227017 0 -0.0017695134648398577 -0.00027847146426961003 0 -0.0020012314968338735 -0.0016986335907374984 0 -0.0024841483418529321 -0.0011503477790227017 0 -0.0017695134648398577 -0.00027847146426961003 0 -0.0026923843461390731 -0.00055676373132242639 0 -0.0024841483418529321 -0.0011503477790227017 0 -0.0018034416373243144 -0.00053786732939260264 0 -0.0019982621193696112 -0.0016341240743849544 0 -0.0012506281533655669 -0.00047283150053120752 0 -0.0019080244722473731 -0.00074401961606548916 0 -0.0012358577114742824 -0.0013339729693396083 0 -0.00075031722596875534 -0.0010177114984079368 0 -0.0011854395971417149 -0.00092681871809915516 0 -0.0012003478692802006 -0.0015651575248848901 0 -0.0012367947674404808 -0.00070302549276307982 0 -0.0012179825835272739 -0.0014593402774365535 0 -0.0012003478692802006 -0.0015651575248848901 0 -0.00075943514984632722 -0.0018570637896129633 0 -0.0012367428165345877 -0.0022009379733178964 0 -0.00075943514984632722 -0.0018570637896129633 0 -0.00061867620519592673 -0.0014176727524568295 0 -0.00047238994133083558 -0.0016901455759606937 0 -0.0012003478692802006 -0.0015651575248848901 0 -0.00075943514984632722 -0.0018570637896129633 0 -0.00061867620519592673 -0.0014176727524568295 0 -0.00075031722596875534 -0.0010177114984079368 0 -0.0012003478692802006 -0.0015651575248848901 0 -0.00061867620519592673 -0.0014176727524568295 0 -0.00032546152450731283 -0.0010916773628050129 0 -0.00075031722596875534 -0.0010177114984079368 0 -0.00061867620519592673 -0.0014176727524568295 0 -0.00032546152450731283 -0.0010916773628050129 0 6.4912910629064811e-06 -0.0012593438931353942 0 -0.00020257713762986555 -0.0015477650658333266 0 -0.00032546152450731283 -0.0010916773628050129 0 -0.00061867620519592673 -0.0014176727524568295 0 -0.00020257713762986555 -0.0015477650658333266 0 6.4912910629064811e-06 -0.0012593438931353942 0 0.00038036856671738067 -0.0012444756954838919 0 0.00022403751269569041 -0.0015858857274189436 0 6.4912910629064811e-06 -0.0012593438931353942 0 -0.00020257713762986555 -0.0015477650658333266 0 0.00022403751269569041 -0.0015858857274189436 0 -7.8580937851992399e-06 -0.00094009881428214486 0 6.4912910629064811e-06 -0.0012593438931353942 0 0.00038036856671738067 -0.0012444756954838919 0 -0.00020257713762986555 -0.0015477650658333266 0 -0.00030334680285783026 -0.001946506724603036 0 5.7828392288103683e-05 -0.0019376046563481634 0 -0.00020257713762986555 -0.0015477650658333266 0 5.7828392288103683e-05 -0.0019376046563481634 0 0.00022403751269569041 -0.0015858857274189436 0 -0.0011008645636627116 -0.001823372881274869 0 -0.00041602658986497626 -0.0014834713084708967 0 -0.00047238994133083558 -0.0016901455759606937 0 -0.00020257713762986555 -0.0015477650658333266 0 -0.00030334680285783026 -0.001946506724603036 0 -0.00075943514984632722 -0.0018570637896129633 0 -0.00047238994133083558 -0.0016901455759606937 0 -0.00030334680285783026 -0.001946506724603036 0 -0.00061867620519592673 -0.0014176727524568295 0 -0.00047238994133083558 -0.0016901455759606937 0 -0.00020257713762986555 -0.0015477650658333266 0 -0.00030334680285783026 -0.001946506724603036 0 2.8099430803344044e-05 -0.0019398783832902055 0 -0.00028229417938478458 -0.0025815767401276344 0 5.8242176444566757e-05 -0.0019213903197451564 0 -0.0011008645636627116 -0.001823372881274869 0 -0.0051516900573664809 -0.0010835559768086844 0 -0.0051877387229729731 -0.0014247075566499476 0 -0.0011008645636627116 -0.001823372881274869 0 -0.0017644642010401189 -0.0022362134895791575 0 -0.0031891750154372771 -0.0013224373072885779 0 -0.0031551752593986355 -0.0016035093043778256 0 -0.0034011688737616611 -0.0017384934563621083 0 -0.0031551752593986355 -0.0016035093043778256 0 -0.0034011688737616611 -0.0017384934563621083 0 -0.0033710724030429988 -0.0018906791850684026 0 -0.00028229417938478458 -0.0025815767401276344 0 -0.00072849532366005471 -0.0023368510064632002 0 -0.00069674441341631259 -0.0027858525916811473 0 -0.00030334680285783026 -0.001946506724603036 0 -0.00028229417938478458 -0.0025815767401276344 0 -0.00072849532366005471 -0.0023368510064632002 0 -0.00072849532366005471 -0.0023368510064632002 0 -0.0011520556408129018 -0.0028076978788205151 0 -0.00069674441341631259 -0.0027858525916811473 0 -0.00072849532366005471 -0.0023368510064632002 0 -0.0012367428165345877 -0.0022009379733178964 0 -0.0011520556408129018 -0.0028076978788205151 0 -0.0016268963381153279 -0.001989342301299725 0 -0.0012358577114742824 -0.0013339729693396083 0 -0.0012367428165345877 -0.0022009379733178964 0 -0.0012179825835272739 -0.0014593402774365535 0 -0.0012318101098207992 -0.0021610582791930302 0 -0.00075943514984632722 -0.0018570637896129633 0 -0.00030334680285783026 -0.001946506724603036 0 -0.00072849532366005471 -0.0023368510064632002 0 -0.00075943514984632722 -0.0018570637896129633 0 -0.00072849532366005471 -0.0023368510064632002 0 -0.0012367428165345877 -0.0022009379733178964 0 0.001035653557380637 -0.0013038084079241878 0 0.00092376277789873778 -0.0011248843975607773 0 0.00098381627506650927 -0.0014955323685049489 0 -0.0017242030686693693 -0.0003888811761031337 0 -8.2443105147175485e-06 -0.0007160707551438979 0 0.001035653557380637 -0.0013038084079241878 0 0.00103679897747791 -0.00149353440144935 0 0.001291418878505574 -0.0011251752622096825 0 0.001035653557380637 -0.0013038084079241878 0 0.00092376277789873778 -0.0011248843975607773 0 0.001291418878505574 -0.0011251752622096825 0 0.001035653557380637 -0.0013038084079241878 0 0.00098381627506650927 -0.0014955323685049489 0 0.00103679897747791 -0.00149353440144935 0 0.0011151433708282551 -0.00079157872718288121 0 0.00092376277789873778 -0.0011248843975607773 0 0.001291418878505574 -0.0011251752622096825 0 0.0011151433708282551 -0.00079157872718288121 0 0.00092376277789873778 -0.0011248843975607773 0 0.00079298524539063084 -0.00093457528680840818 0 0.00092376277789873778 -0.0011248843975607773 0 0.00079298524539063084 -0.00093457528680840818 0 0.00053923546294702284 -0.0010120155311497102 0 0.00071216338503040657 -0.00073200897463760969 0 0.0011151433708282551 -0.00079157872718288121 0 0.00079298524539063084 -0.00093457528680840818 0 0.00071216338503040657 -0.00073200897463760969 0 0.00079298524539063084 -0.00093457528680840818 0 0.00053923546294702284 -0.0010120155311497102 0 0.0014864043274881679 -0.0014322131622396355 0 -0.0016117074568380283 -0.00088146492857567229 0 0.00056857744911662715 -0.0013271142403415131 0 0.00053923546294702284 -0.0010120155311497102 0 0.00081728441405735052 -0.0014139964656813152 0 0.00056857744911662715 -0.0013271142403415131 0 0.00038395726317240529 -0.0014956590275765156 0 0.00081728441405735052 -0.0014139964656813152 0 0.00092376277789873778 -0.0011248843975607773 0 0.00053923546294702284 -0.0010120155311497102 0 0.00098381627506650927 -0.0014955323685049489 0 0.00056857744911662715 -0.0013271142403415131 0 6.9232721633748638e-05 -0.00089498393473488153 0 0.00038395726317240529 -0.0014956590275765156 0 0.00038014004354590343 -0.00097998927279774892 0 -0.0028415022867527614 -0.0013765515588466763 0 6.9232721633748638e-05 -0.00089498393473488153 0 -0.00041455390133781885 -0.0015280208505456748 0 0.00038395726317240529 -0.0014956590275765156 0 0.00056857744911662715 -0.0013271142403415131 0 0.00034899412823649449 -0.0011333320771381855 0 0.00053923546294702284 -0.0010120155311497102 0 0.00050006992490787567 -0.0012686915971112033 0 0.00038014004354590343 -0.00097998927279774892 0 0.00090919655289339472 -0.00067571757578791967 0 0.00038014004354590343 -0.00097998927279774892 0 0.00071216338503040657 -0.00073200897463760969 0 0.00034899412823649449 -0.0011333320771381855 0 0.00053923546294702284 -0.0010120155311497102 0 0.0010363131358787179 -0.00063717404116499048 0 0.00089047993603095241 -0.00084326421368045379 0 0.00089272009443246646 -0.00069369553941614362 0 0.00089047993603095241 -0.00084326421368045379 0 0.00089272009443246646 -0.00069369553941614362 0 0.00075587354336248782 -0.00073080313760028428 0 -0.00043338593701289208 -0.0012853711321567903 0 -0.00084765362830482123 -0.00096669584479187041 0 -0.0010429928329336359 -0.001374081252442182 0 0.00038014004354590343 -0.00097998927279774892 0 0.00016790687496405214 -0.001054152917556832 0 0.00016790687496405214 -0.001054152917556832 0 -0.00041602658986497626 -0.0014834713084708967 0 -0.0012357860947529631 -0.001781881591793964 0 -0.0010429928329336359 -0.001374081252442182 0 -0.00078538952682864717 -0.0017721915289421058 0 -0.00043338593701289208 -0.0012853711321567903 0 -0.0010429928329336359 -0.001374081252442182 0 -0.00078538952682864717 -0.0017721915289421058 0 -0.0011008645636627116 -0.001823372881274869 0 -0.0028415022867527614 -0.0013765515588466763 0 -0.0067879970888299725 -0.00056684327235099032 0 -0.0065469143947041192 -0.00019585331353222111 0 -0.0064709152133280668 -0.00057821144555842026 0 -0.0051516900573664809 -0.0010835559768086844 0 -0.0028415022867527614 -0.0013765515588466763 0 -0.0031891750154372771 -0.0013224373072885779 0 -0.0031551752593986355 -0.0016035093043778256 0 -0.0029427475917005591 -0.001316508819174252 0 -0.0067879970888299725 -0.00056684327235099032 0 -0.0064709152133280668 -0.00057821144555842026 0 -0.0066777842694899616 -0.0008614026105659931 0 -0.0064709152133280668 -0.00057821144555842026 0 -0.0062285245088210713 -0.00057148356831169731 0 -0.0063237334467708796 -0.00089341159881379758 0 -0.0064709152133280668 -0.00057821144555842026 0 -0.0062285245088210713 -0.00057148356831169731 0 -0.0062917877799952152 -0.00035984829999292938 0 -0.0062285245088210713 -0.00057148356831169731 0 -0.0060287312126656584 -0.00061401949423434327 0 -0.0063237334467708796 -0.00089341159881379758 0 -0.0065469143947041192 -0.00019585331353222111 0 -0.0064709152133280668 -0.00057821144555842026 0 -0.0062917877799952152 -0.00035984829999292938 0 -0.0065469143947041192 -0.00019585331353222111 0 -0.0062917877799952152 -0.00035984829999292938 0 -0.0061296178647042192 -0.00013441704870344995 0 -0.0062285245088210713 -0.00057148356831169731 0 -0.0062917877799952152 -0.00035984829999292938 0 -0.0060162253653768868 -0.00036634207097564596 0 -0.0028415022867527614 -0.0013765515588466763 0 -0.0031275899913229188 -0.00078263633965605 0 -0.0062917877799952152 -0.00035984829999292938 0 -0.0061296178647042192 -0.00013441704870344995 0 -0.0060162253653768868 -0.00036634207097564596 0 -0.005045475909659999 -0.00064118887593944023 0 -0.0047677166957435218 -0.00086033178992382968 0 -0.0046450563497908827 -0.00065555808045626143 0 -0.005045475909659999 -0.00064118887593944023 0 -0.0048605600662742507 -0.0004025113520180564 0 -0.0046450563497908827 -0.00065555808045626143 0 -0.0060162253653768868 -0.00036634207097564596 0 -0.0054729403304820852 -7.5719350047021816e-05 0 -0.0054249039073764882 -0.00012720464282473483 0 -0.0061296178647042192 -0.00013441704870344995 0 -0.0060162253653768868 -0.00036634207097564596 0 -0.0054729403304820852 -7.5719350047021816e-05 0 -0.0031275899913229188 -0.00078263633965605 0 -0.0016117074568380283 -0.00088146492857567229 0 -0.0062394488534551207 -0.0007979819206096314 0 -0.0027711749479631914 -0.0004615691913553498 0 -0.0060162253653768868 -0.00036634207097564596 0 -0.0059231782283260077 -0.00081056341241289966 0 -0.0054249039073764882 -0.00012720464282473483 0 -0.0060687584882466337 -0.00042270594119507007 0 -0.0062394488534551207 -0.0007979819206096314 0 -0.0062285245088210713 -0.00057148356831169731 0 -0.0060162253653768868 -0.00036634207097564596 0 -0.0060287312126656584 -0.00061401949423434327 0 -0.0027711749479631914 -0.0004615691913553498 0 -0.0031835484697945193 -0.0003680756898633052 0 -0.0018943774263886026 -0.00019667550328085451 0 -0.001896779370726439 -0.00020047870762391514 0 -0.0019441235017936093 -0.00020182449772152572 0 -0.0016117074568380283 -0.00088146492857567229 0 -0.0027711749479631914 -0.0004615691913553498 0 -0.0027711749479631914 -0.0004615691913553498 0 -0.0017242030686693693 -0.0003888811761031337 0 -0.0016117074568380283 -0.00088146492857567229 0 -0.0017242030686693693 -0.0003888811761031337 0 -0.0026782259572660926 -0.00067226196719561608 0 -0.0025529488795241555 -0.00081310998240612033 0 -0.002450309091671145 -0.0006665556898289883 0 -0.0047677166957435218 -0.00086033178992382968 0 -0.0049965159984463646 -0.00094131303770947578 0 -0.0046829674041959221 -0.0010767811969098569 0 -0.0049965159984463646 -0.00094131303770947578 0 -0.0049481584244600698 -0.0012453143629295453 0 -0.0046829674041959221 -0.0010767811969098569 0 -0.005045475909659999 -0.00064118887593944023 0 -0.0047677166957435218 -0.00086033178992382968 0 -0.0049965159984463646 -0.00094131303770947578 0 -0.0062394488534551207 -0.0007979819206096314 0 -0.0066865412656116263 -0.0010633633151947296 0 -0.0069825661685226073 -0.0011794110051730642 0 -0.006997961359649355 -0.0011785380767888477 0 -0.0069892679022695919 -0.001183162100843158 0 -0.0062394488534551207 -0.0007979819206096314 0 -0.0059119762783201909 -0.0011462818901685978 0 -0.006997961359649355 -0.0011785380767888477 0 -0.0069892679022695919 -0.001183162100843158 0 -0.0070027617466125718 -0.001168797251697385 0 -0.0066865412656116263 -0.0010633633151947296 0 -0.0067884247822882701 -0.0011201616649375503 0 -0.0069892679022695919 -0.001183162100843158 0 -0.0069813369758696918 -0.0011852834301181673 0 -0.0070027617466125718 -0.001168797251697385 0 -0.0064709152133280668 -0.00057821144555842026 0 -0.0063237334467708796 -0.00089341159881379758 0 -0.0066777842694899616 -0.0008614026105659931 0 -0.0063237334467708796 -0.00089341159881379758 0 -0.0066777842694899616 -0.0008614026105659931 0 -0.0066156165181707966 -0.0010953240238612372 0 -0.0066156165181707966 -0.0010953240238612372 0 -0.0069159979955349679 -0.0011711971307578934 0 -0.0068324832921945345 -0.0010578696391547475 0 -0.0066777842694899616 -0.0008614026105659931 0 -0.0066156165181707966 -0.0010953240238612372 0 -0.0068324832921945345 -0.0010578696391547475 0 -0.0069813369758696918 -0.0011852834301181673 0 -0.0069159979955349679 -0.0011711971307578934 0 -0.0069919801882366026 -0.0011548407605678815 0 -0.0067884247822882701 -0.0011201616649375503 0 -0.0068871684246228334 -0.0011667811085484651 0 -0.0070010943085330492 -0.0011250567258395783 0 -0.0070210182654464196 -0.0011353299798366827 0 -0.0070926791675350589 -0.0010839954974818595 0 -0.0069159979955349679 -0.0011711971307578934 0 -0.0070010943085330492 -0.0011250567258395783 0 -0.0069919801882366026 -0.0011548407605678815 0 -0.0070010943085330492 -0.0011250567258395783 0 -0.0070210182654464196 -0.0011353299798366827 0 -0.0069919801882366026 -0.0011548407605678815 0 -0.0070210182654464196 -0.0011353299798366827 0 -0.0069919801882366026 -0.0011548407605678815 0 -0.0070027617466125718 -0.001168797251697385 0 -0.0069813369758696918 -0.0011852834301181673 0 -0.0069919801882366026 -0.0011548407605678815 0 -0.0070027617466125718 -0.001168797251697385 0 -0.006997961359649355 -0.0011785380767888477 0 -0.0070027617466125718 -0.001168797251697385 0 -0.007015514822737946 -0.001157731735378057 0 -0.0070210182654464196 -0.0011353299798366827 0 -0.0070027617466125718 -0.001168797251697385 0 -0.007015514822737946 -0.001157731735378057 0 -0.0059119762783201909 -0.0011462818901685978 0 -0.0063975288491700828 -0.00095544268058281529 0 -0.0073406908195962255 -0.0012116967103642982 0 -0.0075114191793493358 -0.0013214580870434852 0 -0.007574252479308082 -0.0010663936026328281 0 -0.0073538059618327946 -0.001257273999526727 0 -0.0063975288491700828 -0.00095544268058281529 0 -0.0063975288491700828 -0.00095544268058281529 0 -0.0068995762276472363 -0.00077148811601689734 0 -0.0064458267355353713 -0.00026910313244361513 0 -0.0064224051630466725 -0.00041825400904025776 0 -0.0063252234866403145 -0.00031995646330769401 0 -0.0063975288491700828 -0.00095544268058281529 0 -0.0055002304495399132 -0.0005898637109244012 0 -0.0041682965891313359 -0.0013544800526837165 0 -0.0042424625665417543 -0.0012216753934189951 0 -0.0040854924670571044 -0.0013407351161886058 0 -0.0049763236597432144 -0.0013912943611836144 0 -0.0048441871460521008 -0.0014969887628278179 0 -0.0041682965891313359 -0.0013544800526837165 0 -0.0040854924670571044 -0.0013407351161886058 0 -0.0041297180373383226 -0.0014215716539722706 0 -0.0031961101180963294 -0.0020253787588454465 0 -0.0048441871460521008 -0.0014969887628278179 0 -0.0041324061319405253 -0.0011497361364357077 0 -0.0040130321784451915 -0.001242385925335394 0 -0.0044944197442302975 -0.0019148812870503859 0 -0.0043207957491800493 -0.001338802299484083 0 -0.0043300719009704064 -0.0012720985949535555 0 -0.0042308677997534528 -0.0013224516314443511 0 -0.0041682965891313359 -0.0013544800526837165 0 -0.0042308677997534528 -0.0013224516314443511 0 -0.0042424625665417543 -0.0012216753934189951 0 -0.0043207957491800493 -0.001338802299484083 0 -0.0042308677997534528 -0.0013224516314443511 0 -0.0042659202688442553 -0.0014071628298241968 0 -0.0043300719009704064 -0.0012720985949535555 0 -0.0042308677997534528 -0.0013224516314443511 0 -0.0042424625665417543 -0.0012216753934189951 0 -0.0025224656419422778 -0.0020955372891353794 0 -0.0031961101180963294 -0.0020253787588454465 0 -0.0011520556408129018 -0.0028076978788205151 0 -0.00069674441341631259 -0.0027858525916811473 0 -0.00060843593067859381 -0.0032083178247275051 0 -0.0034011688737616611 -0.0017384934563621083 0 -0.0033710724030429988 -0.0018906791850684026 0 -0.0036200507589187712 -0.0021552428303896138 0 -0.0017644642010401189 -0.0022362134895791575 0 -0.0031961101180963294 -0.0020253787588454465 0 -0.00028229417938478458 -0.0025815767401276344 0 -0.00069674441341631259 -0.0027858525916811473 0 -0.00060843593067859381 -0.0032083178247275051 0 -0.0067879970888299725 -0.00056684327235099032 0 -0.0066777842694899616 -0.0008614026105659931 0 -0.0069516434705540649 -0.00087770234423297996 0 -0.0066777842694899616 -0.0008614026105659931 0 -0.0069516434705540649 -0.00087770234423297996 0 -0.0068324832921945345 -0.0010578696391547475 0 -0.0069516434705540649 -0.00087770234423297996 0 -0.0068324832921945345 -0.0010578696391547475 0 -0.0069324930935408188 -0.0010317741580634133 0 -0.0068324832921945345 -0.0010578696391547475 0 -0.0069324930935408188 -0.0010317741580634133 0 -0.006914231292746504 -0.0011356114488075854 0 -0.0051877387229729731 -0.0014247075566499476 0 -0.0049763236597432144 -0.0013912943611836144 0 -0.0069516434705540649 -0.00087770234423297996 0 -0.0069324930935408188 -0.0010317741580634133 0 -0.0070211108008274292 -0.0010796906949544771 0 -0.0033710724030429988 -0.0018906791850684026 0 -0.0036200507589187712 -0.0021552428303896138 0 -0.0035917152812378924 -0.0021777754341715501 0 -0.0069324930935408188 -0.0010317741580634133 0 -0.0069516598362705856 -0.0011216848670400582 0 -0.0070211108008274292 -0.0010796906949544771 0 -0.0069324930935408188 -0.0010317741580634133 0 -0.0069516598362705856 -0.0011216848670400582 0 -0.006914231292746504 -0.0011356114488075854 0 -0.006678257586980256 -0.0007207386598125521 0 -0.0049763236597432144 -0.0013912943611836144 0 -0.0031961101180963294 -0.0020253787588454465 0 -0.0049763236597432144 -0.0013912943611836144 0 -0.0069180965869048523 -0.0011482104538995544 0 -0.0069238724174930551 -0.0011291997662409349 0 -0.0068975032275153192 -0.0011391764356504547 0 -0.0069516598362705856 -0.0011216848670400582 0 -0.0069180965869048523 -0.0011482104538995544 0 -0.0069238724174930551 -0.0011291997662409349 0 -0.0069516598362705856 -0.0011216848670400582 0 -0.0069238724174930551 -0.0011291997662409349 0 -0.0069340212382256045 -0.0011320988778092708 0 -0.0069516598362705856 -0.0011216848670400582 0 -0.0069340212382256045 -0.0011320988778092708 0 -0.006914231292746504 -0.0011356114488075854 0 -0.0069340212382256045 -0.0011320988778092708 0 -0.0069298581234915387 -0.0011358056192170023 0 -0.0069228308441923996 -0.0011282739841724306 0 -0.0069340212382256045 -0.0011320988778092708 0 -0.0069298581234915387 -0.0011358056192170023 0 -0.006914231292746504 -0.0011356114488075854 0 -0.0069228308441923996 -0.0011282739841724306 0 -0.006913223568979646 -0.0011201664061071149 0 -0.0069034054606734105 -0.0011235545734950066 0 -0.0069298581234915387 -0.0011358056192170023 0 -0.0069228308441923996 -0.0011282739841724306 0 -0.006913223568979646 -0.0011201664061071149 0 -0.0069238724174930551 -0.0011291997662409349 0 -0.0069228308441923996 -0.0011282739841724306 0 -0.0069034054606734105 -0.0011235545734950066 0 -0.0069238724174930551 -0.0011291997662409349 0 -0.0069340212382256045 -0.0011320988778092708 0 -0.0069228308441923996 -0.0011282739841724306 0 -0.0069159979955349679 -0.0011711971307578934 0 -0.0068324832921945345 -0.0010578696391547475 0 -0.006914231292746504 -0.0011356114488075854 0 -0.0069159979955349679 -0.0011711971307578934 0 -0.0069298581234915387 -0.0011358056192170023 0 -0.006914231292746504 -0.0011356114488075854 0 -0.0069159979955349679 -0.0011711971307578934 0 -0.0070010943085330492 -0.0011250567258395783 0 -0.006950387537146034 -0.0011183865359266469 0 -0.0069159979955349679 -0.0011711971307578934 0 -0.0069298581234915387 -0.0011358056192170023 0 -0.006950387537146034 -0.0011183865359266469 0 -0.006913223568979646 -0.0011201664061071149 0 -0.0069154978810893591 -0.0011108057393657191 0 -0.0069021767506962572 -0.0011108724620398553 0 -0.0069298581234915387 -0.0011358056192170023 0 -0.006913223568979646 -0.0011201664061071149 0 -0.0069154978810893591 -0.0011108057393657191 0 -0.0069298581234915387 -0.0011358056192170023 0 -0.006950387537146034 -0.0011183865359266469 0 -0.0069154978810893591 -0.0011108057393657191 0 -0.006950387537146034 -0.0011183865359266469 0 -0.0069154978810893591 -0.0011108057393657191 0 -0.0069135020620852954 -0.0010874945544518556 0 -0.0069154978810893591 -0.0011108057393657191 0 -0.0069021767506962572 -0.0011108724620398553 0 -0.0069003534350536499 -0.0010953412208609197 0 -0.0054716693501629917 -0.0013892599839803567 0 -0.0048441871460521008 -0.0014969887628278179 0 -0.0068485490055372814 -0.0010723092457017604 0 -0.0068423704733110791 -0.0010838219205234543 0 -0.0069034054606734105 -0.0011235545734950066 0 -0.0064357737253419867 -0.0012248121747928473 0 -0.0069670082404998928 -0.00112410975961138 0 -0.0069021767506962572 -0.0011108724620398553 0 -0.0068828529927290379 -0.0011015604665214702 0 -0.0069034054606734105 -0.0011235545734950066 0 -0.004214479515603828 -0.0015332481333637943 0 -0.004216382474535511 -0.0015204154427298545 0 -0.0042213453293501778 -0.001498127498510514 0 -0.0069021767506962572 -0.0011108724620398553 0 -0.0068828529927290379 -0.0011015604665214702 0 -0.0069003534350536499 -0.0010953412208609197 0 -0.0064357737253419867 -0.0012248121747928473 0 -0.0054716693501629917 -0.0013892599839803567 0 -0.006913223568979646 -0.0011201664061071149 0 -0.0069021767506962572 -0.0011108724620398553 0 -0.0069034054606734105 -0.0011235545734950066 0 -0.0041682965891313359 -0.0013544800526837165 0 -0.0041297180373383226 -0.0014215716539722706 0 -0.0042457635720643426 -0.0015213023841449357 0 -0.0068423704733110791 -0.0010838219205234543 0 -0.0069034054606734105 -0.0011235545734950066 0 -0.0068975032275153192 -0.0011391764356504547 0 -0.0041269383681491649 -0.0013990805925385508 0 -0.0048441871460521008 -0.0014969887628278179 0 -0.004216382474535511 -0.0015204154427298545 0 -0.0041297180373383226 -0.0014215716539722706 0 -0.0042457635720643426 -0.0015213023841449357 0 -0.0069238724174930551 -0.0011291997662409349 0 -0.0069034054606734105 -0.0011235545734950066 0 -0.0068975032275153192 -0.0011391764356504547 0 -0.0043294151266471135 -0.0014902217976958841 0 -0.0042659202688442553 -0.0014071628298241968 0 -0.0041866067231149454 -0.0015171476947566632 0 -0.0041682965891313359 -0.0013544800526837165 0 -0.0042308677997534528 -0.0013224516314443511 0 -0.0042457635720643426 -0.0015213023841449357 0 -0.0042308677997534528 -0.0013224516314443511 0 -0.0042659202688442553 -0.0014071628298241968 0 -0.0042243706871002698 -0.0014765376162227538 0 -0.0041684453675530087 -0.0013083086741475839 0 -0.0044845372802489042 -0.0015570093234071011 0 -0.0042676230900426087 -0.0014593314815155209 0 -0.0044845372802489042 -0.0015570093234071011 0 -0.0043401563749709184 -0.0016212365082965766 0 -0.0041866067231149454 -0.0015171476947566632 0 -0.0042630084584227932 -0.0017111601616982188 0 -0.0049786655059908249 -0.001508964174053689 0 -0.0049709606021995055 -0.0015172707422040296 0 -0.0049761384335986038 -0.0014996570580248993 0 -0.0043294151266471135 -0.0014902217976958841 0 -0.0043401563749709184 -0.0016212365082965766 0 -0.0041866067231149454 -0.0015171476947566632 0 -0.0044845372802489042 -0.0015570093234071011 0 -0.0052271546993695071 -0.0015523668718261936 0 -0.004214479515603828 -0.0015332481333637943 0 -0.004216382474535511 -0.0015204154427298545 0 -0.0042457635720643426 -0.0015213023841449357 0 -0.0054716693501629917 -0.0013892599839803567 0 -0.0044845372802489042 -0.0015570093234071011 0 -0.0041866067231149454 -0.0015171476947566632 0 -0.0041797093011770228 -0.0016818223491224032 0 -0.0042630084584227932 -0.0017111601616982188 0 -0.0057104927901557058 -0.0013452981650919874 0 -0.0058318381441903166 -0.0014445411238733429 0 -0.0058294526747156546 -0.0015602773132795504 0 -0.0057104927901557058 -0.0013452981650919874 0 -0.0057513893241746558 -0.0012774323575990888 0 -0.0058318381441903166 -0.0014445411238733429 0 -0.0064357737253419867 -0.0012248121747928473 0 -0.0060332665520716781 -0.0015674499204269216 0 -0.0054716693501629917 -0.0013892599839803567 0 -0.0052271546993695071 -0.0015523668718261936 0 -0.0041803982728559862 -0.001740361223687594 0 -0.0042004871712453019 -0.0017768321337466361 0 -0.0042630084584227932 -0.0017111601616982188 0 -0.0041797093011770228 -0.0016818223491224032 0 -0.0041803982728559862 -0.001740361223687594 0 -0.0042630084584227932 -0.0017111601616982188 0 -0.0052271546993695071 -0.0015523668718261936 0 -0.0060332665520716781 -0.0015674499204269216 0 -0.0060332665520716781 -0.0015674499204269216 0 -0.0056858824090042694 -0.0016341124753032363 0 -0.0059849487048544659 -0.0014664914360840886 0 -0.0063952600496384121 -0.0022131352247563448 0 -0.0059651283393674405 -0.0021744437190680142 0 -0.0056858824090042694 -0.0016341124753032363 0 -0.006853832885874993 -0.0016428315398340787 0 -0.0060332665520716781 -0.0015674499204269216 0 -0.006853832885874993 -0.0016428315398340787 0 -0.0056858824090042694 -0.0016341124753032363 0 -0.0066461335422077564 -0.0011615416943876607 0 -0.0085569893549677818 -0.0011154894159016969 0 -0.0080557037959075005 -0.00084370242570980182 0 -0.0085945813539372012 -0.00015532188798161013 0 -0.006853832885874993 -0.0016428315398340787 0 -0.0080542151379791455 -0.0011379400586244187 0 -0.0067195621041015348 -0.0013110847171585024 0 -0.0067143707641751536 -0.0013104847849837579 0 -0.0067154450768286212 -0.0013292918364214165 0 -0.0067195621041015348 -0.0013110847171585024 0 -0.0067154450768286212 -0.0013292918364214165 0 -0.0067362437837247659 -0.0013417191988943265 0 -0.0085108780136209441 -0.001664312902487431 0 -0.0085221746334279078 -0.0011963897453080362 0 -0.0089315462954316169 -0.0014178641882524438 0 -0.0080542151379791455 -0.0011379400586244187 0 -0.0087006238556451721 -0.001404224048956343 0 -0.0080542151379791455 -0.0011379400586244187 0 -0.0066461335422077564 -0.0011615416943876607 0 -0.0092339869883473463 -0.0008659800336981399 0 -0.0090030178382224327 -0.001085523844531608 0 -0.0093923624007469335 -0.0012008218376725272 0 -0.0095835109861910159 -0.00079601127787820569 0 -0.0092339869883473463 -0.0008659800336981399 0 -0.0093923624007469335 -0.0012008218376725272 0 -0.0095835109861910159 -0.00079601127787820569 0 -0.0092339869883473463 -0.0008659800336981399 0 -0.0092744563453238723 -0.00056063798377034828 0 -0.0092339869883473463 -0.0008659800336981399 0 -0.0090030178382224327 -0.001085523844531608 0 -0.0089199043959305169 -0.00068560145532694204 0 -0.0085487053501784403 -0.00120497963810902 0 -0.0090030178382224327 -0.001085523844531608 0 -0.0089199043959305169 -0.00068560145532694204 0 -0.0085108780136209441 -0.001664312902487431 0 -0.0089315462954316169 -0.0014178641882524438 0 -0.0093974696966512075 -0.0017363824488841851 0 -0.0090030178382224327 -0.001085523844531608 0 -0.0089315462954316169 -0.0014178641882524438 0 -0.0093923624007469335 -0.0012008218376725272 0 -0.0085487053501784403 -0.00120497963810902 0 -0.0090030178382224327 -0.001085523844531608 0 -0.0089315462954316169 -0.0014178641882524438 0 -0.0089315462954316169 -0.0014178641882524438 0 -0.0093923624007469335 -0.0012008218376725272 0 -0.0093974696966512075 -0.0017363824488841851 0 -0.0068260783871984107 -0.0014923062200030966 0 -0.0067208663731455603 -0.001301269075415872 0 -0.0069732811783180396 -0.0012599902070628238 0 -0.0067208663731455603 -0.001301269075415872 0 -0.0067230703400571563 -0.0012388056982613608 0 -0.0069732811783180396 -0.0012599902070628238 0 -0.006853832885874993 -0.0016428315398340787 0 -0.007528158299908945 -0.0012347168627626377 0 -0.0064357737253419867 -0.0012248121747928473 0 -0.007528158299908945 -0.0012347168627626377 0 -0.006896414445173308 -0.0010715418265405245 0 -0.0069003534350536499 -0.0010953412208609197 0 -0.0069135020620852954 -0.0010874945544518556 0 -0.0068828529927290379 -0.0011015604665214702 0 -0.006896414445173308 -0.0010715418265405245 0 -0.0069003534350536499 -0.0010953412208609197 0 -0.007528158299908945 -0.0012347168627626377 0 -0.0066843330534764687 -0.0010467726691698481 0 -0.0069154978810893591 -0.0011108057393657191 0 -0.0069003534350536499 -0.0010953412208609197 0 -0.0069135020620852954 -0.0010874945544518556 0 -0.006896414445173308 -0.0010715418265405245 0 -0.0069135020620852954 -0.0010874945544518556 0 -0.006925600538500329 -0.0010619824877616344 0 -0.006950387537146034 -0.0011183865359266469 0 -0.0069135020620852954 -0.0010874945544518556 0 -0.006925600538500329 -0.0010619824877616344 0 -0.0070010943085330492 -0.0011250567258395783 0 -0.006950387537146034 -0.0011183865359266469 0 -0.0070048396809485776 -0.0010772364122903374 0 -0.006950387537146034 -0.0011183865359266469 0 -0.006925600538500329 -0.0010619824877616344 0 -0.0070048396809485776 -0.0010772364122903374 0 -0.006925600538500329 -0.0010619824877616344 0 -0.0070048396809485776 -0.0010772364122903374 0 -0.0070458470936887972 -0.00097878799911705109 0 -0.0070048396809485776 -0.0010772364122903374 0 -0.0070458470936887972 -0.00097878799911705109 0 -0.0070926791675350589 -0.0010839954974818595 0 -0.006925600538500329 -0.0010619824877616344 0 -0.0070458470936887972 -0.00097878799911705109 0 -0.0069621032210500184 -0.00093766261862956296 0 -0.0069621032210500184 -0.00093766261862956296 0 -0.0070423790423762645 -0.00087902321500204475 0 -0.0069893020967788837 -0.00083267715000722223 0 -0.0070458470936887972 -0.00097878799911705109 0 -0.0069621032210500184 -0.00093766261862956296 0 -0.0070423790423762645 -0.00087902321500204475 0 -0.0070458470936887972 -0.00097878799911705109 0 -0.0070423790423762645 -0.00087902321500204475 0 -0.0071135005273387031 -0.00087614408055227007 0 -0.0093923624007469335 -0.0012008218376725272 0 -0.0093974696966512075 -0.0017363824488841851 0 -0.010184208237179346 -0.00047497115577495113 0 -0.0067716393746776946 -0.0010645290035807948 0 -0.0068774271355223158 -0.00095507839313628464 0 -0.0068234147836639661 -0.00080179075162665266 0 -0.007528158299908945 -0.0012347168627626377 0 -0.0098189553508840656 -0.00043975119079368266 0 -0.0067716393746776946 -0.0010645290035807948 0 -0.006925600538500329 -0.0010619824877616344 0 -0.0068774271355223158 -0.00095507839313628464 0 -0.006925600538500329 -0.0010619824877616344 0 -0.0069621032210500184 -0.00093766261862956296 0 -0.0068774271355223158 -0.00095507839313628464 0 -0.0068774271355223158 -0.00095507839313628464 0 -0.0069169355957495494 -0.0008891348445255172 0 -0.0068234147836639661 -0.00080179075162665266 0 -0.0069621032210500184 -0.00093766261862956296 0 -0.0069169355957495494 -0.0008891348445255172 0 -0.0069893020967788837 -0.00083267715000722223 0 -0.0069621032210500184 -0.00093766261862956296 0 -0.0068774271355223158 -0.00095507839313628464 0 -0.0069169355957495494 -0.0008891348445255172 0 -0.0095835109861910159 -0.00079601127787820569 0 -0.0093923624007469335 -0.0012008218376725272 0 -0.010184208237179346 -0.00047497115577495113 0 -0.010637168579566718 0.00020042603508675031 0 -0.009416591203198231 -0.00021673347983628509 0 -0.0091659695455913147 0.00019660732096102947 0 -0.0098041007100768476 -0.0004186800748633642 0 -0.010637168579566718 0.00020042603508675031 0 -0.009416591203198231 -0.00021673347983628509 0 -0.009748643671276206 -0.00064810477990105122 0 -0.0098189553508840656 -0.00043975119079368266 0 -0.012408801658915098 0.0013588766772294474 0 -0.010585318236581294 3.1997503821504217e-06 0 -0.0095835109861910159 -0.00079601127787820569 0 -0.0098041007100768476 -0.0004186800748633642 0 -0.010252135887008679 -0.00046469001270009176 0 -0.0069169355957495494 -0.0008891348445255172 0 -0.0069893020967788837 -0.00083267715000722223 0 -0.0068234147836639661 -0.00080179075162665266 0 -0.0098041007100768476 -0.0004186800748633642 0 -0.010252135887008679 -0.00046469001270009176 0 -0.010637168579566718 0.00020042603508675031 0 -0.0098189553508840656 -0.00043975119079368266 0 -0.012408801658915098 0.0013588766772294474 0 -0.0069893020967788837 -0.00083267715000722223 0 -0.0070998252522031721 -0.00077843461426058125 0 -0.0071548785847644434 -0.00055297536674406322 0 -0.0069893020967788837 -0.00083267715000722223 0 -0.0074151503473394659 -0.00038145639319340255 0 -0.0081192402140407936 5.2175936142889286e-06 0 -0.0062866110959408257 -0.0011614141303555928 0 -0.0094608806502547091 0.00040771850950597127 0 -0.0070423790423762645 -0.00087902321500204475 0 -0.0071135005273387031 -0.00087614408055227007 0 -0.0070998252522031721 -0.00077843461426058125 0 -0.0069893020967788837 -0.00083267715000722223 0 -0.0068234147836639661 -0.00080179075162665266 0 -0.0074151503473394659 -0.00038145639319340255 0 -0.0070423790423762645 -0.00087902321500204475 0 -0.0069893020967788837 -0.00083267715000722223 0 -0.0070998252522031721 -0.00077843461426058125 0 -0.012779752124692238 0.0013311423757842293 0 -0.012994121081721818 0.0016841204129295184 0 -0.013222950108470148 0.0016225330971678723 0 -0.012994121081721818 0.0016841204129295184 0 -0.013222950108470148 0.0016225330971678723 0 -0.013170414544568111 0.0016823184199962254 0 -0.0098189553508840656 -0.00043975119079368266 0 -0.010515504577801947 0.00070966941973641133 0 -0.012408801658915098 0.0013588766772294474 0 -0.012885471590219601 0.0014332746285349639 0 -0.013222950108470148 0.0016225330971678723 0 -0.013170414544568111 0.0016823184199962254 0 -0.013192986301804294 0.0016698272112301371 0 -0.010515504577801947 0.00070966941973641133 0 -0.0094608806502547091 0.00040771850950597127 0 -0.013222950108470148 0.0016225330971678723 0 -0.01317761753717513 0.0016826081073446188 0 -0.013192986301804294 0.0016698272112301371 0 -0.013222950108470148 0.0016225330971678723 0 -0.01317761753717513 0.0016826081073446188 0 -0.013109104064491929 0.0017361005002653777 0 -0.01317761753717513 0.0016826081073446188 0 -0.013192986301804294 0.0016698272112301371 0 -0.013196243563332176 0.0016649051137980341 0 -0.01317761753717513 0.0016826081073446188 0 -0.013196243563332176 0.0016649051137980341 0 -0.013210734689726888 0.0016409714535835275 0 -0.01317761753717513 0.0016826081073446188 0 -0.013210734689726888 0.0016409714535835275 0 -0.013177784648735778 0.0016535570516946138 0 -0.013170414544568111 0.0016823184199962254 0 -0.013222332254263874 0.001644032668264631 0 -0.013272702869882781 0.001644783606140563 0 -0.013196243563332176 0.0016649051137980341 0 -0.013222332254263874 0.001644032668264631 0 -0.013210734689726888 0.0016409714535835275 0 -0.013170414544568111 0.0016823184199962254 0 -0.013196243563332176 0.0016649051137980341 0 -0.013222332254263874 0.001644032668264631 0 -0.013170414544568111 0.0016823184199962254 0 -0.013192986301804294 0.0016698272112301371 0 -0.013196243563332176 0.0016649051137980341 0 -0.013242366987683264 0.0016153443569307396 0 -0.013231970965394963 0.0016013241057407455 0 -0.013298032886725477 0.0015469264555716736 0 -0.013222332254263874 0.001644032668264631 0 -0.013242366987683264 0.0016153443569307396 0 -0.013210734689726888 0.0016409714535835275 0 -0.013222332254263874 0.001644032668264631 0 -0.013242366987683264 0.0016153443569307396 0 -0.013269885756724211 0.0016130728952380858 0 -0.013242366987683264 0.0016153443569307396 0 -0.013231970965394963 0.0016013241057407455 0 -0.013210734689726888 0.0016409714535835275 0 -0.013231970965394963 0.0016013241057407455 0 -0.013210734689726888 0.0016409714535835275 0 -0.013177784648735778 0.0016535570516946138 0 -0.013231970965394963 0.0016013241057407455 0 -0.013177784648735778 0.0016535570516946138 0 -0.013196129139123819 0.0015971643499112038 0 -0.013177784648735778 0.0016535570516946138 0 -0.013112708245830945 0.0016544189920457216 0 -0.013196129139123819 0.0015971643499112038 0 -0.013222052642595936 0.0016809798903789147 0 -0.013272702869882781 0.001644783606140563 0 -0.013364665060769021 0.0016386259780524081 0 -0.013324730061509662 0.0016199924846761018 0 -0.013272702869882781 0.001644783606140563 0 -0.013364665060769021 0.0016386259780524081 0 -0.013324730061509662 0.0016199924846761018 0 -0.013272702869882781 0.001644783606140563 0 -0.013304127078267254 0.0016063819865781812 0 -0.013222052642595936 0.0016809798903789147 0 -0.013170414544568111 0.0016823184199962254 0 -0.013272702869882781 0.001644783606140563 0 -0.013222332254263874 0.001644032668264631 0 -0.013272702869882781 0.001644783606140563 0 -0.013269885756724211 0.0016130728952380858 0 -0.013272702869882781 0.001644783606140563 0 -0.013269885756724211 0.0016130728952380858 0 -0.013304127078267254 0.0016063819865781812 0 -0.013242366987683264 0.0016153443569307396 0 -0.013269885756724211 0.0016130728952380858 0 -0.013298032886725477 0.0015469264555716736 0 -0.013269885756724211 0.0016130728952380858 0 -0.013309405925650098 0.0015773875676032827 0 -0.013298032886725477 0.0015469264555716736 0 -0.013269885756724211 0.0016130728952380858 0 -0.013309405925650098 0.0015773875676032827 0 -0.013304127078267254 0.0016063819865781812 0 -0.013324730061509662 0.0016199924846761018 0 -0.013304127078267254 0.0016063819865781812 0 -0.013336462403615728 0.0015819723153102324 0 -0.013309405925650098 0.0015773875676032827 0 -0.013304127078267254 0.0016063819865781812 0 -0.013336462403615728 0.0015819723153102324 0 -0.013336462403615728 0.0015819723153102324 0 -0.013348945338642846 0.0016014165614623432 0 -0.013366096221185673 0.0015693953352403751 0 -0.010585318236581294 3.1997503821504217e-06 0 -0.012161991059936497 0.00066568646412657742 0 -0.013366096221185673 0.0015693953352403751 0 -0.013364665060769021 0.0016386259780524081 0 -0.013408906692925439 0.0015330736488004969 0 -0.013324730061509662 0.0016199924846761018 0 -0.013336462403615728 0.0015819723153102324 0 -0.013348945338642846 0.0016014165614623432 0 -0.013324730061509662 0.0016199924846761018 0 -0.013348945338642846 0.0016014165614623432 0 -0.013364665060769021 0.0016386259780524081 0 -0.013348945338642846 0.0016014165614623432 0 -0.013366096221185673 0.0015693953352403751 0 -0.013364665060769021 0.0016386259780524081 0 -0.0098323049070899102 -0.00075712612496059266 0 -0.010226040117137822 -0.00097995909261693525 0 -0.0098475249924402011 -0.00036386869620764291 0 -0.0098323049070899102 -0.00075712612496059266 0 -0.0096293363919654623 -0.00064915094443172546 0 -0.0096169727068688062 -0.0008147517459852477 0 -0.0098323049070899102 -0.00075712612496059266 0 -0.0096293363919654623 -0.00064915094443172546 0 -0.0098475249924402011 -0.00036386869620764291 0 -0.0096169727068688062 -0.0008147517459852477 0 -0.0098127097156262295 -0.00098208721377788318 0 -0.0094020334172242679 -0.00097802158332951417 0 -0.0098323049070899102 -0.00075712612496059266 0 -0.0096169727068688062 -0.0008147517459852477 0 -0.0098127097156262295 -0.00098208721377788318 0 -0.0098323049070899102 -0.00075712612496059266 0 -0.0098127097156262295 -0.00098208721377788318 0 -0.010226040117137822 -0.00097995909261693525 0 -0.0085945813539372012 -0.00015532188798161013 0 -0.0081195026193536246 -0.0002278872944096159 0 -0.008322841567550681 0.00013174861335502055 0 -0.0089918858040475835 -0.000412585171905785 0 -0.010585318236581294 3.1997503821504217e-06 0 -0.0080542151379791455 -0.0011379400586244187 0 -0.008606023616684947 -0.0002600702648577901 0 -0.0085945813539372012 -0.00015532188798161013 0 -0.008322841567550681 0.00013174861335502055 0 -0.0091754278964766203 0.00014661061179913016 0 -0.0085487053501784403 -0.00120497963810902 0 -0.0085945813539372012 -0.00015532188798161013 0 -0.0089199043959305169 -0.00068560145532694204 0 -0.0089918858040475835 -0.000412585171905785 0 -0.0081215352447003633 -0.00061013775025689021 0 -0.0081195026193536246 -0.0002278872944096159 0 -0.008322841567550681 0.00013174861335502055 0 -0.0075253053830242065 0.00012946346377064728 0 -0.0080557037959075005 -0.00084370242570980182 0 -0.0085945813539372012 -0.00015532188798161013 0 -0.0081195026193536246 -0.0002278872944096159 0 -0.0085945813539372012 -0.00015532188798161013 0 -0.0089199043959305169 -0.00068560145532694204 0 -0.0090521524199595506 -0.00027217634477370942 0 -0.0089199043959305169 -0.00068560145532694204 0 -0.0090521524199595506 -0.00027217634477370942 0 -0.0092744563453238723 -0.00056063798377034828 0 -0.0092339869883473463 -0.0008659800336981399 0 -0.0089199043959305169 -0.00068560145532694204 0 -0.0092744563453238723 -0.00056063798377034828 0 -0.0098041007100768476 -0.0004186800748633642 0 -0.0092744563453238723 -0.00056063798377034828 0 -0.009416591203198231 -0.00021673347983628509 0 -0.0095835109861910159 -0.00079601127787820569 0 -0.0098041007100768476 -0.0004186800748633642 0 -0.0092744563453238723 -0.00056063798377034828 0 -0.0090521524199595506 -0.00027217634477370942 0 -0.0092744563453238723 -0.00056063798377034828 0 -0.009416591203198231 -0.00021673347983628509 0 -0.0090521524199595506 -0.00027217634477370942 0 -0.009416591203198231 -0.00021673347983628509 0 -0.0091754278964766203 0.00014661061179913016 0 -0.0098953699144038124 0.00020614698333008111 0 -0.010585318236581294 3.1997503821504217e-06 0 -0.0085945813539372012 -0.00015532188798161013 0 -0.0090521524199595506 -0.00027217634477370942 0 -0.0091754278964766203 0.00014661061179913016 0 -0.007574252479308082 -0.0010663936026328281 0 -0.0074223891837222125 -0.00081810979223648737 0 -0.007630503975356113 -0.00082588855128782777 0 -0.0068995762276472363 -0.00077148811601689734 0 -0.008314238049716571 -0.00045537724231936084 0 -0.0073406908195962255 -0.0012116967103642982 0 -0.007574252479308082 -0.0010663936026328281 0 -0.0073533643596749663 -0.00098749739301356955 0 -0.007574252479308082 -0.0010663936026328281 0 -0.0073533643596749663 -0.00098749739301356955 0 -0.0074223891837222125 -0.00081810979223648737 0 -0.0073533643596749663 -0.00098749739301356955 0 -0.0073278678368359175 -0.00088464358599351441 0 -0.0074223891837222125 -0.00081810979223648737 0 -0.0073533643596749663 -0.00098749739301356955 0 -0.0073278678368359175 -0.00088464358599351441 0 -0.0071841956156922723 -0.00091506293192613036 0 -0.0073406908195962255 -0.0012116967103642982 0 -0.0073533643596749663 -0.00098749739301356955 0 -0.0070926791675350589 -0.0010839954974818595 0 -0.0073538059618327946 -0.001257273999526727 0 -0.0070213692624659192 -0.0010487995896687672 0 -0.0070010943085330492 -0.0011250567258395783 0 -0.0070048396809485776 -0.0010772364122903374 0 -0.0070926791675350589 -0.0010839954974818595 0 -0.0070458470936887972 -0.00097878799911705109 0 -0.0070926791675350589 -0.0010839954974818595 0 -0.0071841956156922723 -0.00091506293192613036 0 -0.0073533643596749663 -0.00098749739301356955 0 -0.0070926791675350589 -0.0010839954974818595 0 -0.0071841956156922723 -0.00091506293192613036 0 -0.0070458470936887972 -0.00097878799911705109 0 -0.0071135005273387031 -0.00087614408055227007 0 -0.0071841956156922723 -0.00091506293192613036 0 -0.0071135005273387031 -0.00087614408055227007 0 -0.0071841956156922723 -0.00091506293192613036 0 -0.0071851645811723906 -0.00081965688957322941 0 -0.0071135005273387031 -0.00087614408055227007 0 -0.0070998252522031721 -0.00077843461426058125 0 -0.0071851645811723906 -0.00081965688957322941 0 -0.0071841956156922723 -0.00091506293192613036 0 -0.0071851645811723906 -0.00081965688957322941 0 -0.0073247303739849496 -0.00081826473592402731 0 -0.0073278678368359175 -0.00088464358599351441 0 -0.0071841956156922723 -0.00091506293192613036 0 -0.0073247303739849496 -0.00081826473592402731 0 -0.0071851645811723906 -0.00081965688957322941 0 -0.0073247303739849496 -0.00081826473592402731 0 -0.0071548785847644434 -0.00055297536674406322 0 -0.0070998252522031721 -0.00077843461426058125 0 -0.0071851645811723906 -0.00081965688957322941 0 -0.0071548785847644434 -0.00055297536674406322 0 -0.01317761753717513 0.0016826081073446188 0 -0.013177784648735778 0.0016535570516946138 0 -0.013109104064491929 0.0017361005002653777 0 -0.0094608806502547091 0.00040771850950597127 0 -0.0086219318102310673 0.0001481275434622762 0 -0.013109104064491929 0.0017361005002653777 0 -0.012988650116779065 0.0016801953313252264 0 -0.012714312356820115 0.0017119777638858521 0 -0.013109104064491929 0.0017361005002653777 0 -0.013112708245830945 0.0016544189920457216 0 -0.012988650116779065 0.0016801953313252264 0 -0.013177784648735778 0.0016535570516946138 0 -0.013109104064491929 0.0017361005002653777 0 -0.013112708245830945 0.0016544189920457216 0 -0.0073247303739849496 -0.00081826473592402731 0 -0.0071548785847644434 -0.00055297536674406322 0 -0.0076450847894697456 -0.00047959377274918625 0 -0.0096291900183325622 0.00047715950209628789 0 -0.0096758297210774256 0.00052010599604476531 0 -0.0096817037319670337 0.00053795612278473119 0 -0.0094608806502547091 0.00040771850950597127 0 -0.011575128460902239 0.0013166951517997801 0 -0.0071548785847644434 -0.00055297536674406322 0 -0.0076450847894697456 -0.00047959377274918625 0 -0.0079712286851642018 -6.1438186432275691e-08 0 -0.0076450847894697456 -0.00047959377274918625 0 -0.0079712286851642018 -6.1438186432275691e-08 0 -0.0081378941226086503 -0.00053945712276978893 0 -0.0073247303739849496 -0.00081826473592402731 0 -0.0076450847894697456 -0.00047959377274918625 0 -0.0081378941226086503 -0.00053945712276978893 0 -0.0073448500814018323 -0.00082622269372527302 0 -0.0080529488782697892 -0.00096390773740275448 0 -0.0073247303739849496 -0.00081826473592402731 0 -0.0081378941226086503 -0.00053945712276978893 0 -0.0085362660028812289 -0.0010298310588742056 0 -0.0073278678368359175 -0.00088464358599351441 0 -0.0073247303739849496 -0.00081826473592402731 0 -0.0074223891837222125 -0.00081810979223648737 0 -0.0085362660028812289 -0.0010298310588742056 0 -0.0087829951720382396 -0.00037128859111374243 0 -0.0096759408929202716 -0.001082837340362883 0 -0.0079712286851642018 -6.1438186432275691e-08 0 -0.0087829951720382396 -0.00037128859111374243 0 -0.0089979724603060311 0.00043378583614009841 0 -0.0079712286851642018 -6.1438186432275691e-08 0 -0.0081378941226086503 -0.00053945712276978893 0 -0.0087829951720382396 -0.00037128859111374243 0 -0.0081378941226086503 -0.00053945712276978893 0 -0.0085362660028812289 -0.0010298310588742056 0 -0.0087829951720382396 -0.00037128859111374243 0 -0.0087829951720382396 -0.00037128859111374243 0 -0.0093245878612907736 -6.4865153817017415e-05 0 -0.0089979724603060311 0.00043378583614009841 0 -0.0093245878612907736 -6.4865153817017415e-05 0 -0.0096759408929202716 -0.001082837340362883 0 -0.0099004990206044662 0.00011765789557858151 0 -0.0087829951720382396 -0.00037128859111374243 0 -0.0093245878612907736 -6.4865153817017415e-05 0 -0.0096759408929202716 -0.001082837340362883 0 -0.0080529488782697892 -0.00096390773740275448 0 -0.008314238049716571 -0.00045537724231936084 0 -0.010851711747773324 0.00099894685128429535 0 -0.010784229567031574 0.00097969810778320942 0 -0.0097477072349057836 0.00061331324584675397 0 -0.0098871942819837664 0.0006024711719329756 0 -0.010046161208058603 0.00078139130719743664 0 -0.01211629439358264 0.0014937635734349679 0 -0.012310977907190237 0.0012051064419984694 0 -0.011969867177193595 0.0011152869351823132 0 -0.01211629439358264 0.0014937635734349679 0 -0.011969867177193595 0.0011152869351823132 0 -0.011503683329283036 0.0011834540643916105 0 -0.0097477072349057836 0.00061331324584675397 0 -0.0097294552886352907 0.00056068091719496053 0 -0.0098871942819837664 0.0006024711719329756 0 -0.0095267690756468473 0.00029304925040167388 0 -0.0089979724603060311 0.00043378583614009841 0 -0.0098871942819837664 0.0006024711719329756 0 -0.0094085721301724514 0.0005034049420433004 0 -0.0098043234714038623 0.00060279861094051008 0 -0.0095267690756468473 0.00029304925040167388 0 -0.0099004990206044662 0.00011765789557858151 0 -0.0098871942819837664 0.0006024711719329756 0 -0.0093245878612907736 -6.4865153817017415e-05 0 -0.0095267690756468473 0.00029304925040167388 0 -0.0099004990206044662 0.00011765789557858151 0 -0.0093245878612907736 -6.4865153817017415e-05 0 -0.0095267690756468473 0.00029304925040167388 0 -0.0089979724603060311 0.00043378583614009841 0 -0.0086219318102310673 0.0001481275434622762 0 -0.0094085721301724514 0.0005034049420433004 0 -0.010851711747773324 0.00099894685128429535 0 -0.011575128460902239 0.0013166951517997801 0 -0.0096758297210774256 0.00052010599604476531 0 -0.0097294552886352907 0.00056068091719496053 0 -0.0096817037319670337 0.00053795612278473119 0 -0.0097477072349057836 0.00061331324584675397 0 -0.0097294552886352907 0.00056068091719496053 0 -0.0096817037319670337 0.00053795612278473119 0 -0.01211629439358264 0.0014937635734349679 0 -0.012488056883430632 0.001525880819159553 0 -0.012714312356820115 0.0017119777638858521 0 -0.012333498360307064 0.0014012845800704214 0 -0.012632574370995341 0.0012749142924421625 0 -0.01262080301780562 0.001438232681423125 0 -0.012488056883430632 0.001525880819159553 0 -0.012333498360307064 0.0014012845800704214 0 -0.01262080301780562 0.001438232681423125 0 -0.01211629439358264 0.0014937635734349679 0 -0.012488056883430632 0.001525880819159553 0 -0.012333498360307064 0.0014012845800704214 0 -0.01211629439358264 0.0014937635734349679 0 -0.012333498360307064 0.0014012845800704214 0 -0.012310977907190237 0.0012051064419984694 0 -0.012333498360307064 0.0014012845800704214 0 -0.012310977907190237 0.0012051064419984694 0 -0.012632574370995341 0.0012749142924421625 0 -0.012632574370995341 0.0012749142924421625 0 -0.012807513239043574 0.0013704383172297753 0 -0.012935916653416682 0.0012392333939604701 0 -0.012807513239043574 0.0013704383172297753 0 -0.012939912374298137 0.0014310151146927671 0 -0.012935916653416682 0.0012392333939604701 0 -0.012807513239043574 0.0013704383172297753 0 -0.012796525349450426 0.0015019825992373785 0 -0.012939912374298137 0.0014310151146927671 0 -0.012807513239043574 0.0013704383172297753 0 -0.01262080301780562 0.001438232681423125 0 -0.012796525349450426 0.0015019825992373785 0 -0.012632574370995341 0.0012749142924421625 0 -0.012807513239043574 0.0013704383172297753 0 -0.01262080301780562 0.001438232681423125 0 -0.012488056883430632 0.001525880819159553 0 -0.012679860938154113 0.001560311179051163 0 -0.012714312356820115 0.0017119777638858521 0 -0.012488056883430632 0.001525880819159553 0 -0.01262080301780562 0.001438232681423125 0 -0.012679860938154113 0.001560311179051163 0 -0.01262080301780562 0.001438232681423125 0 -0.012679860938154113 0.001560311179051163 0 -0.012796525349450426 0.0015019825992373785 0 -0.012679860938154113 0.001560311179051163 0 -0.012796405490377603 0.0016118398957078515 0 -0.012796525349450426 0.0015019825992373785 0 -0.012679860938154113 0.001560311179051163 0 -0.012714312356820115 0.0017119777638858521 0 -0.012796405490377603 0.0016118398957078515 0 -0.012988650116779065 0.0016801953313252264 0 -0.012714312356820115 0.0017119777638858521 0 -0.012850516622915037 0.0016626712296758928 0 -0.012988650116779065 0.0016801953313252264 0 -0.012850516622915037 0.0016626712296758928 0 -0.0128968659936441 0.001632489898466093 0 -0.012850516622915037 0.0016626712296758928 0 -0.0128968659936441 0.001632489898466093 0 -0.012796405490377603 0.0016118398957078515 0 -0.012714312356820115 0.0017119777638858521 0 -0.012850516622915037 0.0016626712296758928 0 -0.012796405490377603 0.0016118398957078515 0 -0.0128968659936441 0.001632489898466093 0 -0.012929374187957322 0.0015496584122944605 0 -0.012796405490377603 0.0016118398957078515 0 -0.012929374187957322 0.0015496584122944605 0 -0.012796405490377603 0.0016118398957078515 0 -0.012796525349450426 0.0015019825992373785 0 -0.012929374187957322 0.0015496584122944605 0 -0.012796525349450426 0.0015019825992373785 0 -0.012939912374298137 0.0014310151146927671 0 -0.012929374187957322 0.0015496584122944605 0 -0.01303028548137865 0.001488653490138482 0 -0.013043984182533726 0.0015498232214751033 0 -0.012929374187957322 0.0015496584122944605 0 -0.01303028548137865 0.001488653490138482 0 -0.012939912374298137 0.0014310151146927671 0 -0.01303028548137865 0.001488653490138482 0 -0.013043984182533726 0.0015498232214751033 0 -0.013131619059520833 0.0014873404118175891 0 -0.012929374187957322 0.0015496584122944605 0 -0.013043984182533726 0.0015498232214751033 0 -0.012986032435003892 0.0016086186099435597 0 -0.0128968659936441 0.001632489898466093 0 -0.012929374187957322 0.0015496584122944605 0 -0.012986032435003892 0.0016086186099435597 0 -0.013112708245830945 0.0016544189920457216 0 -0.012988650116779065 0.0016801953313252264 0 -0.013064993429493891 0.0016089698162788757 0 -0.013043984182533726 0.0015498232214751033 0 -0.012986032435003892 0.0016086186099435597 0 -0.013064993429493891 0.0016089698162788757 0 -0.012988650116779065 0.0016801953313252264 0 -0.012986032435003892 0.0016086186099435597 0 -0.013064993429493891 0.0016089698162788757 0 -0.012988650116779065 0.0016801953313252264 0 -0.0128968659936441 0.001632489898466093 0 -0.012986032435003892 0.0016086186099435597 0 -0.013112708245830945 0.0016544189920457216 0 -0.013142001878255014 0.001594675528533217 0 -0.013196129139123819 0.0015971643499112038 0 -0.013112708245830945 0.0016544189920457216 0 -0.013064993429493891 0.0016089698162788757 0 -0.013142001878255014 0.001594675528533217 0 -0.013064993429493891 0.0016089698162788757 0 -0.013142001878255014 0.001594675528533217 0 -0.013142397339205626 0.0015413412512891753 0 -0.013142001878255014 0.001594675528533217 0 -0.013142397339205626 0.0015413412512891753 0 -0.013235134772901693 0.0015183148465043649 0 -0.013142397339205626 0.0015413412512891753 0 -0.013211556424033251 0.0014786599504720038 0 -0.013235134772901693 0.0015183148465043649 0 -0.013043984182533726 0.0015498232214751033 0 -0.013064993429493891 0.0016089698162788757 0 -0.013142397339205626 0.0015413412512891753 0 -0.013043984182533726 0.0015498232214751033 0 -0.013142397339205626 0.0015413412512891753 0 -0.013131619059520833 0.0014873404118175891 0 -0.013142397339205626 0.0015413412512891753 0 -0.013131619059520833 0.0014873404118175891 0 -0.013211556424033251 0.0014786599504720038 0 -0.013131619059520833 0.0014873404118175891 0 -0.013211556424033251 0.0014786599504720038 0 -0.013242997320160538 0.0014088093722074146 0 -0.013242997320160538 0.0014088093722074146 0 -0.013158997336133601 0.0013507624369654048 0 -0.013337483526794567 0.0013171958420637501 0 -0.013242997320160538 0.0014088093722074146 0 -0.013158997336133601 0.0013507624369654048 0 -0.013095771525260416 0.0014144437162248362 0 -0.013131619059520833 0.0014873404118175891 0 -0.013242997320160538 0.0014088093722074146 0 -0.013095771525260416 0.0014144437162248362 0 -0.013095771525260416 0.0014144437162248362 0 -0.012939912374298137 0.0014310151146927671 0 -0.012935916653416682 0.0012392333939604701 0 -0.01303028548137865 0.001488653490138482 0 -0.013131619059520833 0.0014873404118175891 0 -0.013095771525260416 0.0014144437162248362 0 -0.01303028548137865 0.001488653490138482 0 -0.013095771525260416 0.0014144437162248362 0 -0.012939912374298137 0.0014310151146927671 0 -0.013158997336133601 0.0013507624369654048 0 -0.013095771525260416 0.0014144437162248362 0 -0.012935916653416682 0.0012392333939604701 0 -0.013158997336133601 0.0013507624369654048 0 -0.012935916653416682 0.0012392333939604701 0 -0.013337483526794567 0.0013171958420637501 0 -0.013396170859883996 0.0012583975205005824 0 -0.013337483526794567 0.0013171958420637501 0 -0.013475715940850539 0.001047403473969836 0 -0.013396170859883996 0.0012583975205005824 0 -0.013548247968400937 0.001049144141178686 0 -0.013475715940850539 0.001047403473969836 0 -0.013354447521861415 0.0013007855050519335 0 -0.013173711184073851 0.00093047291616200987 0 -0.012935916653416682 0.0012392333939604701 0 -0.013337483526794567 0.0013171958420637501 0 -0.012882272512646334 0.00078943097931604312 0 -0.013548247968400937 0.001049144141178686 0 -0.013475715940850539 0.001047403473969836 0 -0.013599005954806846 0.00088047112897309335 0 -0.013475715940850539 0.001047403473969836 0 -0.013440622709245049 0.0008667151940307859 0 -0.013599005954806846 0.00088047112897309335 0 -0.012882272512646334 0.00078943097931604312 0 -0.012564152102438766 0.00096061060905134753 0 -0.012439931673863593 0.00028194072111347173 0 -0.013173711184073851 0.00093047291616200987 0 -0.01296706910267101 0.00060067736952557332 0 -0.012935916653416682 0.0012392333939604701 0 -0.012882272512646334 0.00078943097931604312 0 -0.012564152102438766 0.00096061060905134753 0 -0.012632574370995341 0.0012749142924421625 0 -0.012935916653416682 0.0012392333939604701 0 -0.012564152102438766 0.00096061060905134753 0 -0.012310977907190237 0.0012051064419984694 0 -0.012169900975997464 0.00082726995997349517 0 -0.011969867177193595 0.0011152869351823132 0 -0.012310977907190237 0.0012051064419984694 0 -0.012564152102438766 0.00096061060905134753 0 -0.012169900975997464 0.00082726995997349517 0 -0.012310977907190237 0.0012051064419984694 0 -0.012632574370995341 0.0012749142924421625 0 -0.012564152102438766 0.00096061060905134753 0 -0.012564152102438766 0.00096061060905134753 0 -0.012169900975997464 0.00082726995997349517 0 -0.012439931673863593 0.00028194072111347173 0 -0.012169900975997464 0.00082726995997349517 0 -0.011993924413204146 0.00043345279697296329 0 -0.012439931673863593 0.00028194072111347173 0 -0.011745675802694987 0.00080143044294940448 0 -0.011473305513142429 0.00036175217012272376 0 -0.011993924413204146 0.00043345279697296329 0 -0.012169900975997464 0.00082726995997349517 0 -0.011745675802694987 0.00080143044294940448 0 -0.011993924413204146 0.00043345279697296329 0 -0.011745675802694987 0.00080143044294940448 0 -0.011969867177193595 0.0011152869351823132 0 -0.011503683329283036 0.0011834540643916105 0 -0.012169900975997464 0.00082726995997349517 0 -0.011745675802694987 0.00080143044294940448 0 -0.011969867177193595 0.0011152869351823132 0 -0.014056550877781623 0.0013236160751081564 0 -0.013969013381639885 0.0012254783680919787 0 -0.014122642638205004 0.0011935711886508305 0 -0.014056550877781623 0.0013236160751081564 0 -0.013856909182702423 0.0013940481174897535 0 -0.013969013381639885 0.0012254783680919787 0 -0.014056550877781623 0.0013236160751081564 0 -0.01411256628791514 0.0014673631301839836 0 -0.013856909182702423 0.0013940481174897535 0 -0.014195956820094481 0.0013409237166131811 0 -0.014122642638205004 0.0011935711886508305 0 -0.014278571643931834 0.001202146402898126 0 -0.014195956820094481 0.0013409237166131811 0 -0.014056550877781623 0.0013236160751081564 0 -0.01411256628791514 0.0014673631301839836 0 -0.014195956820094481 0.0013409237166131811 0 -0.014056550877781623 0.0013236160751081564 0 -0.014122642638205004 0.0011935711886508305 0 -0.012161991059936497 0.00066568646412657742 0 -0.008699849024148238 -0.00087228035150880288 0 -0.0096293363919654623 -0.00064915094443172546 0 -0.0098475249924402011 -0.00036386869620764291 0 -0.009420178787644895 -0.00056315721766872647 0 -0.011903646516853585 0.00062907966029714416 0 -0.012161991059936497 0.00066568646412657742 0 -0.0096061136525855371 -7.4158587062990279e-05 0 -0.0098195095456294068 -0.00040021198501345549 0 -0.009558288232518055 -0.0003374907780050519 0 -0.013366096221185673 0.0015693953352403751 0 -0.013408906692925439 0.0015330736488004969 0 -0.013341469700347209 0.001541066231280565 0 -0.013408906692925439 0.0015330736488004969 0 -0.013341469700347209 0.001541066231280565 0 -0.01333379648861829 0.001486300458762965 0 -0.012161991059936497 0.00066568646412657742 0 -0.013982722858743479 0.0016186779484684913 0 -0.013336462403615728 0.0015819723153102324 0 -0.013366096221185673 0.0015693953352403751 0 -0.013341469700347209 0.001541066231280565 0 -0.013309405925650098 0.0015773875676032827 0 -0.013341469700347209 0.001541066231280565 0 -0.013298032886725477 0.0015469264555716736 0 -0.013309405925650098 0.0015773875676032827 0 -0.013336462403615728 0.0015819723153102324 0 -0.013341469700347209 0.001541066231280565 0 -0.013298032886725477 0.0015469264555716736 0 -0.013323652336759303 0.0014532084637472111 0 -0.01333379648861829 0.001486300458762965 0 -0.013341469700347209 0.001541066231280565 0 -0.013298032886725477 0.0015469264555716736 0 -0.01333379648861829 0.001486300458762965 0 -0.013196129139123819 0.0015971643499112038 0 -0.013255567285079775 0.0015474057349576186 0 -0.013235134772901693 0.0015183148465043649 0 -0.013142001878255014 0.001594675528533217 0 -0.013196129139123819 0.0015971643499112038 0 -0.013235134772901693 0.0015183148465043649 0 -0.013231970965394963 0.0016013241057407455 0 -0.013196129139123819 0.0015971643499112038 0 -0.013255567285079775 0.0015474057349576186 0 -0.013231970965394963 0.0016013241057407455 0 -0.013298032886725477 0.0015469264555716736 0 -0.013255567285079775 0.0015474057349576186 0 -0.013255567285079775 0.0015474057349576186 0 -0.013235134772901693 0.0015183148465043649 0 -0.013323652336759303 0.0014532084637472111 0 -0.013298032886725477 0.0015469264555716736 0 -0.013255567285079775 0.0015474057349576186 0 -0.013323652336759303 0.0014532084637472111 0 -0.013235134772901693 0.0015183148465043649 0 -0.013314880823763552 0.0014106317547619711 0 -0.013323652336759303 0.0014532084637472111 0 -0.013211556424033251 0.0014786599504720038 0 -0.013235134772901693 0.0015183148465043649 0 -0.013314880823763552 0.0014106317547619711 0 -0.013213500708574017 0.0011901333547037778 0 -0.013982722858743479 0.0016186779484684913 0 -0.013396170859883996 0.0012583975205005824 0 -0.013323652336759303 0.0014532084637472111 0 -0.01333379648861829 0.001486300458762965 0 -0.013396170859883996 0.0012583975205005824 0 -0.013856909182702423 0.0013940481174897535 0 -0.013757817126327676 0.0011482893695295914 0 -0.013396170859883996 0.0012583975205005824 0 -0.013314880823763552 0.0014106317547619711 0 -0.013323652336759303 0.0014532084637472111 0 -0.013242997320160538 0.0014088093722074146 0 -0.013337483526794567 0.0013171958420637501 0 -0.013314880823763552 0.0014106317547619711 0 -0.013211556424033251 0.0014786599504720038 0 -0.013242997320160538 0.0014088093722074146 0 -0.013314880823763552 0.0014106317547619711 0 -0.013396170859883996 0.0012583975205005824 0 -0.013337483526794567 0.0013171958420637501 0 -0.013314880823763552 0.0014106317547619711 0 -0.013856909182702423 0.0013940481174897535 0 -0.013757817126327676 0.0011482893695295914 0 -0.013969013381639885 0.0012254783680919787 0 -0.013396170859883996 0.0012583975205005824 0 -0.013548247968400937 0.001049144141178686 0 -0.013595703966975393 0.0011114192185593659 0 -0.013396170859883996 0.0012583975205005824 0 -0.013757817126327676 0.0011482893695295914 0 -0.013595703966975393 0.0011114192185593659 0 -0.013757817126327676 0.0011482893695295914 0 -0.013595703966975393 0.0011114192185593659 0 -0.013694498575248274 0.00096774398036314133 0 -0.013548247968400937 0.001049144141178686 0 -0.013694498575248274 0.00096774398036314133 0 -0.013599005954806846 0.00088047112897309335 0 -0.013548247968400937 0.001049144141178686 0 -0.013595703966975393 0.0011114192185593659 0 -0.013694498575248274 0.00096774398036314133 0 -0.013757817126327676 0.0011482893695295914 0 -0.013694498575248274 0.00096774398036314133 0 -0.01388786344347546 0.00093344923046174587 0 -0.013757817126327676 0.0011482893695295914 0 -0.01388786344347546 0.00093344923046174587 0 -0.014017517979610853 0.0010646702324270305 0 -0.01388786344347546 0.00093344923046174587 0 -0.014017517979610853 0.0010646702324270305 0 -0.014072399431140439 0.00086745159772209425 0 -0.014017517979610853 0.0010646702324270305 0 -0.013969013381639885 0.0012254783680919787 0 -0.014122642638205004 0.0011935711886508305 0 -0.013757817126327676 0.0011482893695295914 0 -0.014017517979610853 0.0010646702324270305 0 -0.013969013381639885 0.0012254783680919787 0 -0.014017517979610853 0.0010646702324270305 0 -0.014122642638205004 0.0011935711886508305 0 -0.014210607358299748 0.0010014781052482351 0 -0.014122642638205004 0.0011935711886508305 0 -0.014210607358299748 0.0010014781052482351 0 -0.014278571643931834 0.001202146402898126 0 -0.014017517979610853 0.0010646702324270305 0 -0.014210607358299748 0.0010014781052482351 0 -0.014072399431140439 0.00086745159772209425 0 -0.014210607358299748 0.0010014781052482351 0 -0.01439144014470169 0.0010072478415957362 0 -0.014347950747875232 0.00084621450404214328 0 -0.014210607358299748 0.0010014781052482351 0 -0.01439144014470169 0.0010072478415957362 0 -0.014278571643931834 0.001202146402898126 0 -0.0089104285063369044 0.0003858049516524572 0 -0.0095587670495185205 0.00045346398323775703 0 -0.0090723088314826738 0.00054749812925568048 0 -0.0089478555463453832 0.00044786731685996775 0 -0.0088523764746755995 0.00078535081382050662 0 -0.010205890224493962 0.00062655040084232973 0 -0.0095587670495185205 0.00045346398323775703 0 -0.011475840290479768 0.00060396914468779917 0 -0.011480426600887201 0.00063444929090791704 0 -0.011392621888706701 0.00067711253491725394 0 -0.011475840290479768 0.00060396914468779917 0 -0.011480426600887201 0.00063444929090791704 0 -0.011559864522558277 0.00053361559198198468 0 -0.0090723088314826738 0.00054749812925568048 0 -0.0089478555463453832 0.00044786731685996775 0 -0.0090444984693446515 0.00033121470597480756 0 -0.0089104285063369044 0.0003858049516524572 0 -0.0089813913599698873 0.00035147576632749253 0 -0.0090723088314826738 0.00054749812925568048 0 -0.0090444984693446515 0.00033121470597480756 0 -0.0093896385351162123 0.00025509098585804459 0 -0.0090444984693446515 0.00033121470597480756 0 -0.0093896385351162123 0.00025509098585804459 0 -0.0090113775090752673 9.9483113908600349e-05 0 -0.0089104285063369044 0.0003858049516524572 0 -0.0089842268029205093 0.0001589730048760117 0 -0.008816179516235834 0.00045790542657195001 0 -0.0090113775090752673 9.9483113908600349e-05 0 -0.0087048202233086652 0.00015254244395915186 0 -0.0089212552675101611 0.0004580633442705927 0 -0.0090444984693446515 0.00033121470597480756 0 -0.0090113775090752673 9.9483113908600349e-05 0 -0.013031627710554355 0.00081745166581297741 0 -0.011768039499843719 0.00069816830579580642 0 -0.010205890224493962 0.00062655040084232973 0 -0.011768039499843719 0.00069816830579580642 0 -0.011903646516853585 0.00062907966029714416 0 -0.011768039499843719 0.00069816830579580642 0 -0.0096061136525855371 -7.4158587062990279e-05 0 -0.0093896385351162123 0.00025509098585804459 0 -0.0092791708693434651 -1.4410919863818701e-05 0 -0.0096061136525855371 -7.4158587062990279e-05 0 -0.0092791708693434651 -1.4410919863818701e-05 0 -0.009375954785116946 -0.00026068290519901371 0 -0.0092791708693434651 -1.4410919863818701e-05 0 -0.0090111960801060337 -0.00029143161114543453 0 -0.009375954785116946 -0.00026068290519901371 0 -0.0093896385351162123 0.00025509098585804459 0 -0.0092791708693434651 -1.4410919863818701e-05 0 -0.0090113775090752673 9.9483113908600349e-05 0 -0.0087101856578747101 -0.00012861956378027722 0 -0.0085231155272461456 0.00019262479625199629 0 -0.0085101806580485592 0.00027388424734985485 0 -0.0090113775090752673 9.9483113908600349e-05 0 -0.0090111960801060337 -0.00029143161114543453 0 -0.0087048202233086652 0.00015254244395915186 0 -0.0092791708693434651 -1.4410919863818701e-05 0 -0.0090113775090752673 9.9483113908600349e-05 0 -0.0090111960801060337 -0.00029143161114543453 0 -0.0088909824725215466 -0.00023050925238274019 0 -0.008596799461061665 0.00022635067817635007 0 -0.0087101856578747101 -0.00012861956378027722 0 -0.0084900391453600847 -4.7960309555299791e-05 0 -0.0085231155272461456 0.00019262479625199629 0 -0.0087101856578747101 -0.00012861956378027722 0 -0.0089286883837514739 -0.00054272391515588104 0 -0.008731155086668458 -0.00051797689910544349 0 -0.0088909824725215466 -0.00023050925238274019 0 -0.0087357139287497949 -0.00062945401601321527 0 -0.0087101856578747101 -0.00012861956378027722 0 -0.008731155086668458 -0.00051797689910544349 0 -0.0085883154552881726 -0.00044294152245596394 0 -0.0087101856578747101 -0.00012861956378027722 0 -0.0084372378116416222 -0.00031244223832219435 0 -0.0084900391453600847 -4.7960309555299791e-05 0 -0.0087101856578747101 -0.00012861956378027722 0 -0.0084372378116416222 -0.00031244223832219435 0 -0.0085883154552881726 -0.00044294152245596394 0 -0.0090111960801060337 -0.00029143161114543453 0 -0.009420178787644895 -0.00056315721766872647 0 -0.0092677423469885254 -0.00072195064773344702 0 -0.0098195095456294068 -0.00040021198501345549 0 -0.009420178787644895 -0.00056315721766872647 0 -0.009558288232518055 -0.0003374907780050519 0 -0.0090111960801060337 -0.00029143161114543453 0 -0.009420178787644895 -0.00056315721766872647 0 -0.009375954785116946 -0.00026068290519901371 0 -0.009420178787644895 -0.00056315721766872647 0 -0.009558288232518055 -0.0003374907780050519 0 -0.009375954785116946 -0.00026068290519901371 0 -0.0096061136525855371 -7.4158587062990279e-05 0 -0.009558288232518055 -0.0003374907780050519 0 -0.009375954785116946 -0.00026068290519901371 0 -0.0081231954511869001 -0.00010387701145809726 0 -0.0083560009354969652 -5.7791783441145348e-05 0 -0.0081866257559421556 7.4449426098779814e-05 0 -0.0081231954511869001 -0.00010387701145809726 0 -0.0079245713877387266 -0.00021627745318616946 0 -0.0081682360616289942 -0.00034236042838545774 0 -0.0081231954511869001 -0.00010387701145809726 0 -0.0083560009354969652 -5.7791783441145348e-05 0 -0.0081682360616289942 -0.00034236042838545774 0 -0.0083491731392833311 -5.2378237195914263e-05 0 -0.0078322772085404509 -0.00063526827022615528 0 -0.0082610321167619714 -0.00015095759758005026 0 -0.0083167873974469547 -0.00052316708715981035 0 -0.0080162514888197471 -0.00049987466472402678 0 -0.0084372378116416222 -0.00031244223832219435 0 -0.0082610321167619714 -0.00015095759758005026 0 -0.0083167873974469547 -0.00052316708715981035 0 -0.0084372378116416222 -0.00031244223832219435 0 -0.0082610321167619714 -0.00015095759758005026 0 -0.0084900391453600847 -4.7960309555299791e-05 0 -0.0083560009354969652 -5.7791783441145348e-05 0 -0.0085231155272461456 0.00019262479625199629 0 -0.0083313815751587927 0.00019765724662777691 0 -0.0083560009354969652 -5.7791783441145348e-05 0 -0.0083313815751587927 0.00019765724662777691 0 -0.0081866257559421556 7.4449426098779814e-05 0 -0.0083491731392833311 -5.2378237195914263e-05 0 -0.0084863509724318904 0.00014374717490430919 0 -0.0082610321167619714 -0.00015095759758005026 0 -0.0084900391453600847 -4.7960309555299791e-05 0 -0.0085231155272461456 0.00019262479625199629 0 -0.0085231155272461456 0.00019262479625199629 0 -0.0083313815751587927 0.00019765724662777691 0 -0.0084123158719114684 0.00027601124571670815 0 -0.0085231155272461456 0.00019262479625199629 0 -0.0085101806580485592 0.00027388424734985485 0 -0.0084123158719114684 0.00027601124571670815 0 -0.0081609480177218304 0.00029578091810192938 0 -0.0079225987230929964 0.00039467325968620619 0 -0.0079738045110251971 9.671185864996568e-05 0 -0.0083313815751587927 0.00019765724662777691 0 -0.0081866257559421556 7.4449426098779814e-05 0 -0.0081609480177218304 0.00029578091810192938 0 -0.0081231954511869001 -0.00010387701145809726 0 -0.0081866257559421556 7.4449426098779814e-05 0 -0.0079738045110251971 9.671185864996568e-05 0 -0.0081866257559421556 7.4449426098779814e-05 0 -0.0081609480177218304 0.00029578091810192938 0 -0.0079738045110251971 9.671185864996568e-05 0 -0.0081609480177218304 0.00029578091810192938 0 -0.0081065496122655761 0.00047700239650133673 0 -0.0079225987230929964 0.00039467325968620619 0 -0.0083313815751587927 0.00019765724662777691 0 -0.0081609480177218304 0.00029578091810192938 0 -0.0083640637398960868 0.00037023898262293484 0 -0.0081609480177218304 0.00029578091810192938 0 -0.0082530882241263186 0.00046546216617409579 0 -0.0083640637398960868 0.00037023898262293484 0 -0.0081609480177218304 0.00029578091810192938 0 -0.0082530882241263186 0.00046546216617409579 0 -0.0081065496122655761 0.00047700239650133673 0 -0.0082530882241263186 0.00046546216617409579 0 -0.0081065496122655761 0.00047700239650133673 0 -0.0081830383166944139 0.0006088400970840857 0 -0.008596799461061665 0.00022635067817635007 0 -0.0084010042732823292 0.0005424018596146056 0 -0.0085101806580485592 0.00027388424734985485 0 -0.0083640637398960868 0.00037023898262293484 0 -0.0083793249644365606 0.00056508041981168111 0 -0.008816179516235834 0.00045790542657195001 0 -0.0087048202233086652 0.00015254244395915186 0 -0.0083793249644365606 0.00056508041981168111 0 -0.0085101806580485592 0.00027388424734985485 0 -0.0084123158719114684 0.00027601124571670815 0 -0.0083640637398960868 0.00037023898262293484 0 -0.0083313815751587927 0.00019765724662777691 0 -0.0084123158719114684 0.00027601124571670815 0 -0.0083640637398960868 0.00037023898262293484 0 -0.0082530882241263186 0.00046546216617409579 0 -0.0083640637398960868 0.00037023898262293484 0 -0.0083793249644365606 0.00056508041981168111 0 -0.0090501643482288271 0.00011500618186095146 0 -0.0087215432088634613 0.00041818629790484665 0 -0.0089281849772274852 0.00047444937685106614 0 -0.0089104285063369044 0.0003858049516524572 0 -0.0085417551112680519 0.00057002509134344013 0 -0.008816179516235834 0.00045790542657195001 0 -0.0083793249644365606 0.00056508041981168111 0 -0.0083244337606338415 0.00076881921731587592 0 -0.0083244337606338415 0.00076881921731587592 0 -0.0081830383166944139 0.0006088400970840857 0 -0.0080674848962272155 0.00074915124441615288 0 -0.0081065496122655761 0.00047700239650133673 0 -0.0081830383166944139 0.0006088400970840857 0 -0.0080081158406335416 0.00060888462101782936 0 -0.0081830383166944139 0.0006088400970840857 0 -0.0080674848962272155 0.00074915124441615288 0 -0.0080081158406335416 0.00060888462101782936 0 -0.0083793249644365606 0.00056508041981168111 0 -0.0083244337606338415 0.00076881921731587592 0 -0.0081830383166944139 0.0006088400970840857 0 -0.0082530882241263186 0.00046546216617409579 0 -0.0083793249644365606 0.00056508041981168111 0 -0.0081830383166944139 0.0006088400970840857 0 -0.0080674848962272155 0.00074915124441615288 0 -0.0079126543826551696 0.00067920694624396406 0 -0.0079096257199598556 0.00080292941547171787 0 -0.0080674848962272155 0.00074915124441615288 0 -0.0080081158406335416 0.00060888462101782936 0 -0.0079126543826551696 0.00067920694624396406 0 -0.0080081158406335416 0.00060888462101782936 0 -0.0078442699054865894 0.00056054668027718038 0 -0.0079126543826551696 0.00067920694624396406 0 -0.0078442699054865894 0.00056054668027718038 0 -0.0079126543826551696 0.00067920694624396406 0 -0.0077357926638032311 0.00066736059122332299 0 -0.0079126543826551696 0.00067920694624396406 0 -0.0077357926638032311 0.00066736059122332299 0 -0.0079096257199598556 0.00080292941547171787 0 -0.0078442699054865894 0.00056054668027718038 0 -0.0077357926638032311 0.00066736059122332299 0 -0.0076524220050066052 0.00045731856414639975 0 -0.0077357926638032311 0.00066736059122332299 0 -0.0076524220050066052 0.00045731856414639975 0 -0.0075362383717864053 0.00058425073411440731 0 -0.0077357926638032311 0.00066736059122332299 0 -0.0075362383717864053 0.00058425073411440731 0 -0.0075663376487687499 0.00075362264634108776 0 -0.0076524220050066052 0.00045731856414639975 0 -0.0074241099051610415 0.00032102782343388698 0 -0.0077230627301248635 0.00022944674149471219 0 -0.0076524220050066052 0.00045731856414639975 0 -0.0075362383717864053 0.00058425073411440731 0 -0.0074604076941174081 0.0004403348524078031 0 -0.0076524220050066052 0.00045731856414639975 0 -0.0074604076941174081 0.0004403348524078031 0 -0.0074241099051610415 0.00032102782343388698 0 -0.0076524220050066052 0.00045731856414639975 0 -0.0079225987230929964 0.00039467325968620619 0 -0.0077230627301248635 0.00022944674149471219 0 -0.0078442699054865894 0.00056054668027718038 0 -0.0076524220050066052 0.00045731856414639975 0 -0.0079225987230929964 0.00039467325968620619 0 -0.0080081158406335416 0.00060888462101782936 0 -0.0078442699054865894 0.00056054668027718038 0 -0.0079225987230929964 0.00039467325968620619 0 -0.0081065496122655761 0.00047700239650133673 0 -0.0080081158406335416 0.00060888462101782936 0 -0.0079225987230929964 0.00039467325968620619 0 -0.0073360215305549549 0.00062045297120570187 0 -0.0075362383717864053 0.00058425073411440731 0 -0.0074604076941174081 0.0004403348524078031 0 -0.0073360215305549549 0.00062045297120570187 0 -0.0075362383717864053 0.00058425073411440731 0 -0.0075663376487687499 0.00075362264634108776 0 -0.0074604076941174081 0.0004403348524078031 0 -0.0073764956371557833 0.00041836963224606603 0 -0.0074241099051610415 0.00032102782343388698 0 -0.0073360215305549549 0.00062045297120570187 0 -0.0074604076941174081 0.0004403348524078031 0 -0.0073764956371557833 0.00041836963224606603 0 -0.0073360215305549549 0.00062045297120570187 0 -0.0073764956371557833 0.00041836963224606603 0 -0.0073067334708674563 0.00041331986946680833 0 -0.0094287926635148647 0.00084686689840564355 0 -0.0094706880425451979 0.00082094930383199165 0 -0.0073764956371557833 0.00041836963224606603 0 -0.0073483403724450662 0.0003658629402847407 0 -0.0073067334708674563 0.00041331986946680833 0 -0.0066307236716589661 7.6239890484932414e-05 0 -0.0075894064502280293 0.00038570230947170214 0 -0.0073764956371557833 0.00041836963224606603 0 -0.0073483403724450662 0.0003658629402847407 0 -0.0074241099051610415 0.00032102782343388698 0 -0.0068095984930040595 7.3621918383467709e-05 0 -0.0074241099051610415 0.00032102782343388698 0 -0.0072361753859704952 -6.7318981684698587e-05 0 -0.0068095984930040595 7.3621918383467709e-05 0 -0.0072361753859704952 -6.7318981684698587e-05 0 -0.0069334499165669989 -0.00012641449444401236 0 -0.0069334499165669989 -0.00012641449444401236 0 -0.0068807576242890713 -0.00024884061986003538 0 -0.0070307814235861668 -0.00020631379571765888 0 -0.0072361753859704952 -6.7318981684698587e-05 0 -0.0069334499165669989 -0.00012641449444401236 0 -0.0070307814235861668 -0.00020631379571765888 0 -0.0068095984930040595 7.3621918383467709e-05 0 -0.0069334499165669989 -0.00012641449444401236 0 -0.0067447921477808053 -0.00018601984341534076 0 -0.0069334499165669989 -0.00012641449444401236 0 -0.0067447921477808053 -0.00018601984341534076 0 -0.0068807576242890713 -0.00024884061986003538 0 -0.0079225987230929964 0.00039467325968620619 0 -0.0079738045110251971 9.671185864996568e-05 0 -0.0077230627301248635 0.00022944674149471219 0 -0.0077859554252188139 4.6183438366238398e-05 0 -0.0079738045110251971 9.671185864996568e-05 0 -0.0077230627301248635 0.00022944674149471219 0 -0.0074241099051610415 0.00032102782343388698 0 -0.0077230627301248635 0.00022944674149471219 0 -0.0076095495975214674 8.747960161641865e-05 0 -0.0074241099051610415 0.00032102782343388698 0 -0.0072361753859704952 -6.7318981684698587e-05 0 -0.0074224870455712666 3.8024152593107516e-05 0 -0.0074241099051610415 0.00032102782343388698 0 -0.0074224870455712666 3.8024152593107516e-05 0 -0.0076095495975214674 8.747960161641865e-05 0 -0.0077859554252188139 4.6183438366238398e-05 0 -0.0077230627301248635 0.00022944674149471219 0 -0.0076095495975214674 8.747960161641865e-05 0 -0.0074224870455712666 3.8024152593107516e-05 0 -0.0076095495975214674 8.747960161641865e-05 0 -0.0076411184917048779 -8.4714438598476971e-05 0 -0.0072361753859704952 -6.7318981684698587e-05 0 -0.0074224870455712666 3.8024152593107516e-05 0 -0.0073534592512689585 -0.00039512965744311344 0 -0.0074224870455712666 3.8024152593107516e-05 0 -0.0076411184917048779 -8.4714438598476971e-05 0 -0.0074093911326737092 -0.00029831558946405228 0 -0.0074121452785941419 -5.1824615708765958e-08 0 -0.0073777269540303151 -0.00035898665508761989 0 -0.0077859554252188139 4.6183438366238398e-05 0 -0.0076095495975214674 8.747960161641865e-05 0 -0.0076411184917048779 -8.4714438598476971e-05 0 -0.0076411184917048779 -8.4714438598476971e-05 0 -0.0076306630330492909 -0.0002706553939825693 0 -0.0074093911326737092 -0.00029831558946405228 0 -0.0081231954511869001 -0.00010387701145809726 0 -0.0079738045110251971 9.671185864996568e-05 0 -0.0079245713877387266 -0.00021627745318616946 0 -0.0076411184917048779 -8.4714438598476971e-05 0 -0.0076306630330492909 -0.0002706553939825693 0 -0.0078458000199140288 -0.0002317162503546208 0 -0.0076666655958324689 -0.00010304937025041776 0 -0.007885114299302224 -0.00024261938650825218 0 -0.0077859554252188139 4.6183438366238398e-05 0 -0.0079738045110251971 9.671185864996568e-05 0 -0.0079245713877387266 -0.00021627745318616946 0 -0.0077859554252188139 4.6183438366238398e-05 0 -0.0076411184917048779 -8.4714438598476971e-05 0 -0.0079245713877387266 -0.00021627745318616946 0 -0.007652224393273511 -0.00045356127383994996 0 -0.0077712180036479776 -0.00077069463024218368 0 -0.0080751915210420383 -0.00036315426758810226 0 -0.0078458000199140288 -0.0002317162503546208 0 -0.007652224393273511 -0.00045356127383994996 0 -0.0080751915210420383 -0.00036315426758810226 0 -0.0076306630330492909 -0.0002706553939825693 0 -0.0078458000199140288 -0.0002317162503546208 0 -0.007652224393273511 -0.00045356127383994996 0 -0.0073777269540303151 -0.00035898665508761989 0 -0.0070616147255152771 -0.00055679078455009886 0 -0.0076306630330492909 -0.0002706553939825693 0 -0.007652224393273511 -0.00045356127383994996 0 -0.0074093911326737092 -0.00029831558946405228 0 -0.007652224393273511 -0.00045356127383994996 0 -0.0074093911326737092 -0.00029831558946405228 0 -0.0073912216577419155 -0.0005876734837112717 0 -0.0072361753859704952 -6.7318981684698587e-05 0 -0.0073534592512689585 -0.00039512965744311344 0 -0.0073255504432305904 -0.0008377732793676888 0 -0.0070616147255152771 -0.00055679078455009886 0 -0.007012814944941605 -0.00073660315652400487 0 -0.007652224393273511 -0.00045356127383994996 0 -0.0075577702724898225 -0.00070101057235928547 0 -0.0073912216577419155 -0.0005876734837112717 0 -0.0066248888833708676 -0.00058047264929974825 0 -0.0066032453680671694 -0.00054073503612122676 0 -0.0066078233872544504 -0.00053465820824821395 0 -0.0070616147255152771 -0.00055679078455009886 0 -0.0066607442468007592 -0.00046346027694483416 0 -0.0075577702724898225 -0.00070101057235928547 0 -0.0077712180036479776 -0.00077069463024218368 0 -0.0074298366660883229 -0.00091918946110009999 0 -0.0075577702724898225 -0.00070101057235928547 0 -0.0073912216577419155 -0.0005876734837112717 0 -0.0074298366660883229 -0.00091918946110009999 0 -0.007652224393273511 -0.00045356127383994996 0 -0.0075577702724898225 -0.00070101057235928547 0 -0.0077712180036479776 -0.00077069463024218368 0 -0.0067447921477808053 -0.00018601984341534076 0 -0.0067616159531803839 -0.00031939632404001726 0 -0.0066737065313582184 -0.00030882029001016813 0 -0.0067447921477808053 -0.00018601984341534076 0 -0.0067616159531803839 -0.00031939632404001726 0 -0.0068807576242890713 -0.00024884061986003538 0 -0.0067616159531803839 -0.00031939632404001726 0 -0.0068807576242890713 -0.00024884061986003538 0 -0.0068497634811964447 -0.00034322810206250721 0 -0.0072361753859704952 -6.7318981684698587e-05 0 -0.0069359658912853924 -0.0003562274242213555 0 -0.0070307814235861668 -0.00020631379571765888 0 -0.0069359658912853924 -0.0003562274242213555 0 -0.0069288935604662517 -0.00029268593941050099 0 -0.0070307814235861668 -0.00020631379571765888 0 -0.007229156136315861 -9.200549965383004e-05 0 -0.0070616147255152771 -0.00055679078455009886 0 -0.0068807576242890713 -0.00024884061986003538 0 -0.0069288935604662517 -0.00029268593941050099 0 -0.0068497634811964447 -0.00034322810206250721 0 -0.0068807576242890713 -0.00024884061986003538 0 -0.0069288935604662517 -0.00029268593941050099 0 -0.0070307814235861668 -0.00020631379571765888 0 -0.0069359658912853924 -0.0003562274242213555 0 -0.0069288935604662517 -0.00029268593941050099 0 -0.0068497634811964447 -0.00034322810206250721 0 -0.0069359658912853924 -0.0003562274242213555 0 -0.0068159930683062211 -0.00040228240077564217 0 -0.0067652744767460506 -0.00044796933684644656 0 -0.0069359658912853924 -0.0003562274242213555 0 -0.0068159930683062211 -0.00040228240077564217 0 -0.0068497634811964447 -0.00034322810206250721 0 -0.0068159930683062211 -0.00040228240077564217 0 -0.0067481653122921197 -0.00038890826863463107 0 -0.0067219059240836779 -0.00043382370715797666 0 -0.0068159930683062211 -0.00040228240077564217 0 -0.0068497634811964447 -0.00034322810206250721 0 -0.0067481653122921197 -0.00038890826863463107 0 -0.0067616159531803839 -0.00031939632404001726 0 -0.0068497634811964447 -0.00034322810206250721 0 -0.0067481653122921197 -0.00038890826863463107 0 -0.0067481653122921197 -0.00038890826863463107 0 -0.0066642782263578813 -0.00042440482055470038 0 -0.0066771214151072067 -0.00036774298663092854 0 -0.0067616159531803839 -0.00031939632404001726 0 -0.0067481653122921197 -0.00038890826863463107 0 -0.0066771214151072067 -0.00036774298663092854 0 -0.0067616159531803839 -0.00031939632404001726 0 -0.0066737065313582184 -0.00030882029001016813 0 -0.0066771214151072067 -0.00036774298663092854 0 -0.0066642782263578813 -0.00042440482055470038 0 -0.0066601603728382742 -0.00045740542835075946 0 -0.0066166216204596876 -0.00046621226831639094 0 -0.0067481653122921197 -0.00038890826863463107 0 -0.0066642782263578813 -0.00042440482055470038 0 -0.0067219059240836779 -0.00043382370715797666 0 -0.0066601603728382742 -0.00045740542835075946 0 -0.0066846497479463559 -0.00045643723806422114 0 -0.0067219059240836779 -0.00043382370715797666 0 -0.0066642782263578813 -0.00042440482055470038 0 -0.0066601603728382742 -0.00045740542835075946 0 -0.0067219059240836779 -0.00043382370715797666 0 -0.0066601603728382742 -0.00045740542835075946 0 -0.0066846497479463559 -0.00045643723806422114 0 -0.0066509308205232034 -0.00047473950622381087 0 -0.0066846497479463559 -0.00045643723806422114 0 -0.0067068007469207984 -0.00045840418310547364 0 -0.0066509308205232034 -0.00047473950622381087 0 -0.0067219059240836779 -0.00043382370715797666 0 -0.0067527240082751634 -0.00043623852339291254 0 -0.0067068007469207984 -0.00045840418310547364 0 -0.0066846497479463559 -0.00045643723806422114 0 -0.0067219059240836779 -0.00043382370715797666 0 -0.0067068007469207984 -0.00045840418310547364 0 -0.0068159930683062211 -0.00040228240077564217 0 -0.0067219059240836779 -0.00043382370715797666 0 -0.0067527240082751634 -0.00043623852339291254 0 -0.0068159930683062211 -0.00040228240077564217 0 -0.0067527240082751634 -0.00043623852339291254 0 -0.0067652744767460506 -0.00044796933684644656 0 -0.0067527240082751634 -0.00043623852339291254 0 -0.0067068007469207984 -0.00045840418310547364 0 -0.0067652744767460506 -0.00044796933684644656 0 -0.0067068007469207984 -0.00045840418310547364 0 -0.0066655221383339009 -0.00047577748784982264 0 -0.0067652744767460506 -0.00044796933684644656 0 -0.0065885850240201896 -0.00050046431013768132 0 -0.0066655221383339009 -0.00047577748784982264 0 -0.0067652744767460506 -0.00044796933684644656 0 -0.0066146532407031847 -0.0004998183113924437 0 -0.0066607442468007592 -0.00046346027694483416 0 -0.0065885850240201896 -0.00050046431013768132 0 -0.0066655221383339009 -0.00047577748784982264 0 -0.0066122545535644726 -0.00049127973026644872 0 -0.0065771726668546141 -0.0004987380357333595 0 -0.0066122545535644726 -0.00049127973026644872 0 -0.006601820822615026 -0.00048677407973977087 0 -0.0066122545535644726 -0.00049127973026644872 0 -0.0066509308205232034 -0.00047473950622381087 0 -0.006601820822615026 -0.00048677407973977087 0 -0.0066655221383339009 -0.00047577748784982264 0 -0.0066122545535644726 -0.00049127973026644872 0 -0.0066509308205232034 -0.00047473950622381087 0 -0.0067068007469207984 -0.00045840418310547364 0 -0.0066655221383339009 -0.00047577748784982264 0 -0.0066509308205232034 -0.00047473950622381087 0 -0.0066601603728382742 -0.00045740542835075946 0 -0.0066509308205232034 -0.00047473950622381087 0 -0.006601820822615026 -0.00048677407973977087 0 -0.006601820822615026 -0.00048677407973977087 0 -0.0066166216204596876 -0.00046621226831639094 0 -0.0065620775778624917 -0.00049252136139663831 0 -0.0066601603728382742 -0.00045740542835075946 0 -0.006601820822615026 -0.00048677407973977087 0 -0.0066166216204596876 -0.00046621226831639094 0 -0.0073766831737817166 -0.0012241055029632672 0 -0.0073575007867731825 -0.0011354025247381746 0 -0.007451995431115738 -0.0010719105132883822 0 -0.0075349197455191587 -0.0010451341037876279 0 -0.007481605307990539 -0.0010477334145994025 0 -0.0073766831737817166 -0.0012241055029632672 0 -0.0073575007867731825 -0.0011354025247381746 0 -0.0073110126701644478 -0.0011952256835360338 0 -0.007012814944941605 -0.00073660315652400487 0 -0.00703330265786869 -0.00078184901794500707 0 -0.0077712180036479776 -0.00077069463024218368 0 -0.0074298366660883229 -0.00091918946110009999 0 -0.007451995431115738 -0.0010719105132883822 0 -0.0066032453680671694 -0.00054073503612122676 0 -0.0066078233872544504 -0.00053465820824821395 0 -0.0065865203767855379 -0.00050796491528696142 0 -0.0074298366660883229 -0.00091918946110009999 0 -0.007451995431115738 -0.0010719105132883822 0 -0.0074367080500229504 -0.0011178643938731952 0 -0.007451995431115738 -0.0010719105132883822 0 -0.0074367080500229504 -0.0011178643938731952 0 -0.0074085015370302246 -0.0010914773566657173 0 -0.0065885850240201896 -0.00050046431013768132 0 -0.0066078233872544504 -0.00053465820824821395 0 -0.0065865203767855379 -0.00050796491528696142 0 -0.0073575007867731825 -0.0011354025247381746 0 -0.007451995431115738 -0.0010719105132883822 0 -0.0074085015370302246 -0.0010914773566657173 0 -0.0073575007867731825 -0.0011354025247381746 0 -0.0074085015370302246 -0.0010914773566657173 0 -0.0073551259794796264 -0.0010817758749354684 0 -0.0052065762514455511 -0.0017515214995728876 0 -0.0047586951925493769 -0.0019270310766642854 0 -0.0047944620441426541 -0.0017582604465675924 0 -0.0048103430629740547 -0.0015250689764043882 0 -0.0052065762514455511 -0.0017515214995728876 0 -0.0047944620441426541 -0.0017582604465675924 0 -0.006312953875114883 -0.0014229236794884141 0 -0.0059298695830461955 -0.0015874852136097968 0 -0.0073575007867731825 -0.0011354025247381746 0 -0.0073551259794796264 -0.0010817758749354684 0 -0.0072394863461434566 -0.001164545777001851 0 -0.0073575007867731825 -0.0011354025247381746 0 -0.0073110126701644478 -0.0011952256835360338 0 -0.0072394863461434566 -0.001164545777001851 0 -0.0047586951925493769 -0.0019270310766642854 0 -0.0047118586578964727 -0.0018859181083648922 0 -0.0047649992212811547 -0.0018682946899036582 0 -0.0047586951925493769 -0.0019270310766642854 0 -0.0047118586578964727 -0.0018859181083648922 0 -0.0047944620441426541 -0.0017582604465675924 0 -0.0048103430629740547 -0.0015250689764043882 0 -0.0047944620441426541 -0.0017582604465675924 0 -0.0046165296874829701 -0.0016425077207353259 0 -0.0047118586578964727 -0.0018859181083648922 0 -0.0047944620441426541 -0.0017582604465675924 0 -0.0046165296874829701 -0.0016425077207353259 0 -0.0047118586578964727 -0.0018859181083648922 0 -0.0045377823995209812 -0.0017471444258798866 0 -0.0043990867044332999 -0.0018186377610418282 0 -0.0047118586578964727 -0.0018859181083648922 0 -0.0046165296874829701 -0.0016425077207353259 0 -0.0045377823995209812 -0.0017471444258798866 0 -0.0046165296874829701 -0.0016425077207353259 0 -0.0044525591316115325 -0.0016643666535882708 0 -0.0045377823995209812 -0.0017471444258798866 0 -0.0044525591316115325 -0.0016643666535882708 0 -0.0045377823995209812 -0.0017471444258798866 0 -0.0043990867044332999 -0.0018186377610418282 0 -0.0043401563749709184 -0.0016212365082965766 0 -0.0042630084584227932 -0.0017111601616982188 0 -0.0043990867044332999 -0.0018186377610418282 0 -0.0042004871712453019 -0.0017768321337466361 0 -0.0042630084584227932 -0.0017111601616982188 0 -0.0043990867044332999 -0.0018186377610418282 0 -0.0043401563749709184 -0.0016212365082965766 0 -0.0044525591316115325 -0.0016643666535882708 0 -0.0043990867044332999 -0.0018186377610418282 0 -0.0056858824090042694 -0.0016341124753032363 0 -0.0044043953127320332 -0.0018855121350099659 0 -0.0049752535828601575 -0.0018628579006621576 0 -0.0048497659897189195 -0.0019400848807459338 0 -0.0048614397740745522 -0.0018188401137565003 0 -0.0050342373543152659 -0.0019594530779664609 0 -0.0049752535828601575 -0.0018628579006621576 0 -0.0048497659897189195 -0.0019400848807459338 0 -0.0048497659897189195 -0.0019400848807459338 0 -0.0047649992212811547 -0.0018682946899036582 0 -0.0048614397740745522 -0.0018188401137565003 0 -0.0047992962982193205 -0.0018898252465230482 0 -0.0044043953127320332 -0.0018855121350099659 0 -0.0047118586578964727 -0.0018859181083648922 0 -0.0048497659897189195 -0.0019400848807459338 0 -0.0047649992212811547 -0.0018682946899036582 0 -0.0047649992212811547 -0.0018682946899036582 0 -0.0047754033112553801 -0.0018015155254871489 0 -0.0048614397740745522 -0.0018188401137565003 0 -0.0063678712969221108 -0.0013658473891625508 0 -0.005791486181162952 -0.0013479072063184382 0 -0.0069789075118302894 -0.0010624675092432043 0 -0.0069855502761619857 -0.0010552483201866527 0 -0.0069484197932238095 -0.0010335932354422583 0 -0.0075546837152800838 -0.0008827449031823351 0 -0.0063678712969221108 -0.0013658473891625508 0 -0.0069098303097350836 -0.0011780810867785144 0 -0.0070409668302276315 -0.0010483740499319921 0 -0.0072902897500941961 -0.0011845813684061436 0 -0.0075546837152800838 -0.0008827449031823351 0 -0.0075664912850130052 -0.0012273523538011138 0 -0.0063678712969221108 -0.0013658473891625508 0 -0.0075664912850130052 -0.0012273523538011138 0 -0.0071280680523047677 -0.0012703478778161965 0 -0.0071747094299575735 -0.0012886396354288253 0 -0.007165412780190502 -0.0012887029934569479 0 -0.0080557037959075005 -0.00084370242570980182 0 -0.0081195026193536246 -0.0002278872944096159 0 -0.0075253053830242065 0.00012946346377064728 0 -0.0069101879579628201 -0.0010135126225094039 0 -0.0069484197932238095 -0.0010335932354422583 0 -0.0069421350822731227 -0.0010601700904466708 0 -0.0066461335422077564 -0.0011615416943876607 0 -0.0081215352447003633 -0.00061013775025689021 0 -0.0066461335422077564 -0.0011615416943876607 0 -0.005791486181162952 -0.0013479072063184382 0 -0.0069789075118302894 -0.0010624675092432043 0 -0.0069484197932238095 -0.0010335932354422583 0 -0.0069421350822731227 -0.0010601700904466708 0 -0.0075546837152800838 -0.0008827449031823351 0 -0.0081215352447003633 -0.00061013775025689021 0 -0.0096169727068688062 -0.0008147517459852477 0 -0.0094020334172242679 -0.00097802158332951417 0 -0.0094377456182101992 -0.00073934856272855236 0 -0.0094020334172242679 -0.00097802158332951417 0 -0.0092677423469885254 -0.00072195064773344702 0 -0.0094377456182101992 -0.00073934856272855236 0 -0.0079192303337579841 -0.00080041922905515204 0 -0.0083205070362877796 -0.00080263088537638042 0 -0.0081790279045131833 -0.00054431547262251423 0 -0.0081215352447003633 -0.00061013775025689021 0 -0.0087357139287497949 -0.00062945401601321527 0 -0.009420178787644895 -0.00056315721766872647 0 -0.0092677423469885254 -0.00072195064773344702 0 -0.0094377456182101992 -0.00073934856272855236 0 -0.0096293363919654623 -0.00064915094443172546 0 -0.009420178787644895 -0.00056315721766872647 0 -0.0094377456182101992 -0.00073934856272855236 0 -0.0096293363919654623 -0.00064915094443172546 0 -0.0096169727068688062 -0.0008147517459852477 0 -0.0094377456182101992 -0.00073934856272855236 0 -0.0087045349349870998 -0.00076257585071003707 0 -0.0086045705423363796 -0.00062229181010670499 0 -0.008497819050538636 -0.0007611324881793641 0 -0.0087045349349870998 -0.00076257585071003707 0 -0.0086045705423363796 -0.00062229181010670499 0 -0.008731155086668458 -0.00051797689910544349 0 -0.0086045705423363796 -0.00062229181010670499 0 -0.0084861544347147669 -0.00053306007020507799 0 -0.008497819050538636 -0.0007611324881793641 0 -0.0087045349349870998 -0.00076257585071003707 0 -0.0089286883837514739 -0.00054272391515588104 0 -0.008731155086668458 -0.00051797689910544349 0 -0.0075546837152800838 -0.0008827449031823351 0 -0.0087357139287497949 -0.00062945401601321527 0 -0.0086045705423363796 -0.00062229181010670499 0 -0.008731155086668458 -0.00051797689910544349 0 -0.0085883154552881726 -0.00044294152245596394 0 -0.0086045705423363796 -0.00062229181010670499 0 -0.0085883154552881726 -0.00044294152245596394 0 -0.0084861544347147669 -0.00053306007020507799 0 -0.0084372378116416222 -0.00031244223832219435 0 -0.0084861544347147669 -0.00053306007020507799 0 -0.0083167873974469547 -0.00052316708715981035 0 -0.0084372378116416222 -0.00031244223832219435 0 -0.0085883154552881726 -0.00044294152245596394 0 -0.0084861544347147669 -0.00053306007020507799 0 -0.0071747094299575735 -0.0012886396354288253 0 -0.0072914769460416876 -0.0013477201352159766 0 -0.0071659840949252658 -0.0012888508483666066 0 -0.0078322772085404509 -0.00063526827022615528 0 -0.0075664912850130052 -0.0012273523538011138 0 -0.0071747094299575735 -0.0012886396354288253 0 -0.0072914769460416876 -0.0013477201352159766 0 -0.0072698400492978935 -0.001256077538834485 0 -0.0083167873974469547 -0.00052316708715981035 0 -0.0080162514888197471 -0.00049987466472402678 0 -0.008497819050538636 -0.0007611324881793641 0 -0.0084861544347147669 -0.00053306007020507799 0 -0.0083167873974469547 -0.00052316708715981035 0 -0.008497819050538636 -0.0007611324881793641 0 -0.0075316447643622711 -0.0012285436112834747 0 -0.0075664912850130052 -0.0012273523538011138 0 -0.0075349197455191587 -0.0010451341037876279 0 -0.0078322772085404509 -0.00063526827022615528 0 -0.007885114299302224 -0.00024261938650825218 0 -0.0078322772085404509 -0.00063526827022615528 0 -0.0073766831737817166 -0.0012241055029632672 0 -0.0072914769460416876 -0.0013477201352159766 0 -0.0072698400492978935 -0.001256077538834485 0 -0.0073766831737817166 -0.0012241055029632672 0 -0.0073110126701644478 -0.0011952256835360338 0 -0.0072698400492978935 -0.001256077538834485 0 -0.0073110126701644478 -0.0011952256835360338 0 -0.0072394863461434566 -0.001164545777001851 0 -0.0072698400492978935 -0.001256077538834485 0 -0.0072394863461434566 -0.001164545777001851 0 -0.0071747094299575735 -0.0012886396354288253 0 -0.0072698400492978935 -0.001256077538834485 0 -0.0072394863461434566 -0.001164545777001851 0 -0.0071280680523047677 -0.0012703478778161965 0 -0.0071747094299575735 -0.0012886396354288253 0 -0.0047586951925493769 -0.0019270310766642854 0 -0.0047649992212811547 -0.0018682946899036582 0 -0.0047754033112553801 -0.0018015155254871489 0 -0.0059298695830461955 -0.0015874852136097968 0 -0.0063678712969221108 -0.0013658473891625508 0 -0.002578332865307295 3.4922547940794425e-06 0 -0.0030012575344999775 -2.8445579051943503e-05 0 -0.0027705602156046392 1.5961329255379161e-05 0 -0.002578332865307295 3.4922547940794425e-06 0 -0.0028592127992760987 -3.5671891744737371e-07 0 -0.0030012575344999775 -2.8445579051943503e-05 0 -0.0028592127992760987 -3.5671891744737371e-07 0 -0.0037353453857712137 7.2888400664547418e-07 0 -0.0030012575344999775 -2.8445579051943503e-05 0 -0.0030012575344999775 -2.8445579051943503e-05 0 -0.0027705602156046392 1.5961329255379161e-05 0 -0.0028711297752775792 0.00010762206061894565 0 -0.0027705602156046392 1.5961329255379161e-05 0 -0.0028904546297555908 9.3891414255604022e-05 0 -0.0028711297752775792 0.00010762206061894565 0 -0.0027705602156046392 1.5961329255379161e-05 0 -0.0028904546297555908 9.3891414255604022e-05 0 -0.0028121187129803824 3.9332122672635724e-05 0 -0.0028904546297555908 9.3891414255604022e-05 0 -0.0028121187129803824 3.9332122672635724e-05 0 -0.0029456929392271034 7.4497726033942319e-05 0 -0.0028121187129803824 3.9332122672635724e-05 0 -0.0027482509103205475 0.00016045442315160331 0 -0.0029162470009724212 8.1553499157552677e-05 0 -0.0027705602156046392 1.5961329255379161e-05 0 -0.0028121187129803824 3.9332122672635724e-05 0 -0.0026092276255611194 2.8796722763280872e-05 0 -0.002578332865307295 3.4922547940794425e-06 0 -0.0027705602156046392 1.5961329255379161e-05 0 -0.0026092276255611194 2.8796722763280872e-05 0 -0.0026092276255611194 2.8796722763280872e-05 0 -0.0022553208369309862 8.078889266171237e-05 0 -0.0027482509103205475 0.00016045442315160331 0 -0.002458394399783109 7.7353694127143597e-05 0 -0.0018813929666224539 0.00020513964274480789 0 -0.002578332865307295 3.4922547940794425e-06 0 -0.0026092276255611194 2.8796722763280872e-05 0 -0.0022553208369309862 8.078889266171237e-05 0 -0.0018813929666224539 0.00020513964274480789 0 -0.0024732394375857145 1.7680534533960426e-05 0 -0.0028121187129803824 3.9332122672635724e-05 0 -0.0026092276255611194 2.8796722763280872e-05 0 -0.0027482509103205475 0.00016045442315160331 0 -0.0010652111177925849 0.00050678855548679609 0 -0.00098950485345681519 0.0002399141078196677 0 -0.0012549902642805665 0.0003632328411540621 0 -0.0010652111177925849 0.00050678855548679609 0 -0.00098950485345681519 0.0002399141078196677 0 -0.00074079644496376023 0.00024317966573591342 0 -0.0018813929666224539 0.00020513964274480789 0 -0.0016311571300854236 0.00021907129046133886 0 -0.0022553208369309862 8.078889266171237e-05 0 -0.0019732440453708645 0.000166446451220968 0 -0.0021072576099645185 2.7517250783267082e-05 0 -0.0022553208369309862 8.078889266171237e-05 0 -0.0021072576099645185 2.7517250783267082e-05 0 -0.0019704215841747728 5.1521471881880247e-05 0 -0.0016311571300854236 0.00021907129046133886 0 -0.0016885762595612917 8.026912957911507e-05 0 -0.0021072576099645185 2.7517250783267082e-05 0 -0.0019704215841747728 5.1521471881880247e-05 0 -0.0016243674460323582 8.8412448717071658e-05 0 -0.0019704215841747728 5.1521471881880247e-05 0 -0.0020290813754494444 3.2072566662054411e-05 0 -0.0016243674460323582 8.8412448717071658e-05 0 -0.0022553208369309862 8.078889266171237e-05 0 -0.0019704215841747728 5.1521471881880247e-05 0 -0.0020290813754494444 3.2072566662054411e-05 0 -0.002578332865307295 3.4922547940794425e-06 0 -0.0022553208369309862 8.078889266171237e-05 0 -0.0020290813754494444 3.2072566662054411e-05 0 -0.002578332865307295 3.4922547940794425e-06 0 -0.0028592127992760987 -3.5671891744737371e-07 0 -0.0020290813754494444 3.2072566662054411e-05 0 -0.0028592127992760987 -3.5671891744737371e-07 0 -0.0020290813754494444 3.2072566662054411e-05 0 -0.0019808981781948964 1.5032166718839085e-07 0 -0.0020290813754494444 3.2072566662054411e-05 0 -0.0019808981781948964 1.5032166718839085e-07 0 -0.0014645552330486654 -1.1586544605085692e-05 0 -0.0019808981781948964 1.5032166718839085e-07 0 -0.0014645552330486654 -1.1586544605085692e-05 0 -0.0011030973904589396 -1.7659970658239058e-07 0 -0.0020290813754494444 3.2072566662054411e-05 0 -0.0016243674460323582 8.8412448717071658e-05 0 -0.0014645552330486654 -1.1586544605085692e-05 0 -0.0016243674460323582 8.8412448717071658e-05 0 -0.0014645552330486654 -1.1586544605085692e-05 0 -0.0012839383372515261 -4.663306783356808e-05 0 -0.0012839383372515261 -4.663306783356808e-05 0 -0.00095433000176023115 -4.0108285652203805e-05 0 -0.0010334014958220427 -9.8230187962432036e-05 0 -0.0014645552330486654 -1.1586544605085692e-05 0 -0.0012839383372515261 -4.663306783356808e-05 0 -0.00095433000176023115 -4.0108285652203805e-05 0 -0.0014645552330486654 -1.1586544605085692e-05 0 -0.0011030973904589396 -1.7659970658239058e-07 0 -0.00095433000176023115 -4.0108285652203805e-05 0 -0.0011030973904589396 -1.7659970658239058e-07 0 -0.00095433000176023115 -4.0108285652203805e-05 0 -0.00022487374664032761 1.1569018151875401e-07 0 -0.00095433000176023115 -4.0108285652203805e-05 0 -0.00072225313697340979 -9.4358339932511508e-05 0 -0.00082738700953341481 -9.9804542392096672e-05 0 -0.00083549970495802768 -6.8367521257797604e-05 0 -0.00042743867758679135 -7.299618635823828e-05 0 -0.00064340633136579072 -8.5210206920368622e-05 0 -0.00072225313697340979 -9.4358339932511508e-05 0 -0.00082738700953341481 -9.9804542392096672e-05 0 -0.00095433000176023115 -4.0108285652203805e-05 0 -0.00010925926488341448 -1.7673413963933253e-06 0 -0.00022487374664032761 1.1569018151875401e-07 0 0.00022227241605985069 -1.2089414968203185e-05 0 -0.00010925926488341448 -1.7673413963933253e-06 0 -0.00022487374664032761 1.1569018151875401e-07 0 -0.00069895452744108289 -0.00010544449498987391 0 -0.0008135346863149171 -0.00015913958962748083 0 -0.00076609666227957815 -0.00010660116225538285 0 -0.00069895452744108289 -0.00010544449498987391 0 -0.00082738700953341481 -9.9804542392096672e-05 0 -0.0008135346863149171 -0.00015913958962748083 0 -0.00064340633136579072 -8.5210206920368622e-05 0 -0.00069895452744108289 -0.00010544449498987391 0 -0.00082738700953341481 -9.9804542392096672e-05 0 -0.00095433000176023115 -4.0108285652203805e-05 0 -0.00082738700953341481 -9.9804542392096672e-05 0 -0.0010334014958220427 -9.8230187962432036e-05 0 -0.00082738700953341481 -9.9804542392096672e-05 0 -0.0008135346863149171 -0.00015913958962748083 0 -0.0010334014958220427 -9.8230187962432036e-05 0 -0.0008135346863149171 -0.00015913958962748083 0 -0.0010334014958220427 -9.8230187962432036e-05 0 -0.00083353416987500873 -4.6732733863275655e-05 0 -0.0010334014958220427 -9.8230187962432036e-05 0 -0.0011425344907559339 3.891451388502925e-05 0 -0.00083353416987500873 -4.6732733863275655e-05 0 -0.0012839383372515261 -4.663306783356808e-05 0 -0.0010334014958220427 -9.8230187962432036e-05 0 -0.0011425344907559339 3.891451388502925e-05 0 -0.0012549902642805665 0.0003632328411540621 0 -0.0016243674460323582 8.8412448717071658e-05 0 -0.0011425344907559339 3.891451388502925e-05 0 -0.0016243674460323582 8.8412448717071658e-05 0 -0.0012839383372515261 -4.663306783356808e-05 0 -0.0011425344907559339 3.891451388502925e-05 0 -0.00098950485345681519 0.0002399141078196677 0 -0.0011425344907559339 3.891451388502925e-05 0 -0.00083353416987500873 -4.6732733863275655e-05 0 -0.00098950485345681519 0.0002399141078196677 0 -0.0012549902642805665 0.0003632328411540621 0 -0.0011425344907559339 3.891451388502925e-05 0 -0.00083693161535273899 -0.00015428405877356284 0 -0.00076111267648694501 -3.9449263306722422e-05 0 -0.00098950485345681519 0.0002399141078196677 0 -0.00083353416987500873 -4.6732733863275655e-05 0 -0.00074079644496376023 0.00024317966573591342 0 -0.00093623228059859108 -0.0002732172063474951 0 -0.00083618923363720701 -0.00025543958030420838 0 -0.00087298063367454131 -0.00034982238569283207 0 -0.00093623228059859108 -0.0002732172063474951 0 -0.0009744163475874589 -0.00036870930506889012 0 -0.00087298063367454131 -0.00034982238569283207 0 -0.00093623228059859108 -0.0002732172063474951 0 -0.00083618923363720701 -0.00025543958030420838 0 -0.00088200851880483654 -0.00017560651224179526 0 -0.0008135346863149171 -0.00015913958962748083 0 -0.00083618923363720701 -0.00025543958030420838 0 -0.00088200851880483654 -0.00017560651224179526 0 -0.00081888396374896004 -0.00016054283232129791 0 -0.00083693161535273899 -0.00015428405877356284 0 -0.00086418157857802219 -8.5435598624714087e-05 0 -0.00088200851880483654 -0.00017560651224179526 0 -0.00096560288936486471 -0.00010510261857364937 0 -0.00086418157857802219 -8.5435598624714087e-05 0 -0.00088200851880483654 -0.00017560651224179526 0 -0.00076609666227957815 -0.00010660116225538285 0 -0.0008135346863149171 -0.00015913958962748083 0 -0.00088200851880483654 -0.00017560651224179526 0 -0.00076609666227957815 -0.00010660116225538285 0 -0.0010606759817113997 -9.5493558354321751e-05 0 -0.0010118586142578594 -0.00017195724403515654 0 -0.0011717584743998037 -0.00015062909177426754 0 -0.0010699428056760401 -0.00017512298128554836 0 -0.0010189563790388545 -0.00010366472583985541 0 -0.00088200851880483654 -0.00017560651224179526 0 -0.00096560288936486471 -0.00010510261857364937 0 -0.0010118586142578594 -0.00017195724403515654 0 -0.0010606759817113997 -9.5493558354321751e-05 0 -0.00096560288936486471 -0.00010510261857364937 0 -0.0010118586142578594 -0.00017195724403515654 0 -0.00093623228059859108 -0.0002732172063474951 0 -0.00088200851880483654 -0.00017560651224179526 0 -0.0010118586142578594 -0.00017195724403515654 0 -0.0010118586142578594 -0.00017195724403515654 0 -0.0010489420607304675 -0.00025755965800700878 0 -0.0011340906202140274 -0.0002067029586019268 0 -0.00093623228059859108 -0.0002732172063474951 0 -0.0010118586142578594 -0.00017195724403515654 0 -0.0010489420607304675 -0.00025755965800700878 0 -0.00093623228059859108 -0.0002732172063474951 0 -0.0010489420607304675 -0.00025755965800700878 0 -0.0009744163475874589 -0.00036870930506889012 0 -0.0010489420607304675 -0.00025755965800700878 0 -0.0010855524021763871 -0.00036347732732106133 0 -0.0009744163475874589 -0.00036870930506889012 0 -0.0010855524021763871 -0.00036347732732106133 0 -0.0010229983981970743 -0.00045923434943754177 0 -0.0009744163475874589 -0.00036870930506889012 0 -0.0025226135454411362 -0.00029186538246405883 0 -0.0026285119299269129 -0.00011890036263180066 0 -0.0026406220833425074 -0.00012103101146311239 0 -0.0017488733578738004 -0.00035982527136204148 0 -0.0018622344530613412 -0.00020282733021775883 0 -0.0026285119299269129 -0.00011890036263180066 0 -0.0025547266202137269 -0.0001058064767544201 0 -0.0024964343594728764 -0.00019225057083283449 0 -0.0025226135454411362 -0.00029186538246405883 0 -0.0026285119299269129 -0.00011890036263180066 0 -0.0024964343594728764 -0.00019225057083283449 0 -0.0026285119299269129 -0.00011890036263180066 0 -0.0026411918404440305 -0.00012092960801137574 0 -0.0026010453749130661 -7.3092312493087068e-05 0 -0.001949084532257554 -0.00021047120458516207 0 -0.0018622344530613412 -0.00020282733021775883 0 -0.0018622344530613412 -0.00020282733021775883 0 -0.0012410361689206906 7.1277308754149894e-05 0 -0.0010229983981970743 -0.00045923434943754177 0 -0.0009744163475874589 -0.00036870930506889012 0 -0.00090972376664639185 -0.0004407429098497712 0 -0.0009744163475874589 -0.00036870930506889012 0 -0.00087298063367454131 -0.00034982238569283207 0 -0.00090972376664639185 -0.0004407429098497712 0 -0.00076111267648694501 -3.9449263306722422e-05 0 -0.0012410361689206906 7.1277308754149894e-05 0 -0.0010652111177925849 0.00050678855548679609 0 -0.00074079644496376023 0.00024317966573591342 0 -0.00065024256936058145 0.00055712391739744054 0 -0.0018746943015273501 7.0789208700399291e-05 0 -0.0019525361670965097 5.5146703668307972e-05 0 -0.0019258851247998161 1.6796123906753089e-05 0 -0.0018813929666224539 0.00020513964274480789 0 -0.0012410361689206906 7.1277308754149894e-05 0 -0.0020200171565340689 4.0645970316112162e-05 0 -0.0019521370447982763 5.3857416723381906e-05 0 -0.0019583683439147784 3.8977586956302968e-05 0 -0.0019525361670965097 5.5146703668307972e-05 0 -0.0019583683439147784 3.8977586956302968e-05 0 -0.0019258851247998161 1.6796123906753089e-05 0 -0.0012410361689206906 7.1277308754149894e-05 0 -0.0014908967321482821 -4.1042740184581078e-05 0 -0.0019583683439147784 3.8977586956302968e-05 0 -0.0019785030837123204 -3.2727533650148675e-05 0 -0.0019989440018634364 5.1204995750838742e-06 0 -0.0019583683439147784 3.8977586956302968e-05 0 -0.0019258851247998161 1.6796123906753089e-05 0 -0.0019785030837123204 -3.2727533650148675e-05 0 -0.0028121187129803824 3.9332122672635724e-05 0 -0.0029162470009724212 8.1553499157552677e-05 0 -0.0029456929392271034 7.4497726033942319e-05 0 -0.0029162470009724212 8.1553499157552677e-05 0 -0.0029456929392271034 7.4497726033942319e-05 0 -0.0029746064581836419 8.0451119625496513e-05 0 -0.0024732394375857145 1.7680534533960426e-05 0 -0.002619052612975562 3.059120420006039e-05 0 -0.0029456929392271034 7.4497726033942319e-05 0 -0.0029746064581836419 8.0451119625496513e-05 0 -0.0029892827785406454 8.2585629227052999e-05 0 -0.0027841998034779558 9.1402946189349165e-05 0 -0.0026410185335753677 6.7032397461808709e-05 0 -0.002715093577045084 -1.3214711335046395e-05 0 -0.002619052612975562 3.059120420006039e-05 0 -0.0023814549935430689 3.2416487071786654e-05 0 -0.0026410185335753677 6.7032397461808709e-05 0 -0.0025751658875822541 -1.5088069831515154e-05 0 -0.0025172237124270387 6.3384686154172788e-05 0 -0.0026410185335753677 6.7032397461808709e-05 0 -0.0025172237124270387 6.3384686154172788e-05 0 -0.0025855856791051194 0.00013624391875871681 0 -0.0026410185335753677 6.7032397461808709e-05 0 -0.0026389014389983662 -2.175677951380855e-05 0 -0.0025751658875822541 -1.5088069831515154e-05 0 -0.0026389014389983662 -2.175677951380855e-05 0 -0.0025751658875822541 -1.5088069831515154e-05 0 -0.0026010453749130661 -7.3092312493087068e-05 0 -0.0025751658875822541 -1.5088069831515154e-05 0 -0.0025436081062971683 -5.9756681051620341e-05 0 -0.0025054816691930278 -1.583867019046066e-05 0 -0.0025751658875822541 -1.5088069831515154e-05 0 -0.0025436081062971683 -5.9756681051620341e-05 0 -0.0026010453749130661 -7.3092312493087068e-05 0 -0.0025547266202137269 -0.0001058064767544201 0 -0.0025436081062971683 -5.9756681051620341e-05 0 -0.0026010453749130661 -7.3092312493087068e-05 0 -0.0026285119299269129 -0.00011890036263180066 0 -0.0025547266202137269 -0.0001058064767544201 0 -0.0026010453749130661 -7.3092312493087068e-05 0 -0.0026411918404440305 -0.00012092960801137574 0 -0.0026389014389983662 -2.175677951380855e-05 0 -0.0026010453749130661 -7.3092312493087068e-05 0 -0.0020200171565340689 4.0645970316112162e-05 0 -0.0019583683439147784 3.8977586956302968e-05 0 -0.0019989440018634364 5.1204995750838742e-06 0 -0.0026411918404440305 -0.00012092960801137574 0 -0.0026389014389983662 -2.175677951380855e-05 0 -0.002715093577045084 -1.3214711335046395e-05 0 -0.0018622344530613412 -0.00020282733021775883 0 -0.0023814549935430689 3.2416487071786654e-05 0 -0.0026410185335753677 6.7032397461808709e-05 0 -0.0026389014389983662 -2.175677951380855e-05 0 -0.002715093577045084 -1.3214711335046395e-05 0 -0.0023293200726911371 -8.1675745130770745e-05 0 -0.0024815340672149073 -8.8863246364940499e-05 0 -0.0024189722944848971 1.240158134799876e-05 0 -0.0025436081062971683 -5.9756681051620341e-05 0 -0.0024815340672149073 -8.8863246364940499e-05 0 -0.0025054816691930278 -1.583867019046066e-05 0 -0.0025547266202137269 -0.0001058064767544201 0 -0.0025436081062971683 -5.9756681051620341e-05 0 -0.0024815340672149073 -8.8863246364940499e-05 0 -0.0025751658875822541 -1.5088069831515154e-05 0 -0.0025054816691930278 -1.583867019046066e-05 0 -0.0025172237124270387 6.3384686154172788e-05 0 -0.0024815340672149073 -8.8863246364940499e-05 0 -0.0025054816691930278 -1.583867019046066e-05 0 -0.0024189722944848971 1.240158134799876e-05 0 -0.0025172237124270387 6.3384686154172788e-05 0 -0.0024189722944848971 1.240158134799876e-05 0 -0.0024184361439601059 0.00012922213292485628 0 -0.0025054816691930278 -1.583867019046066e-05 0 -0.0025172237124270387 6.3384686154172788e-05 0 -0.0024189722944848971 1.240158134799876e-05 0 -0.0023293200726911371 -8.1675745130770745e-05 0 -0.0024189722944848971 1.240158134799876e-05 0 -0.0022837025611388479 0.00011851615422956448 0 -0.0024189722944848971 1.240158134799876e-05 0 -0.0022837025611388479 0.00011851615422956448 0 -0.0024184361439601059 0.00012922213292485628 0 -0.0022895912341513512 -3.1940323330221438e-05 0 -0.0022819974797980026 0.00011044046304139216 0 -0.0022837025611388479 0.00011851615422956448 0 -0.002201488343467132 0.00010424808940539891 0 -0.0021860577771605941 3.8273501284579111e-05 0 -0.002201488343467132 0.00010424808940539891 0 -0.0021351803688789304 7.4990068928041699e-05 0 -0.0022017414673741928 0.00019362867948981169 0 -0.002201488343467132 0.00010424808940539891 0 -0.0021860577771605941 3.8273501284579111e-05 0 -0.0021351803688789304 7.4990068928041699e-05 0 -0.0021860577771605941 3.8273501284579111e-05 0 -0.0021650400832641031 -3.0274961212625786e-05 0 -0.0021234121743774993 2.9112404231604944e-05 0 -0.0021860577771605941 3.8273501284579111e-05 0 -0.0021234121743774993 2.9112404231604944e-05 0 -0.0021351803688789304 7.4990068928041699e-05 0 -0.00225912813387143 4.1357456420702167e-06 0 -0.0021860577771605941 3.8273501284579111e-05 0 -0.0021650400832641031 -3.0274961212625786e-05 0 -0.00225912813387143 4.1357456420702167e-06 0 -0.0022837025611388479 0.00011851615422956448 0 -0.0021860577771605941 3.8273501284579111e-05 0 -0.00225912813387143 4.1357456420702167e-06 0 -0.0021650400832641031 -3.0274961212625786e-05 0 -0.0022621248345570831 -0.00011427157957427813 0 -0.0021650400832641031 -3.0274961212625786e-05 0 -0.0020686848546752029 -9.825303413218381e-05 0 -0.0021234121743774993 2.9112404231604944e-05 0 -0.0021515678991826655 -0.00011797814557819695 0 -0.0020186551173420968 -0.00024690185233538375 0 -0.0020686848546752029 -9.825303413218381e-05 0 -0.0021650400832641031 -3.0274961212625786e-05 0 -0.0021515678991826655 -0.00011797814557819695 0 -0.0020686848546752029 -9.825303413218381e-05 0 -0.0021515678991826655 -0.00011797814557819695 0 -0.0022621248345570831 -0.00011427157957427813 0 -0.0021521383905065612 -0.00020404874840846568 0 -0.0021650400832641031 -3.0274961212625786e-05 0 -0.0021515678991826655 -0.00011797814557819695 0 -0.0022621248345570831 -0.00011427157957427813 0 -0.0022895912341513512 -3.1940323330221438e-05 0 -0.002353499667725543 -0.0002026878764645551 0 -0.0023293200726911371 -8.1675745130770745e-05 0 -0.0023697267330107666 -0.00027175124822842852 0 -0.0024964343594728764 -0.00019225057083283449 0 -0.0023293200726911371 -8.1675745130770745e-05 0 -0.0024815340672149073 -8.8863246364940499e-05 0 -0.0024964343594728764 -0.00019225057083283449 0 -0.0025547266202137269 -0.0001058064767544201 0 -0.0024815340672149073 -8.8863246364940499e-05 0 -0.0024964343594728764 -0.00019225057083283449 0 -0.0025226135454411362 -0.00029186538246405883 0 -0.0023697267330107666 -0.00027175124822842852 0 -0.0024964343594728764 -0.00019225057083283449 0 -0.0010489420607304675 -0.00025755965800700878 0 -0.0010855524021763871 -0.00036347732732106133 0 -0.0011514060278741921 -0.00026818185988469268 0 -0.0025226135454411362 -0.00029186538246405883 0 -0.0023697267330107666 -0.00027175124822842852 0 -0.0024079798794112003 -0.00045780345205223441 0 -0.0017488733578738004 -0.00035982527136204148 0 -0.0020719397194817841 -0.00034486636438063009 0 -0.002353499667725543 -0.0002026878764645551 0 -0.0020719397194817841 -0.00034486636438063009 0 -0.0022621248345570831 -0.00011427157957427813 0 -0.0022102767652453464 -0.00024747180452020672 0 -0.0022869433973065068 -0.00026306041978676055 0 -0.0022621248345570831 -0.00011427157957427813 0 -0.0022102767652453464 -0.00024747180452020672 0 -0.0021521383905065612 -0.00020404874840846568 0 -0.0022102767652453464 -0.00024747180452020672 0 -0.0022549498938596083 -0.00031423509594256086 0 -0.0022869433973065068 -0.00026306041978676055 0 -0.0022549498938596083 -0.00031423509594256086 0 -0.0022882188835112046 -0.00026132670415071466 0 -0.0023117831657715189 -0.0003634551911979552 0 -0.0022234032904399092 -0.00025665918302470982 0 -0.0020719397194817841 -0.00034486636438063009 0 -0.0022102767652453464 -0.00024747180452020672 0 -0.0022549498938596083 -0.00031423509594256086 0 -0.0021778864610756676 -0.00032600847196105533 0 -0.0010489420607304675 -0.00025755965800700878 0 -0.0011514060278741921 -0.00026818185988469268 0 -0.0011340906202140274 -0.0002067029586019268 0 -0.0020719397194817841 -0.00034486636438063009 0 -0.001718705067630042 -0.00031687276066308818 0 -0.0010118586142578594 -0.00017195724403515654 0 -0.0011340906202140274 -0.0002067029586019268 0 -0.001118088262658951 -0.00014322388845952811 0 -0.0023117831657715189 -0.0003634551911979552 0 -0.0022373122219281911 -0.00040194808851389408 0 -0.0023318312678639866 -0.00046848869658481959 0 -0.001718705067630042 -0.00031687276066308818 0 -0.0010189563790388545 -0.00010366472583985541 0 -0.0022549498938596083 -0.00031423509594256086 0 -0.0023117831657715189 -0.0003634551911979552 0 -0.0022373122219281911 -0.00040194808851389408 0 -0.0022373122219281911 -0.00040194808851389408 0 -0.0021613729735158941 -0.00040849037586591729 0 -0.0021778864610756676 -0.00032600847196105533 0 -0.0022549498938596083 -0.00031423509594256086 0 -0.0022373122219281911 -0.00040194808851389408 0 -0.0021778864610756676 -0.00032600847196105533 0 -0.0022373122219281911 -0.00040194808851389408 0 -0.0022212672821259874 -0.00050639824436927734 0 -0.0021613729735158941 -0.00040849037586591729 0 4.1809000695067768e-05 -0.00014009935031826713 0 7.7523953518954207e-05 -0.00011274708489673357 0 9.4591468841835705e-05 -0.0001521944759043358 0 -0.0022373122219281911 -0.00040194808851389408 0 -0.0022212672821259874 -0.00050639824436927734 0 -0.0023318312678639866 -0.00046848869658481959 0 -0.0012772608106207688 -0.00028325088045549586 0 -0.0010189563790388545 -0.00010366472583985541 0 -0.00048922773181362571 -4.4379192074966165e-05 0 -0.0010189563790388545 -0.00010366472583985541 0 0.00012100490576177865 -8.7060783468311586e-05 0 7.7523953518954207e-05 -0.00011274708489673357 0 9.4591468841835705e-05 -0.0001521944759043358 0 -0.0011556537475517037 -2.7721141632817878e-05 0 -0.0010606759817113997 -9.5493558354321751e-05 0 -0.0011717584743998037 -0.00015062909177426754 0 -0.0017721466969475297 -0.00073311790278303434 0 -0.0019919138346196578 -0.00054345077732714082 0 -0.0021029442419078716 -0.00058570719787933714 0 0.0004502636009417399 -0.00097920158953491033 0 6.3721307131373565e-05 -0.00041026919992371511 0 -0.0019919138346196578 -0.00054345077732714082 0 -0.0020576133049977885 -0.00051099630825929667 0 -0.0020393521953524811 -0.00045398898577610121 0 -0.0019919138346196578 -0.00054345077732714082 0 -0.0020815882762975592 -0.00056473490811378079 0 -0.0020576133049977885 -0.00051099630825929667 0 -0.0019919138346196578 -0.00054345077732714082 0 -0.0019321373215854718 -0.00047800517349068546 0 -0.0020393521953524811 -0.00045398898577610121 0 -0.0019919138346196578 -0.00054345077732714082 0 -0.0018541702863987348 -0.00056606821077565233 0 -0.0019321373215854718 -0.00047800517349068546 0 -0.0019321373215854718 -0.00047800517349068546 0 -0.0018610928608883666 -0.00042477857044374005 0 -0.0016613892517231396 -0.0005495970121744331 0 -0.0018541702863987348 -0.00056606821077565233 0 -0.0019321373215854718 -0.00047800517349068546 0 -0.0016613892517231396 -0.0005495970121744331 0 -0.0017721466969475297 -0.00073311790278303434 0 -0.0019919138346196578 -0.00054345077732714082 0 -0.0018541702863987348 -0.00056606821077565233 0 -0.0012772608106207688 -0.00028325088045549586 0 6.3721307131373565e-05 -0.00041026919992371511 0 -0.0019919138346196578 -0.00054345077732714082 0 -0.0021029442419078716 -0.00058570719787933714 0 -0.0020815882762975592 -0.00056473490811378079 0 4.6801809068803342e-05 -6.8842729346283959e-05 0 4.1809000695067768e-05 -0.00014009935031826713 0 -1.2465938044378908e-05 -0.00012904689219196095 0 -0.0022212672821259874 -0.00050639824436927734 0 -0.0020904135944178606 -0.00057268949770117674 0 -0.0021083599399224296 -0.0004868517486156062 0 -0.0020904135944178606 -0.00057268949770117674 0 -0.0020815882762975592 -0.00056473490811378079 0 -0.0021083599399224296 -0.0004868517486156062 0 6.3721307131373565e-05 -0.00041026919992371511 0 -0.00016294063533532884 -0.00055534023580801188 0 -0.0022212672821259874 -0.00050639824436927734 0 -0.0021083599399224296 -0.0004868517486156062 0 -0.0021613729735158941 -0.00040849037586591729 0 -0.0020815882762975592 -0.00056473490811378079 0 -0.0020576133049977885 -0.00051099630825929667 0 -0.0021083599399224296 -0.0004868517486156062 0 -0.0020576133049977885 -0.00051099630825929667 0 -0.0021083599399224296 -0.0004868517486156062 0 -0.0020393521953524811 -0.00045398898577610121 0 -0.0021083599399224296 -0.0004868517486156062 0 -0.0020819720781899945 -0.00039730403560279829 0 -0.0020393521953524811 -0.00045398898577610121 0 -0.0021083599399224296 -0.0004868517486156062 0 -0.0020819720781899945 -0.00039730403560279829 0 -0.0021613729735158941 -0.00040849037586591729 0 -0.0021613729735158941 -0.00040849037586591729 0 -0.0021207883721560943 -0.00034585271125492091 0 -0.0021778864610756676 -0.00032600847196105533 0 -0.0020819720781899945 -0.00039730403560279829 0 -0.0021207883721560943 -0.00034585271125492091 0 -0.0020653474093076411 -0.00032546087249902888 0 -0.0020819720781899945 -0.00039730403560279829 0 -0.0021613729735158941 -0.00040849037586591729 0 -0.0021207883721560943 -0.00034585271125492091 0 -0.0020819720781899945 -0.00039730403560279829 0 -0.0020049923644923965 -0.00037536869513366791 0 -0.0020653474093076411 -0.00032546087249902888 0 -0.0019952794352630157 -0.00040084640167156743 0 -0.0021045573044268253 -0.00020884683698525725 0 -0.0020049923644923965 -0.00037536869513366791 0 -0.0019671984847250959 -0.00040566714025672113 0 -0.0020186551173420968 -0.00024690185233538375 0 -0.0020819720781899945 -0.00039730403560279829 0 -0.0020049923644923965 -0.00037536869513366791 0 -0.0020393521953524811 -0.00045398898577610121 0 -0.0019321373215854718 -0.00047800517349068546 0 -0.0020049923644923965 -0.00037536869513366791 0 -0.0020393521953524811 -0.00045398898577610121 0 -0.0019321373215854718 -0.00047800517349068546 0 -0.0020049923644923965 -0.00037536869513366791 0 -0.0018610928608883666 -0.00042477857044374005 0 -0.0019763600906970787 -0.00040270431407621034 0 -0.0019952794352630157 -0.00040084640167156743 0 -0.0020186551173420968 -0.00024690185233538375 0 -0.0020653474093076411 -0.00032546087249902888 0 -0.0021198679849455042 -0.00028280995986261547 0 -0.0020049923644923965 -0.00037536869513366791 0 -0.0020186551173420968 -0.00024690185233538375 0 -0.0020653474093076411 -0.00032546087249902888 0 -0.0020186551173420968 -0.00024690185233538375 0 -0.0021198679849455042 -0.00028280995986261547 0 -0.0021521383905065612 -0.00020404874840846568 0 -0.0021207883721560943 -0.00034585271125492091 0 -0.0021778864610756676 -0.00032600847196105533 0 -0.0021198679849455042 -0.00028280995986261547 0 -0.0022102767652453464 -0.00024747180452020672 0 -0.0021778864610756676 -0.00032600847196105533 0 -0.0021198679849455042 -0.00028280995986261547 0 -0.0021207883721560943 -0.00034585271125492091 0 -0.0020653474093076411 -0.00032546087249902888 0 -0.0021198679849455042 -0.00028280995986261547 0 -0.0022102767652453464 -0.00024747180452020672 0 -0.0021198679849455042 -0.00028280995986261547 0 -0.0021521383905065612 -0.00020404874840846568 0 -0.0021515678991826655 -0.00011797814557819695 0 -0.0020186551173420968 -0.00024690185233538375 0 -0.0021521383905065612 -0.00020404874840846568 0 -0.0021045573044268253 -0.00020884683698525725 0 -0.0021041377992142242 -7.6904880336411252e-05 0 -0.0021643723908528522 -0.00016470864476303328 0 -0.0020949797648600098 -0.00013366728950902607 0 -0.0021410793319797416 -4.9697402144229174e-05 0 -0.0020217177588281354 -0.00010191718243231153 0 -0.0020526946433903634 -0.00010735634075825829 0 -0.0020196533124190218 -0.00014968221384305789 0 -0.0020949797648600098 -0.00013366728950902607 0 -0.0020526946433903634 -0.00010735634075825829 0 -0.0020920329234217767 -8.2269177240019693e-05 0 -0.0020949797648600098 -0.00013366728950902607 0 -0.0020526946433903634 -0.00010735634075825829 0 -0.0020196533124190218 -0.00014968221384305789 0 -0.0020949797648600098 -0.00013366728950902607 0 -0.0020196533124190218 -0.00014968221384305789 0 -0.0020679801682134073 -0.00018638226884049871 0 -0.001967124873889808 -0.00022484155387101224 0 -0.0020679801682134073 -0.00018638226884049871 0 -0.002096031656232874 -0.00027565626913233013 0 -0.0020196533124190218 -0.00014968221384305789 0 -0.001967124873889808 -0.00022484155387101224 0 -0.0020679801682134073 -0.00018638226884049871 0 -0.0021643723908528522 -0.00016470864476303328 0 -0.0020949797648600098 -0.00013366728950902607 0 -0.0020679801682134073 -0.00018638226884049871 0 -0.0021643723908528522 -0.00016470864476303328 0 -0.0020679801682134073 -0.00018638226884049871 0 -0.002096031656232874 -0.00027565626913233013 0 -0.0022060282856459531 -0.00036672188466504925 0 -0.0021643723908528522 -0.00016470864476303328 0 -0.002096031656232874 -0.00027565626913233013 0 -0.0022060282856459531 -0.00036672188466504925 0 -0.0021068650512109776 -0.00037549516191349308 0 -0.002096031656232874 -0.00027565626913233013 0 -0.0021068650512109776 -0.00037549516191349308 0 -0.002096031656232874 -0.00027565626913233013 0 -0.0020249052189284644 -0.00034866612696340965 0 -0.001967124873889808 -0.00022484155387101224 0 -0.0020249052189284644 -0.00034866612696340965 0 -0.0019302155768778585 -0.0004159660102505293 0 -0.001967124873889808 -0.00022484155387101224 0 -0.002096031656232874 -0.00027565626913233013 0 -0.0020249052189284644 -0.00034866612696340965 0 -0.0020249052189284644 -0.00034866612696340965 0 -0.0020128818172555334 -0.00046830847086895252 0 -0.0019302155768778585 -0.0004159660102505293 0 -0.0019729298902765834 -0.00062444127249019446 0 -0.0020128818172555334 -0.00046830847086895252 0 -0.0021365848184103902 -0.00045434574998788851 0 -0.0021068650512109776 -0.00037549516191349308 0 -0.0020249052189284644 -0.00034866612696340965 0 -0.0020128818172555334 -0.00046830847086895252 0 -0.0020128818172555334 -0.00046830847086895252 0 -0.0019302155768778585 -0.0004159660102505293 0 -0.0019358676654967913 -0.00051033298499964484 0 -0.0019302155768778585 -0.0004159660102505293 0 -0.0019358676654967913 -0.00051033298499964484 0 -0.001846521789240561 -0.00053726473170804753 0 -0.0019078472513834655 -0.00057796195078230639 0 -0.0019358676654967913 -0.00051033298499964484 0 -0.001846521789240561 -0.00053726473170804753 0 -0.0019568107525630572 -0.00057406252704228706 0 -0.0020128818172555334 -0.00046830847086895252 0 -0.0019358676654967913 -0.00051033298499964484 0 -0.0019078472513834655 -0.00057796195078230639 0 -0.0019568107525630572 -0.00057406252704228706 0 -0.0019358676654967913 -0.00051033298499964484 0 -0.0019729298902765834 -0.00062444127249019446 0 -0.0019568107525630572 -0.00057406252704228706 0 -0.0020128818172555334 -0.00046830847086895252 0 -0.0017721466969475297 -0.00073311790278303434 0 -0.0012938706252880146 -0.00085776546972628361 0 -0.0016613892517231396 -0.0005495970121744331 0 -0.00037432661905835614 -0.00084507437665857642 0 -0.0021038702882355547 -0.00039063246918221063 0 -0.0017721466969475297 -0.00073311790278303434 0 -0.0018541702863987348 -0.00056606821077565233 0 -0.0016613892517231396 -0.0005495970121744331 0 -0.0022060282856459531 -0.00036672188466504925 0 -0.0021068650512109776 -0.00037549516191349308 0 -0.0021365848184103902 -0.00045434574998788851 0 -0.0019952794352630157 -0.00040084640167156743 0 -0.0021038702882355547 -0.00039063246918221063 0 -0.0021068650512109776 -0.00037549516191349308 0 -0.0020128818172555334 -0.00046830847086895252 0 -0.0021365848184103902 -0.00045434574998788851 0 -0.00017497002175668352 -0.00073725878972365124 0 -8.2443105147175485e-06 -0.0007160707551438979 0 0.0015064305800922375 -0.00079014135444719486 0 0.0011151433708282551 -0.00079157872718288121 0 0.001291418878505574 -0.0011251752622096825 0 -0.0016968182271816458 -0.00057697413520250106 0 -0.0015661639055380998 -0.00039481181486854814 0 -0.0017576547638475154 -0.0004051101261599934 0 -0.0016968182271816458 -0.00057697413520250106 0 -0.001846521789240561 -0.00053726473170804753 0 -0.0017576547638475154 -0.0004051101261599934 0 -0.0019302155768778585 -0.0004159660102505293 0 -0.001846521789240561 -0.00053726473170804753 0 -0.0017576547638475154 -0.0004051101261599934 0 -0.001967124873889808 -0.00022484155387101224 0 -0.0017576547638475154 -0.0004051101261599934 0 -0.0016832597546462692 -0.00020159756009465807 0 -0.001967124873889808 -0.00022484155387101224 0 -0.0019302155768778585 -0.0004159660102505293 0 -0.0017576547638475154 -0.0004051101261599934 0 -0.0015661639055380998 -0.00039481181486854814 0 -0.0017576547638475154 -0.0004051101261599934 0 -0.0016832597546462692 -0.00020159756009465807 0 -0.0014290136278956626 -0.00019812059015396786 0 -0.0015661639055380998 -0.00039481181486854814 0 -0.0016832597546462692 -0.00020159756009465807 0 -0.0019441235017936093 -0.00020182449772152572 0 -0.0019689131611898346 -0.00017153843570915308 0 -0.0019399131046137093 -0.00013567248117033812 0 -0.0017242030686693693 -0.0003888811761031337 0 -0.0018031290344239074 -0.0001923374408150138 0 -0.0018943774263886026 -0.00019667550328085451 0 -0.0019441235017936093 -0.00020182449772152572 0 -0.0019399131046137093 -0.00013567248117033812 0 -0.001959986033475592 -0.00022086188976723622 0 -0.0018031290344239074 -0.0001923374408150138 0 -0.001967124873889808 -0.00022484155387101224 0 -0.0019441235017936093 -0.00020182449772152572 0 -0.0019689131611898346 -0.00017153843570915308 0 -0.0020196533124190218 -0.00014968221384305789 0 -0.001967124873889808 -0.00022484155387101224 0 -0.0019689131611898346 -0.00017153843570915308 0 -0.0020196533124190218 -0.00014968221384305789 0 -0.0019689131611898346 -0.00017153843570915308 0 -0.0019901689571698586 -0.00011754451202309665 0 -0.0019689131611898346 -0.00017153843570915308 0 -0.0019901689571698586 -0.00011754451202309665 0 -0.0019399131046137093 -0.00013567248117033812 0 -0.0020217177588281354 -0.00010191718243231153 0 -0.0020196533124190218 -0.00014968221384305789 0 -0.0019901689571698586 -0.00011754451202309665 0 -0.0047677166957435218 -0.00086033178992382968 0 -0.0046450563497908827 -0.00065555808045626143 0 -0.0044258747015845749 -0.00090743449710866037 0 -0.0047677166957435218 -0.00086033178992382968 0 -0.0046829674041959221 -0.0010767811969098569 0 -0.0044258747015845749 -0.00090743449710866037 0 -0.0055002304495399132 -0.0005898637109244012 0 -0.0045231304463854618 -0.00060655505038116739 0 -0.0063168123529622148 -0.00018231309724431606 0 -0.0061787658306685931 -9.6304297928179324e-05 0 -0.0061968274085444485 -0.00018996098708650287 0 -0.0019901689571698586 -0.00011754451202309665 0 -0.0019399131046137093 -0.00013567248117033812 0 -0.0020222357926754091 -4.2547221370749806e-05 0 -0.0020217177588281354 -0.00010191718243231153 0 -0.0019901689571698586 -0.00011754451202309665 0 -0.0020222357926754091 -4.2547221370749806e-05 0 -0.0031835484697945193 -0.0003680756898633052 0 -0.0045231304463854618 -0.00060655505038116739 0 -0.0020217177588281354 -0.00010191718243231153 0 -0.0020222357926754091 -4.2547221370749806e-05 0 -0.0020419046302980618 -7.4085634389281334e-05 0 -0.0020217177588281354 -0.00010191718243231153 0 -0.0020526946433903634 -0.00010735634075825829 0 -0.0020419046302980618 -7.4085634389281334e-05 0 -0.0033906463765457926 -1.8840307989038853e-05 0 -0.0019726599022079779 0.00019054824566095614 0 -0.0020526946433903634 -0.00010735634075825829 0 -0.0020419046302980618 -7.4085634389281334e-05 0 -0.0020920329234217767 -8.2269177240019693e-05 0 -0.0020419046302980618 -7.4085634389281334e-05 0 -0.0020506784089700178 -6.1058766966844835e-05 0 -0.0020920329234217767 -8.2269177240019693e-05 0 -0.0020731573279804422 -5.5490167615102522e-05 0 -0.0020920329234217767 -8.2269177240019693e-05 0 -0.0021012871567541542 -4.4020633971447613e-05 0 -0.0045231304463854618 -0.00060655505038116739 0 -0.0033906463765457926 -1.8840307989038853e-05 0 -0.0020222357926754091 -4.2547221370749806e-05 0 -0.0020419046302980618 -7.4085634389281334e-05 0 -0.0020518651210141969 -6.2858721419475048e-05 0 -0.0031309883711954541 -0.00019197590518709966 0 -0.0033906463765457926 -1.8840307989038853e-05 0 -0.0020949797648600098 -0.00013366728950902607 0 -0.0020920329234217767 -8.2269177240019693e-05 0 -0.0021410793319797416 -4.9697402144229174e-05 0 -0.0020920329234217767 -8.2269177240019693e-05 0 -0.0021012871567541542 -4.4020633971447613e-05 0 -0.0021410793319797416 -4.9697402144229174e-05 0 -0.0021012871567541542 -4.4020633971447613e-05 0 -0.0021410793319797416 -4.9697402144229174e-05 0 -0.002103213014844989 6.5894090084008291e-06 0 -0.0021041377992142242 -7.6904880336411252e-05 0 -0.0021202200926073284 2.070521154224888e-05 0 -0.0021410793319797416 -4.9697402144229174e-05 0 -0.002103213014844989 6.5894090084008291e-06 0 -0.0021234121743774993 2.9112404231604944e-05 0 -0.0058020257963613178 -0.00054547389735288621 0 -0.0059605851801517703 -0.00031408532167477799 0 -0.0058764667316501097 -0.00031680218892809206 0 -0.0061787658306685931 -9.6304297928179324e-05 0 -0.0061103770351871286 -0.00017596707810870875 0 -0.0061968274085444485 -0.00018996098708650287 0 -0.0056968751966777762 -0.00047820649863146756 0 -0.0058020257963613178 -0.00054547389735288621 0 -0.0058764667316501097 -0.00031680218892809206 0 -0.0020731573279804422 -5.5490167615102522e-05 0 -0.0021012871567541542 -4.4020633971447613e-05 0 -0.002103213014844989 6.5894090084008291e-06 0 -0.0033906463765457926 -1.8840307989038853e-05 0 -0.0040957822563854858 -0.00018196272335937796 0 -0.0045231304463854618 -0.00060655505038116739 0 -0.0061650179813051605 -0.000103961598747548 0 -0.0061103770351871286 -0.00017596707810870875 0 -0.0061574129927491244 -0.00023025575531760342 0 -0.0061968274085444485 -0.00018996098708650287 0 -0.0061103770351871286 -0.00017596707810870875 0 -0.0061031483170401832 -0.00025443664348360009 0 -0.0060104328272267676 -0.00028980206018166046 0 -0.0061103770351871286 -0.00017596707810870875 0 -0.0061574129927491244 -0.00023025575531760342 0 -0.0061031483170401832 -0.00025443664348360009 0 -0.0061031483170401832 -0.00025443664348360009 0 -0.0061456100947053409 -0.00030211416188154547 0 -0.0060842370198662911 -0.00029675110793939602 0 -0.0061574129927491244 -0.00023025575531760342 0 -0.0061456100947053409 -0.00030211416188154547 0 -0.006229279910623069 -0.00026301082160682358 0 -0.0061574129927491244 -0.00023025575531760342 0 -0.0061031483170401832 -0.00025443664348360009 0 -0.0061456100947053409 -0.00030211416188154547 0 -0.002103213014844989 6.5894090084008291e-06 0 -0.0021234121743774993 2.9112404231604944e-05 0 -0.0021351803688789304 7.4990068928041699e-05 0 -0.0040957822563854858 -0.00018196272335937796 0 -0.0040212863921613778 -8.1502296127494359e-05 0 -0.0059605851801517703 -0.00031408532167477799 0 -0.0060104328272267676 -0.00028980206018166046 0 -0.0060271822334420572 -0.00029197109869382571 0 -0.0059605851801517703 -0.00031408532167477799 0 -0.0058764667316501097 -0.00031680218892809206 0 -0.0060104328272267676 -0.00028980206018166046 0 -0.0061650179813051605 -0.000103961598747548 0 -0.0059431534993330364 -0.00034391806327509835 0 -0.0061031483170401832 -0.00025443664348360009 0 -0.0060104328272267676 -0.00028980206018166046 0 -0.0060842370198662911 -0.00029675110793939602 0 -0.0060104328272267676 -0.00028980206018166046 0 -0.0060271822334420572 -0.00029197109869382571 0 -0.0060750832446367651 -0.00033058081293945086 0 -0.0060104328272267676 -0.00028980206018166046 0 -0.0060750832446367651 -0.00033058081293945086 0 -0.0060842370198662911 -0.00029675110793939602 0 -0.0060271822334420572 -0.00029197109869382571 0 -0.0060750832446367651 -0.00033058081293945086 0 -0.0060358395267817687 -0.0003687800907009058 0 -0.0060750832446367651 -0.00033058081293945086 0 -0.0061456100947053409 -0.00030211416188154547 0 -0.0060842370198662911 -0.00029675110793939602 0 -0.0060750832446367651 -0.00033058081293945086 0 -0.0061456100947053409 -0.00030211416188154547 0 -0.0061505301614405749 -0.0003692005721132554 0 -0.0061456100947053409 -0.00030211416188154547 0 -0.0062297344470015623 -0.00035006776155248787 0 -0.0061505301614405749 -0.0003692005721132554 0 -0.0062297344470015623 -0.00035006776155248787 0 -0.0063252234866403145 -0.00031995646330769401 0 -0.006229279910623069 -0.00026301082160682358 0 -0.0061456100947053409 -0.00030211416188154547 0 -0.0062297344470015623 -0.00035006776155248787 0 -0.006229279910623069 -0.00026301082160682358 0 -0.0064458267355353713 -0.00026910313244361513 0 -0.0063168123529622148 -0.00018231309724431606 0 -0.0063252234866403145 -0.00031995646330769401 0 -0.0063168123529622148 -0.00018231309724431606 0 -0.0063252234866403145 -0.00031995646330769401 0 -0.006229279910623069 -0.00026301082160682358 0 -0.0063168123529622148 -0.00018231309724431606 0 -0.0061968274085444485 -0.00018996098708650287 0 -0.006229279910623069 -0.00026301082160682358 0 -0.0061574129927491244 -0.00023025575531760342 0 -0.0061968274085444485 -0.00018996098708650287 0 -0.006229279910623069 -0.00026301082160682358 0 -0.0062112416846999913 -0.00044485507315350769 0 -0.0063115315976381824 -0.00044152622310872835 0 -0.0062684924004617875 -0.00055164147554522588 0 -0.0064111342897061434 -0.00056353203151847994 0 -0.0063115315976381824 -0.00044152622310872835 0 -0.0062684924004617875 -0.00055164147554522588 0 -0.0064224051630466725 -0.00041825400904025776 0 -0.0064111342897061434 -0.00056353203151847994 0 -0.0063115315976381824 -0.00044152622310872835 0 -0.0064224051630466725 -0.00041825400904025776 0 -0.0063252234866403145 -0.00031995646330769401 0 -0.0063115315976381824 -0.00044152622310872835 0 -0.0062297344470015623 -0.00035006776155248787 0 -0.0063252234866403145 -0.00031995646330769401 0 -0.0063115315976381824 -0.00044152622310872835 0 -0.0062297344470015623 -0.00035006776155248787 0 -0.0062112416846999913 -0.00044485507315350769 0 -0.0063115315976381824 -0.00044152622310872835 0 -0.0062297344470015623 -0.00035006776155248787 0 -0.0062112416846999913 -0.00044485507315350769 0 -0.0061505301614405749 -0.0003692005721132554 0 -0.0060750832446367651 -0.00033058081293945086 0 -0.0061505301614405749 -0.0003692005721132554 0 -0.0060933755933770982 -0.00041662906427635199 0 -0.0062112416846999913 -0.00044485507315350769 0 -0.0061505301614405749 -0.0003692005721132554 0 -0.0060933755933770982 -0.00041662906427635199 0 -0.0060750832446367651 -0.00033058081293945086 0 -0.0060358395267817687 -0.0003687800907009058 0 -0.0060933755933770982 -0.00041662906427635199 0 -0.0060358395267817687 -0.0003687800907009058 0 -0.0060933755933770982 -0.00041662906427635199 0 -0.0060188182631179376 -0.00041397334087304858 0 -0.0060933755933770982 -0.00041662906427635199 0 -0.0060408180063074276 -0.00046172820300713363 0 -0.0060188182631179376 -0.00041397334087304858 0 -0.0060408180063074276 -0.00046172820300713363 0 -0.0061272394211923115 -0.00053403297473815026 0 -0.0059883503782284502 -0.00051565701656772266 0 -0.0060933755933770982 -0.00041662906427635199 0 -0.0060408180063074276 -0.00046172820300713363 0 -0.0061272394211923115 -0.00053403297473815026 0 -0.0062112416846999913 -0.00044485507315350769 0 -0.0060933755933770982 -0.00041662906427635199 0 -0.0061272394211923115 -0.00053403297473815026 0 -0.0062112416846999913 -0.00044485507315350769 0 -0.0061272394211923115 -0.00053403297473815026 0 -0.0062684924004617875 -0.00055164147554522588 0 -0.0099178514892948946 0.00095613307321980041 0 -0.009979359974166711 0.00086799646042886583 0 -0.010014726589533941 0.00089956470807335553 0 -0.0080291157916226822 0.00020322654798337188 0 -0.008118838904503347 0.00024195577077426738 0 -0.0080291157916226822 0.00020322654798337188 0 -0.0078531994638654182 0.0002506418869667872 0 -0.0099178514892948946 0.00095613307321980041 0 -0.0099087111475865998 0.00085099971822898666 0 -0.0097998028888681716 0.00090446402841461702 0 -0.0099087111475865998 0.00085099971822898666 0 -0.009979359974166711 0.00086799646042886583 0 -0.0099933599968487843 0.00079487576381165673 0 -0.0099178514892948946 0.00095613307321980041 0 -0.0099087111475865998 0.00085099971822898666 0 -0.009979359974166711 0.00086799646042886583 0 -0.009979359974166711 0.00086799646042886583 0 -0.010036253795635547 0.00083572800092879826 0 -0.0099933599968487843 0.00079487576381165673 0 -0.009979359974166711 0.00086799646042886583 0 -0.010036253795635547 0.00083572800092879826 0 -0.010014726589533941 0.00089956470807335553 0 -0.008314238049716571 -0.00045537724231936084 0 -0.008118838904503347 0.00024195577077426738 0 -0.010077073843723494 0.00087058525299231015 0 -0.010036253795635547 0.00083572800092879826 0 -0.010014726589533941 0.00089956470807335553 0 -0.008314238049716571 -0.00045537724231936084 0 -0.01018846467121612 0.00056721984064776157 0 -0.010077073843723494 0.00087058525299231015 0 -0.010036253795635547 0.00083572800092879826 0 -0.01008085294606883 0.00079925734457556128 0 -0.0099004990206044662 0.00011765789557858151 0 -0.0098871942819837664 0.0006024711719329756 0 -0.010051721833458226 0.00073532860235646044 0 -0.01018846467121612 0.00056721984064776157 0 -0.0099977074986528167 0.00067093291429863144 0 -0.010036253795635547 0.00083572800092879826 0 -0.01008085294606883 0.00079925734457556128 0 -0.01004992134361756 0.00076501852874966342 0 -0.01008085294606883 0.00079925734457556128 0 -0.01004992134361756 0.00076501852874966342 0 -0.010051721833458226 0.00073532860235646044 0 -0.010036253795635547 0.00083572800092879826 0 -0.01004992134361756 0.00076501852874966342 0 -0.0099933599968487843 0.00079487576381165673 0 -0.01004992134361756 0.00076501852874966342 0 -0.010061056482892334 0.00073806504804998022 0 -0.010036832219283025 0.00071877581773764979 0 -0.010061056482892334 0.00073806504804998022 0 -0.010080522767183313 0.00071048973231062514 0 -0.010036832219283025 0.00071877581773764979 0 -0.01004992134361756 0.00076501852874966342 0 -0.010061056482892334 0.00073806504804998022 0 -0.010051721833458226 0.00073532860235646044 0 -0.010061056482892334 0.00073806504804998022 0 -0.010051721833458226 0.00073532860235646044 0 -0.010080522767183313 0.00071048973231062514 0 -0.010051721833458226 0.00073532860235646044 0 -0.010046161208058603 0.00078139130719743664 0 -0.010080522767183313 0.00071048973231062514 0 -0.0098871942819837664 0.0006024711719329756 0 -0.010051721833458226 0.00073532860235646044 0 -0.010046161208058603 0.00078139130719743664 0 -0.011503683329283036 0.0011834540643916105 0 -0.01087323535492688 0.00083680428896804656 0 -0.011399920312743526 0.00079697476881723751 0 -0.011745675802694987 0.00080143044294940448 0 -0.011503683329283036 0.0011834540643916105 0 -0.011399920312743526 0.00079697476881723751 0 -0.010046161208058603 0.00078139130719743664 0 -0.010080522767183313 0.00071048973231062514 0 -0.010126823006473509 0.000608809364142638 0 -0.010080522767183313 0.00071048973231062514 0 -0.010126823006473509 0.000608809364142638 0 -0.010036832219283025 0.00071877581773764979 0 -0.010784229567031574 0.00097969810778320942 0 -0.010481770055751887 0.00070689715831683941 0 -0.011745675802694987 0.00080143044294940448 0 -0.011399920312743526 0.00079697476881723751 0 -0.011473305513142429 0.00036175217012272376 0 -0.01087323535492688 0.00083680428896804656 0 -0.011399920312743526 0.00079697476881723751 0 -0.011473305513142429 0.00036175217012272376 0 -0.0099965591887913024 0.0006343403535076723 0 -0.0098223112525861692 0.00052190529132662637 0 -0.010185009715918481 0.00041176463494420475 0 -0.010126823006473509 0.000608809364142638 0 -0.0099965591887913024 0.0006343403535076723 0 -0.010185009715918481 0.00041176463494420475 0 -0.010481770055751887 0.00070689715831683941 0 -0.010190410889991709 0.00043156658891891378 0 -0.010126823006473509 0.000608809364142638 0 -0.0099965591887913024 0.0006343403535076723 0 -0.010036832219283025 0.00071877581773764979 0 -0.0099965591887913024 0.0006343403535076723 0 -0.010036832219283025 0.00071877581773764979 0 -0.0099350007490774453 0.00075525017372680102 0 -0.0099965591887913024 0.0006343403535076723 0 -0.0099350007490774453 0.00075525017372680102 0 -0.0097869747555328328 0.00069889843405309901 0 -0.010036832219283025 0.00071877581773764979 0 -0.0099933599968487843 0.00079487576381165673 0 -0.0099350007490774453 0.00075525017372680102 0 -0.01004992134361756 0.00076501852874966342 0 -0.010036832219283025 0.00071877581773764979 0 -0.0099933599968487843 0.00079487576381165673 0 -0.0099087111475865998 0.00085099971822898666 0 -0.0099933599968487843 0.00079487576381165673 0 -0.0099350007490774453 0.00075525017372680102 0 -0.0099087111475865998 0.00085099971822898666 0 -0.0099350007490774453 0.00075525017372680102 0 -0.0098176015357744218 0.00081473541083568288 0 -0.0099350007490774453 0.00075525017372680102 0 -0.0098176015357744218 0.00081473541083568288 0 -0.0097869747555328328 0.00069889843405309901 0 -0.0098176015357744218 0.00081473541083568288 0 -0.0097869747555328328 0.00069889843405309901 0 -0.0096685129823905532 0.00083641283435726918 0 -0.0097869747555328328 0.00069889843405309901 0 -0.0095917468860067193 0.00072388862493537862 0 -0.0096685129823905532 0.00083641283435726918 0 -0.0097869747555328328 0.00069889843405309901 0 -0.0095846631722882273 0.00052614697026296005 0 -0.0095917468860067193 0.00072388862493537862 0 -0.0099965591887913024 0.0006343403535076723 0 -0.0097869747555328328 0.00069889843405309901 0 -0.0098223112525861692 0.00052190529132662637 0 -0.0097869747555328328 0.00069889843405309901 0 -0.0098223112525861692 0.00052190529132662637 0 -0.0095846631722882273 0.00052614697026296005 0 -0.0097025219129701582 0.00037231193693323857 0 -0.0098223112525861692 0.00052190529132662637 0 -0.0095846631722882273 0.00052614697026296005 0 -0.0097025219129701582 0.00037231193693323857 0 -0.0095846631722882273 0.00052614697026296005 0 -0.0095551801347802962 0.00021054422860528036 0 -0.0098223112525861692 0.00052190529132662637 0 -0.0098660162331139639 0.00020874491668083716 0 -0.010185009715918481 0.00041176463494420475 0 -0.0097025219129701582 0.00037231193693323857 0 -0.0098223112525861692 0.00052190529132662637 0 -0.0098660162331139639 0.00020874491668083716 0 -0.0093575322145464327 0.00035153339415963083 0 -0.0095121701604159396 0.000433580629513666 0 -0.0094448088672983398 0.00027206246831574968 0 -0.0095489089787331467 0.00047139232197410423 0 -0.0095564821648504456 0.00022164856299724788 0 -0.0095121701604159396 0.000433580629513666 0 -0.0093584649205741815 0.00051308121511338964 0 -0.0095064181094610956 0.00061787828710318268 0 -0.0095489089787331467 0.00047139232197410423 0 -0.0095485802781320635 0.00067703545029664284 0 -0.0093575322145464327 0.00035153339415963083 0 -0.0095121701604159396 0.000433580629513666 0 -0.0093584649205741815 0.00051308121511338964 0 -0.0093584649205741815 0.00051308121511338964 0 -0.0095064181094610956 0.00061787828710318268 0 -0.0092784697701715612 0.00067048543148028516 0 -0.0095485802781320635 0.00067703545029664284 0 -0.0095434474329316264 0.00087417925814522015 0 -0.0095917468860067193 0.00072388862493537862 0 -0.0095447296485602073 0.00088064462526349428 0 -0.0096685129823905532 0.00083641283435726918 0 -0.0095064181094610956 0.00061787828710318268 0 -0.009419879569401551 0.00079158544786929724 0 -0.0095447296485602073 0.00088064462526349428 0 -0.009419879569401551 0.00079158544786929724 0 -0.0092954357549980254 0.00082683857122737572 0 -0.0092784697701715612 0.00067048543148028516 0 -0.0095064181094610956 0.00061787828710318268 0 -0.009419879569401551 0.00079158544786929724 0 -0.0092784697701715612 0.00067048543148028516 0 -0.009419879569401551 0.00079158544786929724 0 -0.0093244037533400503 0.00090165566878442705 0 -0.0092954357549980254 0.00082683857122737572 0 -0.009419879569401551 0.00079158544786929724 0 -0.0093244037533400503 0.00090165566878442705 0 -0.0095051072138477768 0.00090263209571099642 0 -0.010105389119698487 0.0010041973380632248 0 -0.0069495970882853747 0.00041692146369948127 0 -0.0093244037533400503 0.00090165566878442705 0 -0.0089758453948921828 0.001501042303660998 0 -0.0088972281657516122 0.0010845247123846865 0 -0.0094507603899948115 0.0010147148203572952 0 -0.0095051072138477768 0.00090263209571099642 0 -0.0092871263050923556 0.0010564887018354979 0 -0.0093244037533400503 0.00090165566878442705 0 -0.0095051072138477768 0.00090263209571099642 0 -0.0089758453948921828 0.001501042303660998 0 -0.0094507603899948115 0.0010147148203572952 0 -0.0093187926239830573 0.0010842099227096975 0 -0.0095719969881879162 0.0010589906853272835 0 -0.0094507603899948115 0.0010147148203572952 0 -0.0093187926239830573 0.0010842099227096975 0 -0.0092871263050923556 0.0010564887018354979 0 -0.0094507603899948115 0.0010147148203572952 0 -0.0095621783573454581 0.00094904143652459172 0 -0.0095719969881879162 0.0010589906853272835 0 -0.0094507603899948115 0.0010147148203572952 0 -0.0095621783573454581 0.00094904143652459172 0 -0.0095051072138477768 0.00090263209571099642 0 -0.0095621783573454581 0.00094904143652459172 0 -0.009674167986951596 0.00093807759916392892 0 -0.0095719969881879162 0.0010589906853272835 0 -0.0095621783573454581 0.00094904143652459172 0 -0.009613661421193331 0.00090861829583084488 0 -0.0095447296485602073 0.00088064462526349428 0 -0.0095621783573454581 0.00094904143652459172 0 -0.0095447296485602073 0.00088064462526349428 0 -0.0095051072138477768 0.00090263209571099642 0 -0.009419879569401551 0.00079158544786929724 0 -0.0095447296485602073 0.00088064462526349428 0 -0.0095051072138477768 0.00090263209571099642 0 -0.009613661421193331 0.00090861829583084488 0 -0.0095447296485602073 0.00088064462526349428 0 -0.0096685129823905532 0.00083641283435726918 0 -0.0096685129823905532 0.00083641283435726918 0 -0.0097998028888681716 0.00090446402841461702 0 -0.009674167986951596 0.00093807759916392892 0 -0.009613661421193331 0.00090861829583084488 0 -0.0096685129823905532 0.00083641283435726918 0 -0.009674167986951596 0.00093807759916392892 0 -0.0098176015357744218 0.00081473541083568288 0 -0.0096685129823905532 0.00083641283435726918 0 -0.0097998028888681716 0.00090446402841461702 0 -0.0099087111475865998 0.00085099971822898666 0 -0.0098176015357744218 0.00081473541083568288 0 -0.0097998028888681716 0.00090446402841461702 0 -0.0097998028888681716 0.00090446402841461702 0 -0.0097648215000354279 0.0010114538400468811 0 -0.009674167986951596 0.00093807759916392892 0 -0.0099178514892948946 0.00095613307321980041 0 -0.0097998028888681716 0.00090446402841461702 0 -0.0097648215000354279 0.0010114538400468811 0 -0.0097648215000354279 0.0010114538400468811 0 -0.009674167986951596 0.00093807759916392892 0 -0.0095719969881879162 0.0010589906853272835 0 -0.0078531994638654182 0.0002506418869667872 0 -0.0077940305383947276 0.00026838229515113943 0 -0.0095621783573454581 0.00094904143652459172 0 -0.009613661421193331 0.00090861829583084488 0 -0.009674167986951596 0.00093807759916392892 0 -0.0059142036648408836 -0.00047219235157846667 0 -0.0058754333343244806 -0.00044238868348880971 0 -0.0058332681682741628 -0.00049462478845394865 0 -0.0058754333343244806 -0.00044238868348880971 0 -0.0059520361388467171 -0.00038303940174960294 0 -0.0058004658690368385 -0.00042198096390383996 0 -0.0059883503782284502 -0.00051565701656772266 0 -0.0059142036648408836 -0.00047219235157846667 0 -0.0058332681682741628 -0.00049462478845394865 0 -0.0060640369456778712 -0.00028206500426557825 0 -0.0045811848965475153 -0.00036520872200902386 0 -0.0059142036648408836 -0.00047219235157846667 0 -0.0058754333343244806 -0.00044238868348880971 0 -0.0059520361388467171 -0.00038303940174960294 0 -0.0060408180063074276 -0.00046172820300713363 0 -0.0059883503782284502 -0.00051565701656772266 0 -0.0059819712964294192 -0.00044373128527489241 0 -0.0059883503782284502 -0.00051565701656772266 0 -0.0059142036648408836 -0.00047219235157846667 0 -0.0059819712964294192 -0.00044373128527489241 0 -0.0059142036648408836 -0.00047219235157846667 0 -0.0059819712964294192 -0.00044373128527489241 0 -0.0059633903563232763 -0.00040304365522887941 0 -0.0060408180063074276 -0.00046172820300713363 0 -0.0059819712964294192 -0.00044373128527489241 0 -0.0060188182631179376 -0.00041397334087304858 0 -0.0060271822334420572 -0.00029197109869382571 0 -0.0060358395267817687 -0.0003687800907009058 0 -0.0059633903563232763 -0.00040304365522887941 0 -0.0040212863921613778 -8.1502296127494359e-05 0 -0.0045811848965475153 -0.00036520872200902386 0 -0.0060358395267817687 -0.0003687800907009058 0 -0.0060188182631179376 -0.00041397334087304858 0 -0.0059633903563232763 -0.00040304365522887941 0 -0.0059819712964294192 -0.00044373128527489241 0 -0.0060188182631179376 -0.00041397334087304858 0 -0.0059633903563232763 -0.00040304365522887941 0 -0.0022837025611388479 0.00011851615422956448 0 -0.002201488343467132 0.00010424808940539891 0 -0.0022017414673741928 0.00019362867948981169 0 -0.0022837025611388479 0.00011851615422956448 0 -0.0022017414673741928 0.00019362867948981169 0 -0.0023808605725681728 0.00026482734696850539 0 -0.0045811848965475153 -0.00036520872200902386 0 -0.0039612990399935316 -0.00012439275668166708 0 -0.0022837025611388479 0.00011851615422956448 0 -0.0024184361439601059 0.00012922213292485628 0 -0.0023808605725681728 0.00026482734696850539 0 -0.0025172237124270387 6.3384686154172788e-05 0 -0.0025055569904649804 0.00020378207655154904 0 -0.0025855856791051194 0.00013624391875871681 0 -0.0024184361439601059 0.00012922213292485628 0 -0.0025055569904649804 0.00020378207655154904 0 -0.0023808605725681728 0.00026482734696850539 0 -0.0025172237124270387 6.3384686154172788e-05 0 -0.0024184361439601059 0.00012922213292485628 0 -0.0025055569904649804 0.00020378207655154904 0 -0.0070652936408280775 0.00040378437079067997 0 -0.0077940305383947276 0.00026838229515113943 0 -0.0039612990399935316 -0.00012439275668166708 0 -0.0041812811671742478 0.00042519228626179304 0 -0.0025055569904649804 0.00020378207655154904 0 -0.0023808605725681728 0.00026482734696850539 0 -0.0025782444734474522 0.00032899113085014685 0 -0.0056546939358374775 -0.00046113766904132785 0 -0.0058004658690368385 -0.00042198096390383996 0 -0.0056140525134194784 -0.00045203525435315891 0 -0.0070652936408280775 0.00040378437079067997 0 -0.0069495970882853747 0.00041692146369948127 0 -0.0056546939358374775 -0.00046113766904132785 0 -0.0058332681682741628 -0.00049462478845394865 0 -0.0058004658690368385 -0.00042198096390383996 0 -0.0058754333343244806 -0.00044238868348880971 0 -0.0058332681682741628 -0.00049462478845394865 0 -0.0058004658690368385 -0.00042198096390383996 0 -0.0028973085729905182 0.00016217275298028498 0 -0.0029213795466021888 0.00011623861956350142 0 -0.0029535305916674132 0.00016660927044359871 0 -0.0029213795466021888 0.00011623861956350142 0 -0.0029566558298467762 0.00010291762771413277 0 -0.0029535305916674132 0.00016660927044359871 0 -0.0041812811671742478 0.00042519228626179304 0 -0.003052185920956867 0.00015465280536218828 0 -0.0037502455778795391 0.00020509513437115716 0 -0.0035531125173388954 0.00020421803804259351 0 -0.0036125500833743265 0.00015348713406984377 0 -0.0041812811671742478 0.00042519228626179304 0 -0.0026421296585985988 0.00021119247051585698 0 -0.0025055569904649804 0.00020378207655154904 0 -0.0025782444734474522 0.00032899113085014685 0 -0.0026780574188238278 0.00020986940180980904 0 -0.0070652936408280775 0.00040378437079067997 0 -0.0041812811671742478 0.00042519228626179304 0 -0.0064983721682143961 0.00018725114024626259 0 -0.0059378965157991705 0.00022674298924040231 0 -0.0062066125777229938 -4.9987595112697153e-05 0 -0.0041812811671742478 0.00042519228626179304 0 -0.0069495970882853747 0.00041692146369948127 0 -0.0025055569904649804 0.00020378207655154904 0 -0.0025855856791051194 0.00013624391875871681 0 -0.0026780574188238278 0.00020986940180980904 0 -0.0026410185335753677 6.7032397461808709e-05 0 -0.0025855856791051194 0.00013624391875871681 0 -0.0026780574188238278 0.00020986940180980904 0 -0.002619052612975562 3.059120420006039e-05 0 -0.0026421296585985988 0.00021119247051585698 0 -0.0027841998034779558 9.1402946189349165e-05 0 -0.0026410185335753677 6.7032397461808709e-05 0 -0.0026780574188238278 0.00020986940180980904 0 -0.0029633823566343111 5.2785747273852617e-05 0 -0.0029213795466021888 0.00011623861956350142 0 -0.0029566558298467762 0.00010291762771413277 0 -0.0029892827785406454 8.2585629227052999e-05 0 -0.0029566558298467762 0.00010291762771413277 0 -0.0029535305916674132 0.00016660927044359871 0 -0.0029633823566343111 5.2785747273852617e-05 0 -0.0029892827785406454 8.2585629227052999e-05 0 -0.0029566558298467762 0.00010291762771413277 0 -0.002619052612975562 3.059120420006039e-05 0 -0.0029777685046927303 0.00015165303631949162 0 -0.0029456929392271034 7.4497726033942319e-05 0 -0.0029892827785406454 8.2585629227052999e-05 0 -0.0030051955647482408 0.00010991631193064445 0 -0.0029892827785406454 8.2585629227052999e-05 0 -0.0030051955647482408 0.00010991631193064445 0 -0.0031578282828009703 0.00014722272679449329 0 -0.0029892827785406454 8.2585629227052999e-05 0 -0.0031578282828009703 0.00014722272679449329 0 -0.0029535305916674132 0.00016660927044359871 0 -0.0032537103225371324 0.00015938983568454656 0 -0.003052185920956867 0.00015465280536218828 0 -0.0031578282828009703 0.00014722272679449329 0 -0.0035531125173388954 0.00020421803804259351 0 -0.0033948221801015119 6.139720625145787e-05 0 -0.0035531125173388954 0.00020421803804259351 0 -0.0033948221801015119 6.139720625145787e-05 0 -0.0034688132396588889 6.844073568464618e-05 0 -0.0033948221801015119 6.139720625145787e-05 0 -0.0034688132396588889 6.844073568464618e-05 0 -0.0034316730728985172 5.727374984516976e-05 0 -0.0031578282828009703 0.00014722272679449329 0 -0.0033948221801015119 6.139720625145787e-05 0 -0.0034353980999246264 -2.3591164540867339e-05 0 -0.0033948221801015119 6.139720625145787e-05 0 -0.0034353980999246264 -2.3591164540867339e-05 0 -0.0034316730728985172 5.727374984516976e-05 0 -0.0034353980999246264 -2.3591164540867339e-05 0 -0.0034594196192207077 0.00022751937044306731 0 -0.004031254412979841 1.4253374707256653e-05 0 -0.0034353980999246264 -2.3591164540867339e-05 0 -0.0034594196192207077 0.00022751937044306731 0 -0.0034316730728985172 5.727374984516976e-05 0 -0.0053268758990724866 0.00035788423375032687 0 -0.0069524454489321066 0.00050809034708572908 0 -0.0076783831035180609 0.00057326359912494374 0 -0.0079501888708038496 0.00058320405041261379 0 -0.0077838862126036979 0.00043358444872908692 0 -0.0034594196192207077 0.00022751937044306731 0 -0.0034316730728985172 5.727374984516976e-05 0 -0.0035004830961877106 -2.7009043549125676e-06 0 -0.0034688132396588889 6.844073568464618e-05 0 -0.0034316730728985172 5.727374984516976e-05 0 -0.0035004830961877106 -2.7009043549125676e-06 0 -0.0034688132396588889 6.844073568464618e-05 0 -0.0035004830961877106 -2.7009043549125676e-06 0 -0.0035616342188801789 6.1090539498360224e-05 0 -0.0069524454489321066 0.00050809034708572908 0 -0.0082623226809756221 0.00071572500066710901 0 -0.0078298740843625592 0.00065546834562501427 0 -0.0084266396707244513 0.0011250458010666465 0 -0.0086268755545814424 0.00075727660393214093 0 -0.0069524454489321066 0.00050809034708572908 0 -0.0091977773377487915 0.00089174308505986688 0 -0.0088808534989900916 0.0010407198118296446 0 -0.0092318772626364606 0.00092343279271111243 0 -0.0091245060589823443 0.00079103592392331778 0 -0.0069524454489321066 0.00050809034708572908 0 -0.0058873122728486426 0.00048466724854017448 0 -0.0035004830961877106 -2.7009043549125676e-06 0 -0.0035616342188801789 6.1090539498360224e-05 0 -0.0037223981500064522 4.908632472959251e-05 0 -0.0034688132396588889 6.844073568464618e-05 0 -0.0035616342188801789 6.1090539498360224e-05 0 -0.0036125500833743265 0.00015348713406984377 0 -0.0035616342188801789 6.1090539498360224e-05 0 -0.0036125500833743265 0.00015348713406984377 0 -0.0037223981500064522 4.908632472959251e-05 0 -0.0035531125173388954 0.00020421803804259351 0 -0.0034688132396588889 6.844073568464618e-05 0 -0.0036125500833743265 0.00015348713406984377 0 -0.0039322217653003861 0.00028053425766908776 0 -0.0036125500833743265 0.00015348713406984377 0 -0.0037223981500064522 4.908632472959251e-05 0 -0.0041812811671742478 0.00042519228626179304 0 -0.0034980042832878683 0.00011039418529391392 0 -0.0039322217653003861 0.00028053425766908776 0 -0.0039810715011277678 0.0002346706513271746 0 -0.0037223981500064522 4.908632472959251e-05 0 -0.0069495970882853747 0.00041692146369948127 0 -0.0058873122728486426 0.00048466724854017448 0 -0.0089758453948921828 0.001501042303660998 0 -0.0084266396707244513 0.0011250458010666465 0 -0.0088972281657516122 0.0010845247123846865 0 -0.0091823630245079103 0.00087916647933647504 0 -0.0091977773377487915 0.00089174308505986688 0 -0.0093244037533400503 0.00090165566878442705 0 -0.0092318772626364606 0.00092343279271111243 0 -0.0092954357549980254 0.00082683857122737572 0 -0.0093244037533400503 0.00090165566878442705 0 -0.0088972281657516122 0.0010845247123846865 0 -0.0086268755545814424 0.00075727660393214093 0 -0.0084266396707244513 0.0011250458010666465 0 -0.0088972281657516122 0.0010845247123846865 0 -0.0086268755545814424 0.00075727660393214093 0 -0.0092318772626364606 0.00092343279271111243 0 -0.0092346346080457373 0.00080457218197574766 0 -0.0091245060589823443 0.00079103592392331778 0 -0.0092318772626364606 0.00092343279271111243 0 -0.0092954357549980254 0.00082683857122737572 0 -0.0092346346080457373 0.00080457218197574766 0 -0.0092954357549980254 0.00082683857122737572 0 -0.0092346346080457373 0.00080457218197574766 0 -0.0092784697701715612 0.00067048543148028516 0 -0.0092346346080457373 0.00080457218197574766 0 -0.0092784697701715612 0.00067048543148028516 0 -0.0091245060589823443 0.00079103592392331778 0 -0.0088808534989900916 0.0010407198118296446 0 -0.00907850408491131 0.00054054863208671063 0 -0.0091245060589823443 0.00079103592392331778 0 -0.0092784697701715612 0.00067048543148028516 0 -0.00907850408491131 0.00054054863208671063 0 -0.0091245060589823443 0.00079103592392331778 0 -0.00907850408491131 0.00054054863208671063 0 -0.0091890727535919956 0.00053314443444964026 0 -0.0091515218369453439 0.00054876639091858061 0 -0.0093584649205741815 0.00051308121511338964 0 -0.0092784697701715612 0.00067048543148028516 0 -0.0091890727535919956 0.00053314443444964026 0 -0.0092784697701715612 0.00067048543148028516 0 -0.00907850408491131 0.00054054863208671063 0 -0.0091890727535919956 0.00053314443444964026 0 -0.0093575322145464327 0.00035153339415963083 0 -0.0093584649205741815 0.00051308121511338964 0 -0.0092232139851655941 0.00045773228254442609 0 -0.0093584649205741815 0.00051308121511338964 0 -0.0091890727535919956 0.00053314443444964026 0 -0.0092232139851655941 0.00045773228254442609 0 -0.0091890727535919956 0.00053314443444964026 0 -0.0092232139851655941 0.00045773228254442609 0 -0.0091515218369453439 0.00054876639091858061 0 -0.0092232139851655941 0.00045773228254442609 0 -0.0091843040742965766 0.00042241256737733353 0 -0.0091515218369453439 0.00054876639091858061 0 -0.0092232139851655941 0.00045773228254442609 0 -0.0091843040742965766 0.00042241256737733353 0 -0.0092553452414965345 0.0003709977797228686 0 -0.0093575322145464327 0.00035153339415963083 0 -0.0092232139851655941 0.00045773228254442609 0 -0.0092553452414965345 0.0003709977797228686 0 -0.0091974108508889353 0.00037863225827012735 0 -0.0091695857867165036 0.00044454841603861438 0 -0.0091449986553387413 0.00041037856619717159 0 -0.0091974108508889353 0.00037863225827012735 0 -0.0094160354415023673 0.00045572280069780508 0 -0.0091449986553387413 0.00041037856619717159 0 -0.0091843040742965766 0.00042241256737733353 0 -0.0091695857867165036 0.00044454841603861438 0 -0.0091449986553387413 0.00041037856619717159 0 -0.0091843040742965766 0.00042241256737733353 0 -0.0091695857867165036 0.00044454841603861438 0 -0.0091515218369453439 0.00054876639091858061 0 -0.0091695857867165036 0.00044454841603861438 0 -0.0091516919971503276 0.00053395212417473828 0 -0.0091515218369453439 0.00054876639091858061 0 -0.0091516919971503276 0.00053395212417473828 0 -0.0091576942278865127 0.0006677168185210457 0 -0.0090114962320408908 0.00055571598261372002 0 -0.0091974108508889353 0.00037863225827012735 0 -0.0091695857867165036 0.00044454841603861438 0 -0.0091516919971503276 0.00053395212417473828 0 -0.0091974108508889353 0.00037863225827012735 0 -0.0091516919971503276 0.00053395212417473828 0 -0.0090114962320408908 0.00055571598261372002 0 -0.0091516919971503276 0.00053395212417473828 0 -0.0091576942278865127 0.0006677168185210457 0 -0.0091515218369453439 0.00054876639091858061 0 -0.00907850408491131 0.00054054863208671063 0 -0.0091576942278865127 0.0006677168185210457 0 -0.0091515218369453439 0.00054876639091858061 0 -0.0090444108079339603 0.00052160274363216986 0 -0.0085069225854479836 0.00039847880496617934 0 -0.0088808534989900916 0.0010407198118296446 0 -0.00907850408491131 0.00054054863208671063 0 -0.0083114510633255159 0.00077150264210199915 0 -0.00907850408491131 0.00054054863208671063 0 -0.0078832402635972201 8.759161661936811e-05 0 -0.0083114510633255159 0.00077150264210199915 0 -0.0076783831035180609 0.00057326359912494374 0 -0.0076293397255063344 0.00039050850687317263 0 -0.0073829191589977732 0.00035862287551921774 0 -0.0078832402635972201 8.759161661936811e-05 0 -0.0076284916010372975 0.00020063998250947459 0 -0.0083114510633255159 0.00077150264210199915 0 -0.007582831532140062 0.00018473393809127051 0 -0.0082623226809756221 0.00071572500066710901 0 -0.0076284916010372975 0.00020063998250947459 0 -0.0077838862126036979 0.00043358444872908692 0 -0.0076293397255063344 0.00039050850687317263 0 -0.0076783831035180609 0.00057326359912494374 0 -0.0077838862126036979 0.00043358444872908692 0 -0.0076293397255063344 0.00039050850687317263 0 -0.0073829191589977732 0.00035862287551921774 0 -0.0070279831190025593 0.00025251631956763239 0 -0.0072249423188123878 0.00054581021950926274 0 -0.0076783831035180609 0.00057326359912494374 0 -0.0073829191589977732 0.00035862287551921774 0 -0.0072249423188123878 0.00054581021950926274 0 -0.0076284916010372975 0.00020063998250947459 0 -0.0076293397255063344 0.00039050850687317263 0 -0.0073829191589977732 0.00035862287551921774 0 -0.0057919990079976693 0.00032304982296237262 0 -0.0057598384119057341 0.00045244725160762241 0 -0.0070279831190025593 0.00025251631956763239 0 -0.0067677564193431529 0.00044313109171361151 0 -0.0072249423188123878 0.00054581021950926274 0 -0.0070279831190025593 0.00025251631956763239 0 -0.0070359329121151021 -1.736191046945343e-05 0 -0.006765462765530892 6.6629742768984341e-05 0 -0.0073829191589977732 0.00035862287551921774 0 -0.0070279831190025593 0.00025251631956763239 0 -0.0070359329121151021 -1.736191046945343e-05 0 -0.0078832402635972201 8.759161661936811e-05 0 -0.0076284916010372975 0.00020063998250947459 0 -0.0070359329121151021 -1.736191046945343e-05 0 -0.0091576942278865127 0.0006677168185210457 0 -0.0085392092412751933 0.00086147206594122336 0 -0.0090114962320408908 0.00055571598261372002 0 -0.0076284916010372975 0.00020063998250947459 0 -0.0073829191589977732 0.00035862287551921774 0 -0.0070359329121151021 -1.736191046945343e-05 0 -0.0085069225854479836 0.00039847880496617934 0 -0.0077865202609649327 0.00039486483412564684 0 -0.0085392092412751933 0.00086147206594122336 0 -0.0090114962320408908 0.00055571598261372002 0 -0.008749251667024607 0.00039966949355133154 0 -0.0090114962320408908 0.00055571598261372002 0 -0.0090898886175100838 0.00039939538045373084 0 -0.008749251667024607 0.00039966949355133154 0 -0.0091974108508889353 0.00037863225827012735 0 -0.0090114962320408908 0.00055571598261372002 0 -0.0090898886175100838 0.00039939538045373084 0 -0.0085392092412751933 0.00086147206594122336 0 -0.0080064536085079855 9.8881689700820318e-05 0 -0.008749251667024607 0.00039966949355133154 0 -0.0080064536085079855 9.8881689700820318e-05 0 -0.0085500220182778974 0.00014906481180370279 0 -0.008749251667024607 0.00039966949355133154 0 -0.0085500220182778974 0.00014906481180370279 0 -0.0093320431921618749 0.00034871559325628761 0 -0.008749251667024607 0.00039966949355133154 0 -0.0091974108508889353 0.00037863225827012735 0 -0.0093320431921618749 0.00034871559325628761 0 -0.0094160354415023673 0.00045572280069780508 0 -0.0091974108508889353 0.00037863225827012735 0 -0.0093320431921618749 0.00034871559325628761 0 -0.0090898886175100838 0.00039939538045373084 0 -0.0093320431921618749 0.00034871559325628761 0 -0.0090898886175100838 0.00039939538045373084 0 -0.008749251667024607 0.00039966949355133154 0 -0.0073116582719048315 -6.9522031028478499e-10 0 -0.0074883556900301315 3.5385763827658757e-05 0 -0.00701320202641383 0.00017454223410831381 0 -0.0073116582719048315 -6.9522031028478499e-10 0 -0.0074883556900301315 3.5385763827658757e-05 0 -0.0077654171960921461 -0.00014948629086000603 0 -0.0080064536085079855 9.8881689700820318e-05 0 -0.0074883556900301315 3.5385763827658757e-05 0 -0.00701320202641383 0.00017454223410831381 0 -0.0080064536085079855 9.8881689700820318e-05 0 -0.0074883556900301315 3.5385763827658757e-05 0 -0.0077654171960921461 -0.00014948629086000603 0 -0.0085392092412751933 0.00086147206594122336 0 -0.0080064536085079855 9.8881689700820318e-05 0 -0.00701320202641383 0.00017454223410831381 0 -0.0077865202609649327 0.00039486483412564684 0 -0.0070764862554393701 0.0002062194349913859 0 -0.0073116582719048315 -6.9522031028478499e-10 0 -0.00701320202641383 0.00017454223410831381 0 -0.0065322435201202378 5.3827514501275396e-08 0 -0.00701320202641383 0.00017454223410831381 0 -0.0065322435201202378 5.3827514501275396e-08 0 -0.006765462765530892 6.6629742768984341e-05 0 -0.0065322435201202378 5.3827514501275396e-08 0 -0.006765462765530892 6.6629742768984341e-05 0 -0.0057541665901842329 9.6126756584479677e-07 0 -0.0070359329121151021 -1.736191046945343e-05 0 -0.00701320202641383 0.00017454223410831381 0 -0.006765462765530892 6.6629742768984341e-05 0 -0.0070279831190025593 0.00025251631956763239 0 -0.006765462765530892 6.6629742768984341e-05 0 -0.0067677564193431529 0.00044313109171361151 0 -0.006765462765530892 6.6629742768984341e-05 0 -0.0067677564193431529 0.00044313109171361151 0 -0.0057541665901842329 9.6126756584479677e-07 0 -0.0057919990079976693 0.00032304982296237262 0 -0.0057527250748282237 1.540002072604254e-07 0 -0.004855796619169319 0.0002484053034564042 0 -0.005750912496650884 1.1537436527303599e-06 0 -0.0050812855907797503 -4.7588225603112859e-07 0 -0.004855796619169319 0.0002484053034564042 0 -0.0050812855907797503 -4.7588225603112859e-07 0 -0.0046720840456808688 -9.9332566105452843e-05 0 -0.0050812855907797503 -4.7588225603112859e-07 0 -0.0046720840456808688 -9.9332566105452843e-05 0 -0.0044086445873416768 -3.0946425153856714e-07 0 -0.004855796619169319 0.0002484053034564042 0 -0.0046720840456808688 -9.9332566105452843e-05 0 -0.0044348789764360992 3.3643088014932937e-05 0 -0.004855796619169319 0.0002484053034564042 0 -0.0044348789764360992 3.3643088014932937e-05 0 -0.004195136917185394 0.0003766719519870238 0 -0.0044348789764360992 3.3643088014932937e-05 0 -0.004195136917185394 0.0003766719519870238 0 -0.004031254412979841 1.4253374707256653e-05 0 -0.0034594196192207077 0.00022751937044306731 0 -0.004195136917185394 0.0003766719519870238 0 -0.004031254412979841 1.4253374707256653e-05 0 -0.0053268758990724866 0.00035788423375032687 0 -0.0057598384119057341 0.00045244725160762241 0 -0.0031578282828009703 0.00014722272679449329 0 -0.0034353980999246264 -2.3591164540867339e-05 0 -0.0029386265986764107 9.5148438735951328e-05 0 -0.0034353980999246264 -2.3591164540867339e-05 0 -0.004031254412979841 1.4253374707256653e-05 0 -0.0043021852937664903 -0.00027416885675065093 0 -0.0034302497688897759 -1.6380471385943699e-05 0 -0.0036084553711413351 -6.2009756926185489e-05 0 -0.0044348789764360992 3.3643088014932937e-05 0 -0.004031254412979841 1.4253374707256653e-05 0 -0.0043021852937664903 -0.00027416885675065093 0 -0.0046720840456808688 -9.9332566105452843e-05 0 -0.0044348789764360992 3.3643088014932937e-05 0 -0.0043021852937664903 -0.00027416885675065093 0 -0.0036084553711413351 -6.2009756926185489e-05 0 -0.0037434259988727682 5.3448617675282606e-05 0 -0.0029386265986764107 9.5148438735951328e-05 0 -0.002910681213643726 0.0001552468390100923 0 -0.0029526481682216167 0.00026340737991096467 0 -0.0030051955647482408 0.00010991631193064445 0 -0.0031578282828009703 0.00014722272679449329 0 -0.0029914782036845411 0.00014299948756774729 0 -0.0031578282828009703 0.00014722272679449329 0 -0.0029386265986764107 9.5148438735951328e-05 0 -0.0029914782036845411 0.00014299948756774729 0 -0.0029386265986764107 9.5148438735951328e-05 0 -0.0029914782036845411 0.00014299948756774729 0 -0.002910681213643726 0.0001552468390100923 0 -0.0028904546297555908 9.3891414255604022e-05 0 -0.0029456929392271034 7.4497726033942319e-05 0 -0.0030051955647482408 0.00010991631193064445 0 -0.0028904546297555908 9.3891414255604022e-05 0 -0.0029914782036845411 0.00014299948756774729 0 -0.002910681213643726 0.0001552468390100923 0 -0.0028904546297555908 9.3891414255604022e-05 0 -0.0030051955647482408 0.00010991631193064445 0 -0.0029914782036845411 0.00014299948756774729 0 -0.0028711297752775792 0.00010762206061894565 0 -0.002910681213643726 0.0001552468390100923 0 -0.0029526481682216167 0.00026340737991096467 0 -0.0028904546297555908 9.3891414255604022e-05 0 -0.0028711297752775792 0.00010762206061894565 0 -0.002910681213643726 0.0001552468390100923 0 -0.0030012575344999775 -2.8445579051943503e-05 0 -0.0028711297752775792 0.00010762206061894565 0 -0.0029526481682216167 0.00026340737991096467 0 -0.0037372320524345923 -1.766824000792084e-08 0 -0.0037434259988727682 5.3448617675282606e-05 0 -0.0037353453857712137 7.2888400664547418e-07 0 -0.0030012575344999775 -2.8445579051943503e-05 0 -0.0029526481682216167 0.00026340737991096467 0 -0.0037384158639507795 3.6749892374593293e-07 0 -0.0045283781604919934 -9.1749217591142619e-05 0 -0.0044086445873416768 -3.0946425153856714e-07 0 -0.0046720840456808688 -9.9332566105452843e-05 0 -0.0045283781604919934 -9.1749217591142619e-05 0 -0.0044086445873416768 -3.0946425153856714e-07 0 -0.0046720840456808688 -9.9332566105452843e-05 0 -0.0043021852937664903 -0.00027416885675065093 0 -0.0045283781604919934 -9.1749217591142619e-05 0 -0.010687885894467966 1.2556763265294368e-05 0 -0.010610783183698432 -2.4561500787211254e-05 0 -0.010289605243725937 -9.4745769711253985e-06 0 -0.010610783183698432 -2.4561500787211254e-05 0 -0.010915590291678977 -4.8037674325917074e-08 0 -0.010234845212455981 2.0532148225878765e-09 0 -0.010610783183698432 -2.4561500787211254e-05 0 -0.010915590291678977 -4.8037674325917074e-08 0 -0.010983116423564053 6.0632269522390532e-06 0 -0.010687885894467966 1.2556763265294368e-05 0 -0.010610783183698432 -2.4561500787211254e-05 0 -0.010983116423564053 6.0632269522390532e-06 0 -0.010687885894467966 1.2556763265294368e-05 0 -0.010983116423564053 6.0632269522390532e-06 0 -0.010974192531378647 7.2835671313895982e-05 0 -0.010974192531378647 7.2835671313895982e-05 0 -0.01102414360605939 0.00025077375144620466 0 -0.011347263836071111 4.008445901487749e-05 0 -0.010974192531378647 7.2835671313895982e-05 0 -0.01102414360605939 0.00025077375144620466 0 -0.010679881495011862 5.7914134052868247e-05 0 -0.01102414360605939 0.00025077375144620466 0 -0.010679881495011862 5.7914134052868247e-05 0 -0.01066078911179316 2.5593600901113838e-05 0 -0.010687885894467966 1.2556763265294368e-05 0 -0.010974192531378647 7.2835671313895982e-05 0 -0.010679881495011862 5.7914134052868247e-05 0 -0.010687885894467966 1.2556763265294368e-05 0 -0.010679881495011862 5.7914134052868247e-05 0 -0.010289605243725937 -9.4745769711253985e-06 0 -0.010679881495011862 5.7914134052868247e-05 0 -0.010355747689030866 8.373644408694716e-05 0 -0.010289605243725937 -9.4745769711253985e-06 0 -0.010679881495011862 5.7914134052868247e-05 0 -0.01066078911179316 2.5593600901113838e-05 0 -0.010355747689030866 8.373644408694716e-05 0 -0.01066078911179316 2.5593600901113838e-05 0 -0.010355747689030866 8.373644408694716e-05 0 -0.010564298734815746 7.3646224701984225e-05 0 -0.010355747689030866 8.373644408694716e-05 0 -0.010289605243725937 -9.4745769711253985e-06 0 -0.009857955788729774 9.3884204769757287e-05 0 -0.010289605243725937 -9.4745769711253985e-06 0 -0.010234845212455981 2.0532148225878765e-09 0 -0.009552257562423146 -3.8406498837470075e-07 0 -0.010610783183698432 -2.4561500787211254e-05 0 -0.010289605243725937 -9.4745769711253985e-06 0 -0.010234845212455981 2.0532148225878765e-09 0 -0.010289605243725937 -9.4745769711253985e-06 0 -0.009552257562423146 -3.8406498837470075e-07 0 -0.009857955788729774 9.3884204769757287e-05 0 -0.009552257562423146 -3.8406498837470075e-07 0 -0.009857955788729774 9.3884204769757287e-05 0 -0.0088722893405992313 1.2605005659359145e-06 0 -0.009857955788729774 9.3884204769757287e-05 0 -0.0097098014604704661 0.00058096406689647989 0 -0.010062108753446181 0.00045540182966541436 0 -0.009857955788729774 9.3884204769757287e-05 0 -0.0088722893405992313 1.2605005659359145e-06 0 -0.0097098014604704661 0.00058096406689647989 0 -0.0088693819076437839 4.839523941067101e-07 0 -0.0080910948165164084 -5.2489689835844922e-07 0 -0.0080008704814048259 -8.4471015537930912e-05 0 -0.0088703027876223008 1.8899421589220769e-08 0 -0.0088632769415370981 0.00020294398316814534 0 -0.0080910948165164084 -5.2489689835844922e-07 0 -0.0080008704814048259 -8.4471015537930912e-05 0 -0.0077654171960921461 -0.00014948629086000603 0 -0.0080008704814048259 -8.4471015537930912e-05 0 -0.0077654171960921461 -0.00014948629086000603 0 -0.0081542277266373232 -0.00032834608097447016 0 -0.0088632769415370981 0.00020294398316814534 0 -0.0090636931284878014 0.00019389061030324617 0 -0.0080064536085079855 9.8881689700820318e-05 0 -0.0077654171960921461 -0.00014948629086000603 0 -0.0081542277266373232 -0.00032834608097447016 0 -0.0073116582719048315 -6.9522031028478499e-10 0 -0.0080910948165164084 -5.2489689835844922e-07 0 -0.0077654171960921461 -0.00014948629086000603 0 -0.0094160354415023673 0.00045572280069780508 0 -0.0099466407593016871 0.00064353661274010963 0 -0.0098889328734253299 0.0006222727307981195 0 -0.0093277814361142908 0.00034925673052124266 0 -0.0090636931284878014 0.00019389061030324617 0 -0.0094160354415023673 0.00045572280069780508 0 -0.0098889328734253299 0.0006222727307981195 0 -0.010062035289372348 0.00068650487895984685 0 -0.0093320431921618749 0.00034871559325628761 0 -0.0094160354415023673 0.00045572280069780508 0 -0.0099466407593016871 0.00064353661274010963 0 -0.0080064536085079855 9.8881689700820318e-05 0 -0.0085500220182778974 0.00014906481180370279 0 -0.0081542277266373232 -0.00032834608097447016 0 -0.0085500220182778974 0.00014906481180370279 0 -0.0093320431921618749 0.00034871559325628761 0 -0.0081542277266373232 -0.00032834608097447016 0 -0.0099466407593016871 0.00064353661274010963 0 -0.0098889328734253299 0.0006222727307981195 0 -0.010062108753446181 0.00045540182966541436 0 -0.0097098014604704661 0.00058096406689647989 0 -0.0099466407593016871 0.00064353661274010963 0 -0.010062108753446181 0.00045540182966541436 0 -0.0098889328734253299 0.0006222727307981195 0 -0.010062108753446181 0.00045540182966541436 0 -0.010174751052416938 0.00051367336341918578 0 -0.010062108753446181 0.00045540182966541436 0 -0.010334686725815537 0.00028915558238782019 0 -0.010174751052416938 0.00051367336341918578 0 -0.010355747689030866 8.373644408694716e-05 0 -0.009857955788729774 9.3884204769757287e-05 0 -0.010062108753446181 0.00045540182966541436 0 -0.010355747689030866 8.373644408694716e-05 0 -0.010334686725815537 0.00028915558238782019 0 -0.010564298734815746 7.3646224701984225e-05 0 -0.010355747689030866 8.373644408694716e-05 0 -0.010062108753446181 0.00045540182966541436 0 -0.010334686725815537 0.00028915558238782019 0 -0.010334686725815537 0.00028915558238782019 0 -0.010591047583199063 0.00032442582850846424 0 -0.010564298734815746 7.3646224701984225e-05 0 -0.010591047583199063 0.00032442582850846424 0 -0.01073263450700618 5.7687212900578167e-05 0 -0.010564298734815746 7.3646224701984225e-05 0 -0.010591047583199063 0.00032442582850846424 0 -0.011003255138141184 0.00020822354469883183 0 -0.01073263450700618 5.7687212900578167e-05 0 -0.010591047583199063 0.00032442582850846424 0 -0.010620988761413016 0.00071232742461378273 0 -0.010935377651965233 0.00052177201063394792 0 -0.010591047583199063 0.00032442582850846424 0 -0.010174751052416938 0.00051367336341918578 0 -0.010620988761413016 0.00071232742461378273 0 -0.010334686725815537 0.00028915558238782019 0 -0.010591047583199063 0.00032442582850846424 0 -0.010174751052416938 0.00051367336341918578 0 -0.010174751052416938 0.00051367336341918578 0 -0.010062035289372348 0.00068650487895984685 0 -0.010620988761413016 0.00071232742461378273 0 -0.0098889328734253299 0.0006222727307981195 0 -0.010174751052416938 0.00051367336341918578 0 -0.010062035289372348 0.00068650487895984685 0 -0.010062035289372348 0.00068650487895984685 0 -0.010620988761413016 0.00071232742461378273 0 -0.010439539675947804 0.0010682678188528867 0 -0.0094160354415023673 0.00045572280069780508 0 -0.010062035289372348 0.00068650487895984685 0 -0.010439539675947804 0.0010682678188528867 0 -0.0094929895353745679 0.00050544666636920515 0 -0.0098172353212494443 0.00070517363730530447 0 -0.0093575322145464327 0.00035153339415963083 0 -0.0092553452414965345 0.0003709977797228686 0 -0.0092450071419714671 0.0002809735479059378 0 -0.0091843040742965766 0.00042241256737733353 0 -0.0092553452414965345 0.0003709977797228686 0 -0.0092450071419714671 0.0002809735479059378 0 -0.0091843040742965766 0.00042241256737733353 0 -0.0091449986553387413 0.00041037856619717159 0 -0.0092450071419714671 0.0002809735479059378 0 -0.0098172353212494443 0.00070517363730530447 0 -0.010285488933359682 0.00076786152446508616 0 -0.010620988761413016 0.00071232742461378273 0 -0.010439539675947804 0.0010682678188528867 0 -0.01128094639944861 0.0012630778662996109 0 -0.010620988761413016 0.00071232742461378273 0 -0.01128094639944861 0.0012630778662996109 0 -0.011163880244199139 0.00078147561874945403 0 -0.010285488933359682 0.00076786152446508616 0 -0.010880279277524279 0.00071277785312810369 0 -0.01128094639944861 0.0012630778662996109 0 -0.011715748481145535 0.00084083413636895036 0 -0.01232954856235219 0.0012987794524262012 0 -0.01128094639944861 0.0012630778662996109 0 -0.011163880244199139 0.00078147561874945403 0 -0.011715748481145535 0.00084083413636895036 0 -0.011163880244199139 0.00078147561874945403 0 -0.011715748481145535 0.00084083413636895036 0 -0.011293487007113981 0.00050677673685720808 0 -0.011293487007113981 0.00050677673685720808 0 -0.011657580765138726 0.00051602756165380231 0 -0.01140703224069761 0.00030988155105826144 0 -0.011715748481145535 0.00084083413636895036 0 -0.011293487007113981 0.00050677673685720808 0 -0.011657580765138726 0.00051602756165380231 0 -0.011293487007113981 0.00050677673685720808 0 -0.010935377651965233 0.00052177201063394792 0 -0.011003255138141184 0.00020822354469883183 0 -0.010620988761413016 0.00071232742461378273 0 -0.011163880244199139 0.00078147561874945403 0 -0.010935377651965233 0.00052177201063394792 0 -0.011163880244199139 0.00078147561874945403 0 -0.011293487007113981 0.00050677673685720808 0 -0.010935377651965233 0.00052177201063394792 0 -0.010591047583199063 0.00032442582850846424 0 -0.010935377651965233 0.00052177201063394792 0 -0.011003255138141184 0.00020822354469883183 0 -0.011003255138141184 0.00020822354469883183 0 -0.01140703224069761 0.00030988155105826144 0 -0.011345459294467933 -1.4857664911637165e-05 0 -0.01160909703894902 0.00026642337770809116 0 -0.01140703224069761 0.00030988155105826144 0 -0.011345459294467933 -1.4857664911637165e-05 0 -0.011657580765138726 0.00051602756165380231 0 -0.01160909703894902 0.00026642337770809116 0 -0.01140703224069761 0.00030988155105826144 0 -0.011293487007113981 0.00050677673685720808 0 -0.011003255138141184 0.00020822354469883183 0 -0.01140703224069761 0.00030988155105826144 0 -0.012708251024330887 0.0013930703205561814 0 -0.012274506268371684 0.001155101616439079 0 -0.01281041828046792 0.00080309146721433777 0 -0.012708251024330887 0.0013930703205561814 0 -0.01281041828046792 0.00080309146721433777 0 -0.013057628072202032 0.0011569790394097747 0 -0.011003255138141184 0.00020822354469883183 0 -0.011345459294467933 -1.4857664911637165e-05 0 -0.010870819824691182 -8.835346919751103e-05 0 -0.011003255138141184 0.00020822354469883183 0 -0.010870819824691182 -8.835346919751103e-05 0 -0.01073263450700618 5.7687212900578167e-05 0 -0.012033139418541365 0.00072456583556915861 0 -0.011579603978352592 0.00053614644797439373 0 -0.01073263450700618 5.7687212900578167e-05 0 -0.010564298734815746 7.3646224701984225e-05 0 -0.01065855638342195 -6.7884982905458778e-06 0 -0.01066078911179316 2.5593600901113838e-05 0 -0.010564298734815746 7.3646224701984225e-05 0 -0.01065855638342195 -6.7884982905458778e-06 0 -0.011579603978352592 0.00053614644797439373 0 -0.011214903135938023 0.00041034738235326941 0 -0.010870819824691182 -8.835346919751103e-05 0 -0.01073263450700618 5.7687212900578167e-05 0 -0.01065855638342195 -6.7884982905458778e-06 0 -0.012274506268371684 0.001155101616439079 0 -0.011738692904394299 0.00084965045896710941 0 -0.012260565035274935 0.00066878914808497672 0 -0.011738692904394299 0.00084965045896710941 0 -0.011863054034969178 0.0002014522088935198 0 -0.012260565035274935 0.00066878914808497672 0 -0.01102414360605939 0.00025077375144620466 0 -0.01066078911179316 2.5593600901113838e-05 0 -0.01065855638342195 -6.7884982905458778e-06 0 -0.011032891586390861 0.00027137990045371092 0 -0.011214903135938023 0.00041034738235326941 0 -0.01102414360605939 0.00025077375144620466 0 -0.011738692904394299 0.00084965045896710941 0 -0.011863054034969178 0.0002014522088935198 0 -0.01102414360605939 0.00025077375144620466 0 -0.011863054034969178 0.0002014522088935198 0 -0.011347263836071111 4.008445901487749e-05 0 -0.011863054034969178 0.0002014522088935198 0 -0.012513738085418596 0.00032664005802979668 0 -0.012260565035274935 0.00066878914808497672 0 -0.012513738085418596 0.00032664005802979668 0 -0.012952170401165981 0.00036227623591027566 0 -0.01281041828046792 0.00080309146721433777 0 -0.012274506268371684 0.001155101616439079 0 -0.01281041828046792 0.00080309146721433777 0 -0.012260565035274935 0.00066878914808497672 0 -0.012513738085418596 0.00032664005802979668 0 -0.01281041828046792 0.00080309146721433777 0 -0.012260565035274935 0.00066878914808497672 0 -0.013236565187952101 0.00081333607335891519 0 -0.013283877384442446 0.00049997012495254015 0 -0.013667305812231583 0.00050563482775690493 0 -0.01281041828046792 0.00080309146721433777 0 -0.013236565187952101 0.00081333607335891519 0 -0.013283877384442446 0.00049997012495254015 0 -0.012952170401165981 0.00036227623591027566 0 -0.01281041828046792 0.00080309146721433777 0 -0.013283877384442446 0.00049997012495254015 0 -0.012952170401165981 0.00036227623591027566 0 -0.013283877384442446 0.00049997012495254015 0 -0.013234764056704746 0.00021235728976192958 0 -0.013283877384442446 0.00049997012495254015 0 -0.013667305812231583 0.00050563482775690493 0 -0.013595514203323484 0.00026437121166117937 0 -0.013859436754842301 0.00032662722525379691 0 -0.013667305812231583 0.00050563482775690493 0 -0.013595514203323484 0.00026437121166117937 0 -0.013859436754842301 0.00032662722525379691 0 -0.013667305812231583 0.00050563482775690493 0 -0.01388693500175415 0.00043577938472932621 0 -0.013667305812231583 0.00050563482775690493 0 -0.013688387809255105 0.00047566746879264699 0 -0.01388693500175415 0.00043577938472932621 0 -0.01362468732951924 0.00050371922065056793 0 -0.013367287213673312 0.0008591105722943153 0 -0.013667305812231583 0.00050563482775690493 0 -0.013688387809255105 0.00047566746879264699 0 -0.013265036452774636 0.00040842145640412523 0 -0.013688387809255105 0.00047566746879264699 0 -0.013617703490389427 0.00062613837612147645 0 -0.013853625492821167 0.00046892397984126189 0 -0.013617703490389427 0.00062613837612147645 0 -0.013265036452774636 0.00040842145640412523 0 -0.013115058506753536 0.00076810446270364702 0 -0.013688387809255105 0.00047566746879264699 0 -0.013617703490389427 0.00062613837612147645 0 -0.013265036452774636 0.00040842145640412523 0 -0.013367287213673312 0.0008591105722943153 0 -0.012556278253510193 0.00072229518696085139 0 -0.013236565187952101 0.00081333607335891519 0 -0.013667305812231583 0.00050563482775690493 0 -0.013433437013512078 0.0011289338289280101 0 -0.013236565187952101 0.00081333607335891519 0 -0.013433437013512078 0.0011289338289280101 0 -0.013057628072202032 0.0011569790394097747 0 -0.01281041828046792 0.00080309146721433777 0 -0.013236565187952101 0.00081333607335891519 0 -0.013057628072202032 0.0011569790394097747 0 -0.013433437013512078 0.0011289338289280101 0 -0.013057628072202032 0.0011569790394097747 0 -0.013111652917516769 0.0016539055715867235 0 -0.012708251024330887 0.0013930703205561814 0 -0.013057628072202032 0.0011569790394097747 0 -0.013111652917516769 0.0016539055715867235 0 -0.012033139418541365 0.00072456583556915861 0 -0.012556278253510193 0.00072229518696085139 0 -0.01160909703894902 0.00026642337770809116 0 -0.011345459294467933 -1.4857664911637165e-05 0 -0.011884931656337685 0.00021730125140565144 0 -0.012556278253510193 0.00072229518696085139 0 -0.012570852803929109 0.00071140094688948658 0 -0.011657580765138726 0.00051602756165380231 0 -0.01160909703894902 0.00026642337770809116 0 -0.011884931656337685 0.00021730125140565144 0 -0.013265036452774636 0.00040842145640412523 0 -0.0126735732448627 0.00062700474117220034 0 -0.013115058506753536 0.00076810446270364702 0 -0.013265036452774636 0.00040842145640412523 0 -0.012637024009283271 0.00059977850382764825 0 -0.0126735732448627 0.00062700474117220034 0 -0.012841438905296373 0.00065166714666222585 0 -0.012667380344772189 0.00097831365046072019 0 -0.012103955895508051 0.00091343547746318009 0 -0.0126735732448627 0.00062700474117220034 0 -0.013115058506753536 0.00076810446270364702 0 -0.012103955895508051 0.00091343547746318009 0 -0.012957484528578651 0.00070089602931238857 0 -0.012185409448051979 0.00092744470128122464 0 -0.012841438905296373 0.00065166714666222585 0 -0.012667380344772189 0.00097831365046072019 0 -0.012938952394538265 0.00089996283905400415 0 -0.011715748481145535 0.00084083413636895036 0 -0.012586565714218449 0.00056128352058932348 0 -0.012103955895508051 0.00091343547746318009 0 -0.012586565714218449 0.00056128352058932348 0 -0.0126735732448627 0.00062700474117220034 0 -0.012103955895508051 0.00091343547746318009 0 -0.011715748481145535 0.00084083413636895036 0 -0.011657580765138726 0.00051602756165380231 0 -0.011884931656337685 0.00021730125140565144 0 -0.01167355084053648 0.00078023420320324957 0 -0.012556278253510193 0.00072229518696085139 0 -0.012667380344772189 0.00097831365046072019 0 -0.012103955895508051 0.00091343547746318009 0 -0.01232954856235219 0.0012987794524262012 0 -0.011715748481145535 0.00084083413636895036 0 -0.012103955895508051 0.00091343547746318009 0 -0.01232954856235219 0.0012987794524262012 0 -0.012667380344772189 0.00097831365046072019 0 -0.01232954856235219 0.0012987794524262012 0 -0.013091038249584205 0.0011409819468434369 0 -0.0094177381967236028 0.00015524772891156269 0 -0.0095551801347802962 0.00021054422860528036 0 -0.0096747680421371066 -3.3048642606986631e-05 0 -0.010880279277524279 0.00071277785312810369 0 -0.011385736374211487 0.00055006952036224779 0 -0.0095121701604159396 0.000433580629513666 0 -0.0095551801347802962 0.00021054422860528036 0 -0.0094448088672983398 0.00027206246831574968 0 -0.0094177381967236028 0.00015524772891156269 0 -0.0095551801347802962 0.00021054422860528036 0 -0.0094448088672983398 0.00027206246831574968 0 -0.0093575322145464327 0.00035153339415963083 0 -0.0092450071419714671 0.0002809735479059378 0 -0.0094177381967236028 0.00015524772891156269 0 -0.0093575322145464327 0.00035153339415963083 0 -0.0094177381967236028 0.00015524772891156269 0 -0.0094448088672983398 0.00027206246831574968 0 -0.0097025219129701582 0.00037231193693323857 0 -0.0095551801347802962 0.00021054422860528036 0 -0.0098660162331139639 0.00020874491668083716 0 -0.0095551801347802962 0.00021054422860528036 0 -0.0098660162331139639 0.00020874491668083716 0 -0.0096747680421371066 -3.3048642606986631e-05 0 -0.0098660162331139639 0.00020874491668083716 0 -0.0096747680421371066 -3.3048642606986631e-05 0 -0.010100695608263221 -0.00030128826120474412 0 -0.013091038249584205 0.0011409819468434369 0 -0.013280605988041528 0.00080050599340700864 0 -0.013620965731711189 0.00097645668726497692 0 -0.011385736374211487 0.00055006952036224779 0 -0.011874578418768787 0.00033804790999846982 0 -0.013280605988041528 0.00080050599340700864 0 -0.013687827193605298 0.00068128568429372607 0 -0.013620965731711189 0.00097645668726497692 0 -0.012841438905296373 0.00065166714666222585 0 -0.013280605988041528 0.00080050599340700864 0 -0.012938952394538265 0.00089996283905400415 0 -0.013091038249584205 0.0011409819468434369 0 -0.013280605988041528 0.00080050599340700864 0 -0.012938952394538265 0.00089996283905400415 0 -0.012667380344772189 0.00097831365046072019 0 -0.013091038249584205 0.0011409819468434369 0 -0.012938952394538265 0.00089996283905400415 0 -0.013509043748504037 0.00056583318896501829 0 -0.012957484528578651 0.00070089602931238857 0 -0.01340707836192166 0.00050218546071317588 0 -0.012841438905296373 0.00065166714666222585 0 -0.013280605988041528 0.00080050599340700864 0 -0.01340707836192166 0.00050218546071317588 0 -0.013280605988041528 0.00080050599340700864 0 -0.013687827193605298 0.00068128568429372607 0 -0.013687827193605298 0.00068128568429372607 0 -0.013968962797175041 0.00084017128360983203 0 -0.013905446058622355 0.00060788127805393979 0 -0.010759399346593241 -0.0006065932395705819 0 -0.010100695608263221 -0.00030128826120474412 0 -0.010392747606990866 -4.0614432373068787e-05 0 -0.01232813295136314 9.8864004476427442e-05 0 -0.011874578418768787 0.00033804790999846982 0 -0.013687827193605298 0.00068128568429372607 0 -0.013968962797175041 0.00084017128360983203 0 -0.013620965731711189 0.00097645668726497692 0 -0.0098660162331139639 0.00020874491668083716 0 -0.010100695608263221 -0.00030128826120474412 0 -0.010392747606990866 -4.0614432373068787e-05 0 -0.010759399346593241 -0.0006065932395705819 0 -0.010392747606990866 -4.0614432373068787e-05 0 -0.010940950637667759 7.2507212423798131e-05 0 -0.010392747606990866 -4.0614432373068787e-05 0 -0.010185009715918481 0.00041176463494420475 0 -0.010940950637667759 7.2507212423798131e-05 0 -0.01087323535492688 0.00083680428896804656 0 -0.010185009715918481 0.00041176463494420475 0 -0.010940950637667759 7.2507212423798131e-05 0 -0.0098660162331139639 0.00020874491668083716 0 -0.010392747606990866 -4.0614432373068787e-05 0 -0.010185009715918481 0.00041176463494420475 0 -0.011473305513142429 0.00036175217012272376 0 -0.010940950637667759 7.2507212423798131e-05 0 -0.011385112574945891 -0.00027119829317815043 0 -0.01087323535492688 0.00083680428896804656 0 -0.011473305513142429 0.00036175217012272376 0 -0.010940950637667759 7.2507212423798131e-05 0 -0.010759399346593241 -0.0006065932395705819 0 -0.010940950637667759 7.2507212423798131e-05 0 -0.011385112574945891 -0.00027119829317815043 0 -0.011473305513142429 0.00036175217012272376 0 -0.011385112574945891 -0.00027119829317815043 0 -0.011979668782958513 -0.00026074108523323642 0 -0.011385112574945891 -0.00027119829317815043 0 -0.01151882030937143 -0.00082586109895384544 0 -0.011979668782958513 -0.00026074108523323642 0 -0.010759399346593241 -0.0006065932395705819 0 -0.011385112574945891 -0.00027119829317815043 0 -0.01151882030937143 -0.00082586109895384544 0 -0.01232813295136314 9.8864004476427442e-05 0 -0.013060377264343635 0.00016919772917038174 0 -0.013968962797175041 0.00084017128360983203 0 -0.014208951806217347 0.000755396053267705 0 -0.014097901798375348 0.00059685327676373254 0 -0.013968962797175041 0.00084017128360983203 0 -0.014097901798375348 0.00059685327676373254 0 -0.013905446058622355 0.00060788127805393979 0 -0.013974230458946245 0.00028767831815653598 0 -0.013967499606157693 0.00036969205282549026 0 -0.014025575906793316 0.00036854241888869892 0 -0.013060377264343635 0.00016919772917038174 0 -0.014205551238287546 0.00060735030917896844 0 -0.013967499606157693 0.00036969205282549026 0 -0.014019687495130375 0.00041546982473718872 0 -0.014025575906793316 0.00036854241888869892 0 -0.014009633737498653 0.0004205857293049778 0 -0.014019687495130375 0.00041546982473718872 0 -0.014042407173188666 0.00042910093459982209 0 -0.013967499606157693 0.00036969205282549026 0 -0.014009633737498653 0.0004205857293049778 0 -0.014019687495130375 0.00041546982473718872 0 -0.014019687495130375 0.00041546982473718872 0 -0.014003815704450659 0.0004504849263444628 0 -0.014042407173188666 0.00042910093459982209 0 -0.014205551238287546 0.00060735030917896844 0 -0.013958791585339496 0.0003909570827013154 0 -0.014097901798375348 0.00059685327676373254 0 -0.013905446058622355 0.00060788127805393979 0 -0.014003815704450659 0.0004504849263444628 0 -0.014019687495130375 0.00041546982473718872 0 -0.014025575906793316 0.00036854241888869892 0 -0.014003815704450659 0.0004504849263444628 0 -0.013905446058622355 0.00060788127805393979 0 -0.013853625492821167 0.00046892397984126189 0 -0.014003815704450659 0.0004504849263444628 0 -0.013687827193605298 0.00068128568429372607 0 -0.013905446058622355 0.00060788127805393979 0 -0.013853625492821167 0.00046892397984126189 0 -0.013509043748504037 0.00056583318896501829 0 -0.013820394650472854 0.0004695517656689272 0 -0.01340707836192166 0.00050218546071317588 0 -0.013687827193605298 0.00068128568429372607 0 -0.013853625492821167 0.00046892397984126189 0 -0.013688387809255105 0.00047566746879264699 0 -0.013853625492821167 0.00046892397984126189 0 -0.01388693500175415 0.00043577938472932621 0 -0.013853625492821167 0.00046892397984126189 0 -0.013975966134430818 0.00043720140207124486 0 -0.01388693500175415 0.00043577938472932621 0 -0.013853625492821167 0.00046892397984126189 0 -0.014003815704450659 0.0004504849263444628 0 -0.013975966134430818 0.00043720140207124486 0 -0.014003815704450659 0.0004504849263444628 0 -0.013975966134430818 0.00043720140207124486 0 -0.014042407173188666 0.00042910093459982209 0 -0.013975966134430818 0.00043720140207124486 0 -0.014079940170821726 0.0004177188846263673 0 -0.014042407173188666 0.00042910093459982209 0 -0.013975966134430818 0.00043720140207124486 0 -0.01388693500175415 0.00043577938472932621 0 -0.014079940170821726 0.0004177188846263673 0 -0.013859436754842301 0.00032662722525379691 0 -0.01388693500175415 0.00043577938472932621 0 -0.014037284227691174 0.00033164141696978062 0 -0.01388693500175415 0.00043577938472932621 0 -0.014037284227691174 0.00033164141696978062 0 -0.014079940170821726 0.0004177188846263673 0 -0.014037284227691174 0.00033164141696978062 0 -0.014079940170821726 0.0004177188846263673 0 -0.014208582296714432 0.00030006075918527627 0 -0.014079940170821726 0.0004177188846263673 0 -0.014428955341214028 0.00030949085221589989 0 -0.014208582296714432 0.00030006075918527627 0 -0.014079940170821726 0.0004177188846263673 0 -0.014068963636989357 0.00044192804476007972 0 -0.01405870102033019 0.00039676139582292525 0 -0.014108207782020522 0.00041285365191466805 0 -0.014242237507459553 0.00034230217295324472 0 -0.014068963636989357 0.00044192804476007972 0 -0.01412549145091152 0.00038402724735696174 0 -0.014120393685151651 0.00045192569495651285 0 -0.014068963636989357 0.00044192804476007972 0 -0.014120393685151651 0.00045192569495651285 0 -0.013993272934878117 0.00043131372260250849 0 -0.014068963636989357 0.00044192804476007972 0 -0.01412549145091152 0.00038402724735696174 0 -0.01405870102033019 0.00039676139582292525 0 -0.014009633737498653 0.0004205857293049778 0 -0.014068963636989357 0.00044192804476007972 0 -0.013993272934878117 0.00043131372260250849 0 -0.014009633737498653 0.0004205857293049778 0 -0.014068963636989357 0.00044192804476007972 0 -0.014042407173188666 0.00042910093459982209 0 -0.014079940170821726 0.0004177188846263673 0 -0.014068963636989357 0.00044192804476007972 0 -0.014042407173188666 0.00042910093459982209 0 -0.014493489915301588 0.00020248531904351532 0 -0.014433586963621988 0.00013080551685570036 0 -0.014519963666496534 7.9990487565245866e-05 0 -0.014493489915301588 0.00020248531904351532 0 -0.014519963666496534 7.9990487565245866e-05 0 -0.014583323742115085 7.1198074627369204e-05 0 -0.014493489915301588 0.00020248531904351532 0 -0.014344466927789026 0.00020211579906485031 0 -0.014433586963621988 0.00013080551685570036 0 -0.014493489915301588 0.00020248531904351532 0 -0.014604727511928348 0.00018281208654558607 0 -0.014617374630172006 0.0001062520768901379 0 -0.014167899861934168 0.00025464808772231092 0 -0.01412549145091152 0.00038402724735696174 0 -0.014267522782092892 0.00033408794035839196 0 -0.014493489915301588 0.00020248531904351532 0 -0.014604727511928348 0.00018281208654558607 0 -0.014428955341214028 0.00030949085221589989 0 -0.014387475854354459 0.0002220570283053824 0 -0.014242237507459553 0.00034230217295324472 0 -0.014167899861934168 0.00025464808772231092 0 -0.01412549145091152 0.00038402724735696174 0 -0.01405870102033019 0.00039676139582292525 0 -0.014344466927789026 0.00020211579906485031 0 -0.014428955341214028 0.00030949085221589989 0 -0.014208582296714432 0.00030006075918527627 0 -0.014493489915301588 0.00020248531904351532 0 -0.014344466927789026 0.00020211579906485031 0 -0.014428955341214028 0.00030949085221589989 0 -0.014037284227691174 0.00033164141696978062 0 -0.014208582296714432 0.00030006075918527627 0 -0.014188340807907649 0.00020502268218163029 0 -0.014344466927789026 0.00020211579906485031 0 -0.014208582296714432 0.00030006075918527627 0 -0.014188340807907649 0.00020502268218163029 0 -0.014037284227691174 0.00033164141696978062 0 -0.014023150189860419 0.00019188475413506732 0 -0.014188340807907649 0.00020502268218163029 0 -0.013859436754842301 0.00032662722525379691 0 -0.014037284227691174 0.00033164141696978062 0 -0.014023150189860419 0.00019188475413506732 0 -0.014023150189860419 0.00019188475413506732 0 -0.014166058381612548 8.6523726746692893e-05 0 -0.014188340807907649 0.00020502268218163029 0 -0.014166058381612548 8.6523726746692893e-05 0 -0.014188340807907649 0.00020502268218163029 0 -0.014334130908230587 0.00010076381373487798 0 -0.014344466927789026 0.00020211579906485031 0 -0.014188340807907649 0.00020502268218163029 0 -0.014334130908230587 0.00010076381373487798 0 -0.014344466927789026 0.00020211579906485031 0 -0.014433586963621988 0.00013080551685570036 0 -0.014334130908230587 0.00010076381373487798 0 -0.014334130908230587 0.00010076381373487798 0 -0.014416334968749738 2.438458163716472e-05 0 -0.014460856439302047 5.6599672361353115e-05 0 -0.014433586963621988 0.00013080551685570036 0 -0.014334130908230587 0.00010076381373487798 0 -0.014460856439302047 5.6599672361353115e-05 0 -0.014334130908230587 0.00010076381373487798 0 -0.014416334968749738 2.438458163716472e-05 0 -0.014307092975312349 5.7647063485693025e-06 0 -0.014416334968749738 2.438458163716472e-05 0 -0.014498563221724379 1.9699054133354772e-06 0 -0.014460856439302047 5.6599672361353115e-05 0 -0.014166058381612548 8.6523726746692893e-05 0 -0.014334130908230587 0.00010076381373487798 0 -0.014307092975312349 5.7647063485693025e-06 0 -0.014166058381612548 8.6523726746692893e-05 0 -0.014307092975312349 5.7647063485693025e-06 0 -0.014175456003537817 -2.7459082453196061e-05 0 -0.014175456003537817 -2.7459082453196061e-05 0 -0.014333195166154045 -6.538431065874925e-05 0 -0.014218559139220035 -0.00011995819385760428 0 -0.014307092975312349 5.7647063485693025e-06 0 -0.014175456003537817 -2.7459082453196061e-05 0 -0.014333195166154045 -6.538431065874925e-05 0 -0.014333195166154045 -6.538431065874925e-05 0 -0.01447280567576425 -3.9770491946642081e-05 0 -0.014472274690332134 -9.0284828273312111e-05 0 -0.014307092975312349 5.7647063485693025e-06 0 -0.014333195166154045 -6.538431065874925e-05 0 -0.01447280567576425 -3.9770491946642081e-05 0 -0.014416334968749738 2.438458163716472e-05 0 -0.01447280567576425 -3.9770491946642081e-05 0 -0.014498563221724379 1.9699054133354772e-06 0 -0.014416334968749738 2.438458163716472e-05 0 -0.014307092975312349 5.7647063485693025e-06 0 -0.01447280567576425 -3.9770491946642081e-05 0 -0.01447280567576425 -3.9770491946642081e-05 0 -0.014596421817522432 -6.454107887049796e-05 0 -0.014555221005335496 -8.3381950518420233e-05 0 -0.01447280567576425 -3.9770491946642081e-05 0 -0.014472274690332134 -9.0284828273312111e-05 0 -0.014555221005335496 -8.3381950518420233e-05 0 -0.01447280567576425 -3.9770491946642081e-05 0 -0.014596421817522432 -6.454107887049796e-05 0 -0.014572121784881702 -2.9702321938953643e-05 0 -0.014596421817522432 -6.454107887049796e-05 0 -0.014655051747669873 -5.0293569033404626e-05 0 -0.014572121784881702 -2.9702321938953643e-05 0 -0.014655051747669873 -5.0293569033404626e-05 0 -0.014619738746383837 -1.8211869969079166e-05 0 -0.014572121784881702 -2.9702321938953643e-05 0 -0.014655051747669873 -5.0293569033404626e-05 0 -0.014619738746383837 -1.8211869969079166e-05 0 -0.01467418037884206 -2.8947202809840986e-05 0 -0.014619738746383837 -1.8211869969079166e-05 0 -0.014572121784881702 -2.9702321938953643e-05 0 -0.014557584065199042 1.3501868153521096e-05 0 -0.014619738746383837 -1.8211869969079166e-05 0 -0.014557584065199042 1.3501868153521096e-05 0 -0.014622395021082946 7.6139992680091248e-06 0 -0.014498563221724379 1.9699054133354772e-06 0 -0.014572121784881702 -2.9702321938953643e-05 0 -0.014557584065199042 1.3501868153521096e-05 0 -0.01447280567576425 -3.9770491946642081e-05 0 -0.014498563221724379 1.9699054133354772e-06 0 -0.014572121784881702 -2.9702321938953643e-05 0 -0.014557584065199042 1.3501868153521096e-05 0 -0.014519963666496534 7.9990487565245866e-05 0 -0.014460856439302047 5.6599672361353115e-05 0 -0.014498563221724379 1.9699054133354772e-06 0 -0.014557584065199042 1.3501868153521096e-05 0 -0.014460856439302047 5.6599672361353115e-05 0 -0.014557584065199042 1.3501868153521096e-05 0 -0.014581975451549158 3.9262989163919446e-05 0 -0.014519963666496534 7.9990487565245866e-05 0 -0.014557584065199042 1.3501868153521096e-05 0 -0.014581975451549158 3.9262989163919446e-05 0 -0.014622395021082946 7.6139992680091248e-06 0 -0.014581975451549158 3.9262989163919446e-05 0 -0.014519963666496534 7.9990487565245866e-05 0 -0.014583323742115085 7.1198074627369204e-05 0 -0.014433586963621988 0.00013080551685570036 0 -0.014519963666496534 7.9990487565245866e-05 0 -0.014460856439302047 5.6599672361353115e-05 0 -0.01451212230939021 0.00019741595535494169 0 -0.014652771391624738 6.0464011502536265e-05 0 -0.014493489915301588 0.00020248531904351532 0 -0.014629258278674201 9.5192879046691292e-05 0 -0.014617374630172006 0.0001062520768901379 0 -0.014493489915301588 0.00020248531904351532 0 -0.014583323742115085 7.1198074627369204e-05 0 -0.014681481086523455 1.9430703146512727e-05 0 -0.014604727511928348 0.00018281208654558607 0 -0.014617374630172006 0.0001062520768901379 0 -0.014644888460204475 0.00010505668038097609 0 -0.014583323742115085 7.1198074627369204e-05 0 -0.014626065376737326 2.7660653146732316e-05 0 -0.014681481086523455 1.9430703146512727e-05 0 -0.014581975451549158 3.9262989163919446e-05 0 -0.014583323742115085 7.1198074627369204e-05 0 -0.014626065376737326 2.7660653146732316e-05 0 -0.014581975451549158 3.9262989163919446e-05 0 -0.014626065376737326 2.7660653146732316e-05 0 -0.014622395021082946 7.6139992680091248e-06 0 -0.014626065376737326 2.7660653146732316e-05 0 -0.014622395021082946 7.6139992680091248e-06 0 -0.014654860094403496 7.7523911997498415e-06 0 -0.014626065376737326 2.7660653146732316e-05 0 -0.014681481086523455 1.9430703146512727e-05 0 -0.014654860094403496 7.7523911997498415e-06 0 -0.014652771391624738 6.0464011502536265e-05 0 -0.014804849942701473 -3.365159856809508e-05 0 -0.014681481086523455 1.9430703146512727e-05 0 -0.014686337101582115 -7.442678142521035e-06 0 -0.01472966439581304 -3.1428010766943677e-05 0 -0.014632411253073793 0.0001032410321581433 0 -0.014732779923550468 4.6029618377088456e-05 0 -0.014617374630172006 0.0001062520768901379 0 -0.014652466671805205 9.6679508619818789e-05 0 -0.014665173348729769 8.1196069523248256e-05 0 -0.014617374630172006 0.0001062520768901379 0 -0.014652466671805205 9.6679508619818789e-05 0 -0.014644888460204475 0.00010505668038097609 0 -0.014629258278674201 9.5192879046691292e-05 0 -0.014617374630172006 0.0001062520768901379 0 -0.014801634440034902 1.7798374229083575e-05 0 -0.014681481086523455 1.9430703146512727e-05 0 -0.01472966439581304 -3.1428010766943677e-05 0 -0.014810039120555347 -8.4955771030661899e-05 0 -0.014686337101582115 -7.442678142521035e-06 0 -0.014692850638092751 -2.0339919191169671e-05 0 -0.01472966439581304 -3.1428010766943677e-05 0 -0.014622395021082946 7.6139992680091248e-06 0 -0.014654860094403496 7.7523911997498415e-06 0 -0.014648711354347567 -1.1269279824119762e-05 0 -0.014619738746383837 -1.8211869969079166e-05 0 -0.014622395021082946 7.6139992680091248e-06 0 -0.014648711354347567 -1.1269279824119762e-05 0 -0.014654860094403496 7.7523911997498415e-06 0 -0.014670725976630614 -9.4146147994072031e-06 0 -0.014648711354347567 -1.1269279824119762e-05 0 -0.014681481086523455 1.9430703146512727e-05 0 -0.014654860094403496 7.7523911997498415e-06 0 -0.014686337101582115 -7.442678142521035e-06 0 -0.014654860094403496 7.7523911997498415e-06 0 -0.014686337101582115 -7.442678142521035e-06 0 -0.014670725976630614 -9.4146147994072031e-06 0 -0.014692850638092751 -2.0339919191169671e-05 0 -0.014670725976630614 -9.4146147994072031e-06 0 -0.01467418037884206 -2.8947202809840986e-05 0 -0.014686337101582115 -7.442678142521035e-06 0 -0.014692850638092751 -2.0339919191169671e-05 0 -0.014670725976630614 -9.4146147994072031e-06 0 -0.014619738746383837 -1.8211869969079166e-05 0 -0.014648711354347567 -1.1269279824119762e-05 0 -0.01467418037884206 -2.8947202809840986e-05 0 -0.014670725976630614 -9.4146147994072031e-06 0 -0.014648711354347567 -1.1269279824119762e-05 0 -0.01467418037884206 -2.8947202809840986e-05 0 -0.014692850638092751 -2.0339919191169671e-05 0 -0.01467418037884206 -2.8947202809840986e-05 0 -0.014708126121077494 -3.640689977088006e-05 0 -0.01467418037884206 -2.8947202809840986e-05 0 -0.014708126121077494 -3.640689977088006e-05 0 -0.014704602085609668 -5.0185492006513826e-05 0 -0.014708126121077494 -3.640689977088006e-05 0 -0.014704602085609668 -5.0185492006513826e-05 0 -0.01472611662342386 -4.9001991906273752e-05 0 -0.014655051747669873 -5.0293569033404626e-05 0 -0.01467418037884206 -2.8947202809840986e-05 0 -0.014704602085609668 -5.0185492006513826e-05 0 -0.014655051747669873 -5.0293569033404626e-05 0 -0.014704602085609668 -5.0185492006513826e-05 0 -0.014707816384605315 -6.8545371805747975e-05 0 -0.014692850638092751 -2.0339919191169671e-05 0 -0.014708126121077494 -3.640689977088006e-05 0 -0.01472966439581304 -3.1428010766943677e-05 0 -0.01472966439581304 -3.1428010766943677e-05 0 -0.01472611662342386 -4.9001991906273752e-05 0 -0.014743320445936778 -5.6614327463544911e-05 0 -0.014708126121077494 -3.640689977088006e-05 0 -0.01472966439581304 -3.1428010766943677e-05 0 -0.01472611662342386 -4.9001991906273752e-05 0 -0.014762303763270024 -6.2632154590083809e-05 0 -0.014765469368854117 -7.2322771762002791e-05 0 -0.014743320445936778 -5.6614327463544911e-05 0 -0.01472966439581304 -3.1428010766943677e-05 0 -0.014762303763270024 -6.2632154590083809e-05 0 -0.014810039120555347 -8.4955771030661899e-05 0 -0.01472966439581304 -3.1428010766943677e-05 0 -0.014762303763270024 -6.2632154590083809e-05 0 -0.014743320445936778 -5.6614327463544911e-05 0 -0.014762303763270024 -6.2632154590083809e-05 0 -0.014788135966858441 -7.8940154549766688e-05 0 -0.014796670159983026 -8.0642244741360009e-05 0 -0.014762303763270024 -6.2632154590083809e-05 0 -0.014769553433559847 -6.7883964609932173e-05 0 -0.014788135966858441 -7.8940154549766688e-05 0 -0.014762303763270024 -6.2632154590083809e-05 0 -0.014769553433559847 -6.7883964609932173e-05 0 -0.014765469368854117 -7.2322771762002791e-05 0 -0.014769553433559847 -6.7883964609932173e-05 0 -0.014765469368854117 -7.2322771762002791e-05 0 -0.014788135966858441 -7.8940154549766688e-05 0 -0.014765469368854117 -7.2322771762002791e-05 0 -0.01473652076183391 -6.4021194990828011e-05 0 -0.014751927595170605 -8.01986768140614e-05 0 -0.014765469368854117 -7.2322771762002791e-05 0 -0.01473652076183391 -6.4021194990828011e-05 0 -0.014743320445936778 -5.6614327463544911e-05 0 -0.01472611662342386 -4.9001991906273752e-05 0 -0.01473652076183391 -6.4021194990828011e-05 0 -0.014743320445936778 -5.6614327463544911e-05 0 -0.014704602085609668 -5.0185492006513826e-05 0 -0.01472611662342386 -4.9001991906273752e-05 0 -0.01473652076183391 -6.4021194990828011e-05 0 -0.014704602085609668 -5.0185492006513826e-05 0 -0.01473652076183391 -6.4021194990828011e-05 0 -0.014707816384605315 -6.8545371805747975e-05 0 -0.014707816384605315 -6.8545371805747975e-05 0 -0.014722714105690489 -8.4900276509072167e-05 0 -0.014671269282130361 -7.5739272109024496e-05 0 -0.014707816384605315 -6.8545371805747975e-05 0 -0.014751927595170605 -8.01986768140614e-05 0 -0.014722714105690489 -8.4900276509072167e-05 0 -0.01473652076183391 -6.4021194990828011e-05 0 -0.014707816384605315 -6.8545371805747975e-05 0 -0.014751927595170605 -8.01986768140614e-05 0 -0.014751927595170605 -8.01986768140614e-05 0 -0.014722714105690489 -8.4900276509072167e-05 0 -0.014760829768081681 -9.5792956947701616e-05 0 -0.014722714105690489 -8.4900276509072167e-05 0 -0.014760829768081681 -9.5792956947701616e-05 0 -0.014717947363749956 -0.00010009849243140033 0 -0.014751927595170605 -8.01986768140614e-05 0 -0.014760829768081681 -9.5792956947701616e-05 0 -0.014791488203009554 -9.1286116166959102e-05 0 -0.014791488203009554 -9.1286116166959102e-05 0 -0.014804965667480427 -8.6125276730762565e-05 0 -0.014783643861099181 -8.2495213933684517e-05 0 -0.014791488203009554 -9.1286116166959102e-05 0 -0.014804965667480427 -8.6125276730762565e-05 0 -0.014815304114179322 -8.9068363333523392e-05 0 -0.014765469368854117 -7.2322771762002791e-05 0 -0.014783643861099181 -8.2495213933684517e-05 0 -0.014788135966858441 -7.8940154549766688e-05 0 -0.014804965667480427 -8.6125276730762565e-05 0 -0.014783643861099181 -8.2495213933684517e-05 0 -0.014801460791899038 -8.3919914792722144e-05 0 -0.014783643861099181 -8.2495213933684517e-05 0 -0.014788135966858441 -7.8940154549766688e-05 0 -0.014801460791899038 -8.3919914792722144e-05 0 -0.014751927595170605 -8.01986768140614e-05 0 -0.014791488203009554 -9.1286116166959102e-05 0 -0.014783643861099181 -8.2495213933684517e-05 0 -0.014765469368854117 -7.2322771762002791e-05 0 -0.014751927595170605 -8.01986768140614e-05 0 -0.014783643861099181 -8.2495213933684517e-05 0 -0.014596421817522432 -6.454107887049796e-05 0 -0.014671269282130361 -7.5739272109024496e-05 0 -0.014638587440337178 -9.5679501547009561e-05 0 -0.014596421817522432 -6.454107887049796e-05 0 -0.014638587440337178 -9.5679501547009561e-05 0 -0.014555221005335496 -8.3381950518420233e-05 0 -0.014596421817522432 -6.454107887049796e-05 0 -0.014655051747669873 -5.0293569033404626e-05 0 -0.014671269282130361 -7.5739272109024496e-05 0 -0.014655051747669873 -5.0293569033404626e-05 0 -0.014707816384605315 -6.8545371805747975e-05 0 -0.014671269282130361 -7.5739272109024496e-05 0 -0.014722714105690489 -8.4900276509072167e-05 0 -0.014671269282130361 -7.5739272109024496e-05 0 -0.014717947363749956 -0.00010009849243140033 0 -0.014671269282130361 -7.5739272109024496e-05 0 -0.014717947363749956 -0.00010009849243140033 0 -0.014638587440337178 -9.5679501547009561e-05 0 -0.014717947363749956 -0.00010009849243140033 0 -0.014638587440337178 -9.5679501547009561e-05 0 -0.014696923839231168 -0.00011759530335879059 0 -0.014760829768081681 -9.5792956947701616e-05 0 -0.014717947363749956 -0.00010009849243140033 0 -0.014767129615622172 -0.00010934971405569233 0 -0.014717947363749956 -0.00010009849243140033 0 -0.014696923839231168 -0.00011759530335879059 0 -0.014767129615622172 -0.00010934971405569233 0 -0.014767129615622172 -0.00010934971405569233 0 -0.014773412467757837 -0.00012383707837794591 0 -0.014828130360064274 -0.00010448026918532587 0 -0.014696923839231168 -0.00011759530335879059 0 -0.014767129615622172 -0.00010934971405569233 0 -0.014773412467757837 -0.00012383707837794591 0 -0.014696923839231168 -0.00011759530335879059 0 -0.014773412467757837 -0.00012383707837794591 0 -0.014685265467848679 -0.00014011920123012243 0 -0.014819925995433943 -9.3457821640595401e-05 0 -0.014846611728850014 -8.9748133284723639e-05 0 -0.01483466664951804 -8.8545025652933635e-05 0 -0.014819925995433943 -9.3457821640595401e-05 0 -0.014815304114179322 -8.9068363333523392e-05 0 -0.01483466664951804 -8.8545025652933635e-05 0 -0.014791488203009554 -9.1286116166959102e-05 0 -0.014819925995433943 -9.3457821640595401e-05 0 -0.014815304114179322 -8.9068363333523392e-05 0 -0.014791488203009554 -9.1286116166959102e-05 0 -0.014819925995433943 -9.3457821640595401e-05 0 -0.014800571654509643 -0.00010034724443597461 0 -0.014760829768081681 -9.5792956947701616e-05 0 -0.014767129615622172 -0.00010934971405569233 0 -0.014800571654509643 -0.00010034724443597461 0 -0.014760829768081681 -9.5792956947701616e-05 0 -0.014791488203009554 -9.1286116166959102e-05 0 -0.014800571654509643 -0.00010034724443597461 0 -0.014767129615622172 -0.00010934971405569233 0 -0.014800571654509643 -0.00010034724443597461 0 -0.014828130360064274 -0.00010448026918532587 0 -0.014800571654509643 -0.00010034724443597461 0 -0.014839341501780975 -9.4893637094855659e-05 0 -0.014828130360064274 -0.00010448026918532587 0 -0.014819925995433943 -9.3457821640595401e-05 0 -0.014800571654509643 -0.00010034724443597461 0 -0.014839341501780975 -9.4893637094855659e-05 0 -0.014819925995433943 -9.3457821640595401e-05 0 -0.014839341501780975 -9.4893637094855659e-05 0 -0.014846611728850014 -8.9748133284723639e-05 0 -0.014839341501780975 -9.4893637094855659e-05 0 -0.014862574781497134 -8.8495689845967119e-05 0 -0.014846611728850014 -8.9748133284723639e-05 0 -0.014868463249107539 -8.8931502239516353e-05 0 -0.014909160543106004 -7.1133938798218483e-05 0 -0.01488565526785258 -8.1168572629373124e-05 0 -0.014862574781497134 -8.8495689845967119e-05 0 -0.014868463249107539 -8.8931502239516353e-05 0 -0.01488565526785258 -8.1168572629373124e-05 0 -0.014839341501780975 -9.4893637094855659e-05 0 -0.014862574781497134 -8.8495689845967119e-05 0 -0.014868463249107539 -8.8931502239516353e-05 0 -0.014868463249107539 -8.8931502239516353e-05 0 -0.014909160543106004 -7.1133938798218483e-05 0 -0.014908314082662563 -7.1992330387886779e-05 0 -0.014868463249107539 -8.8931502239516353e-05 0 -0.014908314082662563 -7.1992330387886779e-05 0 -0.014828130360064274 -0.00010448026918532587 0 -0.014839341501780975 -9.4893637094855659e-05 0 -0.014868463249107539 -8.8931502239516353e-05 0 -0.014828130360064274 -0.00010448026918532587 0 -0.014773412467757837 -0.00012383707837794591 0 -0.014828130360064274 -0.00010448026918532587 0 -0.0148741875825751 -9.3195734438712718e-05 0 -0.014773412467757837 -0.00012383707837794591 0 -0.0148741875825751 -9.3195734438712718e-05 0 -0.014794992688707414 -0.00014331111481063498 0 -0.014908314082662563 -7.1992330387886779e-05 0 -0.014828130360064274 -0.00010448026918532587 0 -0.0148741875825751 -9.3195734438712718e-05 0 -0.0148741875825751 -9.3195734438712718e-05 0 -0.014999924609061665 4.7667177334546528e-08 0 -0.014794992688707414 -0.00014331111481063498 0 -0.014908314082662563 -7.1992330387886779e-05 0 -0.0148741875825751 -9.3195734438712718e-05 0 -0.014999924609061665 4.7667177334546528e-08 0 -0.014908314082662563 -7.1992330387886779e-05 0 -0.014999924609061665 4.7667177334546528e-08 0 -0.014999850832762247 -9.5104487404154117e-08 0 -0.014909160543106004 -7.1133938798218483e-05 0 -0.014908314082662563 -7.1992330387886779e-05 0 -0.014999850832762247 -9.5104487404154117e-08 0 -0.014999255589489426 -6.0883806670008217e-07 0 -0.014715550539049636 -0.0001800965680640176 0 -0.014480626990783094 -0.0003008361301131354 0 -0.01499984324842304 -1.446672020738528e-08 0 -0.014718243915008554 -0.00013065952017783731 0 -0.014999255589489426 -6.0883806670008217e-07 0 -0.014794992688707414 -0.00014331111481063498 0 -0.014715550539049636 -0.0001800965680640176 0 -0.014999924609061665 4.7667177334546528e-08 0 -0.014999255589489426 -6.0883806670008217e-07 0 -0.014794992688707414 -0.00014331111481063498 0 -0.014773412467757837 -0.00012383707837794591 0 -0.014794992688707414 -0.00014331111481063498 0 -0.014685265467848679 -0.00014011920123012243 0 -0.014794992688707414 -0.00014331111481063498 0 -0.01456769687339598 -0.00017411305570638435 0 -0.014685265467848679 -0.00014011920123012243 0 -0.014794992688707414 -0.00014331111481063498 0 -0.014715550539049636 -0.0001800965680640176 0 -0.01456769687339598 -0.00017411305570638435 0 -0.014715550539049636 -0.0001800965680640176 0 -0.01456769687339598 -0.00017411305570638435 0 -0.014480626990783094 -0.0003008361301131354 0 -0.01456769687339598 -0.00017411305570638435 0 -0.014416984473214897 -0.0001315829902201222 0 -0.014304378089246391 -0.00020544201756770203 0 -0.01456769687339598 -0.00017411305570638435 0 -0.014577502195926515 -0.00012098853075512915 0 -0.014416984473214897 -0.0001315829902201222 0 -0.01456769687339598 -0.00017411305570638435 0 -0.014685265467848679 -0.00014011920123012243 0 -0.014577502195926515 -0.00012098853075512915 0 -0.014696923839231168 -0.00011759530335879059 0 -0.014685265467848679 -0.00014011920123012243 0 -0.014577502195926515 -0.00012098853075512915 0 -0.014638587440337178 -9.5679501547009561e-05 0 -0.014696923839231168 -0.00011759530335879059 0 -0.014577502195926515 -0.00012098853075512915 0 -0.014638587440337178 -9.5679501547009561e-05 0 -0.014577502195926515 -0.00012098853075512915 0 -0.014555221005335496 -8.3381950518420233e-05 0 -0.014577502195926515 -0.00012098853075512915 0 -0.014472274690332134 -9.0284828273312111e-05 0 -0.014416984473214897 -0.0001315829902201222 0 -0.014577502195926515 -0.00012098853075512915 0 -0.014472274690332134 -9.0284828273312111e-05 0 -0.014555221005335496 -8.3381950518420233e-05 0 -0.014333195166154045 -6.538431065874925e-05 0 -0.014472274690332134 -9.0284828273312111e-05 0 -0.014416984473214897 -0.0001315829902201222 0 -0.014333195166154045 -6.538431065874925e-05 0 -0.014416984473214897 -0.0001315829902201222 0 -0.014218559139220035 -0.00011995819385760428 0 -0.014416984473214897 -0.0001315829902201222 0 -0.014304378089246391 -0.00020544201756770203 0 -0.014218559139220035 -0.00011995819385760428 0 -0.014043944486625486 -0.00018299152141878887 0 -0.014304378089246391 -0.00020544201756770203 0 -0.014218559139220035 -0.00011995819385760428 0 -0.014043944486625486 -0.00018299152141878887 0 -0.014032269172627473 -0.00034643205287758472 0 -0.013857807154993721 -0.00025152470845321074 0 -0.014043944486625486 -0.00018299152141878887 0 -0.013857807154993721 -0.00025152470845321074 0 -0.013835661230390485 -0.00019242403933498022 0 -0.014043944486625486 -0.00018299152141878887 0 -0.014032269172627473 -0.00034643205287758472 0 -0.014304378089246391 -0.00020544201756770203 0 -0.014032269172627473 -0.00034643205287758472 0 -0.014304378089246391 -0.00020544201756770203 0 -0.014480626990783094 -0.0003008361301131354 0 -0.01456769687339598 -0.00017411305570638435 0 -0.014304378089246391 -0.00020544201756770203 0 -0.014480626990783094 -0.0003008361301131354 0 -0.014984480596130318 -1.048315208190603e-05 0 -0.014992864755283454 -7.4019842205145449e-06 0 -0.014987555451390473 -1.0871040844308248e-05 0 -0.014984480596130318 -1.048315208190603e-05 0 -0.014995894051958824 -4.6580891168449724e-06 0 -0.014992864755283454 -7.4019842205145449e-06 0 -0.014536512814662488 -0.00013740649805056175 0 -0.014718243915008554 -0.00013065952017783731 0 -0.014992864755283454 -7.4019842205145449e-06 0 -0.01499526133906332 -6.5509913825278641e-06 0 -0.014999988164186672 -7.4924594502056423e-09 0 -0.01499526133906332 -6.5509913825278641e-06 0 -0.014999988164186672 -7.4924594502056423e-09 0 -0.014999989495259112 -1.3123044070291489e-08 0 -0.014992864755283454 -7.4019842205145449e-06 0 -0.01499526133906332 -6.5509913825278641e-06 0 -0.014987555451390473 -1.0871040844308248e-05 0 -0.014999999914003626 2.6950925631533344e-09 0 -0.014995894051958824 -4.6580891168449724e-06 0 -0.014999988164186672 -7.4924594502056423e-09 0 -0.014995894051958824 -4.6580891168449724e-06 0 -0.014992864755283454 -7.4019842205145449e-06 0 -0.014999988164186672 -7.4924594502056423e-09 0 -0.014997006575631369 -2.3951282843951449e-06 0 -0.014999989831184522 -3.7163009777519017e-09 0 -0.014999990868703003 -3.5031402945743549e-09 0 -0.014997006575631369 -2.3951282843951449e-06 0 -0.01499194758339107 -6.4349769277606932e-06 0 -0.014993699088086171 -4.4854939048408407e-06 0 -0.014766757874551187 -0.00016428216605766219 0 -0.013930423869912577 -0.0010486782504615388 0 -0.014997006575631369 -2.3951282843951449e-06 0 -0.014997570537914505 -1.9040408650866544e-06 0 -0.01499194758339107 -6.4349769277606932e-06 0 -0.014326859050159036 -0.00060171299970660126 0 -0.014328329118368163 -0.00062583412659267712 0 -0.014355054574679728 -0.00064663654244224013 0 -0.014997006575631369 -2.3951282843951449e-06 0 -0.014999989831184522 -3.7163009777519017e-09 0 -0.014997570537914505 -1.9040408650866544e-06 0 -0.014999999921123344 -1.3796465860556902e-09 0 -0.014999142678850009 -1.2365226320153341e-06 0 -0.014999999081813854 6.9349785404381239e-10 0 -0.014766757874551187 -0.00016428216605766219 0 -0.01499981223013949 -1.6876578996301012e-07 0 -0.014999668873568454 -1.0044801814693258e-07 0 -0.014766757874551187 -0.00016428216605766219 0 -0.01499526133906332 -6.5509913825278641e-06 0 -0.015002661287348795 -8.0268187988430152e-06 0 -0.014999989495259112 -1.3123044070291489e-08 0 -0.01499526133906332 -6.5509913825278641e-06 0 -0.01498352912228549 -1.4529260964384594e-05 0 -0.014987555451390473 -1.0871040844308248e-05 0 -0.014999115287658083 -0.00012787848637267396 0 -0.014381411168732334 -0.00065849377324447291 0 -0.014766757874551187 -0.00016428216605766219 0 -0.014381411168732334 -0.00065849377324447291 0 -0.01499526133906332 -6.5509913825278641e-06 0 -0.015002661287348795 -8.0268187988430152e-06 0 -0.015001731562324514 -1.6914398275577788e-05 0 -0.01498352912228549 -1.4529260964384594e-05 0 -0.014987555451390473 -1.0871040844308248e-05 0 -0.014975807564495427 -1.5015220160095952e-05 0 -0.014984480596130318 -1.048315208190603e-05 0 -0.014987555451390473 -1.0871040844308248e-05 0 -0.014975807564495427 -1.5015220160095952e-05 0 -0.014381411168732334 -0.00065849377324447291 0 -0.014187656996694647 -0.00082730158643602757 0 -0.013451697295293372 -0.0018749582912747701 0 -0.013215892902584337 -0.0017561261539467683 0 -0.013380773479459917 -0.001505730454949299 0 -0.013215892902584337 -0.0017561261539467683 0 -0.013126832743260144 -0.0014850163909805633 0 -0.013380773479459917 -0.001505730454949299 0 -0.014381411168732334 -0.00065849377324447291 0 -0.013930423869912577 -0.0010486782504615388 0 -0.014187656996694647 -0.00082730158643602757 0 -0.014067761471680698 -0.0004359778988192406 0 -0.013126832743260144 -0.0014850163909805633 0 -0.013380773479459917 -0.001505730454949299 0 -0.013108290011589309 -0.001340112579541315 0 -0.013215892902584337 -0.0017561261539467683 0 -0.013126832743260144 -0.0014850163909805633 0 -0.012793710954264679 -0.0013389096572619993 0 -0.013380773479459917 -0.001505730454949299 0 -0.013215561271116141 -0.0012257638464497169 0 -0.013314618480608836 -0.0011175733907250202 0 -0.013380773479459917 -0.001505730454949299 0 -0.013215561271116141 -0.0012257638464497169 0 -0.013108290011589309 -0.001340112579541315 0 -0.013215561271116141 -0.0012257638464497169 0 -0.013108290011589309 -0.001340112579541315 0 -0.013059267078307863 -0.0011090625927359533 0 -0.014984480596130318 -1.048315208190603e-05 0 -0.014975807564495427 -1.5015220160095952e-05 0 -0.014966132384749677 -1.3800423954041806e-05 0 -0.014032269172627473 -0.00034643205287758472 0 -0.013857807154993721 -0.00025152470845321074 0 -0.013685988855664797 -0.00030526261859000197 0 -0.014536512814662488 -0.00013740649805056175 0 -0.014067761471680698 -0.0004359778988192406 0 -0.013857807154993721 -0.00025152470845321074 0 -0.013704624415768063 -0.0002337328099097802 0 -0.013685988855664797 -0.00030526261859000197 0 -0.013857807154993721 -0.00025152470845321074 0 -0.013704624415768063 -0.0002337328099097802 0 -0.013835661230390485 -0.00019242403933498022 0 -0.014067761471680698 -0.0004359778988192406 0 -0.013380954936201887 -0.00047613420109828203 0 -0.013314618480608836 -0.0011175733907250202 0 -0.013156174144995316 -0.00091159964934582616 0 -0.01326927807772937 -0.00070149481113495607 0 -0.013704624415768063 -0.0002337328099097802 0 -0.013685988855664797 -0.00030526261859000197 0 -0.013544915041807199 -0.00022248445342629557 0 -0.013215561271116141 -0.0012257638464497169 0 -0.013059267078307863 -0.0011090625927359533 0 -0.013314618480608836 -0.0011175733907250202 0 -0.013059267078307863 -0.0011090625927359533 0 -0.013314618480608836 -0.0011175733907250202 0 -0.013156174144995316 -0.00091159964934582616 0 -0.013059267078307863 -0.0011090625927359533 0 -0.013156174144995316 -0.00091159964934582616 0 -0.01294784433457361 -0.00085839444426506501 0 -0.013380954936201887 -0.00047613420109828203 0 -0.013279365143987304 -0.00019169714230070741 0 -0.01326927807772937 -0.00070149481113495607 0 -0.013245449340487332 -0.0002061865195513131 0 -0.01277044416284346 -0.00051296686592991057 0 -0.013156174144995316 -0.00091159964934582616 0 -0.01326927807772937 -0.00070149481113495607 0 -0.01294784433457361 -0.00085839444426506501 0 -0.013544915041807199 -0.00022248445342629557 0 -0.013245449340487332 -0.0002061865195513131 0 -0.013647348582359404 -0.00015443338506930789 0 -0.013245449340487332 -0.0002061865195513131 0 -0.013647348582359404 -0.00015443338506930789 0 -0.013413433038842215 1.1836403929067825e-05 0 -0.013647348582359404 -0.00015443338506930789 0 -0.013708573774271775 4.6742218736841906e-05 0 -0.013413433038842215 1.1836403929067825e-05 0 -0.013704624415768063 -0.0002337328099097802 0 -0.013544915041807199 -0.00022248445342629557 0 -0.013647348582359404 -0.00015443338506930789 0 -0.013704624415768063 -0.0002337328099097802 0 -0.013647348582359404 -0.00015443338506930789 0 -0.013835661230390485 -0.00019242403933498022 0 -0.013647348582359404 -0.00015443338506930789 0 -0.013835661230390485 -0.00019242403933498022 0 -0.013896112684052863 -0.00013388056975056735 0 -0.014043944486625486 -0.00018299152141878887 0 -0.013896112684052863 -0.00013388056975056735 0 -0.014039390536373635 -8.985338841215828e-05 0 -0.014043944486625486 -0.00018299152141878887 0 -0.013835661230390485 -0.00019242403933498022 0 -0.013896112684052863 -0.00013388056975056735 0 -0.013896112684052863 -0.00013388056975056735 0 -0.014039390536373635 -8.985338841215828e-05 0 -0.013843992448240727 -6.1412294683120273e-05 0 -0.013647348582359404 -0.00015443338506930789 0 -0.013896112684052863 -0.00013388056975056735 0 -0.013843992448240727 -6.1412294683120273e-05 0 -0.014043944486625486 -0.00018299152141878887 0 -0.014218559139220035 -0.00011995819385760428 0 -0.014039390536373635 -8.985338841215828e-05 0 -0.014175456003537817 -2.7459082453196061e-05 0 -0.014218559139220035 -0.00011995819385760428 0 -0.014039390536373635 -8.985338841215828e-05 0 -0.014175456003537817 -2.7459082453196061e-05 0 -0.014039390536373635 -8.985338841215828e-05 0 -0.013976124747782289 3.8745644295465784e-05 0 -0.014166058381612548 8.6523726746692893e-05 0 -0.014175456003537817 -2.7459082453196061e-05 0 -0.013976124747782289 3.8745644295465784e-05 0 -0.014039390536373635 -8.985338841215828e-05 0 -0.013976124747782289 3.8745644295465784e-05 0 -0.013843992448240727 -6.1412294683120273e-05 0 -0.013647348582359404 -0.00015443338506930789 0 -0.013843992448240727 -6.1412294683120273e-05 0 -0.013708573774271775 4.6742218736841906e-05 0 -0.013976124747782289 3.8745644295465784e-05 0 -0.013843992448240727 -6.1412294683120273e-05 0 -0.013708573774271775 4.6742218736841906e-05 0 -0.013976124747782289 3.8745644295465784e-05 0 -0.013708573774271775 4.6742218736841906e-05 0 -0.013839464075783075 0.00017323803189512186 0 -0.013708573774271775 4.6742218736841906e-05 0 -0.013839464075783075 0.00017323803189512186 0 -0.013595514203323484 0.00026437121166117937 0 -0.014023150189860419 0.00019188475413506732 0 -0.014166058381612548 8.6523726746692893e-05 0 -0.013976124747782289 3.8745644295465784e-05 0 -0.014023150189860419 0.00019188475413506732 0 -0.013976124747782289 3.8745644295465784e-05 0 -0.013839464075783075 0.00017323803189512186 0 -0.013859436754842301 0.00032662722525379691 0 -0.014023150189860419 0.00019188475413506732 0 -0.013839464075783075 0.00017323803189512186 0 -0.013859436754842301 0.00032662722525379691 0 -0.013839464075783075 0.00017323803189512186 0 -0.013595514203323484 0.00026437121166117937 0 -0.013283877384442446 0.00049997012495254015 0 -0.013595514203323484 0.00026437121166117937 0 -0.013234764056704746 0.00021235728976192958 0 -0.013595514203323484 0.00026437121166117937 0 -0.013234764056704746 0.00021235728976192958 0 -0.013413433038842215 1.1836403929067825e-05 0 -0.012952170401165981 0.00036227623591027566 0 -0.013234764056704746 0.00021235728976192958 0 -0.012829574860645537 -7.6094464105446684e-06 0 -0.013234764056704746 0.00021235728976192958 0 -0.013413433038842215 1.1836403929067825e-05 0 -0.012829574860645537 -7.6094464105446684e-06 0 -0.013245449340487332 -0.0002061865195513131 0 -0.013413433038842215 1.1836403929067825e-05 0 -0.012829574860645537 -7.6094464105446684e-06 0 -0.013708573774271775 4.6742218736841906e-05 0 -0.013595514203323484 0.00026437121166117937 0 -0.013413433038842215 1.1836403929067825e-05 0 -0.012829574860645537 -7.6094464105446684e-06 0 -0.0121380046468667 -8.2694483181915981e-06 0 -0.012398476028230443 -0.00026534308538541908 0 -0.012829574860645537 -7.6094464105446684e-06 0 -0.012398476028230443 -0.00026534308538541908 0 -0.012791305927413088 -0.00023918539040125309 0 -0.013245449340487332 -0.0002061865195513131 0 -0.012829574860645537 -7.6094464105446684e-06 0 -0.012791305927413088 -0.00023918539040125309 0 -0.012513738085418596 0.00032664005802979668 0 -0.012952170401165981 0.00036227623591027566 0 -0.012829574860645537 -7.6094464105446684e-06 0 -0.012513738085418596 0.00032664005802979668 0 -0.012829574860645537 -7.6094464105446684e-06 0 -0.0121380046468667 -8.2694483181915981e-06 0 -0.011863054034969178 0.0002014522088935198 0 -0.0121380046468667 -8.2694483181915981e-06 0 -0.011704168692925213 -0.00013423888021832576 0 -0.011863054034969178 0.0002014522088935198 0 -0.012513738085418596 0.00032664005802979668 0 -0.0121380046468667 -8.2694483181915981e-06 0 -0.011704168692925213 -0.00013423888021832576 0 -0.011413092008859226 -9.4435764067437046e-05 0 -0.011347263836071111 4.008445901487749e-05 0 -0.011863054034969178 0.0002014522088935198 0 -0.011704168692925213 -0.00013423888021832576 0 -0.011347263836071111 4.008445901487749e-05 0 -0.011704168692925213 -0.00013423888021832576 0 -0.012021283378317963 -0.00020299969956691521 0 -0.011737374502196056 -0.00029587464209788653 0 -0.011704168692925213 -0.00013423888021832576 0 -0.011512775257252618 -0.00020813856233930513 0 -0.011413092008859226 -9.4435764067437046e-05 0 -0.011704168692925213 -0.00013423888021832576 0 -0.011737374502196056 -0.00029587464209788653 0 -0.011512775257252618 -0.00020813856233930513 0 -0.0121380046468667 -8.2694483181915981e-06 0 -0.011704168692925213 -0.00013423888021832576 0 -0.012021283378317963 -0.00020299969956691521 0 -0.0121380046468667 -8.2694483181915981e-06 0 -0.012021283378317963 -0.00020299969956691521 0 -0.012398476028230443 -0.00026534308538541908 0 -0.012021283378317963 -0.00020299969956691521 0 -0.012002292139550955 -0.00040532828571157039 0 -0.012398476028230443 -0.00026534308538541908 0 -0.012021283378317963 -0.00020299969956691521 0 -0.012002292139550955 -0.00040532828571157039 0 -0.011737374502196056 -0.00029587464209788653 0 -0.011737374502196056 -0.00029587464209788653 0 -0.011570193905566802 -0.00034659584125185707 0 -0.011512775257252618 -0.00020813856233930513 0 -0.012002292139550955 -0.00040532828571157039 0 -0.011737374502196056 -0.00029587464209788653 0 -0.011755634171007334 -0.00052717483582006143 0 -0.011737374502196056 -0.00029587464209788653 0 -0.011755634171007334 -0.00052717483582006143 0 -0.011570193905566802 -0.00034659584125185707 0 -0.011755634171007334 -0.00052717483582006143 0 -0.011923013354649714 -0.00078778462468710774 0 -0.011510396574475381 -0.00064973465839053004 0 -0.012002292139550955 -0.00040532828571157039 0 -0.011755634171007334 -0.00052717483582006143 0 -0.01211414525091796 -0.00063773697615074451 0 -0.012002292139550955 -0.00040532828571157039 0 -0.01211414525091796 -0.00063773697615074451 0 -0.012391075323253734 -0.00054611309846833199 0 -0.011755634171007334 -0.00052717483582006143 0 -0.01211414525091796 -0.00063773697615074451 0 -0.011923013354649714 -0.00078778462468710774 0 -0.01211414525091796 -0.00063773697615074451 0 -0.012107637851230549 -0.00090621702199544178 0 -0.011923013354649714 -0.00078778462468710774 0 -0.01211414525091796 -0.00063773697615074451 0 -0.012349122411792699 -0.00085248370698513636 0 -0.012107637851230549 -0.00090621702199544178 0 -0.01211414525091796 -0.00063773697615074451 0 -0.012391075323253734 -0.00054611309846833199 0 -0.012349122411792699 -0.00085248370698513636 0 -0.012391075323253734 -0.00054611309846833199 0 -0.012652965493440462 -0.00076261766488055593 0 -0.012349122411792699 -0.00085248370698513636 0 -0.012391075323253734 -0.00054611309846833199 0 -0.01277044416284346 -0.00051296686592991057 0 -0.012652965493440462 -0.00076261766488055593 0 -0.012002292139550955 -0.00040532828571157039 0 -0.012391075323253734 -0.00054611309846833199 0 -0.012398476028230443 -0.00026534308538541908 0 -0.012391075323253734 -0.00054611309846833199 0 -0.012398476028230443 -0.00026534308538541908 0 -0.01277044416284346 -0.00051296686592991057 0 -0.013245449340487332 -0.0002061865195513131 0 -0.012791305927413088 -0.00023918539040125309 0 -0.01277044416284346 -0.00051296686592991057 0 -0.012398476028230443 -0.00026534308538541908 0 -0.012791305927413088 -0.00023918539040125309 0 -0.01277044416284346 -0.00051296686592991057 0 -0.01326927807772937 -0.00070149481113495607 0 -0.01277044416284346 -0.00051296686592991057 0 -0.01294784433457361 -0.00085839444426506501 0 -0.01277044416284346 -0.00051296686592991057 0 -0.012652965493440462 -0.00076261766488055593 0 -0.01294784433457361 -0.00085839444426506501 0 -0.013059267078307863 -0.0011090625927359533 0 -0.01294784433457361 -0.00085839444426506501 0 -0.01281756557247812 -0.0010467718187226035 0 -0.012652965493440462 -0.00076261766488055593 0 -0.01294784433457361 -0.00085839444426506501 0 -0.01281756557247812 -0.0010467718187226035 0 -0.013108290011589309 -0.001340112579541315 0 -0.013059267078307863 -0.0011090625927359533 0 -0.01281756557247812 -0.0010467718187226035 0 -0.012652965493440462 -0.00076261766488055593 0 -0.01281756557247812 -0.0010467718187226035 0 -0.012349122411792699 -0.00085248370698513636 0 -0.012349122411792699 -0.00085248370698513636 0 -0.0127969877379883 -0.0012928413748444904 0 -0.012295875113893771 -0.0012671904833477653 0 -0.012394936271525795 -0.0008516575274617915 0 -0.012708065914253202 -0.0014051332697988782 0 -0.01281756557247812 -0.0010467718187226035 0 -0.012349122411792699 -0.00085248370698513636 0 -0.012793710954264679 -0.0013389096572619993 0 -0.013895406997583704 -0.0007507673326188288 0 -0.013666744079890471 -0.00063762026095808032 0 -0.014987071747231776 -7.6802317642781853e-06 0 -0.014985667950772394 -7.9617172388622308e-06 0 -0.014980731881681763 -2.4054549810553385e-06 0 -0.0127969877379883 -0.0012928413748444904 0 -0.012765670550933529 -0.001514886871762283 0 -0.012295875113893771 -0.0012671904833477653 0 -0.013108290011589309 -0.001340112579541315 0 -0.01281756557247812 -0.0010467718187226035 0 -0.012793710954264679 -0.0013389096572619993 0 -0.013126832743260144 -0.0014850163909805633 0 -0.013108290011589309 -0.001340112579541315 0 -0.012793710954264679 -0.0013389096572619993 0 -0.01499194758339107 -6.4349769277606932e-06 0 -0.014987071747231776 -7.6802317642781853e-06 0 -0.014993699088086171 -4.4854939048408407e-06 0 -0.013930423869912577 -0.0010486782504615388 0 -0.012708065914253202 -0.0014051332697988782 0 -0.013930423869912577 -0.0010486782504615388 0 -0.013895406997583704 -0.0007507673326188288 0 -0.013256570514232482 -0.0017597289339449497 0 -0.0127969877379883 -0.0012928413748444904 0 -0.012765670550933529 -0.001514886871762283 0 -0.014987071747231776 -7.6802317642781853e-06 0 -0.014985667950772394 -7.9617172388622308e-06 0 -0.014993699088086171 -4.4854939048408407e-06 0 -0.014985667950772394 -7.9617172388622308e-06 0 -0.014993699088086171 -4.4854939048408407e-06 0 -0.014991480338402655 -4.3938037676807925e-06 0 -0.014999986630310954 -5.5039766077076764e-09 0 -0.014993699088086171 -4.4854939048408407e-06 0 -0.014991480338402655 -4.3938037676807925e-06 0 -0.014997006575631369 -2.3951282843951449e-06 0 -0.014993699088086171 -4.4854939048408407e-06 0 -0.014999990868703003 -3.5031402945743549e-09 0 -0.014999986630310954 -5.5039766077076764e-09 0 -0.014993699088086171 -4.4854939048408407e-06 0 -0.014999990868703003 -3.5031402945743549e-09 0 -0.014999985489755212 3.3629881706922297e-10 0 -0.014989684678173522 -4.839917607955233e-06 0 -0.014994552073348716 -5.7990113275277642e-06 0 -0.014999985489755212 3.3629881706922297e-10 0 -0.014991480338402655 -4.3938037676807925e-06 0 -0.014989684678173522 -4.839917607955233e-06 0 -0.014999986630310954 -5.5039766077076764e-09 0 -0.014999985489755212 3.3629881706922297e-10 0 -0.014991480338402655 -4.3938037676807925e-06 0 -0.014991480338402655 -4.3938037676807925e-06 0 -0.014982016966220962 -7.7719052437141298e-06 0 -0.014989684678173522 -4.839917607955233e-06 0 -0.014985667950772394 -7.9617172388622308e-06 0 -0.014991480338402655 -4.3938037676807925e-06 0 -0.014982016966220962 -7.7719052437141298e-06 0 -0.014985667950772394 -7.9617172388622308e-06 0 -0.014982016966220962 -7.7719052437141298e-06 0 -0.014968989390406175 -1.2500264010629263e-05 0 -0.014982016966220962 -7.7719052437141298e-06 0 -0.014983448553968867 -9.5019470602235257e-06 0 -0.014989684678173522 -4.839917607955233e-06 0 -0.014982016966220962 -7.7719052437141298e-06 0 -0.014983448553968867 -9.5019470602235257e-06 0 -0.014968989390406175 -1.2500264010629263e-05 0 -0.014983448553968867 -9.5019470602235257e-06 0 -0.014989684678173522 -4.839917607955233e-06 0 -0.014994552073348716 -5.7990113275277642e-06 0 -0.014983448553968867 -9.5019470602235257e-06 0 -0.014968989390406175 -1.2500264010629263e-05 0 -0.014981478634720624 -2.6422382163583614e-05 0 -0.014983448553968867 -9.5019470602235257e-06 0 -0.014981478634720624 -2.6422382163583614e-05 0 -0.014994552073348716 -5.7990113275277642e-06 0 -0.014968989390406175 -1.2500264010629263e-05 0 -0.014902000952947334 1.8723510774850336e-05 0 -0.014908162533709211 3.2885838018321939e-05 0 -0.014199194912813724 -0.00016432737592705245 0 -0.014648674077252488 -0.00013223589353162802 0 -0.014968989390406175 -1.2500264010629263e-05 0 -0.014980731881681763 -2.4054549810553385e-06 0 -0.014908162533709211 3.2885838018321939e-05 0 -0.014985667950772394 -7.9617172388622308e-06 0 -0.014968989390406175 -1.2500264010629263e-05 0 -0.014980731881681763 -2.4054549810553385e-06 0 -0.015095498367726817 -0.00010204707739490576 0 -0.014199194912813724 -0.00016432737592705245 0 -0.012349122411792699 -0.00085248370698513636 0 -0.012295875113893771 -0.0012671904833477653 0 -0.012107637851230549 -0.00090621702199544178 0 -0.012295875113893771 -0.0012671904833477653 0 -0.012107637851230549 -0.00090621702199544178 0 -0.011834407923165681 -0.0010090550473685811 0 -0.013666744079890471 -0.00063762026095808032 0 -0.013161320872758975 -0.0005550271834792802 0 -0.012107637851230549 -0.00090621702199544178 0 -0.011834407923165681 -0.0010090550473685811 0 -0.011923013354649714 -0.00078778462468710774 0 -0.013161320872758975 -0.0005550271834792802 0 -0.013019877360609975 -0.00030026632650225117 0 -0.011856368293227823 -0.00093233810151627954 0 -0.011923013354649714 -0.00078778462468710774 0 -0.011510396574475381 -0.00064973465839053004 0 -0.013666953733354477 -0.00052521101158695994 0 -0.013722489554408844 -0.00040116242765917738 0 -0.013162013706168776 -9.6294412743264286e-05 0 -0.014199194912813724 -0.00016432737592705245 0 -0.013019877360609975 -0.00030026632650225117 0 -0.014199194912813724 -0.00016432737592705245 0 -0.013161320872758975 -0.0005550271834792802 0 -0.013161320872758975 -0.0005550271834792802 0 -0.012287429668287832 -0.001075861827436482 0 -0.01408255430543499 -0.00028362710280865113 0 -0.013910477101847852 -0.00034887033508645954 0 -0.013922660376147053 -0.00011071742815420361 0 -0.013457093211081156 -0.00024093883435845039 0 -0.013910477101847852 -0.00034887033508645954 0 -0.013922660376147053 -0.00011071742815420361 0 -0.013457093211081156 -0.00024093883435845039 0 -0.013910477101847852 -0.00034887033508645954 0 -0.013332167170564985 -0.00039231278142647335 0 -0.013457093211081156 -0.00024093883435845039 0 -0.013332167170564985 -0.00039231278142647335 0 -0.012651930152786451 4.1319815856177737e-05 0 -0.013910477101847852 -0.00034887033508645954 0 -0.014442803616362868 -0.00015276430328800759 0 -0.013332167170564985 -0.00039231278142647335 0 -0.014312090763594847 -0.00016931744592711058 0 -0.01355538070107511 -0.00020617653734512624 0 -0.01408255430543499 -0.00028362710280865113 0 -0.013910477101847852 -0.00034887033508645954 0 -0.014181777411291788 -0.00023160245574165277 0 -0.014181777411291788 -0.00023160245574165277 0 -0.014442803616362868 -0.00015276430328800759 0 -0.014997776686485036 -5.0201703805947578e-08 0 -0.013910477101847852 -0.00034887033508645954 0 -0.014181777411291788 -0.00023160245574165277 0 -0.014442803616362868 -0.00015276430328800759 0 -0.014999985489755212 3.3629881706922297e-10 0 -0.014994552073348716 -5.7990113275277642e-06 0 -0.015000005627554831 -3.2919445610170725e-09 0 -0.014648674077252488 -0.00013223589353162802 0 -0.014999761529722868 -1.5049940003543096e-07 0 -0.014442803616362868 -0.00015276430328800759 0 -0.01499946919495841 -2.0374214021040013e-07 0 -0.013772723322714646 -8.4412961689269279e-05 0 -0.014442803616362868 -0.00015276430328800759 0 -0.014997776686485036 -5.0201703805947578e-08 0 -0.01499946919495841 -2.0374214021040013e-07 0 -0.01499946919495841 -2.0374214021040013e-07 0 -0.013772723322714646 -8.4412961689269279e-05 0 -0.013199838590416461 -1.5828222545636625e-07 0 -0.013199838590416461 -1.5828222545636625e-07 0 -0.012941783194655348 2.2856642445264968e-05 0 -0.011881574311388922 1.4993947324501267e-07 0 -0.012466515905302801 4.2428821832622437e-05 0 -0.011597141495023146 -1.8521016946786938e-05 0 -0.01176133122822736 6.9725782837070884e-05 0 -0.011987525717296929 6.2794908131080245e-05 0 -0.011531558449653073 -3.6236860652730778e-06 0 -0.011987525717296929 6.2794908131080245e-05 0 -0.012341725137756195 6.233551674581704e-05 0 -0.012651930152786451 4.1319815856177737e-05 0 -0.01176133122822736 6.9725782837070884e-05 0 -0.011987525717296929 6.2794908131080245e-05 0 -0.012341725137756195 6.233551674581704e-05 0 -0.013332167170564985 -0.00039231278142647335 0 -0.011987525717296929 6.2794908131080245e-05 0 -0.012651930152786451 4.1319815856177737e-05 0 -0.013772723322714646 -8.4412961689269279e-05 0 -0.013199838590416461 -1.5828222545636625e-07 0 -0.012941783194655348 2.2856642445264968e-05 0 -0.01355538070107511 -0.00020617653734512624 0 -0.012466515905302801 4.2428821832622437e-05 0 -0.013017029560880928 9.878112489510736e-05 0 -0.012651930152786451 4.1319815856177737e-05 0 -0.013687059724580633 -0.00040085535874501865 0 -0.013044839054581552 -3.018874003605096e-06 0 -0.013019877360609975 -0.00030026632650225117 0 -0.013457093211081156 -0.00024093883435845039 0 -0.012651930152786451 4.1319815856177737e-05 0 -0.013922660376147053 -0.00011071742815420361 0 -0.012341725137756195 6.233551674581704e-05 0 -0.013017029560880928 9.878112489510736e-05 0 -0.012651930152786451 4.1319815856177737e-05 0 -0.011755634171007334 -0.00052717483582006143 0 -0.011510396574475381 -0.00064973465839053004 0 -0.011570193905566802 -0.00034659584125185707 0 -0.011346320134414301 -0.00025419167455528827 0 -0.011510396574475381 -0.00064973465839053004 0 -0.011431430980934945 -0.00023872378587574793 0 -0.011510396574475381 -0.00064973465839053004 0 -0.011570193905566802 -0.00034659584125185707 0 -0.011431430980934945 -0.00023872378587574793 0 -0.01216057420306774 -0.00013038973404462721 0 -0.013019877360609975 -0.00030026632650225117 0 -0.011570193905566802 -0.00034659584125185707 0 -0.011431430980934945 -0.00023872378587574793 0 -0.011512775257252618 -0.00020813856233930513 0 -0.011431430980934945 -0.00023872378587574793 0 -0.011512775257252618 -0.00020813856233930513 0 -0.011374366129270945 -0.00013580999946772188 0 -0.01176133122822736 6.9725782837070884e-05 0 -0.011346320134414301 -0.00025419167455528827 0 -0.01141755404691369 -0.00012121454476853761 0 -0.01190354109494123 1.2252415609384207e-05 0 -0.01216057420306774 -0.00013038973404462721 0 -0.01176133122822736 6.9725782837070884e-05 0 -0.012341725137756195 6.233551674581704e-05 0 -0.013017029560880928 9.878112489510736e-05 0 -0.011346320134414301 -0.00025419167455528827 0 -0.011431430980934945 -0.00023872378587574793 0 -0.01141755404691369 -0.00012121454476853761 0 -0.011431430980934945 -0.00023872378587574793 0 -0.01141755404691369 -0.00012121454476853761 0 -0.011374366129270945 -0.00013580999946772188 0 -0.01141755404691369 -0.00012121454476853761 0 -0.011423570180942363 -8.7564850815595024e-05 0 -0.011374366129270945 -0.00013580999946772188 0 -0.01176133122822736 6.9725782837070884e-05 0 -0.01141755404691369 -0.00012121454476853761 0 -0.011423570180942363 -8.7564850815595024e-05 0 -0.011423570180942363 -8.7564850815595024e-05 0 -0.011374366129270945 -0.00013580999946772188 0 -0.011287207017495872 -8.2127790920389656e-05 0 -0.011423570180942363 -8.7564850815595024e-05 0 -0.011287207017495872 -8.2127790920389656e-05 0 -0.011310055209774499 -5.8124508743286079e-05 0 -0.011374366129270945 -0.00013580999946772188 0 -0.011287207017495872 -8.2127790920389656e-05 0 -0.011413092008859226 -9.4435764067437046e-05 0 -0.011512775257252618 -0.00020813856233930513 0 -0.011374366129270945 -0.00013580999946772188 0 -0.011413092008859226 -9.4435764067437046e-05 0 -0.010974192531378647 7.2835671313895982e-05 0 -0.011347263836071111 4.008445901487749e-05 0 -0.011215990069942951 -2.1048818716144263e-05 0 -0.011287207017495872 -8.2127790920389656e-05 0 -0.011413092008859226 -9.4435764067437046e-05 0 -0.011215990069942951 -2.1048818716144263e-05 0 -0.011413092008859226 -9.4435764067437046e-05 0 -0.011347263836071111 4.008445901487749e-05 0 -0.011215990069942951 -2.1048818716144263e-05 0 -0.010974192531378647 7.2835671313895982e-05 0 -0.011152178395707505 -2.7659381472769562e-05 0 -0.011215990069942951 -2.1048818716144263e-05 0 -0.011287207017495872 -8.2127790920389656e-05 0 -0.011152178395707505 -2.7659381472769562e-05 0 -0.011215990069942951 -2.1048818716144263e-05 0 -0.011287207017495872 -8.2127790920389656e-05 0 -0.011152178395707505 -2.7659381472769562e-05 0 -0.011310055209774499 -5.8124508743286079e-05 0 -0.010983116423564053 6.0632269522390532e-06 0 -0.011152178395707505 -2.7659381472769562e-05 0 -0.011201324479822382 -2.7601823612561109e-05 0 -0.010983116423564053 6.0632269522390532e-06 0 -0.011201324479822382 -2.7601823612561109e-05 0 -0.011188435146669886 -2.7840616413248164e-05 0 -0.010916826245701533 8.7978664956449721e-08 0 -0.011881574311388922 1.4993947324501267e-07 0 -0.011956687037233163 3.1755684796958231e-05 0 -0.010983116423564053 6.0632269522390532e-06 0 -0.010974192531378647 7.2835671313895982e-05 0 -0.011152178395707505 -2.7659381472769562e-05 0 -0.011152178395707505 -2.7659381472769562e-05 0 -0.011201324479822382 -2.7601823612561109e-05 0 -0.011310055209774499 -5.8124508743286079e-05 0 -0.010915590291678977 -4.8037674325917074e-08 0 -0.010983116423564053 6.0632269522390532e-06 0 -0.011188435146669886 -2.7840616413248164e-05 0 -0.010916737838361874 -9.8739060097831539e-08 0 -0.011597141495023146 -1.8521016946786938e-05 0 -0.012941783194655348 2.2856642445264968e-05 0 -0.011881574311388922 1.4993947324501267e-07 0 -0.011956687037233163 3.1755684796958231e-05 0 -0.011987525717296929 6.2794908131080245e-05 0 -0.011188435146669886 -2.7840616413248164e-05 0 -0.011531558449653073 -3.6236860652730778e-06 0 -0.01176133122822736 6.9725782837070884e-05 0 -0.011423570180942363 -8.7564850815595024e-05 0 -0.011531558449653073 -3.6236860652730778e-06 0 -0.011423570180942363 -8.7564850815595024e-05 0 -0.011531558449653073 -3.6236860652730778e-06 0 -0.011310055209774499 -5.8124508743286079e-05 0 -0.011201324479822382 -2.7601823612561109e-05 0 -0.011310055209774499 -5.8124508743286079e-05 0 -0.011318686948448767 -3.197846088001373e-05 0 -0.011188435146669886 -2.7840616413248164e-05 0 -0.011531558449653073 -3.6236860652730778e-06 0 -0.011318686948448767 -3.197846088001373e-05 0 -0.011531558449653073 -3.6236860652730778e-06 0 -0.011310055209774499 -5.8124508743286079e-05 0 -0.011318686948448767 -3.197846088001373e-05 0 -0.011201324479822382 -2.7601823612561109e-05 0 -0.011188435146669886 -2.7840616413248164e-05 0 -0.011318686948448767 -3.197846088001373e-05 0 -0.014588056405349463 0.00042413322095851807 0 -0.014624337919163812 0.00037598892945318055 0 -0.014631114991915035 0.00041342513959561386 0 -0.014588056405349463 0.00042413322095851807 0 -0.014624337919163812 0.00037598892945318055 0 -0.01457600930501241 0.00037944606337820549 0 -0.014624337919163812 0.00037598892945318055 0 -0.01457600930501241 0.00037944606337820549 0 -0.014617237804957637 0.00032695587665858207 0 -0.014667734353167285 0.00036782929257938321 0 -0.014693595645479307 0.00042811958203134101 0 -0.01472127368264807 0.00034593075821648779 0 -0.014624337919163812 0.00037598892945318055 0 -0.014667734353167285 0.00036782929257938321 0 -0.014649616213024514 0.00033427023038460761 0 -0.014624337919163812 0.00037598892945318055 0 -0.014667734353167285 0.00036782929257938321 0 -0.014631114991915035 0.00041342513959561386 0 -0.014667734353167285 0.00036782929257938321 0 -0.014693595645479307 0.00042811958203134101 0 -0.014631114991915035 0.00041342513959561386 0 -0.01456808182959789 0.00048587652943521626 0 -0.014590873696841034 0.0004892273776474378 0 -0.014598627072304362 0.0005006705155761157 0 -0.012597886338446381 0.0012392199803683591 0 -0.011667597073570003 0.0011234514398139671 0 -0.014693595645479307 0.00042811958203134101 0 -0.014631114991915035 0.00041342513959561386 0 -0.014596355223850135 0.00047507635352868051 0 -0.0085512732458075964 0.0023021965664824376 0 -0.008388149976554576 0.0019360982067029903 0 -0.0087777985908422725 0.0017022828968647698 0 -0.012597886338446381 0.0012392199803683591 0 -0.015283369264614571 9.2763186754266612e-05 0 -0.01456808182959789 0.00048587652943521626 0 -0.014596355223850135 0.00047507635352868051 0 -0.014590873696841034 0.0004892273776474378 0 -0.014588056405349463 0.00042413322095851807 0 -0.014596355223850135 0.00047507635352868051 0 -0.014557649590101305 0.00044944380207420794 0 -0.014596355223850135 0.00047507635352868051 0 -0.014557649590101305 0.00044944380207420794 0 -0.014590873696841034 0.0004892273776474378 0 -0.014588056405349463 0.00042413322095851807 0 -0.014631114991915035 0.00041342513959561386 0 -0.014596355223850135 0.00047507635352868051 0 -0.014446567599176705 0.00038155296879746023 0 -0.014331856254625422 0.0003577193536337636 0 -0.01435324464178633 0.00028997861364592762 0 -0.014446567599176705 0.00038155296879746023 0 -0.014331856254625422 0.0003577193536337636 0 -0.014352716680034336 0.00045564867876043546 0 -0.014557649590101305 0.00044944380207420794 0 -0.014515676001045908 0.00037329126585476267 0 -0.01457600930501241 0.00037944606337820549 0 -0.014502717196505491 0.00041914611764739141 0 -0.014437772846466317 0.00033093977398017822 0 -0.014588056405349463 0.00042413322095851807 0 -0.014557649590101305 0.00044944380207420794 0 -0.01457600930501241 0.00037944606337820549 0 -0.014515676001045908 0.00037329126585476267 0 -0.01457600930501241 0.00037944606337820549 0 -0.014576103469020619 0.00031461681822204788 0 -0.01457600930501241 0.00037944606337820549 0 -0.014576103469020619 0.00031461681822204788 0 -0.014617237804957637 0.00032695587665858207 0 -0.014515676001045908 0.00037329126585476267 0 -0.014576103469020619 0.00031461681822204788 0 -0.014541938947872105 0.00027965219143958621 0 -0.014515676001045908 0.00037329126585476267 0 -0.014541938947872105 0.00027965219143958621 0 -0.014451047149683587 0.00030392251425574886 0 -0.014576103469020619 0.00031461681822204788 0 -0.014541938947872105 0.00027965219143958621 0 -0.014595634884098081 0.00026045142432228112 0 -0.014541938947872105 0.00027965219143958621 0 -0.014595634884098081 0.00026045142432228112 0 -0.014603661048407986 0.0002257245364641066 0 -0.014576103469020619 0.00031461681822204788 0 -0.014595634884098081 0.00026045142432228112 0 -0.014622501569127725 0.00027333234991225671 0 -0.014595634884098081 0.00026045142432228112 0 -0.014622501569127725 0.00027333234991225671 0 -0.014639885253143938 0.00021823757061421604 0 -0.014659044087239398 0.00022818359814595656 0 -0.014622501569127725 0.00027333234991225671 0 -0.014639885253143938 0.00021823757061421604 0 -0.014659044087239398 0.00022818359814595656 0 -0.014675583712984597 0.00018633450099790207 0 -0.014639885253143938 0.00021823757061421604 0 -0.014659044087239398 0.00022818359814595656 0 -0.014622501569127725 0.00027333234991225671 0 -0.014660902790708735 0.00028216337048249639 0 -0.014576103469020619 0.00031461681822204788 0 -0.014622501569127725 0.00027333234991225671 0 -0.014617237804957637 0.00032695587665858207 0 -0.014617237804957637 0.00032695587665858207 0 -0.014649616213024514 0.00033427023038460761 0 -0.014660902790708735 0.00028216337048249639 0 -0.014622501569127725 0.00027333234991225671 0 -0.014617237804957637 0.00032695587665858207 0 -0.014660902790708735 0.00028216337048249639 0 -0.014624337919163812 0.00037598892945318055 0 -0.014617237804957637 0.00032695587665858207 0 -0.014649616213024514 0.00033427023038460761 0 -0.014679017806535943 0.00031824767539344529 0 -0.014689546192612053 0.00026670399033473579 0 -0.01472127368264807 0.00034593075821648779 0 -0.01460732008561005 0.00024652301145633985 0 -0.013738992764424236 0.0002020947749492815 0 -0.014667734353167285 0.00036782929257938321 0 -0.014679017806535943 0.00031824767539344529 0 -0.01472127368264807 0.00034593075821648779 0 -0.014667734353167285 0.00036782929257938321 0 -0.014679017806535943 0.00031824767539344529 0 -0.014649616213024514 0.00033427023038460761 0 -0.014679017806535943 0.00031824767539344529 0 -0.014649616213024514 0.00033427023038460761 0 -0.014660902790708735 0.00028216337048249639 0 -0.014679017806535943 0.00031824767539344529 0 -0.014660902790708735 0.00028216337048249639 0 -0.014689546192612053 0.00026670399033473579 0 -0.014693156967374709 0.00018170694828433562 0 -0.014690811951462792 0.00015611694908401373 0 -0.014687792844897105 0.00012912647103909065 0 -0.01460732008561005 0.00024652301145633985 0 -0.014636071673456505 0.0002276491900285016 0 -0.014660902790708735 0.00028216337048249639 0 -0.014725583299144687 0.00024353625074918263 0 -0.014681419937125916 0.00023457384056838206 0 -0.014659044087239398 0.00022818359814595656 0 -0.014660902790708735 0.00028216337048249639 0 -0.014681419937125916 0.00023457384056838206 0 -0.014668970181787234 0.00025132082159225389 0 -0.01460732008561005 0.00024652301145633985 0 -0.014725583299144687 0.00024353625074918263 0 -0.014681419937125916 0.00023457384056838206 0 -0.014692843508508403 0.00018639611870753008 0 -0.014692843508508403 0.00018639611870753008 0 -0.014675583712984597 0.00018633450099790207 0 -0.014690811951462792 0.00015611694908401373 0 -0.014659044087239398 0.00022818359814595656 0 -0.014692843508508403 0.00018639611870753008 0 -0.014675583712984597 0.00018633450099790207 0 -0.014659044087239398 0.00022818359814595656 0 -0.014681419937125916 0.00023457384056838206 0 -0.014692843508508403 0.00018639611870753008 0 -0.014693156967374709 0.00018170694828433562 0 -0.014692843508508403 0.00018639611870753008 0 -0.014690811951462792 0.00015611694908401373 0 -0.01460732008561005 0.00024652301145633985 0 -0.014277294978388162 -4.7985138510334904e-05 0 -0.014149685836900393 0.00010551593748835947 0 -0.014221303435555889 6.6347735279296955e-05 0 -0.014182920333924268 0.00017918414202495499 0 -0.014693156967374709 0.00018170694828433562 0 -0.014687792844897105 0.00012912647103909065 0 -0.014678843415844968 9.5129165504938534e-05 0 -0.014693156967374709 0.00018170694828433562 0 -0.014678233026895809 0.00010014290396423854 0 -0.014678843415844968 9.5129165504938534e-05 0 -0.013881699869589162 -0.00019381377429259465 0 -0.013909309038113828 -0.00020299081787153835 0 -0.013891364139066558 -0.00016331713358870979 0 -0.013855874624244213 -0.00021216348616572974 0 -0.013881699869589162 -0.00019381377429259465 0 -0.013884631724863775 -0.00021549380758741754 0 -0.013881699869589162 -0.00019381377429259465 0 -0.013909309038113828 -0.00020299081787153835 0 -0.013884631724863775 -0.00021549380758741754 0 -0.013855874624244213 -0.00021216348616572974 0 -0.013881699869589162 -0.00019381377429259465 0 -0.013851272643773961 -0.00016735808175436756 0 -0.013881699869589162 -0.00019381377429259465 0 -0.013851272643773961 -0.00016735808175436756 0 -0.013891364139066558 -0.00016331713358870979 0 -0.013851272643773961 -0.00016735808175436756 0 -0.013891364139066558 -0.00016331713358870979 0 -0.013810387861215185 -9.7276375551009746e-05 0 -0.013855874624244213 -0.00021216348616572974 0 -0.013851272643773961 -0.00016735808175436756 0 -0.013800895738066142 -0.00013351580768971777 0 -0.014277294978388162 -4.7985138510334904e-05 0 -0.013738992764424236 0.0002020947749492815 0 -0.013851272643773961 -0.00016735808175436756 0 -0.013800895738066142 -0.00013351580768971777 0 -0.013810387861215185 -9.7276375551009746e-05 0 -0.013884471958257554 -0.0002389102487563253 0 -0.013909309038113828 -0.00020299081787153835 0 -0.013891364139066558 -0.00016331713358870979 0 -0.01269821126641474 0.00021035481223225725 0 -0.01291570151735824 0.00013607439712382848 0 -0.011618828882875252 0.00059791921949060107 0 -0.01148679308229153 0.00068466577515519176 0 -0.011594566056588337 0.00074893181377964023 0 -0.01148679308229153 0.00068466577515519176 0 -0.011594566056588337 0.00074893181377964023 0 -0.01147182903037091 0.00079394983895382152 0 -0.011594566056588337 0.00074893181377964023 0 -0.01147182903037091 0.00079394983895382152 0 -0.011526318093899377 0.0008972137589171404 0 -0.011594566056588337 0.00074893181377964023 0 -0.011526318093899377 0.0008972137589171404 0 -0.011635521464711937 0.00085505568934782737 0 -0.012589847173732002 0.0010947643188213712 0 -0.012794038329641419 0.00049536552130226709 0 -0.012971373014545564 0.00086185830461093398 0 -0.012597886338446381 0.0012392199803683591 0 -0.013738992764424236 0.0002020947749492815 0 -0.012597886338446381 0.0012392199803683591 0 -0.01153346972514451 0.00084456485345185868 0 -0.013738992764424236 0.0002020947749492815 0 -0.01153346972514451 0.00084456485345185868 0 -0.01291570151735824 0.00013607439712382848 0 -0.01153346972514451 0.00084456485345185868 0 -0.01148679308229153 0.00068466577515519176 0 -0.011359123806586671 0.00076324319958185932 0 -0.01147182903037091 0.00079394983895382152 0 -0.011359123806586671 0.00076324319958185932 0 -0.01147182903037091 0.00079394983895382152 0 -0.011414104787988153 0.00088184226868836255 0 -0.01147182903037091 0.00079394983895382152 0 -0.011414104787988153 0.00088184226868836255 0 -0.011526318093899377 0.0008972137589171404 0 -0.0082916679846835005 0.0024595641230747349 0 -0.008388149976554576 0.0019360982067029903 0 -0.0079516188644135864 0.0018764016004839481 0 -0.01153346972514451 0.00084456485345185868 0 -0.0094903257004059719 0.0014546981430014142 0 -0.0085512732458075964 0.0023021965664824376 0 -0.0082916679846835005 0.0024595641230747349 0 -0.008388149976554576 0.0019360982067029903 0 -0.0082202585774953374 0.001610962630290974 0 -0.0079516188644135864 0.0018764016004839481 0 -0.007997842341834864 0.0014257153213196605 0 -0.008388149976554576 0.0019360982067029903 0 -0.0082202585774953374 0.001610962630290974 0 -0.0085895740401765626 0.0016378844259692883 0 -0.008388149976554576 0.0019360982067029903 0 -0.0082202585774953374 0.001610962630290974 0 -0.0079516188644135864 0.0018764016004839481 0 -0.0082202585774953374 0.001610962630290974 0 -0.0083986899519044832 0.0014557791263455212 0 -0.0085895740401765626 0.0016378844259692883 0 -0.0079516188644135864 0.0018764016004839481 0 -0.007997842341834864 0.0014257153213196605 0 -0.007668275502074301 0.0013090062902216455 0 -0.0094903257004059719 0.0014546981430014142 0 -0.0095911214383096535 0.0011375206028426314 0 -0.007997842341834864 0.0014257153213196605 0 -0.007668275502074301 0.0013090062902216455 0 -0.007948444353667693 0.0011012697578612432 0 -0.007997842341834864 0.0014257153213196605 0 -0.0082071334712693275 0.0012831419150168108 0 -0.007948444353667693 0.0011012697578612432 0 -0.0082202585774953374 0.001610962630290974 0 -0.0082071334712693275 0.0012831419150168108 0 -0.0083986899519044832 0.0014557791263455212 0 -0.0082071334712693275 0.0012831419150168108 0 -0.0083986899519044832 0.0014557791263455212 0 -0.0085866613812462748 0.001277277314060929 0 -0.0082202585774953374 0.001610962630290974 0 -0.007997842341834864 0.0014257153213196605 0 -0.0082071334712693275 0.0012831419150168108 0 -0.011526318093899377 0.0008972137589171404 0 -0.011635521464711937 0.00085505568934782737 0 -0.011615024841448194 0.0009503869648488691 0 -0.011414104787988153 0.00088184226868836255 0 -0.011526318093899377 0.0008972137589171404 0 -0.011468206171569842 0.00097675448523546014 0 -0.011526318093899377 0.0008972137589171404 0 -0.011468206171569842 0.00097675448523546014 0 -0.01154167044385151 0.00099609441321196605 0 -0.01154167044385151 0.00099609441321196605 0 -0.011613993209461465 0.001004142508093619 0 -0.011615024841448194 0.0009503869648488691 0 -0.011526318093899377 0.0008972137589171404 0 -0.01154167044385151 0.00099609441321196605 0 -0.011615024841448194 0.0009503869648488691 0 -0.01154167044385151 0.00099609441321196605 0 -0.011509957577415931 0.0010434860800690828 0 -0.01157416396525161 0.0010498130975902513 0 -0.01154167044385151 0.00099609441321196605 0 -0.01157416396525161 0.0010498130975902513 0 -0.011613993209461465 0.001004142508093619 0 -0.011468206171569842 0.00097675448523546014 0 -0.01154167044385151 0.00099609441321196605 0 -0.011509957577415931 0.0010434860800690828 0 -0.0095911214383096535 0.0011375206028426314 0 -0.0094940460766202318 0.00099440010506755502 0 -0.007668275502074301 0.0013090062902216455 0 -0.0074807395672620821 0.00094056067031010994 0 -0.0077404878858102349 0.00097233231733347125 0 -0.0073360215305549549 0.00062045297120570187 0 -0.0074807395672620821 0.00094056067031010994 0 -0.0075663376487687499 0.00075362264634108776 0 -0.0074807395672620821 0.00094056067031010994 0 -0.0075663376487687499 0.00075362264634108776 0 -0.0077404878858102349 0.00097233231733347125 0 -0.011530282175722646 0.0010907668394262847 0 -0.011509957577415931 0.0010434860800690828 0 -0.01157416396525161 0.0010498130975902513 0 -0.0094287926635148647 0.00084686689840564355 0 -0.0094940460766202318 0.00099440010506755502 0 -0.0079613600429108249 0.0010824480293016407 0 -0.0082104288310286284 0.00083963911014469804 0 -0.0082071334712693275 0.0012831419150168108 0 -0.0082843440088773562 0.00099364558524318706 0 -0.0085727744501778013 0.00085605558056153644 0 -0.0082843440088773562 0.00099364558524318706 0 -0.007948444353667693 0.0011012697578612432 0 -0.0083795061090015839 0.00072695201704410018 0 -0.007948444353667693 0.0011012697578612432 0 -0.0078969816825983623 0.00092861489893389002 0 -0.008047588883307805 0.00092643139544231325 0 -0.0082071334712693275 0.0012831419150168108 0 -0.0082843440088773562 0.00099364558524318706 0 -0.007948444353667693 0.0011012697578612432 0 -0.007668275502074301 0.0013090062902216455 0 -0.007948444353667693 0.0011012697578612432 0 -0.0077404878858102349 0.00097233231733347125 0 -0.007948444353667693 0.0011012697578612432 0 -0.0077404878858102349 0.00097233231733347125 0 -0.0078969816825983623 0.00092861489893389002 0 -0.0077404878858102349 0.00097233231733347125 0 -0.0077624857140799232 0.00081823737032014746 0 -0.0078969816825983623 0.00092861489893389002 0 -0.0075663376487687499 0.00075362264634108776 0 -0.0077404878858102349 0.00097233231733347125 0 -0.0077624857140799232 0.00081823737032014746 0 -0.0077357926638032311 0.00066736059122332299 0 -0.0075663376487687499 0.00075362264634108776 0 -0.0077624857140799232 0.00081823737032014746 0 -0.0077357926638032311 0.00066736059122332299 0 -0.0077624857140799232 0.00081823737032014746 0 -0.0079096257199598556 0.00080292941547171787 0 -0.0077624857140799232 0.00081823737032014746 0 -0.0079096257199598556 0.00080292941547171787 0 -0.0078969816825983623 0.00092861489893389002 0 -0.0079096257199598556 0.00080292941547171787 0 -0.0078969816825983623 0.00092861489893389002 0 -0.008047588883307805 0.00092643139544231325 0 -0.0080674848962272155 0.00074915124441615288 0 -0.0079096257199598556 0.00080292941547171787 0 -0.008047588883307805 0.00092643139544231325 0 -0.0085417551112680519 0.00057002509134344013 0 -0.0082104288310286284 0.00083963911014469804 0 -0.0083244337606338415 0.00076881921731587592 0 -0.0080674848962272155 0.00074915124441615288 0 -0.008047588883307805 0.00092643139544231325 0 -0.0087215432088634613 0.00041818629790484665 0 -0.0083795061090015839 0.00072695201704410018 0 -0.0085727744501778013 0.00085605558056153644 0 -0.0093341427681779207 9.135525853555521e-05 0 -0.0091675077850668103 0.00056260067204300102 0 -0.0087679201079777069 0.00067758256118914759 0 -0.0087215432088634613 0.00041818629790484665 0 -0.0089281849772274852 0.00047444937685106614 0 -0.0085727744501778013 0.00085605558056153644 0 -0.0095587670495185205 0.00045346398323775703 0 -0.0086004104734496191 0.0007682878853682661 0 -0.0095587670495185205 0.00045346398323775703 0 -0.010258206908037356 0.00067631641640327768 0 -0.011392621888706701 0.00067711253491725394 0 -0.011359162978200084 0.00076315770116553881 0 -0.011404112407050988 0.00074024692489972307 0 -0.011359162978200084 0.00076315770116553881 0 -0.011404112407050988 0.00074024692489972307 0 -0.011321317875037302 0.00085092181064777474 0 -0.014485489465076815 0.00082925224951778506 0 -0.014566433328061614 0.00067044202679478605 0 -0.014412941905394732 0.00071105803400843754 0 -0.013163512034739429 0.00068549235926696742 0 -0.011003955687136387 0.00079481041691180213 0 -0.010258206908037356 0.00067631641640327768 0 -0.011003955687136387 0.00079481041691180213 0 -0.0091675077850668103 0.00056260067204300102 0 -0.0089926746878995663 0.0010406778162472059 0 -0.0087679201079777069 0.00067758256118914759 0 -0.0082511249696957077 0.0012498738265447572 0 -0.0086004104734496191 0.0007682878853682661 0 -0.0082071334712693275 0.0012831419150168108 0 -0.0087679201079777069 0.00067758256118914759 0 -0.008641555065692693 0.0010696845444477651 0 -0.0082843440088773562 0.00099364558524318706 0 -0.0083795061090015839 0.00072695201704410018 0 -0.0085727744501778013 0.00085605558056153644 0 -0.0089926746878995663 0.0010406778162472059 0 -0.0087679201079777069 0.00067758256118914759 0 -0.008641555065692693 0.0010696845444477651 0 -0.0091650917211392267 0.00080674984353687961 0 -0.0087777985908422725 0.0017022828968647698 0 -0.0085895740401765626 0.0016378844259692883 0 -0.011003955687136387 0.00079481041691180213 0 -0.011667597073570003 0.0011234514398139671 0 -0.011003955687136387 0.00079481041691180213 0 -0.0080683876470697569 0.0018188394862134569 0 -0.0082071334712693275 0.0012831419150168108 0 -0.008641555065692693 0.0010696845444477651 0 -0.0085866613812462748 0.001277277314060929 0 -0.0089926746878995663 0.0010406778162472059 0 -0.0085866613812462748 0.001277277314060929 0 -0.0085895740401765626 0.0016378844259692883 0 -0.0083986899519044832 0.0014557791263455212 0 -0.0085866613812462748 0.001277277314060929 0 -0.0085895740401765626 0.0016378844259692883 0 -0.0089926746878995663 0.0010406778162472059 0 -0.008641555065692693 0.0010696845444477651 0 -0.0085866613812462748 0.001277277314060929 0 -0.014566433328061614 0.00067044202679478605 0 -0.014547395503658671 0.00057259899791677678 0 -0.014598627072304362 0.0005006705155761157 0 -0.014566433328061614 0.00067044202679478605 0 -0.014471056825506362 0.00059810330929556345 0 -0.014412941905394732 0.00071105803400843754 0 -0.014566433328061614 0.00067044202679478605 0 -0.014547395503658671 0.00057259899791677678 0 -0.014471056825506362 0.00059810330929556345 0 -0.014547395503658671 0.00057259899791677678 0 -0.014509071473834118 0.00054330042508916009 0 -0.014471056825506362 0.00059810330929556345 0 -0.014547395503658671 0.00057259899791677678 0 -0.014567911847381966 0.00051688649358466797 0 -0.014509071473834118 0.00054330042508916009 0 -0.014502717196505491 0.00041914611764739141 0 -0.014567627576235564 0.00050952845227738154 0 -0.014547395503658671 0.00057259899791677678 0 -0.014567911847381966 0.00051688649358466797 0 -0.014598627072304362 0.0005006705155761157 0 -0.014557649590101305 0.00044944380207420794 0 -0.014567911847381966 0.00051688649358466797 0 -0.014590873696841034 0.0004892273776474378 0 -0.014446567599176705 0.00038155296879746023 0 -0.014567911847381966 0.00051688649358466797 0 -0.01446204602690577 0.00049337086856293905 0 -0.014567911847381966 0.00051688649358466797 0 -0.014509071473834118 0.00054330042508916009 0 -0.01446204602690577 0.00049337086856293905 0 -0.014567911847381966 0.00051688649358466797 0 -0.014590873696841034 0.0004892273776474378 0 -0.014598627072304362 0.0005006705155761157 0 -0.008388149976554576 0.0019360982067029903 0 -0.0087777985908422725 0.0017022828968647698 0 -0.0085895740401765626 0.0016378844259692883 0 -0.014331856254625422 0.0003577193536337636 0 -0.014352716680034336 0.00045564867876043546 0 -0.014205115212605932 0.00050339856047691895 0 -0.014352716680034336 0.00045564867876043546 0 -0.014357003502582564 0.0005805340277139383 0 -0.014205115212605932 0.00050339856047691895 0 -0.014446567599176705 0.00038155296879746023 0 -0.014352716680034336 0.00045564867876043546 0 -0.01446204602690577 0.00049337086856293905 0 -0.014352716680034336 0.00045564867876043546 0 -0.01446204602690577 0.00049337086856293905 0 -0.014357003502582564 0.0005805340277139383 0 -0.014509071473834118 0.00054330042508916009 0 -0.01446204602690577 0.00049337086856293905 0 -0.014471056825506362 0.00059810330929556345 0 -0.014471056825506362 0.00059810330929556345 0 -0.014357003502582564 0.0005805340277139383 0 -0.014412941905394732 0.00071105803400843754 0 -0.01446204602690577 0.00049337086856293905 0 -0.014471056825506362 0.00059810330929556345 0 -0.014357003502582564 0.0005805340277139383 0 -0.014357003502582564 0.0005805340277139383 0 -0.014265951964175051 0.00068799031443433337 0 -0.014412941905394732 0.00071105803400843754 0 -0.014357003502582564 0.0005805340277139383 0 -0.014265951964175051 0.00068799031443433337 0 -0.014205115212605932 0.00050339856047691895 0 -0.014265951964175051 0.00068799031443433337 0 -0.014412941905394732 0.00071105803400843754 0 -0.014347950747875232 0.00084621450404214328 0 -0.014265951964175051 0.00068799031443433337 0 -0.014347950747875232 0.00084621450404214328 0 -0.01421772747473265 0.00082096196908271592 0 -0.014485489465076815 0.00082925224951778506 0 -0.014412941905394732 0.00071105803400843754 0 -0.014347950747875232 0.00084621450404214328 0 -0.011480426600887201 0.00063444929090791704 0 -0.011392621888706701 0.00067711253491725394 0 -0.011404112407050988 0.00074024692489972307 0 -0.013031627710554355 0.00081745166581297741 0 -0.013163512034739429 0.00068549235926696742 0 -0.01439144014470169 0.0010072478415957362 0 -0.014485489465076815 0.00082925224951778506 0 -0.014347950747875232 0.00084621450404214328 0 -0.014210607358299748 0.0010014781052482351 0 -0.014347950747875232 0.00084621450404214328 0 -0.01421772747473265 0.00082096196908271592 0 -0.014210607358299748 0.0010014781052482351 0 -0.01421772747473265 0.00082096196908271592 0 -0.014072399431140439 0.00086745159772209425 0 -0.01421772747473265 0.00082096196908271592 0 -0.014072399431140439 0.00086745159772209425 0 -0.014134232959154867 0.00066507669609039899 0 -0.014265951964175051 0.00068799031443433337 0 -0.01421772747473265 0.00082096196908271592 0 -0.014134232959154867 0.00066507669609039899 0 -0.013962131969491209 0.000754000893929405 0 -0.014134232959154867 0.00066507669609039899 0 -0.014029205032797242 0.00061294334801091481 0 -0.014072399431140439 0.00086745159772209425 0 -0.013962131969491209 0.000754000893929405 0 -0.014134232959154867 0.00066507669609039899 0 -0.01388786344347546 0.00093344923046174587 0 -0.014072399431140439 0.00086745159772209425 0 -0.013962131969491209 0.000754000893929405 0 -0.013694498575248274 0.00096774398036314133 0 -0.01388786344347546 0.00093344923046174587 0 -0.013789975876882689 0.00080425227181831719 0 -0.01388786344347546 0.00093344923046174587 0 -0.013789975876882689 0.00080425227181831719 0 -0.013962131969491209 0.000754000893929405 0 -0.013694498575248274 0.00096774398036314133 0 -0.013789975876882689 0.00080425227181831719 0 -0.013599005954806846 0.00088047112897309335 0 -0.013789975876882689 0.00080425227181831719 0 -0.013875128532839478 0.00063931739131723754 0 -0.013725701955159191 0.00067526919061894623 0 -0.013789975876882689 0.00080425227181831719 0 -0.013599005954806846 0.00088047112897309335 0 -0.013725701955159191 0.00067526919061894623 0 -0.013962131969491209 0.000754000893929405 0 -0.013875128532839478 0.00063931739131723754 0 -0.014029205032797242 0.00061294334801091481 0 -0.013789975876882689 0.00080425227181831719 0 -0.013962131969491209 0.000754000893929405 0 -0.013875128532839478 0.00063931739131723754 0 -0.013875128532839478 0.00063931739131723754 0 -0.013974989222909255 0.00050604469525382053 0 -0.014029205032797242 0.00061294334801091481 0 -0.013875128532839478 0.00063931739131723754 0 -0.013833804575318916 0.00051278036399859993 0 -0.013974989222909255 0.00050604469525382053 0 -0.013875128532839478 0.00063931739131723754 0 -0.013833804575318916 0.00051278036399859993 0 -0.013725701955159191 0.00067526919061894623 0 -0.013974989222909255 0.00050604469525382053 0 -0.014113899277799781 0.00041656450749641584 0 -0.01392364909575171 0.00041303925925820841 0 -0.013833804575318916 0.00051278036399859993 0 -0.013974989222909255 0.00050604469525382053 0 -0.01392364909575171 0.00041303925925820841 0 -0.013974989222909255 0.00050604469525382053 0 -0.014205115212605932 0.00050339856047691895 0 -0.014113899277799781 0.00041656450749641584 0 -0.013974989222909255 0.00050604469525382053 0 -0.014205115212605932 0.00050339856047691895 0 -0.014029205032797242 0.00061294334801091481 0 -0.014265951964175051 0.00068799031443433337 0 -0.014205115212605932 0.00050339856047691895 0 -0.014134232959154867 0.00066507669609039899 0 -0.014205115212605932 0.00050339856047691895 0 -0.014134232959154867 0.00066507669609039899 0 -0.014029205032797242 0.00061294334801091481 0 -0.011473305513142429 0.00036175217012272376 0 -0.011979668782958513 -0.00026074108523323642 0 -0.011993924413204146 0.00043345279697296329 0 -0.011979668782958513 -0.00026074108523323642 0 -0.011993924413204146 0.00043345279697296329 0 -0.012439931673863593 0.00028194072111347173 0 -0.013328576534853002 0.00068896382955117917 0 -0.013440622709245049 0.0008667151940307859 0 -0.013523615692976084 0.00061934203866428656 0 -0.012520026638402995 0.00011610421216826779 0 -0.01296706910267101 0.00060067736952557332 0 -0.013440622709245049 0.0008667151940307859 0 -0.013583714016316827 0.00073676394357516427 0 -0.013523615692976084 0.00061934203866428656 0 -0.013440622709245049 0.0008667151940307859 0 -0.013583714016316827 0.00073676394357516427 0 -0.013599005954806846 0.00088047112897309335 0 -0.013583714016316827 0.00073676394357516427 0 -0.013599005954806846 0.00088047112897309335 0 -0.013725701955159191 0.00067526919061894623 0 -0.013583714016316827 0.00073676394357516427 0 -0.013725701955159191 0.00067526919061894623 0 -0.013709784725679009 0.00053063976092065446 0 -0.013833804575318916 0.00051278036399859993 0 -0.013725701955159191 0.00067526919061894623 0 -0.013709784725679009 0.00053063976092065446 0 -0.013833804575318916 0.00051278036399859993 0 -0.013709784725679009 0.00053063976092065446 0 -0.01379788471842657 0.0003786069219387206 0 -0.013709784725679009 0.00053063976092065446 0 -0.013700744382360077 0.00037705218279822752 0 -0.01379788471842657 0.0003786069219387206 0 -0.013709784725679009 0.00053063976092065446 0 -0.013700744382360077 0.00037705218279822752 0 -0.013523615692976084 0.00061934203866428656 0 -0.013583714016316827 0.00073676394357516427 0 -0.013709784725679009 0.00053063976092065446 0 -0.013523615692976084 0.00061934203866428656 0 -0.013328576534853002 0.00068896382955117917 0 -0.013523615692976084 0.00061934203866428656 0 -0.01338975200112893 0.00042520970787469312 0 -0.013656231295209782 0.00037663985217342526 0 -0.013732922813445497 0.00037267163409678071 0 -0.013700744382360077 0.00037705218279822752 0 -0.013523615692976084 0.00061934203866428656 0 -0.01338975200112893 0.00042520970787469312 0 -0.013060377264343635 0.00016919772917038174 0 -0.013732922813445497 0.00037267163409678071 0 -0.013974230458946245 0.00028767831815653598 0 -0.013967499606157693 0.00036969205282549026 0 -0.013875042873530478 0.00030623380775331524 0 -0.013164250041146595 0.00047684541292894743 0 -0.013328576534853002 0.00068896382955117917 0 -0.01338975200112893 0.00042520970787469312 0 -0.013060377264343635 0.00016919772917038174 0 -0.012520026638402995 0.00011610421216826779 0 -0.014009633737498653 0.0004205857293049778 0 -0.013876024118512749 0.00038990256925141176 0 -0.013993272934878117 0.00043131372260250849 0 -0.013967499606157693 0.00036969205282549026 0 -0.014009633737498653 0.0004205857293049778 0 -0.013876024118512749 0.00038990256925141176 0 -0.013967499606157693 0.00036969205282549026 0 -0.013875042873530478 0.00030623380775331524 0 -0.013876024118512749 0.00038990256925141176 0 -0.013700744382360077 0.00037705218279822752 0 -0.013875042873530478 0.00030623380775331524 0 -0.013876024118512749 0.00038990256925141176 0 -0.013876024118512749 0.00038990256925141176 0 -0.013783417078814251 0.00036979676701078879 0 -0.013876442179374565 0.00045272672572460024 0 -0.013700744382360077 0.00037705218279822752 0 -0.013876024118512749 0.00038990256925141176 0 -0.013783417078814251 0.00036979676701078879 0 -0.013700744382360077 0.00037705218279822752 0 -0.013783417078814251 0.00036979676701078879 0 -0.01379788471842657 0.0003786069219387206 0 -0.013783417078814251 0.00036979676701078879 0 -0.01379788471842657 0.0003786069219387206 0 -0.013800346747440233 0.00034458644497589204 0 -0.014550606971351661 0.00035371859153849358 0 -0.014555064461210966 0.00032891097400962314 0 -0.014524790399926804 0.00033977261552544383 0 -0.014550606971351661 0.00035371859153849358 0 -0.014453975905163754 0.00043989484045731347 0 -0.014524790399926804 0.00033977261552544383 0 -0.013783417078814251 0.00036979676701078879 0 -0.013800346747440233 0.00034458644497589204 0 -0.013876442179374565 0.00045272672572460024 0 -0.014177112600201984 0.00035026039283742901 0 -0.014160039048572827 0.00043878451601589175 0 -0.013876024118512749 0.00038990256925141176 0 -0.013876442179374565 0.00045272672572460024 0 -0.013993272934878117 0.00043131372260250849 0 -0.014453975905163754 0.00043989484045731347 0 -0.014120393685151651 0.00045192569495651285 0 -0.014267522782092892 0.00033408794035839196 0 -0.014160039048572827 0.00043878451601589175 0 -0.014113852245138272 0.00044811504121559909 0 -0.013876442179374565 0.00045272672572460024 0 -0.014120393685151651 0.00045192569495651285 0 -0.013993272934878117 0.00043131372260250849 0 -0.014305502840927914 0.00029152829641568859 0 -0.01422966912635606 0.00028131224367820536 0 -0.014301566558918628 0.00029039438505159616 0 -0.014113899277799781 0.00041656450749641584 0 -0.013937410075400728 0.00026405887442073153 0 -0.014301566558918628 0.00029039438505159616 0 -0.014512254513526715 0.00028305208556919604 0 -0.014492404249835557 0.00031225164040943787 0 -0.014331856254625422 0.0003577193536337636 0 -0.01435324464178633 0.00028997861364592762 0 -0.014301566558918628 0.00029039438505159616 0 -0.01435324464178633 0.00028997861364592762 0 -0.014301566558918628 0.00029039438505159616 0 -0.014451047149683587 0.00030392251425574886 0 -0.014331856254625422 0.0003577193536337636 0 -0.014205115212605932 0.00050339856047691895 0 -0.014301566558918628 0.00029039438505159616 0 -0.014205115212605932 0.00050339856047691895 0 -0.014301566558918628 0.00029039438505159616 0 -0.014113899277799781 0.00041656450749641584 0 -0.014113899277799781 0.00041656450749641584 0 -0.01392364909575171 0.00041303925925820841 0 -0.013937410075400728 0.00026405887442073153 0 -0.01379788471842657 0.0003786069219387206 0 -0.01392364909575171 0.00041303925925820841 0 -0.013937410075400728 0.00026405887442073153 0 -0.013833804575318916 0.00051278036399859993 0 -0.01379788471842657 0.0003786069219387206 0 -0.01392364909575171 0.00041303925925820841 0 -0.01379788471842657 0.0003786069219387206 0 -0.013800346747440233 0.00034458644497589204 0 -0.013937410075400728 0.00026405887442073153 0 -0.014512254513526715 0.00028305208556919604 0 -0.014542301437089403 0.00031856209670734644 0 -0.014492404249835557 0.00031225164040943787 0 -0.014177112600201984 0.00035026039283742901 0 -0.01422966912635606 0.00028131224367820536 0 -0.014550606971351661 0.00035371859153849358 0 -0.014512254513526715 0.00028305208556919604 0 -0.014542301437089403 0.00031856209670734644 0 -0.014550606971351661 0.00035371859153849358 0 -0.014555064461210966 0.00032891097400962314 0 -0.014542301437089403 0.00031856209670734644 0 -0.014555064461210966 0.00032891097400962314 0 -0.014542301437089403 0.00031856209670734644 0 -0.01457978074757651 0.00029369107545433067 0 -0.014542301437089403 0.00031856209670734644 0 -0.014492404249835557 0.00031225164040943787 0 -0.01454372869844545 0.00028002100479692591 0 -0.014492404249835557 0.00031225164040943787 0 -0.014451047149683587 0.00030392251425574886 0 -0.01454372869844545 0.00028002100479692591 0 -0.014301566558918628 0.00029039438505159616 0 -0.014492404249835557 0.00031225164040943787 0 -0.014451047149683587 0.00030392251425574886 0 -0.014437772846466317 0.00033093977398017822 0 -0.014443489166996632 0.00030537542268024956 0 -0.014541938947872105 0.00027965219143958621 0 -0.014451047149683587 0.00030392251425574886 0 -0.014537162496565073 0.0002518471237095061 0 -0.014451047149683587 0.00030392251425574886 0 -0.014537162496565073 0.0002518471237095061 0 -0.01454372869844545 0.00028002100479692591 0 -0.014537162496565073 0.0002518471237095061 0 -0.014554545337947236 0.00022524914325754855 0 -0.014570821310252785 0.00021045088967633824 0 -0.014537162496565073 0.0002518471237095061 0 -0.01454372869844545 0.00028002100479692591 0 -0.014554545337947236 0.00022524914325754855 0 -0.014627209776673358 0.00027125167644621959 0 -0.014681139753457931 0.00024082273174435905 0 -0.01454372869844545 0.00028002100479692591 0 -0.014614416100919014 0.00027740376742185432 0 -0.014554545337947236 0.00022524914325754855 0 -0.014542301437089403 0.00031856209670734644 0 -0.01454372869844545 0.00028002100479692591 0 -0.01457978074757651 0.00029369107545433067 0 -0.01454372869844545 0.00028002100479692591 0 -0.01457978074757651 0.00029369107545433067 0 -0.014614416100919014 0.00027740376742185432 0 -0.014555064461210966 0.00032891097400962314 0 -0.01457978074757651 0.00029369107545433067 0 -0.014567242362568268 0.00028152229919680663 0 -0.01457978074757651 0.00029369107545433067 0 -0.014599059267094788 0.00022622259882355326 0 -0.014567242362568268 0.00028152229919680663 0 -0.01457978074757651 0.00029369107545433067 0 -0.014614416100919014 0.00027740376742185432 0 -0.014599059267094788 0.00022622259882355326 0 -0.014614416100919014 0.00027740376742185432 0 -0.014599059267094788 0.00022622259882355326 0 -0.014673067710783246 0.00019192490551431943 0 -0.014599059267094788 0.00022622259882355326 0 -0.014606963426006042 0.00016350075982576835 0 -0.014673067710783246 0.00019192490551431943 0 -0.014673067710783246 0.00019192490551431943 0 -0.014839786384321393 0.00014331067670091349 0 -0.014801945916454229 0.00026428119852309347 0 -0.014673067710783246 0.00019192490551431943 0 -0.014839786384321393 0.00014331067670091349 0 -0.014704430147999098 7.3938919954078379e-05 0 -0.014839786384321393 0.00014331067670091349 0 -0.014801945916454229 0.00026428119852309347 0 -0.014942368121980437 0.00021106298287061457 0 -0.014681139753457931 0.00024082273174435905 0 -0.01477786296715302 0.0001769382204076391 0 -0.014554545337947236 0.00022524914325754855 0 -0.014591430213453998 0.00014812576971681634 0 -0.014570821310252785 0.00021045088967633824 0 -0.014614416100919014 0.00027740376742185432 0 -0.014673067710783246 0.00019192490551431943 0 -0.014801945916454229 0.00026428119852309347 0 -0.014167899861934168 0.00025464808772231092 0 -0.014344850853814206 0.00025110767300265033 0 -0.014381277078006899 0.00014333335072531876 0 -0.014167899861934168 0.00025464808772231092 0 -0.014344850853814206 0.00025110767300265033 0 -0.014267522782092892 0.00033408794035839196 0 -0.01412549145091152 0.00038402724735696174 0 -0.014120393685151651 0.00045192569495651285 0 -0.014267522782092892 0.00033408794035839196 0 -0.014453975905163754 0.00043989484045731347 0 -0.014267522782092892 0.00033408794035839196 0 -0.014438295701222931 0.00030236690569457531 0 -0.014344850853814206 0.00025110767300265033 0 -0.014267522782092892 0.00033408794035839196 0 -0.014438295701222931 0.00030236690569457531 0 -0.014438295701222931 0.00030236690569457531 0 -0.014476274289962513 0.00022634973768995511 0 -0.014557405381825702 0.00023297336993124436 0 -0.014344850853814206 0.00025110767300265033 0 -0.014476274289962513 0.00022634973768995511 0 -0.014381277078006899 0.00014333335072531876 0 -0.014344850853814206 0.00025110767300265033 0 -0.014438295701222931 0.00030236690569457531 0 -0.014476274289962513 0.00022634973768995511 0 -0.014453975905163754 0.00043989484045731347 0 -0.014438295701222931 0.00030236690569457531 0 -0.014524790399926804 0.00033977261552544383 0 -0.014557405381825702 0.00023297336993124436 0 -0.014524790399926804 0.00033977261552544383 0 -0.014567242362568268 0.00028152229919680663 0 -0.014438295701222931 0.00030236690569457531 0 -0.014557405381825702 0.00023297336993124436 0 -0.014524790399926804 0.00033977261552544383 0 -0.014555064461210966 0.00032891097400962314 0 -0.014524790399926804 0.00033977261552544383 0 -0.014567242362568268 0.00028152229919680663 0 -0.014599059267094788 0.00022622259882355326 0 -0.014557405381825702 0.00023297336993124436 0 -0.014567242362568268 0.00028152229919680663 0 -0.014599059267094788 0.00022622259882355326 0 -0.014557405381825702 0.00023297336993124436 0 -0.014640818995619616 0.00016918340144359527 0 -0.014599059267094788 0.00022622259882355326 0 -0.014606963426006042 0.00016350075982576835 0 -0.014640818995619616 0.00016918340144359527 0 -0.014753313760543292 0.000129295484993658 0 -0.014652384682620563 0.00016879037191756412 0 -0.014904058254008418 0.00010564361842482641 0 -0.014640818995619616 0.00016918340144359527 0 -0.014722648630758527 9.2167258304382089e-05 0 -0.014640818995619616 0.00016918340144359527 0 -0.014549215633281341 0.00016759889798978001 0 -0.014647566460632791 9.8651227989370711e-05 0 -0.014640818995619616 0.00016918340144359527 0 -0.014647566460632791 9.8651227989370711e-05 0 -0.014722648630758527 9.2167258304382089e-05 0 -0.014557405381825702 0.00023297336993124436 0 -0.014640818995619616 0.00016918340144359527 0 -0.014549215633281341 0.00016759889798978001 0 -0.014476274289962513 0.00022634973768995511 0 -0.014549215633281341 0.00016759889798978001 0 -0.014381277078006899 0.00014333335072531876 0 -0.014476274289962513 0.00022634973768995511 0 -0.014557405381825702 0.00023297336993124436 0 -0.014549215633281341 0.00016759889798978001 0 -0.014549215633281341 0.00016759889798978001 0 -0.014647566460632791 9.8651227989370711e-05 0 -0.014381277078006899 0.00014333335072531876 0 -0.014624637572611942 0.00010088390739495743 0 -0.014523246062117662 0.0001358812496816349 0 -0.014647566460632791 9.8651227989370711e-05 0 -0.014665045591514821 0.00010110061281533798 0 -0.014669657844622147 9.7426287474717003e-05 0 -0.014647566460632791 9.8651227989370711e-05 0 -0.014665045591514821 0.00010110061281533798 0 -0.014669696757627663 0.00011080257554237175 0 -0.014647566460632791 9.8651227989370711e-05 0 -0.014669657844622147 9.7426287474717003e-05 0 -0.014680319794339508 9.3237166063604439e-05 0 -0.014665045591514821 0.00010110061281533798 0 -0.014669657844622147 9.7426287474717003e-05 0 -0.014652466671805205 9.6679508619818789e-05 0 -0.014664491953463083 9.0663616352974392e-05 0 -0.014652466671805205 9.6679508619818789e-05 0 -0.014665173348729769 8.1196069523248256e-05 0 -0.014629258278674201 9.5192879046691292e-05 0 -0.014803344856563636 1.2338216877451603e-05 0 -0.014801634440034902 1.7798374229083575e-05 0 -0.014669657844622147 9.7426287474717003e-05 0 -0.014664491953463083 9.0663616352974392e-05 0 -0.014680319794339508 9.3237166063604439e-05 0 -0.014669657844622147 9.7426287474717003e-05 0 -0.014664491953463083 9.0663616352974392e-05 0 -0.014652466671805205 9.6679508619818789e-05 0 -0.014665045591514821 0.00010110061281533798 0 -0.014652466671805205 9.6679508619818789e-05 0 -0.014644888460204475 0.00010505668038097609 0 -0.014387475854354459 0.0002220570283053824 0 -0.014523246062117662 0.0001358812496816349 0 -0.014604727511928348 0.00018281208654558607 0 -0.014644888460204475 0.00010505668038097609 0 -0.014669696757627663 0.00011080257554237175 0 -0.014665045591514821 0.00010110061281533798 0 -0.014644888460204475 0.00010505668038097609 0 -0.014669696757627663 0.00011080257554237175 0 -0.014845978652823525 -8.4157768888357227e-05 0 -0.014810039120555347 -8.4955771030661899e-05 0 -0.014902224970850081 -7.7233349572226835e-05 0 -0.014743006718668811 3.6690817021979818e-05 0 -0.014665173348729769 8.1196069523248256e-05 0 -0.014779271716975139 9.3525432241748317e-06 0 -0.014804849942701473 -3.365159856809508e-05 0 -0.014915023054346953 -5.0525782181269239e-05 0 -0.014732779923550468 4.6029618377088456e-05 0 -0.014856358576845398 -9.4196940193798693e-07 0 -0.014803344856563636 1.2338216877451603e-05 0 -0.014801634440034902 1.7798374229083575e-05 0 -0.014930499603808649 -2.2563683664585129e-05 0 -0.014803344856563636 1.2338216877451603e-05 0 -0.014930499603808649 -2.2563683664585129e-05 0 -0.014927216657982774 -2.3860785227647734e-05 0 -0.014855731071074078 -8.6069605684556375e-05 0 -0.014845978652823525 -8.4157768888357227e-05 0 -0.014882714047909073 -8.1240545024554732e-05 0 -0.014855731071074078 -8.6069605684556375e-05 0 -0.014846611728850014 -8.9748133284723639e-05 0 -0.01483466664951804 -8.8545025652933635e-05 0 -0.014855731071074078 -8.6069605684556375e-05 0 -0.014846611728850014 -8.9748133284723639e-05 0 -0.014866732374719025 -8.5689930765654206e-05 0 -0.014862574781497134 -8.8495689845967119e-05 0 -0.014846611728850014 -8.9748133284723639e-05 0 -0.014866732374719025 -8.5689930765654206e-05 0 -0.014855731071074078 -8.6069605684556375e-05 0 -0.014866732374719025 -8.5689930765654206e-05 0 -0.014882714047909073 -8.1240545024554732e-05 0 -0.014845978652823525 -8.4157768888357227e-05 0 -0.014902224970850081 -7.7233349572226835e-05 0 -0.014882714047909073 -8.1240545024554732e-05 0 -0.014743006718668811 3.6690817021979818e-05 0 -0.014715053577546952 5.6396316518293651e-05 0 -0.014695598636859243 6.5938420622727896e-05 0 -0.014743006718668811 3.6690817021979818e-05 0 -0.014733113350000607 4.7936560176384577e-05 0 -0.014747451212952649 4.4646691134002892e-05 0 -0.014743006718668811 3.6690817021979818e-05 0 -0.014733113350000607 4.7936560176384577e-05 0 -0.014715053577546952 5.6396316518293651e-05 0 -0.014733113350000607 4.7936560176384577e-05 0 -0.014727499938480666 5.379735280701187e-05 0 -0.014747451212952649 4.4646691134002892e-05 0 -0.014727499938480666 5.379735280701187e-05 0 -0.014710969635092573 6.5856037325611502e-05 0 -0.014730831765161941 5.7953055869905415e-05 0 -0.014727499938480666 5.379735280701187e-05 0 -0.014715053577546952 5.6396316518293651e-05 0 -0.014710969635092573 6.5856037325611502e-05 0 -0.014733113350000607 4.7936560176384577e-05 0 -0.014727499938480666 5.379735280701187e-05 0 -0.014715053577546952 5.6396316518293651e-05 0 -0.014855731071074078 -8.6069605684556375e-05 0 -0.014845978652823525 -8.4157768888357227e-05 0 -0.01483466664951804 -8.8545025652933635e-05 0 -0.014845978652823525 -8.4157768888357227e-05 0 -0.01483466664951804 -8.8545025652933635e-05 0 -0.014826281724317086 -8.6387670761909596e-05 0 -0.014845978652823525 -8.4157768888357227e-05 0 -0.014826281724317086 -8.6387670761909596e-05 0 -0.014818119444645117 -8.5880683390109256e-05 0 -0.014815304114179322 -8.9068363333523392e-05 0 -0.01483466664951804 -8.8545025652933635e-05 0 -0.014826281724317086 -8.6387670761909596e-05 0 -0.014815304114179322 -8.9068363333523392e-05 0 -0.014826281724317086 -8.6387670761909596e-05 0 -0.014818119444645117 -8.5880683390109256e-05 0 -0.014743006718668811 3.6690817021979818e-05 0 -0.014665173348729769 8.1196069523248256e-05 0 -0.014695598636859243 6.5938420622727896e-05 0 -0.014804965667480427 -8.6125276730762565e-05 0 -0.014815304114179322 -8.9068363333523392e-05 0 -0.014818119444645117 -8.5880683390109256e-05 0 -0.014845978652823525 -8.4157768888357227e-05 0 -0.014818119444645117 -8.5880683390109256e-05 0 -0.014810039120555347 -8.4955771030661899e-05 0 -0.014804965667480427 -8.6125276730762565e-05 0 -0.014818119444645117 -8.5880683390109256e-05 0 -0.014801460791899038 -8.3919914792722144e-05 0 -0.014665173348729769 8.1196069523248256e-05 0 -0.014684793139240577 7.7676118889456039e-05 0 -0.014695598636859243 6.5938420622727896e-05 0 -0.014818119444645117 -8.5880683390109256e-05 0 -0.014801460791899038 -8.3919914792722144e-05 0 -0.014810039120555347 -8.4955771030661899e-05 0 -0.014788135966858441 -7.8940154549766688e-05 0 -0.014801460791899038 -8.3919914792722144e-05 0 -0.014796670159983026 -8.0642244741360009e-05 0 -0.014801460791899038 -8.3919914792722144e-05 0 -0.014810039120555347 -8.4955771030661899e-05 0 -0.014796670159983026 -8.0642244741360009e-05 0 -0.014664491953463083 9.0663616352974392e-05 0 -0.014665173348729769 8.1196069523248256e-05 0 -0.014670840561996355 8.5494180326332945e-05 0 -0.014762303763270024 -6.2632154590083809e-05 0 -0.014810039120555347 -8.4955771030661899e-05 0 -0.014796670159983026 -8.0642244741360009e-05 0 -0.014665173348729769 8.1196069523248256e-05 0 -0.014675312750268682 8.3009514815604336e-05 0 -0.014684793139240577 7.7676118889456039e-05 0 -0.014665173348729769 8.1196069523248256e-05 0 -0.014675312750268682 8.3009514815604336e-05 0 -0.014670840561996355 8.5494180326332945e-05 0 -0.014664491953463083 9.0663616352974392e-05 0 -0.014670840561996355 8.5494180326332945e-05 0 -0.014678364818695083 8.6665121465327066e-05 0 -0.014664491953463083 9.0663616352974392e-05 0 -0.014680319794339508 9.3237166063604439e-05 0 -0.014678364818695083 8.6665121465327066e-05 0 -0.014678364818695083 8.6665121465327066e-05 0 -0.014697203083604999 7.9573494512001462e-05 0 -0.014684793139240577 7.7676118889456039e-05 0 -0.014675312750268682 8.3009514815604336e-05 0 -0.014678364818695083 8.6665121465327066e-05 0 -0.014684793139240577 7.7676118889456039e-05 0 -0.014675312750268682 8.3009514815604336e-05 0 -0.014670840561996355 8.5494180326332945e-05 0 -0.014678364818695083 8.6665121465327066e-05 0 -0.014680319794339508 9.3237166063604439e-05 0 -0.014678364818695083 8.6665121465327066e-05 0 -0.014697203083604999 7.9573494512001462e-05 0 -0.014697203083604999 7.9573494512001462e-05 0 -0.014710969635092573 6.5856037325611502e-05 0 -0.014716120857251108 7.0439002521453364e-05 0 -0.014697203083604999 7.9573494512001462e-05 0 -0.014697542028841857 7.2316084209206194e-05 0 -0.014710969635092573 6.5856037325611502e-05 0 -0.014697203083604999 7.9573494512001462e-05 0 -0.014684793139240577 7.7676118889456039e-05 0 -0.014697542028841857 7.2316084209206194e-05 0 -0.014684793139240577 7.7676118889456039e-05 0 -0.014697542028841857 7.2316084209206194e-05 0 -0.014695598636859243 6.5938420622727896e-05 0 -0.014715053577546952 5.6396316518293651e-05 0 -0.014695598636859243 6.5938420622727896e-05 0 -0.014710969635092573 6.5856037325611502e-05 0 -0.014697542028841857 7.2316084209206194e-05 0 -0.014695598636859243 6.5938420622727896e-05 0 -0.014710969635092573 6.5856037325611502e-05 0 -0.014710969635092573 6.5856037325611502e-05 0 -0.014716120857251108 7.0439002521453364e-05 0 -0.014730831765161941 5.7953055869905415e-05 0 -0.014647566460632791 9.8651227989370711e-05 0 -0.014697960862020966 8.4596312278446606e-05 0 -0.014722648630758527 9.2167258304382089e-05 0 -0.014716120857251108 7.0439002521453364e-05 0 -0.014697960862020966 8.4596312278446606e-05 0 -0.014744391722138808 5.768900932111507e-05 0 -0.014697203083604999 7.9573494512001462e-05 0 -0.014716120857251108 7.0439002521453364e-05 0 -0.014697960862020966 8.4596312278446606e-05 0 -0.014716120857251108 7.0439002521453364e-05 0 -0.014744391722138808 5.768900932111507e-05 0 -0.014730831765161941 5.7953055869905415e-05 0 -0.014647566460632791 9.8651227989370711e-05 0 -0.014680319794339508 9.3237166063604439e-05 0 -0.014697960862020966 8.4596312278446606e-05 0 -0.014680319794339508 9.3237166063604439e-05 0 -0.014697203083604999 7.9573494512001462e-05 0 -0.014697960862020966 8.4596312278446606e-05 0 -0.014697960862020966 8.4596312278446606e-05 0 -0.014744391722138808 5.768900932111507e-05 0 -0.014778353993560554 5.2367469073912608e-05 0 -0.014779971770748086 4.4333900192511865e-05 0 -0.01482159021557598 2.6932690391597782e-05 0 -0.014778353993560554 5.2367469073912608e-05 0 -0.014779971770748086 4.4333900192511865e-05 0 -0.014744391722138808 5.768900932111507e-05 0 -0.014777021055013112 3.5761433967570008e-05 0 -0.014779971770748086 4.4333900192511865e-05 0 -0.014744391722138808 5.768900932111507e-05 0 -0.014778353993560554 5.2367469073912608e-05 0 -0.014744391722138808 5.768900932111507e-05 0 -0.014747451212952649 4.4646691134002892e-05 0 -0.014777021055013112 3.5761433967570008e-05 0 -0.014744391722138808 5.768900932111507e-05 0 -0.014730831765161941 5.7953055869905415e-05 0 -0.014747451212952649 4.4646691134002892e-05 0 -0.014727499938480666 5.379735280701187e-05 0 -0.014730831765161941 5.7953055869905415e-05 0 -0.014747451212952649 4.4646691134002892e-05 0 -0.014743006718668811 3.6690817021979818e-05 0 -0.01476622026646867 3.1002543322540061e-05 0 -0.014779271716975139 9.3525432241748317e-06 0 -0.014743006718668811 3.6690817021979818e-05 0 -0.014747451212952649 4.4646691134002892e-05 0 -0.01476622026646867 3.1002543322540061e-05 0 -0.014747451212952649 4.4646691134002892e-05 0 -0.014777021055013112 3.5761433967570008e-05 0 -0.01476622026646867 3.1002543322540061e-05 0 -0.01476622026646867 3.1002543322540061e-05 0 -0.014783838040638642 2.496105503875783e-05 0 -0.014779271716975139 9.3525432241748317e-06 0 -0.014777021055013112 3.5761433967570008e-05 0 -0.014783838040638642 2.496105503875783e-05 0 -0.014811992283709921 2.0009035739539208e-05 0 -0.014777021055013112 3.5761433967570008e-05 0 -0.01476622026646867 3.1002543322540061e-05 0 -0.014783838040638642 2.496105503875783e-05 0 -0.014777021055013112 3.5761433967570008e-05 0 -0.01482159021557598 2.6932690391597782e-05 0 -0.014811992283709921 2.0009035739539208e-05 0 -0.014779971770748086 4.4333900192511865e-05 0 -0.014777021055013112 3.5761433967570008e-05 0 -0.01482159021557598 2.6932690391597782e-05 0 -0.014778353993560554 5.2367469073912608e-05 0 -0.014820676112388903 5.1712549547866552e-05 0 -0.014881308939135788 1.434792505907437e-05 0 -0.01482159021557598 2.6932690391597782e-05 0 -0.014778353993560554 5.2367469073912608e-05 0 -0.014881308939135788 1.434792505907437e-05 0 -0.014697960862020966 8.4596312278446606e-05 0 -0.014778353993560554 5.2367469073912608e-05 0 -0.014722648630758527 9.2167258304382089e-05 0 -0.014778353993560554 5.2367469073912608e-05 0 -0.014722648630758527 9.2167258304382089e-05 0 -0.014820676112388903 5.1712549547866552e-05 0 -0.014904058254008418 0.00010564361842482641 0 -0.014722648630758527 9.2167258304382089e-05 0 -0.014820676112388903 5.1712549547866552e-05 0 -0.014904058254008418 0.00010564361842482641 0 -0.014820676112388903 5.1712549547866552e-05 0 -0.014911896479301063 3.464137652162186e-05 0 -0.014881308939135788 1.434792505907437e-05 0 -0.014911896479301063 3.464137652162186e-05 0 -0.01495782703129483 3.3867270698397717e-06 0 -0.014820676112388903 5.1712549547866552e-05 0 -0.014881308939135788 1.434792505907437e-05 0 -0.014911896479301063 3.464137652162186e-05 0 -0.014940835107233692 -1.4621730208433053e-06 0 -0.014881308939135788 1.434792505907437e-05 0 -0.01495782703129483 3.3867270698397717e-06 0 -0.01499994614905502 -1.0412201407888359e-09 0 -0.014940835107233692 -1.4621730208433053e-06 0 -0.01495782703129483 3.3867270698397717e-06 0 -0.01499994614905502 -1.0412201407888359e-09 0 -0.014940835107233692 -1.4621730208433053e-06 0 -0.014999726339284501 -6.1942479993696851e-08 0 -0.014940835107233692 -1.4621730208433053e-06 0 -0.014894719168446903 3.3229038847295432e-06 0 -0.014999726339284501 -6.1942479993696851e-08 0 -0.014940835107233692 -1.4621730208433053e-06 0 -0.014881308939135788 1.434792505907437e-05 0 -0.014894719168446903 3.3229038847295432e-06 0 -0.01482159021557598 2.6932690391597782e-05 0 -0.014881308939135788 1.434792505907437e-05 0 -0.014894719168446903 3.3229038847295432e-06 0 -0.014930499603808649 -2.2563683664585129e-05 0 -0.014999944173188852 -2.081455530998629e-08 0 -0.014927216657982774 -2.3860785227647734e-05 0 -0.01482159021557598 2.6932690391597782e-05 0 -0.014811992283709921 2.0009035739539208e-05 0 -0.014894719168446903 3.3229038847295432e-06 0 -0.014811992283709921 2.0009035739539208e-05 0 -0.014779271716975139 9.3525432241748317e-06 0 -0.014894719168446903 3.3229038847295432e-06 0 -0.014783838040638642 2.496105503875783e-05 0 -0.014811992283709921 2.0009035739539208e-05 0 -0.014779271716975139 9.3525432241748317e-06 0 -0.014779271716975139 9.3525432241748317e-06 0 -0.014894719168446903 3.3229038847295432e-06 0 -0.014999726339284501 -6.1942479993696851e-08 0 -0.014999972739783679 -2.4922954083467751e-08 0 -0.014915023054346953 -5.0525782181269239e-05 0 -0.014930499603808649 -2.2563683664585129e-05 0 -0.014999944173188852 -2.081455530998629e-08 0 -0.015000041069754161 1.5338386529470547e-08 0 -0.014856358576845398 -9.4196940193798693e-07 0 -0.014999943474919687 1.0343857336822368e-08 0 -0.014999850832762247 -9.5104487404154117e-08 0 -0.014999924990312941 6.4140201629058287e-10 0 -0.014937955401601808 -5.0457457586722136e-05 0 -0.014909160543106004 -7.1133938798218483e-05 0 -0.014999850832762247 -9.5104487404154117e-08 0 -0.014937955401601808 -5.0457457586722136e-05 0 -0.014999924990312941 6.4140201629058287e-10 0 -0.014937955401601808 -5.0457457586722136e-05 0 -0.014902224970850081 -7.7233349572226835e-05 0 -0.014909160543106004 -7.1133938798218483e-05 0 -0.014937955401601808 -5.0457457586722136e-05 0 -0.014905232446141659 -7.2842341352232415e-05 0 -0.014937955401601808 -5.0457457586722136e-05 0 -0.014902224970850081 -7.7233349572226835e-05 0 -0.014905232446141659 -7.2842341352232415e-05 0 -0.014902224970850081 -7.7233349572226835e-05 0 -0.014882714047909073 -8.1240545024554732e-05 0 -0.014905232446141659 -7.2842341352232415e-05 0 -0.014909160543106004 -7.1133938798218483e-05 0 -0.01488565526785258 -8.1168572629373124e-05 0 -0.014905232446141659 -7.2842341352232415e-05 0 -0.014866732374719025 -8.5689930765654206e-05 0 -0.014882714047909073 -8.1240545024554732e-05 0 -0.01488565526785258 -8.1168572629373124e-05 0 -0.014862574781497134 -8.8495689845967119e-05 0 -0.014866732374719025 -8.5689930765654206e-05 0 -0.01488565526785258 -8.1168572629373124e-05 0 -0.014882714047909073 -8.1240545024554732e-05 0 -0.01488565526785258 -8.1168572629373124e-05 0 -0.014905232446141659 -7.2842341352232415e-05 0 -0.014926745141552318 1.1584204189526088e-05 0 -0.014970327718669144 3.1464050471705146e-05 0 -0.014975687236139887 1.0133699559144449e-05 0 -0.014917671094079019 1.4250725810697278e-05 0 -0.014838330193034236 5.6841443296961368e-05 0 -0.014839786384321393 0.00014331067670091349 0 -0.014926745141552318 1.1584204189526088e-05 0 -0.014951154268015755 0.00010916592976237637 0 -0.014839786384321393 0.00014331067670091349 0 -0.014926745141552318 1.1584204189526088e-05 0 -0.014704430147999098 7.3938919954078379e-05 0 -0.014606963426006042 0.00016350075982576835 0 -0.014673067710783246 0.00019192490551431943 0 -0.014704430147999098 7.3938919954078379e-05 0 -0.014753313760543292 0.000129295484993658 0 -0.014838330193034236 5.6841443296961368e-05 0 -0.014904058254008418 0.00010564361842482641 0 -0.014970327718669144 3.1464050471705146e-05 0 -0.014911896479301063 3.464137652162186e-05 0 -0.014970327718669144 3.1464050471705146e-05 0 -0.014911896479301063 3.464137652162186e-05 0 -0.01495782703129483 3.3867270698397717e-06 0 -0.014970327718669144 3.1464050471705146e-05 0 -0.01495782703129483 3.3867270698397717e-06 0 -0.014975687236139887 1.0133699559144449e-05 0 -0.01499994614905502 -1.0412201407888359e-09 0 -0.01495782703129483 3.3867270698397717e-06 0 -0.014999956550046729 -1.6248748355887499e-09 0 -0.01495782703129483 3.3867270698397717e-06 0 -0.014999956550046729 -1.6248748355887499e-09 0 -0.014975687236139887 1.0133699559144449e-05 0 -0.014999956550046729 -1.6248748355887499e-09 0 -0.014975687236139887 1.0133699559144449e-05 0 -0.014999964338685086 1.3281283211167478e-08 0 -0.014926745141552318 1.1584204189526088e-05 0 -0.014975687236139887 1.0133699559144449e-05 0 -0.014975984577352693 1.5507055983303196e-06 0 -0.014975984577352693 1.5507055983303196e-06 0 -0.014999964338685086 1.3281283211167478e-08 0 -0.014999971700131129 -2.0767486752758041e-08 0 -0.014975687236139887 1.0133699559144449e-05 0 -0.014975984577352693 1.5507055983303196e-06 0 -0.014999964338685086 1.3281283211167478e-08 0 -0.014975984577352693 1.5507055983303196e-06 0 -0.014999971700131129 -2.0767486752758041e-08 0 -0.014995396518047962 3.6258255756535073e-06 0 -0.014999980234139397 3.2552755794781753e-08 0 -0.01495076543809107 5.0186091237623979e-05 0 -0.014999847562560379 2.8794251575242557e-08 0 -0.01490063389696776 8.7382803567248317e-05 0 -0.0149998914971272 6.6586620743051299e-08 0 -0.014926745141552318 1.1584204189526088e-05 0 -0.014975984577352693 1.5507055983303196e-06 0 -0.014995396518047962 3.6258255756535073e-06 0 -0.0149998914971272 6.6586620743051299e-08 0 -0.014934886152557579 9.088963254029147e-05 0 -0.014999961505985948 2.42525889081411e-08 0 -0.0149998914971272 6.6586620743051299e-08 0 -0.014887050626246633 0.00013093078425542693 0 -0.014934886152557579 9.088963254029147e-05 0 -0.01490063389696776 8.7382803567248317e-05 0 -0.0149998914971272 6.6586620743051299e-08 0 -0.014887050626246633 0.00013093078425542693 0 -0.014887050626246633 0.00013093078425542693 0 -0.014934886152557579 9.088963254029147e-05 0 -0.014855044277492376 0.00017430322765549312 0 -0.014887050626246633 0.00013093078425542693 0 -0.014855044277492376 0.00017430322765549312 0 -0.014843122860186658 0.000170270456568726 0 -0.014855044277492376 0.00017430322765549312 0 -0.014843122860186658 0.000170270456568726 0 -0.014783571284035098 0.00021094558066620702 0 -0.014887050626246633 0.00013093078425542693 0 -0.014828976162976345 0.00016814660327246978 0 -0.014844623161208213 0.00015901526669706838 0 -0.014887050626246633 0.00013093078425542693 0 -0.014843122860186658 0.000170270456568726 0 -0.014828976162976345 0.00016814660327246978 0 -0.014828976162976345 0.00016814660327246978 0 -0.014813481641050298 0.00015285954768184043 0 -0.014786754822160852 0.00015858985545444764 0 -0.014828976162976345 0.00016814660327246978 0 -0.014796453760495173 0.00017851849368174676 0 -0.014786754822160852 0.00015858985545444764 0 -0.014843122860186658 0.000170270456568726 0 -0.014828976162976345 0.00016814660327246978 0 -0.014796453760495173 0.00017851849368174676 0 -0.014796453760495173 0.00017851849368174676 0 -0.014753005054649559 0.00019244744050508046 0 -0.014783571284035098 0.00021094558066620702 0 -0.014843122860186658 0.000170270456568726 0 -0.014796453760495173 0.00017851849368174676 0 -0.014783571284035098 0.00021094558066620702 0 -0.014926745141552318 1.1584204189526088e-05 0 -0.014995396518047962 3.6258255756535073e-06 0 -0.015009403256089272 5.7928841545606629e-05 0 -0.014926745141552318 1.1584204189526088e-05 0 -0.015009403256089272 5.7928841545606629e-05 0 -0.014951154268015755 0.00010916592976237637 0 -0.01495076543809107 5.0186091237623979e-05 0 -0.014941414959922173 0.00011719226017876052 0 -0.01490063389696776 8.7382803567248317e-05 0 -0.014887050626246633 0.00013093078425542693 0 -0.014844623161208213 0.00015901526669706838 0 -0.014828976162976345 0.00016814660327246978 0 -0.014844623161208213 0.00015901526669706838 0 -0.014813481641050298 0.00015285954768184043 0 -0.014941414959922173 0.00011719226017876052 0 -0.014809762032656186 0.00013379983729753473 0 -0.015009403256089272 5.7928841545606629e-05 0 -0.014951154268015755 0.00010916592976237637 0 -0.01503755398852997 0.00015517009332374681 0 -0.014951154268015755 0.00010916592976237637 0 -0.014942368121980437 0.00021106298287061457 0 -0.01503755398852997 0.00015517009332374681 0 -0.014839786384321393 0.00014331067670091349 0 -0.014951154268015755 0.00010916592976237637 0 -0.014942368121980437 0.00021106298287061457 0 -0.014591430213453998 0.00014812576971681634 0 -0.014608050191678714 0.00020310974355352646 0 -0.014570821310252785 0.00021045088967633824 0 -0.014591430213453998 0.00014812576971681634 0 -0.014677882528744374 9.5271542918534081e-05 0 -0.014695343296061703 0.00016060131497468033 0 -0.014809762032656186 0.00013379983729753473 0 -0.014696160901718542 0.00015192947437750443 0 -0.014591430213453998 0.00014812576971681634 0 -0.014695343296061703 0.00016060131497468033 0 -0.014608050191678714 0.00020310974355352646 0 -0.01477786296715302 0.0001769382204076391 0 -0.014809762032656186 0.00013379983729753473 0 -0.014747153123757292 0.00015595234546872643 0 -0.014786754822160852 0.00015858985545444764 0 -0.014745655954589173 0.00015885309191160791 0 -0.014809762032656186 0.00013379983729753473 0 -0.014775203892380358 0.00015870077154672642 0 -0.014747153123757292 0.00015595234546872643 0 -0.014745655954589173 0.00015885309191160791 0 -0.014695343296061703 0.00016060131497468033 0 -0.014786754822160852 0.00015858985545444764 0 -0.014745655954589173 0.00015885309191160791 0 -0.014761133379280015 0.00016817378580494353 0 -0.014761133379280015 0.00016817378580494353 0 -0.014731763701612853 0.00017429852456153413 0 -0.014753005054649559 0.00019244744050508046 0 -0.014796453760495173 0.00017851849368174676 0 -0.014761133379280015 0.00016817378580494353 0 -0.014753005054649559 0.00019244744050508046 0 -0.014796453760495173 0.00017851849368174676 0 -0.014786754822160852 0.00015858985545444764 0 -0.014761133379280015 0.00016817378580494353 0 -0.014745655954589173 0.00015885309191160791 0 -0.014761133379280015 0.00016817378580494353 0 -0.014730256291389271 0.00015631656462247756 0 -0.014761133379280015 0.00016817378580494353 0 -0.014730256291389271 0.00015631656462247756 0 -0.014731763701612853 0.00017429852456153413 0 -0.014730256291389271 0.00015631656462247756 0 -0.014709637970986506 0.00015876758638650032 0 -0.014731763701612853 0.00017429852456153413 0 -0.014730256291389271 0.00015631656462247756 0 -0.014711428040287657 0.00014758761063953345 0 -0.014709637970986506 0.00015876758638650032 0 -0.014730256291389271 0.00015631656462247756 0 -0.014711428040287657 0.00014758761063953345 0 -0.01470892238175466 0.00014999189615878022 0 -0.014730256291389271 0.00015631656462247756 0 -0.014695343296061703 0.00016060131497468033 0 -0.014700211762001198 0.000161173792914941 0 -0.014745655954589173 0.00015885309191160791 0 -0.014730256291389271 0.00015631656462247756 0 -0.014695343296061703 0.00016060131497468033 0 -0.014695343296061703 0.00016060131497468033 0 -0.014667613731571834 0.00018047751881110691 0 -0.014700211762001198 0.000161173792914941 0 -0.014667613731571834 0.00018047751881110691 0 -0.014700211762001198 0.000161173792914941 0 -0.014683488208454665 0.0001692779649934283 0 -0.014667613731571834 0.00018047751881110691 0 -0.014683488208454665 0.0001692779649934283 0 -0.01465401035814856 0.00019349180198326556 0 -0.014711428040287657 0.00014758761063953345 0 -0.01470892238175466 0.00014999189615878022 0 -0.014698586447216243 0.00013383244829854124 0 -0.014700211762001198 0.000161173792914941 0 -0.01470892238175466 0.00014999189615878022 0 -0.014697171328189517 0.00015130335105685127 0 -0.014730256291389271 0.00015631656462247756 0 -0.014700211762001198 0.000161173792914941 0 -0.01470892238175466 0.00014999189615878022 0 -0.014700211762001198 0.000161173792914941 0 -0.014683488208454665 0.0001692779649934283 0 -0.014697171328189517 0.00015130335105685127 0 -0.014697171328189517 0.00015130335105685127 0 -0.014698586447216243 0.00013383244829854124 0 -0.014693349832537582 0.00013884338057984873 0 -0.01470892238175466 0.00014999189615878022 0 -0.014697171328189517 0.00015130335105685127 0 -0.014698586447216243 0.00013383244829854124 0 -0.014693349832537582 0.00013884338057984873 0 -0.014687037016682305 0.00016153305779905542 0 -0.014690811951462792 0.00015611694908401373 0 -0.014697171328189517 0.00015130335105685127 0 -0.014693349832537582 0.00013884338057984873 0 -0.014687037016682305 0.00016153305779905542 0 -0.014683488208454665 0.0001692779649934283 0 -0.014697171328189517 0.00015130335105685127 0 -0.014687037016682305 0.00016153305779905542 0 -0.014687037016682305 0.00016153305779905542 0 -0.014675583712984597 0.00018633450099790207 0 -0.014690811951462792 0.00015611694908401373 0 -0.014687037016682305 0.00016153305779905542 0 -0.014675583712984597 0.00018633450099790207 0 -0.014668972689968965 0.00018459853656399117 0 -0.014693349832537582 0.00013884338057984873 0 -0.014690811951462792 0.00015611694908401373 0 -0.014687792844897105 0.00012912647103909065 0 -0.014683488208454665 0.0001692779649934283 0 -0.01465401035814856 0.00019349180198326556 0 -0.014668972689968965 0.00018459853656399117 0 -0.014683488208454665 0.0001692779649934283 0 -0.014687037016682305 0.00016153305779905542 0 -0.014668972689968965 0.00018459853656399117 0 -0.014675583712984597 0.00018633450099790207 0 -0.014668972689968965 0.00018459853656399117 0 -0.014639885253143938 0.00021823757061421604 0 -0.01465401035814856 0.00019349180198326556 0 -0.014668972689968965 0.00018459853656399117 0 -0.014639885253143938 0.00021823757061421604 0 -0.01465401035814856 0.00019349180198326556 0 -0.014639885253143938 0.00021823757061421604 0 -0.014603661048407986 0.0002257245364641066 0 -0.014595634884098081 0.00026045142432228112 0 -0.014639885253143938 0.00021823757061421604 0 -0.014603661048407986 0.0002257245364641066 0 -0.014667613731571834 0.00018047751881110691 0 -0.01465401035814856 0.00019349180198326556 0 -0.014603661048407986 0.0002257245364641066 0 -0.014541938947872105 0.00027965219143958621 0 -0.014537162496565073 0.0002518471237095061 0 -0.014603661048407986 0.0002257245364641066 0 -0.014537162496565073 0.0002518471237095061 0 -0.014603661048407986 0.0002257245364641066 0 -0.014608050191678714 0.00020310974355352646 0 -0.014537162496565073 0.0002518471237095061 0 -0.014608050191678714 0.00020310974355352646 0 -0.014570821310252785 0.00021045088967633824 0 -0.014667613731571834 0.00018047751881110691 0 -0.014603661048407986 0.0002257245364641066 0 -0.014608050191678714 0.00020310974355352646 0 -0.014695343296061703 0.00016060131497468033 0 -0.014667613731571834 0.00018047751881110691 0 -0.014608050191678714 0.00020310974355352646 0 -0.013884471958257554 -0.0002389102487563253 0 -0.013946273283743647 -0.0001605416782283568 0 -0.013770170633817419 -0.00026966604016974579 0 -0.01443854379174284 -6.2500233663059863e-05 0 -0.014569817936419623 0.00011877272420033415 0 -0.014465111913122143 0.00016430504106322279 0 -0.01443854379174284 -6.2500233663059863e-05 0 -0.014636166356460804 9.0033989313677702e-05 0 -0.014569817936419623 0.00011877272420033415 0 -0.01443854379174284 -6.2500233663059863e-05 0 -0.014465111913122143 0.00016430504106322279 0 -0.014195823757648282 0.00017257772309864225 0 -0.014172115816891328 -0.0001012801300266733 0 -0.013885308217975584 9.756208138432819e-06 0 -0.01443854379174284 -6.2500233663059863e-05 0 -0.014195823757648282 0.00017257772309864225 0 -0.013878222856019282 5.8494629040285947e-06 0 -0.013884471958257554 -0.0002389102487563253 0 -0.013909309038113828 -0.00020299081787153835 0 -0.013946273283743647 -0.0001605416782283568 0 -0.014172115816891328 -0.0001012801300266733 0 -0.014260070168895468 -7.5946456496554256e-05 0 -0.013909309038113828 -0.00020299081787153835 0 -0.013946273283743647 -0.0001605416782283568 0 -0.013884631724863775 -0.00021549380758741754 0 -0.01443854379174284 -6.2500233663059863e-05 0 -0.01465034266260205 4.4866028566389448e-05 0 -0.014636166356460804 9.0033989313677702e-05 0 -0.01465034266260205 4.4866028566389448e-05 0 -0.014668629929437087 9.0770980404483414e-05 0 -0.014636166356460804 9.0033989313677702e-05 0 -0.014277294978388162 -4.7985138510334904e-05 0 -0.014260070168895468 -7.5946456496554256e-05 0 -0.014678233026895809 0.00010014290396423854 0 -0.01465034266260205 4.4866028566389448e-05 0 -0.014678843415844968 9.5129165504938534e-05 0 -0.01465034266260205 4.4866028566389448e-05 0 -0.014678843415844968 9.5129165504938534e-05 0 -0.014668629929437087 9.0770980404483414e-05 0 -0.014678843415844968 9.5129165504938534e-05 0 -0.014668629929437087 9.0770980404483414e-05 0 -0.014687627755146778 0.00011560812839151276 0 -0.014693349832537582 0.00013884338057984873 0 -0.014687792844897105 0.00012912647103909065 0 -0.014687627755146778 0.00011560812839151276 0 -0.014687792844897105 0.00012912647103909065 0 -0.014678843415844968 9.5129165504938534e-05 0 -0.014687627755146778 0.00011560812839151276 0 -0.014698586447216243 0.00013383244829854124 0 -0.014693349832537582 0.00013884338057984873 0 -0.014687627755146778 0.00011560812839151276 0 -0.014698586447216243 0.00013383244829854124 0 -0.014687627755146778 0.00011560812839151276 0 -0.01468437835359245 0.00011732182950220283 0 -0.014668629929437087 9.0770980404483414e-05 0 -0.014687627755146778 0.00011560812839151276 0 -0.01468437835359245 0.00011732182950220283 0 -0.014668629929437087 9.0770980404483414e-05 0 -0.01468437835359245 0.00011732182950220283 0 -0.014636166356460804 9.0033989313677702e-05 0 -0.01468437835359245 0.00011732182950220283 0 -0.014636166356460804 9.0033989313677702e-05 0 -0.014686793425177118 0.00013653021739357807 0 -0.014711428040287657 0.00014758761063953345 0 -0.01468437835359245 0.00011732182950220283 0 -0.014686793425177118 0.00013653021739357807 0 -0.014711428040287657 0.00014758761063953345 0 -0.014698586447216243 0.00013383244829854124 0 -0.01468437835359245 0.00011732182950220283 0 -0.014636166356460804 9.0033989313677702e-05 0 -0.014569817936419623 0.00011877272420033415 0 -0.014660028059010854 0.00015414655795204416 0 -0.014636166356460804 9.0033989313677702e-05 0 -0.014660028059010854 0.00015414655795204416 0 -0.014686793425177118 0.00013653021739357807 0 -0.014569817936419623 0.00011877272420033415 0 -0.014660028059010854 0.00015414655795204416 0 -0.01460884467271909 0.00018275810278671779 0 -0.014660028059010854 0.00015414655795204416 0 -0.01460884467271909 0.00018275810278671779 0 -0.014689433668588827 0.00017991630791834701 0 -0.014711428040287657 0.00014758761063953345 0 -0.014686793425177118 0.00013653021739357807 0 -0.014709637970986506 0.00015876758638650032 0 -0.014660028059010854 0.00015414655795204416 0 -0.014686793425177118 0.00013653021739357807 0 -0.014709637970986506 0.00015876758638650032 0 -0.014660028059010854 0.00015414655795204416 0 -0.014689433668588827 0.00017991630791834701 0 -0.014709637970986506 0.00015876758638650032 0 -0.014689433668588827 0.00017991630791834701 0 -0.014709637970986506 0.00015876758638650032 0 -0.014731763701612853 0.00017429852456153413 0 -0.014689433668588827 0.00017991630791834701 0 -0.014731763701612853 0.00017429852456153413 0 -0.014715508156484031 0.00019598727913513493 0 -0.014689433668588827 0.00017991630791834701 0 -0.014715508156484031 0.00019598727913513493 0 -0.01466113424921666 0.00021669295249171383 0 -0.014715508156484031 0.00019598727913513493 0 -0.01466113424921666 0.00021669295249171383 0 -0.014716298620435705 0.00022018169300024197 0 -0.014715508156484031 0.00019598727913513493 0 -0.014753005054649559 0.00019244744050508046 0 -0.014716298620435705 0.00022018169300024197 0 -0.014731763701612853 0.00017429852456153413 0 -0.014715508156484031 0.00019598727913513493 0 -0.014753005054649559 0.00019244744050508046 0 -0.01460884467271909 0.00018275810278671779 0 -0.014593398604839854 0.00024752586866384031 0 -0.01466113424921666 0.00021669295249171383 0 -0.01460884467271909 0.00018275810278671779 0 -0.014689433668588827 0.00017991630791834701 0 -0.01466113424921666 0.00021669295249171383 0 -0.01466113424921666 0.00021669295249171383 0 -0.01464927627243132 0.00024883552327197147 0 -0.014716298620435705 0.00022018169300024197 0 -0.014593398604839854 0.00024752586866384031 0 -0.01464927627243132 0.00024883552327197147 0 -0.014586027829063059 0.00028030984311201181 0 -0.014593398604839854 0.00024752586866384031 0 -0.01466113424921666 0.00021669295249171383 0 -0.01464927627243132 0.00024883552327197147 0 -0.014593398604839854 0.00024752586866384031 0 -0.014586027829063059 0.00028030984311201181 0 -0.014538109023533571 0.00028237099227186683 0 -0.014586027829063059 0.00028030984311201181 0 -0.014538109023533571 0.00028237099227186683 0 -0.014520987786721902 0.00031469701796039604 0 -0.014538109023533571 0.00028237099227186683 0 -0.014422334385445166 0.00036984503965139398 0 -0.014520987786721902 0.00031469701796039604 0 -0.014538109023533571 0.00028237099227186683 0 -0.01450137092211371 0.00025770530301416541 0 -0.014422334385445166 0.00036984503965139398 0 -0.01450137092211371 0.00025770530301416541 0 -0.014367884348482633 0.00026388217702948217 0 -0.014422334385445166 0.00036984503965139398 0 -0.014593398604839854 0.00024752586866384031 0 -0.014538109023533571 0.00028237099227186683 0 -0.01450137092211371 0.00025770530301416541 0 -0.01460884467271909 0.00018275810278671779 0 -0.014593398604839854 0.00024752586866384031 0 -0.01450137092211371 0.00025770530301416541 0 -0.01460884467271909 0.00018275810278671779 0 -0.01450137092211371 0.00025770530301416541 0 -0.014465111913122143 0.00016430504106322279 0 -0.01450137092211371 0.00025770530301416541 0 -0.014465111913122143 0.00016430504106322279 0 -0.014367884348482633 0.00026388217702948217 0 -0.014569817936419623 0.00011877272420033415 0 -0.01460884467271909 0.00018275810278671779 0 -0.014465111913122143 0.00016430504106322279 0 -0.014465111913122143 0.00016430504106322279 0 -0.014195823757648282 0.00017257772309864225 0 -0.014367884348482633 0.00026388217702948217 0 -0.014195823757648282 0.00017257772309864225 0 -0.014192129883222247 0.00035149201996683668 0 -0.014367884348482633 0.00026388217702948217 0 -0.014192129883222247 0.00035149201996683668 0 -0.014367884348482633 0.00026388217702948217 0 -0.014422334385445166 0.00036984503965139398 0 -0.014395611882696249 0.00035050965271283136 0 -0.014132478611286019 0.00043873958633382335 0 -0.014192129883222247 0.00035149201996683668 0 -0.014422334385445166 0.00036984503965139398 0 -0.014219129119632702 0.00057549609508050423 0 -0.01435487489608551 0.00033344496917072746 0 -0.01437870594967177 0.0003455787063087794 0 -0.014348195533715415 0.00035871568635073434 0 -0.014422334385445166 0.00036984503965139398 0 -0.014441166430948314 0.00034992415341784916 0 -0.014483375681386051 0.00033714276435204587 0 -0.014441166430948314 0.00034992415341784916 0 -0.014483375681386051 0.00033714276435204587 0 -0.014505365863396957 0.00034869423884518178 0 -0.014132478611286019 0.00043873958633382335 0 -0.014669201350065516 0.00027107509576517407 0 -0.014422334385445166 0.00036984503965139398 0 -0.014520987786721902 0.00031469701796039604 0 -0.014483375681386051 0.00033714276435204587 0 -0.014520987786721902 0.00031469701796039604 0 -0.01452757643611117 0.00032180562516090025 0 -0.014483375681386051 0.00033714276435204587 0 -0.01452757643611117 0.00032180562516090025 0 -0.014483375681386051 0.00033714276435204587 0 -0.014539769886577217 0.00033218690714105286 0 -0.014586027829063059 0.00028030984311201181 0 -0.014520987786721902 0.00031469701796039604 0 -0.014565578449722451 0.00030473702919975234 0 -0.014520987786721902 0.00031469701796039604 0 -0.01452757643611117 0.00032180562516090025 0 -0.014565578449722451 0.00030473702919975234 0 -0.01452757643611117 0.00032180562516090025 0 -0.014565578449722451 0.00030473702919975234 0 -0.014539769886577217 0.00033218690714105286 0 -0.014565578449722451 0.00030473702919975234 0 -0.014539769886577217 0.00033218690714105286 0 -0.014636169549040148 0.00027882180185942462 0 -0.014483375681386051 0.00033714276435204587 0 -0.014539769886577217 0.00033218690714105286 0 -0.014505365863396957 0.00034869423884518178 0 -0.014619857840571208 0.00029583642912702456 0 -0.014669201350065516 0.00027107509576517407 0 -0.014539769886577217 0.00033218690714105286 0 -0.014521095971112369 0.00034565718260148008 0 -0.014736272811474662 0.00027397784869475083 0 -0.014994702866420968 3.29628317677158e-05 0 -0.014997405749803251 2.7067437424075816e-05 0 -0.014992486476490676 4.608322559761274e-05 0 -0.014994702866420968 3.29628317677158e-05 0 -0.014997405749803251 2.7067437424075816e-05 0 -0.014998290921580433 2.4205697458996959e-05 0 -0.014669201350065516 0.00027107509576517407 0 -0.014681479782367677 0.00017988815222924601 0 -0.014753005054649559 0.00019244744050508046 0 -0.014783571284035098 0.00021094558066620702 0 -0.014716298620435705 0.00022018169300024197 0 -0.014783571284035098 0.00021094558066620702 0 -0.014716298620435705 0.00022018169300024197 0 -0.014717311362471544 0.00024387524907960864 0 -0.014539769886577217 0.00033218690714105286 0 -0.014636169549040148 0.00027882180185942462 0 -0.014736272811474662 0.00027397784869475083 0 -0.01464927627243132 0.00024883552327197147 0 -0.014716298620435705 0.00022018169300024197 0 -0.014717311362471544 0.00024387524907960864 0 -0.01464927627243132 0.00024883552327197147 0 -0.014717311362471544 0.00024387524907960864 0 -0.014636169549040148 0.00027882180185942462 0 -0.014586027829063059 0.00028030984311201181 0 -0.014565578449722451 0.00030473702919975234 0 -0.014636169549040148 0.00027882180185942462 0 -0.01464927627243132 0.00024883552327197147 0 -0.014586027829063059 0.00028030984311201181 0 -0.014636169549040148 0.00027882180185942462 0 -0.014669201350065516 0.00027107509576517407 0 -0.014868757426623726 0.00014019257072300757 0 -0.014717311362471544 0.00024387524907960864 0 -0.014636169549040148 0.00027882180185942462 0 -0.014736272811474662 0.00027397784869475083 0 -0.014855044277492376 0.00017430322765549312 0 -0.014783571284035098 0.00021094558066620702 0 -0.014736272811474662 0.00027397784869475083 0 -0.014783571284035098 0.00021094558066620702 0 -0.014717311362471544 0.00024387524907960864 0 -0.014736272811474662 0.00027397784869475083 0 -0.014934886152557579 9.088963254029147e-05 0 -0.014855044277492376 0.00017430322765549312 0 -0.014736272811474662 0.00027397784869475083 0 -0.014934886152557579 9.088963254029147e-05 0 -0.014992486476490676 4.608322559761274e-05 0 -0.014997121864998804 2.9070132748370064e-05 0 -0.014907979296234917 9.7663019290384546e-05 0 -0.014868757426623726 0.00014019257072300757 0 -0.014992486476490676 4.608322559761274e-05 0 -0.014997121864998804 2.9070132748370064e-05 0 -0.014999186550958997 1.9123300613678135e-05 0 -0.014997121864998804 2.9070132748370064e-05 0 -0.014999186550958997 1.9123300613678135e-05 0 -0.0150000112365835 2.125044842386594e-08 0 -0.014997121864998804 2.9070132748370064e-05 0 -0.014999961505985948 2.42525889081411e-08 0 -0.0150000112365835 2.125044842386594e-08 0 -0.014934886152557579 9.088963254029147e-05 0 -0.014997121864998804 2.9070132748370064e-05 0 -0.014999961505985948 2.42525889081411e-08 0 -0.014997405749803251 2.7067437424075816e-05 0 -0.014999726592763699 1.3646750406819226e-05 0 -0.014998290921580433 2.4205697458996959e-05 0 -0.014997405749803251 2.7067437424075816e-05 0 -0.014999186550958997 1.9123300613678135e-05 0 -0.014999726592763699 1.3646750406819226e-05 0 -0.014997405749803251 2.7067437424075816e-05 0 -0.014992486476490676 4.608322559761274e-05 0 -0.014999186550958997 1.9123300613678135e-05 0 -0.014999186550958997 1.9123300613678135e-05 0 -0.0150000112365835 2.125044842386594e-08 0 -0.014999998339172286 8.8730008664391796e-09 0 -0.014999186550958997 1.9123300613678135e-05 0 -0.014999998339172286 8.8730008664391796e-09 0 -0.014999726592763699 1.3646750406819226e-05 0 -0.014999998339172286 8.8730008664391796e-09 0 -0.014999726592763699 1.3646750406819226e-05 0 -0.01500000297069567 6.058567324344962e-09 0 -0.014999726592763699 1.3646750406819226e-05 0 -0.014999563335815149 1.2984405828661022e-05 0 -0.014998290921580433 2.4205697458996959e-05 0 -0.014999726592763699 1.3646750406819226e-05 0 -0.014999563335815149 1.2984405828661022e-05 0 -0.01500000297069567 6.058567324344962e-09 0 -0.014999563335815149 1.2984405828661022e-05 0 -0.01500000297069567 6.058567324344962e-09 0 -0.014999662919146487 5.3237161722403881e-06 0 -0.01500000297069567 6.058567324344962e-09 0 -0.01499999758225316 4.1488252796622875e-09 0 -0.014999662919146487 5.3237161722403881e-06 0 -0.01499999758225316 4.1488252796622875e-09 0 -0.014999662919146487 5.3237161722403881e-06 0 -0.014999023881190478 1.3033185870029253e-06 0 -0.01499999758225316 4.1488252796622875e-09 0 -0.014999332542211353 7.2647640567358518e-07 0 -0.014999023881190478 1.3033185870029253e-06 0 -0.014694114752621118 0.00016820522879664471 0 -0.014516779241578294 0.00020371329436010978 0 -0.013701331948027926 0.00058801747234037865 0 -0.014516779241578294 0.00020371329436010978 0 -0.013557462991426518 0.00059310010675694329 0 -0.013187818494440227 0.00075927669233740369 0 -0.013991766405906063 0.00026393794863812433 0 -0.013557462991426518 0.00059310010675694329 0 -0.013254818791827912 0.00072651650519888703 0 -0.013042630992288914 0.00073567019538715753 0 -0.014325247107272071 0.00035396750691768318 0 -0.014323429398175179 0.00035953546773478365 0 -0.014345772481988799 0.00034050074797579185 0 -0.013524300344878344 0.00061023186113512656 0 -0.013591396890189162 0.00095557219979327623 0 -0.013557462991426518 0.00059310010675694329 0 -0.013187818494440227 0.00075927669233740369 0 -0.013254818791827912 0.00072651650519888703 0 -0.014655422693611244 0.00019149283235899754 0 -0.014694114752621118 0.00016820522879664471 0 -0.014327202473155755 0.00036100849612953503 0 -0.014325247107272071 0.00035396750691768318 0 -0.014323429398175179 0.00035953546773478365 0 -0.013187818494440227 0.00075927669233740369 0 -0.013232108271249059 0.00070816218703658427 0 -0.013400408179385887 0.0006843204313847763 0 -0.013232108271249059 0.00070816218703658427 0 -0.013213326618447532 0.0006573410405536817 0 -0.013400408179385887 0.0006843204313847763 0 -0.013187818494440227 0.00075927669233740369 0 -0.013232108271249059 0.00070816218703658427 0 -0.013254818791827912 0.00072651650519888703 0 -0.013232108271249059 0.00070816218703658427 0 -0.013213326618447532 0.0006573410405536817 0 -0.013254818791827912 0.00072651650519888703 0 -0.013213326618447532 0.0006573410405536817 0 -0.013254818791827912 0.00072651650519888703 0 -0.013124965067141958 0.00062671396153775023 0 -0.013254818791827912 0.00072651650519888703 0 -0.013124965067141958 0.00062671396153775023 0 -0.013042630992288914 0.00073567019538715753 0 -0.013213326618447532 0.0006573410405536817 0 -0.013124965067141958 0.00062671396153775023 0 -0.013172530773985017 0.00055831358462982118 0 -0.013124965067141958 0.00062671396153775023 0 -0.013172530773985017 0.00055831358462982118 0 -0.013037349064991606 0.00048268582774151574 0 -0.013124965067141958 0.00062671396153775023 0 -0.012973702372841496 0.00052688093402312834 0 -0.013037349064991606 0.00048268582774151574 0 -0.013213326618447532 0.0006573410405536817 0 -0.013278311006298399 0.00053472268937570936 0 -0.013400408179385887 0.0006843204313847763 0 -0.013213326618447532 0.0006573410405536817 0 -0.013172530773985017 0.00055831358462982118 0 -0.013278311006298399 0.00053472268937570936 0 -0.013278311006298399 0.00053472268937570936 0 -0.013432489877064056 0.00053440237882822596 0 -0.013400408179385887 0.0006843204313847763 0 -0.01435487489608551 0.00033344496917072746 0 -0.014348195533715415 0.00035871568635073434 0 -0.014327812841989173 0.00035605883500449271 0 -0.014132478611286019 0.00043873958633382335 0 -0.013851314731190547 0.00051327181601910823 0 -0.013632393162803871 0.00052619064248442292 0 -0.013432489877064056 0.00053440237882822596 0 -0.013400408179385887 0.0006843204313847763 0 -0.014327202473155755 0.00036100849612953503 0 -0.014348195533715415 0.00035871568635073434 0 -0.014327812841989173 0.00035605883500449271 0 -0.014655422693611244 0.00019149283235899754 0 -0.014681479782367677 0.00017988815222924601 0 -0.013701331948027926 0.00058801747234037865 0 -0.013851314731190547 0.00051327181601910823 0 -0.014327202473155755 0.00036100849612953503 0 -0.014323429398175179 0.00035953546773478365 0 -0.014327812841989173 0.00035605883500449271 0 -0.014987781311365616 -9.9096609217299571e-06 0 -0.01496350165117785 -4.6939395663812083e-05 0 -0.014939883352359807 -1.9535608470174797e-05 0 -0.014987781311365616 -9.9096609217299571e-06 0 -0.014991458834901798 -1.8874916877109886e-05 0 -0.01496350165117785 -4.6939395663812083e-05 0 -0.014994641863171749 4.9370828787739133e-06 0 -0.014999965592465726 6.919370575688704e-09 0 -0.014999970919290381 1.5260188286784481e-08 0 -0.014987781311365616 -9.9096609217299571e-06 0 -0.014994641863171749 4.9370828787739133e-06 0 -0.014999965592465726 6.919370575688704e-09 0 -0.014987781311365616 -9.9096609217299571e-06 0 -0.014994641863171749 4.9370828787739133e-06 0 -0.014939883352359807 -1.9535608470174797e-05 0 -0.014999965592465726 6.919370575688704e-09 0 -0.014997657062884636 -6.4147724024528539e-06 0 -0.015000023787696971 -7.9711092348275455e-09 0 -0.014987781311365616 -9.9096609217299571e-06 0 -0.014999965592465726 6.919370575688704e-09 0 -0.014997657062884636 -6.4147724024528539e-06 0 -0.014997657062884636 -6.4147724024528539e-06 0 -0.014991458834901798 -1.8874916877109886e-05 0 -0.015002128066969012 -1.063607061467372e-05 0 -0.014987781311365616 -9.9096609217299571e-06 0 -0.014997657062884636 -6.4147724024528539e-06 0 -0.014991458834901798 -1.8874916877109886e-05 0 -0.01486170046051918 0.00031673052177496399 0 -0.014014609834762066 0.0008146151744630642 0 -0.014991458834901798 -1.8874916877109886e-05 0 -0.015002128066969012 -1.063607061467372e-05 0 -0.014994723287666255 -2.7929661376597321e-05 0 -0.014625188497873674 0.00075568177355665115 0 -0.015000850129819982 4.8787790479506403e-08 0 -0.014559666566773197 0.00040279260435511322 0 -0.01486170046051918 0.00031673052177496399 0 -0.014999860359594363 2.2674960697234191e-08 0 -0.014997657062884636 -6.4147724024528539e-06 0 -0.015002128066969012 -1.063607061467372e-05 0 -0.015000023787696971 -7.9711092348275455e-09 0 -0.01499999758225316 4.1488252796622875e-09 0 -0.014999995908224912 6.6265067386540349e-10 0 -0.014999332542211353 7.2647640567358518e-07 0 -0.014559666566773197 0.00040279260435511322 0 -0.013991766405906063 0.00026393794863812433 0 -0.014149712276710903 0.00083587663856172438 0 -0.015000850129819982 4.8787790479506403e-08 0 -0.014559666566773197 0.00040279260435511322 0 -0.014998445806506125 -6.5507901715803726e-08 0 -0.014999770061729421 4.7657478019523853e-08 0 -0.014516779241578294 0.00020371329436010978 0 -0.014559666566773197 0.00040279260435511322 0 -0.014998445806506125 -6.5507901715803726e-08 0 -0.013991766405906063 0.00026393794863812433 0 -0.014999995908224912 6.6265067386540349e-10 0 -0.014999332542211353 7.2647640567358518e-07 0 -0.014998256841756336 1.8190539924344295e-06 0 -0.014858420049873639 -4.7192225964192854e-06 0 -0.014516779241578294 0.00020371329436010978 0 -0.013557462991426518 0.00059310010675694329 0 -0.013991766405906063 0.00026393794863812433 0 -0.014149712276710903 0.00083587663856172438 0 -0.013557462991426518 0.00059310010675694329 0 -0.014149712276710903 0.00083587663856172438 0 -0.014162128506404274 0.0012840357491986259 0 -0.014625188497873674 0.00075568177355665115 0 -0.014559666566773197 0.00040279260435511322 0 -0.014149712276710903 0.00083587663856172438 0 -0.014625188497873674 0.00075568177355665115 0 -0.014149712276710903 0.00083587663856172438 0 -0.01424575016889772 0.0011010970215931887 0 -0.014149712276710903 0.00083587663856172438 0 -0.014162128506404274 0.0012840357491986259 0 -0.01424575016889772 0.0011010970215931887 0 -0.014162128506404274 0.0012840357491986259 0 -0.01406484363734373 0.0012509307334159308 0 -0.01424575016889772 0.0011010970215931887 0 -0.013591396890189162 0.00095557219979327623 0 -0.013277292249023655 0.0005958062710115661 0 -0.013124965067141958 0.00062671396153775023 0 -0.013042630992288914 0.00073567019538715753 0 -0.012973702372841496 0.00052688093402312834 0 -0.014162128506404274 0.0012840357491986259 0 -0.013789207248302867 0.00071121022827129617 0 -0.01406484363734373 0.0012509307334159308 0 -0.013042630992288914 0.00073567019538715753 0 -0.012973702372841496 0.00052688093402312834 0 -0.012772285030044265 0.00042163228829065807 0 -0.013789207248302867 0.00071121022827129617 0 -0.013630466580853167 0.0013391575703702733 0 -0.013072479750616249 0.00053008144410524212 0 -0.013789207248302867 0.00071121022827129617 0 -0.013630466580853167 0.0013391575703702733 0 -0.01406484363734373 0.0012509307334159308 0 -0.014625188497873674 0.00075568177355665115 0 -0.014458418848674669 0.0012584216490549628 0 -0.01424575016889772 0.0011010970215931887 0 -0.014014609834762066 0.0008146151744630642 0 -0.014041244851392468 0.0011233357064479388 0 -0.014458418848674669 0.0012584216490549628 0 -0.01406484363734373 0.0012509307334159308 0 -0.01424575016889772 0.0011010970215931887 0 -0.014991458834901798 -1.8874916877109886e-05 0 -0.014994723287666255 -2.7929661376597321e-05 0 -0.01496350165117785 -4.6939395663812083e-05 0 -0.014014609834762066 0.0008146151744630642 0 -0.013963563711794755 0.000246843963909577 0 -0.013101018872683013 0.00068034265752088552 0 -0.013010296832348526 0.0006178637473390966 0 -0.012922129245689506 0.00068791223714385322 0 -0.014014609834762066 0.0008146151744630642 0 -0.012918142763508113 0.00058419583051033718 0 -0.013010296832348526 0.0006178637473390966 0 -0.012912080879966453 0.00057414700551257391 0 -0.013072479750616249 0.00053008144410524212 0 -0.013101018872683013 0.00068034265752088552 0 -0.013010296832348526 0.0006178637473390966 0 -0.013072479750616249 0.00053008144410524212 0 -0.013010296832348526 0.0006178637473390966 0 -0.012912080879966453 0.00057414700551257391 0 -0.012922129245689506 0.00068791223714385322 0 -0.01286424771280084 0.00039181562019656804 0 -0.012841367795363537 0.00043633033438371328 0 -0.012836062592127389 0.00039595099166932424 0 -0.01286424771280084 0.00039181562019656804 0 -0.012850257943387117 0.0003724131805756942 0 -0.012836062592127389 0.00039595099166932424 0 -0.01286424771280084 0.00039181562019656804 0 -0.012877730885332979 0.00034577072400554336 0 -0.012850257943387117 0.0003724131805756942 0 -0.01286424771280084 0.00039181562019656804 0 -0.01290916447577261 0.00038930645924478496 0 -0.012877730885332979 0.00034577072400554336 0 -0.01286424771280084 0.00039181562019656804 0 -0.012881800644187582 0.00046772841721941325 0 -0.01290916447577261 0.00038930645924478496 0 -0.01286424771280084 0.00039181562019656804 0 -0.012881800644187582 0.00046772841721941325 0 -0.012841367795363537 0.00043633033438371328 0 -0.012912080879966453 0.00057414700551257391 0 -0.012881800644187582 0.00046772841721941325 0 -0.013072479750616249 0.00053008144410524212 0 -0.012912080879966453 0.00057414700551257391 0 -0.012881800644187582 0.00046772841721941325 0 -0.012832173584312786 0.00050831103230471132 0 -0.012881800644187582 0.00046772841721941325 0 -0.013072479750616249 0.00053008144410524212 0 -0.01290916447577261 0.00038930645924478496 0 -0.013072479750616249 0.00053008144410524212 0 -0.012899869478234689 0.00028583501889304893 0 -0.01290916447577261 0.00038930645924478496 0 -0.012899869478234689 0.00028583501889304893 0 -0.012877730885332979 0.00034577072400554336 0 -0.012807222323934967 0.0003535379348350431 0 -0.012899869478234689 0.00028583501889304893 0 -0.01290916447577261 0.00038930645924478496 0 -0.012877730885332979 0.00034577072400554336 0 -0.012899869478234689 0.00028583501889304893 0 -0.012729035652826721 0.00030240040062336015 0 -0.012807222323934967 0.0003535379348350431 0 -0.012899869478234689 0.00028583501889304893 0 -0.012764469049344125 0.0003017550738319776 0 -0.012729035652826721 0.00030240040062336015 0 -0.013789207248302867 0.00071121022827129617 0 -0.013072479750616249 0.00053008144410524212 0 -0.012899869478234689 0.00028583501889304893 0 -0.013277292249023655 0.0005958062710115661 0 -0.012961905623397548 0.00031849478405292204 0 -0.012772285030044265 0.00042163228829065807 0 -0.012899869478234689 0.00028583501889304893 0 -0.012764469049344125 0.0003017550738319776 0 -0.012897052709273165 0.00040612932282404237 0 -0.012764469049344125 0.0003017550738319776 0 -0.012938067370238629 0.00035087168303881994 0 -0.012772285030044265 0.00042163228829065807 0 -0.012897052709273165 0.00040612932282404237 0 -0.012764469049344125 0.0003017550738319776 0 -0.012973702372841496 0.00052688093402312834 0 -0.012772285030044265 0.00042163228829065807 0 -0.012897052709273165 0.00040612932282404237 0 -0.012973702372841496 0.00052688093402312834 0 -0.012897052709273165 0.00040612932282404237 0 -0.013037349064991606 0.00048268582774151574 0 -0.012764469049344125 0.0003017550738319776 0 -0.012938067370238629 0.00035087168303881994 0 -0.012667839957078288 0.00018774830733623373 0 -0.012764469049344125 0.0003017550738319776 0 -0.012729035652826721 0.00030240040062336015 0 -0.012667839957078288 0.00018774830733623373 0 -0.012589868373771799 0.00042462658226003624 0 -0.012667839957078288 0.00018774830733623373 0 -0.012416935057747311 0.00038448466690488644 0 -0.012589868373771799 0.00042462658226003624 0 -0.012729035652826721 0.00030240040062336015 0 -0.012667839957078288 0.00018774830733623373 0 -0.012589868373771799 0.00042462658226003624 0 -0.012416935057747311 0.00038448466690488644 0 -0.012247179841865364 0.00055708776465934924 0 -0.012589868373771799 0.00042462658226003624 0 -0.012810542219690668 0.00042474056168318754 0 -0.012743633429224093 0.00048397721114219701 0 -0.012560613160828238 0.00042249479309333361 0 -0.012504655605739245 0.00055913353600058882 0 -0.012589868373771799 0.00042462658226003624 0 -0.012729035652826721 0.00030240040062336015 0 -0.012807222323934967 0.0003535379348350431 0 -0.012877730885332979 0.00034577072400554336 0 -0.012807222323934967 0.0003535379348350431 0 -0.012850257943387117 0.0003724131805756942 0 -0.012807222323934967 0.0003535379348350431 0 -0.012810542219690668 0.00042474056168318754 0 -0.012850257943387117 0.0003724131805756942 0 -0.012589868373771799 0.00042462658226003624 0 -0.012807222323934967 0.0003535379348350431 0 -0.012810542219690668 0.00042474056168318754 0 -0.01282242547667743 0.00040874245112334308 0 -0.012802258830576854 0.00043916824259762437 0 -0.012809735468117329 0.00041887554597237151 0 -0.012810542219690668 0.00042474056168318754 0 -0.01282242547667743 0.00040874245112334308 0 -0.012850257943387117 0.0003724131805756942 0 -0.012810542219690668 0.00042474056168318754 0 -0.01282242547667743 0.00040874245112334308 0 -0.012802258830576854 0.00043916824259762437 0 -0.01282242547667743 0.00040874245112334308 0 -0.012831854460127624 0.00039143168142738698 0 -0.012818311643253351 0.00040348668292332373 0 -0.01282242547667743 0.00040874245112334308 0 -0.012831854460127624 0.00039143168142738698 0 -0.012850257943387117 0.0003724131805756942 0 -0.012831854460127624 0.00039143168142738698 0 -0.012850257943387117 0.0003724131805756942 0 -0.012836062592127389 0.00039595099166932424 0 -0.013740630980124575 0.00039440148482516711 0 -0.013207500535062878 0.00021462902656805042 0 -0.01356840425435202 1.0145253257281981e-05 0 -0.013533252834210951 0.00039294380834034625 0 -0.013237813416287445 0.00021532061859817222 0 -0.013740630980124575 0.00039440148482516711 0 -0.01356840425435202 1.0145253257281981e-05 0 -0.013878222856019282 5.8494629040285947e-06 0 -0.014195823757648282 0.00017257772309864225 0 -0.013740630980124575 0.00039440148482516711 0 -0.013878222856019282 5.8494629040285947e-06 0 -0.013632393162803871 0.00052619064248442292 0 -0.013432489877064056 0.00053440237882822596 0 -0.013421730730454483 0.00038888882885446471 0 -0.014195823757648282 0.00017257772309864225 0 -0.014192129883222247 0.00035149201996683668 0 -0.013740630980124575 0.00039440148482516711 0 -0.014192129883222247 0.00035149201996683668 0 -0.014219129119632702 0.00057549609508050423 0 -0.013740630980124575 0.00039440148482516711 0 -0.014132478611286019 0.00043873958633382335 0 -0.013533252834210951 0.00039294380834034625 0 -0.013278311006298399 0.00053472268937570936 0 -0.013432489877064056 0.00053440237882822596 0 -0.013421730730454483 0.00038888882885446471 0 -0.013278311006298399 0.00053472268937570936 0 -0.013421730730454483 0.00038888882885446471 0 -0.013188932499014639 0.00041519732030303427 0 -0.013172530773985017 0.00055831358462982118 0 -0.013278311006298399 0.00053472268937570936 0 -0.013188932499014639 0.00041519732030303427 0 -0.013172530773985017 0.00055831358462982118 0 -0.013188932499014639 0.00041519732030303427 0 -0.013037349064991606 0.00048268582774151574 0 -0.013188932499014639 0.00041519732030303427 0 -0.013037349064991606 0.00048268582774151574 0 -0.012938067370238629 0.00035087168303881994 0 -0.012897052709273165 0.00040612932282404237 0 -0.013037349064991606 0.00048268582774151574 0 -0.012938067370238629 0.00035087168303881994 0 -0.012938067370238629 0.00035087168303881994 0 -0.013207500535062878 0.00021462902656805042 0 -0.012667839957078288 0.00018774830733623373 0 -0.013421730730454483 0.00038888882885446471 0 -0.013188932499014639 0.00041519732030303427 0 -0.013207500535062878 0.00021462902656805042 0 -0.013188932499014639 0.00041519732030303427 0 -0.012938067370238629 0.00035087168303881994 0 -0.013207500535062878 0.00021462902656805042 0 -0.013207500535062878 0.00021462902656805042 0 -0.013302524321811367 -0.00018851929824857341 0 -0.01356840425435202 1.0145253257281981e-05 0 -0.013207500535062878 0.00021462902656805042 0 -0.013302524321811367 -0.00018851929824857341 0 -0.012667839957078288 0.00018774830733623373 0 -0.012051713761899171 0.0003424599402686515 0 -0.012667839957078288 0.00018774830733623373 0 -0.012416935057747311 0.00038448466690488644 0 -0.012675873609107951 9.8406995002217927e-05 0 -0.012653938924101448 0.00017320020863730582 0 -0.012051713761899171 0.0003424599402686515 0 -0.012416935057747311 0.00038448466690488644 0 -0.012247179841865364 0.00055708776465934924 0 -0.012051713761899171 0.0003424599402686515 0 -0.011964212658664845 0.00058793084252140981 0 -0.012247179841865364 0.00055708776465934924 0 -0.012051713761899171 0.0003424599402686515 0 -0.011787031294093886 0.00049296195094833558 0 -0.011964212658664845 0.00058793084252140981 0 -0.013302524321811367 -0.00018851929824857341 0 -0.013770170633817419 -0.00026966604016974579 0 -0.01356840425435202 1.0145253257281981e-05 0 -0.013946273283743647 -0.0001605416782283568 0 -0.013770170633817419 -0.00026966604016974579 0 -0.013878222856019282 5.8494629040285947e-06 0 -0.012675873609107951 9.8406995002217927e-05 0 -0.012779280267065226 0.00010509885591858647 0 -0.013770170633817419 -0.00026966604016974579 0 -0.01356840425435202 1.0145253257281981e-05 0 -0.013878222856019282 5.8494629040285947e-06 0 -0.01269821126641474 0.00021035481223225725 0 -0.012779280267065226 0.00010509885591858647 0 -0.011787031294093886 0.00049296195094833558 0 -0.011772261722866457 0.00072940398817865262 0 -0.011964212658664845 0.00058793084252140981 0 -0.011618828882875252 0.00059791921949060107 0 -0.011787031294093886 0.00049296195094833558 0 -0.011772261722866457 0.00072940398817865262 0 -0.011618828882875252 0.00059791921949060107 0 -0.011594566056588337 0.00074893181377964023 0 -0.011772261722866457 0.00072940398817865262 0 -0.011594566056588337 0.00074893181377964023 0 -0.011772261722866457 0.00072940398817865262 0 -0.011635521464711937 0.00085505568934782737 0 -0.011772261722866457 0.00072940398817865262 0 -0.011737435464018361 0.00088403607633277012 0 -0.011865198227523136 0.00082021709859356369 0 -0.011772261722866457 0.00072940398817865262 0 -0.011737435464018361 0.00088403607633277012 0 -0.011635521464711937 0.00085505568934782737 0 -0.011962616496962163 0.00082908283139568187 0 -0.011875119670664543 0.00092562865606915816 0 -0.01181374854369106 0.00090640183272957945 0 -0.011737435464018361 0.00088403607633277012 0 -0.011865198227523136 0.00082021709859356369 0 -0.01181374854369106 0.00090640183272957945 0 -0.011865198227523136 0.00082021709859356369 0 -0.011962616496962163 0.00082908283139568187 0 -0.01181374854369106 0.00090640183272957945 0 -0.011772261722866457 0.00072940398817865262 0 -0.011865198227523136 0.00082021709859356369 0 -0.012018155739383843 0.00072402387265766484 0 -0.011865198227523136 0.00082021709859356369 0 -0.011962616496962163 0.00082908283139568187 0 -0.012018155739383843 0.00072402387265766484 0 -0.012018155739383843 0.00072402387265766484 0 -0.012247179841865364 0.00055708776465934924 0 -0.012176256513748011 0.0007179281572759175 0 -0.011962616496962163 0.00082908283139568187 0 -0.012018155739383843 0.00072402387265766484 0 -0.012176256513748011 0.0007179281572759175 0 -0.011772261722866457 0.00072940398817865262 0 -0.012018155739383843 0.00072402387265766484 0 -0.011964212658664845 0.00058793084252140981 0 -0.012018155739383843 0.00072402387265766484 0 -0.011964212658664845 0.00058793084252140981 0 -0.012247179841865364 0.00055708776465934924 0 -0.012589868373771799 0.00042462658226003624 0 -0.012247179841865364 0.00055708776465934924 0 -0.012176256513748011 0.0007179281572759175 0 -0.012589868373771799 0.00042462658226003624 0 -0.012176256513748011 0.0007179281572759175 0 -0.012276623703171691 0.00067236888764331249 0 -0.012176256513748011 0.0007179281572759175 0 -0.012276623703171691 0.00067236888764331249 0 -0.012118983359864343 0.00078389887048860405 0 -0.012802258830576854 0.00043916824259762437 0 -0.012743633429224093 0.00048397721114219701 0 -0.012789072771636838 0.00046483843233427675 0 -0.012810542219690668 0.00042474056168318754 0 -0.012802258830576854 0.00043916824259762437 0 -0.012743633429224093 0.00048397721114219701 0 -0.012276623703171691 0.00067236888764331249 0 -0.012077142195211417 0.00081740688446502229 0 -0.012118983359864343 0.00078389887048860405 0 -0.012743633429224093 0.00048397721114219701 0 -0.012789072771636838 0.00046483843233427675 0 -0.012770591592692488 0.00048102840631480341 0 -0.012504655605739245 0.00055913353600058882 0 -0.012421606000373881 0.00064255875138893772 0 -0.012770591592692488 0.00048102840631480341 0 -0.012772477612466474 0.00049954745012622365 0 -0.012787636186138596 0.00047942030639365712 0 -0.012789072771636838 0.00046483843233427675 0 -0.012770591592692488 0.00048102840631480341 0 -0.012787636186138596 0.00047942030639365712 0 -0.012077142195211417 0.00081740688446502229 0 -0.011979965222342123 0.00087611416825949542 0 -0.012118983359864343 0.00078389887048860405 0 -0.012077142195211417 0.00081740688446502229 0 -0.011979965222342123 0.00087611416825949542 0 -0.011951417439348093 0.00089519541426034694 0 -0.012421606000373881 0.00064255875138893772 0 -0.0123567305002615 0.00069305090943834729 0 -0.011962616496962163 0.00082908283139568187 0 -0.012176256513748011 0.0007179281572759175 0 -0.012007140984124332 0.00084228240668267308 0 -0.012176256513748011 0.0007179281572759175 0 -0.012118983359864343 0.00078389887048860405 0 -0.012007140984124332 0.00084228240668267308 0 -0.011979965222342123 0.00087611416825949542 0 -0.012007140984124332 0.00084228240668267308 0 -0.011875119670664543 0.00092562865606915816 0 -0.011979965222342123 0.00087611416825949542 0 -0.012118983359864343 0.00078389887048860405 0 -0.012007140984124332 0.00084228240668267308 0 -0.011962616496962163 0.00082908283139568187 0 -0.012007140984124332 0.00084228240668267308 0 -0.011875119670664543 0.00092562865606915816 0 -0.011979965222342123 0.00087611416825949542 0 -0.011875119670664543 0.00092562865606915816 0 -0.011851756890672064 0.00095507054358610097 0 -0.011875119670664543 0.00092562865606915816 0 -0.011809867934202727 0.00097439452629292228 0 -0.011851756890672064 0.00095507054358610097 0 -0.011875119670664543 0.00092562865606915816 0 -0.011809867934202727 0.00097439452629292228 0 -0.011752440240601507 0.0010053160834770716 0 -0.011979965222342123 0.00087611416825949542 0 -0.01188357056698189 0.00093541429581929264 0 -0.011951417439348093 0.00089519541426034694 0 -0.011979965222342123 0.00087611416825949542 0 -0.011851756890672064 0.00095507054358610097 0 -0.01188357056698189 0.00093541429581929264 0 -0.01179586408046961 0.0009918507294116208 0 -0.011790135542371356 0.0010054538224666917 0 -0.011839102311343433 0.00096725771105269178 0 -0.01188357056698189 0.00093541429581929264 0 -0.01179586408046961 0.0009918507294116208 0 -0.011839102311343433 0.00096725771105269178 0 -0.011851756890672064 0.00095507054358610097 0 -0.01179586408046961 0.0009918507294116208 0 -0.01175490854577175 0.001016570774457516 0 -0.011851756890672064 0.00095507054358610097 0 -0.01188357056698189 0.00093541429581929264 0 -0.01179586408046961 0.0009918507294116208 0 -0.01179586408046961 0.0009918507294116208 0 -0.01175490854577175 0.001016570774457516 0 -0.011709701749595711 0.0010475529045858418 0 -0.01179586408046961 0.0009918507294116208 0 -0.011709701749595711 0.0010475529045858418 0 -0.011742611651015351 0.0010343562031291903 0 -0.01179586408046961 0.0009918507294116208 0 -0.011790135542371356 0.0010054538224666917 0 -0.011742611651015351 0.0010343562031291903 0 -0.011790135542371356 0.0010054538224666917 0 -0.011742611651015351 0.0010343562031291903 0 -0.011754908805123081 0.0010378391746261176 0 -0.011809867934202727 0.00097439452629292228 0 -0.011747752945815856 0.0010175367128945571 0 -0.011752440240601507 0.0010053160834770716 0 -0.011809867934202727 0.00097439452629292228 0 -0.011851756890672064 0.00095507054358610097 0 -0.011747752945815856 0.0010175367128945571 0 -0.011851756890672064 0.00095507054358610097 0 -0.01175490854577175 0.001016570774457516 0 -0.011747752945815856 0.0010175367128945571 0 -0.01175490854577175 0.001016570774457516 0 -0.011669250116628524 0.0010705053630845323 0 -0.011709701749595711 0.0010475529045858418 0 -0.01175490854577175 0.001016570774457516 0 -0.011747752945815856 0.0010175367128945571 0 -0.011669250116628524 0.0010705053630845323 0 -0.011747752945815856 0.0010175367128945571 0 -0.011663321509283276 0.0010693096847876709 0 -0.011669250116628524 0.0010705053630845323 0 -0.011747752945815856 0.0010175367128945571 0 -0.011663321509283276 0.0010693096847876709 0 -0.011752440240601507 0.0010053160834770716 0 -0.011663321509283276 0.0010693096847876709 0 -0.011752440240601507 0.0010053160834770716 0 -0.011685076140829885 0.0010387863635139432 0 -0.011752440240601507 0.0010053160834770716 0 -0.011685076140829885 0.0010387863635139432 0 -0.011732340172671864 0.00098916784811209899 0 -0.011685076140829885 0.0010387863635139432 0 -0.011646622754228241 0.001039109074164568 0 -0.011732340172671864 0.00098916784811209899 0 -0.011685076140829885 0.0010387863635139432 0 -0.011646622754228241 0.001039109074164568 0 -0.011628415446575543 0.0010793259633340904 0 -0.011663321509283276 0.0010693096847876709 0 -0.011685076140829885 0.0010387863635139432 0 -0.011628415446575543 0.0010793259633340904 0 -0.011646622754228241 0.001039109074164568 0 -0.011628415446575543 0.0010793259633340904 0 -0.011590969399327099 0.0010878718237858455 0 -0.01157416396525161 0.0010498130975902513 0 -0.011646622754228241 0.001039109074164568 0 -0.011590969399327099 0.0010878718237858455 0 -0.011530282175722646 0.0010907668394262847 0 -0.01157416396525161 0.0010498130975902513 0 -0.011590969399327099 0.0010878718237858455 0 -0.01157416396525161 0.0010498130975902513 0 -0.011613993209461465 0.001004142508093619 0 -0.011646622754228241 0.001039109074164568 0 -0.011613993209461465 0.001004142508093619 0 -0.011646622754228241 0.001039109074164568 0 -0.01169463199367037 0.00096721683723062046 0 -0.011646622754228241 0.001039109074164568 0 -0.01169463199367037 0.00096721683723062046 0 -0.011732340172671864 0.00098916784811209899 0 -0.011613993209461465 0.001004142508093619 0 -0.01169463199367037 0.00096721683723062046 0 -0.011615024841448194 0.0009503869648488691 0 -0.011737435464018361 0.00088403607633277012 0 -0.011635521464711937 0.00085505568934782737 0 -0.011615024841448194 0.0009503869648488691 0 -0.011737435464018361 0.00088403607633277012 0 -0.01169463199367037 0.00096721683723062046 0 -0.011615024841448194 0.0009503869648488691 0 -0.011737435464018361 0.00088403607633277012 0 -0.01169463199367037 0.00096721683723062046 0 -0.01181374854369106 0.00090640183272957945 0 -0.011875119670664543 0.00092562865606915816 0 -0.01181374854369106 0.00090640183272957945 0 -0.011732340172671864 0.00098916784811209899 0 -0.011875119670664543 0.00092562865606915816 0 -0.011752440240601507 0.0010053160834770716 0 -0.011732340172671864 0.00098916784811209899 0 -0.01169463199367037 0.00096721683723062046 0 -0.01181374854369106 0.00090640183272957945 0 -0.011732340172671864 0.00098916784811209899 0 -0.011436289688788018 0.00073813479509207713 0 -0.01141014621303876 0.00074829470547274114 0 -0.011415227803051733 0.00071639233010244196 0 -0.011436289688788018 0.00073813479509207713 0 -0.01141014621303876 0.00074829470547274114 0 -0.011430420310134847 0.00078417875987397826 0 -0.011444171545496703 0.0008524731220589958 0 -0.011337048260741995 0.00095486630315291224 0 -0.011323200670203998 0.00082003923815721828 0 -0.011444171545496703 0.0008524731220589958 0 -0.011323200670203998 0.00082003923815721828 0 -0.011367262485844477 0.00072111623680505815 0 -0.011418619051532405 0.00079835407175323121 0 -0.011371316210757387 0.00072562221032767052 0 -0.011415227803051733 0.00071639233010244196 0 -0.011367262485844477 0.00072111623680505815 0 -0.011408592462569166 0.00068164504278489318 0 -0.01141014621303876 0.00074829470547274114 0 -0.011415227803051733 0.00071639233010244196 0 -0.011367262485844477 0.00072111623680505815 0 -0.011415227803051733 0.00071639233010244196 0 -0.011441161613313469 0.00067893025934916997 0 -0.011408592462569166 0.00068164504278489318 0 -0.011415227803051733 0.00071639233010244196 0 -0.011439060733504361 0.00070900864096902635 0 -0.011441161613313469 0.00067893025934916997 0 -0.011439060733504361 0.00070900864096902635 0 -0.011441161613313469 0.00067893025934916997 0 -0.011460124716651768 0.0006880096624905281 0 -0.011436289688788018 0.00073813479509207713 0 -0.011415227803051733 0.00071639233010244196 0 -0.011439060733504361 0.00070900864096902635 0 -0.011436289688788018 0.00073813479509207713 0 -0.011439060733504361 0.00070900864096902635 0 -0.011453218370781079 0.00071564806062167905 0 -0.011439060733504361 0.00070900864096902635 0 -0.011453218370781079 0.00071564806062167905 0 -0.011460124716651768 0.0006880096624905281 0 -0.011453218370781079 0.00071564806062167905 0 -0.01146946385486864 0.00071490996179503241 0 -0.011460124716651768 0.0006880096624905281 0 -0.011453218370781079 0.00071564806062167905 0 -0.01146946385486864 0.00071490996179503241 0 -0.011462769279142561 0.00073352793091035963 0 -0.011485359262496431 0.00069146077858826794 0 -0.011475615044045413 0.00069387328519489473 0 -0.011481329424983212 0.00070816204121556614 0 -0.011475615044045413 0.00069387328519489473 0 -0.01146946385486864 0.00071490996179503241 0 -0.011460124716651768 0.0006880096624905281 0 -0.011475615044045413 0.00069387328519489473 0 -0.01146946385486864 0.00071490996179503241 0 -0.011481329424983212 0.00070816204121556614 0 -0.01146946385486864 0.00071490996179503241 0 -0.011481329424983212 0.00070816204121556614 0 -0.011478357968371024 0.00073201374321655698 0 -0.011481329424983212 0.00070816204121556614 0 -0.011478357968371024 0.00073201374321655698 0 -0.011498151545123157 0.00071019294836989488 0 -0.011478357968371024 0.00073201374321655698 0 -0.011483758990637706 0.00076980366687285967 0 -0.011498151545123157 0.00071019294836989488 0 -0.011107487747582582 0.0011834290940069966 0 -0.011070705367429615 0.0011922802227506784 0 -0.011478357968371024 0.00073201374321655698 0 -0.011468278803703703 0.00075207541932883798 0 -0.011483758990637706 0.00076980366687285967 0 -0.01146946385486864 0.00071490996179503241 0 -0.011478357968371024 0.00073201374321655698 0 -0.011462769279142561 0.00073352793091035963 0 -0.011478357968371024 0.00073201374321655698 0 -0.011468278803703703 0.00075207541932883798 0 -0.011462769279142561 0.00073352793091035963 0 -0.011436289688788018 0.00073813479509207713 0 -0.011462769279142561 0.00073352793091035963 0 -0.011452667829104628 0.00075559892284204964 0 -0.011436289688788018 0.00073813479509207713 0 -0.011453218370781079 0.00071564806062167905 0 -0.011462769279142561 0.00073352793091035963 0 -0.011468278803703703 0.00075207541932883798 0 -0.011462769279142561 0.00073352793091035963 0 -0.011452667829104628 0.00075559892284204964 0 -0.011436289688788018 0.00073813479509207713 0 -0.011452667829104628 0.00075559892284204964 0 -0.011430420310134847 0.00078417875987397826 0 -0.011452667829104628 0.00075559892284204964 0 -0.011461441635007513 0.00077075060732432587 0 -0.011430420310134847 0.00078417875987397826 0 -0.011461441635007513 0.00077075060732432587 0 -0.011458780997756211 0.00078977386158885746 0 -0.011430420310134847 0.00078417875987397826 0 -0.011468278803703703 0.00075207541932883798 0 -0.011452667829104628 0.00075559892284204964 0 -0.011461441635007513 0.00077075060732432587 0 -0.010720174253416027 0.001630775495915524 0 -0.010685179557137279 0.0015263622991581658 0 -0.01068066388822383 0.0016234062802970473 0 -0.011468278803703703 0.00075207541932883798 0 -0.011461441635007513 0.00077075060732432587 0 -0.011483758990637706 0.00076980366687285967 0 -0.011461441635007513 0.00077075060732432587 0 -0.011458780997756211 0.00078977386158885746 0 -0.011483758990637706 0.00076980366687285967 0 -0.010720174253416027 0.001630775495915524 0 -0.010685179557137279 0.0015263622991581658 0 -0.010798456117710329 0.0014724962664180328 0 -0.011458780997756211 0.00078977386158885746 0 -0.011483758990637706 0.00076980366687285967 0 -0.011456584728812384 0.00082941011767349512 0 -0.011107487747582582 0.0011834290940069966 0 -0.011092611276266325 0.0012163369603915364 0 -0.011528929674244905 0.00098042326044649381 0 -0.011492026318698256 0.0011110805828092232 0 -0.011619836049948594 0.0011064545835592226 0 -0.011458780997756211 0.00078977386158885746 0 -0.011430420310134847 0.00078417875987397826 0 -0.011456584728812384 0.00082941011767349512 0 -0.01152923191142846 0.0008668220245429606 0 -0.011092611276266325 0.0012163369603915364 0 -0.011528929674244905 0.00098042326044649381 0 -0.011426573838999289 0.001013254974375027 0 -0.011492026318698256 0.0011110805828092232 0 -0.011418619051532405 0.00079835407175323121 0 -0.01152923191142846 0.0008668220245429606 0 -0.011444171545496703 0.0008524731220589958 0 -0.011528929674244905 0.00098042326044649381 0 -0.011426573838999289 0.001013254974375027 0 -0.011444171545496703 0.0008524731220589958 0 -0.011426573838999289 0.001013254974375027 0 -0.011337048260741995 0.00095486630315291224 0 -0.011426573838999289 0.001013254974375027 0 -0.011337048260741995 0.00095486630315291224 0 -0.011361951084240407 0.0011173056160115736 0 -0.011426573838999289 0.001013254974375027 0 -0.011361951084240407 0.0011173056160115736 0 -0.011492026318698256 0.0011110805828092232 0 -0.011230185043660794 0.0010462923771213572 0 -0.011337048260741995 0.00095486630315291224 0 -0.011361951084240407 0.0011173056160115736 0 -0.011610184786659154 0.00094662875226980204 0 -0.011523387617234962 0.00089785690831337855 0 -0.011457003782677652 0.0010595933388883559 0 -0.012165909695048901 0.00082680210081274158 0 -0.011718338973171344 0.0010697669981067249 0 -0.011386878248969976 0.0010259564208658692 0 -0.011724622763248729 0.00069176373763139387 0 -0.012777671462383884 0.00055600097990294564 0 -0.012773521771752899 0.00052644846500014039 0 -0.012790386609751713 0.0005351806225949166 0 -0.012165909695048901 0.00082680210081274158 0 -0.011724622763248729 0.00069176373763139387 0 -0.011610184786659154 0.00094662875226980204 0 -0.011523387617234962 0.00089785690831337855 0 -0.011596928159039878 0.00072475495532440528 0 -0.011337048260741995 0.00095486630315291224 0 -0.011323200670203998 0.00082003923815721828 0 -0.011229220879578273 0.00088063812061391317 0 -0.011230185043660794 0.0010462923771213572 0 -0.011337048260741995 0.00095486630315291224 0 -0.011229220879578273 0.00088063812061391317 0 -0.011790135542371356 0.0010054538224666917 0 -0.011828471573485532 0.00098480691820704812 0 -0.011839102311343433 0.00096725771105269178 0 -0.011790135542371356 0.0010054538224666917 0 -0.011754908805123081 0.0010378391746261176 0 -0.011788536525334854 0.001022444954123583 0 -0.011790135542371356 0.0010054538224666917 0 -0.011828471573485532 0.00098480691820704812 0 -0.011788536525334854 0.001022444954123583 0 -0.011828471573485532 0.00098480691820704812 0 -0.011817220259827871 0.0010143507182019944 0 -0.011788536525334854 0.001022444954123583 0 -0.011858777070024388 0.00098818560499258417 0 -0.011844988213335269 0.00099215944489012067 0 -0.011846924340917326 0.0010153576571855704 0 -0.011828471573485532 0.00098480691820704812 0 -0.011817220259827871 0.0010143507182019944 0 -0.011844988213335269 0.00099215944489012067 0 -0.011828815628495082 0.00098684799107572507 0 -0.011718338973171344 0.0010697669981067249 0 -0.011817220259827871 0.0010143507182019944 0 -0.011844988213335269 0.00099215944489012067 0 -0.011825860972889499 0.0010339577506038305 0 -0.012165909695048901 0.00082680210081274158 0 -0.012348288827013556 0.00072728255804834733 0 -0.011828471573485532 0.00098480691820704812 0 -0.011844988213335269 0.00099215944489012067 0 -0.011873867484125647 0.00094345639423513462 0 -0.011858777070024388 0.00098818560499258417 0 -0.011844988213335269 0.00099215944489012067 0 -0.011873867484125647 0.00094345639423513462 0 -0.011828471573485532 0.00098480691820704812 0 -0.011839102311343433 0.00096725771105269178 0 -0.011873867484125647 0.00094345639423513462 0 -0.01188357056698189 0.00093541429581929264 0 -0.011839102311343433 0.00096725771105269178 0 -0.011873867484125647 0.00094345639423513462 0 -0.01188357056698189 0.00093541429581929264 0 -0.011873867484125647 0.00094345639423513462 0 -0.011951417439348093 0.00089519541426034694 0 -0.012773521771752899 0.00052644846500014039 0 -0.01278449727012179 0.00051088638513087359 0 -0.012790386609751713 0.0005351806225949166 0 -0.01278449727012179 0.00051088638513087359 0 -0.012797892870656358 0.00050673406878970007 0 -0.012789616619235906 0.00049421072320739732 0 -0.01278449727012179 0.00051088638513087359 0 -0.012772477612466474 0.00049954745012622365 0 -0.012789616619235906 0.00049421072320739732 0 -0.012773521771752899 0.00052644846500014039 0 -0.01278449727012179 0.00051088638513087359 0 -0.012772477612466474 0.00049954745012622365 0 -0.012348288827013556 0.00072728255804834733 0 -0.0123567305002615 0.00069305090943834729 0 -0.011724622763248729 0.00069176373763139387 0 -0.011310366549322147 0.0007270973733567933 0 -0.011323200670203998 0.00082003923815721828 0 -0.011229220879578273 0.00088063812061391317 0 -0.011324727860090417 0.00071656375619335558 0 -0.011724622763248729 0.00069176373763139387 0 -0.012144661204177915 0.00056634715529133364 0 -0.011414155958375879 0.00066490107134204975 0 -0.011406264472016311 0.00066265466718272393 0 -0.011407341452920081 0.00066335301344409023 0 -0.01278449727012179 0.00051088638513087359 0 -0.012790386609751713 0.0005351806225949166 0 -0.012797892870656358 0.00050673406878970007 0 -0.011406264472016311 0.00066265466718272393 0 -0.011407341452920081 0.00066335301344409023 0 -0.011403692213451768 0.00065616337089182558 0 -0.011324727860090417 0.00071656375619335558 0 -0.011367262485844477 0.00072111623680505815 0 -0.011408592462569166 0.00068164504278489318 0 -0.011323200670203998 0.00082003923815721828 0 -0.011324727860090417 0.00071656375619335558 0 -0.011367262485844477 0.00072111623680505815 0 -0.011403692213451768 0.00065616337089182558 0 -0.011391923309794029 0.00064889094025855521 0 -0.011411177666350624 0.00065083982687805101 0 -0.011324727860090417 0.00071656375619335558 0 -0.011411177666350624 0.00065083982687805101 0 -0.011408592462569166 0.00068164504278489318 0 -0.011310366549322147 0.0007270973733567933 0 -0.011420732816276339 0.000636786262772635 0 -0.011407341452920081 0.00066335301344409023 0 -0.011403692213451768 0.00065616337089182558 0 -0.011411177666350624 0.00065083982687805101 0 -0.012144661204177915 0.00056634715529133364 0 -0.012098022290526254 0.00056597133918012829 0 -0.012797892870656358 0.00050673406878970007 0 -0.012807084099264412 0.00047931689553784644 0 -0.012789616619235906 0.00049421072320739732 0 -0.011406264472016311 0.00066265466718272393 0 -0.011403692213451768 0.00065616337089182558 0 -0.011391923309794029 0.00064889094025855521 0 -0.011391923309794029 0.00064889094025855521 0 -0.011411177666350624 0.00065083982687805101 0 -0.011421783013075833 0.00062432970220207 0 -0.012772477612466474 0.00049954745012622365 0 -0.012789616619235906 0.00049421072320739732 0 -0.012787636186138596 0.00047942030639365712 0 -0.012807084099264412 0.00047931689553784644 0 -0.012787636186138596 0.00047942030639365712 0 -0.012800038227605701 0.00045653010407172462 0 -0.012807084099264412 0.00047931689553784644 0 -0.012789616619235906 0.00049421072320739732 0 -0.012787636186138596 0.00047942030639365712 0 -0.012789072771636838 0.00046483843233427675 0 -0.012787636186138596 0.00047942030639365712 0 -0.012800038227605701 0.00045653010407172462 0 -0.012789072771636838 0.00046483843233427675 0 -0.012800038227605701 0.00045653010407172462 0 -0.012801271587316742 0.00044076191840972134 0 -0.012800038227605701 0.00045653010407172462 0 -0.012803867347711146 0.00042545828906956682 0 -0.012801271587316742 0.00044076191840972134 0 -0.012803867347711146 0.00042545828906956682 0 -0.012814584340656262 0.00044579869726970282 0 -0.01280710622447391 0.00041729838060634752 0 -0.012800038227605701 0.00045653010407172462 0 -0.012803867347711146 0.00042545828906956682 0 -0.012814584340656262 0.00044579869726970282 0 -0.012802258830576854 0.00043916824259762437 0 -0.012789072771636838 0.00046483843233427675 0 -0.012801271587316742 0.00044076191840972134 0 -0.012803867347711146 0.00042545828906956682 0 -0.012801271587316742 0.00044076191840972134 0 -0.012809735468117329 0.00041887554597237151 0 -0.012802258830576854 0.00043916824259762437 0 -0.012801271587316742 0.00044076191840972134 0 -0.012809735468117329 0.00041887554597237151 0 -0.012807084099264412 0.00047931689553784644 0 -0.012800038227605701 0.00045653010407172462 0 -0.012814584340656262 0.00044579869726970282 0 -0.011391923309794029 0.00064889094025855521 0 -0.011421783013075833 0.00062432970220207 0 -0.011367536527748039 0.00059116757992794451 0 -0.012098022290526254 0.00056597133918012829 0 -0.012057983822202136 0.00051578511051750926 0 -0.011367536527748039 0.00059116757992794451 0 -0.011414937092395733 0.00053831810385071956 0 -0.011344882393790751 0.00048235854057788726 0 -0.012814584340656262 0.00044579869726970282 0 -0.01280804114093919 0.00040662742877496422 0 -0.01280710622447391 0.00041729838060634752 0 -0.012057983822202136 0.00051578511051750926 0 -0.012361579281236969 0.00043525295292990492 0 -0.011421783013075833 0.00062432970220207 0 -0.011414937092395733 0.00053831810385071956 0 -0.01148284114689987 0.00060797413860133847 0 -0.011421783013075833 0.00062432970220207 0 -0.011367536527748039 0.00059116757992794451 0 -0.011414937092395733 0.00053831810385071956 0 -0.011414937092395733 0.00053831810385071956 0 -0.01148284114689987 0.00060797413860133847 0 -0.011491703426345265 0.00051905419543289276 0 -0.01148284114689987 0.00060797413860133847 0 -0.011693840873517882 0.00054604080725753352 0 -0.011594091457270131 0.00048951391110061207 0 -0.01148284114689987 0.00060797413860133847 0 -0.011594091457270131 0.00048951391110061207 0 -0.011491703426345265 0.00051905419543289276 0 -0.011491294743166201 0.00060830520722354861 0 -0.011576862481894202 0.00057783545860097421 0 -0.01148284114689987 0.00060797413860133847 0 -0.011465091399154819 0.00062679747648865844 0 -0.011464107747129939 0.00061602111093604054 0 -0.01148284114689987 0.00060797413860133847 0 -0.011446997630096899 0.00064085170084301048 0 -0.011465091399154819 0.00062679747648865844 0 -0.011421783013075833 0.00062432970220207 0 -0.01148284114689987 0.00060797413860133847 0 -0.011446997630096899 0.00064085170084301048 0 -0.011411177666350624 0.00065083982687805101 0 -0.011421783013075833 0.00062432970220207 0 -0.011446997630096899 0.00064085170084301048 0 -0.011446997630096899 0.00064085170084301048 0 -0.011461307580793063 0.000655498489456705 0 -0.011465091399154819 0.00062679747648865844 0 -0.011446997630096899 0.00064085170084301048 0 -0.011441161613313469 0.00067893025934916997 0 -0.011461307580793063 0.000655498489456705 0 -0.011411177666350624 0.00065083982687805101 0 -0.011446997630096899 0.00064085170084301048 0 -0.011408592462569166 0.00068164504278489318 0 -0.011446997630096899 0.00064085170084301048 0 -0.011441161613313469 0.00067893025934916997 0 -0.011408592462569166 0.00068164504278489318 0 -0.011485359262496431 0.00069146077858826794 0 -0.011476648254994498 0.00066966792184585322 0 -0.011487459923806405 0.00067433484071329202 0 -0.011485359262496431 0.00069146077858826794 0 -0.011475615044045413 0.00069387328519489473 0 -0.011476648254994498 0.00066966792184585322 0 -0.011475615044045413 0.00069387328519489473 0 -0.011476648254994498 0.00066966792184585322 0 -0.011460124716651768 0.0006880096624905281 0 -0.011441161613313469 0.00067893025934916997 0 -0.011460124716651768 0.0006880096624905281 0 -0.011461307580793063 0.000655498489456705 0 -0.011476648254994498 0.00066966792184585322 0 -0.011460124716651768 0.0006880096624905281 0 -0.011461307580793063 0.000655498489456705 0 -0.011461307580793063 0.000655498489456705 0 -0.011471614192843071 0.00064270409371272727 0 -0.011465091399154819 0.00062679747648865844 0 -0.011476648254994498 0.00066966792184585322 0 -0.011461307580793063 0.000655498489456705 0 -0.011471614192843071 0.00064270409371272727 0 -0.011476648254994498 0.00066966792184585322 0 -0.011471614192843071 0.00064270409371272727 0 -0.011482163018038056 0.00064686682175009056 0 -0.011471614192843071 0.00064270409371272727 0 -0.011482163018038056 0.00064686682175009056 0 -0.011471470844760681 0.00062433567394245756 0 -0.011471614192843071 0.00064270409371272727 0 -0.011465091399154819 0.00062679747648865844 0 -0.011471470844760681 0.00062433567394245756 0 -0.011465091399154819 0.00062679747648865844 0 -0.011464107747129939 0.00061602111093604054 0 -0.011471470844760681 0.00062433567394245756 0 -0.011464107747129939 0.00061602111093604054 0 -0.011462902848163131 0.00059902692225259689 0 -0.011471470844760681 0.00062433567394245756 0 -0.011693840873517882 0.00054604080725753352 0 -0.011788273311493553 0.00040372390624271708 0 -0.011833239421782439 0.00044233060166591712 0 -0.011576862481894202 0.00057783545860097421 0 -0.011645276636516547 0.0005205412949523604 0 -0.011788273311493553 0.00040372390624271708 0 -0.011826114049254403 0.00035989675013843592 0 -0.011835186856832431 0.00039129556883503897 0 -0.011788273311493553 0.00040372390624271708 0 -0.011833239421782439 0.00044233060166591712 0 -0.011835186856832431 0.00039129556883503897 0 -0.011788273311493553 0.00040372390624271708 0 -0.011826114049254403 0.00035989675013843592 0 -0.011799441884774133 0.00033306287432090232 0 -0.011686144551975664 0.00041598913290277881 0 -0.011613394153037975 0.00032116993657818578 0 -0.011799441884774133 0.00033306287432090232 0 -0.011788273311493553 0.00040372390624271708 0 -0.011686144551975664 0.00041598913290277881 0 -0.011799441884774133 0.00033306287432090232 0 -0.011693840873517882 0.00054604080725753352 0 -0.011788273311493553 0.00040372390624271708 0 -0.011686144551975664 0.00041598913290277881 0 -0.011693840873517882 0.00054604080725753352 0 -0.011686144551975664 0.00041598913290277881 0 -0.011594091457270131 0.00048951391110061207 0 -0.011594091457270131 0.00048951391110061207 0 -0.011528962163113813 0.00044772254810702982 0 -0.01159336049132738 0.0004116606202926329 0 -0.011594091457270131 0.00048951391110061207 0 -0.011491703426345265 0.00051905419543289276 0 -0.011528962163113813 0.00044772254810702982 0 -0.011491703426345265 0.00051905419543289276 0 -0.011528962163113813 0.00044772254810702982 0 -0.01145339921716804 0.00047637088939044708 0 -0.01147616217410286 0.00041056381847591093 0 -0.011528962163113813 0.00044772254810702982 0 -0.01145339921716804 0.00047637088939044708 0 -0.01147616217410286 0.00041056381847591093 0 -0.011528962163113813 0.00044772254810702982 0 -0.011538798420708396 0.0003840730333624277 0 -0.01147616217410286 0.00041056381847591093 0 -0.011538798420708396 0.0003840730333624277 0 -0.011478039279767422 0.00034205075741472512 0 -0.011686144551975664 0.00041598913290277881 0 -0.011594091457270131 0.00048951391110061207 0 -0.01159336049132738 0.0004116606202926329 0 -0.011528962163113813 0.00044772254810702982 0 -0.011538798420708396 0.0003840730333624277 0 -0.01159336049132738 0.0004116606202926329 0 -0.011538798420708396 0.0003840730333624277 0 -0.01159336049132738 0.0004116606202926329 0 -0.011613394153037975 0.00032116993657818578 0 -0.011686144551975664 0.00041598913290277881 0 -0.01159336049132738 0.0004116606202926329 0 -0.011613394153037975 0.00032116993657818578 0 -0.012070278402149227 0.00030049840423562675 0 -0.012168637887805976 0.00061943866791269449 0 -0.011938140871334321 0.00032610323976557648 0 -0.012070278402149227 0.00030049840423562675 0 -0.012249856268411432 0.0004177792268991592 0 -0.012168637887805976 0.00061943866791269449 0 -0.011858388617320217 0.00031642138259044793 0 -0.011893670701871117 0.00031740492802233359 0 -0.011538798420708396 0.0003840730333624277 0 -0.011613394153037975 0.00032116993657818578 0 -0.011478039279767422 0.00034205075741472512 0 -0.012070278402149227 0.00030049840423562675 0 -0.012428731087001306 0.00031192879952533304 0 -0.012249856268411432 0.0004177792268991592 0 -0.012428731087001306 0.00031192879952533304 0 -0.012249856268411432 0.0004177792268991592 0 -0.012464380058511604 0.00043893191761809169 0 -0.012466886539943762 0.00053130992567685656 0 -0.012368219551673559 0.00051338720763189564 0 -0.012464380058511604 0.00043893191761809169 0 -0.012488687861581327 0.00042158859004711992 0 -0.01236323650656833 0.00050365046311619374 0 -0.012249856268411432 0.0004177792268991592 0 -0.012168637887805976 0.00061943866791269449 0 -0.012464380058511604 0.00043893191761809169 0 -0.011964378078249025 0.00040542463627651562 0 -0.011911035076775859 0.00038964206426592249 0 -0.011917074957166511 0.00042191822399975442 0 -0.011964378078249025 0.00040542463627651562 0 -0.011911035076775859 0.00038964206426592249 0 -0.011938140871334321 0.00032610323976557648 0 -0.012488687861581327 0.00042158859004711992 0 -0.011812926900014519 0.00033193302842213359 0 -0.011911035076775859 0.00038964206426592249 0 -0.011887663514422197 0.00040660469051882292 0 -0.011917074957166511 0.00042191822399975442 0 -0.011911035076775859 0.00038964206426592249 0 -0.01187736902806061 0.00038788454086668338 0 -0.011868957064633708 0.0003685184621202723 0 -0.01187736902806061 0.00038788454086668338 0 -0.011887663514422197 0.00040660469051882292 0 -0.011860248114574416 0.00039875637565468032 0 -0.011911035076775859 0.00038964206426592249 0 -0.01187736902806061 0.00038788454086668338 0 -0.011887663514422197 0.00040660469051882292 0 -0.01184174837697115 0.00038595591347575798 0 -0.01183743283082845 0.00036987750969500399 0 -0.011835651957720952 0.00037870773092756586 0 -0.011860248114574416 0.00039875637565468032 0 -0.01184174837697115 0.00038595591347575798 0 -0.01183743283082845 0.00036987750969500399 0 -0.011860248114574416 0.00039875637565468032 0 -0.01184174837697115 0.00038595591347575798 0 -0.01184749904202359 0.00040065611020352149 0 -0.01187736902806061 0.00038788454086668338 0 -0.011860248114574416 0.00039875637565468032 0 -0.01183743283082845 0.00036987750969500399 0 -0.01187736902806061 0.00038788454086668338 0 -0.01183743283082845 0.00036987750969500399 0 -0.011868957064633708 0.0003685184621202723 0 -0.01183743283082845 0.00036987750969500399 0 -0.011826114049254403 0.00035989675013843592 0 -0.011835651957720952 0.00037870773092756586 0 -0.01183743283082845 0.00036987750969500399 0 -0.011826114049254403 0.00035989675013843592 0 -0.011799441884774133 0.00033306287432090232 0 -0.01183743283082845 0.00036987750969500399 0 -0.011799441884774133 0.00033306287432090232 0 -0.011868957064633708 0.0003685184621202723 0 -0.011858388617320217 0.00031642138259044793 0 -0.01179788408929309 0.00032711756922191134 0 -0.011911035076775859 0.00038964206426592249 0 -0.011938140871334321 0.00032610323976557648 0 -0.011868957064633708 0.0003685184621202723 0 -0.012070278402149227 0.00030049840423562675 0 -0.011799441884774133 0.00033306287432090232 0 -0.011938140871334321 0.00032610323976557648 0 -0.011799441884774133 0.00033306287432090232 0 -0.011938140871334321 0.00032610323976557648 0 -0.011868957064633708 0.0003685184621202723 0 -0.012831854460127624 0.00039143168142738698 0 -0.012813752409327923 0.00039908489073876434 0 -0.012836062592127389 0.00039595099166932424 0 -0.012813752409327923 0.00039908489073876434 0 -0.012801211894077761 0.00041075924555081657 0 -0.012836062592127389 0.00039595099166932424 0 -0.012813752409327923 0.00039908489073876434 0 -0.012818311643253351 0.00040348668292332373 0 -0.012804629754477076 0.00040580428913756898 0 -0.012831854460127624 0.00039143168142738698 0 -0.012813752409327923 0.00039908489073876434 0 -0.012818311643253351 0.00040348668292332373 0 -0.01282242547667743 0.00040874245112334308 0 -0.012818311643253351 0.00040348668292332373 0 -0.012809735468117329 0.00041887554597237151 0 -0.012803867347711146 0.00042545828906956682 0 -0.012809735468117329 0.00041887554597237151 0 -0.012804629754477076 0.00040580428913756898 0 -0.012818311643253351 0.00040348668292332373 0 -0.012809735468117329 0.00041887554597237151 0 -0.012804629754477076 0.00040580428913756898 0 -0.012803867347711146 0.00042545828906956682 0 -0.012804629754477076 0.00040580428913756898 0 -0.012800140738117629 0.00040921482673914912 0 -0.012803867347711146 0.00042545828906956682 0 -0.012800140738117629 0.00040921482673914912 0 -0.01280710622447391 0.00041729838060634752 0 -0.012804629754477076 0.00040580428913756898 0 -0.012800140738117629 0.00040921482673914912 0 -0.012790876095614407 0.00040381109924745158 0 -0.012800140738117629 0.00040921482673914912 0 -0.012790876095614407 0.00040381109924745158 0 -0.012799512481871151 0.00040684955726686653 0 -0.012790876095614407 0.00040381109924745158 0 -0.012790617963548407 0.00040344949812619806 0 -0.012773208507704061 0.00040363941336625005 0 -0.012804629754477076 0.00040580428913756898 0 -0.012790876095614407 0.00040381109924745158 0 -0.012790617963548407 0.00040344949812619806 0 -0.012813752409327923 0.00039908489073876434 0 -0.012804629754477076 0.00040580428913756898 0 -0.012790617963548407 0.00040344949812619806 0 -0.012790617963548407 0.00040344949812619806 0 -0.012779760877269222 0.00041301553120938158 0 -0.012801211894077761 0.00041075924555081657 0 -0.012813752409327923 0.00039908489073876434 0 -0.012790617963548407 0.00040344949812619806 0 -0.012801211894077761 0.00041075924555081657 0 -0.012790617963548407 0.00040344949812619806 0 -0.012766405227517893 0.00041258385917007873 0 -0.012779760877269222 0.00041301553120938158 0 -0.012790617963548407 0.00040344949812619806 0 -0.012766405227517893 0.00041258385917007873 0 -0.012773208507704061 0.00040363941336625005 0 -0.012361579281236969 0.00043525295292990492 0 -0.012276749679211716 0.00044674087296284041 0 -0.011379731594982821 0.00043241196083626966 0 -0.011402888587447936 0.00039871817615365877 0 -0.01137205000186846 0.00035127984955806964 0 -0.012773208507704061 0.00040363941336625005 0 -0.012777522380672203 0.00038786167119889169 0 -0.012747763437164803 0.00042212058797781721 0 -0.011379731594982821 0.00043241196083626966 0 -0.011344882393790751 0.00048235854057788726 0 -0.01137205000186846 0.00035127984955806964 0 -0.012766405227517893 0.00041258385917007873 0 -0.012773208507704061 0.00040363941336625005 0 -0.012747763437164803 0.00042212058797781721 0 -0.012661797168181889 0.00041321161589491674 0 -0.012361579281236969 0.00043525295292990492 0 -0.012790876095614407 0.00040381109924745158 0 -0.012773208507704061 0.00040363941336625005 0 -0.012799512481871151 0.00040684955726686653 0 -0.011414937092395733 0.00053831810385071956 0 -0.011344882393790751 0.00048235854057788726 0 -0.01140108029668566 0.0004738367992966098 0 -0.012800140738117629 0.00040921482673914912 0 -0.012799512481871151 0.00040684955726686653 0 -0.01280710622447391 0.00041729838060634752 0 -0.012361579281236969 0.00043525295292990492 0 -0.012553032751399188 0.00036794059638360052 0 -0.011379731594982821 0.00043241196083626966 0 -0.011344882393790751 0.00048235854057788726 0 -0.01140108029668566 0.0004738367992966098 0 -0.01140108029668566 0.0004738367992966098 0 -0.01145339921716804 0.00047637088939044708 0 -0.011421107445483403 0.00043226026924141119 0 -0.011414937092395733 0.00053831810385071956 0 -0.011491703426345265 0.00051905419543289276 0 -0.01145339921716804 0.00047637088939044708 0 -0.011414937092395733 0.00053831810385071956 0 -0.01140108029668566 0.0004738367992966098 0 -0.01145339921716804 0.00047637088939044708 0 -0.01147616217410286 0.00041056381847591093 0 -0.01145339921716804 0.00047637088939044708 0 -0.011421107445483403 0.00043226026924141119 0 -0.011379731594982821 0.00043241196083626966 0 -0.01140108029668566 0.0004738367992966098 0 -0.011421107445483403 0.00043226026924141119 0 -0.011379731594982821 0.00043241196083626966 0 -0.011421107445483403 0.00043226026924141119 0 -0.011402888587447936 0.00039871817615365877 0 -0.011421107445483403 0.00043226026924141119 0 -0.011402888587447936 0.00039871817615365877 0 -0.011434531762455319 0.00038287137415262068 0 -0.011402888587447936 0.00039871817615365877 0 -0.011434531762455319 0.00038287137415262068 0 -0.01137205000186846 0.00035127984955806964 0 -0.01147616217410286 0.00041056381847591093 0 -0.011478039279767422 0.00034205075741472512 0 -0.011434531762455319 0.00038287137415262068 0 -0.01147616217410286 0.00041056381847591093 0 -0.011421107445483403 0.00043226026924141119 0 -0.011434531762455319 0.00038287137415262068 0 -0.011893670701871117 0.00031740492802233359 0 -0.012276749679211716 0.00044674087296284041 0 -0.011478039279767422 0.00034205075741472512 0 -0.011434531762455319 0.00038287137415262068 0 -0.01137205000186846 0.00035127984955806964 0 -0.012428731087001306 0.00031192879952533304 0 -0.012464380058511604 0.00043893191761809169 0 -0.012642317288022313 0.00034369568679311211 0 -0.012464380058511604 0.00043893191761809169 0 -0.012642317288022313 0.00034369568679311211 0 -0.01258204436163185 0.00055156068174523675 0 -0.012466886539943762 0.00053130992567685656 0 -0.012464380058511604 0.00043893191761809169 0 -0.01258204436163185 0.00055156068174523675 0 -0.012276749679211716 0.00044674087296284041 0 -0.012669311462392131 0.00052620079966025847 0 -0.0127049630543888 0.00048756265073567967 0 -0.012764887909160354 0.00052465663319708144 0 -0.012641235183447881 0.00054447349961602831 0 -0.0127049630543888 0.00048756265073567967 0 -0.012695806160669849 0.00041432838152157832 0 -0.012641235183447881 0.00054447349961602831 0 -0.0127049630543888 0.00048756265073567967 0 -0.012727079440957913 0.00044551919113403879 0 -0.012751272279828484 0.00045805681842972371 0 -0.0127049630543888 0.00048756265073567967 0 -0.012727079440957913 0.00044551919113403879 0 -0.012695806160669849 0.00041432838152157832 0 -0.012727079440957913 0.00044551919113403879 0 -0.012695806160669849 0.00041432838152157832 0 -0.012750789264113275 0.00042000325760636989 0 -0.012727079440957913 0.00044551919113403879 0 -0.012750789264113275 0.00042000325760636989 0 -0.012751272279828484 0.00045805681842972371 0 -0.012766405227517893 0.00041258385917007873 0 -0.012747763437164803 0.00042212058797781721 0 -0.012750789264113275 0.00042000325760636989 0 -0.012276749679211716 0.00044674087296284041 0 -0.012731242445511276 0.00043915871464877314 0 -0.012750789264113275 0.00042000325760636989 0 -0.012776216892961073 0.00042864940867189355 0 -0.012779760877269222 0.00041301553120938158 0 -0.012766405227517893 0.00041258385917007873 0 -0.012750789264113275 0.00042000325760636989 0 -0.012779760877269222 0.00041301553120938158 0 -0.012776216892961073 0.00042864940867189355 0 -0.012779760877269222 0.00041301553120938158 0 -0.012801211894077761 0.00041075924555081657 0 -0.012776216892961073 0.00042864940867189355 0 -0.012801211894077761 0.00041075924555081657 0 -0.012794932387930806 0.00045055225167540052 0 -0.012776216892961073 0.00042864940867189355 0 -0.012794932387930806 0.00045055225167540052 0 -0.012751272279828484 0.00045805681842972371 0 -0.012750789264113275 0.00042000325760636989 0 -0.012776216892961073 0.00042864940867189355 0 -0.012751272279828484 0.00045805681842972371 0 -0.012794932387930806 0.00045055225167540052 0 -0.012764887909160354 0.00052465663319708144 0 -0.012832173584312786 0.00050831103230471132 0 -0.0127049630543888 0.00048756265073567967 0 -0.012751272279828484 0.00045805681842972371 0 -0.012764887909160354 0.00052465663319708144 0 -0.012794932387930806 0.00045055225167540052 0 -0.012751272279828484 0.00045805681842972371 0 -0.012764887909160354 0.00052465663319708144 0 -0.012794932387930806 0.00045055225167540052 0 -0.012832173584312786 0.00050831103230471132 0 -0.012841367795363537 0.00043633033438371328 0 -0.012881800644187582 0.00046772841721941325 0 -0.012832173584312786 0.00050831103230471132 0 -0.012841367795363537 0.00043633033438371328 0 -0.012801211894077761 0.00041075924555081657 0 -0.012794932387930806 0.00045055225167540052 0 -0.012818923613137615 0.00042175827825930139 0 -0.012794932387930806 0.00045055225167540052 0 -0.012841367795363537 0.00043633033438371328 0 -0.012818923613137615 0.00042175827825930139 0 -0.012801211894077761 0.00041075924555081657 0 -0.012818923613137615 0.00042175827825930139 0 -0.012836062592127389 0.00039595099166932424 0 -0.012841367795363537 0.00043633033438371328 0 -0.012818923613137615 0.00042175827825930139 0 -0.012836062592127389 0.00039595099166932424 0 -0.013963563711794755 0.000246843963909577 0 -0.013776961733135836 0.00034442811461836127 0 -0.012922129245689506 0.00068791223714385322 0 -0.012815124715028469 0.00060928501337843182 0 -0.012768194211301166 0.00069694803745866526 0 -0.012764887909160354 0.00052465663319708144 0 -0.012832173584312786 0.00050831103230471132 0 -0.012815124715028469 0.00060928501337843182 0 -0.012912080879966453 0.00057414700551257391 0 -0.012832173584312786 0.00050831103230471132 0 -0.012815124715028469 0.00060928501337843182 0 -0.012912080879966453 0.00057414700551257391 0 -0.012922129245689506 0.00068791223714385322 0 -0.012815124715028469 0.00060928501337843182 0 -0.012764887909160354 0.00052465663319708144 0 -0.012815124715028469 0.00060928501337843182 0 -0.012679269713831369 0.00063807013542868717 0 -0.012815124715028469 0.00060928501337843182 0 -0.012768194211301166 0.00069694803745866526 0 -0.012679269713831369 0.00063807013542868717 0 -0.012768194211301166 0.00069694803745866526 0 -0.012679269713831369 0.00063807013542868717 0 -0.012583611132095576 0.00072930111492431986 0 -0.013776961733135836 0.00034442811461836127 0 -0.013846663724793051 0.00026147973322183601 0 -0.012764887909160354 0.00052465663319708144 0 -0.012679269713831369 0.00063807013542868717 0 -0.012641235183447881 0.00054447349961602831 0 -0.012466886539943762 0.00053130992567685656 0 -0.01258204436163185 0.00055156068174523675 0 -0.012463053481009522 0.0006215347041157055 0 -0.012669311462392131 0.00052620079966025847 0 -0.012561144698400082 0.00071468125550923985 0 -0.01258204436163185 0.00055156068174523675 0 -0.012577332231888609 0.00070708302993597054 0 -0.012463053481009522 0.0006215347041157055 0 -0.012679269713831369 0.00063807013542868717 0 -0.012641235183447881 0.00054447349961602831 0 -0.012577332231888609 0.00070708302993597054 0 -0.013846663724793051 0.00026147973322183601 0 -0.01294185561572022 0.00044063741909464713 0 -0.012577332231888609 0.00070708302993597054 0 -0.012583611132095576 0.00072930111492431986 0 -0.012463053481009522 0.0006215347041157055 0 -0.012679269713831369 0.00063807013542868717 0 -0.012577332231888609 0.00070708302993597054 0 -0.012583611132095576 0.00072930111492431986 0 -0.014781999036951876 -1.0279508045470356e-05 0 -0.014788259777462755 -1.9993076159945202e-05 0 -0.014787166417674535 -1.1472539568532064e-05 0 -0.013846663724793051 0.00026147973322183601 0 -0.014334741541315674 0.00028226139123364445 0 -0.014788259777462755 -1.9993076159945202e-05 0 -0.014794886296178018 -7.6427789554243067e-06 0 -0.014787166417674535 -1.1472539568532064e-05 0 -0.014794886296178018 -7.6427789554243067e-06 0 -0.014787166417674535 -1.1472539568532064e-05 0 -0.014790349110133175 -9.4471563032330395e-06 0 -0.014999975557837874 7.2275286536278179e-09 0 -0.01500001616810334 -6.2836490257717707e-09 0 -0.014999604806919611 -5.7521424435657102e-08 0 -0.014790349110133175 -9.4471563032330395e-06 0 -0.014798913754019538 1.3448555922016753e-05 0 -0.014792676004502009 -2.5211987466859539e-05 0 -0.014999975557837874 7.2275286536278179e-09 0 -0.014999604806919611 -5.7521424435657102e-08 0 -0.01499947199927942 2.1357430586696286e-07 0 -0.014901755489082192 5.6714149762438673e-06 0 -0.014899027403342924 -1.1586483235065641e-05 0 -0.014794886296178018 -7.6427789554243067e-06 0 -0.014790349110133175 -9.4471563032330395e-06 0 -0.014798913754019538 1.3448555922016753e-05 0 -0.014794886296178018 -7.6427789554243067e-06 0 -0.014798913754019538 1.3448555922016753e-05 0 -0.014830173379383449 3.088936331865174e-07 0 -0.014798913754019538 1.3448555922016753e-05 0 -0.014830173379383449 3.088936331865174e-07 0 -0.014888804737202419 3.0741794487553562e-05 0 -0.014901755489082192 5.6714149762438673e-06 0 -0.014944854946710493 1.3072384130096629e-05 0 -0.01500001616810334 -6.2836490257717707e-09 0 -0.014999604806919611 -5.7521424435657102e-08 0 -0.015001087394757681 -5.1700031947577965e-07 0 -0.014873854967739493 -6.0168731833338088e-05 0 -0.014768582670971411 -4.0264722339832764e-05 0 -0.014788259777462755 -1.9993076159945202e-05 0 -0.014830173379383449 3.088936331865174e-07 0 -0.014825029361953108 -1.6900790378791255e-05 0 -0.014853319737614062 -1.0378385542186716e-05 0 -0.014873854967739493 -6.0168731833338088e-05 0 -0.014788259777462755 -1.9993076159945202e-05 0 -0.014825029361953108 -1.6900790378791255e-05 0 -0.014788259777462755 -1.9993076159945202e-05 0 -0.014794886296178018 -7.6427789554243067e-06 0 -0.014825029361953108 -1.6900790378791255e-05 0 -0.014794886296178018 -7.6427789554243067e-06 0 -0.014830173379383449 3.088936331865174e-07 0 -0.014825029361953108 -1.6900790378791255e-05 0 -0.014873854967739493 -6.0168731833338088e-05 0 -0.014891643501273082 -9.9329726163284364e-06 0 -0.014939883352359807 -1.9535608470174797e-05 0 -0.014873854967739493 -6.0168731833338088e-05 0 -0.014891643501273082 -9.9329726163284364e-06 0 -0.014853319737614062 -1.0378385542186716e-05 0 -0.014873854967739493 -6.0168731833338088e-05 0 -0.014825029361953108 -1.6900790378791255e-05 0 -0.014853319737614062 -1.0378385542186716e-05 0 -0.014830173379383449 3.088936331865174e-07 0 -0.014853319737614062 -1.0378385542186716e-05 0 -0.014888804737202419 3.0741794487553562e-05 0 -0.014891643501273082 -9.9329726163284364e-06 0 -0.014853319737614062 -1.0378385542186716e-05 0 -0.014888804737202419 3.0741794487553562e-05 0 -0.01500001616810334 -6.2836490257717707e-09 0 -0.015001087394757681 -5.1700031947577965e-07 0 -0.014999970919290381 1.5260188286784481e-08 0 -0.014891643501273082 -9.9329726163284364e-06 0 -0.014888804737202419 3.0741794487553562e-05 0 -0.014939883352359807 -1.9535608470174797e-05 0 -0.01498902933896722 7.6046100010178539e-06 0 -0.014944854946710493 1.3072384130096629e-05 0 -0.014994641863171749 4.9370828787739133e-06 0 -0.014888804737202419 3.0741794487553562e-05 0 -0.014939883352359807 -1.9535608470174797e-05 0 -0.014994641863171749 4.9370828787739133e-06 0 -0.015001087394757681 -5.1700031947577965e-07 0 -0.014999970919290381 1.5260188286784481e-08 0 -0.01496350165117785 -4.6939395663812083e-05 0 -0.014873854967739493 -6.0168731833338088e-05 0 -0.014939883352359807 -1.9535608470174797e-05 0 -0.013121293322445795 0.0003959067974744334 0 -0.01289663593340837 0.0002250678858356024 0 -0.013232004992270712 0.0002241097862015816 0 -0.013121293322445795 0.0003959067974744334 0 -0.012861109697942361 0.00043665606422165252 0 -0.013021842649557263 0.00058646572281092319 0 -0.013121293322445795 0.0003959067974744334 0 -0.012861109697942361 0.00043665606422165252 0 -0.01289663593340837 0.0002250678858356024 0 -0.012560504867978512 0.0003097895418471052 0 -0.012634961957990591 0.00036762208485284205 0 -0.012861109697942361 0.00043665606422165252 0 -0.012664031120389684 0.00063850429277060336 0 -0.012649052299906255 0.00036117090980818936 0 -0.012861109697942361 0.00043665606422165252 0 -0.01289663593340837 0.0002250678858356024 0 -0.012649052299906255 0.00036117090980818936 0 -0.012711384300053606 0.00031092518089225645 0 -0.012549372891148413 0.00040630451580005498 0 -0.012453969393087509 0.00031200274283004685 0 -0.01187353703755752 0.00042684014710204506 0 -0.01184749904202359 0.00040065611020352149 0 -0.011837307327145569 0.00040410206949179029 0 -0.012560504867978512 0.0003097895418471052 0 -0.012086722256771883 0.00036634782783775868 0 -0.011860248114574416 0.00039875637565468032 0 -0.01187353703755752 0.00042684014710204506 0 -0.01184749904202359 0.00040065611020352149 0 -0.011887663514422197 0.00040660469051882292 0 -0.011860248114574416 0.00039875637565468032 0 -0.01187353703755752 0.00042684014710204506 0 -0.01283605919388609 0.000242191043126187 0 -0.013070202795189851 0.00010428131500317899 0 -0.013232004992270712 0.0002241097862015816 0 -0.011887663514422197 0.00040660469051882292 0 -0.01187353703755752 0.00042684014710204506 0 -0.011917074957166511 0.00042191822399975442 0 -0.012560504867978512 0.0003097895418471052 0 -0.013334046400485423 0.00020893361600132014 0 -0.012560504867978512 0.0003097895418471052 0 -0.012501900834347263 0.00026261016484517059 0 -0.013288232882366479 -1.3984077680759202e-05 0 -0.013070202795189851 0.00010428131500317899 0 -0.013232004992270712 0.0002241097862015816 0 -0.012488687861581327 0.00042158859004711992 0 -0.012501900834347263 0.00026261016484517059 0 -0.013288232882366479 -1.3984077680759202e-05 0 -0.013232004992270712 0.0002241097862015816 0 -0.013492401970041199 0.00024922630367774974 0 -0.012488687861581327 0.00042158859004711992 0 -0.01294185561572022 0.00044063741909464713 0 -0.012466886539943762 0.00053130992567685656 0 -0.012368219551673559 0.00051338720763189564 0 -0.012463053481009522 0.0006215347041157055 0 -0.013232004992270712 0.0002241097862015816 0 -0.013492401970041199 0.00024922630367774974 0 -0.013352202919370311 0.0003626324461125088 0 -0.013691011036147664 0.00049966771355065321 0 -0.013352202919370311 0.0003626324461125088 0 -0.013356227143289811 0.00054147257683301048 0 -0.013691011036147664 0.00049966771355065321 0 -0.013492401970041199 0.00024922630367774974 0 -0.013352202919370311 0.0003626324461125088 0 -0.013121293322445795 0.0003959067974744334 0 -0.013232004992270712 0.0002241097862015816 0 -0.013352202919370311 0.0003626324461125088 0 -0.013121293322445795 0.0003959067974744334 0 -0.013352202919370311 0.0003626324461125088 0 -0.013356227143289811 0.00054147257683301048 0 -0.014166492904606868 0.00026716152607673835 0 -0.013929284700931067 0.00029454108967210427 0 -0.014824402155426518 -1.7530678492658934e-05 0 -0.014865378551867403 -4.2243762426258109e-05 0 -0.014887268082558268 1.6110082241424416e-06 0 -0.013121293322445795 0.0003959067974744334 0 -0.013356227143289811 0.00054147257683301048 0 -0.013021842649557263 0.00058646572281092319 0 -0.014804634826778436 9.1903921084762154e-06 0 -0.014824402155426518 -1.7530678492658934e-05 0 -0.014887268082558268 1.6110082241424416e-06 0 -0.014787166417674535 -1.1472539568532064e-05 0 -0.014804634826778436 9.1903921084762154e-06 0 -0.014794262413203658 -1.1193619589710131e-05 0 -0.014781999036951876 -1.0279508045470356e-05 0 -0.014787166417674535 -1.1472539568532064e-05 0 -0.014804634826778436 9.1903921084762154e-06 0 -0.013846663724793051 0.00026147973322183601 0 -0.014166492904606868 0.00026716152607673835 0 -0.014804634826778436 9.1903921084762154e-06 0 -0.014794262413203658 -1.1193619589710131e-05 0 -0.014824402155426518 -1.7530678492658934e-05 0 -0.014787166417674535 -1.1472539568532064e-05 0 -0.014790349110133175 -9.4471563032330395e-06 0 -0.014794262413203658 -1.1193619589710131e-05 0 -0.014999975557837874 7.2275286536278179e-09 0 -0.01499947199927942 2.1357430586696286e-07 0 -0.015000069593701502 -2.1522876186209771e-08 0 -0.014790349110133175 -9.4471563032330395e-06 0 -0.014794262413203658 -1.1193619589710131e-05 0 -0.014792676004502009 -2.5211987466859539e-05 0 -0.014794262413203658 -1.1193619589710131e-05 0 -0.014792676004502009 -2.5211987466859539e-05 0 -0.014824402155426518 -1.7530678492658934e-05 0 -0.01499947199927942 2.1357430586696286e-07 0 -0.015000069593701502 -2.1522876186209771e-08 0 -0.015004877500433035 -2.6760673091432633e-06 0 -0.014899027403342924 -1.1586483235065641e-05 0 -0.014933852715629026 -2.2152312191207284e-05 0 -0.014792676004502009 -2.5211987466859539e-05 0 -0.014824402155426518 -1.7530678492658934e-05 0 -0.014865378551867403 -4.2243762426258109e-05 0 -0.014865378551867403 -4.2243762426258109e-05 0 -0.014887268082558268 1.6110082241424416e-06 0 -0.014949542267566817 -2.7989809602959142e-05 0 -0.014933852715629026 -2.2152312191207284e-05 0 -0.014946988431223197 -2.6969758316074273e-05 0 -0.015000069593701502 -2.1522876186209771e-08 0 -0.015004877500433035 -2.6760673091432633e-06 0 -0.014999808126242391 5.5964545304489064e-08 0 -0.014887268082558268 1.6110082241424416e-06 0 -0.014949542267566817 -2.7989809602959142e-05 0 -0.014926847083577761 -5.573444042924622e-05 0 -0.012861109697942361 0.00043665606422165252 0 -0.013021842649557263 0.00058646572281092319 0 -0.012664031120389684 0.00063850429277060336 0 -0.013929284700931067 0.00029454108967210427 0 -0.013816005478852308 0.00028640791557619968 0 -0.015000001326292391 2.0314564704479334e-08 0 -0.014889901784862922 1.0710886204547094e-05 0 -0.015004877500433035 -2.6760673091432633e-06 0 -0.014949542267566817 -2.7989809602959142e-05 0 -0.014999808126242391 5.5964545304489064e-08 0 -0.014949542267566817 -2.7989809602959142e-05 0 -0.014999808126242391 5.5964545304489064e-08 0 -0.014852963200165693 4.2665182709747694e-05 0 -0.01499999975127264 -1.0140152644701065e-10 0 -0.014999905736655553 -5.898702316914452e-08 0 -0.01499999912788298 2.7953891655206631e-10 0 -0.014852963200165693 4.2665182709747694e-05 0 -0.014798213283156215 -2.8216976548108138e-05 0 -0.014884538999137614 -1.9276695317674836e-05 0 -0.014949542267566817 -2.7989809602959142e-05 0 -0.014852963200165693 4.2665182709747694e-05 0 -0.014884538999137614 -1.9276695317674836e-05 0 -0.014949542267566817 -2.7989809602959142e-05 0 -0.014884538999137614 -1.9276695317674836e-05 0 -0.014926847083577761 -5.573444042924622e-05 0 -0.014852963200165693 4.2665182709747694e-05 0 -0.014798213283156215 -2.8216976548108138e-05 0 -0.014613750016780178 2.2394898063217405e-05 0 -0.014889901784862922 1.0710886204547094e-05 0 -0.014971691816593309 2.7925542046680474e-05 0 -0.014999905736655553 -5.898702316914452e-08 0 -0.01499999912788298 2.7953891655206631e-10 0 -0.014998637519560756 3.5552154623555117e-07 0 -0.014798213283156215 -2.8216976548108138e-05 0 -0.014613750016780178 2.2394898063217405e-05 0 -0.014673507424488308 -9.0058534953495263e-05 0 -0.01238571472876715 0.00051377421217716618 0 -0.012304721744399394 0.00066286448728011306 0 -0.012167101947065637 0.00052586650073595319 0 -0.01238571472876715 0.00051377421217716618 0 -0.012304721744399394 0.00066286448728011306 0 -0.012664031120389684 0.00063850429277060336 0 -0.014798213283156215 -2.8216976548108138e-05 0 -0.014673507424488308 -9.0058534953495263e-05 0 -0.014926847083577761 -5.573444042924622e-05 0 -0.013372788430931502 0.00030701368924669083 0 -0.013816005478852308 0.00028640791557619968 0 -0.01238571472876715 0.00051377421217716618 0 -0.012664031120389684 0.00063850429277060336 0 -0.012649052299906255 0.00036117090980818936 0 -0.014798213283156215 -2.8216976548108138e-05 0 -0.014884538999137614 -1.9276695317674836e-05 0 -0.014926847083577761 -5.573444042924622e-05 0 -0.01239161822424382 0.00050865877349355994 0 -0.012634961957990591 0.00036762208485284205 0 -0.01238571472876715 0.00051377421217716618 0 -0.012549372891148413 0.00040630451580005498 0 -0.012453969393087509 0.00031200274283004685 0 -0.01238571472876715 0.00051377421217716618 0 -0.012453969393087509 0.00031200274283004685 0 -0.012148825754759026 0.0003242242811480544 0 -0.01238571472876715 0.00051377421217716618 0 -0.012148825754759026 0.0003242242811480544 0 -0.012167101947065637 0.00052586650073595319 0 -0.011837307327145569 0.00040410206949179029 0 -0.011829327900123492 0.00039850748219772607 0 -0.011835975346422733 0.00039099717981208837 0 -0.012086722256771883 0.00036634782783775868 0 -0.012003583836828669 0.000364139153980757 0 -0.01184749904202359 0.00040065611020352149 0 -0.011837307327145569 0.00040410206949179029 0 -0.011835975346422733 0.00039099717981208837 0 -0.012003583836828669 0.000364139153980757 0 -0.011857535545792422 0.00039168195259686273 0 -0.011829327900123492 0.00039850748219772607 0 -0.011852026785044939 0.00039870127892248114 0 -0.01182545064740014 0.00039839505206081997 0 -0.012148825754759026 0.0003242242811480544 0 -0.011989108003168816 0.00050075704376120527 0 -0.012167101947065637 0.00052586650073595319 0 -0.012148825754759026 0.0003242242811480544 0 -0.011989108003168816 0.00050075704376120527 0 -0.011852026785044939 0.00039870127892248114 0 -0.011989108003168816 0.00050075704376120527 0 -0.011856601727960757 0.00056487136367508201 0 -0.011852026785044939 0.00039870127892248114 0 -0.011989108003168816 0.00050075704376120527 0 -0.012032953231532466 0.00065986925062870583 0 -0.011856601727960757 0.00056487136367508201 0 -0.013705098297523838 0.00019279000363954011 0 -0.012493502564084073 0.00034145619577832527 0 -0.013679501882422167 0.00019355175013914807 0 -0.013539825364503096 0.00020748321936812569 0 -0.013508674920536907 0.00014659481481033658 0 -0.011989108003168816 0.00050075704376120527 0 -0.012167101947065637 0.00052586650073595319 0 -0.012032953231532466 0.00065986925062870583 0 -0.012304721744399394 0.00066286448728011306 0 -0.012167101947065637 0.00052586650073595319 0 -0.012032953231532466 0.00065986925062870583 0 -0.013372788430931502 0.00030701368924669083 0 -0.013705098297523838 0.00019279000363954011 0 -0.014971691816593309 2.7925542046680474e-05 0 -0.013705098297523838 0.00019279000363954011 0 -0.01499999912788298 2.7953891655206631e-10 0 -0.014998637519560756 3.5552154623555117e-07 0 -0.014999989323396282 1.1357748846743816e-09 0 -0.014613750016780178 2.2394898063217405e-05 0 -0.014673507424488308 -9.0058534953495263e-05 0 -0.014297923742035324 -5.5283015029332195e-05 0 -0.014998637519560756 3.5552154623555117e-07 0 -0.014994226924874187 3.7507758319321294e-07 0 -0.014999989323396282 1.1357748846743816e-09 0 -0.014994226924874187 3.7507758319321294e-07 0 -0.014997659107405022 1.4976589641665242e-07 0 -0.014995996060279978 5.3348686147019184e-07 0 -0.014999989323396282 1.1357748846743816e-09 0 -0.014997659107405022 1.4976589641665242e-07 0 -0.014999989194230704 7.3668166318490337e-10 0 -0.013705098297523838 0.00019279000363954011 0 -0.01435557771824777 9.3199457368729329e-05 0 -0.014994226924874187 3.7507758319321294e-07 0 -0.014999989323396282 1.1357748846743816e-09 0 -0.014997659107405022 1.4976589641665242e-07 0 -0.013539825364503096 0.00020748321936812569 0 -0.013400885121679022 0.00022283033923902259 0 -0.013407479256452881 0.00019547907489522981 0 -0.014995996060279978 5.3348686147019184e-07 0 -0.014998810574339503 1.7492151804503813e-07 0 -0.014995677701955592 2.3841133468725839e-07 0 -0.014997659107405022 1.4976589641665242e-07 0 -0.014995996060279978 5.3348686147019184e-07 0 -0.014999989194230704 7.3668166318490337e-10 0 -0.01435557771824777 9.3199457368729329e-05 0 -0.01429400944392608 6.552356671370777e-05 0 -0.014995996060279978 5.3348686147019184e-07 0 -0.014999989194230704 7.3668166318490337e-10 0 -0.014998810574339503 1.7492151804503813e-07 0 -0.01429400944392608 6.552356671370777e-05 0 -0.014469712281806896 -1.5031395727663096e-05 0 -0.014028536385028987 1.601356251465739e-05 0 -0.014055536433954095 7.241213334936696e-05 0 -0.014453226953273222 -3.7505097115207654e-05 0 -0.014998810574339503 1.7492151804503813e-07 0 -0.014996903021332907 6.2425202533849018e-07 0 -0.014998604213938975 1.2670985351267571e-07 0 -0.014999989194230704 7.3668166318490337e-10 0 -0.014998810574339503 1.7492151804503813e-07 0 -0.01500069550313239 -9.2290771888144941e-10 0 -0.013821754746444091 0.00011297548955134682 0 -0.014469712281806896 -1.5031395727663096e-05 0 -0.014682844898686849 0.00014527742925459934 0 -0.01429400944392608 6.552356671370777e-05 0 -0.013400885121679022 0.00022283033923902259 0 -0.01339053012018547 0.00020058899123862888 0 -0.013407479256452881 0.00019547907489522981 0 -0.01429400944392608 6.552356671370777e-05 0 -0.013821754746444091 0.00011297548955134682 0 -0.013821754746444091 0.00011297548955134682 0 -0.013740363664141138 0.00013356588490314318 0 -0.011775904657024881 0.00050938451156669882 0 -0.011856601727960757 0.00056487136367508201 0 -0.011798274142304778 0.00040846883683439566 0 -0.01338793482785223 0.00020089036258199433 0 -0.013407479256452881 0.00019547907489522981 0 -0.013336298828695059 0.00010167028840160159 0 -0.012811118815633297 0.00027198771643794528 0 -0.012493502564084073 0.00034145619577832527 0 -0.013407479256452881 0.00019547907489522981 0 -0.013336298828695059 0.00010167028840160159 0 -0.013508674920536907 0.00014659481481033658 0 -0.013539019197144184 6.5883822323723932e-05 0 -0.013592379821899387 0.00018166743316029709 0 -0.013652368361050314 9.8962082577606461e-05 0 -0.013821754746444091 0.00011297548955134682 0 -0.012811118815633297 0.00027198771643794528 0 -0.013539825364503096 0.00020748321936812569 0 -0.013407479256452881 0.00019547907489522981 0 -0.013508674920536907 0.00014659481481033658 0 -0.014738733747164948 -6.3843001663980238e-05 0 -0.015000371148107604 -2.9735037097941592e-08 0 -0.014557782664619174 -3.9445157745281965e-05 0 -0.014649847186046252 3.9092968836985489e-05 0 -0.014716369665573742 -4.9812326667665957e-05 0 -0.015000027340016327 -4.1121634548791859e-07 0 -0.015000697572862034 -6.3275230901242479e-10 0 -0.015000000053516278 -2.8939410168797831e-11 0 -0.014738733747164948 -6.3843001663980238e-05 0 -0.014857759330536048 -1.9401335562077917e-05 0 -0.01496479008593618 1.2710008245046569e-06 0 -0.014999976030119716 1.1576488035223429e-09 0 -0.014994119052075179 3.8200732700705044e-06 0 -0.014998810574339503 1.7492151804503813e-07 0 -0.014998604213938975 1.2670985351267571e-07 0 -0.01500069550313239 -9.2290771888144941e-10 0 -0.013539019197144184 6.5883822323723932e-05 0 -0.01373290480567731 1.3258598809325963e-05 0 -0.013652368361050314 9.8962082577606461e-05 0 -0.014469712281806896 -1.5031395727663096e-05 0 -0.014738733747164948 -6.3843001663980238e-05 0 -0.014998604213938975 1.2670985351267571e-07 0 -0.014998687470037084 -6.1229117056171836e-08 0 -0.01500069550313239 -9.2290771888144941e-10 0 -0.014738733747164948 -6.3843001663980238e-05 0 -0.015000453108813126 1.4303801990687458e-08 0 -0.014738733747164948 -6.3843001663980238e-05 0 -0.013203736757860907 0.00031374077625992219 0 -0.013592379821899387 0.00018166743316029709 0 -0.013780650349817474 0.00023032285139067119 0 -0.013652368361050314 9.8962082577606461e-05 0 -0.012811118815633297 0.00027198771643794528 0 -0.013203736757860907 0.00031374077625992219 0 -0.01373290480567731 1.3258598809325963e-05 0 -0.013780650349817474 0.00023032285139067119 0 -0.013652368361050314 9.8962082577606461e-05 0 -0.01373290480567731 1.3258598809325963e-05 0 -0.013768422408669117 8.9381931027781166e-06 0 -0.013780650349817474 0.00023032285139067119 0 -0.014564028980469131 0.00011935992680741961 0 -0.014649847186046252 3.9092968836985489e-05 0 -0.014713834132207632 0.00015234856781036056 0 -0.014557782664619174 -3.9445157745281965e-05 0 -0.014564028980469131 0.00011935992680741961 0 -0.014649847186046252 3.9092968836985489e-05 0 -0.013203736757860907 0.00031374077625992219 0 -0.012162041366871662 0.00029310312284795426 0 -0.01200022075440622 0.00025348040622192875 0 -0.011989623983348125 0.00031445505082544097 0 -0.012055706386396225 0.00026575514731824344 0 -0.013203736757860907 0.00031374077625992219 0 -0.013433945901333686 0.0002196312014864149 0 -0.012566166861430948 0.00043048712685620638 0 -0.012470346324829176 0.00040690753130590365 0 -0.01250236705886894 0.00031403725259170252 0 -0.012470346324829176 0.00040690753130590365 0 -0.01250236705886894 0.00031403725259170252 0 -0.012454119230490113 0.00030250049278749037 0 -0.012811118815633297 0.00027198771643794528 0 -0.012066590021836951 0.00037212253608035389 0 -0.01250236705886894 0.00031403725259170252 0 -0.012454119230490113 0.00030250049278749037 0 -0.01243604665815492 0.0002014804618336688 0 -0.012066590021836951 0.00037212253608035389 0 -0.012088921889733518 0.00034640819797498318 0 -0.011989623983348125 0.00031445505082544097 0 -0.012021642688525897 0.00033508785060098578 0 -0.01197301913934957 0.00038564524560330223 0 -0.011989623983348125 0.00031445505082544097 0 -0.012021642688525897 0.00033508785060098578 0 -0.012055706386396225 0.00026575514731824344 0 -0.011856601727960757 0.00056487136367508201 0 -0.011798274142304778 0.00040846883683439566 0 -0.011852026785044939 0.00039870127892248114 0 -0.011775904657024881 0.00050938451156669882 0 -0.011776014096159502 0.0004016431550851765 0 -0.011798274142304778 0.00040846883683439566 0 -0.011776014096159502 0.0004016431550851765 0 -0.011798274142304778 0.00040846883683439566 0 -0.011787994622361719 0.0003997538843974165 0 -0.011798274142304778 0.00040846883683439566 0 -0.011852026785044939 0.00039870127892248114 0 -0.011756604380834848 0.00039452658166738464 0 -0.011852026785044939 0.00039870127892248114 0 -0.011756604380834848 0.00039452658166738464 0 -0.01182545064740014 0.00039839505206081997 0 -0.011756604380834848 0.00039452658166738464 0 -0.011797391222525336 0.00045262216037021241 0 -0.011735185247883459 0.00055372890856996652 0 -0.011756604380834848 0.00039452658166738464 0 -0.011787994622361719 0.0003997538843974165 0 -0.011797391222525336 0.00045262216037021241 0 -0.011798274142304778 0.00040846883683439566 0 -0.011756604380834848 0.00039452658166738464 0 -0.011787994622361719 0.0003997538843974165 0 -0.011756604380834848 0.00039452658166738464 0 -0.011627310215228108 0.00053427667266488471 0 -0.011548315350310702 0.00046766466328024205 0 -0.012162041366871662 0.00029310312284795426 0 -0.012088921889733518 0.00034640819797498318 0 -0.01200870032759295 0.00038047494425249629 0 -0.011973381204295558 0.00040548813890878044 0 -0.012014613588304706 0.00040728739922512116 0 -0.012021642688525897 0.00033508785060098578 0 -0.01200870032759295 0.00038047494425249629 0 -0.01197301913934957 0.00038564524560330223 0 -0.01200870032759295 0.00038047494425249629 0 -0.01197301913934957 0.00038564524560330223 0 -0.011973381204295558 0.00040548813890878044 0 -0.012088921889733518 0.00034640819797498318 0 -0.012054135526965 0.00036031372384042501 0 -0.011787994622361719 0.0003997538843974165 0 -0.01184008915725413 0.00041084118902798191 0 -0.011797391222525336 0.00045262216037021241 0 -0.011776014096159502 0.0004016431550851765 0 -0.011787994622361719 0.0003997538843974165 0 -0.01184008915725413 0.00041084118902798191 0 -0.01184008915725413 0.00041084118902798191 0 -0.011797391222525336 0.00045262216037021241 0 -0.011883785499176168 0.00050379343674030505 0 -0.011973381204295558 0.00040548813890878044 0 -0.011994364778027591 0.00045010483343226401 0 -0.011944066023560974 0.00049433317057130904 0 -0.01196943209862774 0.00038163663810766776 0 -0.011973381204295558 0.00040548813890878044 0 -0.011944066023560974 0.00049433317057130904 0 -0.012088921889733518 0.00034640819797498318 0 -0.011892862969750973 0.00051556492302312932 0 -0.011973381204295558 0.00040548813890878044 0 -0.011994364778027591 0.00045010483343226401 0 -0.012014613588304706 0.00040728739922512116 0 -0.011994364778027591 0.00045010483343226401 0 -0.011944066023560974 0.00049433317057130904 0 -0.012031673551526088 0.0005140569169387898 0 -0.011797391222525336 0.00045262216037021241 0 -0.011883785499176168 0.00050379343674030505 0 -0.011826225564255237 0.00057179936549096367 0 -0.011826225564255237 0.00057179936549096367 0 -0.011770748002712715 0.00068233860683723096 0 -0.01192010934289872 0.00064209986624426082 0 -0.011944066023560974 0.00049433317057130904 0 -0.01200404822098119 0.00058601834827892176 0 -0.01192010934289872 0.00064209986624426082 0 -0.011892862969750973 0.00051556492302312932 0 -0.011925490998536062 0.00063204374773499739 0 -0.011883785499176168 0.00050379343674030505 0 -0.011826225564255237 0.00057179936549096367 0 -0.01192010934289872 0.00064209986624426082 0 -0.011756604380834848 0.00039452658166738464 0 -0.011627310215228108 0.00053427667266488471 0 -0.011735185247883459 0.00055372890856996652 0 -0.011797391222525336 0.00045262216037021241 0 -0.011826225564255237 0.00057179936549096367 0 -0.011735185247883459 0.00055372890856996652 0 -0.011735185247883459 0.00055372890856996652 0 -0.011625344958380374 0.00063075251037072934 0 -0.011770748002712715 0.00068233860683723096 0 -0.011826225564255237 0.00057179936549096367 0 -0.011735185247883459 0.00055372890856996652 0 -0.011770748002712715 0.00068233860683723096 0 -0.011627310215228108 0.00053427667266488471 0 -0.011735185247883459 0.00055372890856996652 0 -0.011625344958380374 0.00063075251037072934 0 -0.011627310215228108 0.00053427667266488471 0 -0.011625344958380374 0.00063075251037072934 0 -0.011481078628589977 0.00060378650088819001 0 -0.011627310215228108 0.00053427667266488471 0 -0.011481078628589977 0.00060378650088819001 0 -0.011548315350310702 0.00046766466328024205 0 -0.011481078628589977 0.00060378650088819001 0 -0.011461637858601813 0.00055690638943254787 0 -0.011548315350310702 0.00046766466328024205 0 -0.011654991374480859 0.00046920742436120196 0 -0.011688322257949663 0.0004229027369117261 0 -0.011481078628589977 0.00060378650088819001 0 -0.011461637858601813 0.00055690638943254787 0 -0.011472057099266332 0.00060490462394308196 0 -0.011462902848163131 0.00059902692225259689 0 -0.011461637858601813 0.00055690638943254787 0 -0.011472057099266332 0.00060490462394308196 0 -0.011835186856832431 0.00039129556883503897 0 -0.011845264240035699 0.00038074516104874675 0 -0.011838570429530466 0.00037715799345405858 0 -0.011645276636516547 0.0005205412949523604 0 -0.011654991374480859 0.00046920742436120196 0 -0.011833239421782439 0.00044233060166591712 0 -0.011835186856832431 0.00039129556883503897 0 -0.011845264240035699 0.00038074516104874675 0 -0.011845264240035699 0.00038074516104874675 0 -0.011838570429530466 0.00037715799345405858 0 -0.011835705013574871 0.00038568144682088798 0 -0.011838570429530466 0.00037715799345405858 0 -0.011835651957720952 0.00037870773092756586 0 -0.011835705013574871 0.00038568144682088798 0 -0.011826114049254403 0.00035989675013843592 0 -0.011835186856832431 0.00039129556883503897 0 -0.011838570429530466 0.00037715799345405858 0 -0.011826114049254403 0.00035989675013843592 0 -0.011838570429530466 0.00037715799345405858 0 -0.011835651957720952 0.00037870773092756586 0 -0.01184174837697115 0.00038595591347575798 0 -0.01184749904202359 0.00040065611020352149 0 -0.011835975346422733 0.00039099717981208837 0 -0.01184174837697115 0.00038595591347575798 0 -0.011835651957720952 0.00037870773092756586 0 -0.011835975346422733 0.00039099717981208837 0 -0.011829327900123492 0.00039850748219772607 0 -0.011835975346422733 0.00039099717981208837 0 -0.011835705013574871 0.00038568144682088798 0 -0.011835651957720952 0.00037870773092756586 0 -0.011835975346422733 0.00039099717981208837 0 -0.011835705013574871 0.00038568144682088798 0 -0.011829327900123492 0.00039850748219772607 0 -0.011835705013574871 0.00038568144682088798 0 -0.01182545064740014 0.00039839505206081997 0 -0.011835705013574871 0.00038568144682088798 0 -0.01182545064740014 0.00039839505206081997 0 -0.011823175105006913 0.00037356229343233488 0 -0.011756604380834848 0.00039452658166738464 0 -0.01182545064740014 0.00039839505206081997 0 -0.011823175105006913 0.00037356229343233488 0 -0.01174972872743449 0.00039551963269860802 0 -0.011688322257949663 0.0004229027369117261 0 -0.011845264240035699 0.00038074516104874675 0 -0.011835705013574871 0.00038568144682088798 0 -0.011823175105006913 0.00037356229343233488 0 -0.013522402867070755 3.9595640954428559e-07 0 -0.013748549083462307 -0.00012980809686294147 0 -0.013002748140516612 -6.9977629204085783e-07 0 -0.013522402867070755 3.9595640954428559e-07 0 -0.013748549083462307 -0.00012980809686294147 0 -0.013787551412695343 8.1694061732349627e-05 0 -0.013787551412695343 8.1694061732349627e-05 0 -0.013838450913099458 0.00010911331823614297 0 -0.01392565841756767 5.5802801664589853e-05 0 -0.013748549083462307 -0.00012980809686294147 0 -0.013787551412695343 8.1694061732349627e-05 0 -0.01392565841756767 5.5802801664589853e-05 0 -0.013522402867070755 3.9595640954428559e-07 0 -0.013787551412695343 8.1694061732349627e-05 0 -0.014042836318435425 -7.4505675532922377e-08 0 -0.014999163795131866 3.0063869843907897e-07 0 -0.014857984770517429 4.3188783641891294e-05 0 -0.015000074040008679 -3.0111934963881524e-08 0 -0.014260606531090429 -5.4789243857162026e-07 0 -0.014857984770517429 4.3188783641891294e-05 0 -0.015014738718948248 -0.00013266483630870561 0 -0.014045713343669409 -6.7725259950809744e-09 0 -0.01425712942872176 7.1461331276029519e-09 0 -0.01435487496948999 6.2894151555733514e-07 0 -0.013787551412695343 8.1694061732349627e-05 0 -0.014042836318435425 -7.4505675532922377e-08 0 -0.013815524855556677 0.00010328558614968182 0 -0.014043454335411673 -4.885523104582486e-08 0 -0.014433423608012193 -1.0283464865481691e-05 0 -0.014259522621115283 -1.841492057375003e-08 0 -0.014433423608012193 -1.0283464865481691e-05 0 -0.014260606531090429 -5.4789243857162026e-07 0 -0.014999163795131866 3.0063869843907897e-07 0 -0.014857984770517429 4.3188783641891294e-05 0 -0.014937873706527769 -2.2702788618129792e-06 0 -0.014828816600967014 6.54987150546016e-06 0 -0.014857984770517429 4.3188783641891294e-05 0 -0.01494943168395458 -3.1613706144734459e-05 0 -0.015000074040008679 -3.0111934963881524e-08 0 -0.014857984770517429 4.3188783641891294e-05 0 -0.01508690384470753 -9.9138089700066899e-05 0 -0.015014738718948248 -0.00013266483630870561 0 -0.013787551412695343 8.1694061732349627e-05 0 -0.013815524855556677 0.00010328558614968182 0 -0.013838450913099458 0.00010911331823614297 0 -0.013868313207657369 0.00019348370744097371 0 -0.013838450913099458 0.00010911331823614297 0 -0.01392565841756767 5.5802801664589853e-05 0 -0.014581903650118893 8.3604575744298965e-05 0 -0.014433423608012193 -1.0283464865481691e-05 0 -0.014656868923134708 7.9248426056442267e-05 0 -0.014733375142234184 3.9929678914949822e-05 0 -0.014501454075985019 5.2753897014131769e-06 0 -0.014828816600967014 6.54987150546016e-06 0 -0.014433423608012193 -1.0283464865481691e-05 0 -0.014828816600967014 6.54987150546016e-06 0 -0.014581903650118893 8.3604575744298965e-05 0 -0.013868313207657369 0.00019348370744097371 0 -0.013815524855556677 0.00010328558614968182 0 -0.013838450913099458 0.00010911331823614297 0 -0.01481952137938489 3.6677729116424078e-05 0 -0.014861170994863599 4.151173332855946e-05 0 -0.014874270823380203 1.9828412977496754e-05 0 -0.014980579412733223 2.3054338696452954e-05 0 -0.0149828657799848 2.1824875350064833e-05 0 -0.014997617335465323 2.6170177196061279e-05 0 -0.014581903650118893 8.3604575744298965e-05 0 -0.01499323792438375 3.7035516182590432e-05 0 -0.0149828657799848 2.1824875350064833e-05 0 -0.014997617335465323 2.6170177196061279e-05 0 -0.015002244634552696 2.8025305884393251e-05 0 -0.013868313207657369 0.00019348370744097371 0 -0.014231012976196968 0.00019729658287209623 0 -0.01392565841756767 5.5802801664589853e-05 0 -0.014581903650118893 8.3604575744298965e-05 0 -0.014509173656386659 0.00010964260593692773 0 -0.01494943168395458 -3.1613706144734459e-05 0 -0.015000074040008679 -3.0111934963881524e-08 0 -0.015003568695035564 -8.3664136653376197e-06 0 -0.014828816600967014 6.54987150546016e-06 0 -0.015021526650672858 1.2523770527863213e-05 0 -0.014997617335465323 2.6170177196061279e-05 0 -0.014987866028597904 1.8397418378798403e-05 0 -0.015000005345015817 4.6572189146890123e-08 0 -0.014987866028597904 1.8397418378798403e-05 0 -0.015002244634552696 2.8025305884393251e-05 0 -0.014938647126864466 3.144687223143144e-05 0 -0.015021526650672858 1.2523770527863213e-05 0 -0.014999967828358687 -9.4125312826117329e-09 0 -0.015000074040008679 -3.0111934963881524e-08 0 -0.015003568695035564 -8.3664136653376197e-06 0 -0.014999974362383959 9.1412149362903321e-09 0 -0.014997617335465323 2.6170177196061279e-05 0 -0.014987866028597904 1.8397418378798403e-05 0 -0.015002244634552696 2.8025305884393251e-05 0 -0.01499323792438375 3.7035516182590432e-05 0 -0.01491206153453683 2.9491012304150502e-05 0 -0.014861170994863599 4.151173332855946e-05 0 -0.014885845000726731 2.0510313327878225e-05 0 -0.014938647126864466 3.144687223143144e-05 0 -0.014861170994863599 4.151173332855946e-05 0 -0.014874270823380203 1.9828412977496754e-05 0 -0.014885845000726731 2.0510313327878225e-05 0 -0.014231012976196968 0.00019729658287209623 0 -0.014141254934045718 -0.00016713609001615487 0 -0.01473822179069384 -5.0128477691390355e-05 0 -0.014231012976196968 0.00019729658287209623 0 -0.01392565841756767 5.5802801664589853e-05 0 -0.014141254934045718 -0.00016713609001615487 0 -0.013748549083462307 -0.00012980809686294147 0 -0.01392565841756767 5.5802801664589853e-05 0 -0.014141254934045718 -0.00016713609001615487 0 -0.013231699777873477 -0.00010080600235164948 0 -0.013201241829655541 -0.00017736642834105938 0 -0.012710666136446913 -8.9800061870139831e-05 0 -0.012231622019810482 -0.00020974369588705946 0 -0.012676103592920996 4.8322822416477262e-05 0 -0.012231622019810482 -0.00020974369588705946 0 -0.012121876122716787 -1.6740651360375307e-05 0 -0.012676103592920996 4.8322822416477262e-05 0 -0.012231622019810482 -0.00020974369588705946 0 -0.011708247168621323 -0.00030615008113725521 0 -0.012121876122716787 -1.6740651360375307e-05 0 -0.013201241829655541 -0.00017736642834105938 0 -0.013189633538781744 -0.0002035658403248089 0 -0.011708247168621323 -0.00030615008113725521 0 -0.011570723818796468 -0.00014502495821897088 0 -0.012121876122716787 -1.6740651360375307e-05 0 -0.011579606471818146 -0.00013797314210940863 0 -0.011819108647286006 -9.7882854954492966e-05 0 -0.011708247168621323 -0.00030615008113725521 0 -0.011570723818796468 -0.00014502495821897088 0 -0.01143377571303676 -0.000313887982798293 0 -0.011570723818796468 -0.00014502495821897088 0 -0.01143377571303676 -0.000313887982798293 0 -0.011480116793959218 -0.00013119050878485504 0 -0.01473822179069384 -5.0128477691390355e-05 0 -0.014784195936672337 -2.0430049107827873e-05 0 -0.014931419539133883 2.101174736322293e-05 0 -0.014860974993666422 2.991262493637035e-05 0 -0.014784195936672337 -2.0430049107827873e-05 0 -0.014931419539133883 2.101174736322293e-05 0 -0.013189633538781744 -0.0002035658403248089 0 -0.013311569790092081 6.5940042784702182e-05 0 -0.014860974993666422 2.991262493637035e-05 0 -0.014882165286519779 5.1951175007651821e-05 0 -0.014931419539133883 2.101174736322293e-05 0 -0.014860974993666422 2.991262493637035e-05 0 -0.014881122732506243 3.8030566367727131e-05 0 -0.014882165286519779 5.1951175007651821e-05 0 -0.014860974993666422 2.991262493637035e-05 0 -0.014843321627938525 1.8137398922807323e-05 0 -0.014784195936672337 -2.0430049107827873e-05 0 -0.014860974993666422 2.991262493637035e-05 0 -0.014843321627938525 1.8137398922807323e-05 0 -0.014881122732506243 3.8030566367727131e-05 0 -0.014231012976196968 0.00019729658287209623 0 -0.01473822179069384 -5.0128477691390355e-05 0 -0.014784195936672337 -2.0430049107827873e-05 0 -0.014874270823380203 1.9828412977496754e-05 0 -0.014784195936672337 -2.0430049107827873e-05 0 -0.014853920625392878 1.4920615368410208e-05 0 -0.014509173656386659 0.00010964260593692773 0 -0.014798339066133108 -2.1037397874821443e-05 0 -0.014843321627938525 1.8137398922807323e-05 0 -0.014784195936672337 -2.0430049107827873e-05 0 -0.014853920625392878 1.4920615368410208e-05 0 -0.014874270823380203 1.9828412977496754e-05 0 -0.014853920625392878 1.4920615368410208e-05 0 -0.014885845000726731 2.0510313327878225e-05 0 -0.014853920625392878 1.4920615368410208e-05 0 -0.014885845000726731 2.0510313327878225e-05 0 -0.014890915001814751 3.0319900272452292e-05 0 -0.014843321627938525 1.8137398922807323e-05 0 -0.014853920625392878 1.4920615368410208e-05 0 -0.014890915001814751 3.0319900272452292e-05 0 -0.014890915001814751 3.0319900272452292e-05 0 -0.014938647126864466 3.144687223143144e-05 0 -0.014912441670738404 3.822028131214709e-05 0 -0.014885845000726731 2.0510313327878225e-05 0 -0.014890915001814751 3.0319900272452292e-05 0 -0.014938647126864466 3.144687223143144e-05 0 -0.014987866028597904 1.8397418378798403e-05 0 -0.014938647126864466 3.144687223143144e-05 0 -0.015000005345015817 4.6572189146890123e-08 0 -0.014938647126864466 3.144687223143144e-05 0 -0.015000005345015817 4.6572189146890123e-08 0 -0.014999766142638512 -8.0642344770667572e-08 0 -0.014999766142638512 -8.0642344770667572e-08 0 -0.014912441670738404 3.822028131214709e-05 0 -0.014862249487546008 -3.8540606931022611e-05 0 -0.014999974682420441 -1.0047353321332352e-08 0 -0.014927297618561668 -1.735913278537217e-05 0 -0.014938647126864466 3.144687223143144e-05 0 -0.014999766142638512 -8.0642344770667572e-08 0 -0.014912441670738404 3.822028131214709e-05 0 -0.014999993335883239 4.761194340714278e-10 0 -0.015000363733895622 -1.1598302197567908e-07 0 -0.015000011409260166 -1.022839465594657e-09 0 -0.014843321627938525 1.8137398922807323e-05 0 -0.014890915001814751 3.0319900272452292e-05 0 -0.014881122732506243 3.8030566367727131e-05 0 -0.014890915001814751 3.0319900272452292e-05 0 -0.014912441670738404 3.822028131214709e-05 0 -0.014881122732506243 3.8030566367727131e-05 0 -0.014912441670738404 3.822028131214709e-05 0 -0.014881122732506243 3.8030566367727131e-05 0 -0.014882165286519779 5.1951175007651821e-05 0 -0.014912441670738404 3.822028131214709e-05 0 -0.014882165286519779 5.1951175007651821e-05 0 -0.014858306977483884 6.3459464476959664e-05 0 -0.014858306977483884 6.3459464476959664e-05 0 -0.014862249487546008 -3.8540606931022611e-05 0 -0.014749648588586097 4.4718313463084585e-05 0 -0.015000363733895622 -1.1598302197567908e-07 0 -0.015000011409260166 -1.022839465594657e-09 0 -0.014999976030119716 1.1576488035223429e-09 0 -0.014912441670738404 3.822028131214709e-05 0 -0.014858306977483884 6.3459464476959664e-05 0 -0.014862249487546008 -3.8540606931022611e-05 0 -0.014862249487546008 -3.8540606931022611e-05 0 -0.014716369665573742 -4.9812326667665957e-05 0 -0.014749648588586097 4.4718313463084585e-05 0 -0.014927297618561668 -1.735913278537217e-05 0 -0.014857759330536048 -1.9401335562077917e-05 0 -0.015000363733895622 -1.1598302197567908e-07 0 -0.014999976030119716 1.1576488035223429e-09 0 -0.014994119052075179 3.8200732700705044e-06 0 -0.014649847186046252 3.9092968836985489e-05 0 -0.014716369665573742 -4.9812326667665957e-05 0 -0.014749648588586097 4.4718313463084585e-05 0 -0.014858306977483884 6.3459464476959664e-05 0 -0.014749648588586097 4.4718313463084585e-05 0 -0.014713834132207632 0.00015234856781036056 0 -0.014649847186046252 3.9092968836985489e-05 0 -0.014749648588586097 4.4718313463084585e-05 0 -0.014713834132207632 0.00015234856781036056 0 -0.013433945901333686 0.0002196312014864149 0 -0.013311569790092081 6.5940042784702182e-05 0 -0.012055706386396225 0.00026575514731824344 0 -0.012121204532998553 0.00027855218446294622 0 -0.012078647952844905 0.00031786132278266817 0 -0.014858306977483884 6.3459464476959664e-05 0 -0.014713834132207632 0.00015234856781036056 0 -0.014859979775327598 0.00018449821336390942 0 -0.014844490861066382 0.00013643569401822079 0 -0.013311569790092081 6.5940042784702182e-05 0 -0.014882165286519779 5.1951175007651821e-05 0 -0.014858306977483884 6.3459464476959664e-05 0 -0.014931419539133883 2.101174736322293e-05 0 -0.012121204532998553 0.00027855218446294622 0 -0.012078647952844905 0.00031786132278266817 0 -0.01212145640982416 0.0003460179394896567 0 -0.012078647952844905 0.00031786132278266817 0 -0.012052648143817969 0.00037141914566098789 0 -0.01212145640982416 0.0003460179394896567 0 -0.013311569790092081 6.5940042784702182e-05 0 -0.011692701396750804 6.258641456561697e-05 0 -0.012021642688525897 0.00033508785060098578 0 -0.012055706386396225 0.00026575514731824344 0 -0.012078647952844905 0.00031786132278266817 0 -0.012021642688525897 0.00033508785060098578 0 -0.012078647952844905 0.00031786132278266817 0 -0.012052648143817969 0.00037141914566098789 0 -0.012052648143817969 0.00037141914566098789 0 -0.012043047749145814 0.00043312906460263539 0 -0.012014613588304706 0.00040728739922512116 0 -0.012052648143817969 0.00037141914566098789 0 -0.012089085958588939 0.00039575713857052485 0 -0.012043047749145814 0.00043312906460263539 0 -0.01200870032759295 0.00038047494425249629 0 -0.012052648143817969 0.00037141914566098789 0 -0.012014613588304706 0.00040728739922512116 0 -0.012021642688525897 0.00033508785060098578 0 -0.01200870032759295 0.00038047494425249629 0 -0.012052648143817969 0.00037141914566098789 0 -0.011692701396750804 6.258641456561697e-05 0 -0.011832558821134232 0.00016733247494046363 0 -0.012052648143817969 0.00037141914566098789 0 -0.012089085958588939 0.00039575713857052485 0 -0.01212145640982416 0.0003460179394896567 0 -0.012089085958588939 0.00039575713857052485 0 -0.01212145640982416 0.0003460179394896567 0 -0.012129145855967405 0.00042570594394590675 0 -0.012089085958588939 0.00039575713857052485 0 -0.012089167189005981 0.00046526189532064663 0 -0.012129145855967405 0.00042570594394590675 0 -0.012089085958588939 0.00039575713857052485 0 -0.012089167189005981 0.00046526189532064663 0 -0.012043047749145814 0.00043312906460263539 0 -0.011994364778027591 0.00045010483343226401 0 -0.012043047749145814 0.00043312906460263539 0 -0.012031673551526088 0.0005140569169387898 0 -0.011994364778027591 0.00045010483343226401 0 -0.012043047749145814 0.00043312906460263539 0 -0.012014613588304706 0.00040728739922512116 0 -0.012089167189005981 0.00046526189532064663 0 -0.012043047749145814 0.00043312906460263539 0 -0.012031673551526088 0.0005140569169387898 0 -0.011944066023560974 0.00049433317057130904 0 -0.012031673551526088 0.0005140569169387898 0 -0.01200404822098119 0.00058601834827892176 0 -0.01200404822098119 0.00058601834827892176 0 -0.012082703181569747 0.00058650749040617834 0 -0.012054279371782561 0.00070809698953893058 0 -0.012031673551526088 0.0005140569169387898 0 -0.01200404822098119 0.00058601834827892176 0 -0.012082703181569747 0.00058650749040617834 0 -0.012082703181569747 0.00058650749040617834 0 -0.012152005852486976 0.0005277653281164584 0 -0.012161401556959092 0.00059600228917291889 0 -0.012082703181569747 0.00058650749040617834 0 -0.012161401556959092 0.00059600228917291889 0 -0.012054279371782561 0.00070809698953893058 0 -0.012250542498291455 0.00057551946931487497 0 -0.011642084275079578 0.00027602265352318767 0 -0.012031673551526088 0.0005140569169387898 0 -0.012082703181569747 0.00058650749040617834 0 -0.012152005852486976 0.0005277653281164584 0 -0.012089167189005981 0.00046526189532064663 0 -0.012031673551526088 0.0005140569169387898 0 -0.012139943190614334 0.00051544540885595431 0 -0.012089167189005981 0.00046526189532064663 0 -0.012129145855967405 0.00042570594394590675 0 -0.012139943190614334 0.00051544540885595431 0 -0.010749002222061502 -0.00010894845044895495 0 -0.010769684369178981 -6.5208725525978749e-05 0 -0.01083842329747451 -0.00011298125951040086 0 -0.011642084275079578 0.00027602265352318767 0 -0.011070322832350732 -0.00011857425480997339 0 -0.011506559167115316 -8.594282508545807e-05 0 -0.011498170901036832 -7.5133667562476679e-05 0 -0.011508432019000581 -7.2230128877181663e-05 0 -0.011499575768470204 -9.4449333652057958e-05 0 -0.011506559167115316 -8.594282508545807e-05 0 -0.011498170901036832 -7.5133667562476679e-05 0 -0.011832558821134232 0.00016733247494046363 0 -0.011642084275079578 0.00027602265352318767 0 -0.011642084275079578 0.00027602265352318767 0 -0.011148464721961534 0.0001045756643412389 0 -0.010749002222061502 -0.00010894845044895495 0 -0.010769684369178981 -6.5208725525978749e-05 0 -0.010754432341053562 -5.0822625468293642e-05 0 -0.011007456009489646 0.00011551439095719863 0 -0.011148464721961534 0.0001045756643412389 0 -0.010769684369178981 -6.5208725525978749e-05 0 -0.010775653506569631 -4.0790909021468674e-05 0 -0.010808442792524488 -5.7188577241818291e-05 0 -0.010775653506569631 -4.0790909021468674e-05 0 -0.010809238584049719 -2.3664399062778403e-05 0 -0.010808442792524488 -5.7188577241818291e-05 0 -0.010775653506569631 -4.0790909021468674e-05 0 -0.010809238584049719 -2.3664399062778403e-05 0 -0.010779517893974608 -1.0449571236061021e-05 0 -0.010775653506569631 -4.0790909021468674e-05 0 -0.010752087613674421 -3.4085096626630847e-05 0 -0.010779517893974608 -1.0449571236061021e-05 0 -0.011055368506764677 4.1553909874097535e-07 0 -0.011148464721961534 0.0001045756643412389 0 -0.010775653506569631 -4.0790909021468674e-05 0 -0.010752087613674421 -3.4085096626630847e-05 0 -0.010751796070716446 -5.1494571974030095e-05 0 -0.010769684369178981 -6.5208725525978749e-05 0 -0.010775653506569631 -4.0790909021468674e-05 0 -0.010751796070716446 -5.1494571974030095e-05 0 -0.01086188419396635 -4.4722955247017368e-05 0 -0.01083842329747451 -0.00011298125951040086 0 -0.010987642028141164 -0.00012111674911730256 0 -0.01086188419396635 -4.4722955247017368e-05 0 -0.010937913241851517 1.7702814638840214e-06 0 -0.010856264319273251 1.4444001859754727e-05 0 -0.01086188419396635 -4.4722955247017368e-05 0 -0.010809238584049719 -2.3664399062778403e-05 0 -0.010856264319273251 1.4444001859754727e-05 0 -0.01086188419396635 -4.4722955247017368e-05 0 -0.010809238584049719 -2.3664399062778403e-05 0 -0.010808442792524488 -5.7188577241818291e-05 0 -0.010769684369178981 -6.5208725525978749e-05 0 -0.010808442792524488 -5.7188577241818291e-05 0 -0.01083842329747451 -0.00011298125951040086 0 -0.01086188419396635 -4.4722955247017368e-05 0 -0.010808442792524488 -5.7188577241818291e-05 0 -0.01083842329747451 -0.00011298125951040086 0 -0.011506559167115316 -8.594282508545807e-05 0 -0.011508432019000581 -7.2230128877181663e-05 0 -0.011510951088802963 -8.3565759571802473e-05 0 -0.011508432019000581 -7.2230128877181663e-05 0 -0.011510951088802963 -8.3565759571802473e-05 0 -0.011514934030750379 -7.446871441180465e-05 0 -0.011510951088802963 -8.3565759571802473e-05 0 -0.011513613196025525 -0.00011106640644448475 0 -0.011514934030750379 -7.446871441180465e-05 0 -0.011506559167115316 -8.594282508545807e-05 0 -0.011513613196025525 -0.00011106640644448475 0 -0.011514530203927549 -0.00010556861270359199 0 -0.011506559167115316 -8.594282508545807e-05 0 -0.011510951088802963 -8.3565759571802473e-05 0 -0.011513613196025525 -0.00011106640644448475 0 -0.011499575768470204 -9.4449333652057958e-05 0 -0.011506559167115316 -8.594282508545807e-05 0 -0.011514530203927549 -0.00010556861270359199 0 -0.011499575768470204 -9.4449333652057958e-05 0 -0.011514530203927549 -0.00010556861270359199 0 -0.011525799114762501 -0.00011889729214785137 0 -0.011480116793959218 -0.00013119050878485504 0 -0.011499575768470204 -9.4449333652057958e-05 0 -0.011525799114762501 -0.00011889729214785137 0 -0.011570723818796468 -0.00014502495821897088 0 -0.011480116793959218 -0.00013119050878485504 0 -0.011525799114762501 -0.00011889729214785137 0 -0.011570723818796468 -0.00014502495821897088 0 -0.011525799114762501 -0.00011889729214785137 0 -0.011531623377148154 -0.00014122333198064694 0 -0.011570723818796468 -0.00014502495821897088 0 -0.011531623377148154 -0.00014122333198064694 0 -0.011502719112857615 -0.00015363079812510185 0 -0.011513613196025525 -0.00011106640644448475 0 -0.011531623377148154 -0.00014122333198064694 0 -0.011516930044055894 -0.0001374795397236323 0 -0.011514530203927549 -0.00010556861270359199 0 -0.011525799114762501 -0.00011889729214785137 0 -0.011531623377148154 -0.00014122333198064694 0 -0.011513613196025525 -0.00011106640644448475 0 -0.011514530203927549 -0.00010556861270359199 0 -0.011531623377148154 -0.00014122333198064694 0 -0.01151410604221214 -0.00013327704074181439 0 -0.011502719112857615 -0.00015363079812510185 0 -0.011543265068115023 -0.00017340858900958796 0 -0.011516930044055894 -0.0001374795397236323 0 -0.01151410604221214 -0.00013327704074181439 0 -0.011502719112857615 -0.00015363079812510185 0 -0.011513613196025525 -0.00011106640644448475 0 -0.011516930044055894 -0.0001374795397236323 0 -0.01151410604221214 -0.00013327704074181439 0 -0.011531623377148154 -0.00014122333198064694 0 -0.011516930044055894 -0.0001374795397236323 0 -0.011502719112857615 -0.00015363079812510185 0 -0.011502719112857615 -0.00015363079812510185 0 -0.011543265068115023 -0.00017340858900958796 0 -0.011650533668300352 -0.00034115162998864815 0 -0.011543265068115023 -0.00017340858900958796 0 -0.011605572249472014 -0.00011224365703003872 0 -0.011650533668300352 -0.00034115162998864815 0 -0.011819108647286006 -9.7882854954492966e-05 0 -0.012165621127151426 -0.00013145890494605802 0 -0.011543265068115023 -0.00017340858900958796 0 -0.011527989345447407 -0.00010226371051510866 0 -0.011605572249472014 -0.00011224365703003872 0 -0.011605572249472014 -0.00011224365703003872 0 -0.011521516605664981 -2.2047215010942499e-05 0 -0.011701142719405033 -7.0025050012654399e-06 0 -0.011527989345447407 -0.00010226371051510866 0 -0.011605572249472014 -0.00011224365703003872 0 -0.011521516605664981 -2.2047215010942499e-05 0 -0.011527989345447407 -0.00010226371051510866 0 -0.011514934030750379 -7.446871441180465e-05 0 -0.011521516605664981 -2.2047215010942499e-05 0 -0.011513613196025525 -0.00011106640644448475 0 -0.01151410604221214 -0.00013327704074181439 0 -0.011514934030750379 -7.446871441180465e-05 0 -0.01151410604221214 -0.00013327704074181439 0 -0.011527989345447407 -0.00010226371051510866 0 -0.011514934030750379 -7.446871441180465e-05 0 -0.01151410604221214 -0.00013327704074181439 0 -0.011543265068115023 -0.00017340858900958796 0 -0.011527989345447407 -0.00010226371051510866 0 -0.011514934030750379 -7.446871441180465e-05 0 -0.011520641093902911 -5.4208415158608317e-05 0 -0.011521516605664981 -2.2047215010942499e-05 0 -0.011508432019000581 -7.2230128877181663e-05 0 -0.011514934030750379 -7.446871441180465e-05 0 -0.011520641093902911 -5.4208415158608317e-05 0 -0.011070322832350732 -0.00011857425480997339 0 -0.011280305807975552 -7.510728805064441e-05 0 -0.01086188419396635 -4.4722955247017368e-05 0 -0.010987642028141164 -0.00012111674911730256 0 -0.010937913241851517 1.7702814638840214e-06 0 -0.010987642028141164 -0.00012111674911730256 0 -0.010937913241851517 1.7702814638840214e-06 0 -0.011088113198365094 3.8364361745153425e-05 0 -0.010987642028141164 -0.00012111674911730256 0 -0.011088113198365094 3.8364361745153425e-05 0 -0.01138495825754047 -1.3940339787253933e-05 0 -0.011280305807975552 -7.510728805064441e-05 0 -0.011363318639204407 -3.3343176247352402e-05 0 -0.011088113198365094 3.8364361745153425e-05 0 -0.011258009483341399 5.4342593942894117e-05 0 -0.01138495825754047 -1.3940339787253933e-05 0 -0.011521516605664981 -2.2047215010942499e-05 0 -0.01138495825754047 -1.3940339787253933e-05 0 -0.011701142719405033 -7.0025050012654399e-06 0 -0.011520641093902911 -5.4208415158608317e-05 0 -0.011521516605664981 -2.2047215010942499e-05 0 -0.01138495825754047 -1.3940339787253933e-05 0 -0.011606997228092018 3.9701712732274619e-05 0 -0.012001022786145687 1.7225927803348739e-05 0 -0.011701142719405033 -7.0025050012654399e-06 0 -0.01138495825754047 -1.3940339787253933e-05 0 -0.011606997228092018 3.9701712732274619e-05 0 -0.011701142719405033 -7.0025050012654399e-06 0 -0.011258009483341399 5.4342593942894117e-05 0 -0.01138495825754047 -1.3940339787253933e-05 0 -0.011606997228092018 3.9701712732274619e-05 0 -0.011274247992011927 4.1172884272899269e-08 0 -0.012013222005038115 3.5739791906695899e-07 0 -0.011606997228092018 3.9701712732274619e-05 0 -0.011258009483341399 5.4342593942894117e-05 0 -0.011274247992011927 4.1172884272899269e-08 0 -0.011606997228092018 3.9701712732274619e-05 0 -0.012013222005038115 3.5739791906695899e-07 0 -0.011606997228092018 3.9701712732274619e-05 0 -0.012001022786145687 1.7225927803348739e-05 0 -0.012013222005038115 3.5739791906695899e-07 0 -0.012001022786145687 1.7225927803348739e-05 0 -0.012750730762591226 -9.1426595925884326e-07 0 -0.012001022786145687 1.7225927803348739e-05 0 -0.012004423915940947 -5.5801530013179263e-05 0 -0.012750730762591226 -9.1426595925884326e-07 0 -0.012001022786145687 1.7225927803348739e-05 0 -0.011701142719405033 -7.0025050012654399e-06 0 -0.012004423915940947 -5.5801530013179263e-05 0 -0.011605572249472014 -0.00011224365703003872 0 -0.011701142719405033 -7.0025050012654399e-06 0 -0.011735067832466625 -0.00010703151627058207 0 -0.011701142719405033 -7.0025050012654399e-06 0 -0.011735067832466625 -0.00010703151627058207 0 -0.012004423915940947 -5.5801530013179263e-05 0 -0.011735067832466625 -0.00010703151627058207 0 -0.012004423915940947 -5.5801530013179263e-05 0 -0.011650533668300352 -0.00034115162998864815 0 -0.012710666136446913 -8.9800061870139831e-05 0 -0.012676103592920996 4.8322822416477262e-05 0 -0.01299895122823122 -3.5198640581064409e-07 0 -0.011605572249472014 -0.00011224365703003872 0 -0.011735067832466625 -0.00010703151627058207 0 -0.011650533668300352 -0.00034115162998864815 0 -0.013231699777873477 -0.00010080600235164948 0 -0.013001484222788028 -4.0194683824364491e-08 0 -0.012004423915940947 -5.5801530013179263e-05 0 -0.011650533668300352 -0.00034115162998864815 0 -0.012750730762591226 -9.1426595925884326e-07 0 -0.012676103592920996 4.8322822416477262e-05 0 -0.012754569323894288 3.6382131441179347e-07 0 -0.01299895122823122 -3.5198640581064409e-07 0 -0.012165621127151426 -0.00013145890494605802 0 -0.012752021024012673 -4.91037740152333e-08 0 -0.0097963232458839478 -7.9710796846204132e-08 0 -0.009776170960031463 -0.00014308283182568659 0 -0.009797619382255849 -8.4607540405364574e-07 0 -0.010469223412431282 -0.000327846891026634 0 -0.010384976845178242 5.7594354802332147e-06 0 -0.0097951165770341405 -7.3251840999776812e-07 0 -0.0091330231924617936 -1.3723733931380636e-05 0 -0.0089116760348805397 7.2816571959865845e-07 0 -0.009776170960031463 -0.00014308283182568659 0 -0.010068449488465258 -1.1014800592350199e-05 0 -0.010469223412431282 -0.000327846891026634 0 -0.010628454642578077 -0.00011411672359895368 0 -0.010806380489967496 -0.00045676659811711698 0 -0.010812137993230669 -8.2778059268812066e-05 0 -0.010068449488465258 -1.1014800592350199e-05 0 -0.010469223412431282 -0.000327846891026634 0 -0.010628454642578077 -0.00011411672359895368 0 -0.010384976845178242 5.7594354802332147e-06 0 -0.010812137993230669 -8.2778059268812066e-05 0 -0.010672270269821758 9.4874339710681718e-05 0 -0.010901790629211632 5.0204647733667398e-05 0 -0.010878159988715977 4.6513211918394962e-05 0 -0.010685001117605198 5.4558730856573783e-05 0 -0.010628454642578077 -0.00011411672359895368 0 -0.010384976845178242 5.7594354802332147e-06 0 -0.010685001117605198 5.4558730856573783e-05 0 -0.010901790629211632 5.0204647733667398e-05 0 -0.010878159988715977 4.6513211918394962e-05 0 -0.010854295480502762 5.7263279589178697e-05 0 -0.010384976845178242 5.7594354802332147e-06 0 -0.010535330631416106 4.5744801241931551e-07 0 -0.010685001117605198 5.4558730856573783e-05 0 -0.009797619382255849 -8.4607540405364574e-07 0 -0.010384976845178242 5.7594354802332147e-06 0 -0.010535330631416106 4.5744801241931551e-07 0 -0.010535330631416106 4.5744801241931551e-07 0 -0.010982966071688367 9.1046382707377327e-05 0 -0.010685001117605198 5.4558730856573783e-05 0 -0.011258009483341399 5.4342593942894117e-05 0 -0.011274247992011927 4.1172884272899269e-08 0 -0.010982966071688367 9.1046382707377327e-05 0 -0.011274247992011927 4.1172884272899269e-08 0 -0.010535330631416106 4.5744801241931551e-07 0 -0.010982966071688367 9.1046382707377327e-05 0 -0.010982966071688367 9.1046382707377327e-05 0 -0.010936892518741109 9.0239691753697091e-05 0 -0.011045209352554528 8.7933088284363991e-05 0 -0.011258009483341399 5.4342593942894117e-05 0 -0.010982966071688367 9.1046382707377327e-05 0 -0.011045209352554528 8.7933088284363991e-05 0 -0.010982966071688367 9.1046382707377327e-05 0 -0.010936892518741109 9.0239691753697091e-05 0 -0.010685001117605198 5.4558730856573783e-05 0 -0.010878159988715977 4.6513211918394962e-05 0 -0.010936892518741109 9.0239691753697091e-05 0 -0.010685001117605198 5.4558730856573783e-05 0 -0.010878159988715977 4.6513211918394962e-05 0 -0.010936892518741109 9.0239691753697091e-05 0 -0.010895951766737542 6.4468357240745131e-05 0 -0.010936892518741109 9.0239691753697091e-05 0 -0.010895951766737542 6.4468357240745131e-05 0 -0.010928833580700271 8.2967364635350363e-05 0 -0.010895951766737542 6.4468357240745131e-05 0 -0.010928833580700271 8.2967364635350363e-05 0 -0.010830799033384799 6.3168189666251186e-05 0 -0.010936892518741109 9.0239691753697091e-05 0 -0.010928833580700271 8.2967364635350363e-05 0 -0.011045209352554528 8.7933088284363991e-05 0 -0.011088113198365094 3.8364361745153425e-05 0 -0.011045209352554528 8.7933088284363991e-05 0 -0.010931079191208145 6.6985580888437391e-05 0 -0.010928833580700271 8.2967364635350363e-05 0 -0.011045209352554528 8.7933088284363991e-05 0 -0.010931079191208145 6.6985580888437391e-05 0 -0.011088113198365094 3.8364361745153425e-05 0 -0.011258009483341399 5.4342593942894117e-05 0 -0.011045209352554528 8.7933088284363991e-05 0 -0.010937913241851517 1.7702814638840214e-06 0 -0.010931079191208145 6.6985580888437391e-05 0 -0.010856264319273251 1.4444001859754727e-05 0 -0.010937913241851517 1.7702814638840214e-06 0 -0.011088113198365094 3.8364361745153425e-05 0 -0.010931079191208145 6.6985580888437391e-05 0 -0.010931079191208145 6.6985580888437391e-05 0 -0.010870451636395429 7.3754216189988585e-05 0 -0.010853339763863443 5.3847063988947111e-05 0 -0.010931079191208145 6.6985580888437391e-05 0 -0.010853339763863443 5.3847063988947111e-05 0 -0.010856264319273251 1.4444001859754727e-05 0 -0.010931079191208145 6.6985580888437391e-05 0 -0.010870451636395429 7.3754216189988585e-05 0 -0.010869975783274595 8.1204274512356332e-05 0 -0.010928833580700271 8.2967364635350363e-05 0 -0.010931079191208145 6.6985580888437391e-05 0 -0.010869975783274595 8.1204274512356332e-05 0 -0.010928833580700271 8.2967364635350363e-05 0 -0.010869975783274595 8.1204274512356332e-05 0 -0.010830799033384799 6.3168189666251186e-05 0 -0.010869975783274595 8.1204274512356332e-05 0 -0.010832187315485027 8.0074642194355981e-05 0 -0.010830799033384799 6.3168189666251186e-05 0 -0.010870451636395429 7.3754216189988585e-05 0 -0.010869975783274595 8.1204274512356332e-05 0 -0.010842720034715194 8.3874462708937548e-05 0 -0.010869975783274595 8.1204274512356332e-05 0 -0.010832187315485027 8.0074642194355981e-05 0 -0.010842720034715194 8.3874462708937548e-05 0 -0.010832187315485027 8.0074642194355981e-05 0 -0.010799069781567472 6.3943523349061293e-05 0 -0.010830799033384799 6.3168189666251186e-05 0 -0.010832187315485027 8.0074642194355981e-05 0 -0.010799069781567472 6.3943523349061293e-05 0 -0.010825297007943156 8.1551330143288974e-05 0 -0.010723215449007058 1.3805742499064612e-07 0 -0.010393088868678534 3.4122444377645551e-05 0 -0.010071606105938151 -0.00027319994388890108 0 -0.010799069781567472 6.3943523349061293e-05 0 -0.010723215449007058 1.3805742499064612e-07 0 -0.010839712207600877 8.1606419113075318e-05 0 -0.010799069781567472 6.3943523349061293e-05 0 -0.010824320981950271 7.7354668444006396e-05 0 -0.010825297007943156 8.1551330143288974e-05 0 -0.01071699979033985 5.8560607757639078e-05 0 -0.010002328314855541 0.00035768518421428272 0 -0.010799069781567472 6.3943523349061293e-05 0 -0.010723215449007058 1.3805742499064612e-07 0 -0.010830799033384799 6.3168189666251186e-05 0 -0.010723215449007058 1.3805742499064612e-07 0 -0.010830799033384799 6.3168189666251186e-05 0 -0.010854295480502762 5.7263279589178697e-05 0 -0.010895951766737542 6.4468357240745131e-05 0 -0.010830799033384799 6.3168189666251186e-05 0 -0.010854295480502762 5.7263279589178697e-05 0 -0.010878159988715977 4.6513211918394962e-05 0 -0.010895951766737542 6.4468357240745131e-05 0 -0.010854295480502762 5.7263279589178697e-05 0 -0.010901790629211632 5.0204647733667398e-05 0 -0.010854295480502762 5.7263279589178697e-05 0 -0.010860762356971044 0.0001342756597243991 0 -0.010723215449007058 1.3805742499064612e-07 0 -0.010854295480502762 5.7263279589178697e-05 0 -0.010795256837677703 0.00012033354309839585 0 -0.010901790629211632 5.0204647733667398e-05 0 -0.010860762356971044 0.0001342756597243991 0 -0.010897324693956774 0.00025924247634551525 0 -0.010795256837677703 0.00012033354309839585 0 -0.010829138180976743 0.00018049222977031552 0 -0.010797108952057178 0.00027782484352189792 0 -0.010795256837677703 0.00012033354309839585 0 -0.010829138180976743 0.00018049222977031552 0 -0.010860762356971044 0.0001342756597243991 0 -0.010854295480502762 5.7263279589178697e-05 0 -0.010795256837677703 0.00012033354309839585 0 -0.010860762356971044 0.0001342756597243991 0 -0.010829138180976743 0.00018049222977031552 0 -0.010860762356971044 0.0001342756597243991 0 -0.010841630140936254 0.00023355215233796631 0 -0.010860762356971044 0.0001342756597243991 0 -0.010897324693956774 0.00025924247634551525 0 -0.010841630140936254 0.00023355215233796631 0 -0.010897324693956774 0.00025924247634551525 0 -0.010841630140936254 0.00023355215233796631 0 -0.010823573353246831 0.00030186777160317089 0 -0.010829138180976743 0.00018049222977031552 0 -0.010841630140936254 0.00023355215233796631 0 -0.010797108952057178 0.00027782484352189792 0 -0.010841630140936254 0.00023355215233796631 0 -0.010797108952057178 0.00027782484352189792 0 -0.010823573353246831 0.00030186777160317089 0 -0.010797108952057178 0.00027782484352189792 0 -0.010589183985105452 0.00035505970897734397 0 -0.010665248229012703 0.00047597019192861735 0 -0.010797108952057178 0.00027782484352189792 0 -0.010589183985105452 0.00035505970897734397 0 -0.010631128631496735 0.00015465228833186324 0 -0.010509897275279446 0.00042579601215437271 0 -0.0087433367130853954 0.001286911079071184 0 -0.010589183985105452 0.00035505970897734397 0 -0.010236982653800098 0.00022059029867063125 0 -0.010559190962868472 0.00065782108954534439 0 -0.010236982653800098 0.00022059029867063125 0 -0.0099865439759558496 0.00066569881934083698 0 -0.010788058947127756 0.0014166318207628678 0 -0.010589183985105452 0.00035505970897734397 0 -0.010631128631496735 0.00015465228833186324 0 -0.010236982653800098 0.00022059029867063125 0 -0.010393088868678534 3.4122444377645551e-05 0 -0.010631128631496735 0.00015465228833186324 0 -0.010236982653800098 0.00022059029867063125 0 -0.010723215449007058 1.3805742499064612e-07 0 -0.010393088868678534 3.4122444377645551e-05 0 -0.010631128631496735 0.00015465228833186324 0 -0.010795256837677703 0.00012033354309839585 0 -0.010797108952057178 0.00027782484352189792 0 -0.010631128631496735 0.00015465228833186324 0 -0.010723215449007058 1.3805742499064612e-07 0 -0.010795256837677703 0.00012033354309839585 0 -0.010631128631496735 0.00015465228833186324 0 -0.0085119609641753653 0.00097691486892471121 0 -0.010002328314855541 0.00035768518421428272 0 -0.009669744890723168 0.00044518369527292678 0 -0.0085547685819164481 0.00057405267596551742 0 -0.010071606105938151 -0.00027319994388890108 0 -0.010114188453732322 9.5501093670704703e-05 0 -0.009669744890723168 0.00044518369527292678 0 -0.010071606105938151 -0.00027319994388890108 0 -0.010393088868678534 3.4122444377645551e-05 0 -0.010114188453732322 9.5501093670704703e-05 0 -0.010071606105938151 -0.00027319994388890108 0 -0.010236982653800098 0.00022059029867063125 0 -0.010114188453732322 9.5501093670704703e-05 0 -0.009669744890723168 0.00044518369527292678 0 -0.010393088868678534 3.4122444377645551e-05 0 -0.010236982653800098 0.00022059029867063125 0 -0.010114188453732322 9.5501093670704703e-05 0 -0.010236982653800098 0.00022059029867063125 0 -0.0099865439759558496 0.00066569881934083698 0 -0.009669744890723168 0.00044518369527292678 0 -0.0099865439759558496 0.00066569881934083698 0 -0.009669744890723168 0.00044518369527292678 0 -0.0096657298298245212 0.00091219201172680392 0 -0.009669744890723168 0.00044518369527292678 0 -0.0091380158613064456 0.0010577767979362141 0 -0.0096657298298245212 0.00091219201172680392 0 -0.009669744890723168 0.00044518369527292678 0 -0.0085547685819164481 0.00057405267596551742 0 -0.0091380158613064456 0.0010577767979362141 0 -0.0086032000169582214 0.0013356854002338373 0 -0.0092118716953371454 0.0008911198731237158 0 -0.0083300176961714992 0.00095237407889000984 0 -0.0086032000169582214 0.0013356854002338373 0 -0.0083300176961714992 0.00095237407889000984 0 -0.0082272768990262948 0.0013145693054258281 0 -0.010002328314855541 0.00035768518421428272 0 -0.0095730888272160773 0.00059386446640488947 0 -0.010789572150617951 0.00012334231201876678 0 -0.010839712207600877 8.1606419113075318e-05 0 -0.010713865744188211 0.00019995035295061425 0 -0.010789572150617951 0.00012334231201876678 0 -0.010760779573562378 0.00012396224948615347 0 -0.010713865744188211 0.00019995035295061425 0 -0.010789572150617951 0.00012334231201876678 0 -0.010760779573562378 0.00012396224948615347 0 -0.010799089122038212 0.00010569434046389806 0 -0.010760779573562378 0.00012396224948615347 0 -0.010788220049235249 9.9747969183862416e-05 0 -0.010799089122038212 0.00010569434046389806 0 -0.010760779573562378 0.00012396224948615347 0 -0.010788220049235249 9.9747969183862416e-05 0 -0.010772434623111718 8.8546847342594584e-05 0 -0.01081454581911629 9.5455260580692386e-05 0 -0.010799089122038212 0.00010569434046389806 0 -0.010806564140164267 9.2791960197247233e-05 0 -0.010788220049235249 9.9747969183862416e-05 0 -0.010799089122038212 0.00010569434046389806 0 -0.010806564140164267 9.2791960197247233e-05 0 -0.01081454581911629 9.5455260580692386e-05 0 -0.010825884481732774 8.7905995050254303e-05 0 -0.010806564140164267 9.2791960197247233e-05 0 -0.01081454581911629 9.5455260580692386e-05 0 -0.010824015379901757 9.1620983942003443e-05 0 -0.010825884481732774 8.7905995050254303e-05 0 -0.01081454581911629 9.5455260580692386e-05 0 -0.010815001722754991 9.8240709192823819e-05 0 -0.010824015379901757 9.1620983942003443e-05 0 -0.010815001722754991 9.8240709192823819e-05 0 -0.010824115397711135 9.2085103224224656e-05 0 -0.010824015379901757 9.1620983942003443e-05 0 -0.010815001722754991 9.8240709192823819e-05 0 -0.010819302037963035 9.6474688388794642e-05 0 -0.010824115397711135 9.2085103224224656e-05 0 -0.010815001722754991 9.8240709192823819e-05 0 -0.010799089122038212 0.00010569434046389806 0 -0.010810628265292332 0.00010459360995508294 0 -0.01081454581911629 9.5455260580692386e-05 0 -0.010815001722754991 9.8240709192823819e-05 0 -0.010799089122038212 0.00010569434046389806 0 -0.010789572150617951 0.00012334231201876678 0 -0.010810628265292332 0.00010459360995508294 0 -0.010839712207600877 8.1606419113075318e-05 0 -0.010789572150617951 0.00012334231201876678 0 -0.010799089122038212 0.00010569434046389806 0 -0.010810628265292332 0.00010459360995508294 0 -0.010815001722754991 9.8240709192823819e-05 0 -0.010810628265292332 0.00010459360995508294 0 -0.010819302037963035 9.6474688388794642e-05 0 -0.010810628265292332 0.00010459360995508294 0 -0.010819302037963035 9.6474688388794642e-05 0 -0.010826778207547185 9.0493218745408115e-05 0 -0.010839712207600877 8.1606419113075318e-05 0 -0.010833686309931959 8.3718454128408991e-05 0 -0.010826778207547185 9.0493218745408115e-05 0 -0.010833686309931959 8.3718454128408991e-05 0 -0.010826778207547185 9.0493218745408115e-05 0 -0.010829478704638592 8.4289207850292782e-05 0 -0.010810628265292332 0.00010459360995508294 0 -0.010839712207600877 8.1606419113075318e-05 0 -0.010826778207547185 9.0493218745408115e-05 0 -0.010826778207547185 9.0493218745408115e-05 0 -0.010824115397711135 9.2085103224224656e-05 0 -0.010827110031296147 8.855215371217568e-05 0 -0.010819302037963035 9.6474688388794642e-05 0 -0.010826778207547185 9.0493218745408115e-05 0 -0.010824115397711135 9.2085103224224656e-05 0 -0.010827110031296147 8.855215371217568e-05 0 -0.010829478704638592 8.4289207850292782e-05 0 -0.010827814474806177 8.7101484871031324e-05 0 -0.010826778207547185 9.0493218745408115e-05 0 -0.010827110031296147 8.855215371217568e-05 0 -0.010829478704638592 8.4289207850292782e-05 0 -0.010799069781567472 6.3943523349061293e-05 0 -0.010839712207600877 8.1606419113075318e-05 0 -0.010824320981950271 7.7354668444006396e-05 0 -0.010829478704638592 8.4289207850292782e-05 0 -0.010824320981950271 7.7354668444006396e-05 0 -0.010825297007943156 8.1551330143288974e-05 0 -0.010833686309931959 8.3718454128408991e-05 0 -0.010829478704638592 8.4289207850292782e-05 0 -0.010824320981950271 7.7354668444006396e-05 0 -0.010839712207600877 8.1606419113075318e-05 0 -0.010833686309931959 8.3718454128408991e-05 0 -0.010824320981950271 7.7354668444006396e-05 0 -0.010825297007943156 8.1551330143288974e-05 0 -0.010827814474806177 8.7101484871031324e-05 0 -0.010830991179411879 8.6709075772586881e-05 0 -0.010829478704638592 8.4289207850292782e-05 0 -0.010825297007943156 8.1551330143288974e-05 0 -0.010827814474806177 8.7101484871031324e-05 0 -0.010827814474806177 8.7101484871031324e-05 0 -0.010824015379901757 9.1620983942003443e-05 0 -0.010830991179411879 8.6709075772586881e-05 0 -0.010824115397711135 9.2085103224224656e-05 0 -0.010827814474806177 8.7101484871031324e-05 0 -0.010824015379901757 9.1620983942003443e-05 0 -0.010824115397711135 9.2085103224224656e-05 0 -0.010827110031296147 8.855215371217568e-05 0 -0.010827814474806177 8.7101484871031324e-05 0 -0.010824015379901757 9.1620983942003443e-05 0 -0.010830991179411879 8.6709075772586881e-05 0 -0.010825884481732774 8.7905995050254303e-05 0 -0.010832187315485027 8.0074642194355981e-05 0 -0.010825297007943156 8.1551330143288974e-05 0 -0.010830991179411879 8.6709075772586881e-05 0 -0.010832187315485027 8.0074642194355981e-05 0 -0.010830991179411879 8.6709075772586881e-05 0 -0.010842720034715194 8.3874462708937548e-05 0 -0.010830991179411879 8.6709075772586881e-05 0 -0.010825884481732774 8.7905995050254303e-05 0 -0.010842720034715194 8.3874462708937548e-05 0 -0.010825884481732774 8.7905995050254303e-05 0 -0.010842720034715194 8.3874462708937548e-05 0 -0.010833172633190969 7.4563660007995506e-05 0 -0.010806564140164267 9.2791960197247233e-05 0 -0.010815083530572457 8.2443902999756563e-05 0 -0.010797325274271246 8.4372095953409306e-05 0 -0.010825884481732774 8.7905995050254303e-05 0 -0.010806564140164267 9.2791960197247233e-05 0 -0.010815083530572457 8.2443902999756563e-05 0 -0.010825884481732774 8.7905995050254303e-05 0 -0.010815083530572457 8.2443902999756563e-05 0 -0.010833172633190969 7.4563660007995506e-05 0 -0.010815083530572457 8.2443902999756563e-05 0 -0.010809338908289581 7.029035478586462e-05 0 -0.010797325274271246 8.4372095953409306e-05 0 -0.010833172633190969 7.4563660007995506e-05 0 -0.010853339763863443 5.3847063988947111e-05 0 -0.010816581503477963 5.1203183370167518e-05 0 -0.010809338908289581 7.029035478586462e-05 0 -0.010833172633190969 7.4563660007995506e-05 0 -0.010816581503477963 5.1203183370167518e-05 0 -0.010815083530572457 8.2443902999756563e-05 0 -0.010809338908289581 7.029035478586462e-05 0 -0.010833172633190969 7.4563660007995506e-05 0 -0.010809338908289581 7.029035478586462e-05 0 -0.010816581503477963 5.1203183370167518e-05 0 -0.010781668527200281 4.763735952315443e-05 0 -0.010870451636395429 7.3754216189988585e-05 0 -0.010842720034715194 8.3874462708937548e-05 0 -0.010833172633190969 7.4563660007995506e-05 0 -0.010870451636395429 7.3754216189988585e-05 0 -0.010833172633190969 7.4563660007995506e-05 0 -0.010853339763863443 5.3847063988947111e-05 0 -0.010853339763863443 5.3847063988947111e-05 0 -0.010825467142142919 3.0861783152060808e-05 0 -0.010856264319273251 1.4444001859754727e-05 0 -0.010853339763863443 5.3847063988947111e-05 0 -0.010816581503477963 5.1203183370167518e-05 0 -0.010825467142142919 3.0861783152060808e-05 0 -0.010825467142142919 3.0861783152060808e-05 0 -0.010812103646772871 6.8724408410767732e-06 0 -0.010792439335004785 2.1917468718240433e-05 0 -0.010816581503477963 5.1203183370167518e-05 0 -0.010825467142142919 3.0861783152060808e-05 0 -0.010792439335004785 2.1917468718240433e-05 0 -0.010825467142142919 3.0861783152060808e-05 0 -0.010812103646772871 6.8724408410767732e-06 0 -0.010856264319273251 1.4444001859754727e-05 0 -0.010809238584049719 -2.3664399062778403e-05 0 -0.010812103646772871 6.8724408410767732e-06 0 -0.010856264319273251 1.4444001859754727e-05 0 -0.010752087613674421 -3.4085096626630847e-05 0 -0.010779517893974608 -1.0449571236061021e-05 0 -0.010743469757983974 1.3030812192511709e-05 0 -0.010779517893974608 -1.0449571236061021e-05 0 -0.010792439335004785 2.1917468718240433e-05 0 -0.010743469757983974 1.3030812192511709e-05 0 -0.010809238584049719 -2.3664399062778403e-05 0 -0.010812103646772871 6.8724408410767732e-06 0 -0.010779517893974608 -1.0449571236061021e-05 0 -0.010812103646772871 6.8724408410767732e-06 0 -0.010779517893974608 -1.0449571236061021e-05 0 -0.010792439335004785 2.1917468718240433e-05 0 -0.010792439335004785 2.1917468718240433e-05 0 -0.010743469757983974 1.3030812192511709e-05 0 -0.010781668527200281 4.763735952315443e-05 0 -0.010816581503477963 5.1203183370167518e-05 0 -0.010792439335004785 2.1917468718240433e-05 0 -0.010781668527200281 4.763735952315443e-05 0 -0.010743469757983974 1.3030812192511709e-05 0 -0.010781668527200281 4.763735952315443e-05 0 -0.010719120142693493 4.7721319728989337e-05 0 -0.010760359351605664 6.8619879816870266e-05 0 -0.010781668527200281 4.763735952315443e-05 0 -0.010719120142693493 4.7721319728989337e-05 0 -0.010760359351605664 6.8619879816870266e-05 0 -0.010736432819074637 8.5908823962382324e-05 0 -0.010719120142693493 4.7721319728989337e-05 0 -0.010760359351605664 6.8619879816870266e-05 0 -0.010781668527200281 4.763735952315443e-05 0 -0.010784851636069631 7.1661203196520147e-05 0 -0.010809338908289581 7.029035478586462e-05 0 -0.010781668527200281 4.763735952315443e-05 0 -0.010784851636069631 7.1661203196520147e-05 0 -0.010809338908289581 7.029035478586462e-05 0 -0.010784851636069631 7.1661203196520147e-05 0 -0.010797325274271246 8.4372095953409306e-05 0 -0.010784851636069631 7.1661203196520147e-05 0 -0.010797325274271246 8.4372095953409306e-05 0 -0.010772434623111718 8.8546847342594584e-05 0 -0.010760359351605664 6.8619879816870266e-05 0 -0.010784851636069631 7.1661203196520147e-05 0 -0.010772434623111718 8.8546847342594584e-05 0 -0.010788220049235249 9.9747969183862416e-05 0 -0.010797325274271246 8.4372095953409306e-05 0 -0.010772434623111718 8.8546847342594584e-05 0 -0.010788220049235249 9.9747969183862416e-05 0 -0.010806564140164267 9.2791960197247233e-05 0 -0.010797325274271246 8.4372095953409306e-05 0 -0.010760779573562378 0.00012396224948615347 0 -0.010736432819074637 8.5908823962382324e-05 0 -0.010677892346506661 0.00010721412906208094 0 -0.010760779573562378 0.00012396224948615347 0 -0.010772434623111718 8.8546847342594584e-05 0 -0.010736432819074637 8.5908823962382324e-05 0 -0.010760359351605664 6.8619879816870266e-05 0 -0.010772434623111718 8.8546847342594584e-05 0 -0.010736432819074637 8.5908823962382324e-05 0 -0.010677892346506661 0.00010721412906208094 0 -0.010622735266179396 3.8050038437600262e-06 0 -0.010582797668346262 0.00013561606470132958 0 -0.010677892346506661 0.00010721412906208094 0 -0.010719120142693493 4.7721319728989337e-05 0 -0.010622735266179396 3.8050038437600262e-06 0 -0.010736432819074637 8.5908823962382324e-05 0 -0.010677892346506661 0.00010721412906208094 0 -0.010719120142693493 4.7721319728989337e-05 0 -0.010752087613674421 -3.4085096626630847e-05 0 -0.010743469757983974 1.3030812192511709e-05 0 -0.010622735266179396 3.8050038437600262e-06 0 -0.010752087613674421 -3.4085096626630847e-05 0 -0.010751406849995902 -5.628895823876835e-05 0 -0.010622735266179396 3.8050038437600262e-06 0 -0.011148464721961534 0.0001045756643412389 0 -0.011334922657784229 0.00039646617156401977 0 -0.010743469757983974 1.3030812192511709e-05 0 -0.010719120142693493 4.7721319728989337e-05 0 -0.010622735266179396 3.8050038437600262e-06 0 -0.01200404822098119 0.00058601834827892176 0 -0.012054279371782561 0.00070809698953893058 0 -0.01192010934289872 0.00064209986624426082 0 -0.010622735266179396 3.8050038437600262e-06 0 -0.010582797668346262 0.00013561606470132958 0 -0.010432840324063055 0.00010953353184730987 0 -0.011334922657784229 0.00039646617156401977 0 -0.011428830870781606 0.00040185956322497975 0 -0.010582797668346262 0.00013561606470132958 0 -0.010494106148819866 0.00025586459266404459 0 -0.010432840324063055 0.00010953353184730987 0 -0.0095730888272160773 0.00059386446640488947 0 -0.0088231767252804939 0.00064418899772791219 0 -0.010582797668346262 0.00013561606470132958 0 -0.010713865744188211 0.00019995035295061425 0 -0.010494106148819866 0.00025586459266404459 0 -0.010760779573562378 0.00012396224948615347 0 -0.010677892346506661 0.00010721412906208094 0 -0.010713865744188211 0.00019995035295061425 0 -0.010677892346506661 0.00010721412906208094 0 -0.010582797668346262 0.00013561606470132958 0 -0.010713865744188211 0.00019995035295061425 0 -0.0083300176961714992 0.00095237407889000984 0 -0.0082272768990262948 0.0013145693054258281 0 -0.0079544815950424019 0.0012605126664882865 0 -0.0083300176961714992 0.00095237407889000984 0 -0.0079544815950424019 0.0012605126664882865 0 -0.0075901514518570872 0.0010518307291005617 0 -0.0079544815950424019 0.0012605126664882865 0 -0.0075901514518570872 0.0010518307291005617 0 -0.00781720059612891 0.0015138663510558667 0 -0.0075901514518570872 0.0010518307291005617 0 -0.00781720059612891 0.0015138663510558667 0 -0.0075517711397383508 0.001572300614949313 0 -0.0079544815950424019 0.0012605126664882865 0 -0.00781720059612891 0.0015138663510558667 0 -0.0080306205313740043 0.0016906327893393537 0 -0.00781720059612891 0.0015138663510558667 0 -0.0080306205313740043 0.0016906327893393537 0 -0.0075116852006822093 0.0019676347275615447 0 -0.00781720059612891 0.0015138663510558667 0 -0.0075517711397383508 0.001572300614949313 0 -0.0075116852006822093 0.0019676347275615447 0 -0.0086032000169582214 0.0013356854002338373 0 -0.0082272768990262948 0.0013145693054258281 0 -0.0080306205313740043 0.0016906327893393537 0 -0.0085119609641753653 0.00097691486892471121 0 -0.0075612019002326549 0.0016195540259631386 0 -0.0082272768990262948 0.0013145693054258281 0 -0.0079544815950424019 0.0012605126664882865 0 -0.0080306205313740043 0.0016906327893393537 0 -0.0070564890836658008 0.0015695328108695115 0 -0.0077077426835020953 0.0021281910149840585 0 -0.0082883942183294354 0.001501169559853984 0 -0.0070564890836658008 0.0015695328108695115 0 -0.0077077426835020953 0.0021281910149840585 0 -0.006437620418769302 0.0022025712295193327 0 -0.0064959038419857623 0.0020574938162531979 0 -0.0064446266563453853 0.002175153956622784 0 -0.006437620418769302 0.0022025712295193327 0 -0.0071037365549180215 0.0020846031837415623 0 -0.0065237351870845442 0.0022005454617008867 0 -0.0064959038419857623 0.0020574938162531979 0 -0.0064756161713599427 0.0021639008842194701 0 -0.0064446266563453853 0.002175153956622784 0 -0.0064756161713599427 0.0021639008842194701 0 -0.0064446266563453853 0.002175153956622784 0 -0.0064566099170183617 0.0021996587516326599 0 -0.0064756161713599427 0.0021639008842194701 0 -0.0064566099170183617 0.0021996587516326599 0 -0.0064998045529389547 0.0021845669551630192 0 -0.0075612019002326549 0.0016195540259631386 0 -0.0068450241877291481 0.0020816036480099612 0 -0.006437620418769302 0.0022025712295193327 0 -0.0063462836076429059 0.0022423729479555958 0 -0.0064103557599975393 0.0022046032677154825 0 -0.0064446266563453853 0.002175153956622784 0 -0.006437620418769302 0.0022025712295193327 0 -0.0064103557599975393 0.0022046032677154825 0 -0.0070564890836658008 0.0015695328108695115 0 -0.006437620418769302 0.0022025712295193327 0 -0.0061280827976294893 0.0022048598527279533 0 -0.006437620418769302 0.0022025712295193327 0 -0.0062383070831506507 0.0022684538195349153 0 -0.0061280827976294893 0.0022048598527279533 0 -0.006437620418769302 0.0022025712295193327 0 -0.0062383070831506507 0.0022684538195349153 0 -0.0063462836076429059 0.0022423729479555958 0 -0.0062383070831506507 0.0022684538195349153 0 -0.0063462836076429059 0.0022423729479555958 0 -0.0062415481393807244 0.00228253342331312 0 -0.0063462836076429059 0.0022423729479555958 0 -0.0064103557599975393 0.0022046032677154825 0 -0.0064107658556859732 0.0022186539230220435 0 -0.0063462836076429059 0.0022423729479555958 0 -0.0063439562394816979 0.0022644248742006356 0 -0.0064107658556859732 0.0022186539230220435 0 -0.0063462836076429059 0.0022423729479555958 0 -0.0063439562394816979 0.0022644248742006356 0 -0.0062415481393807244 0.00228253342331312 0 -0.0063439562394816979 0.0022644248742006356 0 -0.0062415481393807244 0.00228253342331312 0 -0.0062697714042786639 0.0022939221612045418 0 -0.0062383070831506507 0.0022684538195349153 0 -0.0062415481393807244 0.00228253342331312 0 -0.0061757477220740842 0.0023043656920769531 0 -0.0062697714042786639 0.0022939221612045418 0 -0.0062642089642903223 0.002340473375835532 0 -0.0060848937036737496 0.0022552737453000941 0 -0.0062415481393807244 0.00228253342331312 0 -0.0062697714042786639 0.0022939221612045418 0 -0.0060848937036737496 0.0022552737453000941 0 -0.0063439562394816979 0.0022644248742006356 0 -0.0062697714042786639 0.0022939221612045418 0 -0.006361432909651828 0.0023040473206487637 0 -0.0062697714042786639 0.0022939221612045418 0 -0.0062642089642903223 0.002340473375835532 0 -0.006361432909651828 0.0023040473206487637 0 -0.0062642089642903223 0.002340473375835532 0 -0.0064110490501256574 0.0023688454026641191 0 -0.006361432909651828 0.0023040473206487637 0 -0.0064110490501256574 0.0023688454026641191 0 -0.006361432909651828 0.0023040473206487637 0 -0.0064549751747372758 0.0022905075631005738 0 -0.006361432909651828 0.0023040473206487637 0 -0.0064549751747372758 0.0022905075631005738 0 -0.0064191121918234133 0.0022498330606555133 0 -0.0064549751747372758 0.0022905075631005738 0 -0.0064191121918234133 0.0022498330606555133 0 -0.0064812862581035136 0.0022309769624420397 0 -0.0063439562394816979 0.0022644248742006356 0 -0.006361432909651828 0.0023040473206487637 0 -0.0064191121918234133 0.0022498330606555133 0 -0.0063439562394816979 0.0022644248742006356 0 -0.0064191121918234133 0.0022498330606555133 0 -0.0064107658556859732 0.0022186539230220435 0 -0.0064191121918234133 0.0022498330606555133 0 -0.0064107658556859732 0.0022186539230220435 0 -0.0064566099170183617 0.0021996587516326599 0 -0.0064446266563453853 0.002175153956622784 0 -0.0064107658556859732 0.0022186539230220435 0 -0.0064566099170183617 0.0021996587516326599 0 -0.0064446266563453853 0.002175153956622784 0 -0.0064103557599975393 0.0022046032677154825 0 -0.0064107658556859732 0.0022186539230220435 0 -0.0064191121918234133 0.0022498330606555133 0 -0.0064566099170183617 0.0021996587516326599 0 -0.0064812862581035136 0.0022309769624420397 0 -0.0064566099170183617 0.0021996587516326599 0 -0.0064998045529389547 0.0021845669551630192 0 -0.0064812862581035136 0.0022309769624420397 0 -0.0064998045529389547 0.0021845669551630192 0 -0.0065349249576444465 0.0022011426770053061 0 -0.0064812862581035136 0.0022309769624420397 0 -0.0064998045529389547 0.0021845669551630192 0 -0.0065349249576444465 0.0022011426770053061 0 -0.0065495094732202766 0.0021529465524677588 0 -0.0065349249576444465 0.0022011426770053061 0 -0.0065744288941429205 0.0022269432757938716 0 -0.0065810043138897793 0.0021774479572705271 0 -0.0065349249576444465 0.0022011426770053061 0 -0.0065810043138897793 0.0021774479572705271 0 -0.0065495094732202766 0.0021529465524677588 0 -0.0065349249576444465 0.0022011426770053061 0 -0.0065744288941429205 0.0022269432757938716 0 -0.0065223773232598679 0.0022649488577304797 0 -0.0065744288941429205 0.0022269432757938716 0 -0.0065223773232598679 0.0022649488577304797 0 -0.0066063574788722936 0.0022845544443406271 0 -0.0064549751747372758 0.0022905075631005738 0 -0.0065223773232598679 0.0022649488577304797 0 -0.0064812862581035136 0.0022309769624420397 0 -0.0065349249576444465 0.0022011426770053061 0 -0.0065223773232598679 0.0022649488577304797 0 -0.0064812862581035136 0.0022309769624420397 0 -0.0064549751747372758 0.0022905075631005738 0 -0.0065223773232598679 0.0022649488577304797 0 -0.0065280178826818587 0.0023351432993127326 0 -0.0064110490501256574 0.0023688454026641191 0 -0.0064549751747372758 0.0022905075631005738 0 -0.0065280178826818587 0.0023351432993127326 0 -0.0065223773232598679 0.0022649488577304797 0 -0.0065280178826818587 0.0023351432993127326 0 -0.0066063574788722936 0.0022845544443406271 0 -0.0066063574788722936 0.0022845544443406271 0 -0.0067155545352665666 0.0022547837371473269 0 -0.0066301854172129849 0.0023577221009463047 0 -0.0065280178826818587 0.0023351432993127326 0 -0.0066063574788722936 0.0022845544443406271 0 -0.0066301854172129849 0.0023577221009463047 0 -0.0066140432604860754 0.0022964787020532331 0 -0.0066691308141615087 0.0022950445353779542 0 -0.0066063574788722936 0.0022845544443406271 0 -0.0066344317612740383 0.0022147402900510125 0 -0.0067155545352665666 0.0022547837371473269 0 -0.0065744288941429205 0.0022269432757938716 0 -0.0066063574788722936 0.0022845544443406271 0 -0.0066344317612740383 0.0022147402900510125 0 -0.0065810043138897793 0.0021774479572705271 0 -0.0066344317612740383 0.0022147402900510125 0 -0.0066351000016317465 0.002153867692099552 0 -0.0065744288941429205 0.0022269432757938716 0 -0.0065810043138897793 0.0021774479572705271 0 -0.0066344317612740383 0.0022147402900510125 0 -0.0066344317612740383 0.0022147402900510125 0 -0.0066351000016317465 0.002153867692099552 0 -0.0066976448959306491 0.0021706595814058251 0 -0.0066344317612740383 0.0022147402900510125 0 -0.0066976448959306491 0.0021706595814058251 0 -0.0067155545352665666 0.0022547837371473269 0 -0.0066351000016317465 0.002153867692099552 0 -0.0066880869069955284 0.0021050748777344569 0 -0.0066275236591189987 0.0021169718445587854 0 -0.0066351000016317465 0.002153867692099552 0 -0.0066880869069955284 0.0021050748777344569 0 -0.0066976448959306491 0.0021706595814058251 0 -0.0066880869069955284 0.0021050748777344569 0 -0.0065918275774505403 0.0020736009103170059 0 -0.0067675481784563061 0.001991037941108673 0 -0.0066880869069955284 0.0021050748777344569 0 -0.0065918275774505403 0.0020736009103170059 0 -0.0066275236591189987 0.0021169718445587854 0 -0.0065918275774505403 0.0020736009103170059 0 -0.0065960256616624099 0.0021335703574435088 0 -0.0065495094732202766 0.0021529465524677588 0 -0.0065918275774505403 0.0020736009103170059 0 -0.0066275236591189987 0.0021169718445587854 0 -0.0065960256616624099 0.0021335703574435088 0 -0.0066351000016317465 0.002153867692099552 0 -0.0066275236591189987 0.0021169718445587854 0 -0.0065960256616624099 0.0021335703574435088 0 -0.0065810043138897793 0.0021774479572705271 0 -0.0066351000016317465 0.002153867692099552 0 -0.0065960256616624099 0.0021335703574435088 0 -0.0064756161713599427 0.0021639008842194701 0 -0.0065918275774505403 0.0020736009103170059 0 -0.0065292453476458057 0.0021448416849620382 0 -0.0071037365549180215 0.0020846031837415623 0 -0.0083121652958153703 0.0018226672297868788 0 -0.0066249759165337724 0.0021061229595172155 0 -0.0065450390197629377 0.0021452366501464298 0 -0.0064959038419857623 0.0020574938162531979 0 -0.0064756161713599427 0.0021639008842194701 0 -0.0070850446082331067 0.0019831739595162195 0 -0.0065810043138897793 0.0021774479572705271 0 -0.0065960256616624099 0.0021335703574435088 0 -0.0065495094732202766 0.0021529465524677588 0 -0.0064959038419857623 0.0020574938162531979 0 -0.0070850446082331067 0.0019831739595162195 0 -0.0070966947613458021 0.001855988381229141 0 -0.0064756161713599427 0.0021639008842194701 0 -0.0064998045529389547 0.0021845669551630192 0 -0.0065292453476458057 0.0021448416849620382 0 -0.0064998045529389547 0.0021845669551630192 0 -0.0065495094732202766 0.0021529465524677588 0 -0.0065292453476458057 0.0021448416849620382 0 -0.0065918275774505403 0.0020736009103170059 0 -0.0065495094732202766 0.0021529465524677588 0 -0.0065292453476458057 0.0021448416849620382 0 -0.0085547685819164481 0.00057405267596551742 0 -0.0070564890836658008 0.0015695328108695115 0 -0.0082883942183294354 0.001501169559853984 0 -0.0077077426835020953 0.0021281910149840585 0 -0.0082883942183294354 0.001501169559853984 0 -0.0093024617468669708 0.0017834348639583686 0 -0.0088897478496960652 0.0013707657051797001 0 -0.0082883942183294354 0.001501169559853984 0 -0.0093024617468669708 0.0017834348639583686 0 -0.0085547685819164481 0.00057405267596551742 0 -0.0088897478496960652 0.0013707657051797001 0 -0.0082883942183294354 0.001501169559853984 0 -0.0085547685819164481 0.00057405267596551742 0 -0.0088897478496960652 0.0013707657051797001 0 -0.0091380158613064456 0.0010577767979362141 0 -0.0088897478496960652 0.0013707657051797001 0 -0.0091380158613064456 0.0010577767979362141 0 -0.0092303518571969275 0.0013823614326178002 0 -0.0083121652958153703 0.0018226672297868788 0 -0.0087433367130853954 0.001286911079071184 0 -0.0065450390197629377 0.0021452366501464298 0 -0.0087433367130853954 0.001286911079071184 0 -0.0095883846688407121 0.0013242605680748184 0 -0.0099431501163250759 0.001077039506720803 0 -0.010788058947127756 0.0014166318207628678 0 -0.0095883846688407121 0.0013242605680748184 0 -0.0093024617468669708 0.0017834348639583686 0 -0.010788058947127756 0.0014166318207628678 0 -0.0070850446082331067 0.0019831739595162195 0 -0.0070966947613458021 0.001855988381229141 0 -0.007977118566629169 0.0016419598752836747 0 -0.0091380158613064456 0.0010577767979362141 0 -0.0095883846688407121 0.0013242605680748184 0 -0.0092303518571969275 0.0013823614326178002 0 -0.0091380158613064456 0.0010577767979362141 0 -0.0095883846688407121 0.0013242605680748184 0 -0.0096657298298245212 0.00091219201172680392 0 -0.0099865439759558496 0.00066569881934083698 0 -0.0096657298298245212 0.00091219201172680392 0 -0.0099431501163250759 0.001077039506720803 0 -0.0095883846688407121 0.0013242605680748184 0 -0.0096657298298245212 0.00091219201172680392 0 -0.0099431501163250759 0.001077039506720803 0 -0.0095883846688407121 0.0013242605680748184 0 -0.0093024617468669708 0.0017834348639583686 0 -0.0092303518571969275 0.0013823614326178002 0 -0.0088897478496960652 0.0013707657051797001 0 -0.0093024617468669708 0.0017834348639583686 0 -0.0092303518571969275 0.0013823614326178002 0 -0.0085024723701304337 0.00092228634074867334 0 -0.0088818163239401515 0.0010774059543861203 0 -0.0087194019474059296 0.0013693073539284711 0 -0.0099865439759558496 0.00066569881934083698 0 -0.0099431501163250759 0.001077039506720803 0 -0.010788058947127756 0.0014166318207628678 0 -0.010589183985105452 0.00035505970897734397 0 -0.010559190962868472 0.00065782108954534439 0 -0.010665248229012703 0.00047597019192861735 0 -0.010559190962868472 0.00065782108954534439 0 -0.010665248229012703 0.00047597019192861735 0 -0.010853349277070124 0.00051984006641552524 0 -0.0087433367130853954 0.001286911079071184 0 -0.0099006349919879173 0.00040159273816476151 0 -0.010293319737890281 0.00042411619507590036 0 -0.0099006349919879173 0.00040159273816476151 0 -0.010797108952057178 0.00027782484352189792 0 -0.010665248229012703 0.00047597019192861735 0 -0.010853349277070124 0.00051984006641552524 0 -0.0096001321616800191 0.0001914797016581584 0 -0.0097902417591761645 0.00013243789459402354 0 -0.0095926408569718558 0.00059700989312951361 0 -0.010797108952057178 0.00027782484352189792 0 -0.010811567834324496 0.00030676505759128669 0 -0.010823573353246831 0.00030186777160317089 0 -0.0089038123450616759 1.5161815364247158e-05 0 -0.0088754627778766127 5.6955847871704052e-05 0 -0.008848148310447463 7.0481229556006844e-05 0 -0.0095147598780015042 0.00022672419049686826 0 -0.0096001321616800191 0.0001914797016581584 0 -0.0095926408569718558 0.00059700989312951361 0 -0.0099006349919879173 0.00040159273816476151 0 -0.0099800282072716705 0.00027046918552894899 0 -0.0098784540360430158 7.6945967248112662e-05 0 -0.0097902417591761645 0.00013243789459402354 0 -0.0095926408569718558 0.00059700989312951361 0 -0.010068449488465258 -1.1014800592350199e-05 0 -0.0089218301857030211 0.00057542023326374696 0 -0.0099800282072716705 0.00027046918552894899 0 -0.009839511040808881 0.00026734254964712816 0 -0.0098784540360430158 7.6945967248112662e-05 0 -0.0096021021590870208 0.00019218847957834908 0 -0.0097902417591761645 0.00013243789459402354 0 -0.010068449488465258 -1.1014800592350199e-05 0 -0.0099800282072716705 0.00027046918552894899 0 -0.0085024723701304337 0.00092228634074867334 0 -0.0088233387841920412 0.00078908557804641881 0 -0.0088818163239401515 0.0010774059543861203 0 -0.0099006349919879173 0.00040159273816476151 0 -0.0089218301857030211 0.00057542023326374696 0 -0.0088754627778766127 5.6955847871704052e-05 0 -0.0088716420258567966 1.4434399150790031e-05 0 -0.008848148310447463 7.0481229556006844e-05 0 -0.0089218301857030211 0.00057542023326374696 0 -0.0075618077290321249 0.0016578830093977061 0 -0.0081556160143223602 0.00093376097034480663 0 -0.0081440312800394599 0.00094726487390785446 0 -0.0081499474091495661 0.0009556142717672988 0 -0.0089218301857030211 0.00057542023326374696 0 -0.0084982974581604195 0.00035745113499612865 0 -0.0066880869069955284 0.0021050748777344569 0 -0.0068184825669678293 0.0021134508506923028 0 -0.0066976448959306491 0.0021706595814058251 0 -0.0066880869069955284 0.0021050748777344569 0 -0.0067675481784563061 0.001991037941108673 0 -0.0068184825669678293 0.0021134508506923028 0 -0.0087433367130853954 0.001286911079071184 0 -0.0075618077290321249 0.0016578830093977061 0 -0.0068184825669678293 0.0021134508506923028 0 -0.0066976448959306491 0.0021706595814058251 0 -0.0067155545352665666 0.0022547837371473269 0 -0.0075618077290321249 0.0016578830093977061 0 -0.0066140432604860754 0.0022964787020532331 0 -0.0067109116016011014 0.002126071566060058 0 -0.0067284908762523642 0.0022929014446825755 0 -0.0066301854172129849 0.0023577221009463047 0 -0.0067284908762523642 0.0022929014446825755 0 -0.006849623318513574 0.0022490186634747779 0 -0.0067160282882010036 0.0024076971512362634 0 -0.0067109116016011014 0.002126071566060058 0 -0.0067284908762523642 0.0022929014446825755 0 -0.006849623318513574 0.0022490186634747779 0 -0.0068853239477373674 0.0023100960241446006 0 -0.0069511793693684985 0.0022181178416484713 0 -0.0069782521963752909 0.0023721509583913732 0 -0.0067109116016011014 0.002126071566060058 0 -0.006849623318513574 0.0022490186634747779 0 -0.0069781451205682653 0.002194590534642655 0 -0.0068853239477373674 0.0023100960241446006 0 -0.006849623318513574 0.0022490186634747779 0 -0.0069511793693684985 0.0022181178416484713 0 -0.006849623318513574 0.0022490186634747779 0 -0.0069884171785940591 0.0022136999725463377 0 -0.0069781451205682653 0.002194590534642655 0 -0.0066496706418444256 0.0020674762769142467 0 -0.0076367419311437609 0.001152825052137467 0 -0.0076367419311437609 0.001152825052137467 0 -0.0077734835481453992 0.0010845590653486639 0 -0.0075618077290321249 0.0016578830093977061 0 -0.0077734835481453992 0.0010845590653486639 0 -0.0068380216041005054 0.001896545165135062 0 -0.0067109116016011014 0.002126071566060058 0 -0.0069781451205682653 0.002194590534642655 0 -0.0088544456717244476 -0.00017828575079854422 0 -0.0088716420258567966 1.4434399150790031e-05 0 -0.0087752917952515844 -4.3697924403644545e-05 0 -0.0081440312800394599 0.00094726487390785446 0 -0.0081455609034205827 0.00097604172325594458 0 -0.0081499474091495661 0.0009556142717672988 0 -0.0077734835481453992 0.0010845590653486639 0 -0.0084982974581604195 0.00035745113499612865 0 -0.0088439066086836628 -0.00020258994908143571 0 -0.0087752917952515844 -4.3697924403644545e-05 0 -0.0086176161909176392 -0.00019687902887349204 0 -0.0087752917952515844 -4.3697924403644545e-05 0 -0.0086176161909176392 -0.00019687902887349204 0 -0.0086212996479258959 4.9838967265208006e-05 0 -0.0078168636911317337 5.733269710930601e-05 0 -0.0077081844102663954 8.4965241597523736e-05 0 -0.00772807577980353 -8.8417839847924554e-05 0 -0.0076367419311437609 0.001152825052137467 0 -0.0083186280158603024 -6.6961531452783634e-05 0 -0.0088439066086836628 -0.00020258994908143571 0 -0.0088544456717244476 -0.00017828575079854422 0 -0.0087752917952515844 -4.3697924403644545e-05 0 -0.0076367419311437609 0.001152825052137467 0 -0.0059862394958979173 0.0012235764177423746 0 -0.0076367419311437609 0.001152825052137467 0 -0.0069290488838956886 0.0003724063673720278 0 -0.0077081844102663954 8.4965241597523736e-05 0 -0.0080250531099049401 -1.5248886125586392e-08 0 -0.0073295759797308568 3.0238179790216819e-08 0 -0.0077081844102663954 8.4965241597523736e-05 0 -0.0073295759797308568 3.0238179790216819e-08 0 -0.00772807577980353 -8.8417839847924554e-05 0 -0.0083186280158603024 -6.6961531452783634e-05 0 -0.0080267965969696604 8.9226202654263622e-10 0 -0.0086176161909176392 -0.00019687902887349204 0 -0.0080279761666197953 -7.0255155827025136e-07 0 -0.0086212996479258959 4.9838967265208006e-05 0 -0.0086212996479258959 4.9838967265208006e-05 0 -0.008848148310447463 7.0481229556006844e-05 0 -0.0089116760348805397 7.2816571959865845e-07 0 -0.0080279761666197953 -7.0255155827025136e-07 0 -0.0086212996479258959 4.9838967265208006e-05 0 -0.0089116760348805397 7.2816571959865845e-07 0 -0.0087752917952515844 -4.3697924403644545e-05 0 -0.0086212996479258959 4.9838967265208006e-05 0 -0.008848148310447463 7.0481229556006844e-05 0 -0.0088716420258567966 1.4434399150790031e-05 0 -0.0087752917952515844 -4.3697924403644545e-05 0 -0.008848148310447463 7.0481229556006844e-05 0 -0.0091330231924617936 -1.3723733931380636e-05 0 -0.0089038123450616759 1.5161815364247158e-05 0 -0.008848148310447463 7.0481229556006844e-05 0 -0.0091330231924617936 -1.3723733931380636e-05 0 -0.008848148310447463 7.0481229556006844e-05 0 -0.0089116760348805397 7.2816571959865845e-07 0 -0.011255883836413672 0.0010582896993014451 0 -0.011115838309460224 0.0011488594523431552 0 -0.011213202490189648 0.00081600758982273427 0 -0.011255883836413672 0.0010582896993014451 0 -0.011400860060803259 0.0011237934765106054 0 -0.011233497389713926 0.0012580533756509787 0 -0.011255883836413672 0.0010582896993014451 0 -0.011233497389713926 0.0012580533756509787 0 -0.011115838309460224 0.0011488594523431552 0 -0.011255883836413672 0.0010582896993014451 0 -0.011400860060803259 0.0011237934765106054 0 -0.011361662744592587 0.00092010960696605826 0 -0.011504306913606191 0.00099412729336810935 0 -0.011400860060803259 0.0011237934765106054 0 -0.011654521656272728 0.0011557496940878028 0 -0.011504306913606191 0.00099412729336810935 0 -0.011400860060803259 0.0011237934765106054 0 -0.011361662744592587 0.00092010960696605826 0 -0.011582258260198108 0.0010876519887717388 0 -0.01120075503412259 0.0010711839897242289 0 -0.011504306913606191 0.00099412729336810935 0 -0.011597436151369333 0.00092387606544911001 0 -0.011625093007208952 0.0010409234306092896 0 -0.011504306913606191 0.00099412729336810935 0 -0.011654521656272728 0.0011557496940878028 0 -0.011678357844036832 0.0010841054546076069 0 -0.011400860060803259 0.0011237934765106054 0 -0.011408955635189729 0.0013231822676209027 0 -0.011654521656272728 0.0011557496940878028 0 -0.010169909065597548 0.0015404392925443698 0 -0.010366120565142033 0.0014179668747710469 0 -0.0102703182707369 0.0016821417850669215 0 -0.01061772390744869 0.00136421810918643 0 -0.009676499903509387 0.0017104923518460498 0 -0.0091785353997818186 0.0014683335441743333 0 -0.0092005087043472242 0.0016255147161677161 0 -0.0090753897419018938 0.0017315726812589948 0 -0.0108258937721638 0.0014092387455972956 0 -0.01061772390744869 0.00136421810918643 0 -0.011408955635189729 0.0013231822676209027 0 -0.011233497389713926 0.0012580533756509787 0 -0.011131544093392759 0.0015070528906841985 0 -0.0108258937721638 0.0014092387455972956 0 -0.01073443344838808 0.0016345624361061581 0 -0.011400860060803259 0.0011237934765106054 0 -0.011408955635189729 0.0013231822676209027 0 -0.011233497389713926 0.0012580533756509787 0 -0.011233497389713926 0.0012580533756509787 0 -0.011063420551107766 0.0013614743417750996 0 -0.011115838309460224 0.0011488594523431552 0 -0.011233497389713926 0.0012580533756509787 0 -0.011063420551107766 0.0013614743417750996 0 -0.011131544093392759 0.0015070528906841985 0 -0.010905502503252456 0.0014895696879897334 0 -0.01073443344838808 0.0016345624361061581 0 -0.011063420551107766 0.0013614743417750996 0 -0.011127682361191634 0.0015242324379200513 0 -0.010872429343401701 0.0015247949140873979 0 -0.011063420551107766 0.0013614743417750996 0 -0.010867168086925758 0.0014203148274835784 0 -0.010872429343401701 0.0015247949140873979 0 -0.011063420551107766 0.0013614743417750996 0 -0.010867168086925758 0.0014203148274835784 0 -0.010888770391746802 0.0012038256370262967 0 -0.011063420551107766 0.0013614743417750996 0 -0.010888770391746802 0.0012038256370262967 0 -0.011115838309460224 0.0011488594523431552 0 -0.011476648254994498 0.00066966792184585322 0 -0.011487459923806405 0.00067433484071329202 0 -0.011482163018038056 0.00064686682175009056 0 -0.010867168086925758 0.0014203148274835784 0 -0.010888770391746802 0.0012038256370262967 0 -0.010635740437740964 0.0016791778141958856 0 -0.011193158078712262 0.00093810197498878697 0 -0.011070705367429615 0.0011922802227506784 0 -0.011496655499367807 0.00065904644911799794 0 -0.011487459923806405 0.00067433484071329202 0 -0.011482163018038056 0.00064686682175009056 0 -0.011496655499367807 0.00065904644911799794 0 -0.011487459923806405 0.00067433484071329202 0 -0.011498151545123157 0.00071019294836989488 0 -0.010888770391746802 0.0012038256370262967 0 -0.011115838309460224 0.0011488594523431552 0 -0.011213202490189648 0.00081600758982273427 0 -0.011496655499367807 0.00065904644911799794 0 -0.011482163018038056 0.00064686682175009056 0 -0.011488283106002431 0.00062513891949277751 0 -0.011193158078712262 0.00093810197498878697 0 -0.011349531859344824 0.00072817221353920956 0 -0.011482163018038056 0.00064686682175009056 0 -0.011488283106002431 0.00062513891949277751 0 -0.011471470844760681 0.00062433567394245756 0 -0.011462902848163131 0.00059902692225259689 0 -0.011471470844760681 0.00062433567394245756 0 -0.011472057099266332 0.00060490462394308196 0 -0.011488283106002431 0.00062513891949277751 0 -0.011471470844760681 0.00062433567394245756 0 -0.011472057099266332 0.00060490462394308196 0 -0.011465428769142735 0.00061163862219422286 0 -0.011349531859344824 0.00072817221353920956 0 -0.011481078628589977 0.00060378650088819001 0 -0.011213202490189648 0.00081600758982273427 0 -0.011508217917100222 0.00077027505335272367 0 -0.011481078628589977 0.00060378650088819001 0 -0.011488283106002431 0.00062513891949277751 0 -0.011472057099266332 0.00060490462394308196 0 -0.011213202490189648 0.00081600758982273427 0 -0.011361662744592587 0.00092010960696605826 0 -0.011508217917100222 0.00077027505335272367 0 -0.011255883836413672 0.0010582896993014451 0 -0.011213202490189648 0.00081600758982273427 0 -0.011361662744592587 0.00092010960696605826 0 -0.011504306913606191 0.00099412729336810935 0 -0.011361662744592587 0.00092010960696605826 0 -0.011508217917100222 0.00077027505335272367 0 -0.011504306913606191 0.00099412729336810935 0 -0.011508217917100222 0.00077027505335272367 0 -0.011574357266530638 0.00086553737006480366 0 -0.011504306913606191 0.00099412729336810935 0 -0.011574357266530638 0.00086553737006480366 0 -0.011597436151369333 0.00092387606544911001 0 -0.011625344958380374 0.00063075251037072934 0 -0.011481078628589977 0.00060378650088819001 0 -0.011508217917100222 0.00077027505335272367 0 -0.011625344958380374 0.00063075251037072934 0 -0.011508217917100222 0.00077027505335272367 0 -0.011679115802893264 0.00075440132539308924 0 -0.011625344958380374 0.00063075251037072934 0 -0.011679115802893264 0.00075440132539308924 0 -0.011770748002712715 0.00068233860683723096 0 -0.011679115802893264 0.00075440132539308924 0 -0.011770748002712715 0.00068233860683723096 0 -0.011736018120793574 0.00076780208909587157 0 -0.011770748002712715 0.00068233860683723096 0 -0.011736018120793574 0.00076780208909587157 0 -0.011781309348422666 0.00078699846562151879 0 -0.011679115802893264 0.00075440132539308924 0 -0.011736018120793574 0.00076780208909587157 0 -0.011719506065647299 0.00083065603091376616 0 -0.011736018120793574 0.00076780208909587157 0 -0.011781309348422666 0.00078699846562151879 0 -0.011719506065647299 0.00083065603091376616 0 -0.011781309348422666 0.00078699846562151879 0 -0.011737289260500151 0.00090911084642484674 0 -0.011572566334616572 0.00087117421505956917 0 -0.011727821751025427 0.00081368820134940906 0 -0.011747359084021129 0.00079339745432077181 0 -0.011679115802893264 0.00075440132539308924 0 -0.011597436151369333 0.00092387606544911001 0 -0.011625093007208952 0.0010409234306092896 0 -0.011679115802893264 0.00075440132539308924 0 -0.011628560004679029 0.00087046885240206723 0 -0.011719506065647299 0.00083065603091376616 0 -0.011794785062159825 0.00069725703127062266 0 -0.01120075503412259 0.0010711839897242289 0 -0.011508217917100222 0.00077027505335272367 0 -0.011574357266530638 0.00086553737006480366 0 -0.011679115802893264 0.00075440132539308924 0 -0.011574357266530638 0.00086553737006480366 0 -0.011679115802893264 0.00075440132539308924 0 -0.011597436151369333 0.00092387606544911001 0 -0.012054279371782561 0.00070809698953893058 0 -0.01192010934289872 0.00064209986624426082 0 -0.011888197327669284 0.00073210762067690144 0 -0.011770748002712715 0.00068233860683723096 0 -0.01192010934289872 0.00064209986624426082 0 -0.011888197327669284 0.00073210762067690144 0 -0.011770748002712715 0.00068233860683723096 0 -0.011888197327669284 0.00073210762067690144 0 -0.011781309348422666 0.00078699846562151879 0 -0.011781309348422666 0.00078699846562151879 0 -0.011924895909334651 0.00084414493899074867 0 -0.011737289260500151 0.00090911084642484674 0 -0.012054279371782561 0.00070809698953893058 0 -0.011888197327669284 0.00073210762067690144 0 -0.011924895909334651 0.00084414493899074867 0 -0.011888197327669284 0.00073210762067690144 0 -0.011781309348422666 0.00078699846562151879 0 -0.011924895909334651 0.00084414493899074867 0 -0.010494106148819866 0.00025586459266404459 0 -0.010432840324063055 0.00010953353184730987 0 -0.010213508118780527 0.00028452739375622139 0 -0.011924895909334651 0.00084414493899074867 0 -0.011737289260500151 0.00090911084642484674 0 -0.011717728847599364 0.0010544944865265866 0 -0.011428830870781606 0.00040185956322497975 0 -0.0095924644663785696 0.00075561897462931129 0 -0.011737289260500151 0.00090911084642484674 0 -0.011717728847599364 0.0010544944865265866 0 -0.011644908417322861 0.00097793336983593689 0 -0.0072379602527375998 0.0013594096725199499 0 -0.0070436273893781601 0.0011125394430100627 0 -0.0069508958901467396 0.0011954755800241933 0 -0.007212352785601504 0.0015150289778694131 0 -0.0069881233017793287 0.0014519922923357633 0 -0.0069891815743891887 0.0017034822503799547 0 -0.0070495014232223067 0.0013644133232855859 0 -0.0081812666834481882 0.0013289410045938174 0 -0.0075901514518570872 0.0010518307291005617 0 -0.0072379602527375998 0.0013594096725199499 0 -0.0070436273893781601 0.0011125394430100627 0 -0.0088231767252804939 0.00064418899772791219 0 -0.0095924644663785696 0.00075561897462931129 0 -0.0075901514518570872 0.0010518307291005617 0 -0.0072379602527375998 0.0013594096725199499 0 -0.0075517711397383508 0.001572300614949313 0 -0.011628560004679029 0.00087046885240206723 0 -0.011643425341486968 0.00087812178639781367 0 -0.011719506065647299 0.00083065603091376616 0 -0.009234898187072833 0.0014339431950244716 0 -0.0093996527991756316 0.0015176262283586727 0 -0.0093227543822880544 0.0015211843304992275 0 -0.009234898187072833 0.0014339431950244716 0 -0.0093227543822880544 0.0015211843304992275 0 -0.0092455382579113687 0.0015316265049813062 0 -0.010846949842639416 0.0010870833548501852 0 -0.010083558083716748 0.0013607088517887909 0 -0.0091785353997818186 0.0014683335441743333 0 -0.009234898187072833 0.0014339431950244716 0 -0.0092455382579113687 0.0015316265049813062 0 -0.01061772390744869 0.00136421810918643 0 -0.010846949842639416 0.0010870833548501852 0 -0.010869066757837951 0.0011944462414134062 0 -0.010921700394887926 0.0010416900256742668 0 -0.011028781883048646 0.0010947703889609415 0 -0.01061772390744869 0.00136421810918643 0 -0.01120075503412259 0.0010711839897242289 0 -0.01120075503412259 0.0010711839897242289 0 -0.010846949842639416 0.0010870833548501852 0 -0.010846949842639416 0.0010870833548501852 0 -0.011747359084021129 0.00079339745432077181 0 -0.011572566334616572 0.00087117421505956917 0 -0.011644908417322861 0.00097793336983593689 0 -0.011544695238743826 0.0010760506553440117 0 -0.011363630171630858 0.00099095612573428028 0 -0.011572566334616572 0.00087117421505956917 0 -0.011544695238743826 0.0010760506553440117 0 -0.011737289260500151 0.00090911084642484674 0 -0.011572566334616572 0.00087117421505956917 0 -0.011644908417322861 0.00097793336983593689 0 -0.011717728847599364 0.0010544944865265866 0 -0.011644908417322861 0.00097793336983593689 0 -0.011544695238743826 0.0010760506553440117 0 -0.010083558083716748 0.0013607088517887909 0 -0.009524813974844901 0.0014218648863376789 0 -0.0093473450409366585 0.0015890623681346814 0 -0.0094803592494052593 0.0015638236423176136 0 -0.0092390602216003374 0.0017809852247302703 0 -0.0093883552466294436 0.0015191380614063958 0 -0.0093473450409366585 0.0015890623681346814 0 -0.0093227543822880544 0.0015211843304992275 0 -0.0093883552466294436 0.0015191380614063958 0 -0.0093473450409366585 0.0015890623681346814 0 -0.0094803592494052593 0.0015638236423176136 0 -0.0081812666834481882 0.0013289410045938174 0 -0.0078638196787099643 0.0018071126487096399 0 -0.010083558083716748 0.0013607088517887909 0 -0.0081812666834481882 0.0013289410045938174 0 -0.0095924644663785696 0.00075561897462931129 0 -0.010083558083716748 0.0013607088517887909 0 -0.0090232955874679673 0.0011882497640350882 0 -0.0095759322347257706 0.001173245784889819 0 -0.0092414345838435896 0.0010051711233756444 0 -0.0095924644663785696 0.00075561897462931129 0 -0.0081812666834481882 0.0013289410045938174 0 -0.0093473450409366585 0.0015890623681346814 0 -0.0092721100398177811 0.0016074487453386029 0 -0.0092390602216003374 0.0017809852247302703 0 -0.0093473450409366585 0.0015890623681346814 0 -0.0092721100398177811 0.0016074487453386029 0 -0.0093227543822880544 0.0015211843304992275 0 -0.0092721100398177811 0.0016074487453386029 0 -0.0093227543822880544 0.0015211843304992275 0 -0.0092455382579113687 0.0015316265049813062 0 -0.0091785353997818186 0.0014683335441743333 0 -0.0092455382579113687 0.0015316265049813062 0 -0.0092005087043472242 0.0016255147161677161 0 -0.0092721100398177811 0.0016074487453386029 0 -0.0092455382579113687 0.0015316265049813062 0 -0.0092005087043472242 0.0016255147161677161 0 -0.0092721100398177811 0.0016074487453386029 0 -0.0092005087043472242 0.0016255147161677161 0 -0.0092390602216003374 0.0017809852247302703 0 -0.0092005087043472242 0.0016255147161677161 0 -0.0092390602216003374 0.0017809852247302703 0 -0.0090753897419018938 0.0017315726812589948 0 -0.0069881233017793287 0.0014519922923357633 0 -0.0067710717811911968 0.0017312756724204795 0 -0.0069891815743891887 0.0017034822503799547 0 -0.0067710717811911968 0.0017312756724204795 0 -0.0069891815743891887 0.0017034822503799547 0 -0.006868192801802453 0.0019714882789551558 0 -0.0067710717811911968 0.0017312756724204795 0 -0.006868192801802453 0.0019714882789551558 0 -0.0067707001733568785 0.0019855786340041066 0 -0.0073536829203129251 0.0017122880638949067 0 -0.0075517711397383508 0.001572300614949313 0 -0.0075116852006822093 0.0019676347275615447 0 -0.007212352785601504 0.0015150289778694131 0 -0.0073536829203129251 0.0017122880638949067 0 -0.0071650845976757157 0.0018333705497261806 0 -0.0070495014232223067 0.0013644133232855859 0 -0.0075916609011344085 0.0015992832193849396 0 -0.007212352785601504 0.0015150289778694131 0 -0.0073536829203129251 0.0017122880638949067 0 -0.0075517711397383508 0.001572300614949313 0 -0.007212352785601504 0.0015150289778694131 0 -0.0069891815743891887 0.0017034822503799547 0 -0.0071650845976757157 0.0018333705497261806 0 -0.0069891815743891887 0.0017034822503799547 0 -0.006868192801802453 0.0019714882789551558 0 -0.0071650845976757157 0.0018333705497261806 0 -0.006868192801802453 0.0019714882789551558 0 -0.0071650845976757157 0.0018333705497261806 0 -0.0071072397920726752 0.0021058406804986187 0 -0.0073536829203129251 0.0017122880638949067 0 -0.0071650845976757157 0.0018333705497261806 0 -0.0075116852006822093 0.0019676347275615447 0 -0.0071650845976757157 0.0018333705497261806 0 -0.0075116852006822093 0.0019676347275615447 0 -0.0071072397920726752 0.0021058406804986187 0 -0.0068450241877291481 0.0020816036480099612 0 -0.0066880087045613707 0.00221931888658975 0 -0.0061280827976294893 0.0022048598527279533 0 -0.0061757477220740842 0.0023043656920769531 0 -0.0062424940320049433 0.0023810841874607196 0 -0.0061757477220740842 0.0023043656920769531 0 -0.0062424940320049433 0.0023810841874607196 0 -0.0060848937036737496 0.0022552737453000941 0 -0.0062415481393807244 0.00228253342331312 0 -0.0061757477220740842 0.0023043656920769531 0 -0.0060848937036737496 0.0022552737453000941 0 -0.0062383070831506507 0.0022684538195349153 0 -0.0061280827976294893 0.0022048598527279533 0 -0.0061757477220740842 0.0023043656920769531 0 -0.0062424940320049433 0.0023810841874607196 0 -0.0067060768277633622 0.0021549813600580431 0 -0.0063104877105543298 0.0019977437421314689 0 -0.0062424940320049433 0.0023810841874607196 0 -0.0060848937036737496 0.0022552737453000941 0 -0.0063104877105543298 0.0019977437421314689 0 -0.0066880087045613707 0.00221931888658975 0 -0.006718604366454565 0.0021615649893142984 0 -0.006868192801802453 0.0019714882789551558 0 -0.0067707001733568785 0.0019855786340041066 0 -0.0067830337863380111 0.0020955350446737785 0 -0.0067707001733568785 0.0019855786340041066 0 -0.0067830337863380111 0.0020955350446737785 0 -0.0067472010406590642 0.002024847092349328 0 -0.006868192801802453 0.0019714882789551558 0 -0.0067060768277633622 0.0021549813600580431 0 -0.0067830337863380111 0.0020955350446737785 0 -0.006868192801802453 0.0019714882789551558 0 -0.0071072397920726752 0.0021058406804986187 0 -0.0067060768277633622 0.0021549813600580431 0 -0.0067060768277633622 0.0021549813600580431 0 -0.0067830337863380111 0.0020955350446737785 0 -0.006920619555982427 0.0019701992931352138 0 -0.0068927972926472814 0.0021601575920661793 0 -0.0069191420497761464 0.0020044935050018342 0 -0.0067830337863380111 0.0020955350446737785 0 -0.0067948149444612598 0.002068558786168784 0 -0.006920619555982427 0.0019701992931352138 0 -0.0091550457778865595 0.001936169837049361 0 -0.0084569862460543346 0.001996272180815396 0 -0.0071241792259991825 0.0023484298209695467 0 -0.0074863616415099974 0.0021504005358385248 0 -0.0072252704324820543 0.0019334690114614079 0 -0.010568897429453173 0.0016297852174394104 0 -0.010570964776505085 0.0016403895663272617 0 -0.010584545889144271 0.0016312306952213651 0 -0.0071241792259991825 0.0023484298209695467 0 -0.0074863616415099974 0.0021504005358385248 0 -0.0072998966584562506 0.0027080584769141208 0 -0.010568897429453173 0.0016297852174394104 0 -0.010557261563119948 0.001642711472111226 0 -0.010570964776505085 0.0016403895663272617 0 -0.010557261563119948 0.001642711472111226 0 -0.010570964776505085 0.0016403895663272617 0 -0.01055872080271714 0.0016498349450298022 0 -0.0084569862460543346 0.001996272180815396 0 -0.0097126207282589513 0.0018979715561651628 0 -0.010433144729028201 0.0015124437380222245 0 -0.0097126207282589513 0.0018979715561651628 0 -0.010570964776505085 0.0016403895663272617 0 -0.010581470369956115 0.0016524424245216271 0 -0.010601663728228903 0.0016495303879622938 0 -0.0067707001733568785 0.0019855786340041066 0 -0.0067472010406590642 0.002024847092349328 0 -0.0066795019475410751 0.00192610887124052 0 -0.0067948149444612598 0.002068558786168784 0 -0.0066774653919225643 0.001992103125635903 0 -0.0067472010406590642 0.002024847092349328 0 -0.0068927972926472814 0.0021601575920661793 0 -0.0084569862460543346 0.001996272180815396 0 -0.0067830337863380111 0.0020955350446737785 0 -0.0067948149444612598 0.002068558786168784 0 -0.0067472010406590642 0.002024847092349328 0 -0.0066774653919225643 0.001992103125635903 0 -0.0067472010406590642 0.002024847092349328 0 -0.0066795019475410751 0.00192610887124052 0 -0.0067710717811911968 0.0017312756724204795 0 -0.0067707001733568785 0.0019855786340041066 0 -0.0066795019475410751 0.00192610887124052 0 -0.0078638196787099643 0.0018071126487096399 0 -0.0086828712413234439 0.0020269694515377451 0 -0.0084569862460543346 0.001996272180815396 0 -0.0086828712413234439 0.0020269694515377451 0 -0.0087124480161857101 0.0019616015408296323 0 -0.0087528489051528942 0.0018426983162137534 0 -0.0086858457037565055 0.0019002114567785843 0 -0.0086828712413234439 0.0020269694515377451 0 -0.0097126207282589513 0.0018979715561651628 0 -0.010174886763952696 0.0019413631433921959 0 -0.010115544181491944 0.0019915077700291988 0 -0.01011473960247865 0.0017736983136767046 0 -0.010546641568498792 0.0016462367379137296 0 -0.010609575929217402 0.0017132220064749967 0 -0.010604801121649824 0.0016788074077132027 0 -0.0097126207282589513 0.0018979715561651628 0 -0.01073443344838808 0.0016345624361061581 0 -0.010570964776505085 0.0016403895663272617 0 -0.010546641568498792 0.0016462367379137296 0 -0.010581470369956115 0.0016524424245216271 0 -0.010546641568498792 0.0016462367379137296 0 -0.010581470369956115 0.0016524424245216271 0 -0.010604801121649824 0.0016788074077132027 0 -0.010115544181491944 0.0019915077700291988 0 -0.01011473960247865 0.0017736983136767046 0 -0.0099804493306643004 0.0016608105571628703 0 -0.010169909065597548 0.0015404392925443698 0 -0.01011473960247865 0.0017736983136767046 0 -0.0099804493306643004 0.0016608105571628703 0 -0.010546641568498792 0.0016462367379137296 0 -0.010590852836291503 0.0017631124016683462 0 -0.010609575929217402 0.0017132220064749967 0 -0.010174886763952696 0.0019413631433921959 0 -0.01011473960247865 0.0017736983136767046 0 -0.0102703182707369 0.0016821417850669215 0 -0.010169909065597548 0.0015404392925443698 0 -0.01011473960247865 0.0017736983136767046 0 -0.0102703182707369 0.0016821417850669215 0 -0.0092390602216003374 0.0017809852247302703 0 -0.0089750736402894882 0.0020068832577903374 0 -0.0090753897419018938 0.0017315726812589948 0 -0.0086828712413234439 0.0020269694515377451 0 -0.009676499903509387 0.0017104923518460498 0 -0.011485359262496431 0.00069146077858826794 0 -0.011487459923806405 0.00067433484071329202 0 -0.011498151545123157 0.00071019294836989488 0 -0.010714250271433601 0.0016951167711900771 0 -0.010635740437740964 0.0016791778141958856 0 -0.010872429343401701 0.0015247949140873979 0 -0.010714250271433601 0.0016951167711900771 0 -0.010635740437740964 0.0016791778141958856 0 -0.010675351393429957 0.0016856082241726779 0 -0.011485359262496431 0.00069146077858826794 0 -0.011481329424983212 0.00070816204121556614 0 -0.011498151545123157 0.00071019294836989488 0 -0.010867168086925758 0.0014203148274835784 0 -0.010635740437740964 0.0016791778141958856 0 -0.010872429343401701 0.0015247949140873979 0 -0.010590852836291503 0.0017631124016683462 0 -0.010714250271433601 0.0016951167711900771 0 -0.010609575929217402 0.0017132220064749967 0 -0.01073443344838808 0.0016345624361061581 0 -0.010771842620172122 0.0016797147991037267 0 -0.011127682361191634 0.0015242324379200513 0 -0.010714250271433601 0.0016951167711900771 0 -0.010872429343401701 0.0015247949140873979 0 -0.010714250271433601 0.0016951167711900771 0 -0.010609575929217402 0.0017132220064749967 0 -0.010643665092498009 0.0016866708081658879 0 -0.010714250271433601 0.0016951167711900771 0 -0.010643665092498009 0.0016866708081658879 0 -0.010648466944489975 0.001667857180383008 0 -0.010643665092498009 0.0016866708081658879 0 -0.010648466944489975 0.001667857180383008 0 -0.010604801121649824 0.0016788074077132027 0 -0.010609575929217402 0.0017132220064749967 0 -0.010643665092498009 0.0016866708081658879 0 -0.010604801121649824 0.0016788074077132027 0 -0.010581470369956115 0.0016524424245216271 0 -0.010604801121649824 0.0016788074077132027 0 -0.010601663728228903 0.0016495303879622938 0 -0.010648466944489975 0.001667857180383008 0 -0.010604801121649824 0.0016788074077132027 0 -0.010601663728228903 0.0016495303879622938 0 -0.010648466944489975 0.001667857180383008 0 -0.010601663728228903 0.0016495303879622938 0 -0.010620421468884506 0.0016359755310680223 0 -0.010648466944489975 0.001667857180383008 0 -0.010666384118189038 0.0016653458957561166 0 -0.010620421468884506 0.0016359755310680223 0 -0.010720174253416027 0.001630775495915524 0 -0.010635740437740964 0.0016791778141958856 0 -0.010666384118189038 0.0016653458957561166 0 -0.010714250271433601 0.0016951167711900771 0 -0.010648466944489975 0.001667857180383008 0 -0.010675351393429957 0.0016856082241726779 0 -0.010648466944489975 0.001667857180383008 0 -0.010675351393429957 0.0016856082241726779 0 -0.010666384118189038 0.0016653458957561166 0 -0.010635740437740964 0.0016791778141958856 0 -0.010675351393429957 0.0016856082241726779 0 -0.010666384118189038 0.0016653458957561166 0 -0.010720174253416027 0.001630775495915524 0 -0.010666384118189038 0.0016653458957561166 0 -0.01068066388822383 0.0016234062802970473 0 -0.010584972288932187 0.0015299227061174503 0 -0.010679812070298047 0.0016110696378185373 0 -0.010584972288932187 0.0015299227061174503 0 -0.010624256327974991 0.0016503559839658424 0 -0.010689753326374609 0.001551352040395703 0 -0.01068066388822383 0.0016234062802970473 0 -0.010620421468884506 0.0016359755310680223 0 -0.010666384118189038 0.0016653458957561166 0 -0.01068066388822383 0.0016234062802970473 0 -0.010620421468884506 0.0016359755310680223 0 -0.010620421468884506 0.0016359755310680223 0 -0.010584545889144271 0.0016312306952213651 0 -0.010583025971616896 0.0016307051323544187 0 -0.010570964776505085 0.0016403895663272617 0 -0.010601663728228903 0.0016495303879622938 0 -0.010592507233859563 0.0016385544637524099 0 -0.010601663728228903 0.0016495303879622938 0 -0.010592507233859563 0.0016385544637524099 0 -0.010620421468884506 0.0016359755310680223 0 -0.010592507233859563 0.0016385544637524099 0 -0.010620421468884506 0.0016359755310680223 0 -0.010584545889144271 0.0016312306952213651 0 -0.010570964776505085 0.0016403895663272617 0 -0.010592507233859563 0.0016385544637524099 0 -0.010584545889144271 0.0016312306952213651 0 -0.010584545889144271 0.0016312306952213651 0 -0.010583025971616896 0.0016307051323544187 0 -0.010573851338396641 0.0016316264858125865 0 -0.010583025971616896 0.0016307051323544187 0 -0.010573851338396641 0.0016316264858125865 0 -0.010566112793231495 0.0016355174238990872 0 -0.010568897429453173 0.0016297852174394104 0 -0.010584545889144271 0.0016312306952213651 0 -0.010573851338396641 0.0016316264858125865 0 -0.010567982982262695 0.0016295349969340451 0 -0.010620421468884506 0.0016359755310680223 0 -0.010583025971616896 0.0016307051323544187 0 -0.010567982982262695 0.0016295349969340451 0 -0.010583025971616896 0.0016307051323544187 0 -0.010566112793231495 0.0016355174238990872 0 -0.010567982982262695 0.0016295349969340451 0 -0.010566112793231495 0.0016355174238990872 0 -0.010556900816870112 0.0016382761280337339 0 -0.010567982982262695 0.0016295349969340451 0 -0.010556900816870112 0.0016382761280337339 0 -0.01054719156439088 0.0016410428134919317 0 -0.010566112793231495 0.0016355174238990872 0 -0.010556900816870112 0.0016382761280337339 0 -0.010556590972369101 0.0016396420088322363 0 -0.010568897429453173 0.0016297852174394104 0 -0.01056311197070571 0.0016359934020577168 0 -0.010554439009106603 0.001641717292166449 0 -0.010568897429453173 0.0016297852174394104 0 -0.010573851338396641 0.0016316264858125865 0 -0.01056311197070571 0.0016359934020577168 0 -0.010573851338396641 0.0016316264858125865 0 -0.010566112793231495 0.0016355174238990872 0 -0.01056311197070571 0.0016359934020577168 0 -0.010566112793231495 0.0016355174238990872 0 -0.01056311197070571 0.0016359934020577168 0 -0.010556590972369101 0.0016396420088322363 0 -0.01056311197070571 0.0016359934020577168 0 -0.010554439009106603 0.001641717292166449 0 -0.010556590972369101 0.0016396420088322363 0 -0.0086152852533563484 0.0014532915859761758 0 -0.0091408367322034102 0.0017904695727777936 0 -0.010556900816870112 0.0016382761280337339 0 -0.010546289980302149 0.0016445745636041215 0 -0.01054719156439088 0.0016410428134919317 0 -0.010554439009106603 0.001641717292166449 0 -0.010556590972369101 0.0016396420088322363 0 -0.010546289980302149 0.0016445745636041215 0 -0.010556900816870112 0.0016382761280337339 0 -0.010556590972369101 0.0016396420088322363 0 -0.010546289980302149 0.0016445745636041215 0 -0.0083163298802272217 0.0015703772739677799 0 -0.008025683699144406 0.0012219005908226869 0 -0.0078296885171087478 0.0012696605414161948 0 -0.0070740289199566512 0.0018469585320904005 0 -0.006711479845441029 0.0028179227717781575 0 -0.007698805564331947 0.0021982563312772374 0 -0.007664502938440754 0.0021627765448785185 0 -0.0077183793930282324 0.0021638033870438 0 -0.0091408367322034102 0.0017904695727777936 0 -0.0070740289199566512 0.0018469585320904005 0 -0.008025683699144406 0.0012219005908226869 0 -0.0078296885171087478 0.0012696605414161948 0 -0.0075832595989720267 0.0012532893541742694 0 -0.0077057628107065632 0.0016562436917479419 0 -0.0083163298802272217 0.0015703772739677799 0 -0.0078296885171087478 0.0012696605414161948 0 -0.0076934818966430969 0.0016097933806774791 0 -0.0078296885171087478 0.0012696605414161948 0 -0.0075676638772833628 0.0014317660891669112 0 -0.0086152852533563484 0.0014532915859761758 0 -0.007787021675652127 0.0014590870692025588 0 -0.0070740289199566512 0.0018469585320904005 0 -0.0079514982019840853 0.0012093534821579109 0 -0.0078296885171087478 0.0012696605414161948 0 -0.0075832595989720267 0.0012532893541742694 0 -0.0075676638772833628 0.0014317660891669112 0 -0.0052629987953041191 0.0032961611417152673 0 -0.0048562277172581134 0.002823474006485987 0 -0.0053591854766773129 0.0027877005232425827 0 -0.0070740289199566512 0.0018469585320904005 0 -0.0061886023673068391 0.0018709407221527933 0 -0.0079354356448190465 0.0012318617117504029 0 -0.0076245224977006454 0.00082672564274677166 0 -0.0075832595989720267 0.0012532893541742694 0 -0.0052629987953041191 0.0032961611417152673 0 -0.0055729748675587398 0.0030063055179052607 0 -0.0057974093954707151 0.0032594670019684378 0 -0.0052629987953041191 0.0032961611417152673 0 -0.0055729748675587398 0.0030063055179052607 0 -0.0053591854766773129 0.0027877005232425827 0 -0.0072941864822006416 0.0010013298431521998 0 -0.0069364901712525174 0.0010615122062020413 0 -0.0070357612117998352 0.00072860109535826713 0 -0.0072941864822006416 0.0010013298431521998 0 -0.0071031113702178742 0.0012952072100599293 0 -0.0069364901712525174 0.0010615122062020413 0 -0.0076245224977006454 0.00082672564274677166 0 -0.0072941864822006416 0.0010013298431521998 0 -0.0075832595989720267 0.0012532893541742694 0 -0.0072941864822006416 0.0010013298431521998 0 -0.0075832595989720267 0.0012532893541742694 0 -0.0073402555915499153 0.0013808373697912176 0 -0.0075832595989720267 0.0012532893541742694 0 -0.0075676638772833628 0.0014317660891669112 0 -0.0073402555915499153 0.0013808373697912176 0 -0.0073402555915499153 0.0013808373697912176 0 -0.0071031113702178742 0.0012952072100599293 0 -0.0070881646618814863 0.0016305209553696986 0 -0.0071031113702178742 0.0012952072100599293 0 -0.0070881646618814863 0.0016305209553696986 0 -0.0067865798132183781 0.0014257970651958129 0 -0.0072941864822006416 0.0010013298431521998 0 -0.0073402555915499153 0.0013808373697912176 0 -0.0071031113702178742 0.0012952072100599293 0 -0.0073402555915499153 0.0013808373697912176 0 -0.0070881646618814863 0.0016305209553696986 0 -0.0074201901767195532 0.0016365226787535411 0 -0.0070881646618814863 0.0016305209553696986 0 -0.0074201901767195532 0.0016365226787535411 0 -0.0072252704324820543 0.0019334690114614079 0 -0.0076934818966430969 0.0016097933806774791 0 -0.0075676638772833628 0.0014317660891669112 0 -0.0074201901767195532 0.0016365226787535411 0 -0.0086152852533563484 0.0014532915859761758 0 -0.0072802415991655711 0.001656882517879801 0 -0.0075676638772833628 0.0014317660891669112 0 -0.0073402555915499153 0.0013808373697912176 0 -0.0074201901767195532 0.0016365226787535411 0 -0.0074863616415099974 0.0021504005358385248 0 -0.0074201901767195532 0.0016365226787535411 0 -0.0072252704324820543 0.0019334690114614079 0 -0.0074863616415099974 0.0021504005358385248 0 -0.0076857839075448577 0.0015968727924461376 0 -0.0074201901767195532 0.0016365226787535411 0 -0.0091550457778865595 0.001936169837049361 0 -0.0086152852533563484 0.0014532915859761758 0 -0.0070881646618814863 0.0016305209553696986 0 -0.0072252704324820543 0.0019334690114614079 0 -0.006920619555982427 0.0019701992931352138 0 -0.0071241792259991825 0.0023484298209695467 0 -0.0072252704324820543 0.0019334690114614079 0 -0.006920619555982427 0.0019701992931352138 0 -0.0067060768277633622 0.0021549813600580431 0 -0.006920619555982427 0.0019701992931352138 0 -0.006791594298744711 0.0017641442609086352 0 -0.0067060768277633622 0.0021549813600580431 0 -0.0065350263127522965 0.0017404707170013251 0 -0.006791594298744711 0.0017641442609086352 0 -0.0067060768277633622 0.0021549813600580431 0 -0.0065350263127522965 0.0017404707170013251 0 -0.0063104877105543298 0.0019977437421314689 0 -0.0065350263127522965 0.0017404707170013251 0 -0.0067865798132183781 0.0014257970651958129 0 -0.0064101460432442157 0.0013365564393395149 0 -0.0065350263127522965 0.0017404707170013251 0 -0.006791594298744711 0.0017641442609086352 0 -0.0067865798132183781 0.0014257970651958129 0 -0.0070881646618814863 0.0016305209553696986 0 -0.006791594298744711 0.0017641442609086352 0 -0.0067865798132183781 0.0014257970651958129 0 -0.0070881646618814863 0.0016305209553696986 0 -0.006920619555982427 0.0019701992931352138 0 -0.006791594298744711 0.0017641442609086352 0 -0.0060848937036737496 0.0022552737453000941 0 -0.0058995002188109626 0.0018894718825829438 0 -0.0063104877105543298 0.0019977437421314689 0 -0.0058995002188109626 0.0018894718825829438 0 -0.0063104877105543298 0.0019977437421314689 0 -0.0061720407268220688 0.0016340721808597166 0 -0.0065350263127522965 0.0017404707170013251 0 -0.0063104877105543298 0.0019977437421314689 0 -0.0061720407268220688 0.0016340721808597166 0 -0.0065350263127522965 0.0017404707170013251 0 -0.0061720407268220688 0.0016340721808597166 0 -0.0064101460432442157 0.0013365564393395149 0 -0.0058995002188109626 0.0018894718825829438 0 -0.0061720407268220688 0.0016340721808597166 0 -0.0058270744685750362 0.0015595899993711218 0 -0.0058995002188109626 0.0018894718825829438 0 -0.0058270744685750362 0.0015595899993711218 0 -0.0054552422425478541 0.0016093909151111017 0 -0.0061720407268220688 0.0016340721808597166 0 -0.0058270744685750362 0.0015595899993711218 0 -0.0060081974600304658 0.0012415745792627409 0 -0.0060081974600304658 0.0012415745792627409 0 -0.0056091541923698977 0.00096580517753375107 0 -0.0055559313006135575 0.0013223579664433545 0 -0.0058270744685750362 0.0015595899993711218 0 -0.0060081974600304658 0.0012415745792627409 0 -0.0055559313006135575 0.0013223579664433545 0 -0.0061720407268220688 0.0016340721808597166 0 -0.0060081974600304658 0.0012415745792627409 0 -0.0064101460432442157 0.0013365564393395149 0 -0.0060081974600304658 0.0012415745792627409 0 -0.0062641975851472969 0.00084569570893421172 0 -0.0059215756728046853 0.0009015310027738158 0 -0.0060081974600304658 0.0012415745792627409 0 -0.0062641975851472969 0.00084569570893421172 0 -0.0064101460432442157 0.0013365564393395149 0 -0.0059215756728046853 0.0009015310027738158 0 -0.0056091541923698977 0.00096580517753375107 0 -0.0057971027870435815 0.00055758258927431949 0 -0.0060081974600304658 0.0012415745792627409 0 -0.0059215756728046853 0.0009015310027738158 0 -0.0056091541923698977 0.00096580517753375107 0 -0.0067865798132183781 0.0014257970651958129 0 -0.0066581976802173601 0.0011009210462877661 0 -0.0069364901712525174 0.0010615122062020413 0 -0.0071031113702178742 0.0012952072100599293 0 -0.0067865798132183781 0.0014257970651958129 0 -0.0069364901712525174 0.0010615122062020413 0 -0.0067865798132183781 0.0014257970651958129 0 -0.0064101460432442157 0.0013365564393395149 0 -0.0066581976802173601 0.0011009210462877661 0 -0.0062641975851472969 0.00084569570893421172 0 -0.0066581976802173601 0.0011009210462877661 0 -0.0067049054385163566 0.00074742329165639347 0 -0.0062641975851472969 0.00084569570893421172 0 -0.0064101460432442157 0.0013365564393395149 0 -0.0066581976802173601 0.0011009210462877661 0 -0.0069364901712525174 0.0010615122062020413 0 -0.0067049054385163566 0.00074742329165639347 0 -0.0070357612117998352 0.00072860109535826713 0 -0.0066581976802173601 0.0011009210462877661 0 -0.0069364901712525174 0.0010615122062020413 0 -0.0067049054385163566 0.00074742329165639347 0 -0.0067049054385163566 0.00074742329165639347 0 -0.0069058933538095604 0.00043360469053592529 0 -0.0070357612117998352 0.00072860109535826713 0 -0.0067049054385163566 0.00074742329165639347 0 -0.0065345444992456767 0.00035637076616527142 0 -0.0069058933538095604 0.00043360469053592529 0 -0.0062641975851472969 0.00084569570893421172 0 -0.0067049054385163566 0.00074742329165639347 0 -0.0065345444992456767 0.00035637076616527142 0 -0.0062641975851472969 0.00084569570893421172 0 -0.0065345444992456767 0.00035637076616527142 0 -0.0060817532621415061 0.00026124504837579985 0 -0.0065345444992456767 0.00035637076616527142 0 -0.0060817532621415061 0.00026124504837579985 0 -0.0063394969583635196 -0.00013135605603923945 0 -0.0065345444992456767 0.00035637076616527142 0 -0.0069058933538095604 0.00043360469053592529 0 -0.0069560707543573057 -6.6493837112654004e-05 0 -0.0056091541923698977 0.00096580517753375107 0 -0.0057971027870435815 0.00055758258927431949 0 -0.0053564681388243336 0.00054275537220323711 0 -0.0062641975851472969 0.00084569570893421172 0 -0.0059215756728046853 0.0009015310027738158 0 -0.0057971027870435815 0.00055758258927431949 0 -0.0062641975851472969 0.00084569570893421172 0 -0.0057971027870435815 0.00055758258927431949 0 -0.0060817532621415061 0.00026124504837579985 0 -0.0057971027870435815 0.00055758258927431949 0 -0.0060817532621415061 0.00026124504837579985 0 -0.0055583959911577946 0.00014234494957273853 0 -0.0057971027870435815 0.00055758258927431949 0 -0.0055583959911577946 0.00014234494957273853 0 -0.0053564681388243336 0.00054275537220323711 0 -0.0060817532621415061 0.00026124504837579985 0 -0.0055583959911577946 0.00014234494957273853 0 -0.0057914071487877045 -0.00036972980892142383 0 -0.0055583959911577946 0.00014234494957273853 0 -0.0057914071487877045 -0.00036972980892142383 0 -0.0052968376077076025 -0.00028276030580858528 0 -0.0060817532621415061 0.00026124504837579985 0 -0.0057914071487877045 -0.00036972980892142383 0 -0.0063394969583635196 -0.00013135605603923945 0 -0.006144204287344429 -0.00058320678375441669 0 -0.0057914071487877045 -0.00036972980892142383 0 -0.0063394969583635196 -0.00013135605603923945 0 -0.0069560707543573057 -6.6493837112654004e-05 0 -0.0063394969583635196 -0.00013135605603923945 0 -0.0065851366304757178 -0.00053697976995274916 0 -0.0065345444992456767 0.00035637076616527142 0 -0.0069560707543573057 -6.6493837112654004e-05 0 -0.0063394969583635196 -0.00013135605603923945 0 -0.006144204287344429 -0.00058320678375441669 0 -0.0063394969583635196 -0.00013135605603923945 0 -0.0065851366304757178 -0.00053697976995274916 0 -0.0055109627773374326 0.00089652645912086462 0 -0.0051557119761267518 0.00044079483704873745 0 -0.0040677257082036618 0.0018603911064726483 0 -0.0037231824497776325 0.0014037586763643798 0 -0.0041130710367897052 0.0014135143733648337 0 -0.0040677257082036618 0.0018603911064726483 0 -0.0045134360306483884 0.0015080422059034007 0 -0.0048253439813482971 0.0019620597979493871 0 -0.0040677257082036618 0.0018603911064726483 0 -0.0048253439813482971 0.0019620597979493871 0 -0.0044506328097984656 0.0023392193772238858 0 -0.0040677257082036618 0.0018603911064726483 0 -0.0041130710367897052 0.0014135143733648337 0 -0.0045134360306483884 0.0015080422059034007 0 -0.0045134360306483884 0.0015080422059034007 0 -0.0049805609260286186 0.0014824756977152324 0 -0.0048253439813482971 0.0019620597979493871 0 -0.0050490730704430943 0.0014660841541565401 0 -0.0052940770096924434 0.00087773905603168233 0 -0.0055832331620200536 0.0016483907673695679 0 -0.0050490730704430943 0.0014660841541565401 0 -0.0052267295518423386 0.0018689026491582725 0 -0.0055832331620200536 0.0016483907673695679 0 -0.0052267295518423386 0.0018689026491582725 0 -0.0054886012081944314 0.0022168928352273381 0 -0.0055832331620200536 0.0016483907673695679 0 -0.0050124170791775871 0.0014817808821008616 0 -0.004833247556539879 0.0019286220781229324 0 -0.0050490730704430943 0.0014660841541565401 0 -0.0052267295518423386 0.0018689026491582725 0 -0.0048253439813482971 0.0019620597979493871 0 -0.0052267295518423386 0.0018689026491582725 0 -0.0048253439813482971 0.0019620597979493871 0 -0.005020030726055006 0.0023619938925642705 0 -0.0052267295518423386 0.0018689026491582725 0 -0.005020030726055006 0.0023619938925642705 0 -0.0054886012081944314 0.0022168928352273381 0 -0.0054886012081944314 0.0022168928352273381 0 -0.0053591854766773129 0.0027877005232425827 0 -0.0058757625640332434 0.0026783746318240764 0 -0.005020030726055006 0.0023619938925642705 0 -0.0054886012081944314 0.0022168928352273381 0 -0.0053591854766773129 0.0027877005232425827 0 -0.0055729748675587398 0.0030063055179052607 0 -0.0053591854766773129 0.0027877005232425827 0 -0.0058757625640332434 0.0026783746318240764 0 -0.0048562277172581134 0.002823474006485987 0 -0.005020030726055006 0.0023619938925642705 0 -0.0053591854766773129 0.0027877005232425827 0 -0.0048562277172581134 0.002823474006485987 0 -0.005020030726055006 0.0023619938925642705 0 -0.0044506328097984656 0.0023392193772238858 0 -0.0061886023673068391 0.0018709407221527933 0 -0.0058804141016821371 0.0013593676759213098 0 -0.0076245224977006454 0.00082672564274677166 0 -0.0072941864822006416 0.0010013298431521998 0 -0.0073002184996487805 0.00039367544436327579 0 -0.0072941864822006416 0.0010013298431521998 0 -0.0070357612117998352 0.00072860109535826713 0 -0.0073002184996487805 0.00039367544436327579 0 -0.0069058933538095604 0.00043360469053592529 0 -0.0070357612117998352 0.00072860109535826713 0 -0.0073002184996487805 0.00039367544436327579 0 -0.0055109627773374326 0.00089652645912086462 0 -0.0058804141016821371 0.0013593676759213098 0 -0.0069058933538095604 0.00043360469053592529 0 -0.0069560707543573057 -6.6493837112654004e-05 0 -0.0073002184996487805 0.00039367544436327579 0 -0.0048253439813482971 0.0019620597979493871 0 -0.005020030726055006 0.0023619938925642705 0 -0.0044506328097984656 0.0023392193772238858 0 -0.0058769945354872535 -9.5773851707061546e-05 0 -0.0058741324922664253 -4.7834225893816492e-07 0 -0.0050001795114342617 -2.0550025716370983e-06 0 -0.0058749398266004782 0.0001415299149004363 0 -0.0045890277736635472 0.00032101868319644837 0 -0.0050898460649548404 0.00048023773322426668 0 -0.0051525209698508462 0.00047562526800382283 0 -0.0051242894355483133 0.00037370900547142129 0 -0.0058749398266004782 0.0001415299149004363 0 -0.0058751567833067479 5.7798869525607914e-08 0 -0.0042939925643672872 0.00070040754987096018 0 -0.0045890277736635472 0.00032101868319644837 0 -0.0035803208036585031 0.0006621575996963809 0 -0.0036882204008847914 0.00070403267947875586 0 -0.0035463238727367419 0.00089179533472908518 0 -0.0035803208036585031 0.0006621575996963809 0 -0.0035463238727367419 0.00089179533472908518 0 -0.003480886029461392 0.00047749885036082204 0 -0.0036882204008847914 0.00070403267947875586 0 -0.0035463238727367419 0.00089179533472908518 0 -0.0037375546532138824 0.00089176529589268946 0 -0.0042939925643672872 0.00070040754987096018 0 -0.004643598097398215 0.00090796256756983922 0 -0.0051525209698508462 0.00047562526800382283 0 -0.0051435526111566193 0.00058562281093024054 0 -0.0051791297774478294 0.00058046809974015201 0 -0.0035463238727367419 0.00089179533472908518 0 -0.0036337567654974585 0.0012887527296755789 0 -0.0037494000027360553 0.001062087227210658 0 -0.0035463238727367419 0.00089179533472908518 0 -0.0037494000027360553 0.001062087227210658 0 -0.0037375546532138824 0.00089176529589268946 0 -0.0058749398266004782 0.0001415299149004363 0 -0.0062142872088151065 0.00028596973504542363 0 -0.006389497997570247 -9.1644048482925877e-05 0 -0.0063700870867299808 2.1486032567498358e-08 0 -0.0067248652112556328 5.4119025871468123e-05 0 -0.0050898460649548404 0.00048023773322426668 0 -0.0051525209698508462 0.00047562526800382283 0 -0.0051435526111566193 0.00058562281093024054 0 -0.0060926922742643936 1.7710151027300842e-07 0 -0.0058754861145704183 7.832462257231551e-10 0 -0.0063681717227603296 4.9944982418647005e-10 0 -0.0058749398266004782 0.0001415299149004363 0 -0.0063681936812475647 -1.0365677773150854e-07 0 -0.0063700870867299808 2.1486032567498358e-08 0 -0.0069183036707198753 -1.5370966469043338e-08 0 -0.0067248652112556328 5.4119025871468123e-05 0 -0.0069211510527328064 3.1471026635265048e-08 0 -0.0071224665936609824 4.8020169862764233e-05 0 -0.0071276918452740281 3.2863754917218615e-05 0 -0.0069204695093975591 -5.7921332673639969e-08 0 -0.0062142872088151065 0.00028596973504542363 0 -0.0071224665936609824 4.8020169862764233e-05 0 -0.007326516118623381 -2.5983781529119485e-08 0 -0.0069866674677715301 -1.8405533772845382e-05 0 -0.0073283917641705758 -2.0335788231123845e-07 0 -0.0069290488838956886 0.0003724063673720278 0 -0.0069211510527328064 3.1471026635265048e-08 0 -0.0071224665936609824 4.8020169862764233e-05 0 -0.007326516118623381 -2.5983781529119485e-08 0 -0.0059862394958979173 0.0012235764177423746 0 -0.004643598097398215 0.00090796256756983922 0 -0.0058681572201401367 0.00088438199479184607 0 -0.005982242083145321 0.00087862780303399064 0 -0.0059018942694965314 0.000528171260716207 0 -0.0071640234263541285 0.0012943553279334385 0 -0.0067845208265750051 0.00054979307127229972 0 -0.0070133248625005688 0.00053704540678779127 0 -0.0069290488838956886 0.0003724063673720278 0 -0.0059862394958979173 0.0012235764177423746 0 -0.0071224665936609824 4.8020169862764233e-05 0 -0.0069866674677715301 -1.8405533772845382e-05 0 -0.0071276918452740281 3.2863754917218615e-05 0 -0.0069290488838956886 0.0003724063673720278 0 -0.0062142872088151065 0.00028596973504542363 0 -0.0058681572201401367 0.00088438199479184607 0 -0.0057043540587255271 0.0005598284734997848 0 -0.0059018942694965314 0.000528171260716207 0 -0.0062142872088151065 0.00028596973504542363 0 -0.004643598097398215 0.00090796256756983922 0 -0.0046003155124854792 0.0012766231147692344 0 -0.0045805675681783366 0.0012687944596214333 0 -0.0045632063435997816 0.0012649773079061837 0 -0.0036337567654974585 0.0012887527296755789 0 -0.0040782344951160844 0.0012374973119290982 0 -0.0037494000027360553 0.001062087227210658 0 -0.004601161717196732 0.0012556505522435079 0 -0.0046003155124854792 0.0012766231147692344 0 -0.0045805675681783366 0.0012687944596214333 0 -0.004643598097398215 0.00090796256756983922 0 -0.0041967146937308157 0.0013092953105564725 0 -0.0068853239477373674 0.0023100960241446006 0 -0.0069782521963752909 0.0023721509583913732 0 -0.0067160282882010036 0.0024076971512362634 0 -0.004601161717196732 0.0012556505522435079 0 -0.0045805675681783366 0.0012687944596214333 0 -0.0045661134058225901 0.0012769726514525932 0 -0.0059862394958979173 0.0012235764177423746 0 -0.0055968383314761163 0.0019225741523209842 0 -0.0068853239477373674 0.0023100960241446006 0 -0.006849623318513574 0.0022490186634747779 0 -0.0067160282882010036 0.0024076971512362634 0 -0.0067284908762523642 0.0022929014446825755 0 -0.0067160282882010036 0.0024076971512362634 0 -0.0066301854172129849 0.0023577221009463047 0 -0.0045805675681783366 0.0012687944596214333 0 -0.0045661134058225901 0.0012769726514525932 0 -0.0045632063435997816 0.0012649773079061837 0 -0.0045661134058225901 0.0012769726514525932 0 -0.0045632063435997816 0.0012649773079061837 0 -0.0045883362148467386 0.0012600666852918751 0 -0.0040782344951160844 0.0012374973119290982 0 -0.0039176568777579759 0.00096783941499510953 0 -0.0042357585089844571 0.0010290026160916842 0 -0.0040782344951160844 0.0012374973119290982 0 -0.0037494000027360553 0.001062087227210658 0 -0.0039176568777579759 0.00096783941499510953 0 -0.0037494000027360553 0.001062087227210658 0 -0.0039176568777579759 0.00096783941499510953 0 -0.0037375546532138824 0.00089176529589268946 0 -0.0039176568777579759 0.00096783941499510953 0 -0.0038315939922037054 0.00079626177271637552 0 -0.0039992256825355024 0.00079039503764933281 0 -0.0039176568777579759 0.00096783941499510953 0 -0.0038315939922037054 0.00079626177271637552 0 -0.0037375546532138824 0.00089176529589268946 0 -0.0036882204008847914 0.00070403267947875586 0 -0.0038315939922037054 0.00079626177271637552 0 -0.0037375546532138824 0.00089176529589268946 0 -0.0036882204008847914 0.00070403267947875586 0 -0.0038315939922037054 0.00079626177271637552 0 -0.00383913402337977 0.00060879616002356102 0 -0.0038315939922037054 0.00079626177271637552 0 -0.0039992256825355024 0.00079039503764933281 0 -0.00383913402337977 0.00060879616002356102 0 -0.0039176568777579759 0.00096783941499510953 0 -0.0039992256825355024 0.00079039503764933281 0 -0.0042357585089844571 0.0010290026160916842 0 -0.0039992256825355024 0.00079039503764933281 0 -0.0041872053037987295 0.00078073589093122903 0 -0.0042357585089844571 0.0010290026160916842 0 -0.0039992256825355024 0.00079039503764933281 0 -0.0041872053037987295 0.00078073589093122903 0 -0.0040345397160288753 0.00055623715873866415 0 -0.0041872053037987295 0.00078073589093122903 0 -0.0045399321279908818 0.0010256865305677738 0 -0.0042357585089844571 0.0010290026160916842 0 -0.0041872053037987295 0.00078073589093122903 0 -0.004661500595393905 0.00095410818585288241 0 -0.0045757742236720378 0.00067411862541820998 0 -0.0041872053037987295 0.00078073589093122903 0 -0.004661500595393905 0.00095410818585288241 0 -0.0045016016545568879 0.0011882355316680006 0 -0.0042114247678650138 0.00080839320030466882 0 -0.0045361521569914571 0.0011184519224234203 0 -0.004661500595393905 0.00095410818585288241 0 -0.004857576748762772 0.00085044808946965907 0 -0.0045757742236720378 0.00067411862541820998 0 -0.004661500595393905 0.00095410818585288241 0 -0.0049456163291253111 0.0011485271614568701 0 -0.004857576748762772 0.00085044808946965907 0 -0.0045016016545568879 0.0011882355316680006 0 -0.0049068386401206893 0.0015796591690548946 0 -0.0049456163291253111 0.0011485271614568701 0 -0.0045361521569914571 0.0011184519224234203 0 -0.004748546009563012 0.0013374140344601727 0 -0.0045399321279908818 0.0010256865305677738 0 -0.0046016429627125603 0.0011706370127604171 0 -0.0047604590139661285 0.0012277524369953771 0 -0.004661500595393905 0.00095410818585288241 0 -0.0045016016545568879 0.0011882355316680006 0 -0.0049456163291253111 0.0011485271614568701 0 -0.0040782344951160844 0.0012374973119290982 0 -0.0046016429627125603 0.0011706370127604171 0 -0.0042357585089844571 0.0010290026160916842 0 -0.0045399321279908818 0.0010256865305677738 0 -0.0046016429627125603 0.0011706370127604171 0 -0.0042357585089844571 0.0010290026160916842 0 -0.0045632063435997816 0.0012649773079061837 0 -0.0046016429627125603 0.0011706370127604171 0 -0.0045883362148467386 0.0012600666852918751 0 -0.0041967146937308157 0.0013092953105564725 0 -0.004651947019780874 0.0011571074438221651 0 -0.0067160282882010036 0.0024076971512362634 0 -0.0066301854172129849 0.0023577221009463047 0 -0.0065185397002994489 0.0024402264445793666 0 -0.0045661134058225901 0.0012769726514525932 0 -0.0045883362148467386 0.0012600666852918751 0 -0.0046540539934985109 0.0013352933670700261 0 -0.0055968383314761163 0.0019225741523209842 0 -0.0055976886618064386 0.0018778136492609955 0 -0.0065280178826818587 0.0023351432993127326 0 -0.0066301854172129849 0.0023577221009463047 0 -0.0065185397002994489 0.0024402264445793666 0 -0.0064110490501256574 0.0023688454026641191 0 -0.0065280178826818587 0.0023351432993127326 0 -0.0065185397002994489 0.0024402264445793666 0 -0.0046540539934985109 0.0013352933670700261 0 -0.0046357181121067159 0.0012536659228609829 0 -0.0047604590139661285 0.0012277524369953771 0 -0.0045883362148467386 0.0012600666852918751 0 -0.0046540539934985109 0.0013352933670700261 0 -0.0046357181121067159 0.0012536659228609829 0 -0.0046016429627125603 0.0011706370127604171 0 -0.0045883362148467386 0.0012600666852918751 0 -0.0046357181121067159 0.0012536659228609829 0 -0.0046016429627125603 0.0011706370127604171 0 -0.0046357181121067159 0.0012536659228609829 0 -0.0047604590139661285 0.0012277524369953771 0 -0.0049068386401206893 0.0015796591690548946 0 -0.0053643673067746041 0.0019703392957065319 0 -0.0054552422425478541 0.0016093909151111017 0 -0.0049068386401206893 0.0015796591690548946 0 -0.0054552422425478541 0.0016093909151111017 0 -0.0051980448588774993 0.0013671369359124967 0 -0.004748546009563012 0.0013374140344601727 0 -0.0056114903985853629 0.0019095379653713161 0 -0.0046540539934985109 0.0013352933670700261 0 -0.0047604590139661285 0.0012277524369953771 0 -0.0049046605812835629 0.001352893651181039 0 -0.0064110490501256574 0.0023688454026641191 0 -0.0065185397002994489 0.0024402264445793666 0 -0.006305504412661856 0.0024885340384337225 0 -0.0055976886618064386 0.0018778136492609955 0 -0.0056114903985853629 0.0019095379653713161 0 -0.0062642089642903223 0.002340473375835532 0 -0.0060848937036737496 0.0022552737453000941 0 -0.006305504412661856 0.0024885340384337225 0 -0.0057933038005678616 0.0019040873803401622 0 -0.0056114903985853629 0.0019095379653713161 0 -0.0062642089642903223 0.002340473375835532 0 -0.0064110490501256574 0.0023688454026641191 0 -0.006305504412661856 0.0024885340384337225 0 -0.0060848937036737496 0.0022552737453000941 0 -0.0058995002188109626 0.0018894718825829438 0 -0.0055469746854907784 0.0019110066480479419 0 -0.0062022799467825983 0.0023782134840537737 0 -0.0056114903985853629 0.0019095379653713161 0 -0.0058995002188109626 0.0018894718825829438 0 -0.0053643673067746041 0.0019703392957065319 0 -0.0054552422425478541 0.0016093909151111017 0 -0.0058270744685750362 0.0015595899993711218 0 -0.0054552422425478541 0.0016093909151111017 0 -0.0055559313006135575 0.0013223579664433545 0 -0.0056091541923698977 0.00096580517753375107 0 -0.0055559313006135575 0.0013223579664433545 0 -0.0053058563510126056 0.0011465755170588818 0 -0.0055559313006135575 0.0013223579664433545 0 -0.0053058563510126056 0.0011465755170588818 0 -0.0051980448588774993 0.0013671369359124967 0 -0.0054552422425478541 0.0016093909151111017 0 -0.0055559313006135575 0.0013223579664433545 0 -0.0051980448588774993 0.0013671369359124967 0 -0.0049068386401206893 0.0015796591690548946 0 -0.0051980448588774993 0.0013671369359124967 0 -0.0049456163291253111 0.0011485271614568701 0 -0.0053058563510126056 0.0011465755170588818 0 -0.0051980448588774993 0.0013671369359124967 0 -0.0049456163291253111 0.0011485271614568701 0 -0.0053058563510126056 0.0011465755170588818 0 -0.0049456163291253111 0.0011485271614568701 0 -0.0051862681063124597 0.00090616943375632086 0 -0.0049456163291253111 0.0011485271614568701 0 -0.004857576748762772 0.00085044808946965907 0 -0.0051862681063124597 0.00090616943375632086 0 -0.004857576748762772 0.00085044808946965907 0 -0.0051862681063124597 0.00090616943375632086 0 -0.0049272761622400942 0.00058551857173032252 0 -0.0056091541923698977 0.00096580517753375107 0 -0.0053058563510126056 0.0011465755170588818 0 -0.0051862681063124597 0.00090616943375632086 0 -0.0056091541923698977 0.00096580517753375107 0 -0.0051862681063124597 0.00090616943375632086 0 -0.0053564681388243336 0.00054275537220323711 0 -0.0051862681063124597 0.00090616943375632086 0 -0.0053564681388243336 0.00054275537220323711 0 -0.0049272761622400942 0.00058551857173032252 0 -0.0049272761622400942 0.00058551857173032252 0 -0.0050017705923064565 0.00013076826602773954 0 -0.0045640616801567915 0.00033286877119013752 0 -0.0053564681388243336 0.00054275537220323711 0 -0.0049272761622400942 0.00058551857173032252 0 -0.0050017705923064565 0.00013076826602773954 0 -0.0055583959911577946 0.00014234494957273853 0 -0.0053564681388243336 0.00054275537220323711 0 -0.0050017705923064565 0.00013076826602773954 0 -0.0052968376077076025 -0.00028276030580858528 0 -0.0048483254194275792 -0.00056518957398919267 0 -0.005356221605975149 -0.0010042610231852402 0 -0.0055583959911577946 0.00014234494957273853 0 -0.0050017705923064565 0.00013076826602773954 0 -0.0052968376077076025 -0.00028276030580858528 0 -0.0057914071487877045 -0.00036972980892142383 0 -0.0052968376077076025 -0.00028276030580858528 0 -0.005356221605975149 -0.0010042610231852402 0 -0.0050017705923064565 0.00013076826602773954 0 -0.0052968376077076025 -0.00028276030580858528 0 -0.0048483254194275792 -0.00056518957398919267 0 -0.0050017705923064565 0.00013076826602773954 0 -0.0048483254194275792 -0.00056518957398919267 0 -0.0042214193422628558 -1.7005464650595178e-05 0 -0.0043558065512256782 -0.00028319280422270149 0 -0.004222178116292585 -4.4841169630903569e-05 0 -0.0039286664457193303 -9.7207216795321027e-05 0 -0.0042214193422628558 -1.7005464650595178e-05 0 -0.0039629473424558333 -8.902286899634758e-05 0 -0.0042214193422628558 -1.7005464650595178e-05 0 -0.003971053549334868 -1.7826706128352959e-05 0 -0.0039629473424558333 -8.902286899634758e-05 0 -0.0042214193422628558 -1.7005464650595178e-05 0 -0.0045640616801567915 0.00033286877119013752 0 -0.0042767796183625084 0.00050170456256229379 0 -0.0042214193422628558 -1.7005464650595178e-05 0 -0.0042767796183625084 0.00050170456256229379 0 -0.0040386134320517285 0.00026030934931596002 0 -0.0050017705923064565 0.00013076826602773954 0 -0.0042214193422628558 -1.7005464650595178e-05 0 -0.0045640616801567915 0.00033286877119013752 0 -0.0049272761622400942 0.00058551857173032252 0 -0.0045640616801567915 0.00033286877119013752 0 -0.0045757742236720378 0.00067411862541820998 0 -0.0045640616801567915 0.00033286877119013752 0 -0.0045757742236720378 0.00067411862541820998 0 -0.0042767796183625084 0.00050170456256229379 0 -0.004857576748762772 0.00085044808946965907 0 -0.0049272761622400942 0.00058551857173032252 0 -0.0045757742236720378 0.00067411862541820998 0 -0.0041872053037987295 0.00078073589093122903 0 -0.0045757742236720378 0.00067411862541820998 0 -0.0042767796183625084 0.00050170456256229379 0 -0.0042767796183625084 0.00050170456256229379 0 -0.0040345397160288753 0.00055623715873866415 0 -0.0040386134320517285 0.00026030934931596002 0 -0.0041872053037987295 0.00078073589093122903 0 -0.0042767796183625084 0.00050170456256229379 0 -0.0040345397160288753 0.00055623715873866415 0 -0.0040345397160288753 0.00055623715873866415 0 -0.003892549130268643 0.00039634132317271421 0 -0.0040386134320517285 0.00026030934931596002 0 -0.0039992256825355024 0.00079039503764933281 0 -0.0040345397160288753 0.00055623715873866415 0 -0.00383913402337977 0.00060879616002356102 0 -0.0036882204008847914 0.00070403267947875586 0 -0.00383913402337977 0.00060879616002356102 0 -0.0036961629252969153 0.000516269620318625 0 -0.0037950378446150296 0.00046358837275281713 0 -0.0037618389046543805 0.00033628469125511278 0 -0.0036961629252969153 0.000516269620318625 0 -0.00383913402337977 0.00060879616002356102 0 -0.0037950378446150296 0.00046358837275281713 0 -0.0036961629252969153 0.000516269620318625 0 -0.00383913402337977 0.00060879616002356102 0 -0.0037950378446150296 0.00046358837275281713 0 -0.003892549130268643 0.00039634132317271421 0 -0.0040345397160288753 0.00055623715873866415 0 -0.00383913402337977 0.00060879616002356102 0 -0.003892549130268643 0.00039634132317271421 0 -0.003892549130268643 0.00039634132317271421 0 -0.0037618389046543805 0.00033628469125511278 0 -0.0038776222561059575 0.00018744393761396515 0 -0.0037618389046543805 0.00033628469125511278 0 -0.0038776222561059575 0.00018744393761396515 0 -0.0037202337972343669 9.4618050590577633e-05 0 -0.0037950378446150296 0.00046358837275281713 0 -0.003892549130268643 0.00039634132317271421 0 -0.0037618389046543805 0.00033628469125511278 0 -0.003892549130268643 0.00039634132317271421 0 -0.0038776222561059575 0.00018744393761396515 0 -0.0040386134320517285 0.00026030934931596002 0 -0.0042214193422628558 -1.7005464650595178e-05 0 -0.0040386134320517285 0.00026030934931596002 0 -0.003971053549334868 -1.7826706128352959e-05 0 -0.0038776222561059575 0.00018744393761396515 0 -0.0040386134320517285 0.00026030934931596002 0 -0.003971053549334868 -1.7826706128352959e-05 0 -0.003971053549334868 -1.7826706128352959e-05 0 -0.0039213312749224469 -8.7520619063003783e-05 0 -0.0039629473424558333 -8.902286899634758e-05 0 -0.003971053549334868 -1.7826706128352959e-05 0 -0.0039754413603292982 -6.7665749578035963e-05 0 -0.0039213312749224469 -8.7520619063003783e-05 0 -0.003971053549334868 -1.7826706128352959e-05 0 -0.0037202337972343669 9.4618050590577633e-05 0 -0.0039754413603292982 -6.7665749578035963e-05 0 -0.0038776222561059575 0.00018744393761396515 0 -0.003971053549334868 -1.7826706128352959e-05 0 -0.0037202337972343669 9.4618050590577633e-05 0 -0.003980398924055762 9.1810120544954759e-05 0 -0.0039917450634096739 -3.9894041472222278e-05 0 -0.0043421122943398888 3.2155189339052012e-05 0 -0.0040752314025239676 2.5377606412649155e-05 0 -0.0039754413603292982 -6.7665749578035963e-05 0 -0.0040752314025239676 2.5377606412649155e-05 0 -0.0043631259486527664 2.4293587189492851e-07 0 -0.0036089945840029397 -3.340840637160455e-07 0 -0.0043421122943398888 3.2155189339052012e-05 0 -0.0040752314025239676 2.5377606412649155e-05 0 -0.0043631259486527664 2.4293587189492851e-07 0 -0.0043421122943398888 3.2155189339052012e-05 0 -0.0043631259486527664 2.4293587189492851e-07 0 -0.0047051074210683703 2.4489411073737359e-05 0 -0.0051193743038146404 1.3287756845950357e-07 0 -0.0047051074210683703 2.4489411073737359e-05 0 -0.0050001795114342617 -2.0550025716370983e-06 0 -0.0043631259486527664 2.4293587189492851e-07 0 -0.0051193743038146404 1.3287756845950357e-07 0 -0.0047051074210683703 2.4489411073737359e-05 0 -0.0043421122943398888 3.2155189339052012e-05 0 -0.0047051074210683703 2.4489411073737359e-05 0 -0.0050001795114342617 -2.0550025716370983e-06 0 -0.003980398924055762 9.1810120544954759e-05 0 -0.0045890277736635472 0.00032101868319644837 0 -0.0037202337972343669 9.4618050590577633e-05 0 -0.0036154525415016082 0.00040304064599782914 0 -0.003480886029461392 0.00047749885036082204 0 -0.0037618389046543805 0.00033628469125511278 0 -0.0037202337972343669 9.4618050590577633e-05 0 -0.0036154525415016082 0.00040304064599782914 0 -0.0036010879218122153 0.00049279075089568895 0 -0.0036108260459202105 0.00057058468097875121 0 -0.003480886029461392 0.00047749885036082204 0 -0.0036154525415016082 0.00040304064599782914 0 -0.0036010879218122153 0.00049279075089568895 0 -0.003480886029461392 0.00047749885036082204 0 -0.0037618389046543805 0.00033628469125511278 0 -0.0036154525415016082 0.00040304064599782914 0 -0.0036961629252969153 0.000516269620318625 0 -0.0036154525415016082 0.00040304064599782914 0 -0.0036010879218122153 0.00049279075089568895 0 -0.0036961629252969153 0.000516269620318625 0 -0.0036010879218122153 0.00049279075089568895 0 -0.0036961629252969153 0.000516269620318625 0 -0.0036108260459202105 0.00057058468097875121 0 -0.0036882204008847914 0.00070403267947875586 0 -0.0036961629252969153 0.000516269620318625 0 -0.0036108260459202105 0.00057058468097875121 0 -0.0035803208036585031 0.0006621575996963809 0 -0.0036882204008847914 0.00070403267947875586 0 -0.0036108260459202105 0.00057058468097875121 0 -0.0035803208036585031 0.0006621575996963809 0 -0.0036108260459202105 0.00057058468097875121 0 -0.003480886029461392 0.00047749885036082204 0 -0.0058741324922664253 -4.7834225893816492e-07 0 -0.0051193743038146404 1.3287756845950357e-07 0 -0.0050001795114342617 -2.0550025716370983e-06 0 -0.0025332805019687436 -0.00012055093445659868 0 -0.0029167110693751178 -3.9409389932323804e-05 0 -0.0017436667286192576 -5.4374034713028674e-05 0 -0.0026549071815837742 -2.3224658094370825e-07 0 -0.0017968950564676367 -6.9955119331204561e-08 0 -0.0033996170611552069 -0.0002833746474417728 0 -0.0033638930008164382 -0.0002006193811941413 0 -0.0034469081935737189 -0.00025088840634221812 0 -0.0033254954840391763 -0.00026509211746594184 0 -0.0033996170611552069 -0.0002833746474417728 0 -0.0033638930008164382 -0.0002006193811941413 0 -0.0032495640039548819 -0.00021386392965659423 0 -0.0034076089417594902 -0.00027131467577419402 0 -0.0031257839494938443 -0.00022784426938161738 0 -0.0032833631224356875 -8.5262267498539322e-05 0 -0.0033785645316781751 -0.00029722406523984983 0 -0.0031257839494938443 -0.00022784426938161738 0 -0.0030571877219237507 1.7889326522971378e-05 0 -0.0032833631224356875 -8.5262267498539322e-05 0 -0.0033254954840391763 -0.00026509211746594184 0 -0.0033638930008164382 -0.0002006193811941413 0 -0.0032578492103434 -0.00015489089352710379 0 -0.0031257839494938443 -0.00022784426938161738 0 -0.0026561533123845558 -4.9794832512844809e-07 0 -0.0030571877219237507 1.7889326522971378e-05 0 -0.0032495640039548819 -0.00021386392965659423 0 -0.0029167110693751178 -3.9409389932323804e-05 0 -0.0026561533123845558 -4.9794832512844809e-07 0 -0.0030571877219237507 1.7889326522971378e-05 0 -0.0031317021750129231 3.9590551861529436e-07 0 -0.0030571877219237507 1.7889326522971378e-05 0 -0.0031317021750129231 3.9590551861529436e-07 0 -0.0031574834558978559 8.3974413017474963e-05 0 -0.0040752314025239676 2.5377606412649155e-05 0 -0.0036089945840029397 -3.340840637160455e-07 0 -0.0040294945409321756 -8.7665006369308179e-05 0 -0.003607605521215113 1.0632081203226196e-08 0 -0.0035930105663216148 3.2069301520205531e-06 0 -0.0031317021750129231 3.9590551861529436e-07 0 -0.0036065237769511214 -2.9611152016297393e-07 0 -0.0031574834558978559 8.3974413017474963e-05 0 -0.0040752314025239676 2.5377606412649155e-05 0 -0.0040294945409321756 -8.7665006369308179e-05 0 -0.0039754413603292982 -6.7665749578035963e-05 0 -0.0030571877219237507 1.7889326522971378e-05 0 -0.0031574834558978559 8.3974413017474963e-05 0 -0.0032833631224356875 -8.5262267498539322e-05 0 -0.0031574834558978559 8.3974413017474963e-05 0 -0.0034213746379760769 3.7931316177044473e-05 0 -0.0032833631224356875 -8.5262267498539322e-05 0 -0.0035930105663216148 3.2069301520205531e-06 0 -0.0036820946004998451 -2.1733838759538885e-05 0 -0.0039381876890603636 -5.5019013611965053e-05 0 -0.0039754413603292982 -6.7665749578035963e-05 0 -0.0039213312749224469 -8.7520619063003783e-05 0 -0.0040294945409321756 -8.7665006369308179e-05 0 -0.0039381876890603636 -5.5019013611965053e-05 0 -0.0039754413603292982 -6.7665749578035963e-05 0 -0.0036820946004998451 -2.1733838759538885e-05 0 -0.0037450134272681442 -8.6596404291724307e-05 0 -0.0039381876890603636 -5.5019013611965053e-05 0 -0.0039213312749224469 -8.7520619063003783e-05 0 -0.0037397152284421326 -0.00010126853391557304 0 -0.0034213746379760769 3.7931316177044473e-05 0 -0.0035246340740721347 -0.00019737058491809599 0 -0.0037397152284421326 -0.00010126853391557304 0 -0.0035246340740721347 -0.00019737058491809599 0 -0.0032833631224356875 -8.5262267498539322e-05 0 -0.0033785645316781751 -0.00029722406523984983 0 -0.0034213746379760769 3.7931316177044473e-05 0 -0.0035246340740721347 -0.00019737058491809599 0 -0.0032833631224356875 -8.5262267498539322e-05 0 -0.0035246340740721347 -0.00019737058491809599 0 -0.0035248833295299783 -0.00030662600303546598 0 -0.0036417909989329457 -0.00025466272368593345 0 -0.0034076089417594902 -0.00027131467577419402 0 -0.0035113411600631232 -0.00030482147461343876 0 -0.0035246340740721347 -0.00019737058491809599 0 -0.0033785645316781751 -0.00029722406523984983 0 -0.0035248833295299783 -0.00030662600303546598 0 -0.0035248833295299783 -0.00030662600303546598 0 -0.0036417909989329457 -0.00025466272368593345 0 -0.0035475213724724666 -0.00034185768518891498 0 -0.0036417909989329457 -0.00025466272368593345 0 -0.0036419458310753415 -0.00031032334763537431 0 -0.0035475213724724666 -0.00034185768518891498 0 -0.0036417909989329457 -0.00025466272368593345 0 -0.0036419458310753415 -0.00031032334763537431 0 -0.0037283026018362932 -0.00019182379376709159 0 -0.0036417909989329457 -0.00025466272368593345 0 -0.0037283026018362932 -0.00019182379376709159 0 -0.0037397152284421326 -0.00010126853391557304 0 -0.0035246340740721347 -0.00019737058491809599 0 -0.0036417909989329457 -0.00025466272368593345 0 -0.0037397152284421326 -0.00010126853391557304 0 -0.0037397152284421326 -0.00010126853391557304 0 -0.0039629473424558333 -8.902286899634758e-05 0 -0.00383451061508486 -0.00011714785599456938 0 -0.0039213312749224469 -8.7520619063003783e-05 0 -0.0037397152284421326 -0.00010126853391557304 0 -0.0039629473424558333 -8.902286899634758e-05 0 -0.0039286664457193303 -9.7207216795321027e-05 0 -0.0039629473424558333 -8.902286899634758e-05 0 -0.00383451061508486 -0.00011714785599456938 0 -0.0037283026018362932 -0.00019182379376709159 0 -0.0037397152284421326 -0.00010126853391557304 0 -0.00383451061508486 -0.00011714785599456938 0 -0.00383451061508486 -0.00011714785599456938 0 -0.0038553326555892816 -0.00013616995220999608 0 -0.0038035260744769209 -0.00019537329861524225 0 -0.0039286664457193303 -9.7207216795321027e-05 0 -0.00383451061508486 -0.00011714785599456938 0 -0.0038553326555892816 -0.00013616995220999608 0 -0.0043558065512256782 -0.00028319280422270149 0 -0.0047227905929168312 -0.00070512874139565783 0 -0.0038553326555892816 -0.00013616995220999608 0 -0.0038035260744769209 -0.00019537329861524225 0 -0.0038416807859728767 -0.00019846918251676334 0 -0.0038035260744769209 -0.00019537329861524225 0 -0.0038312548258317902 -0.00023221998042059395 0 -0.0038416807859728767 -0.00019846918251676334 0 -0.0037283026018362932 -0.00019182379376709159 0 -0.00383451061508486 -0.00011714785599456938 0 -0.0038035260744769209 -0.00019537329861524225 0 -0.0036419458310753415 -0.00031032334763537431 0 -0.0037283026018362932 -0.00019182379376709159 0 -0.0038035260744769209 -0.00019537329861524225 0 -0.0036419458310753415 -0.00031032334763537431 0 -0.0038035260744769209 -0.00019537329861524225 0 -0.0038044120190828504 -0.00029878661385154419 0 -0.0036204720056397634 -0.000314301541102809 0 -0.003575541891143483 -0.00033744872589749431 0 -0.0038035260744769209 -0.00019537329861524225 0 -0.0038312548258317902 -0.00023221998042059395 0 -0.0038044120190828504 -0.00029878661385154419 0 -0.0038312548258317902 -0.00023221998042059395 0 -0.0038044120190828504 -0.00029878661385154419 0 -0.0038284481550517227 -0.0002553742651246489 0 -0.0036419458310753415 -0.00031032334763537431 0 -0.0033567781700711585 -0.00039916604093660139 0 -0.003465573209375883 -0.00035973229382499979 0 -0.003465573209375883 -0.00035973229382499979 0 -0.0032822371059267751 -0.00036757615017667355 0 -0.0033865467605419322 -0.00035178743094712445 0 -0.0033567781700711585 -0.00039916604093660139 0 -0.003465573209375883 -0.00035973229382499979 0 -0.0032822371059267751 -0.00036757615017667355 0 -0.0033567781700711585 -0.00039916604093660139 0 -0.0032822371059267751 -0.00036757615017667355 0 -0.0032253325996448264 -0.00034246485781689299 0 -0.0032822371059267751 -0.00036757615017667355 0 -0.0031523553945699552 -0.00040157025233548656 0 -0.00331289577161633 -0.0003719894340663667 0 -0.0032193612688709919 -0.00028343823603676474 0 -0.0031523553945699552 -0.00040157025233548656 0 -0.00331289577161633 -0.0003719894340663667 0 -0.0028232792800417946 -0.00042752452007361133 0 -0.0032193612688709919 -0.00028343823603676474 0 -0.0031523553945699552 -0.00040157025233548656 0 -0.00331289577161633 -0.0003719894340663667 0 -0.0033865467605419322 -0.00035178743094712445 0 -0.0033650921491945791 -0.00035235809127658367 0 -0.0033703580311424653 -0.00034030661117315242 0 -0.00331289577161633 -0.0003719894340663667 0 -0.0033650921491945791 -0.00035235809127658367 0 -0.0032822371059267751 -0.00036757615017667355 0 -0.00331289577161633 -0.0003719894340663667 0 -0.0033865467605419322 -0.00035178743094712445 0 -0.0033865467605419322 -0.00035178743094712445 0 -0.00340502128292625 -0.00033108028022144997 0 -0.0034640853925298302 -0.00035650543132827644 0 -0.0033865467605419322 -0.00035178743094712445 0 -0.00340502128292625 -0.00033108028022144997 0 -0.0033650921491945791 -0.00035235809127658367 0 -0.0033411531693125509 -0.00035265075222804952 0 -0.00340502128292625 -0.00033108028022144997 0 -0.0033712950342246859 -0.00034773886549440482 0 -0.00340502128292625 -0.00033108028022144997 0 -0.0033712950342246859 -0.00034773886549440482 0 -0.0033650921491945791 -0.00035235809127658367 0 -0.0032926552015914209 -0.00036047116398427398 0 -0.0036698455643201962 -0.00025119187184753617 0 -0.0033411531693125509 -0.00035265075222804952 0 -0.00340502128292625 -0.00033108028022144997 0 -0.0032959565869942588 -0.00030617936263792258 0 -0.0033411531693125509 -0.00035265075222804952 0 -0.0032740350200436258 -0.00034895062260972349 0 -0.0032959565869942588 -0.00030617936263792258 0 -0.00340502128292625 -0.00033108028022144997 0 -0.0034614993219641292 -0.00035348930200881392 0 -0.0034584961492648524 -0.0003434310496531021 0 -0.00340502128292625 -0.00033108028022144997 0 -0.0034614993219641292 -0.00035348930200881392 0 -0.0034640853925298302 -0.00035650543132827644 0 -0.0034640853925298302 -0.00035650543132827644 0 -0.0035475213724724666 -0.00034185768518891498 0 -0.0034891690040934247 -0.00035429323956655072 0 -0.0034614993219641292 -0.00035348930200881392 0 -0.0034640853925298302 -0.00035650543132827644 0 -0.0034891690040934247 -0.00035429323956655072 0 -0.003465573209375883 -0.00035973229382499979 0 -0.0033865467605419322 -0.00035178743094712445 0 -0.0034640853925298302 -0.00035650543132827644 0 -0.003465573209375883 -0.00035973229382499979 0 -0.0034640853925298302 -0.00035650543132827644 0 -0.0035475213724724666 -0.00034185768518891498 0 -0.0036419458310753415 -0.00031032334763537431 0 -0.003465573209375883 -0.00035973229382499979 0 -0.0035475213724724666 -0.00034185768518891498 0 -0.0035248833295299783 -0.00030662600303546598 0 -0.0035475213724724666 -0.00034185768518891498 0 -0.0034891690040934247 -0.00035429323956655072 0 -0.0035248833295299783 -0.00030662600303546598 0 -0.0034548764626664021 -0.00033713316223831597 0 -0.0034891690040934247 -0.00035429323956655072 0 -0.0034469081935737189 -0.00025088840634221812 0 -0.0035248833295299783 -0.00030662600303546598 0 -0.0034548764626664021 -0.00033713316223831597 0 -0.0033996170611552069 -0.0002833746474417728 0 -0.0034469081935737189 -0.00025088840634221812 0 -0.0034548764626664021 -0.00033713316223831597 0 -0.0034548764626664021 -0.00033713316223831597 0 -0.0034344812032826638 -0.00036123972811518827 0 -0.0033927366316021672 -0.0003387421821768056 0 -0.0034548764626664021 -0.00033713316223831597 0 -0.0034610432552271068 -0.00035725466878604547 0 -0.0034344812032826638 -0.00036123972811518827 0 -0.0034548764626664021 -0.00033713316223831597 0 -0.0034891690040934247 -0.00035429323956655072 0 -0.0034610432552271068 -0.00035725466878604547 0 -0.0034614993219641292 -0.00035348930200881392 0 -0.0034891690040934247 -0.00035429323956655072 0 -0.0034610432552271068 -0.00035725466878604547 0 -0.0034614993219641292 -0.00035348930200881392 0 -0.0034610432552271068 -0.00035725466878604547 0 -0.0034584961492648524 -0.0003434310496531021 0 -0.0034610432552271068 -0.00035725466878604547 0 -0.0034584961492648524 -0.0003434310496531021 0 -0.003444169785255594 -0.00035666622620385058 0 -0.0036698455643201962 -0.00025119187184753617 0 -0.0015569526333988296 -0.00017631117587498259 0 -0.0032740350200436258 -0.00034895062260972349 0 -0.0032959565869942588 -0.00030617936263792258 0 -0.0031931405471895577 -0.00031887908848556062 0 -0.0015569526333988296 -0.00017631117587498259 0 -0.0021836939029651445 -0.00016186331920045756 0 0.00042522494390072536 -0.00020284881604332001 0 -0.0015569526333988296 -0.00017631117587498259 0 -0.00061785763031615081 -0.00012588478396142758 0 -0.00084552596436623158 -5.4878619542813338e-05 0 -0.00070920497464356329 5.0631005638772063e-06 0 -0.00084552596436623158 -5.4878619542813338e-05 0 -0.000772412776007876 9.2980419093849245e-05 0 -0.00070920497464356329 5.0631005638772063e-06 0 -0.0034610432552271068 -0.00035725466878604547 0 -0.003444169785255594 -0.00035666622620385058 0 -0.0034344812032826638 -0.00036123972811518827 0 -0.000772412776007876 9.2980419093849245e-05 0 -0.00059407177680231892 8.4384339126017724e-05 0 -0.0010823783524974762 4.0456390628735081e-05 0 -0.000772412776007876 9.2980419093849245e-05 0 -0.00070920497464356329 5.0631005638772063e-06 0 -0.00059407177680231892 8.4384339126017724e-05 0 -0.00061785763031615081 -0.00012588478396142758 0 -0.00025000056024967359 -1.7984613886952671e-05 0 -0.00059407177680231892 8.4384339126017724e-05 0 -0.00061785763031615081 -0.00012588478396142758 0 -0.00070920497464356329 5.0631005638772063e-06 0 -0.00059407177680231892 8.4384339126017724e-05 0 -8.1162943366085383e-05 -2.7448719671800829e-07 0 -0.00025000056024967359 -1.7984613886952671e-05 0 -0.00059407177680231892 8.4384339126017724e-05 0 -8.1162943366085383e-05 -2.7448719671800829e-07 0 -0.00059407177680231892 8.4384339126017724e-05 0 -0.00093921851993723966 3.8552907482558625e-07 0 -0.00093921851993723966 3.8552907482558625e-07 0 -0.0010823783524974762 4.0456390628735081e-05 0 -0.0017968950564676367 -6.9955119331204561e-08 0 -0.00059407177680231892 8.4384339126017724e-05 0 -0.00093921851993723966 3.8552907482558625e-07 0 -0.0010823783524974762 4.0456390628735081e-05 0 -0.0021836939029651445 -0.00016186331920045756 0 -0.0022291085791223235 -0.00011474333265892567 0 -0.0033996170611552069 -0.0002833746474417728 0 -0.0034548764626664021 -0.00033713316223831597 0 -0.0033927366316021672 -0.0003387421821768056 0 -0.0025332805019687436 -0.00012055093445659868 0 -0.0022291085791223235 -0.00011474333265892567 0 -0.0033254954840391763 -0.00026509211746594184 0 -0.0033996170611552069 -0.0002833746474417728 0 -0.0033927366316021672 -0.0003387421821768056 0 -0.0017436667286192576 -5.4374034713028674e-05 0 -0.0010823783524974762 4.0456390628735081e-05 0 -0.0017968950564676367 -6.9955119331204561e-08 0 -0.0043418064790916649 0.00032738651291477634 0 -0.0046951616204149197 0.00024598320792358955 0 -0.0048234148937989167 0.00061950089101772536 0 -0.0043418064790916649 0.00032738651291477634 0 -0.0048234148937989167 0.00061950089101772536 0 -0.004469122188608063 0.00073250864344536978 0 -0.0043418064790916649 0.00032738651291477634 0 -0.0038874257408592697 0.00065499455823773598 0 -0.0039168637715961303 0.00021524381067659627 0 -0.0043418064790916649 0.00032738651291477634 0 -0.004469122188608063 0.00073250864344536978 0 -0.0038874257408592697 0.00065499455823773598 0 -0.0043418064790916649 0.00032738651291477634 0 -0.0039168637715961303 0.00021524381067659627 0 -0.0041110685587158642 -0.00013459910041533271 0 -0.0043418064790916649 0.00032738651291477634 0 -0.0044693325468098096 -3.0090588345035967e-05 0 -0.0041110685587158642 -0.00013459910041533271 0 -0.0043418064790916649 0.00032738651291477634 0 -0.0046951616204149197 0.00024598320792358955 0 -0.0044693325468098096 -3.0090588345035967e-05 0 -0.0046951616204149197 0.00024598320792358955 0 -0.0044693325468098096 -3.0090588345035967e-05 0 -0.0047714987969680279 -3.8466990187616275e-05 0 -0.0050201364013115861 0.0002303494702546011 0 -0.0046951616204149197 0.00024598320792358955 0 -0.0047714987969680279 -3.8466990187616275e-05 0 -0.0050201364013115861 0.0002303494702546011 0 -0.0050670342755515943 -6.9621950861019862e-05 0 -0.0047714987969680279 -3.8466990187616275e-05 0 -0.0050201364013115861 0.0002303494702546011 0 -0.0053402617048368232 6.658909406261288e-06 0 -0.0053683143787444923 0.00060728149650077397 0 -0.0050201364013115861 0.0002303494702546011 0 -0.0053402617048368232 6.658909406261288e-06 0 -0.0050670342755515943 -6.9621950861019862e-05 0 -0.0050201364013115861 0.0002303494702546011 0 -0.0053683143787444923 0.00060728149650077397 0 -0.0048234148937989167 0.00061950089101772536 0 -0.0050201364013115861 0.0002303494702546011 0 -0.0046951616204149197 0.00024598320792358955 0 -0.0048234148937989167 0.00061950089101772536 0 -0.0048234148937989167 0.00061950089101772536 0 -0.005153742818864362 0.0010430128760444074 0 -0.004709777978150316 0.0010763536034782812 0 -0.0054714387469678898 0.00047035066452440867 0 -0.0052282501303760418 0.00096304809650611287 0 -0.0053683143787444923 0.00060728149650077397 0 -0.0048234148937989167 0.00061950089101772536 0 -0.005153742818864362 0.0010430128760444074 0 -0.0055716005602074953 0.0003436129101225783 0 -0.0052940770096924434 0.00087773905603168233 0 -0.005804181759549107 0.0009236689275867355 0 -0.0052940770096924434 0.00087773905603168233 0 -0.005804181759549107 0.0009236689275867355 0 -0.0055832331620200536 0.0016483907673695679 0 -0.0049805609260286186 0.0014824756977152324 0 -0.005153742818864362 0.0010430128760444074 0 -0.004709777978150316 0.0010763536034782812 0 -0.0050124170791775871 0.0014817808821008616 0 -0.0052282501303760418 0.00096304809650611287 0 -0.0045134360306483884 0.0015080422059034007 0 -0.0049805609260286186 0.0014824756977152324 0 -0.004709777978150316 0.0010763536034782812 0 -0.0045134360306483884 0.0015080422059034007 0 -0.004709777978150316 0.0010763536034782812 0 -0.0043134475279366213 0.0010791608917400989 0 -0.004709777978150316 0.0010763536034782812 0 -0.004469122188608063 0.00073250864344536978 0 -0.0043134475279366213 0.0010791608917400989 0 -0.0048234148937989167 0.00061950089101772536 0 -0.004709777978150316 0.0010763536034782812 0 -0.004469122188608063 0.00073250864344536978 0 -0.004469122188608063 0.00073250864344536978 0 -0.0043134475279366213 0.0010791608917400989 0 -0.0038874257408592697 0.00065499455823773598 0 -0.0041130710367897052 0.0014135143733648337 0 -0.0043134475279366213 0.0010791608917400989 0 -0.0039207870988481087 0.0010769842659649758 0 -0.0041130710367897052 0.0014135143733648337 0 -0.0045134360306483884 0.0015080422059034007 0 -0.0043134475279366213 0.0010791608917400989 0 -0.0037231824497776325 0.0014037586763643798 0 -0.0041130710367897052 0.0014135143733648337 0 -0.0039207870988481087 0.0010769842659649758 0 -0.0037231824497776325 0.0014037586763643798 0 -0.0039207870988481087 0.0010769842659649758 0 -0.0033951567677314781 0.00096900477294288177 0 -0.006144204287344429 -0.00058320678375441669 0 -0.0065851366304757178 -0.00053697976995274916 0 -0.0061986224892175363 -0.0010002609759598091 0 -0.0051557119761267518 0.00044079483704873745 0 -0.0048013515938170794 -4.9150872252105636e-05 0 -0.0033951567677314781 0.00096900477294288177 0 -0.0038874257408592697 0.00065499455823773598 0 -0.0034953913096893883 0.00055125266372135187 0 -0.0039207870988481087 0.0010769842659649758 0 -0.0033951567677314781 0.00096900477294288177 0 -0.0038874257408592697 0.00065499455823773598 0 -0.0043134475279366213 0.0010791608917400989 0 -0.0039207870988481087 0.0010769842659649758 0 -0.0038874257408592697 0.00065499455823773598 0 -0.0057914071487877045 -0.00036972980892142383 0 -0.005356221605975149 -0.0010042610231852402 0 -0.0058356334106198825 -0.00092416692409646951 0 -0.006144204287344429 -0.00058320678375441669 0 -0.0058356334106198825 -0.00092416692409646951 0 -0.0061986224892175363 -0.0010002609759598091 0 -0.006144204287344429 -0.00058320678375441669 0 -0.0057914071487877045 -0.00036972980892142383 0 -0.0058356334106198825 -0.00092416692409646951 0 -0.0058356334106198825 -0.00092416692409646951 0 -0.0061986224892175363 -0.0010002609759598091 0 -0.0058196399231854644 -0.0014406986538181229 0 -0.0048013515938170794 -4.9150872252105636e-05 0 -0.0043481594449370628 -0.00020777466190823537 0 -0.0033951567677314781 0.00096900477294288177 0 -0.0030810402242706573 0.00055667320455709494 0 -0.0034953913096893883 0.00055125266372135187 0 -0.005356221605975149 -0.0010042610231852402 0 -0.0058356334106198825 -0.00092416692409646951 0 -0.0058196399231854644 -0.0014406986538181229 0 -0.0047227905929168312 -0.00070512874139565783 0 -0.0043481594449370628 -0.00020777466190823537 0 -0.0038553326555892816 -0.00013616995220999608 0 -0.0038416807859728767 -0.00019846918251676334 0 -0.003863046512800482 -0.00020795991783007249 0 -0.0038312548258317902 -0.00023221998042059395 0 -0.0038505338579675683 -0.00022138762011014899 0 -0.0038373072544288455 -0.00023604284003989593 0 -0.0038312548258317902 -0.00023221998042059395 0 -0.0038416807859728767 -0.00019846918251676334 0 -0.0038505338579675683 -0.00022138762011014899 0 -0.0038416807859728767 -0.00019846918251676334 0 -0.003863046512800482 -0.00020795991783007249 0 -0.0038505338579675683 -0.00022138762011014899 0 -0.0043481594449370628 -0.00020777466190823537 0 -0.0041297891310725122 -0.00031779892706466434 0 -0.0038479448565433613 -0.00022474163216937046 0 -0.0038505338579675683 -0.00022138762011014899 0 -0.0038348790146424633 -0.0002368441977717882 0 -0.0043481594449370628 -0.00020777466190823537 0 -0.0034653942416910254 8.3632781600092307e-05 0 -0.0030810402242706573 0.00055667320455709494 0 -0.0034953913096893883 0.00055125266372135187 0 -0.0034590510464859556 0.00017634755498775336 0 -0.0038479448565433613 -0.00022474163216937046 0 -0.0038348790146424633 -0.0002368441977717882 0 -0.0038243813543352551 -0.0002381515138113423 0 -0.0038348790146424633 -0.0002368441977717882 0 -0.0038243813543352551 -0.0002381515138113423 0 -0.0038147986635832095 -0.00024883061522523237 0 -0.0038348790146424633 -0.0002368441977717882 0 -0.0038284481550517227 -0.0002553742651246489 0 -0.0038147986635832095 -0.00024883061522523237 0 -0.0038505338579675683 -0.00022138762011014899 0 -0.0038348790146424633 -0.0002368441977717882 0 -0.0038373072544288455 -0.00023604284003989593 0 -0.0038348790146424633 -0.0002368441977717882 0 -0.0038373072544288455 -0.00023604284003989593 0 -0.0038284481550517227 -0.0002553742651246489 0 -0.0038312548258317902 -0.00023221998042059395 0 -0.0038373072544288455 -0.00023604284003989593 0 -0.0038284481550517227 -0.0002553742651246489 0 -0.0038874257408592697 0.00065499455823773598 0 -0.0034953913096893883 0.00055125266372135187 0 -0.0039168637715961303 0.00021524381067659627 0 -0.0034953913096893883 0.00055125266372135187 0 -0.0034590510464859556 0.00017634755498775336 0 -0.0039168637715961303 0.00021524381067659627 0 -0.0034590510464859556 0.00017634755498775336 0 -0.0039168637715961303 0.00021524381067659627 0 -0.0038470464065537184 -0.0002164776404834675 0 -0.0039168637715961303 0.00021524381067659627 0 -0.0038470464065537184 -0.0002164776404834675 0 -0.0041110685587158642 -0.00013459910041533271 0 -0.0038470464065537184 -0.0002164776404834675 0 -0.0038945599142670563 -0.00035058796716301349 0 -0.0041110685587158642 -0.00013459910041533271 0 -0.0038470464065537184 -0.0002164776404834675 0 -0.0037919645070560999 -0.00031135706398565131 0 -0.0038147986635832095 -0.00024883061522523237 0 -0.0038243813543352551 -0.0002381515138113423 0 -0.0038470464065537184 -0.0002164776404834675 0 -0.0038147986635832095 -0.00024883061522523237 0 -0.0034653942416910254 8.3632781600092307e-05 0 -0.0039078562996292541 -0.00026463257393664479 0 -0.0038470464065537184 -0.0002164776404834675 0 -0.0037919645070560999 -0.00031135706398565131 0 -0.0038945599142670563 -0.00035058796716301349 0 -0.0037919645070560999 -0.00031135706398565131 0 -0.0038945599142670563 -0.00035058796716301349 0 -0.0038318034973871509 -0.00048377640601860074 0 -0.0038044120190828504 -0.00029878661385154419 0 -0.0038284481550517227 -0.0002553742651246489 0 -0.0038125304215904316 -0.00026468613502193632 0 -0.003575541891143483 -0.00033744872589749431 0 -0.003524453202098514 -0.00030452955500843537 0 -0.0038284481550517227 -0.0002553742651246489 0 -0.0038147986635832095 -0.00024883061522523237 0 -0.0038125304215904316 -0.00026468613502193632 0 -0.0037919645070560999 -0.00031135706398565131 0 -0.0038147986635832095 -0.00024883061522523237 0 -0.0038125304215904316 -0.00026468613502193632 0 -0.0035927723231275743 -0.00031674183657358828 0 -0.003524453202098514 -0.00030452955500843537 0 -0.0033666416880917282 -0.00028865293244703628 0 -0.0032253325996448264 -0.00034246485781689299 0 -0.0031529722851967577 -0.00038184861200818394 0 -0.0032822371059267751 -0.00036757615017667355 0 -0.0032253325996448264 -0.00034246485781689299 0 -0.0031529722851967577 -0.00038184861200818394 0 -0.0032822371059267751 -0.00036757615017667355 0 -0.0031523553945699552 -0.00040157025233548656 0 -0.0031529722851967577 -0.00038184861200818394 0 -0.0033666416880917282 -0.00028865293244703628 0 -0.0031529722851967577 -0.00038184861200818394 0 -0.003410700685847486 -0.00049614555341953722 0 -0.0033344392536339353 -0.00066597278700777582 0 -0.0031529722851967577 -0.00038184861200818394 0 -0.003410700685847486 -0.00049614555341953722 0 -0.0033344392536339353 -0.00066597278700777582 0 -0.0028232792800417946 -0.00042752452007361133 0 -0.0031529722851967577 -0.00038184861200818394 0 -0.0028232792800417946 -0.00042752452007361133 0 -0.0031523553945699552 -0.00040157025233548656 0 -0.0031529722851967577 -0.00038184861200818394 0 -0.0035927723231275743 -0.00031674183657358828 0 -0.00382540189562068 -0.00046747162165179331 0 -0.0033666416880917282 -0.00028865293244703628 0 -0.0036185979723191136 -0.00052143086640894418 0 -0.0038318034973871509 -0.00048377640601860074 0 -0.0036185979723191136 -0.00052143086640894418 0 -0.0038132385634299486 -0.00060607401285137433 0 -0.0038318034973871509 -0.00048377640601860074 0 -0.0038132385634299486 -0.00060607401285137433 0 -0.0038318034973871509 -0.00048377640601860074 0 -0.0039362417813742024 -0.00052926432475296898 0 -0.0038945599142670563 -0.00035058796716301349 0 -0.0038318034973871509 -0.00048377640601860074 0 -0.0039461308345018027 -0.00044087150224248107 0 -0.0033666416880917282 -0.00028865293244703628 0 -0.0036185979723191136 -0.00052143086640894418 0 -0.003410700685847486 -0.00049614555341953722 0 -0.0033344392536339353 -0.00066597278700777582 0 -0.003410700685847486 -0.00049614555341953722 0 -0.0035969823884806455 -0.00060367711390988809 0 -0.0036185979723191136 -0.00052143086640894418 0 -0.003410700685847486 -0.00049614555341953722 0 -0.0035969823884806455 -0.00060367711390988809 0 -0.0036185979723191136 -0.00052143086640894418 0 -0.0035969823884806455 -0.00060367711390988809 0 -0.0037067934957785488 -0.00059991695560184834 0 -0.0036185979723191136 -0.00052143086640894418 0 -0.0038132385634299486 -0.00060607401285137433 0 -0.0037067934957785488 -0.00059991695560184834 0 -0.0038132385634299486 -0.00060607401285137433 0 -0.0037067934957785488 -0.00059991695560184834 0 -0.003760273903401134 -0.00061889751355108358 0 -0.0037067934957785488 -0.00059991695560184834 0 -0.0037319719731968961 -0.00063173845933038207 0 -0.003760273903401134 -0.00061889751355108358 0 -0.0037182008120313558 -0.000685969184887468 0 -0.0035969823884806455 -0.00060367711390988809 0 -0.0037319719731968961 -0.00063173845933038207 0 -0.0035969823884806455 -0.00060367711390988809 0 -0.0037067934957785488 -0.00059991695560184834 0 -0.0037319719731968961 -0.00063173845933038207 0 -0.0037319719731968961 -0.00063173845933038207 0 -0.003729738580993272 -0.00062800966429823644 0 -0.003760273903401134 -0.00061889751355108358 0 -0.0037182008120313558 -0.000685969184887468 0 -0.0037319719731968961 -0.00063173845933038207 0 -0.0037097996463222897 -0.00063460499275927093 0 -0.0037319719731968961 -0.00063173845933038207 0 -0.0037097996463222897 -0.00063460499275927093 0 -0.003729738580993272 -0.00062800966429823644 0 -0.0038132385634299486 -0.00060607401285137433 0 -0.0037152902716132462 -0.00064025691426317013 0 -0.00366651112304014 -0.00068525175158189243 0 -0.0037097996463222897 -0.00063460499275927093 0 -0.0037047950187367139 -0.00063007672812233546 0 -0.0036832871875679503 -0.00061707130292901321 0 -0.0037047950187367139 -0.00063007672812233546 0 -0.003729738580993272 -0.00062800966429823644 0 -0.0037152902716132462 -0.00064025691426317013 0 -0.0037097996463222897 -0.00063460499275927093 0 -0.0037047950187367139 -0.00063007672812233546 0 -0.003729738580993272 -0.00062800966429823644 0 -0.003729738580993272 -0.00062800966429823644 0 -0.0037152902716132462 -0.00064025691426317013 0 -0.003760273903401134 -0.00061889751355108358 0 -0.0038132385634299486 -0.00060607401285137433 0 -0.0037152902716132462 -0.00064025691426317013 0 -0.003760273903401134 -0.00061889751355108358 0 -0.0036294594591164981 -0.00063748754146348533 0 -0.0035953879218530108 -0.00065188622363659022 0 -0.0035965003898316274 -0.00063379861245513531 0 -0.0036294594591164981 -0.00063748754146348533 0 -0.0036167748185252403 -0.00061841613694254974 0 -0.0035965003898316274 -0.00063379861245513531 0 -0.0036294594591164981 -0.00063748754146348533 0 -0.0036167748185252403 -0.00061841613694254974 0 -0.0036453044674534672 -0.00061300375588694991 0 -0.0036167748185252403 -0.00061841613694254974 0 -0.0036062171455382716 -0.0006006637671314393 0 -0.0036453044674534672 -0.00061300375588694991 0 -0.0036167748185252403 -0.00061841613694254974 0 -0.0036062171455382716 -0.0006006637671314393 0 -0.0035965003898316274 -0.00063379861245513531 0 -0.0036294594591164981 -0.00063748754146348533 0 -0.0036453044674534672 -0.00061300375588694991 0 -0.0036688913218146293 -0.00063257208423406707 0 -0.0036294594591164981 -0.00063748754146348533 0 -0.0036688913218146293 -0.00063257208423406707 0 -0.0036546369171696321 -0.0006593777649716952 0 -0.0037047950187367139 -0.00063007672812233546 0 -0.0037152902716132462 -0.00064025691426317013 0 -0.0036688913218146293 -0.00063257208423406707 0 -0.0036453044674534672 -0.00061300375588694991 0 -0.0036688913218146293 -0.00063257208423406707 0 -0.0036832871875679503 -0.00061707130292901321 0 -0.0037047950187367139 -0.00063007672812233546 0 -0.0036688913218146293 -0.00063257208423406707 0 -0.0036832871875679503 -0.00061707130292901321 0 -0.0037152902716132462 -0.00064025691426317013 0 -0.0036688913218146293 -0.00063257208423406707 0 -0.0036546369171696321 -0.0006593777649716952 0 -0.0037152902716132462 -0.00064025691426317013 0 -0.00366651112304014 -0.00068525175158189243 0 -0.0036546369171696321 -0.0006593777649716952 0 -0.0036294594591164981 -0.00063748754146348533 0 -0.0036546369171696321 -0.0006593777649716952 0 -0.0036198574935145406 -0.00068941600449603331 0 -0.0036294594591164981 -0.00063748754146348533 0 -0.0036198574935145406 -0.00068941600449603331 0 -0.0035953879218530108 -0.00065188622363659022 0 -0.00366651112304014 -0.00068525175158189243 0 -0.0036546369171696321 -0.0006593777649716952 0 -0.0036198574935145406 -0.00068941600449603331 0 -0.0042744142891721652 -0.00078086934951825343 0 -0.0043945044358483232 -0.00077064427156076857 0 -0.004399407533282447 -0.00074885238599741583 0 -0.0039568348394978109 -0.00076490396177472631 0 -0.0039011384307716867 -0.00089229029931308171 0 -0.0045062964700205181 -0.00073267320434090963 0 -0.0039537173559220894 -0.00066781324008520786 0 -0.0045441452054958724 -0.00076398199929763938 0 -0.0042694735562705567 -0.00054732238495055151 0 -0.004139463417505972 -0.00058801241492383678 0 -0.0042744142891721652 -0.00078086934951825343 0 -0.004399407533282447 -0.00074885238599741583 0 -0.0039345782069279359 -0.00063712269120767319 0 -0.0042694735562705567 -0.00054732238495055151 0 -0.0044708244356546868 -0.00056964539547987132 0 -0.0043585950733885355 -0.00045649931647038307 0 -0.0042694735562705567 -0.00054732238495055151 0 -0.0041885120966180817 -0.00043629995609254288 0 -0.0043585950733885355 -0.00045649931647038307 0 -0.0044708244356546868 -0.00056964539547987132 0 -0.0043585950733885355 -0.00045649931647038307 0 -0.0045556989887337454 -0.00047642989397020846 0 -0.0045441452054958724 -0.00076398199929763938 0 -0.0042694735562705567 -0.00054732238495055151 0 -0.0044708244356546868 -0.00056964539547987132 0 -0.0045441452054958724 -0.00076398199929763938 0 -0.0044708244356546868 -0.00056964539547987132 0 -0.0046246616496600718 -0.00057794053809637821 0 -0.0044708244356546868 -0.00056964539547987132 0 -0.0045556989887337454 -0.00047642989397020846 0 -0.0046246616496600718 -0.00057794053809637821 0 -0.0038284721377928976 -0.00062524373059755906 0 -0.0039568348394978109 -0.00076490396177472631 0 -0.0038132385634299486 -0.00060607401285137433 0 -0.0042744142891721652 -0.00078086934951825343 0 -0.0039345782069279359 -0.00063712269120767319 0 -0.0045441452054958724 -0.00076398199929763938 0 -0.0039345782069279359 -0.00063712269120767319 0 -0.004139463417505972 -0.00058801241492383678 0 -0.0039362417813742024 -0.00052926432475296898 0 -0.0039345782069279359 -0.00063712269120767319 0 -0.004139463417505972 -0.00058801241492383678 0 -0.0038132385634299486 -0.00060607401285137433 0 -0.0039362417813742024 -0.00052926432475296898 0 -0.0039345782069279359 -0.00063712269120767319 0 -0.0042694735562705567 -0.00054732238495055151 0 -0.004139463417505972 -0.00058801241492383678 0 -0.0040502472325039795 -0.00048450439285923778 0 -0.0042694735562705567 -0.00054732238495055151 0 -0.0040502472325039795 -0.00048450439285923778 0 -0.0041885120966180817 -0.00043629995609254288 0 -0.0039362417813742024 -0.00052926432475296898 0 -0.004139463417505972 -0.00058801241492383678 0 -0.0040502472325039795 -0.00048450439285923778 0 -0.0039362417813742024 -0.00052926432475296898 0 -0.0040502472325039795 -0.00048450439285923778 0 -0.0039461308345018027 -0.00044087150224248107 0 -0.0038318034973871509 -0.00048377640601860074 0 -0.0039362417813742024 -0.00052926432475296898 0 -0.0039461308345018027 -0.00044087150224248107 0 -0.0038945599142670563 -0.00035058796716301349 0 -0.0039461308345018027 -0.00044087150224248107 0 -0.0040756603302993565 -0.00036127062900784767 0 -0.0038945599142670563 -0.00035058796716301349 0 -0.0040756603302993565 -0.00036127062900784767 0 -0.0041110685587158642 -0.00013459910041533271 0 -0.0040756603302993565 -0.00036127062900784767 0 -0.0042873887748126217 -0.00030189302816341628 0 -0.0041110685587158642 -0.00013459910041533271 0 -0.0040502472325039795 -0.00048450439285923778 0 -0.0039461308345018027 -0.00044087150224248107 0 -0.0040756603302993565 -0.00036127062900784767 0 -0.0040756603302993565 -0.00036127062900784767 0 -0.0041885120966180817 -0.00043629995609254288 0 -0.0042873887748126217 -0.00030189302816341628 0 -0.0040502472325039795 -0.00048450439285923778 0 -0.0040756603302993565 -0.00036127062900784767 0 -0.0041885120966180817 -0.00043629995609254288 0 -0.0041885120966180817 -0.00043629995609254288 0 -0.0043585950733885355 -0.00045649931647038307 0 -0.0042873887748126217 -0.00030189302816341628 0 -0.0043585950733885355 -0.00045649931647038307 0 -0.0045556989887337454 -0.00047642989397020846 0 -0.0045608570857810626 -0.00027591442927900122 0 -0.0043585950733885355 -0.00045649931647038307 0 -0.0045608570857810626 -0.00027591442927900122 0 -0.0042873887748126217 -0.00030189302816341628 0 -0.0045608570857810626 -0.00027591442927900122 0 -0.0042873887748126217 -0.00030189302816341628 0 -0.0044693325468098096 -3.0090588345035967e-05 0 -0.0045608570857810626 -0.00027591442927900122 0 -0.0044693325468098096 -3.0090588345035967e-05 0 -0.0047714987969680279 -3.8466990187616275e-05 0 -0.0042873887748126217 -0.00030189302816341628 0 -0.0044693325468098096 -3.0090588345035967e-05 0 -0.0041110685587158642 -0.00013459910041533271 0 -0.005298646561939525 -0.00031807605322205446 0 -0.0050670342755515943 -6.9621950861019862e-05 0 -0.0048765870739635947 -0.00027092662755280161 0 -0.0053402617048368232 6.658909406261288e-06 0 -0.005298646561939525 -0.00031807605322205446 0 -0.0050670342755515943 -6.9621950861019862e-05 0 -0.0050670342755515943 -6.9621950861019862e-05 0 -0.0047714987969680279 -3.8466990187616275e-05 0 -0.0048765870739635947 -0.00027092662755280161 0 -0.0045608570857810626 -0.00027591442927900122 0 -0.0047714987969680279 -3.8466990187616275e-05 0 -0.0048765870739635947 -0.00027092662755280161 0 -0.0048765870739635947 -0.00027092662755280161 0 -0.0047684744126064663 -0.00046597688803697365 0 -0.0049602822363908295 -0.0004340444177724228 0 -0.0045608570857810626 -0.00027591442927900122 0 -0.0048765870739635947 -0.00027092662755280161 0 -0.0047684744126064663 -0.00046597688803697365 0 -0.0045556989887337454 -0.00047642989397020846 0 -0.0047684744126064663 -0.00046597688803697365 0 -0.0046246616496600718 -0.00057794053809637821 0 -0.0045556989887337454 -0.00047642989397020846 0 -0.0045608570857810626 -0.00027591442927900122 0 -0.0047684744126064663 -0.00046597688803697365 0 -0.0047684744126064663 -0.00046597688803697365 0 -0.0049602822363908295 -0.0004340444177724228 0 -0.0049212418849360695 -0.00058166499219086914 0 -0.0051501447199356152 -0.00066957015982471236 0 -0.0053864806201281198 -0.00098272909813266899 0 -0.0054925072105922075 -0.00055318333256023505 0 -0.00489664720738939 -0.00030970875606792497 0 -0.005055024099417018 -0.0005509078702098586 0 -0.005298646561939525 -0.00031807605322205446 0 -0.0048765870739635947 -0.00027092662755280161 0 -0.0051501447199356152 -0.00066957015982471236 0 -0.005298646561939525 -0.00031807605322205446 0 -0.0051501447199356152 -0.00066957015982471236 0 -0.0054925072105922075 -0.00055318333256023505 0 -0.005055024099417018 -0.0005509078702098586 0 -0.0051333062811442969 -0.00083391710986822464 0 -0.0051146086958352962 -0.00064302607675736977 0 -0.0049212418849360695 -0.00058166499219086914 0 -0.0049944115149416005 -0.00074600121410767488 0 -0.0049212418849360695 -0.00058166499219086914 0 -0.0049944115149416005 -0.00074600121410767488 0 -0.0047734258905354826 -0.00063040079199806049 0 -0.0049602822363908295 -0.0004340444177724228 0 -0.0051146086958352962 -0.00064302607675736977 0 -0.0049212418849360695 -0.00058166499219086914 0 -0.0044640698861997622 -0.00083127201528488857 0 -0.0048517875888384509 -0.0010409011195983196 0 -0.004845826234528579 -0.00082813862917341927 0 -0.0046894850037268315 -0.0009537755915466589 0 -0.0049296996356995573 -0.0009479229629410094 0 -0.0051333062811442969 -0.00083391710986822464 0 -0.0044640698861997622 -0.00083127201528488857 0 -0.0045441452054958724 -0.00076398199929763938 0 -0.0049944115149416005 -0.00074600121410767488 0 -0.0047734258905354826 -0.00063040079199806049 0 -0.0045062964700205181 -0.00073267320434090963 0 -0.0044640698861997622 -0.00083127201528488857 0 -0.004399407533282447 -0.00074885238599741583 0 -0.0043980675328943149 -0.00076546627112162636 0 -0.0043984329121267004 -0.00076285289023824635 0 -0.0047684744126064663 -0.00046597688803697365 0 -0.0046246616496600718 -0.00057794053809637821 0 -0.0047734258905354826 -0.00063040079199806049 0 -0.0045441452054958724 -0.00076398199929763938 0 -0.0046246616496600718 -0.00057794053809637821 0 -0.0047734258905354826 -0.00063040079199806049 0 -0.0047684744126064663 -0.00046597688803697365 0 -0.0049212418849360695 -0.00058166499219086914 0 -0.0047734258905354826 -0.00063040079199806049 0 -8.1577002661621569e-05 -0.00040744261093092037 0 -0.00060524925819178531 -0.00052444793495986651 0 -0.00029292807375657927 -0.00078158825768505022 0 -0.0036024653972110488 -0.0010097645495487626 0 -0.0029345777187761426 -0.00066907074577728738 0 -0.0026426330949238905 -0.00090520864129893606 0 -0.0039011384307716867 -0.00089229029931308171 0 -0.0030939213660578268 -0.0008815877993579857 0 -0.0043945044358483232 -0.00077064427156076857 0 -0.004399407533282447 -0.00074885238599741583 0 -0.0043984329121267004 -0.00076285289023824635 0 -0.0039011384307716867 -0.00089229029931308171 0 -0.0021854958449810365 -0.00082152481497091651 0 -0.0036198574935145406 -0.00068941600449603331 0 -0.0035953879218530108 -0.00065188622363659022 0 -0.0035288825815530038 -0.00065374747595773187 0 -0.0021854958449810365 -0.00082152481497091651 0 -0.0030939213660578268 -0.0008815877993579857 0 -0.0036062171455382716 -0.0006006637671314393 0 -0.0035288825815530038 -0.00065374747595773187 0 -0.0035965003898316274 -0.00063379861245513531 0 -0.00096609303490762975 -0.00032822612335440485 0 -0.0021854958449810365 -0.00082152481497091651 0 -0.0035953879218530108 -0.00065188622363659022 0 -0.0035288825815530038 -0.00065374747595773187 0 -0.0035965003898316274 -0.00063379861245513531 0 -0.0030939213660578268 -0.0008815877993579857 0 -0.0031937689016120307 -0.0011860916032475374 0 -0.0016380280974404278 -0.00069945194213828516 0 -0.0021105758544462789 -0.0010802844637871224 0 -0.0014300426321954452 -0.0010069002321254892 0 0.00058648998866641191 -0.0006352657234803237 0 -0.0021854958449810365 -0.00082152481497091651 0 -0.0016380280974404278 -0.00069945194213828516 0 -0.002236898236669285 -0.0009766917937867887 0 -0.0021105758544462789 -0.0010802844637871224 0 -0.0037241625429811124 -0.00098609270183883753 0 -0.0036522979642423892 -0.0010424219208749522 0 -0.0038768498595739853 -0.0010662782952750986 0 -8.1577002661621569e-05 -0.00040744261093092037 0 0.00046986138226498271 -0.00042755533316178471 0 -0.00029292807375657927 -0.00078158825768505022 0 -0.0044640698861997622 -0.00083127201528488857 0 -0.0030939213660578268 -0.0008815877993579857 0 -0.0014706503083473353 -0.00070626305860404007 0 -0.0016380280974404278 -0.00069945194213828516 0 -0.0014300426321954452 -0.0010069002321254892 0 -0.0037241625429811124 -0.00098609270183883753 0 -0.0038768498595739853 -0.0010662782952750986 0 -0.0038216338202810675 -0.00098368385873980621 0 -0.0031937689016120307 -0.0011860916032475374 0 -0.0048517875888384509 -0.0010409011195983196 0 -0.0031937689016120307 -0.0011860916032475374 0 -0.0037263195716418962 -0.0012199052003163968 0 -0.0026767058479117787 -0.0010929917765032709 0 -0.0027694588998921476 -0.0012261982515906526 0 -0.0028968145947712519 -0.0011149336749976082 0 -0.0014706503083473353 -0.00070626305860404007 0 -0.0014300426321954452 -0.0010069002321254892 0 -0.0013167119256633931 -0.00084830364939600888 0 -0.0031937689016120307 -0.0011860916032475374 0 -0.0016795691417700763 -0.00097961754962116727 0 9.5775407041506346e-05 -0.00058930224223493945 0 -0.0016795691417700763 -0.00097961754962116727 0 0.00016292015815875326 -0.0005637836950280246 0 -0.0016795691417700763 -0.00097961754962116727 0 -0.0018670423602991598 -0.00014245690753537926 0 0.00081698032247384757 -0.00033516466609892102 0 -0.0012212478383715475 -0.0011712308995616622 0 0.00016292015815875326 -0.0005637836950280246 0 -0.0030601494454742693 -0.0015564536378108531 0 -0.0018503404553499297 -0.0013421208930918143 0 -0.0018904535708895644 -0.0010472554805417162 0 -0.0021891222287327692 -0.00082736407075197701 0 -0.0018503404553499297 -0.0013421208930918143 0 -0.0016426500629752967 -0.0010411832136479025 0 -0.0018904535708895644 -0.0010472554805417162 0 -0.0018904535708895644 -0.0010472554805417162 0 -0.0021891222287327692 -0.00082736407075197701 0 -0.0019201405402746662 -0.00079789825330791003 0 -0.0016795691417700763 -0.00097961754962116727 0 -0.0037263195716418962 -0.0012199052003163968 0 -0.0016426500629752967 -0.0010411832136479025 0 -0.0018904535708895644 -0.0010472554805417162 0 -0.0019201405402746662 -0.00079789825330791003 0 -0.0030601494454742693 -0.0015564536378108531 0 -0.0055175298593997139 -0.0013847952783880278 0 -0.0037263195716418962 -0.0012199052003163968 0 -0.0055175298593997139 -0.0013847952783880278 0 -0.0041196543321078494 -0.0018429789380748794 0 -0.0037019200415368582 -0.0017976660952482889 0 -0.0047351480401083756 -0.00088781230787738719 0 -0.0054455486486232234 -0.0014267766464332269 0 -0.0057927019035911229 -0.0014586040670768201 0 -0.0059468500841548949 -0.0010950164771505509 0 -0.0030601494454742693 -0.0015564536378108531 0 -0.0037263195716418962 -0.0012199052003163968 0 -0.005978648203637465 -0.00086132292091970495 0 -0.0062051705648741981 -0.0010652808045418102 0 -0.0061655004712408701 -0.00068384211823060124 0 -0.0057927019035911229 -0.0014586040670768201 0 -0.0059468500841548949 -0.0010950164771505509 0 -0.0062051705648741981 -0.0010652808045418102 0 -0.0059468500841548949 -0.0010950164771505509 0 -0.005978648203637465 -0.00086132292091970495 0 -0.0062051705648741981 -0.0010652808045418102 0 -0.0059468500841548949 -0.0010950164771505509 0 -0.005978648203637465 -0.00086132292091970495 0 -0.0057191989042057832 -0.00090391902432730372 0 -0.0059468500841548949 -0.0010950164771505509 0 -0.0057191989042057832 -0.00090391902432730372 0 -0.0054587139965187378 -0.0011020411741354734 0 -0.005358336473818435 -0.00096622939648951915 0 -0.0057191989042057832 -0.00090391902432730372 0 -0.0058753261434494244 -0.00057572397033860481 0 -0.0054455486486232234 -0.0014267766464332269 0 -0.0059468500841548949 -0.0010950164771505509 0 -0.0052090899128655914 -0.0010955256180536586 0 -0.0060818116559126457 -0.0010970229764828527 0 -0.0048517875888384509 -0.0010409011195983196 0 -0.005358336473818435 -0.00096622939648951915 0 -0.0057191989042057832 -0.00090391902432730372 0 -0.0054587139965187378 -0.0011020411741354734 0 -0.0051333062811442969 -0.00083391710986822464 0 -0.0048517875888384509 -0.0010409011195983196 0 0.00081698032247384757 -0.00033516466609892102 0 0.0011692258893931222 -0.00090570485204036319 0 0.0035229659248002514 -0.00033624328610395142 0 -0.0022206167221107184 -0.0017745317998307578 0 -0.0011132854196666752 -0.0016114858578924536 0 -0.0058213276054939435 -0.0025138920565751783 0 -0.0055404907248045318 -0.0026113268844716437 0 -0.005902538466873412 -0.0025521487692504855 0 -0.0057547069629476913 -0.0024943786408015561 0 -0.0057695390479023953 -0.0023776690383538169 0 -0.0058802162414499284 -0.0024170787348535257 0 -0.0056724357207844738 -0.002434158097279677 0 -0.0057547069629476913 -0.0024943786408015561 0 -0.0057695390479023953 -0.0023776690383538169 0 -0.0056724357207844738 -0.002434158097279677 0 -0.0057547069629476913 -0.0024943786408015561 0 -0.0056362757772729062 -0.0025014562229803993 0 -0.0057547069629476913 -0.0024943786408015561 0 -0.0058213276054939435 -0.0025138920565751783 0 -0.0058802162414499284 -0.0024170787348535257 0 -0.0057547069629476913 -0.0024943786408015561 0 -0.0058213276054939435 -0.0025138920565751783 0 -0.0055404907248045318 -0.0026113268844716437 0 -0.0055404907248045318 -0.0026113268844716437 0 -0.0056362757772729062 -0.0025014562229803993 0 -0.0055439609631893769 -0.0024483179973885708 0 -0.0057547069629476913 -0.0024943786408015561 0 -0.0055404907248045318 -0.0026113268844716437 0 -0.0056362757772729062 -0.0025014562229803993 0 -0.0056724357207844738 -0.002434158097279677 0 -0.0055439609631893769 -0.0024483179973885708 0 -0.0056537729387297862 -0.0023449727770475204 0 -0.0056724357207844738 -0.002434158097279677 0 -0.0056362757772729062 -0.0025014562229803993 0 -0.0055439609631893769 -0.0024483179973885708 0 -0.0030601494454742693 -0.0015564536378108531 0 -0.0022206167221107184 -0.0017745317998307578 0 -0.0049905012203886453 -0.0025550497389396827 0 -0.0055404907248045318 -0.0026113268844716437 0 -0.0053432938654846577 -0.0024290718911191482 0 0.00081698032247384757 -0.00033516466609892102 0 -0.0012212478383715475 -0.0011712308995616622 0 0.0011692258893931222 -0.00090570485204036319 0 -0.0055404907248045318 -0.0026113268844716437 0 -0.0055439609631893769 -0.0024483179973885708 0 -0.0053432938654846577 -0.0024290718911191482 0 -0.0055439609631893769 -0.0024483179973885708 0 -0.0053432938654846577 -0.0024290718911191482 0 -0.0054463573554244492 -0.0023752078518766147 0 -0.0049905012203886453 -0.0025550497389396827 0 -0.0053432938654846577 -0.0024290718911191482 0 -0.0051891180375961731 -0.0022812643824269576 0 -0.0055175298593997139 -0.0013847952783880278 0 -0.006530662218423266 -0.00060492801404475214 0 -0.0055175298593997139 -0.0013847952783880278 0 -0.0060882841715876514 -0.0014842017915732383 0 -0.0051891180375961731 -0.0022812643824269576 0 -0.0054521606952294428 -0.002189064127149021 0 -0.0056137399229916687 -0.001922409196321394 0 -0.0053432938654846577 -0.0024290718911191482 0 -0.0051891180375961731 -0.0022812643824269576 0 -0.0053818549936895761 -0.0023163177925815477 0 -0.0051891180375961731 -0.0022812643824269576 0 -0.0054521606952294428 -0.002189064127149021 0 -0.0053818549936895761 -0.0023163177925815477 0 -0.0054521606952294428 -0.002189064127149021 0 -0.0053818549936895761 -0.0023163177925815477 0 -0.0055152161857646848 -0.002307319859541049 0 -0.0053432938654846577 -0.0024290718911191482 0 -0.0053818549936895761 -0.0023163177925815477 0 -0.0054463573554244492 -0.0023752078518766147 0 -0.0053818549936895761 -0.0023163177925815477 0 -0.0054463573554244492 -0.0023752078518766147 0 -0.0055152161857646848 -0.002307319859541049 0 -0.0055439609631893769 -0.0024483179973885708 0 -0.0055152161857646848 -0.002307319859541049 0 -0.0056537729387297862 -0.0023449727770475204 0 -0.0055439609631893769 -0.0024483179973885708 0 -0.0054463573554244492 -0.0023752078518766147 0 -0.0055152161857646848 -0.002307319859541049 0 -0.0055152161857646848 -0.002307319859541049 0 -0.0056537729387297862 -0.0023449727770475204 0 -0.0055981110274157461 -0.0022264722228625424 0 -0.0056537729387297862 -0.0023449727770475204 0 -0.0055981110274157461 -0.0022264722228625424 0 -0.0057495333316749915 -0.0022584173869831933 0 -0.0054521606952294428 -0.002189064127149021 0 -0.0055152161857646848 -0.002307319859541049 0 -0.0055981110274157461 -0.0022264722228625424 0 -0.0054521606952294428 -0.002189064127149021 0 -0.0055843895019521451 -0.002108726701171335 0 -0.0056137399229916687 -0.001922409196321394 0 -0.0054521606952294428 -0.002189064127149021 0 -0.0055843895019521451 -0.002108726701171335 0 -0.0055981110274157461 -0.0022264722228625424 0 -0.0055843895019521451 -0.002108726701171335 0 -0.0057031801993560555 -0.0021419404786169488 0 -0.0056568948403435413 -0.0020482526139389062 0 -0.0055843895019521451 -0.002108726701171335 0 -0.0055981110274157461 -0.0022264722228625424 0 -0.0057031801993560555 -0.0021419404786169488 0 -0.0055981110274157461 -0.0022264722228625424 0 -0.0057031801993560555 -0.0021419404786169488 0 -0.0057495333316749915 -0.0022584173869831933 0 -0.0057031801993560555 -0.0021419404786169488 0 -0.0057761759330555518 -0.0020491849299482516 0 -0.0056568948403435413 -0.0020482526139389062 0 -0.0057031801993560555 -0.0021419404786169488 0 -0.0058685777974655023 -0.0021584303498498564 0 -0.0057761759330555518 -0.0020491849299482516 0 -0.0057031801993560555 -0.0021419404786169488 0 -0.0058685777974655023 -0.0021584303498498564 0 -0.0057495333316749915 -0.0022584173869831933 0 -0.0058685777974655023 -0.0021584303498498564 0 -0.0057495333316749915 -0.0022584173869831933 0 -0.005871037784502319 -0.0022954318255958253 0 -0.0056537729387297862 -0.0023449727770475204 0 -0.0057495333316749915 -0.0022584173869831933 0 -0.0057695390479023953 -0.0023776690383538169 0 -0.0056724357207844738 -0.002434158097279677 0 -0.0056537729387297862 -0.0023449727770475204 0 -0.0057695390479023953 -0.0023776690383538169 0 -0.0057495333316749915 -0.0022584173869831933 0 -0.0057695390479023953 -0.0023776690383538169 0 -0.005871037784502319 -0.0022954318255958253 0 -0.0057695390479023953 -0.0023776690383538169 0 -0.005871037784502319 -0.0022954318255958253 0 -0.0058802162414499284 -0.0024170787348535257 0 -0.0057761759330555518 -0.0020491849299482516 0 -0.0056137399229916687 -0.001922409196321394 0 -0.0059914097374585886 -0.0020101689268947616 0 -0.0058685777974655023 -0.0021584303498498564 0 -0.0057761759330555518 -0.0020491849299482516 0 -0.0059914097374585886 -0.0020101689268947616 0 -0.0057761759330555518 -0.0020491849299482516 0 -0.0056137399229916687 -0.001922409196321394 0 -0.0056568948403435413 -0.0020482526139389062 0 -0.0055843895019521451 -0.002108726701171335 0 -0.0056137399229916687 -0.001922409196321394 0 -0.0056568948403435413 -0.0020482526139389062 0 -0.0059042524819725248 -0.0014815866909305584 0 -0.0065692215937561624 -0.00088983744280980281 0 -0.0063668607168679862 -0.0007686130048068727 0 -0.0062051705648741981 -0.0010652808045418102 0 -0.006512022684483228 -0.0005474647847785683 0 -0.0061655004712408701 -0.00068384211823060124 0 -0.006512022684483228 -0.0005474647847785683 0 -0.0062259207878948885 -0.00041747303294268018 0 -0.0061655004712408701 -0.00068384211823060124 0 -0.0062259207878948885 -0.00041747303294268018 0 -0.0062936734369313414 -0.00016173399768211388 0 -0.0064786972073297431 -0.00026333067209441277 0 -0.0062259207878948885 -0.00041747303294268018 0 -0.0062936734369313414 -0.00016173399768211388 0 -0.0060134995488526893 -0.00023061442542878429 0 -0.0062936734369313414 -0.00016173399768211388 0 -0.0064786972073297431 -0.00026333067209441277 0 -0.0065241824902291679 -2.1167626279144961e-05 0 -0.006512022684483228 -0.0005474647847785683 0 -0.0062259207878948885 -0.00041747303294268018 0 -0.0064786972073297431 -0.00026333067209441277 0 -0.0065692215937561624 -0.00088983744280980281 0 -0.0068176605452388312 -0.00010075873772147443 0 -0.007173883038035578 -0.00032981595407483526 0 -0.006512022684483228 -0.0005474647847785683 0 -0.0064786972073297431 -0.00026333067209441277 0 -0.0068176605452388312 -0.00010075873772147443 0 -0.006530662218423266 -0.00060492801404475214 0 -0.0067648573471293409 -0.00015643259985061915 0 -0.0065692215937561624 -0.00088983744280980281 0 -0.0063668607168679862 -0.0007686130048068727 0 -0.0068176605452388312 -0.00010075873772147443 0 -0.0064786972073297431 -0.00026333067209441277 0 -0.0068176605452388312 -0.00010075873772147443 0 -0.0065241824902291679 -2.1167626279144961e-05 0 -0.0054925072105922075 -0.00055318333256023505 0 -0.0058753261434494244 -0.00057572397033860481 0 -0.0057236786463995088 -0.00022402055071828379 0 -0.0051333062811442969 -0.00083391710986822464 0 -0.0059156734838167512 -0.00061742529768773135 0 -0.0053864806201281198 -0.00098272909813266899 0 -0.0054925072105922075 -0.00055318333256023505 0 -0.0058753261434494244 -0.00057572397033860481 0 -0.005978648203637465 -0.00086132292091970495 0 -0.0057191989042057832 -0.00090391902432730372 0 -0.0058753261434494244 -0.00057572397033860481 0 -0.005978648203637465 -0.00086132292091970495 0 -0.0061655004712408701 -0.00068384211823060124 0 -0.0058753261434494244 -0.00057572397033860481 0 -0.0062259207878948885 -0.00041747303294268018 0 -0.0061655004712408701 -0.00068384211823060124 0 -0.0058753261434494244 -0.00057572397033860481 0 -0.0058753261434494244 -0.00057572397033860481 0 -0.0060134995488526893 -0.00023061442542878429 0 -0.0057236786463995088 -0.00022402055071828379 0 -0.0062259207878948885 -0.00041747303294268018 0 -0.0058753261434494244 -0.00057572397033860481 0 -0.0060134995488526893 -0.00023061442542878429 0 -0.0062936734369313414 -0.00016173399768211388 0 -0.0060134995488526893 -0.00023061442542878429 0 -0.00613716013887946 2.4290999479446597e-05 0 -0.0060134995488526893 -0.00023061442542878429 0 -0.0057236786463995088 -0.00022402055071828379 0 -0.0059083864901090175 4.1208581496431027e-05 0 -0.0053402617048368232 6.658909406261288e-06 0 -0.005298646561939525 -0.00031807605322205446 0 -0.0057236786463995088 -0.00022402055071828379 0 -0.005298646561939525 -0.00031807605322205446 0 -0.0054925072105922075 -0.00055318333256023505 0 -0.0057236786463995088 -0.00022402055071828379 0 -0.0053402617048368232 6.658909406261288e-06 0 -0.0057236786463995088 -0.00022402055071828379 0 -0.005678343206229711 5.923759505002543e-05 0 -0.0053402617048368232 6.658909406261288e-06 0 -0.0053683143787444923 0.00060728149650077397 0 -0.005678343206229711 5.923759505002543e-05 0 -0.0057236786463995088 -0.00022402055071828379 0 -0.005678343206229711 5.923759505002543e-05 0 -0.0059083864901090175 4.1208581496431027e-05 0 -0.005678343206229711 5.923759505002543e-05 0 -0.0058610440662599725 0.00025020469033393169 0 -0.0059083864901090175 4.1208581496431027e-05 0 -0.0055716005602074953 0.0003436129101225783 0 -0.0058610440662599725 0.00025020469033393169 0 -0.0061154742714512426 0.00047248163197094402 0 -0.0054714387469678898 0.00047035066452440867 0 -0.0056635964819755991 8.252221918492823e-05 0 -0.0055716005602074953 0.0003436129101225783 0 -0.005678343206229711 5.923759505002543e-05 0 -0.0058610440662599725 0.00025020469033393169 0 -0.0061828002510918535 0.00021540503037049648 0 -0.0063509729394977087 0.00036615295325424048 0 -0.0061154742714512426 0.00047248163197094402 0 -0.0058610440662599725 0.00025020469033393169 0 -0.0061828002510918535 0.00021540503037049648 0 -0.0061154742714512426 0.00047248163197094402 0 -0.0061609242021594237 0.00023428470931570637 0 -0.0059522970771566227 6.7920690664671884e-05 0 -0.0058610440662599725 0.00025020469033393169 0 -0.0061828002510918535 0.00021540503037049648 0 -0.0059083864901090175 4.1208581496431027e-05 0 -0.0061456666261580457 0.00027194594759887968 0 -0.0059083864901090175 4.1208581496431027e-05 0 -0.00613716013887946 2.4290999479446597e-05 0 -0.0060134995488526893 -0.00023061442542878429 0 -0.0059083864901090175 4.1208581496431027e-05 0 -0.00613716013887946 2.4290999479446597e-05 0 -0.0062936734369313414 -0.00016173399768211388 0 -0.00613716013887946 2.4290999479446597e-05 0 -0.0063069519464824895 6.0741876579436784e-05 0 -0.0062936734369313414 -0.00016173399768211388 0 -0.0063069519464824895 6.0741876579436784e-05 0 -0.0065241824902291679 -2.1167626279144961e-05 0 -0.0063069519464824895 6.0741876579436784e-05 0 -0.0064400475561510635 0.00018736605202061008 0 -0.0065241824902291679 -2.1167626279144961e-05 0 -0.0061456666261580457 0.00027194594759887968 0 -0.0063069519464824895 6.0741876579436784e-05 0 -0.0064400475561510635 0.00018736605202061008 0 -0.0061456666261580457 0.00027194594759887968 0 -0.00613716013887946 2.4290999479446597e-05 0 -0.0063069519464824895 6.0741876579436784e-05 0 -0.0068176605452388312 -0.00010075873772147443 0 -0.0065241824902291679 -2.1167626279144961e-05 0 -0.006699951026116085 0.00017674359329181456 0 -0.0064400475561510635 0.00018736605202061008 0 -0.0065241824902291679 -2.1167626279144961e-05 0 -0.006699951026116085 0.00017674359329181456 0 -0.0068176605452388312 -0.00010075873772147443 0 -0.006699951026116085 0.00017674359329181456 0 -0.0070160466253400711 8.3442669168756273e-05 0 -0.006699951026116085 0.00017674359329181456 0 -0.0064018069363599413 0.00052738688515799868 0 -0.0070147012331019196 0.00035596711276856792 0 -0.006939823753706921 -0.00030087282270201918 0 -0.00822833485515451 -2.0824751425813295e-05 0 -0.0082282242000752698 -0.00071752448496080045 0 -0.006682771619415123 0.00015376286243678754 0 -0.0076907033765480203 -0.00019933489516672719 0 -0.0061609242021594237 0.00023428470931570637 0 -0.006682771619415123 0.00015376286243678754 0 -0.0061456666261580457 0.00027194594759887968 0 -0.0064400475561510635 0.00018736605202061008 0 -0.0064018069363599413 0.00052738688515799868 0 -0.0064400475561510635 0.00018736605202061008 0 -0.006699951026116085 0.00017674359329181456 0 -0.0064018069363599413 0.00052738688515799868 0 -0.0069416763879481249 0.00010686819026525642 0 -0.0068038387514193456 0.00077755137247257462 0 -0.00764563758216622 0.00065952074807357067 0 -0.006682771619415123 0.00015376286243678754 0 -0.0061371110952132052 0.00045934874959040542 0 -0.0069416763879481249 0.00010686819026525642 0 -0.0068038387514193456 0.00077755137247257462 0 -0.0061154742714512426 0.00047248163197094402 0 -0.006682771619415123 0.00015376286243678754 0 -0.0077603688164254491 0.00056673298128232907 0 -0.006939823753706921 -0.00030087282270201918 0 -0.0077903273380490684 0.00049043840618307496 0 -0.00822833485515451 -2.0824751425813295e-05 0 -0.00764563758216622 0.00065952074807357067 0 -0.0077292393730765616 0.0012698629739271387 0 -0.007085214297975242 0.0013476629051876439 0 -0.0068038387514193456 0.00077755137247257462 0 -0.00764563758216622 0.00065952074807357067 0 -0.007085214297975242 0.0013476629051876439 0 -0.0068038387514193456 0.00077755137247257462 0 -0.0063139762376244087 0.0012217699148655088 0 -0.007085214297975242 0.0013476629051876439 0 -0.0063139762376244087 0.0012217699148655088 0 -0.005804181759549107 0.0009236689275867355 0 -0.0061154742714512426 0.00047248163197094402 0 -0.0063139762376244087 0.0012217699148655088 0 -0.005804181759549107 0.0009236689275867355 0 -0.0055832331620200536 0.0016483907673695679 0 -0.0055716005602074953 0.0003436129101225783 0 -0.005804181759549107 0.0009236689275867355 0 -0.0061154742714512426 0.00047248163197094402 0 -0.0068038387514193456 0.00077755137247257462 0 -0.0063139762376244087 0.0012217699148655088 0 -0.0061154742714512426 0.00047248163197094402 0 -0.010079337348087405 0.00031382210800438951 0 -0.0095778911110880535 -3.9080550337689617e-05 0 -0.0096201913414473757 0.00066208209635627824 0 -0.010079337348087405 0.00031382210800438951 0 -0.0095778911110880535 -3.9080550337689617e-05 0 -0.010357505213647587 -0.00017729188790720229 0 -0.010079337348087405 0.00031382210800438951 0 -0.010357505213647587 -0.00017729188790720229 0 -0.010909025661125501 0.00055221654251900348 0 -0.010079337348087405 0.00031382210800438951 0 -0.010288900479334012 0.0007856641083912035 0 -0.010909025661125501 0.00055221654251900348 0 -0.010288900479334012 0.0007856641083912035 0 -0.0096201913414473757 0.00066208209635627824 0 -0.0097079242056476948 0.001014615408598322 0 -0.010079337348087405 0.00031382210800438951 0 -0.010288900479334012 0.0007856641083912035 0 -0.0096201913414473757 0.00066208209635627824 0 -0.0084875921040886669 0.0012440077076580425 0 -0.0087676714347893672 0.00056706785638477504 0 -0.0087857989050709063 0.001551485647167871 0 -0.0089012084861967017 0.00041535931186272311 0 -0.008945430699586367 0.001436903219705833 0 -0.0096201913414473757 0.00066208209635627824 0 -0.0090473691153580768 0.00035705770552982226 0 -0.0091876666244496367 0.0011598270242995329 0 -0.00764563758216622 0.00065952074807357067 0 -0.0077292393730765616 0.0012698629739271387 0 -0.0084875921040886669 0.0012440077076580425 0 -0.0077903273380490684 0.00049043840618307496 0 -0.0084875921040886669 0.0012440077076580425 0 -0.0087676714347893672 0.00056706785638477504 0 -0.0077603688164254491 0.00056673298128232907 0 -0.0084357782548920759 0.001216653232334237 0 -0.0077903273380490684 0.00049043840618307496 0 -0.00822833485515451 -2.0824751425813295e-05 0 -0.0087676714347893672 0.00056706785638477504 0 -0.00822833485515451 -2.0824751425813295e-05 0 -0.0087676714347893672 0.00056706785638477504 0 -0.0087861841293058289 -0.00048599730886269259 0 -0.0095778911110880535 -3.9080550337689617e-05 0 -0.0090473691153580768 0.00035705770552982226 0 -0.0087861841293058289 -0.00048599730886269259 0 -0.0095778911110880535 -3.9080550337689617e-05 0 -0.0096201913414473757 0.00066208209635627824 0 -0.0090473691153580768 0.00035705770552982226 0 -0.0089012084861967017 0.00041535931186272311 0 -0.0087959847889109068 -0.00042294082123208772 0 -0.0095778911110880535 -3.9080550337689617e-05 0 -0.0087861841293058289 -0.00048599730886269259 0 -0.0094934272687096123 -0.0010565994974414657 0 -0.0076907033765480203 -0.00019933489516672719 0 -0.0082634181317766293 -0.00040004678993154887 0 -0.0087861841293058289 -0.00048599730886269259 0 -0.0082282242000752698 -0.00071752448496080045 0 -0.0094934272687096123 -0.0010565994974414657 0 -0.00822833485515451 -2.0824751425813295e-05 0 -0.0087861841293058289 -0.00048599730886269259 0 -0.0082282242000752698 -0.00071752448496080045 0 -0.006699951026116085 0.00017674359329181456 0 -0.0070147012331019196 0.00035596711276856792 0 -0.0070160466253400711 8.3442669168756273e-05 0 -0.0070147012331019196 0.00035596711276856792 0 -0.0070160466253400711 8.3442669168756273e-05 0 -0.0072981583278649616 6.4800072373542763e-05 0 -0.0070160466253400711 8.3442669168756273e-05 0 -0.0072981583278649616 6.4800072373542763e-05 0 -0.007173883038035578 -0.00032981595407483526 0 -0.0068176605452388312 -0.00010075873772147443 0 -0.0070160466253400711 8.3442669168756273e-05 0 -0.007173883038035578 -0.00032981595407483526 0 -0.0070147012331019196 0.00035596711276856792 0 -0.0072981583278649616 6.4800072373542763e-05 0 -0.0077032182910591529 0.00014881682749645598 0 -0.0082634181317766293 -0.00040004678993154887 0 -0.0066420996588099097 -0.00077061508545118616 0 -0.0072981583278649616 6.4800072373542763e-05 0 -0.0077032182910591529 0.00014881682749645598 0 -0.007173883038035578 -0.00032981595407483526 0 -0.0075331235779285133 -0.00026685205350957572 0 -0.0087328295154197096 -0.00077597969606838359 0 -0.0079361219918993448 -0.0012508470043071059 0 -0.0082634181317766293 -0.00040004678993154887 0 -0.0084913184636976179 -0.00069955305126041399 0 -0.0082634181317766293 -0.00040004678993154887 0 -0.0097128781923573205 -9.716554232445479e-05 0 -0.0080763629213899436 -0.0005568308730803563 0 -0.0089266332441682895 0.00010434700785081938 0 -0.0087328295154197096 -0.00077597969606838359 0 -0.0095778911110880535 -3.9080550337689617e-05 0 -0.0094934272687096123 -0.0010565994974414657 0 -0.010357505213647587 -0.00017729188790720229 0 -0.0089266332441682895 0.00010434700785081938 0 -0.0087328295154197096 -0.00077597969606838359 0 -0.0096809867026525307 -0.00062347087625893368 0 -0.0087328295154197096 -0.00077597969606838359 0 -0.0085826037006610303 -0.0017070827523014171 0 -0.0093903099885037783 -0.0015612048560695866 0 -0.0087328295154197096 -0.00077597969606838359 0 -0.0085826037006610303 -0.0017070827523014171 0 -0.0079361219918993448 -0.0012508470043071059 0 -0.0075331235779285133 -0.00026685205350957572 0 -0.0079361219918993448 -0.0012508470043071059 0 -0.0071979311959890421 -0.001526169280222627 0 -0.0079361219918993448 -0.0012508470043071059 0 -0.0078647906563646224 -0.0019540707587720925 0 -0.0071979311959890421 -0.001526169280222627 0 -0.0085826037006610303 -0.0017070827523014171 0 -0.0079361219918993448 -0.0012508470043071059 0 -0.0078647906563646224 -0.0019540707587720925 0 -0.0078647906563646224 -0.0019540707587720925 0 -0.0084478910132710291 -0.0025234157477396911 0 -0.0072997688266830743 -0.0025991831394815254 0 -0.0085826037006610303 -0.0017070827523014171 0 -0.0078647906563646224 -0.0019540707587720925 0 -0.0084478910132710291 -0.0025234157477396911 0 -0.0085826037006610303 -0.0017070827523014171 0 -0.0090696470595727306 -0.0022460926822356325 0 -0.0093903099885037783 -0.0015612048560695866 0 -0.0085826037006610303 -0.0017070827523014171 0 -0.0090696470595727306 -0.0022460926822356325 0 -0.0084478910132710291 -0.0025234157477396911 0 -0.0060882841715876514 -0.0014842017915732383 0 -0.0066420996588099097 -0.00077061508545118616 0 -0.0075331235779285133 -0.00026685205350957572 0 -0.0062818899682718704 -0.0012903613574201638 0 -0.0071979311959890421 -0.001526169280222627 0 -0.0062818899682718704 -0.0012903613574201638 0 -0.0071979311959890421 -0.001526169280222627 0 -0.0063230719423840263 -0.0017650072711324354 0 -0.0078647906563646224 -0.0019540707587720925 0 -0.0071979311959890421 -0.001526169280222627 0 -0.0072997688266830743 -0.0025991831394815254 0 -0.0071979311959890421 -0.001526169280222627 0 -0.0072997688266830743 -0.0025991831394815254 0 -0.0063230719423840263 -0.0017650072711324354 0 -0.0068989405219556932 -0.0023783310548762685 0 -0.006319684272912799 -0.0017923710026931962 0 -0.0063744632806098083 -0.0021043732228925331 0 -0.0063230719423840263 -0.0017650072711324354 0 -0.0062133776091958456 -0.0020512354260056784 0 -0.0056137399229916687 -0.001922409196321394 0 -0.0062818899682718704 -0.0012903613574201638 0 -0.0063230719423840263 -0.0017650072711324354 0 -0.0056137399229916687 -0.001922409196321394 0 -0.0063230719423840263 -0.0017650072711324354 0 -0.0059914097374585886 -0.0020101689268947616 0 -0.0063230719423840263 -0.0017650072711324354 0 -0.0062133776091958456 -0.0020512354260056784 0 -0.0059914097374585886 -0.0020101689268947616 0 -0.0062133776091958456 -0.0020512354260056784 0 -0.0059914097374585886 -0.0020101689268947616 0 -0.006032187291397418 -0.0021351200313630904 0 -0.0059856795377614793 -0.0023226316724100698 0 -0.005871037784502319 -0.0022954318255958253 0 -0.0058802162414499284 -0.0024170787348535257 0 -0.0059856795377614793 -0.0023226316724100698 0 -0.0059698223854991531 -0.0022267242244038209 0 -0.0061072590873272993 -0.0022238683437089436 0 -0.0059856795377614793 -0.0023226316724100698 0 -0.005871037784502319 -0.0022954318255958253 0 -0.0059698223854991531 -0.0022267242244038209 0 -0.0058685777974655023 -0.0021584303498498564 0 -0.006032187291397418 -0.0021351200313630904 0 -0.0059698223854991531 -0.0022267242244038209 0 -0.0058685777974655023 -0.0021584303498498564 0 -0.005871037784502319 -0.0022954318255958253 0 -0.0059698223854991531 -0.0022267242244038209 0 -0.0058685777974655023 -0.0021584303498498564 0 -0.0059914097374585886 -0.0020101689268947616 0 -0.006032187291397418 -0.0021351200313630904 0 -0.006032187291397418 -0.0021351200313630904 0 -0.0059698223854991531 -0.0022267242244038209 0 -0.0061072590873272993 -0.0022238683437089436 0 -0.0062133776091958456 -0.0020512354260056784 0 -0.006032187291397418 -0.0021351200313630904 0 -0.0061072590873272993 -0.0022238683437089436 0 -0.0062133776091958456 -0.0020512354260056784 0 -0.0061072590873272993 -0.0022238683437089436 0 -0.0062521263900122909 -0.0021884142134378694 0 -0.0059856795377614793 -0.0023226316724100698 0 -0.0061072590873272993 -0.0022238683437089436 0 -0.0060746171919709435 -0.0023518707095013542 0 -0.0059856795377614793 -0.0023226316724100698 0 -0.0060746171919709435 -0.0023518707095013542 0 -0.0059965756398135377 -0.0024268078273751354 0 -0.0061072590873272993 -0.0022238683437089436 0 -0.0060746171919709435 -0.0023518707095013542 0 -0.0061867651342103237 -0.002341339548268147 0 -0.0061072590873272993 -0.0022238683437089436 0 -0.0061867651342103237 -0.002341339548268147 0 -0.0062521263900122909 -0.0021884142134378694 0 -0.0061867651342103237 -0.002341339548268147 0 -0.0062521263900122909 -0.0021884142134378694 0 -0.0063666503035973987 -0.0023341156731880551 0 -0.0063744632806098083 -0.0021043732228925331 0 -0.0062133776091958456 -0.0020512354260056784 0 -0.0062521263900122909 -0.0021884142134378694 0 -0.0063744632806098083 -0.0021043732228925331 0 -0.0062521263900122909 -0.0021884142134378694 0 -0.0063666503035973987 -0.0023341156731880551 0 -0.006421620963478784 -0.0025948196389922267 0 -0.0062439468482204377 -0.002502793995059936 0 -0.0060397632407712971 -0.0026009482940504516 0 -0.006421620963478784 -0.0025948196389922267 0 -0.0063666503035973987 -0.0023341156731880551 0 -0.0062439468482204377 -0.002502793995059936 0 -0.0021111313139589825 -0.00075776062879277361 0 -0.0011132854196666752 -0.0016114858578924536 0 -0.0062439468482204377 -0.002502793995059936 0 -0.0060928545341356489 -0.002514100965801866 0 -0.0060397632407712971 -0.0026009482940504516 0 -0.0062439468482204377 -0.002502793995059936 0 -0.0061466775052167726 -0.0024592771166140432 0 -0.0060928545341356489 -0.002514100965801866 0 -0.0061867651342103237 -0.002341339548268147 0 -0.0062439468482204377 -0.002502793995059936 0 -0.0061466775052167726 -0.0024592771166140432 0 -0.0061867651342103237 -0.002341339548268147 0 -0.0063666503035973987 -0.0023341156731880551 0 -0.0062439468482204377 -0.002502793995059936 0 -0.0055404907248045318 -0.0026113268844716437 0 -0.0060397632407712971 -0.0026009482940504516 0 -0.005902538466873412 -0.0025521487692504855 0 0.0011692258893931222 -0.00090570485204036319 0 0.0035229659248002514 -0.00033624328610395142 0 0.0036169851992756108 -0.00048570968213141436 0 -0.0060746171919709435 -0.0023518707095013542 0 -0.0061867651342103237 -0.002341339548268147 0 -0.0060848343613141556 -0.0024330391283648983 0 -0.0061867651342103237 -0.002341339548268147 0 -0.0061466775052167726 -0.0024592771166140432 0 -0.0060848343613141556 -0.0024330391283648983 0 -0.0060746171919709435 -0.0023518707095013542 0 -0.0060848343613141556 -0.0024330391283648983 0 -0.0059965756398135377 -0.0024268078273751354 0 -0.0060848343613141556 -0.0024330391283648983 0 -0.0060054717499135671 -0.0025053763365615223 0 -0.0060928545341356489 -0.002514100965801866 0 -0.0060848343613141556 -0.0024330391283648983 0 -0.0060054717499135671 -0.0025053763365615223 0 -0.0059965756398135377 -0.0024268078273751354 0 -0.0061466775052167726 -0.0024592771166140432 0 -0.0060848343613141556 -0.0024330391283648983 0 -0.0060928545341356489 -0.002514100965801866 0 -0.0060054717499135671 -0.0025053763365615223 0 -0.0060928545341356489 -0.002514100965801866 0 -0.0060119281038165774 -0.0025426199310477791 0 -0.0060397632407712971 -0.0026009482940504516 0 -0.0060119281038165774 -0.0025426199310477791 0 -0.005902538466873412 -0.0025521487692504855 0 -0.0060928545341356489 -0.002514100965801866 0 -0.0060397632407712971 -0.0026009482940504516 0 -0.0060119281038165774 -0.0025426199310477791 0 -0.0060054717499135671 -0.0025053763365615223 0 -0.0060119281038165774 -0.0025426199310477791 0 -0.005902538466873412 -0.0025521487692504855 0 -0.0058213276054939435 -0.0025138920565751783 0 -0.0059241824351661688 -0.0024816501799728129 0 -0.0058802162414499284 -0.0024170787348535257 0 -0.0058213276054939435 -0.0025138920565751783 0 -0.005902538466873412 -0.0025521487692504855 0 -0.0059241824351661688 -0.0024816501799728129 0 -0.0060054717499135671 -0.0025053763365615223 0 -0.0059241824351661688 -0.0024816501799728129 0 -0.0059965756398135377 -0.0024268078273751354 0 -0.0060054717499135671 -0.0025053763365615223 0 -0.005902538466873412 -0.0025521487692504855 0 -0.0059241824351661688 -0.0024816501799728129 0 -0.0059856795377614793 -0.0023226316724100698 0 -0.0059965756398135377 -0.0024268078273751354 0 -0.0058802162414499284 -0.0024170787348535257 0 -0.0059241824351661688 -0.0024816501799728129 0 -0.0059965756398135377 -0.0024268078273751354 0 -0.0058802162414499284 -0.0024170787348535257 0 -0.0082393508847314178 -0.0030768508254488095 0 -0.0087061133892169466 -0.0034935797592188793 0 -0.0091454501134147475 -0.0028608410622328745 0 -0.0090696470595727306 -0.0022460926822356325 0 -0.0084478910132710291 -0.0025234157477396911 0 -0.0091454501134147475 -0.0028608410622328745 0 -0.0084478910132710291 -0.0025234157477396911 0 -0.0082393508847314178 -0.0030768508254488095 0 -0.0091454501134147475 -0.0028608410622328745 0 -0.00828381206153464 -0.0025797955551516843 0 -0.006869295570270377 -0.0026926037061054263 0 -0.0084478910132710291 -0.0025234157477396911 0 -0.0072997688266830743 -0.0025991831394815254 0 -0.0081435538871840411 -0.0033368195441594245 0 -0.0068989405219556932 -0.0023783310548762685 0 -0.006869295570270377 -0.0026926037061054263 0 -0.0063744632806098083 -0.0021043732228925331 0 -0.0063666503035973987 -0.0023341156731880551 0 -0.0065514915114151364 -0.0023314791387171571 0 -0.006421620963478784 -0.0025948196389922267 0 -0.0063666503035973987 -0.0023341156731880551 0 -0.0065514915114151364 -0.0023314791387171571 0 -0.004790967191283085 -0.0019054191964336985 0 -0.0048212987115191872 -0.0018826851657242148 0 -0.0048362580380070372 -0.0018963905220586287 0 -0.0021111313139589825 -0.00075776062879277361 0 -0.006869295570270377 -0.0026926037061054263 0 -0.0048559617163468514 -0.001912324369515289 0 -0.004790967191283085 -0.0019054191964336985 0 -0.0048362580380070372 -0.0018963905220586287 0 -0.0091552695198404352 -0.0039107544835558679 0 -0.0087061133892169466 -0.0034935797592188793 0 -0.0094053359634719141 -0.0033807892639306702 0 -0.0087061133892169466 -0.0034935797592188793 0 -0.0094053359634719141 -0.0033807892639306702 0 -0.0091454501134147475 -0.0028608410622328745 0 -0.006869295570270377 -0.0026926037061054263 0 -0.006987663027699223 -0.0029338560879843024 0 -0.0046714645887695853 -0.0015847710808541068 0 -0.006987663027699223 -0.0029338560879843024 0 -0.00948426097473936 -0.0039469576440551088 0 -0.0094053359634719141 -0.0033807892639306702 0 -0.01002698585926836 -0.0030065600807447999 0 -0.00948426097473936 -0.0039469576440551088 0 -0.0091552695198404352 -0.0039107544835558679 0 -0.0094053359634719141 -0.0033807892639306702 0 -0.0055527130744988584 -0.00084902133091218767 0 -0.008623725586676503 -0.0017333290075746883 0 -0.0094053359634719141 -0.0033807892639306702 0 -0.0091454501134147475 -0.0028608410622328745 0 -0.01002698585926836 -0.0030065600807447999 0 -0.0091454501134147475 -0.0028608410622328745 0 -0.01002698585926836 -0.0030065600807447999 0 -0.0097551315021604888 -0.0022500337692876547 0 -0.008623725586676503 -0.0017333290075746883 0 -0.0085763298899636624 -0.0011199461965658718 0 -0.0066637866468045428 -0.00021015885178967553 0 -0.0066420670134177146 -0.00021850353500373011 0 -0.0066709005157545827 -0.00025676404923135059 0 -0.0066275414112434055 -0.00015937497376055596 0 -0.0066637866468045428 -0.00021015885178967553 0 -0.0066147808988367392 -0.00018489873681248891 0 -0.0066275414112434055 -0.00015937497376055596 0 -0.0066615409124936653 -0.00017302315469270977 0 -0.0066637866468045428 -0.00021015885178967553 0 -0.0065779010449858203 -0.00014751154135304108 0 -0.0066147808988367392 -0.00018489873681248891 0 -0.0065834690519823002 -0.00018132593302243015 0 -0.0065779010449858203 -0.00014751154135304108 0 -0.0065834690519823002 -0.00018132593302243015 0 -0.0065518817596627423 -0.00016256265574247209 0 -0.0066147808988367392 -0.00018489873681248891 0 -0.0065834690519823002 -0.00018132593302243015 0 -0.0066034489603717271 -0.00021140766003928979 0 -0.0065834690519823002 -0.00018132593302243015 0 -0.0066034489603717271 -0.00021140766003928979 0 -0.0065578167370725906 -0.00019113129329652019 0 -0.0066034489603717271 -0.00021140766003928979 0 -0.0065972725204593678 -0.00024536927993426728 0 -0.0065578167370725906 -0.00019113129329652019 0 -0.0066637866468045428 -0.00021015885178967553 0 -0.0066147808988367392 -0.00018489873681248891 0 -0.0066420670134177146 -0.00021850353500373011 0 -0.0066147808988367392 -0.00018489873681248891 0 -0.0066034489603717271 -0.00021140766003928979 0 -0.0066420670134177146 -0.00021850353500373011 0 -0.0066420670134177146 -0.00021850353500373011 0 -0.0066709005157545827 -0.00025676404923135059 0 -0.0066408403868804681 -0.00027089233017250924 0 -0.0066034489603717271 -0.00021140766003928979 0 -0.0066420670134177146 -0.00021850353500373011 0 -0.0066408403868804681 -0.00027089233017250924 0 -0.0066034489603717271 -0.00021140766003928979 0 -0.0065972725204593678 -0.00024536927993426728 0 -0.0066408403868804681 -0.00027089233017250924 0 -0.0066408403868804681 -0.00027089233017250924 0 -0.0066142295170094345 -0.0003011583934428093 0 -0.0066735719669131534 -0.000323125846008716 0 -0.0065972725204593678 -0.00024536927993426728 0 -0.0066408403868804681 -0.00027089233017250924 0 -0.0066142295170094345 -0.0003011583934428093 0 -0.0066709005157545827 -0.00025676404923135059 0 -0.0066408403868804681 -0.00027089233017250924 0 -0.0066735719669131534 -0.000323125846008716 0 -0.01055417044340076 -0.0019988311527773207 0 -0.010197405635612063 -0.0012912245431031259 0 -0.010995699832419773 -0.0010256049616272662 0 -0.0085763298899636624 -0.0011199461965658718 0 -0.0088425402179805514 -0.00066347144652504058 0 -0.010197405635612063 -0.0012912245431031259 0 -0.0093903099885037783 -0.0015612048560695866 0 -0.0096809867026525307 -0.00062347087625893368 0 -0.010197405635612063 -0.0012912245431031259 0 -0.0093903099885037783 -0.0015612048560695866 0 -0.0097551315021604888 -0.0022500337692876547 0 -0.0090696470595727306 -0.0022460926822356325 0 -0.0093903099885037783 -0.0015612048560695866 0 -0.0097551315021604888 -0.0022500337692876547 0 -0.0090696470595727306 -0.0022460926822356325 0 -0.0091454501134147475 -0.0028608410622328745 0 -0.0097551315021604888 -0.0022500337692876547 0 -0.01055417044340076 -0.0019988311527773207 0 -0.010197405635612063 -0.0012912245431031259 0 -0.0097551315021604888 -0.0022500337692876547 0 -0.01002698585926836 -0.0030065600807447999 0 -0.01055417044340076 -0.0019988311527773207 0 -0.0097551315021604888 -0.0022500337692876547 0 -0.0061920011201580189 0.00018753393850280011 0 -0.0063199461682941971 2.2944036926913254e-05 0 -0.0064668435917468988 -8.9611940482417306e-05 0 -0.0032919413669792925 -0.0003279816837546533 0 -0.0040886607792675073 -0.00064976268904011784 0 -0.00037215204994756285 -0.00082530987339852742 0 -0.00076198785001268339 -0.00079437127326272786 0 -0.0015286009644929599 -0.0013674901731985474 0 -0.0062040273623238697 9.9932812857640706e-06 0 -0.0062805515489452674 -3.3177314935245848e-05 0 -0.0063199461682941971 2.2944036926913254e-05 0 -0.0062040273623238697 9.9932812857640706e-06 0 -0.0062805515489452674 -3.3177314935245848e-05 0 -0.0062761398542862286 -0.00011199365099291795 0 -0.0062805515489452674 -3.3177314935245848e-05 0 -0.0063308437812267691 -5.7346463753893803e-05 0 -0.0063199461682941971 2.2944036926913254e-05 0 -0.0062805515489452674 -3.3177314935245848e-05 0 -0.0063308437812267691 -5.7346463753893803e-05 0 -0.0062761398542862286 -0.00011199365099291795 0 -0.0063308437812267691 -5.7346463753893803e-05 0 -0.0063860976692792096 -0.00012498421029585559 0 -0.0062761398542862286 -0.00011199365099291795 0 -0.0063904334728351522 -4.001072816772469e-05 0 -0.0063199461682941971 2.2944036926913254e-05 0 -0.0064668435917468988 -8.9611940482417306e-05 0 -0.0063308437812267691 -5.7346463753893803e-05 0 -0.0063904334728351522 -4.001072816772469e-05 0 -0.0063860976692792096 -0.00012498421029585559 0 -0.0063308437812267691 -5.7346463753893803e-05 0 -0.0063904334728351522 -4.001072816772469e-05 0 -0.0063199461682941971 2.2944036926913254e-05 0 -0.0061920011201580189 0.00018753393850280011 0 -0.0062040273623238697 9.9932812857640706e-06 0 -0.0063199461682941971 2.2944036926913254e-05 0 -0.00037215204994756285 -0.00082530987339852742 0 -0.00076198785001268339 -0.00079437127326272786 0 -0.00056603220962500502 -0.00039141686633143542 0 -0.00076198785001268339 -0.00079437127326272786 0 -0.00056603220962500502 -0.00039141686633143542 0 -0.0011287545992161633 -0.00032851112424655984 0 -0.00077600077406487057 -0.00076595130663189995 0 -0.0013351863476442278 -0.00016437022196832295 0 -0.00076198785001268339 -0.00079437127326272786 0 -0.0013884209663936799 -0.00076957726777725991 0 -0.0013638669346469734 -0.00014671980285761667 0 -0.0013884209663936799 -0.00076957726777725991 0 -0.0019121948310429758 -0.00027658618574040867 0 -0.0023705684952893577 -0.00081766051502864278 0 -0.0013884209663936799 -0.00076957726777725991 0 -0.0013638669346469734 -0.00014671980285761667 0 -0.0019121948310429758 -0.00027658618574040867 0 -0.0013884209663936799 -0.00076957726777725991 0 -0.0015286009644929599 -0.0013674901731985474 0 -0.0023705684952893577 -0.00081766051502864278 0 -0.00076198785001268339 -0.00079437127326272786 0 -0.0013884209663936799 -0.00076957726777725991 0 -0.0015286009644929599 -0.0013674901731985474 0 -0.00647005808116156 -0.00014794658202287774 0 -0.0064796594619905964 -0.00015115091349693211 0 -0.0065129200374742591 -0.00016918963820914063 0 -0.0064442951684790806 -8.0214637936469236e-05 0 -0.0064668435917468988 -8.9611940482417306e-05 0 -0.0064409399828641379 -0.0001001870995933522 0 -0.0064442951684790806 -8.0214637936469236e-05 0 -0.0064270471206332603 -7.1899053461658288e-05 0 -0.0064409399828641379 -0.0001001870995933522 0 -0.0064668435917468988 -8.9611940482417306e-05 0 -0.0064679887422632561 -0.00011643850755232088 0 -0.0064409399828641379 -0.0001001870995933522 0 -0.0063904334728351522 -4.001072816772469e-05 0 -0.0064442951684790806 -8.0214637936469236e-05 0 -0.0064668435917468988 -8.9611940482417306e-05 0 -0.0063904334728351522 -4.001072816772469e-05 0 -0.0064442951684790806 -8.0214637936469236e-05 0 -0.0064270471206332603 -7.1899053461658288e-05 0 -0.0063904334728351522 -4.001072816772469e-05 0 -0.0064270471206332603 -7.1899053461658288e-05 0 -0.006420426766998672 -0.00010425327189436334 0 -0.0063904334728351522 -4.001072816772469e-05 0 -0.006420426766998672 -0.00010425327189436334 0 -0.0063860976692792096 -0.00012498421029585559 0 -0.0064270471206332603 -7.1899053461658288e-05 0 -0.006420426766998672 -0.00010425327189436334 0 -0.0064409399828641379 -0.0001001870995933522 0 -0.0064679887422632561 -0.00011643850755232088 0 -0.0064473949322240431 -0.00012458666383412652 0 -0.0064670357318350608 -0.000137808913684896 0 -0.0064679887422632561 -0.00011643850755232088 0 -0.0064409399828641379 -0.0001001870995933522 0 -0.0064473949322240431 -0.00012458666383412652 0 -0.006420426766998672 -0.00010425327189436334 0 -0.0064409399828641379 -0.0001001870995933522 0 -0.0064473949322240431 -0.00012458666383412652 0 -0.006420426766998672 -0.00010425327189436334 0 -0.0064473949322240431 -0.00012458666383412652 0 -0.0064498404766939518 -0.00015197363162312226 0 -0.0064473949322240431 -0.00012458666383412652 0 -0.0064670357318350608 -0.000137808913684896 0 -0.0064498404766939518 -0.00015197363162312226 0 -0.0064670357318350608 -0.000137808913684896 0 -0.0064796594619905964 -0.00015115091349693211 0 -0.0064812556955471693 -0.00016646543371993895 0 -0.0064679887422632561 -0.00011643850755232088 0 -0.0064670357318350608 -0.000137808913684896 0 -0.0064796594619905964 -0.00015115091349693211 0 -0.0064796594619905964 -0.00015115091349693211 0 -0.0064989813666416294 -0.00017761882028201686 0 -0.0064812556955471693 -0.00016646543371993895 0 -0.0064668435917468988 -8.9611940482417306e-05 0 -0.0064679887422632561 -0.00011643850755232088 0 -0.0064796594619905964 -0.00015115091349693211 0 -0.0040886607792675073 -0.00064976268904011784 0 -0.005024099174912461 -0.00083071543790969645 0 -0.0040886607792675073 -0.00064976268904011784 0 -0.0043665932725287064 -0.00053850200140592979 0 -0.0065145381054844288 -0.00017928424802150642 0 -0.0065129200374742591 -0.00016918963820914063 0 -0.0065578167370725906 -0.00019113129329652019 0 -0.0064796594619905964 -0.00015115091349693211 0 -0.0065145381054844288 -0.00017928424802150642 0 -0.0064989813666416294 -0.00017761882028201686 0 -0.0065145381054844288 -0.00017928424802150642 0 -0.0065195499795220385 -0.00020074755770679601 0 -0.0064989813666416294 -0.00017761882028201686 0 -0.0064796594619905964 -0.00015115091349693211 0 -0.0065145381054844288 -0.00017928424802150642 0 -0.0065129200374742591 -0.00016918963820914063 0 -0.0024782059093775718 -0.00013599134499687432 0 -0.0023705684952893577 -0.00081766051502864278 0 -0.0031813420001897724 -0.00027361643610626754 0 -0.0024782059093775718 -0.00013599134499687432 0 -0.0019121948310429758 -0.00027658618574040867 0 -0.0023705684952893577 -0.00081766051502864278 0 -0.0065129200374742591 -0.00016918963820914063 0 -0.0065518817596627423 -0.00016256265574247209 0 -0.0065578167370725906 -0.00019113129329652019 0 -0.0043665932725287064 -0.00053850200140592979 0 -0.0051558337511455055 -9.8145153608712721e-05 0 -0.0065834690519823002 -0.00018132593302243015 0 -0.0065518817596627423 -0.00016256265574247209 0 -0.0065578167370725906 -0.00019113129329652019 0 -0.0065145381054844288 -0.00017928424802150642 0 -0.0065578167370725906 -0.00019113129329652019 0 -0.0065517705955678903 -0.00022299514825924156 0 -0.0065972725204593678 -0.00024536927993426728 0 -0.0065578167370725906 -0.00019113129329652019 0 -0.0065517705955678903 -0.00022299514825924156 0 -0.0065517705955678903 -0.00022299514825924156 0 -0.0065805093874223616 -0.00027325539600189021 0 -0.0065505096217803854 -0.00026173833884523368 0 -0.0065972725204593678 -0.00024536927993426728 0 -0.0065517705955678903 -0.00022299514825924156 0 -0.0065805093874223616 -0.00027325539600189021 0 -0.0065972725204593678 -0.00024536927993426728 0 -0.0066142295170094345 -0.0003011583934428093 0 -0.0065805093874223616 -0.00027325539600189021 0 -0.0066142295170094345 -0.0003011583934428093 0 -0.0065845933802054727 -0.00031219843895885561 0 -0.0066012962979620582 -0.00033922097254944543 0 -0.0066142295170094345 -0.0003011583934428093 0 -0.0065805093874223616 -0.00027325539600189021 0 -0.0065845933802054727 -0.00031219843895885561 0 -0.0065845933802054727 -0.00031219843895885561 0 -0.0065561633408657335 -0.00031860119558721679 0 -0.0065738557014652131 -0.00035000951264772167 0 -0.0065845933802054727 -0.00031219843895885561 0 -0.0065634206057233486 -0.00029204474469545199 0 -0.0065561633408657335 -0.00031860119558721679 0 -0.0065805093874223616 -0.00027325539600189021 0 -0.0065634206057233486 -0.00029204474469545199 0 -0.0065505096217803854 -0.00026173833884523368 0 -0.0065805093874223616 -0.00027325539600189021 0 -0.0065845933802054727 -0.00031219843895885561 0 -0.0065634206057233486 -0.00029204474469545199 0 -0.0065505096217803854 -0.00026173833884523368 0 -0.0065355024064558806 -0.0002890482371914642 0 -0.0065146328704706507 -0.00025474305048152655 0 -0.0065634206057233486 -0.00029204474469545199 0 -0.0065505096217803854 -0.00026173833884523368 0 -0.0065355024064558806 -0.0002890482371914642 0 -0.0065355024064558806 -0.0002890482371914642 0 -0.0065561633408657335 -0.00031860119558721679 0 -0.0065361153654591884 -0.00032629624579572054 0 -0.0065634206057233486 -0.00029204474469545199 0 -0.0065355024064558806 -0.0002890482371914642 0 -0.0065561633408657335 -0.00031860119558721679 0 -0.0065561633408657335 -0.00031860119558721679 0 -0.0065361153654591884 -0.00032629624579572054 0 -0.0065501461064157241 -0.00034541840852387581 0 -0.0065355024064558806 -0.0002890482371914642 0 -0.0065361153654591884 -0.00032629624579572054 0 -0.0065047399721489766 -0.00032467335544172232 0 -0.0065355024064558806 -0.0002890482371914642 0 -0.0064891336284012974 -0.00028283542129268937 0 -0.0065047399721489766 -0.00032467335544172232 0 -0.0065361153654591884 -0.00032629624579572054 0 -0.0065047399721489766 -0.00032467335544172232 0 -0.006527192167456574 -0.0003523190618679407 0 -0.0065355024064558806 -0.0002890482371914642 0 -0.0065146328704706507 -0.00025474305048152655 0 -0.0064891336284012974 -0.00028283542129268937 0 -0.0065146328704706507 -0.00025474305048152655 0 -0.0065281728308843479 -0.00022697202930149426 0 -0.0065003111478321085 -0.00019914782844312334 0 -0.0065505096217803854 -0.00026173833884523368 0 -0.0065146328704706507 -0.00025474305048152655 0 -0.0065281728308843479 -0.00022697202930149426 0 -0.0065517705955678903 -0.00022299514825924156 0 -0.0065505096217803854 -0.00026173833884523368 0 -0.0065281728308843479 -0.00022697202930149426 0 -0.0065145381054844288 -0.00017928424802150642 0 -0.0065517705955678903 -0.00022299514825924156 0 -0.0065195499795220385 -0.00020074755770679601 0 -0.0065517705955678903 -0.00022299514825924156 0 -0.0065281728308843479 -0.00022697202930149426 0 -0.0065195499795220385 -0.00020074755770679601 0 -0.0065195499795220385 -0.00020074755770679601 0 -0.0064989813666416294 -0.00017761882028201686 0 -0.0065003111478321085 -0.00019914782844312334 0 -0.0065281728308843479 -0.00022697202930149426 0 -0.0065195499795220385 -0.00020074755770679601 0 -0.0065003111478321085 -0.00019914782844312334 0 -0.0065003111478321085 -0.00019914782844312334 0 -0.0064695347337195234 -0.00019008788959693954 0 -0.0064812556955471693 -0.00016646543371993895 0 -0.0064989813666416294 -0.00017761882028201686 0 -0.0065003111478321085 -0.00019914782844312334 0 -0.0064812556955471693 -0.00016646543371993895 0 -0.0064670357318350608 -0.000137808913684896 0 -0.0064812556955471693 -0.00016646543371993895 0 -0.0064498404766939518 -0.00015197363162312226 0 -0.0064695347337195234 -0.00019008788959693954 0 -0.0064812556955471693 -0.00016646543371993895 0 -0.0064498404766939518 -0.00015197363162312226 0 -0.0064498404766939518 -0.00015197363162312226 0 -0.0064307703267706042 -0.00019624460496763172 0 -0.0063860976692792096 -0.00012498421029585559 0 -0.006420426766998672 -0.00010425327189436334 0 -0.0064498404766939518 -0.00015197363162312226 0 -0.0063860976692792096 -0.00012498421029585559 0 -0.0064695347337195234 -0.00019008788959693954 0 -0.0064498404766939518 -0.00015197363162312226 0 -0.0064307703267706042 -0.00019624460496763172 0 -0.0064307703267706042 -0.00019624460496763172 0 -0.0064745531514181654 -0.00023275149640088351 0 -0.0064186357083631136 -0.00027782695203932032 0 -0.0064695347337195234 -0.00019008788959693954 0 -0.0064307703267706042 -0.00019624460496763172 0 -0.0064745531514181654 -0.00023275149640088351 0 -0.0065146328704706507 -0.00025474305048152655 0 -0.0065003111478321085 -0.00019914782844312334 0 -0.0064745531514181654 -0.00023275149640088351 0 -0.0065003111478321085 -0.00019914782844312334 0 -0.0064695347337195234 -0.00019008788959693954 0 -0.0064745531514181654 -0.00023275149640088351 0 -0.0065146328704706507 -0.00025474305048152655 0 -0.0064745531514181654 -0.00023275149640088351 0 -0.0064891336284012974 -0.00028283542129268937 0 -0.0064891336284012974 -0.00028283542129268937 0 -0.0065047399721489766 -0.00032467335544172232 0 -0.0064582460069849612 -0.00034222323727109302 0 -0.0064745531514181654 -0.00023275149640088351 0 -0.0064891336284012974 -0.00028283542129268937 0 -0.0064186357083631136 -0.00027782695203932032 0 -0.0064891336284012974 -0.00028283542129268937 0 -0.0064582460069849612 -0.00034222323727109302 0 -0.0064186357083631136 -0.00027782695203932032 0 -0.0062514834885366594 -0.00027204450452288895 0 -0.0064186357083631136 -0.00027782695203932032 0 -0.0064057948385011559 -0.00038467775270285462 0 -0.0064582460069849612 -0.00034222323727109302 0 -0.0064186357083631136 -0.00027782695203932032 0 -0.0064057948385011559 -0.00038467775270285462 0 -0.0062514834885366594 -0.00027204450452288895 0 -0.0064186357083631136 -0.00027782695203932032 0 -0.0063560988868256816 -0.00019816029272721602 0 -0.0062514834885366594 -0.00027204450452288895 0 -0.0063560988868256816 -0.00019816029272721602 0 -0.0062761398542862286 -0.00011199365099291795 0 -0.0064307703267706042 -0.00019624460496763172 0 -0.0064186357083631136 -0.00027782695203932032 0 -0.0063560988868256816 -0.00019816029272721602 0 -0.0063560988868256816 -0.00019816029272721602 0 -0.0063860976692792096 -0.00012498421029585559 0 -0.0062761398542862286 -0.00011199365099291795 0 -0.0064307703267706042 -0.00019624460496763172 0 -0.0063560988868256816 -0.00019816029272721602 0 -0.0063860976692792096 -0.00012498421029585559 0 -0.0064801481073613193 -0.00044568238110837417 0 -0.0064057948385011559 -0.00038467775270285462 0 -0.0064929718528455053 -0.00039036128333506747 0 -0.0062044560399071788 -0.00038673306336598591 0 -0.0064801481073613193 -0.00044568238110837417 0 -0.0064057948385011559 -0.00038467775270285462 0 -0.0064582460069849612 -0.00034222323727109302 0 -0.0064057948385011559 -0.00038467775270285462 0 -0.0064929718528455053 -0.00039036128333506747 0 -0.0065047399721489766 -0.00032467335544172232 0 -0.0064929718528455053 -0.00039036128333506747 0 -0.006527192167456574 -0.0003523190618679407 0 -0.0065047399721489766 -0.00032467335544172232 0 -0.0064582460069849612 -0.00034222323727109302 0 -0.0064929718528455053 -0.00039036128333506747 0 -0.0064929718528455053 -0.00039036128333506747 0 -0.0065192702510506696 -0.00043393596877771255 0 -0.00654817555144216 -0.0003798866367164606 0 -0.0064801481073613193 -0.00044568238110837417 0 -0.0065192702510506696 -0.00043393596877771255 0 -0.0065278739748537498 -0.00047100365700019974 0 -0.0064801481073613193 -0.00044568238110837417 0 -0.0064929718528455053 -0.00039036128333506747 0 -0.0065192702510506696 -0.00043393596877771255 0 -0.0065192702510506696 -0.00043393596877771255 0 -0.0065653726916235604 -0.0004152310728578819 0 -0.00654817555144216 -0.0003798866367164606 0 -0.0065192702510506696 -0.00043393596877771255 0 -0.0065653726916235604 -0.0004152310728578819 0 -0.0065441802955588258 -0.00044873429091724668 0 -0.0065653726916235604 -0.0004152310728578819 0 -0.00654817555144216 -0.0003798866367164606 0 -0.0065749353934601009 -0.00038418184024882531 0 -0.0064929718528455053 -0.00039036128333506747 0 -0.006527192167456574 -0.0003523190618679407 0 -0.00654817555144216 -0.0003798866367164606 0 -0.0065501461064157241 -0.00034541840852387581 0 -0.00654817555144216 -0.0003798866367164606 0 -0.0065738557014652131 -0.00035000951264772167 0 -0.0065561633408657335 -0.00031860119558721679 0 -0.0065501461064157241 -0.00034541840852387581 0 -0.0065738557014652131 -0.00035000951264772167 0 -0.006527192167456574 -0.0003523190618679407 0 -0.0065501461064157241 -0.00034541840852387581 0 -0.00654817555144216 -0.0003798866367164606 0 -0.0065361153654591884 -0.00032629624579572054 0 -0.006527192167456574 -0.0003523190618679407 0 -0.0065501461064157241 -0.00034541840852387581 0 -0.00654817555144216 -0.0003798866367164606 0 -0.0065749353934601009 -0.00038418184024882531 0 -0.0065738557014652131 -0.00035000951264772167 0 -0.0065749353934601009 -0.00038418184024882531 0 -0.0065738557014652131 -0.00035000951264772167 0 -0.0065969931640772455 -0.00036895857463429399 0 -0.0065749353934601009 -0.00038418184024882531 0 -0.0065969931640772455 -0.00036895857463429399 0 -0.0065942652655960809 -0.00039480625103598929 0 -0.0065738557014652131 -0.00035000951264772167 0 -0.0066012962979620582 -0.00033922097254944543 0 -0.0065969931640772455 -0.00036895857463429399 0 -0.0065845933802054727 -0.00031219843895885561 0 -0.0065738557014652131 -0.00035000951264772167 0 -0.0066012962979620582 -0.00033922097254944543 0 -0.0066012962979620582 -0.00033922097254944543 0 -0.0065969931640772455 -0.00036895857463429399 0 -0.0066183434558294285 -0.00036352467829336527 0 -0.0065969931640772455 -0.00036895857463429399 0 -0.0066199389988733726 -0.00038977710867403018 0 -0.0066183434558294285 -0.00036352467829336527 0 -0.0066199389988733726 -0.00038977710867403018 0 -0.0065942652655960809 -0.00039480625103598929 0 -0.0065997855690293414 -0.00042219736092429021 0 -0.0065969931640772455 -0.00036895857463429399 0 -0.0066199389988733726 -0.00038977710867403018 0 -0.0065942652655960809 -0.00039480625103598929 0 -0.0065653726916235604 -0.0004152310728578819 0 -0.0065749353934601009 -0.00038418184024882531 0 -0.0065942652655960809 -0.00039480625103598929 0 -0.0065653726916235604 -0.0004152310728578819 0 -0.0065997855690293414 -0.00042219736092429021 0 -0.0065713443399239742 -0.00045023206903087261 0 -0.0065653726916235604 -0.0004152310728578819 0 -0.0065942652655960809 -0.00039480625103598929 0 -0.0065997855690293414 -0.00042219736092429021 0 -0.0066199389988733726 -0.00038977710867403018 0 -0.0065997855690293414 -0.00042219736092429021 0 -0.0066240704060563519 -0.00041835137783229184 0 -0.0065997855690293414 -0.00042219736092429021 0 -0.0066091461205656215 -0.0004667573966612879 0 -0.0065713443399239742 -0.00045023206903087261 0 -0.0065997855690293414 -0.00042219736092429021 0 -0.0066240704060563519 -0.00041835137783229184 0 -0.0066091461205656215 -0.0004667573966612879 0 -0.0066091461205656215 -0.0004667573966612879 0 -0.0065722218219442128 -0.00047176176169984871 0 -0.0065713443399239742 -0.00045023206903087261 0 -0.0092681936718656596 0.00028338518833215986 0 -0.0066224956054620355 -0.00020854133834047092 0 -0.0066091461205656215 -0.0004667573966612879 0 -0.0065722218219442128 -0.00047176176169984871 0 -0.0065560807111702153 -0.00048584744977100421 0 -0.0076039368567627722 0.00084977732856402659 0 -0.0071594516538027002 0.00038491051679926134 0 -0.0071793543977580416 0.00024713708382148385 0 -0.0092681936718656596 0.00028338518833215986 0 -0.0094104108431341694 0.00067136597615241361 0 -0.011503337869098561 0.00052355660046763709 0 -0.011536912354053552 0.0009253689184263895 0 -0.011403265181838542 0.00084419320191764084 0 -0.0065722218219442128 -0.00047176176169984871 0 -0.0065519587678003277 -0.00047938792752929779 0 -0.0065499796066718153 -0.00046790369975721727 0 -0.0065722218219442128 -0.00047176176169984871 0 -0.0065564456115465384 -0.0004803338225855929 0 -0.0065519587678003277 -0.00047938792752929779 0 -0.0065722218219442128 -0.00047176176169984871 0 -0.0065564456115465384 -0.0004803338225855929 0 -0.0065560807111702153 -0.00048584744977100421 0 -0.0065564456115465384 -0.0004803338225855929 0 -0.0065498962911994434 -0.00047976375754964272 0 -0.0065560807111702153 -0.00048584744977100421 0 -0.0065564456115465384 -0.0004803338225855929 0 -0.0065519587678003277 -0.00047938792752929779 0 -0.0065498962911994434 -0.00047976375754964272 0 -0.0065519587678003277 -0.00047938792752929779 0 -0.006549074363962913 -0.00048160177931942709 0 -0.0065498962911994434 -0.00047976375754964272 0 -0.0065519587678003277 -0.00047938792752929779 0 -0.0065452129652941275 -0.00047970529969167705 0 -0.006549074363962913 -0.00048160177931942709 0 -0.0065519587678003277 -0.00047938792752929779 0 -0.0065499796066718153 -0.00046790369975721727 0 -0.0065452129652941275 -0.00047970529969167705 0 -0.0065722218219442128 -0.00047176176169984871 0 -0.0065499796066718153 -0.00046790369975721727 0 -0.0065713443399239742 -0.00045023206903087261 0 -0.0065499796066718153 -0.00046790369975721727 0 -0.0065713443399239742 -0.00045023206903087261 0 -0.0065441802955588258 -0.00044873429091724668 0 -0.0065653726916235604 -0.0004152310728578819 0 -0.0065713443399239742 -0.00045023206903087261 0 -0.0065441802955588258 -0.00044873429091724668 0 -0.0065192702510506696 -0.00043393596877771255 0 -0.0065441802955588258 -0.00044873429091724668 0 -0.0065278739748537498 -0.00047100365700019974 0 -0.0065499796066718153 -0.00046790369975721727 0 -0.0065278739748537498 -0.00047100365700019974 0 -0.0065452129652941275 -0.00047970529969167705 0 -0.0065499796066718153 -0.00046790369975721727 0 -0.0065441802955588258 -0.00044873429091724668 0 -0.0065278739748537498 -0.00047100365700019974 0 -0.0065278739748537498 -0.00047100365700019974 0 -0.0065452129652941275 -0.00047970529969167705 0 -0.0065477128603335238 -0.00048771154261214201 0 -0.0065452129652941275 -0.00047970529969167705 0 -0.006549074363962913 -0.00048160177931942709 0 -0.0065477128603335238 -0.00048771154261214201 0 -0.006549074363962913 -0.00048160177931942709 0 -0.0065477128603335238 -0.00048771154261214201 0 -0.0065561601127539478 -0.00047844394546715568 0 -0.0065477128603335238 -0.00048771154261214201 0 -0.0065658533761770721 -0.00048087959991168459 0 -0.0065561601127539478 -0.00047844394546715568 0 -0.0065477128603335238 -0.00048771154261214201 0 -0.0065620775778624917 -0.00049252136139663831 0 -0.0065199151935296778 -0.00049496697763353815 0 -0.0065477128603335238 -0.00048771154261214201 0 -0.0065620775778624917 -0.00049252136139663831 0 -0.0065658533761770721 -0.00048087959991168459 0 -0.0065278739748537498 -0.00047100365700019974 0 -0.0065477128603335238 -0.00048771154261214201 0 -0.0065199151935296778 -0.00049496697763353815 0 -0.0064686825535170142 -0.00050644745758952686 0 -0.0064801481073613193 -0.00044568238110837417 0 -0.0065199151935296778 -0.00049496697763353815 0 -0.0064801481073613193 -0.00044568238110837417 0 -0.0065278739748537498 -0.00047100365700019974 0 -0.0065199151935296778 -0.00049496697763353815 0 -0.010087542816741657 2.7329343474437848e-05 0 -0.01071908881583984 -0.00034356237263797349 0 -0.010584674984781446 4.9746159600001314e-05 0 -0.010087542816741657 2.7329343474437848e-05 0 -0.0096809867026525307 -0.00062347087625893368 0 -0.01071908881583984 -0.00034356237263797349 0 -0.0089266332441682895 0.00010434700785081938 0 -0.010087542816741657 2.7329343474437848e-05 0 -0.0096809867026525307 -0.00062347087625893368 0 -0.0087328295154197096 -0.00077597969606838359 0 -0.0093903099885037783 -0.0015612048560695866 0 -0.0096809867026525307 -0.00062347087625893368 0 -0.010197405635612063 -0.0012912245431031259 0 -0.0096809867026525307 -0.00062347087625893368 0 -0.01071908881583984 -0.00034356237263797349 0 -0.010197405635612063 -0.0012912245431031259 0 -0.010995699832419773 -0.0010256049616272662 0 -0.01071908881583984 -0.00034356237263797349 0 -0.010995699832419773 -0.0010256049616272662 0 -0.011326984793291871 -0.00015280966727263535 0 -0.01071908881583984 -0.00034356237263797349 0 -0.0066142295170094345 -0.0003011583934428093 0 -0.0066735719669131534 -0.000323125846008716 0 -0.0066294161392342421 -0.00034092317358503922 0 -0.0066735719669131534 -0.000323125846008716 0 -0.0066386929224070846 -0.00037021780710422985 0 -0.0066531252687413514 -0.00040676973632198669 0 -0.0088425402179805514 -0.00066347144652504058 0 -0.008935018912259278 -0.00035927163382679507 0 -0.0066142295170094345 -0.0003011583934428093 0 -0.0066012962979620582 -0.00033922097254944543 0 -0.0066294161392342421 -0.00034092317358503922 0 -0.0066012962979620582 -0.00033922097254944543 0 -0.0066294161392342421 -0.00034092317358503922 0 -0.0066183434558294285 -0.00036352467829336527 0 -0.0066735719669131534 -0.000323125846008716 0 -0.0066294161392342421 -0.00034092317358503922 0 -0.0066386929224070846 -0.00037021780710422985 0 -0.0066294161392342421 -0.00034092317358503922 0 -0.0066386929224070846 -0.00037021780710422985 0 -0.0066183434558294285 -0.00036352467829336527 0 -0.0066199389988733726 -0.00038977710867403018 0 -0.0066386929224070846 -0.00037021780710422985 0 -0.0066183434558294285 -0.00036352467829336527 0 -0.011269306823555128 -2.7661458409563365e-05 0 -0.011326984793291871 -0.00015280966727263535 0 -0.01071908881583984 -0.00034356237263797349 0 -0.0066199389988733726 -0.00038977710867403018 0 -0.0066240704060563519 -0.00041835137783229184 0 -0.0066353946051680764 -0.00039856067955281469 0 -0.0066386929224070846 -0.00037021780710422985 0 -0.0066353946051680764 -0.00039856067955281469 0 -0.0066531252687413514 -0.00040676973632198669 0 -0.0066199389988733726 -0.00038977710867403018 0 -0.0066386929224070846 -0.00037021780710422985 0 -0.0066353946051680764 -0.00039856067955281469 0 -0.0066240704060563519 -0.00041835137783229184 0 -0.0066353946051680764 -0.00039856067955281469 0 -0.0066531252687413514 -0.00040676973632198669 0 -0.011269306823555128 -2.7661458409563365e-05 0 -0.01071908881583984 -0.00034356237263797349 0 -0.01090306164195398 0.00011646332277657764 0 -0.01071908881583984 -0.00034356237263797349 0 -0.01090306164195398 0.00011646332277657764 0 -0.010584674984781446 4.9746159600001314e-05 0 -0.01090306164195398 0.00011646332277657764 0 -0.010766163083177436 0.00043496202068505924 0 -0.010584674984781446 4.9746159600001314e-05 0 -0.01090306164195398 0.00011646332277657764 0 -0.010766163083177436 0.00043496202068505924 0 -0.011165723166299366 0.0004078992770370595 0 -0.0092681936718656596 0.00028338518833215986 0 -0.008935018912259278 -0.00035927163382679507 0 -0.0092681936718656596 0.00028338518833215986 0 -0.011808293648891258 0.00033007593217960444 0 -0.0066240704060563519 -0.00041835137783229184 0 -0.0066091461205656215 -0.0004667573966612879 0 -0.0066531252687413514 -0.00040676973632198669 0 -0.011439866412764527 0.00042857839817679692 0 -0.011269306823555128 -2.7661458409563365e-05 0 -0.011326984793291871 -0.00015280966727263535 0 -0.011503337869098561 0.00052355660046763709 0 -0.011269306823555128 -2.7661458409563365e-05 0 -0.011165723166299366 0.0004078992770370595 0 -0.011269306823555128 -2.7661458409563365e-05 0 -0.01090306164195398 0.00011646332277657764 0 -0.011165723166299366 0.0004078992770370595 0 -0.011503337869098561 0.00052355660046763709 0 -0.011165723166299366 0.0004078992770370595 0 -0.01122409755170331 0.00074463807113811455 0 -0.011503337869098561 0.00052355660046763709 0 -0.01122409755170331 0.00074463807113811455 0 -0.011403265181838542 0.00084419320191764084 0 -0.010766163083177436 0.00043496202068505924 0 -0.01122409755170331 0.00074463807113811455 0 -0.011008871984086213 0.00097065777777382775 0 -0.010766163083177436 0.00043496202068505924 0 -0.011165723166299366 0.0004078992770370595 0 -0.01122409755170331 0.00074463807113811455 0 -0.010766163083177436 0.00043496202068505924 0 -0.0099616863899475282 0.00068731135790386683 0 -0.011008871984086213 0.00097065777777382775 0 -0.010407449218947148 0.00060035459470828977 0 -0.010953579834232233 0.00094418464670779673 0 -0.010087542816741657 2.7329343474437848e-05 0 -0.010766163083177436 0.00043496202068505924 0 -0.010584674984781446 4.9746159600001314e-05 0 -0.010087542816741657 2.7329343474437848e-05 0 -0.010766163083177436 0.00043496202068505924 0 -0.0099616863899475282 0.00068731135790386683 0 -0.0089266332441682895 0.00010434700785081938 0 -0.010087542816741657 2.7329343474437848e-05 0 -0.0099616863899475282 0.00068731135790386683 0 -0.0097128781923573205 -9.716554232445479e-05 0 -0.010407449218947148 0.00060035459470828977 0 -0.010288900479334012 0.0007856641083912035 0 -0.010909025661125501 0.00055221654251900348 0 -0.010769738331778335 0.00088268409786782453 0 -0.010769738331778335 0.00088268409786782453 0 -0.01092399914999264 0.0010883842818479599 0 -0.01049019778858761 0.0010369881731404464 0 -0.01092399914999264 0.0010883842818479599 0 -0.011008871984086213 0.00097065777777382775 0 -0.011186955590015882 0.0011730802805229002 0 -0.010769738331778335 0.00088268409786782453 0 -0.01092399914999264 0.0010883842818479599 0 -0.011008871984086213 0.00097065777777382775 0 -0.010909025661125501 0.00055221654251900348 0 -0.010769738331778335 0.00088268409786782453 0 -0.011008871984086213 0.00097065777777382775 0 -0.01122409755170331 0.00074463807113811455 0 -0.011008871984086213 0.00097065777777382775 0 -0.011296712046252155 0.00096708735204020747 0 -0.011008871984086213 0.00097065777777382775 0 -0.011296712046252155 0.00096708735204020747 0 -0.011226056809264882 0.0010845207588939096 0 -0.01122409755170331 0.00074463807113811455 0 -0.011296712046252155 0.00096708735204020747 0 -0.011403265181838542 0.00084419320191764084 0 -0.011296712046252155 0.00096708735204020747 0 -0.011403265181838542 0.00084419320191764084 0 -0.011433630357173874 0.00097975634072713816 0 -0.011296712046252155 0.00096708735204020747 0 -0.011394338523885619 0.0011140446857663871 0 -0.011433630357173874 0.00097975634072713816 0 -0.011296712046252155 0.00096708735204020747 0 -0.011394338523885619 0.0011140446857663871 0 -0.011226056809264882 0.0010845207588939096 0 -0.011008871984086213 0.00097065777777382775 0 -0.011226056809264882 0.0010845207588939096 0 -0.011186955590015882 0.0011730802805229002 0 -0.011337122069782194 0.0012261037601551234 0 -0.011293308969101658 0.0012658122931505742 0 -0.011186955590015882 0.0011730802805229002 0 -0.011226056809264882 0.0010845207588939096 0 -0.011337122069782194 0.0012261037601551234 0 -0.011186955590015882 0.0011730802805229002 0 -0.011394338523885619 0.0011140446857663871 0 -0.011226056809264882 0.0010845207588939096 0 -0.011337122069782194 0.0012261037601551234 0 -0.011394338523885619 0.0011140446857663871 0 -0.011423404168272967 0.0011763149353630237 0 -0.011337122069782194 0.0012261037601551234 0 -0.011431172225499393 0.0011935558550140596 0 -0.011423404168272967 0.0011763149353630237 0 -0.011337122069782194 0.0012261037601551234 0 -0.011431172225499393 0.0011935558550140596 0 -0.011423404168272967 0.0011763149353630237 0 -0.011474855168612248 0.00115807637858671 0 -0.011431172225499393 0.0011935558550140596 0 -0.011337122069782194 0.0012261037601551234 0 -0.011446707301459191 0.001202238454270037 0 -0.011337122069782194 0.0012261037601551234 0 -0.011371007423323582 0.001243096863035322 0 -0.011446707301459191 0.001202238454270037 0 -0.011337122069782194 0.0012261037601551234 0 -0.011371007423323582 0.001243096863035322 0 -0.011293308969101658 0.0012658122931505742 0 -0.011371007423323582 0.001243096863035322 0 -0.011293308969101658 0.0012658122931505742 0 -0.011241573717220543 0.0013388783460207608 0 -0.011371007423323582 0.001243096863035322 0 -0.011241573717220543 0.0013388783460207608 0 -0.011392461277189203 0.0012575738199744921 0 -0.011392461277189203 0.0012575738199744921 0 -0.011420575220787092 0.001309190887073014 0 -0.011501174452845169 0.0012315721699811086 0 -0.011420575220787092 0.001309190887073014 0 -0.011501174452845169 0.0012315721699811086 0 -0.01157359869945173 0.0012457032316260449 0 -0.011241573717220543 0.0013388783460207608 0 -0.011392461277189203 0.0012575738199744921 0 -0.011420575220787092 0.001309190887073014 0 -0.011241573717220543 0.0013388783460207608 0 -0.011420575220787092 0.001309190887073014 0 -0.011543719256651756 0.0014119380118672148 0 -0.01092399914999264 0.0010883842818479599 0 -0.011241573717220543 0.0013388783460207608 0 -0.010546980255589694 0.0013553757677753832 0 -0.011165557868048223 0.0013536663483921779 0 -0.01117032294009709 0.0013411229719876038 0 -0.011293308969101658 0.0012658122931505742 0 -0.011241573717220543 0.0013388783460207608 0 -0.011186955590015882 0.0011730802805229002 0 -0.01092399914999264 0.0010883842818479599 0 -0.011241573717220543 0.0013388783460207608 0 -0.011186955590015882 0.0011730802805229002 0 -0.0066642782263578813 -0.00042440482055470038 0 -0.0066265474764908173 -0.0003783271490151588 0 -0.006609240524497453 -0.00044137273591522409 0 -0.006609240524497453 -0.00044137273591522409 0 -0.0065769892360512741 -0.00046180589164135924 0 -0.0065876516934618044 -0.00042317617533785436 0 -0.0066265474764908173 -0.0003783271490151588 0 -0.006609240524497453 -0.00044137273591522409 0 -0.0065876516934618044 -0.00042317617533785436 0 -0.0066642782263578813 -0.00042440482055470038 0 -0.0066166216204596876 -0.00046621226831639094 0 -0.006609240524497453 -0.00044137273591522409 0 -0.0066166216204596876 -0.00046621226831639094 0 -0.006609240524497453 -0.00044137273591522409 0 -0.0065858761487075299 -0.00047156710422999301 0 -0.0066166216204596876 -0.00046621226831639094 0 -0.0065620775778624917 -0.00049252136139663831 0 -0.0065858761487075299 -0.00047156710422999301 0 -0.0065620775778624917 -0.00049252136139663831 0 -0.0065658533761770721 -0.00048087959991168459 0 -0.0065858761487075299 -0.00047156710422999301 0 -0.0065658533761770721 -0.00048087959991168459 0 -0.0065858761487075299 -0.00047156710422999301 0 -0.0065769892360512741 -0.00046180589164135924 0 -0.006609240524497453 -0.00044137273591522409 0 -0.0065858761487075299 -0.00047156710422999301 0 -0.0065769892360512741 -0.00046180589164135924 0 -0.0065769892360512741 -0.00046180589164135924 0 -0.0065561601127539478 -0.00047844394546715568 0 -0.0065555307014994978 -0.00046203644444324515 0 -0.0065769892360512741 -0.00046180589164135924 0 -0.0065555307014994978 -0.00046203644444324515 0 -0.0065876516934618044 -0.00042317617533785436 0 -0.0065658533761770721 -0.00048087959991168459 0 -0.0065769892360512741 -0.00046180589164135924 0 -0.0065561601127539478 -0.00047844394546715568 0 -0.006549074363962913 -0.00048160177931942709 0 -0.0065561601127539478 -0.00047844394546715568 0 -0.0065491156691568795 -0.0004758508400760519 0 -0.0065561601127539478 -0.00047844394546715568 0 -0.0065555307014994978 -0.00046203644444324515 0 -0.0065491156691568795 -0.0004758508400760519 0 -0.0067038262011590022 -0.00019750602482571165 0 -0.0065928293846791702 -0.00033248056360402062 0 -0.0068111630601506365 -0.00024305918683286117 0 -0.0067865188691785018 -3.4835184593621477e-05 0 -0.0066022330558633104 -0.00032350112264223829 0 -0.0065555307014994978 -0.00046203644444324515 0 -0.0065876516934618044 -0.00042317617533785436 0 -0.0065296737983010101 -0.00044287089625170273 0 -0.0065876516934618044 -0.00042317617533785436 0 -0.0065296737983010101 -0.00044287089625170273 0 -0.0066022330558633104 -0.00032350112264223829 0 -0.0066265474764908173 -0.0003783271490151588 0 -0.0065876516934618044 -0.00042317617533785436 0 -0.0066022330558633104 -0.00032350112264223829 0 -0.011487908501267231 0.0011171859714152966 0 -0.011487041201461237 0.0010237636322173427 0 -0.011458393756566897 0.0010637612675700884 0 -0.011487908501267231 0.0011171859714152966 0 -0.011458393756566897 0.0010637612675700884 0 -0.01146409719307946 0.0011183121946474423 0 -0.011487908501267231 0.0011171859714152966 0 -0.011536912354053552 0.0009253689184263895 0 -0.011487041201461237 0.0010237636322173427 0 -0.0091441504453218889 0.00042916384520848489 0 -0.0094104108431341694 0.00067136597615241361 0 -0.0068111630601506365 -0.00024305918683286117 0 -0.0067865188691785018 -3.4835184593621477e-05 0 -0.0071793543977580416 0.00024713708382148385 0 -0.0065296737983010101 -0.00044287089625170273 0 -0.0065449534210814952 -0.00047029132827200719 0 -0.0065560807111702153 -0.00048584744977100421 0 -0.0067865188691785018 -3.4835184593621477e-05 0 -0.0071594516538027002 0.00038491051679926134 0 -0.0071793543977580416 0.00024713708382148385 0 -0.0067038262011590022 -0.00019750602482571165 0 -0.0066224956054620355 -0.00020854133834047092 0 -0.0065555307014994978 -0.00046203644444324515 0 -0.0065296737983010101 -0.00044287089625170273 0 -0.0065449534210814952 -0.00047029132827200719 0 -0.0065555307014994978 -0.00046203644444324515 0 -0.0065491156691568795 -0.0004758508400760519 0 -0.0065449534210814952 -0.00047029132827200719 0 -0.006549074363962913 -0.00048160177931942709 0 -0.0065491156691568795 -0.0004758508400760519 0 -0.0065498962911994434 -0.00047976375754964272 0 -0.0065491156691568795 -0.0004758508400760519 0 -0.0065449534210814952 -0.00047029132827200719 0 -0.0065498962911994434 -0.00047976375754964272 0 -0.0065449534210814952 -0.00047029132827200719 0 -0.0065498962911994434 -0.00047976375754964272 0 -0.0065560807111702153 -0.00048584744977100421 0 -0.011536912354053552 0.0009253689184263895 0 -0.011433630357173874 0.00097975634072713816 0 -0.011487041201461237 0.0010237636322173427 0 -0.011536912354053552 0.0009253689184263895 0 -0.011403265181838542 0.00084419320191764084 0 -0.011433630357173874 0.00097975634072713816 0 -0.011394338523885619 0.0011140446857663871 0 -0.011433630357173874 0.00097975634072713816 0 -0.011458393756566897 0.0010637612675700884 0 -0.011433630357173874 0.00097975634072713816 0 -0.011487041201461237 0.0010237636322173427 0 -0.011458393756566897 0.0010637612675700884 0 -0.011394338523885619 0.0011140446857663871 0 -0.011458393756566897 0.0010637612675700884 0 -0.01146409719307946 0.0011183121946474423 0 -0.011394338523885619 0.0011140446857663871 0 -0.011423404168272967 0.0011763149353630237 0 -0.011456025536014524 0.0011523624323169712 0 -0.011394338523885619 0.0011140446857663871 0 -0.01146409719307946 0.0011183121946474423 0 -0.011456025536014524 0.0011523624323169712 0 -0.011423404168272967 0.0011763149353630237 0 -0.011456025536014524 0.0011523624323169712 0 -0.011474855168612248 0.00115807637858671 0 -0.011456025536014524 0.0011523624323169712 0 -0.011474855168612248 0.00115807637858671 0 -0.011450717866641742 0.0011370424669717469 0 -0.011474855168612248 0.00115807637858671 0 -0.011450717866641742 0.0011370424669717469 0 -0.011426422951101911 0.0010731662784265841 0 -0.011306153022551795 0.0010818412110748666 0 -0.011931580671241537 0.0012671410707326147 0 -0.011450717866641742 0.0011370424669717469 0 -0.011389123593368961 0.0011431271163982065 0 -0.011426422951101911 0.0010731662784265841 0 -0.011450717866641742 0.0011370424669717469 0 -0.011457402085293299 0.0011401311436810186 0 -0.011389123593368961 0.0011431271163982065 0 -0.011487908501267231 0.0011171859714152966 0 -0.011457402085293299 0.0011401311436810186 0 -0.011389123593368961 0.0011431271163982065 0 -0.011456025536014524 0.0011523624323169712 0 -0.011450717866641742 0.0011370424669717469 0 -0.011457402085293299 0.0011401311436810186 0 -0.011487908501267231 0.0011171859714152966 0 -0.01146409719307946 0.0011183121946474423 0 -0.011457402085293299 0.0011401311436810186 0 -0.01146409719307946 0.0011183121946474423 0 -0.011456025536014524 0.0011523624323169712 0 -0.011457402085293299 0.0011401311436810186 0 -0.0091441504453218889 0.00042916384520848489 0 -0.0089718600538932231 0.00037809025968448337 0 -0.0068111630601506365 -0.00024305918683286117 0 -0.0066022330558633104 -0.00032350112264223829 0 -0.0065883959148597664 -0.0003377211055861109 0 -0.0066265474764908173 -0.0003783271490151588 0 -0.0066022330558633104 -0.00032350112264223829 0 -0.0066167910536161596 -0.00032902912244667183 0 -0.0066022330558633104 -0.00032350112264223829 0 -0.0065883959148597664 -0.0003377211055861109 0 -0.0066167910536161596 -0.00032902912244667183 0 -0.0089718600538932231 0.00037809025968448337 0 -0.0091093448528747119 0.00058281977919974069 0 -0.0065883959148597664 -0.0003377211055861109 0 -0.0066403219761902565 -0.00025195137907959089 0 -0.0065998911776899843 -9.5924134138413496e-05 0 -0.0065883959148597664 -0.0003377211055861109 0 -0.0066403219761902565 -0.00025195137907959089 0 -0.0066167910536161596 -0.00032902912244667183 0 -0.0066403219761902565 -0.00025195137907959089 0 -0.0066737065313582184 -0.00030882029001016813 0 -0.0066167910536161596 -0.00032902912244667183 0 -0.0067447921477808053 -0.00018601984341534076 0 -0.0066403219761902565 -0.00025195137907959089 0 -0.0066737065313582184 -0.00030882029001016813 0 -0.0066737065313582184 -0.00030882029001016813 0 -0.0066167910536161596 -0.00032902912244667183 0 -0.0066771214151072067 -0.00036774298663092854 0 -0.0066265474764908173 -0.0003783271490151588 0 -0.0066167910536161596 -0.00032902912244667183 0 -0.0066771214151072067 -0.00036774298663092854 0 -0.0066642782263578813 -0.00042440482055470038 0 -0.0066265474764908173 -0.0003783271490151588 0 -0.0066771214151072067 -0.00036774298663092854 0 -0.0073483403724450662 0.0003658629402847407 0 -0.007318061866905862 0.00035904763597343579 0 -0.0073067334708674563 0.00041331986946680833 0 -0.0091093448528747119 0.00058281977919974069 0 -0.0094706880425451979 0.00082094930383199165 0 -0.011532035711372611 0.001142533113086105 0 -0.011555850628800698 0.0011332769965886886 0 -0.011534777282517714 0.0011239787677619585 0 -0.0068095984930040595 7.3621918383467709e-05 0 -0.0067447921477808053 -0.00018601984341534076 0 -0.0065998911776899843 -9.5924134138413496e-05 0 -0.0067447921477808053 -0.00018601984341534076 0 -0.0066403219761902565 -0.00025195137907959089 0 -0.0065998911776899843 -9.5924134138413496e-05 0 -0.0066307236716589661 7.6239890484932414e-05 0 -0.0091093448528747119 0.00058281977919974069 0 -0.011532035711372611 0.001142533113086105 0 -0.011546494154142843 0.0011485861734549779 0 -0.011539955313782173 0.0011477312316910296 0 -0.0091093448528747119 0.00058281977919974069 0 -0.011931580671241537 0.0012671410707326147 0 -0.011389123593368961 0.0011431271163982065 0 -0.011274399978491667 0.0010094331295146025 0 -0.011426422951101911 0.0010731662784265841 0 -0.011532035711372611 0.001142533113086105 0 -0.011555850628800698 0.0011332769965886886 0 -0.011546494154142843 0.0011485861734549779 0 -0.011555850628800698 0.0011332769965886886 0 -0.011546494154142843 0.0011485861734549779 0 -0.011582101349011747 0.0011243915102354888 0 -0.011546494154142843 0.0011485861734549779 0 -0.011538317879447719 0.0011551420830166509 0 -0.011582101349011747 0.0011243915102354888 0 -0.011474855168612248 0.00115807637858671 0 -0.011539955313782173 0.0011477312316910296 0 -0.011517148781185243 0.0011595873029025807 0 -0.011546494154142843 0.0011485861734549779 0 -0.011539955313782173 0.0011477312316910296 0 -0.011517148781185243 0.0011595873029025807 0 -0.011546494154142843 0.0011485861734549779 0 -0.011517148781185243 0.0011595873029025807 0 -0.011538317879447719 0.0011551420830166509 0 -0.011517148781185243 0.0011595873029025807 0 -0.011538317879447719 0.0011551420830166509 0 -0.011499736952764213 0.0011748924993362491 0 -0.011474855168612248 0.00115807637858671 0 -0.011517148781185243 0.0011595873029025807 0 -0.011499736952764213 0.0011748924993362491 0 -0.011538317879447719 0.0011551420830166509 0 -0.011565750164566457 0.001138871013200564 0 -0.011499736952764213 0.0011748924993362491 0 -0.011565750164566457 0.001138871013200564 0 -0.011605923382682674 0.0011109468727384655 0 -0.011582101349011747 0.0011243915102354888 0 -0.011538317879447719 0.0011551420830166509 0 -0.011565750164566457 0.001138871013200564 0 -0.011582101349011747 0.0011243915102354888 0 -0.011565750164566457 0.001138871013200564 0 -0.011605923382682674 0.0011109468727384655 0 -0.011560492449052601 0.0011406477389371496 0 -0.011663321509283276 0.0010693096847876709 0 -0.011605923382682674 0.0011109468727384655 0 -0.011582101349011747 0.0011243915102354888 0 -0.011663321509283276 0.0010693096847876709 0 -0.011628415446575543 0.0010793259633340904 0 -0.011582101349011747 0.0011243915102354888 0 -0.011628415446575543 0.0010793259633340904 0 -0.011582101349011747 0.0011243915102354888 0 -0.011590969399327099 0.0010878718237858455 0 -0.011555850628800698 0.0011332769965886886 0 -0.011582101349011747 0.0011243915102354888 0 -0.011562707348149411 0.0011143158857831459 0 -0.011582101349011747 0.0011243915102354888 0 -0.011562707348149411 0.0011143158857831459 0 -0.011590969399327099 0.0010878718237858455 0 -0.011530282175722646 0.0010907668394262847 0 -0.011562707348149411 0.0011143158857831459 0 -0.011590969399327099 0.0010878718237858455 0 -0.011555850628800698 0.0011332769965886886 0 -0.011562707348149411 0.0011143158857831459 0 -0.011534777282517714 0.0011239787677619585 0 -0.011530282175722646 0.0010907668394262847 0 -0.011562707348149411 0.0011143158857831459 0 -0.011534777282517714 0.0011239787677619585 0 -0.011494427094405429 0.0011791937872199002 0 -0.011533684943493969 0.001154051749242578 0 -0.01158618756993387 0.0011271843661926869 0 -0.011543425868278149 0.0011627052953322536 0 -0.011494427094405429 0.0011791937872199002 0 -0.01158618756993387 0.0011271843661926869 0 -0.011543425868278149 0.0011627052953322536 0 -0.01158618756993387 0.0011271843661926869 0 -0.011633001144488495 0.00111488777359545 0 -0.011543425868278149 0.0011627052953322536 0 -0.011595970961846599 0.0011537315992724121 0 -0.011633001144488495 0.00111488777359545 0 -0.011595970961846599 0.0011537315992724121 0 -0.011633001144488495 0.00111488777359545 0 -0.011664719924332548 0.0011338164967003661 0 -0.011595970961846599 0.0011537315992724121 0 -0.011552948281703224 0.0011861578866867784 0 -0.011617204565662113 0.0011713044992095159 0 -0.011543425868278149 0.0011627052953322536 0 -0.011595970961846599 0.0011537315992724121 0 -0.011552948281703224 0.0011861578866867784 0 -0.011552948281703224 0.0011861578866867784 0 -0.011501174452845169 0.0012315721699811086 0 -0.011470510769449337 0.0012073210758433252 0 -0.011543425868278149 0.0011627052953322536 0 -0.011552948281703224 0.0011861578866867784 0 -0.011470510769449337 0.0012073210758433252 0 -0.011552948281703224 0.0011861578866867784 0 -0.011501174452845169 0.0012315721699811086 0 -0.011620111617466952 0.0012062892982170207 0 -0.011392461277189203 0.0012575738199744921 0 -0.011501174452845169 0.0012315721699811086 0 -0.011470510769449337 0.0012073210758433252 0 -0.011371007423323582 0.001243096863035322 0 -0.011392461277189203 0.0012575738199744921 0 -0.011470510769449337 0.0012073210758433252 0 -0.011371007423323582 0.001243096863035322 0 -0.011494427094405429 0.0011791937872199002 0 -0.011470510769449337 0.0012073210758433252 0 -0.011543425868278149 0.0011627052953322536 0 -0.011494427094405429 0.0011791937872199002 0 -0.011470510769449337 0.0012073210758433252 0 -0.011371007423323582 0.001243096863035322 0 -0.011494427094405429 0.0011791937872199002 0 -0.011446707301459191 0.001202238454270037 0 -0.011431172225499393 0.0011935558550140596 0 -0.011474855168612248 0.00115807637858671 0 -0.011499736952764213 0.0011748924993362491 0 -0.011431172225499393 0.0011935558550140596 0 -0.011446707301459191 0.001202238454270037 0 -0.011499736952764213 0.0011748924993362491 0 -0.011565750164566457 0.001138871013200564 0 -0.011499736952764213 0.0011748924993362491 0 -0.011560492449052601 0.0011406477389371496 0 -0.011499736952764213 0.0011748924993362491 0 -0.011533684943493969 0.001154051749242578 0 -0.011560492449052601 0.0011406477389371496 0 -0.011446707301459191 0.001202238454270037 0 -0.011499736952764213 0.0011748924993362491 0 -0.011533684943493969 0.001154051749242578 0 -0.011494427094405429 0.0011791937872199002 0 -0.011446707301459191 0.001202238454270037 0 -0.011533684943493969 0.001154051749242578 0 -0.011533684943493969 0.001154051749242578 0 -0.01159928740627139 0.0011151700734458488 0 -0.011560492449052601 0.0011406477389371496 0 -0.011533684943493969 0.001154051749242578 0 -0.01159928740627139 0.0011151700734458488 0 -0.011630675718102279 0.0010958608830211034 0 -0.011605923382682674 0.0011109468727384655 0 -0.01159928740627139 0.0011151700734458488 0 -0.011560492449052601 0.0011406477389371496 0 -0.011605923382682674 0.0011109468727384655 0 -0.01159928740627139 0.0011151700734458488 0 -0.011669250116628524 0.0010705053630845323 0 -0.011663321509283276 0.0010693096847876709 0 -0.011605923382682674 0.0011109468727384655 0 -0.011669250116628524 0.0010705053630845323 0 -0.011669250116628524 0.0010705053630845323 0 -0.011709701749595711 0.0010475529045858418 0 -0.011630675718102279 0.0010958608830211034 0 -0.01159928740627139 0.0011151700734458488 0 -0.011669250116628524 0.0010705053630845323 0 -0.011630675718102279 0.0010958608830211034 0 -0.011709701749595711 0.0010475529045858418 0 -0.011630675718102279 0.0010958608830211034 0 -0.011668910650396656 0.0010787967525060693 0 -0.011533684943493969 0.001154051749242578 0 -0.011630675718102279 0.0010958608830211034 0 -0.01158618756993387 0.0011271843661926869 0 -0.011630675718102279 0.0010958608830211034 0 -0.01158618756993387 0.0011271843661926869 0 -0.011668910650396656 0.0010787967525060693 0 -0.01158618756993387 0.0011271843661926869 0 -0.011633001144488495 0.00111488777359545 0 -0.011668910650396656 0.0010787967525060693 0 -0.011633001144488495 0.00111488777359545 0 -0.01170697261653025 0.0010686011995651246 0 -0.011668910650396656 0.0010787967525060693 0 -0.011633001144488495 0.00111488777359545 0 -0.01170697261653025 0.0010686011995651246 0 -0.011692998400524514 0.0010956184551703285 0 -0.01170697261653025 0.0010686011995651246 0 -0.011668910650396656 0.0010787967525060693 0 -0.011742611651015351 0.0010343562031291903 0 -0.011709701749595711 0.0010475529045858418 0 -0.011668910650396656 0.0010787967525060693 0 -0.011742611651015351 0.0010343562031291903 0 -0.01170697261653025 0.0010686011995651246 0 -0.011742611651015351 0.0010343562031291903 0 -0.011754908805123081 0.0010378391746261176 0 -0.011754908805123081 0.0010378391746261176 0 -0.011788536525334854 0.001022444954123583 0 -0.011749203929827371 0.001059020184440292 0 -0.011788536525334854 0.001022444954123583 0 -0.011749203929827371 0.001059020184440292 0 -0.011789162533670981 0.0010426658388673724 0 -0.01170697261653025 0.0010686011995651246 0 -0.011754908805123081 0.0010378391746261176 0 -0.011749203929827371 0.001059020184440292 0 -0.011718338973171344 0.0010697669981067249 0 -0.011632523988055407 0.0011448871068066243 0 -0.011790082876970965 0.0010462094743387941 0 -0.011781241646126435 0.0010697989873725401 0 -0.011794622108762755 0.0010831254826161743 0 -0.011817220259827871 0.0010143507182019944 0 -0.011825860972889499 0.0010339577506038305 0 -0.011789162533670981 0.0010426658388673724 0 -0.011817220259827871 0.0010143507182019944 0 -0.011788536525334854 0.001022444954123583 0 -0.011789162533670981 0.0010426658388673724 0 -0.011825860972889499 0.0010339577506038305 0 -0.011789162533670981 0.0010426658388673724 0 -0.011781241646126435 0.0010697989873725401 0 -0.011749203929827371 0.001059020184440292 0 -0.011789162533670981 0.0010426658388673724 0 -0.011781241646126435 0.0010697989873725401 0 -0.011718338973171344 0.0010697669981067249 0 -0.011784675055340551 0.0010444863158949294 0 -0.011781241646126435 0.0010697989873725401 0 -0.011763988474421162 0.0010933283178561565 0 -0.011794622108762755 0.0010831254826161743 0 -0.011781241646126435 0.0010697989873725401 0 -0.011763988474421162 0.0010933283178561565 0 -0.011741205284508617 0.0010843900881296502 0 -0.011763988474421162 0.0010933283178561565 0 -0.011741205284508617 0.0010843900881296502 0 -0.011732794681298885 0.0011173138526330768 0 -0.011763988474421162 0.0010933283178561565 0 -0.011732794681298885 0.0011173138526330768 0 -0.011767868774106996 0.0011209454058889105 0 -0.011763988474421162 0.0010933283178561565 0 -0.011794622108762755 0.0010831254826161743 0 -0.011767868774106996 0.0011209454058889105 0 -0.01170697261653025 0.0010686011995651246 0 -0.011749203929827371 0.001059020184440292 0 -0.011692998400524514 0.0010956184551703285 0 -0.011749203929827371 0.001059020184440292 0 -0.011781241646126435 0.0010697989873725401 0 -0.011741205284508617 0.0010843900881296502 0 -0.011749203929827371 0.001059020184440292 0 -0.011741205284508617 0.0010843900881296502 0 -0.011692998400524514 0.0010956184551703285 0 -0.011741205284508617 0.0010843900881296502 0 -0.011706253465903723 0.0011091685807461222 0 -0.011692998400524514 0.0010956184551703285 0 -0.011741205284508617 0.0010843900881296502 0 -0.011706253465903723 0.0011091685807461222 0 -0.011732794681298885 0.0011173138526330768 0 -0.011706253465903723 0.0011091685807461222 0 -0.011692998400524514 0.0010956184551703285 0 -0.011664719924332548 0.0011338164967003661 0 -0.011633001144488495 0.00111488777359545 0 -0.011692998400524514 0.0010956184551703285 0 -0.011664719924332548 0.0011338164967003661 0 -0.011595970961846599 0.0011537315992724121 0 -0.011664719924332548 0.0011338164967003661 0 -0.011617204565662113 0.0011713044992095159 0 -0.011664719924332548 0.0011338164967003661 0 -0.011617204565662113 0.0011713044992095159 0 -0.011662083522492766 0.0011801982905119016 0 -0.011664719924332548 0.0011338164967003661 0 -0.011662083522492766 0.0011801982905119016 0 -0.01170085983882637 0.0011358211316739846 0 -0.011662083522492766 0.0011801982905119016 0 -0.01170085983882637 0.0011358211316739846 0 -0.011739090624445588 0.001145834818933643 0 -0.011706253465903723 0.0011091685807461222 0 -0.011664719924332548 0.0011338164967003661 0 -0.01170085983882637 0.0011358211316739846 0 -0.011706253465903723 0.0011091685807461222 0 -0.01170085983882637 0.0011358211316739846 0 -0.011732794681298885 0.0011173138526330768 0 -0.011756687316780628 0.0011448009294402481 0 -0.011604035328469733 0.0013485663561313664 0 -0.011794622108762755 0.0010831254826161743 0 -0.011767868774106996 0.0011209454058889105 0 -0.011812540960167093 0.0011760275573604788 0 -0.011662083522492766 0.0011801982905119016 0 -0.011719046787327806 0.0011899318278000004 0 -0.011790568820268469 0.0011627853499058237 0 -0.011662083522492766 0.0011801982905119016 0 -0.011739090624445588 0.001145834818933643 0 -0.011812540960167093 0.0011760275573604788 0 -0.011732794681298885 0.0011173138526330768 0 -0.011739090624445588 0.001145834818933643 0 -0.011767868774106996 0.0011209454058889105 0 -0.01170085983882637 0.0011358211316739846 0 -0.011732794681298885 0.0011173138526330768 0 -0.011739090624445588 0.001145834818933643 0 -0.011739090624445588 0.001145834818933643 0 -0.011767868774106996 0.0011209454058889105 0 -0.011812540960167093 0.0011760275573604788 0 -0.01168773874480037 0.0012276233637075228 0 -0.011743342974298255 0.0012354252532581615 0 -0.011659895228423757 0.001279608393868829 0 -0.011230757719739063 0.0015742123458179602 0 -0.011695789810224271 0.0012405588630965188 0 -0.011719046787327806 0.0011899318278000004 0 -0.011620111617466952 0.0012062892982170207 0 -0.011801638542620094 0.001212599090484545 0 -0.01168773874480037 0.0012276233637075228 0 -0.011620111617466952 0.0012062892982170207 0 -0.011740361212667126 0.0012082668076749351 0 -0.011750466162694286 0.0011501667572454751 0 -0.011491013535047719 0.001427694873025112 0 -0.01168773874480037 0.0012276233637075228 0 -0.011743342974298255 0.0012354252532581615 0 -0.011740361212667126 0.0012082668076749351 0 -0.011719046787327806 0.0011899318278000004 0 -0.011801638542620094 0.001212599090484545 0 -0.011790568820268469 0.0011627853499058237 0 -0.01168773874480037 0.0012276233637075228 0 -0.011639275985390203 0.0012359761679731512 0 -0.011620111617466952 0.0012062892982170207 0 -0.01168773874480037 0.0012276233637075228 0 -0.011639275985390203 0.0012359761679731512 0 -0.011659895228423757 0.001279608393868829 0 -0.011639275985390203 0.0012359761679731512 0 -0.01157359869945173 0.0012457032316260449 0 -0.011659895228423757 0.001279608393868829 0 -0.011501174452845169 0.0012315721699811086 0 -0.01157359869945173 0.0012457032316260449 0 -0.011620111617466952 0.0012062892982170207 0 -0.011639275985390203 0.0012359761679731512 0 -0.01157359869945173 0.0012457032316260449 0 -0.011620111617466952 0.0012062892982170207 0 -0.011617204565662113 0.0011713044992095159 0 -0.011662083522492766 0.0011801982905119016 0 -0.011620111617466952 0.0012062892982170207 0 -0.011552948281703224 0.0011861578866867784 0 -0.011617204565662113 0.0011713044992095159 0 -0.011620111617466952 0.0012062892982170207 0 -0.011662083522492766 0.0011801982905119016 0 -0.011719046787327806 0.0011899318278000004 0 -0.011620111617466952 0.0012062892982170207 0 -0.0091197441186850296 0.0026736234537482052 0 -0.0088988715223574134 0.0026379858802337538 0 -0.0089571333352061588 0.0027403008665281493 0 -0.010055131219537805 0.0021415724033559793 0 -0.010320129691114876 0.0018998449502233413 0 -0.010222118064577099 0.0018971494009157341 0 -0.010230218036966145 0.0019986243618822079 0 -0.0098910556380788009 0.0020224360703607067 0 -0.010320129691114876 0.0018998449502233413 0 -0.0098720756825897392 0.0020905032295193055 0 -0.010055131219537805 0.0021415724033559793 0 -0.0098720756825897392 0.0020905032295193055 0 -0.0088988715223574134 0.0026379858802337538 0 -0.0089062385784263887 0.0024113364654575098 0 -0.0086633204362523784 0.0024243396850411538 0 -0.0091197441186850296 0.0026736234537482052 0 -0.0088988715223574134 0.0026379858802337538 0 -0.0089062385784263887 0.0024113364654575098 0 -0.010055131219537805 0.0021415724033559793 0 -0.0095833832194228627 0.0021116831580544945 0 -0.0091197441186850296 0.0026736234537482052 0 -0.0089062385784263887 0.0024113364654575098 0 -0.009084356658321531 0.0023125446197819069 0 -0.010110629859162895 0.0020301058378603219 0 -0.010207490662784497 0.001992475174885083 0 -0.010100621404877002 0.0019358450578907777 0 -0.010320129691114876 0.0018998449502233413 0 -0.011491013535047719 0.001427694873025112 0 -0.010314627850487016 0.0018001756708063 0 -0.010324594961695131 0.0019252016365859433 0 -0.011280198278508438 0.0018557342795813875 0 -0.010808230157352963 0.0014979872784115541 0 -0.011324474898740678 0.0014600068229327413 0 -0.011079486589723979 0.0016108066793013272 0 -0.010314627850487016 0.0018001756708063 0 -0.011232112468227759 0.0014509163841977919 0 -0.011280198278508438 0.0018557342795813875 0 -0.011230757719739063 0.0015742123458179602 0 -0.011491013535047719 0.001427694873025112 0 -0.010055131219537805 0.0021415724033559793 0 -0.011230757719739063 0.0015742123458179602 0 -0.011632523988055407 0.0011448871068066243 0 -0.011604035328469733 0.0013485663561313664 0 -0.011493203583354723 0.0014020041206969393 0 -0.011633001575262892 0.0013821480539466485 0 -0.011555537138927085 0.0012959187081269649 0 -0.011474618375633842 0.0012320913750660069 0 -0.011493203583354723 0.0014020041206969393 0 -0.011555537138927085 0.0012959187081269649 0 -0.011079486589723979 0.0016108066793013272 0 -0.011353581485561398 0.0017037829785278911 0 -0.010831717962715226 0.0017812022069945718 0 -0.010808230157352963 0.0014979872784115541 0 -0.011079486589723979 0.0016108066793013272 0 -0.010831717962715226 0.0017812022069945718 0 -0.011604035328469733 0.0013485663561313664 0 -0.010944180208801418 0.0016013192797376262 0 -0.011324474898740678 0.0014600068229327413 0 -0.011079486589723979 0.0016108066793013272 0 -0.011353581485561398 0.0017037829785278911 0 -0.011491013535047719 0.001427694873025112 0 -0.011604035328469733 0.0013485663561313664 0 -0.010944180208801418 0.0016013192797376262 0 -0.010722292092304759 0.0017299551268410355 0 -0.010182132564697176 0.0018546022434198137 0 -0.010375330682615501 0.0020590642034115695 0 -0.0098611793490427421 0.0021338379589714543 0 -0.011238420080113493 0.0013725024523421564 0 -0.0113313803476572 0.0012571705200637353 0 -0.011372108957338738 0.0013518984381765129 0 -0.010356461008148177 0.0018415152828794635 0 -0.010182132564697176 0.0018546022434198137 0 -0.010375330682615501 0.0020590642034115695 0 -0.010320129691114876 0.0018998449502233413 0 -0.010944180208801418 0.0016013192797376262 0 -0.011238420080113493 0.0013725024523421564 0 -0.0113313803476572 0.0012571705200637353 0 -0.01123243851863396 0.001209929354077457 0 -0.010944180208801418 0.0016013192797376262 0 -0.011475800816497718 0.001140980593553258 0 -0.011633001575262892 0.0013821480539466485 0 -0.011622001422547178 0.0011660465654094567 0 -0.011555537138927085 0.0012959187081269649 0 -0.011474618375633842 0.0012320913750660069 0 -0.011622001422547178 0.0011660465654094567 0 -0.011555537138927085 0.0012959187081269649 0 -0.011610184786659154 0.00094662875226980204 0 -0.011457003782677652 0.0010595933388883559 0 -0.011622001422547178 0.0011660465654094567 0 -0.011386878248969976 0.0010259564208658692 0 -0.011475800816497718 0.001140980593553258 0 -0.011457003782677652 0.0010595933388883559 0 -0.011474618375633842 0.0012320913750660069 0 -0.011622001422547178 0.0011660465654094567 0 -0.0113313803476572 0.0012571705200637353 0 -0.01123243851863396 0.001209929354077457 0 -0.011361951084240407 0.0011173056160115736 0 -0.011230185043660794 0.0010462923771213572 0 -0.01123243851863396 0.001209929354077457 0 -0.011361951084240407 0.0011173056160115736 0 -0.0113313803476572 0.0012571705200637353 0 -0.011361951084240407 0.0011173056160115736 0 -0.011450732211389768 0.0012329303712920099 0 -0.011361951084240407 0.0011173056160115736 0 -0.011492026318698256 0.0011110805828092232 0 -0.011450732211389768 0.0012329303712920099 0 -0.011492026318698256 0.0011110805828092232 0 -0.011450732211389768 0.0012329303712920099 0 -0.011563730275088394 0.0012193788621019104 0 -0.011056763635394358 0.0012632390368231509 0 -0.0097690543516374372 0.001900780560481272 0 -0.011450732211389768 0.0012329303712920099 0 -0.011372108957338738 0.0013518984381765129 0 -0.011502029912043712 0.0013339355885622259 0 -0.011450732211389768 0.0012329303712920099 0 -0.011563730275088394 0.0012193788621019104 0 -0.011502029912043712 0.0013339355885622259 0 -0.0113313803476572 0.0012571705200637353 0 -0.011450732211389768 0.0012329303712920099 0 -0.011372108957338738 0.0013518984381765129 0 -0.010277248719872741 0.0014709829037040591 0 -0.010174407561063558 0.0015912469006462893 0 -0.0102437634822085 0.0016797130137519178 0 -0.010584972288932187 0.0015299227061174503 0 -0.0098233217379184515 0.0017413102434838429 0 -0.010685179557137279 0.0015263622991581658 0 -0.010762068013590347 0.0014295203662694261 0 -0.010798456117710329 0.0014724962664180328 0 -0.010584972288932187 0.0015299227061174503 0 -0.010296956701787752 0.0014991882373132876 0 -0.010296956701787752 0.0014991882373132876 0 -0.0098233217379184515 0.0017413102434838429 0 -0.011092611276266325 0.0012163369603915364 0 -0.011056763635394358 0.0012632390368231509 0 -0.01072362328823058 0.0013146006932712169 0 -0.010589734175487983 0.001146794698078542 0 -0.010395535604608423 0.0015409953313857369 0 -0.011492026318698256 0.0011110805828092232 0 -0.011619836049948594 0.0011064545835592226 0 -0.011563730275088394 0.0012193788621019104 0 -0.01072362328823058 0.0013146006932712169 0 -0.010463712797201772 0.0016266870683575958 0 -0.010395535604608423 0.0015409953313857369 0 -0.010296956701787752 0.0014991882373132876 0 -0.010023892292065179 0.0017437890314943732 0 -0.010296956701787752 0.0014991882373132876 0 -0.011092611276266325 0.0012163369603915364 0 -0.0095980159423532229 0.0018453622033221318 0 -0.0095914654863339926 0.0018445936912904512 0 -0.0096049652002344367 0.0018383325332448873 0 -0.0095914654863339926 0.0018445936912904512 0 -0.0095824752567188927 0.0018409496788576109 0 -0.0096049652002344367 0.0018383325332448873 0 -0.010463712797201772 0.0016266870683575958 0 -0.010395535604608423 0.0015409953313857369 0 -0.010192068745096048 0.0019464981809152557 0 -0.010023892292065179 0.0017437890314943732 0 -0.0097690543516374372 0.001900780560481272 0 -0.0095942521774218508 0.0018503308868606113 0 -0.0095980159423532229 0.0018453622033221318 0 -0.0095914654863339926 0.0018445936912904512 0 -0.0095942521774218508 0.0018503308868606113 0 -0.0095914654863339926 0.0018445936912904512 0 -0.0095853322307741361 0.0018461937579779047 0 -0.0095914654863339926 0.0018445936912904512 0 -0.0095824752567188927 0.0018409496788576109 0 -0.0095853322307741361 0.0018461937579779047 0 -0.0091408367322034102 0.0017904695727777936 0 -0.0098233217379184515 0.0017413102434838429 0 -0.0092070123108814253 0.0018107814572964078 0 -0.0092163116558149592 0.0018099091116802084 0 -0.0092175330406660087 0.0018213051159709369 0 -0.0091408367322034102 0.0017904695727777936 0 -0.0085118011673026347 0.0020678217171496934 0 -0.0085118011673026347 0.0020678217171496934 0 -0.0098233217379184515 0.0017413102434838429 0 -0.007698805564331947 0.0021982563312772374 0 -0.0077195045020917123 0.0021960686416453309 0 -0.0077183793930282324 0.0021638033870438 0 -0.0079187751068753049 0.0025269464661321103 0 -0.0079480227895748802 0.0022784530427553767 0 -0.0082470941331823783 0.0022578692535564888 0 -0.0085118011673026347 0.0020678217171496934 0 -0.006711479845441029 0.0028179227717781575 0 -0.006711479845441029 0.0028179227717781575 0 -0.0071572681569990601 0.0027576331618863279 0 -0.0079187751068753049 0.0025269464661321103 0 -0.0082470941331823783 0.0022578692535564888 0 -0.0084444927873252966 0.0024514151968322837 0 -0.0085118011673026347 0.0020678217171496934 0 -0.0097690543516374372 0.001900780560481272 0 -0.0062240243070845035 0.003246499121667263 0 -0.0064137194941917301 0.0028196047632437337 0 -0.0058757625640332434 0.0026783746318240764 0 -0.0058129764103270719 0.0032729173456109845 0 -0.0062240243070845035 0.003246499121667263 0 -0.0058757625640332434 0.0026783746318240764 0 -0.0055729748675587398 0.0030063055179052607 0 -0.0057974093954707151 0.0032594670019684378 0 -0.0058757625640332434 0.0026783746318240764 0 -0.006711479845441029 0.0028179227717781575 0 -0.0056709065778402833 0.0029204351175327668 0 -0.0098611793490427421 0.0021338379589714543 0 -0.0097353581597214092 0.002035905397005649 0 -0.0094166892512173878 0.0021869291318525066 0 -0.010093262065793885 0.0019075501734196255 0 -0.0097353581597214092 0.002035905397005649 0 -0.0095478472461078181 0.0019362838744809443 0 -0.010182132564697176 0.0018546022434198137 0 -0.0098611793490427421 0.0021338379589714543 0 -0.0097353581597214092 0.002035905397005649 0 -0.0098720756825897392 0.0020905032295193055 0 -0.0098802219092435951 0.001971752710425977 0 -0.0071572681569990601 0.0027576331618863279 0 -0.0082443018488444018 0.0026464874772019328 0 -0.010722292092304759 0.0017299551268410355 0 -0.0097690543516374372 0.001900780560481272 0 -0.0082470941331823783 0.0022578692535564888 0 -0.0084444927873252966 0.0024514151968322837 0 -0.0085453929769973222 0.0022388760413252699 0 -0.0097690543516374372 0.001900780560481272 0 -0.0095112743295604953 0.0021134369946035317 0 -0.0097690543516374372 0.001900780560481272 0 -0.0082443018488444018 0.0026464874772019328 0 -0.0097353581597214092 0.002035905397005649 0 -0.0095828109583232617 0.0019959716463301882 0 -0.0095478472461078181 0.0019362838744809443 0 -0.0094258538472951868 0.0021787438291320936 0 -0.0095828109583232617 0.0019959716463301882 0 -0.0095478472461078181 0.0019362838744809443 0 -0.0097353581597214092 0.002035905397005649 0 -0.0094166892512173878 0.0021869291318525066 0 -0.0095828109583232617 0.0019959716463301882 0 -0.0082443018488444018 0.0026464874772019328 0 -0.0075435405274095488 0.0028169897503694473 0 -0.0066427998765764438 0.003217290372904726 0 -0.0068774536488005467 0.0027269816364999351 0 -0.0064137194941917301 0.0028196047632437337 0 -0.0062240243070845035 0.003246499121667263 0 -0.0066427998765764438 0.003217290372904726 0 -0.0064137194941917301 0.0028196047632437337 0 -0.0082546505186189851 0.0027896599962328396 0 -0.0083839118637551308 0.0027142573006437927 0 -0.0084879301964321842 0.0023101037136424403 0 -0.0098720756825897392 0.0020905032295193055 0 -0.0082443018488444018 0.0026464874772019328 0 -0.0089571333352061588 0.0027403008665281493 0 -0.0082546505186189851 0.0027896599962328396 0 -0.0083839118637551308 0.0027142573006437927 0 -0.0084956082869074474 0.0025581441595290844 0 -0.0081872878503810118 0.0026586266227314093 0 -0.0088988715223574134 0.0026379858802337538 0 -0.0083839118637551308 0.0027142573006437927 0 -0.0086393310879215538 0.0024049246857213314 0 -0.0083839118637551308 0.0027142573006437927 0 -0.0086157702741507802 0.0024275767785239153 0 -0.0084879301964321842 0.0023101037136424403 0 -0.0088988715223574134 0.0026379858802337538 0 -0.0089571333352061588 0.0027403008665281493 0 -0.0083839118637551308 0.0027142573006437927 0 -0.0088321390082287746 0.0026935078141453908 0 -0.0081872878503810118 0.0026586266227314093 0 -0.0072893327142473045 0.0032969165406375256 0 -0.0067222541099441289 0.0027905305637886102 0 -0.0075344200628570911 0.0027944521919671264 0 -0.0076027292506402203 0.0030571676228798739 0 -0.0074882961885273944 0.0029535833025853614 0 -0.0076381155089226592 0.0026336100696151355 0 -0.0075435405274095488 0.0028169897503694473 0 -0.0075631283224017309 0.0027566853366014581 0 -0.0081872878503810118 0.0026586266227314093 0 -0.0075435405274095488 0.0028169897503694473 0 -0.0068774536488005467 0.0027269816364999351 0 -0.0064137194941917301 0.0028196047632437337 0 -0.0064450797055751533 0.0023528483527573349 0 -0.0075435405274095488 0.0028169897503694473 0 -0.0065266059123920998 0.0025720666914448042 0 -0.0067222541099441289 0.0027905305637886102 0 -0.0072938806768075579 0.0024177566707415041 0 -0.0075344200628570911 0.0027944521919671264 0 -0.0072938806768075579 0.0024177566707415041 0 -0.0075344200628570911 0.0027944521919671264 0 -0.0077766189740022121 0.002286295986053045 0 -0.0075631283224017309 0.0027566853366014581 0 -0.0077656274197533343 0.0023206587925891286 0 -0.0064137194941917301 0.0028196047632437337 0 -0.0064450797055751533 0.0023528483527573349 0 -0.0058757625640332434 0.0026783746318240764 0 -0.0065266059123920998 0.0025720666914448042 0 -0.0060777106225982881 0.0021154482791918539 0 -0.0064450797055751533 0.0023528483527573349 0 -0.0058757625640332434 0.0026783746318240764 0 -0.0060078648028484265 0.0019867370914488426 0 -0.0054886012081944314 0.0022168928352273381 0 -0.0058757625640332434 0.0026783746318240764 0 -0.0060078648028484265 0.0019867370914488426 0 -0.0054886012081944314 0.0022168928352273381 0 -0.0060078648028484265 0.0019867370914488426 0 -0.0055832331620200536 0.0016483907673695679 0 -0.0061328919331006633 0.0022497935166406052 0 -0.006495990724941089 0.0018655069740991298 0 -0.0055832331620200536 0.0016483907673695679 0 -0.0060777106225982881 0.0021154482791918539 0 -0.0056178372949616112 0.001687469670496217 0 -0.0067222541099441289 0.0027905305637886102 0 -0.0061328919331006633 0.0022497935166406052 0 -0.006495990724941089 0.0018655069740991298 0 -0.0063139762376244087 0.0012217699148655088 0 -0.006495990724941089 0.0018655069740991298 0 -0.0055832331620200536 0.0016483907673695679 0 -0.007087625684579958 0.0019654422330494851 0 -0.0079565589818443114 0.0022283583079142576 0 -0.0077766189740022121 0.002286295986053045 0 -0.007056019356956416 0.0020303513536068644 0 -0.0083197291531244694 0.0021308166026221564 0 -0.007087625684579958 0.0019654422330494851 0 -0.0079918740633479271 0.0020057358269596577 0 -0.0082539800039911747 0.0024135700160243388 0 -0.0072938806768075579 0.0024177566707415041 0 -0.007087625684579958 0.0019654422330494851 0 -0.0077766189740022121 0.002286295986053045 0 -0.0067222541099441289 0.0027905305637886102 0 -0.006495990724941089 0.0018655069740991298 0 -0.007087625684579958 0.0019654422330494851 0 -0.0067222541099441289 0.0027905305637886102 0 -0.0072938806768075579 0.0024177566707415041 0 -0.007087625684579958 0.0019654422330494851 0 -0.006495990724941089 0.0018655069740991298 0 -0.007087625684579958 0.0019654422330494851 0 -0.007085214297975242 0.0013476629051876439 0 -0.0063139762376244087 0.0012217699148655088 0 -0.006495990724941089 0.0018655069740991298 0 -0.007085214297975242 0.0013476629051876439 0 -0.007087625684579958 0.0019654422330494851 0 -0.0076849918482335793 0.0016321470257565358 0 -0.0079918740633479271 0.0020057358269596577 0 -0.007087625684579958 0.0019654422330494851 0 -0.007085214297975242 0.0013476629051876439 0 -0.0076849918482335793 0.0016321470257565358 0 -0.0077292393730765616 0.0012698629739271387 0 -0.007085214297975242 0.0013476629051876439 0 -0.0076849918482335793 0.0016321470257565358 0 -0.0077292393730765616 0.0012698629739271387 0 -0.0076849918482335793 0.0016321470257565358 0 -0.0081014318626843763 0.0014715115200978264 0 -0.0076849918482335793 0.0016321470257565358 0 -0.0081014318626843763 0.0014715115200978264 0 -0.0082253453036508911 0.0017286378087568374 0 -0.0077292393730765616 0.0012698629739271387 0 -0.0084875921040886669 0.0012440077076580425 0 -0.0081014318626843763 0.0014715115200978264 0 -0.0084875921040886669 0.0012440077076580425 0 -0.0081014318626843763 0.0014715115200978264 0 -0.0084328055485023892 0.0015329490952093149 0 -0.0081014318626843763 0.0014715115200978264 0 -0.0084328055485023892 0.0015329490952093149 0 -0.0082253453036508911 0.0017286378087568374 0 -0.0082253453036508911 0.0017286378087568374 0 -0.0079918740633479271 0.0020057358269596577 0 -0.0083624873044659577 0.0019993686495361563 0 -0.0084328055485023892 0.0015329490952093149 0 -0.008486671364177226 0.001772075576319556 0 -0.0082253453036508911 0.0017286378087568374 0 -0.008486671364177226 0.001772075576319556 0 -0.0082253453036508911 0.0017286378087568374 0 -0.0083624873044659577 0.0019993686495361563 0 -0.008486671364177226 0.001772075576319556 0 -0.0083624873044659577 0.0019993686495361563 0 -0.0086173962897430848 0.0020540801042084485 0 -0.0076849918482335793 0.0016321470257565358 0 -0.0082253453036508911 0.0017286378087568374 0 -0.0079918740633479271 0.0020057358269596577 0 -0.0079918740633479271 0.0020057358269596577 0 -0.0082471305087314772 0.0022646139274492593 0 -0.0082539800039911747 0.0024135700160243388 0 -0.0079918740633479271 0.0020057358269596577 0 -0.0083624873044659577 0.0019993686495361563 0 -0.0082471305087314772 0.0022646139274492593 0 -0.0083624873044659577 0.0019993686495361563 0 -0.0084196997636199252 0.0022142637036022678 0 -0.0086173962897430848 0.0020540801042084485 0 -0.0084196997636199252 0.0022142637036022678 0 -0.0082471305087314772 0.0022646139274492593 0 -0.0082632435338459483 0.0024110158133011797 0 -0.0083624873044659577 0.0019993686495361563 0 -0.0084196997636199252 0.0022142637036022678 0 -0.0082471305087314772 0.0022646139274492593 0 -0.0083158735673269507 0.0021906904374483604 0 -0.0083197291531244694 0.0021308166026221564 0 -0.0084196997636199252 0.0022142637036022678 0 -0.0082632435338459483 0.0024110158133011797 0 -0.0086067988178169848 0.0023428417907033761 0 -0.0088854681435763336 0.0024816594934731736 0 -0.0086173962897430848 0.0020540801042084485 0 -0.0087857989050709063 0.001551485647167871 0 -0.0097924201227055935 0.0017941239023556495 0 -0.008945430699586367 0.001436903219705833 0 -0.010053721755148742 0.0011978450068796417 0 -0.010057942350336394 0.0012426985889023524 0 -0.010290491022837888 0.001185260764990953 0 -0.0097924201227055935 0.0017941239023556495 0 -0.010262204584887113 0.0016357874288520176 0 -0.010262204584887113 0.0016357874288520176 0 -0.0097009801810915598 0.0017500882313244894 0 -0.0082632435338459483 0.0024110158133011797 0 -0.0088133271957869987 0.0025710355434409166 0 -0.0086067988178169848 0.0023428417907033761 0 -0.0083197291531244694 0.0021308166026221564 0 -0.0097009801810915598 0.0017500882313244894 0 -0.0097924201227055935 0.0017941239023556495 0 -0.0097009801810915598 0.0017500882313244894 0 -0.0099628792791874431 0.0017633482656704543 0 -0.009919680327410231 0.0013945632047003072 0 -0.010197202480485413 0.0014797736501868893 0 -0.0088854681435763336 0.0024816594934731736 0 -0.0088133271957869987 0.0025710355434409166 0 -0.0086067988178169848 0.0023428417907033761 0 -0.0088854681435763336 0.0024816594934731736 0 -0.0086067988178169848 0.0023428417907033761 0 -0.0086173962897430848 0.0020540801042084485 0 -0.0084196997636199252 0.0022142637036022678 0 -0.0086067988178169848 0.0023428417907033761 0 -0.0086173962897430848 0.0020540801042084485 0 -0.0097924201227055935 0.0017941239023556495 0 -0.010008940579055572 0.001182004446240296 0 -0.009295370011688734 0.002021412496255778 0 -0.0091876666244496367 0.0011598270242995329 0 -0.0097722383910594166 0.001445583611699599 0 -0.008486671364177226 0.001772075576319556 0 -0.0086173962897430848 0.0020540801042084485 0 -0.0087857989050709063 0.001551485647167871 0 -0.0084875921040886669 0.0012440077076580425 0 -0.0084328055485023892 0.0015329490952093149 0 -0.0087857989050709063 0.001551485647167871 0 -0.0084328055485023892 0.0015329490952093149 0 -0.008486671364177226 0.001772075576319556 0 -0.0087857989050709063 0.001551485647167871 0 -0.0091876666244496367 0.0011598270242995329 0 -0.0097079242056476948 0.001014615408598322 0 -0.0097722383910594166 0.001445583611699599 0 -0.0096201913414473757 0.00066208209635627824 0 -0.0091876666244496367 0.0011598270242995329 0 -0.0097079242056476948 0.001014615408598322 0 -0.010288900479334012 0.0007856641083912035 0 -0.010237766050063634 0.00097223513523296979 0 -0.01049019778858761 0.0010369881731404464 0 -0.010288900479334012 0.0007856641083912035 0 -0.0097079242056476948 0.001014615408598322 0 -0.0097722383910594166 0.001445583611699599 0 -0.010268642328550159 0.00083496567240348436 0 -0.010008940579055572 0.001182004446240296 0 -0.010288900479334012 0.0007856641083912035 0 -0.010769738331778335 0.00088268409786782453 0 -0.01049019778858761 0.0010369881731404464 0 -0.01092399914999264 0.0010883842818479599 0 -0.01049019778858761 0.0010369881731404464 0 -0.010546980255589694 0.0013553757677753832 0 -0.01049019778858761 0.0010369881731404464 0 -0.010290491022837888 0.001185260764990953 0 -0.010546980255589694 0.0013553757677753832 0 -0.010237766050063634 0.00097223513523296979 0 -0.01049019778858761 0.0010369881731404464 0 -0.010290491022837888 0.001185260764990953 0 -0.010053721755148742 0.0011978450068796417 0 -0.010237766050063634 0.00097223513523296979 0 -0.010290491022837888 0.001185260764990953 0 -0.011617010582984299 0.0014200691514761037 0 -0.011586432639706656 0.0013758364096469484 0 -0.011543719256651756 0.0014119380118672148 0 -0.010262204584887113 0.0016357874288520176 0 -0.01117032294009709 0.0013411229719876038 0 -0.010057942350336394 0.0012426985889023524 0 -0.010290491022837888 0.001185260764990953 0 -0.010546980255589694 0.0013553757677753832 0 -0.011401400845120979 0.0013315082138592414 0 -0.011695789810224271 0.0012405588630965188 0 -0.011420575220787092 0.001309190887073014 0 -0.01157359869945173 0.0012457032316260449 0 -0.011659895228423757 0.001279608393868829 0 -0.011420575220787092 0.001309190887073014 0 -0.011543719256651756 0.0014119380118672148 0 -0.011548532018497237 0.0013043429987985135 0 -0.011615825837439564 0.0012946585072203744 0 -0.011548532018497237 0.0013043429987985135 0 -0.011592868965231323 0.0013336099635131641 0 -0.011586432639706656 0.0013758364096469484 0 -0.011543719256651756 0.0014119380118672148 0 -0.011548532018497237 0.0013043429987985135 0 -0.011586432639706656 0.0013758364096469484 0 -0.011592868965231323 0.0013336099635131641 0 -0.011620734232058668 0.001362853694000831 0 -0.011586432639706656 0.0013758364096469484 0 -0.011548532018497237 0.0013043429987985135 0 -0.011592868965231323 0.0013336099635131641 0 -0.010207490662784497 0.001992475174885083 0 -0.010188417736748017 0.0018785951048526223 0 -0.010100621404877002 0.0019358450578907777 0 -0.011230757719739063 0.0015742123458179602 0 -0.010914794322077826 0.0016304867457216205 0 -0.011615825837439564 0.0012946585072203744 0 -0.011592868965231323 0.0013336099635131641 0 -0.011620734232058668 0.001362853694000831 0 -0.010188417736748017 0.0018785951048526223 0 -0.010100621404877002 0.0019358450578907777 0 -0.010089561937703355 0.0018439237058078468 0 -0.0081872878503810118 0.0026586266227314093 0 -0.0089245184179994122 0.0022182463731234884 0 -0.0076027292506402203 0.0030571676228798739 0 -0.0076381155089226592 0.0026336100696151355 0 -0.0079614411998986077 0.0026394166214958274 0 -0.0089062385784263887 0.0024113364654575098 0 -0.009084356658321531 0.0023125446197819069 0 -0.0090549300569515538 0.001955959220205754 0 -0.0089062385784263887 0.0024113364654575098 0 -0.0086633204362523784 0.0024243396850411538 0 -0.0090549300569515538 0.001955959220205754 0 -0.0095833832194228627 0.0021116831580544945 0 -0.0089245184179994122 0.0022182463731234884 0 -0.0079565589818443114 0.0022283583079142576 0 -0.0077766189740022121 0.002286295986053045 0 -0.0079614411998986077 0.0026394166214958274 0 -0.0083197291531244694 0.0021308166026221564 0 -0.0089245184179994122 0.0022182463731234884 0 -0.0088560822237554234 0.0018761275753846371 0 -0.0091501691829019658 0.0019644696037826041 0 -0.0088891236613586437 0.0022782763536067334 0 -0.0076381155089226592 0.0026336100696151355 0 -0.0077766189740022121 0.002286295986053045 0 -0.0079614411998986077 0.0026394166214958274 0 -0.010170134650299339 0.0017654599128435152 0 -0.010188417736748017 0.0018785951048526223 0 -0.010089561937703355 0.0018439237058078468 0 -0.010170134650299339 0.0017654599128435152 0 -0.010157365994090005 0.001761915336186674 0 -0.010089561937703355 0.0018439237058078468 0 -0.0097009801810915598 0.0017500882313244894 0 -0.0089245184179994122 0.0022182463731234884 0 -0.011617010582984299 0.0014200691514761037 0 -0.011586432639706656 0.0013758364096469484 0 -0.011620734232058668 0.001362853694000831 0 -0.010262204584887113 0.0016357874288520176 0 -0.010914794322077826 0.0016304867457216205 0 
</DataArray>
</PointData>
<CellData Scalars="region_id,cross_section_updated," Vectors="" Tensors="stress,">
<DataArray type="Float64" Name="region_id" format="ascii">
5 6 5 5 5 6 5 5 5 5 5 6 5 5 5 6 5 5 5 5 5 6 5 5 6 5 5 5 5 5 5 5 5 5 5 5 5 5 5 5 5 6 5 5 5 5 5 5 5 5 5 5 5 5 5 5 5 5 5 6 5 5 5 5 5 5 5 5 5 5 5 5 6 5 5 5 5 5 6 5 6 5 5 5 5 5 5 6 5 5 5 5 5 5 5 5 5 5 5 5 5 5 5 5 5 5 5 5 5 5 5 5 5 5 5 5 6 5 5 6 5 6 5 5 5 5 5 5 5 5 6 5 5 6 5 5 5 5 5 5 5 6 5 5 6 5 5 5 5 5 5 5 5 6 5 5 5 5 6 5 5 6 5 5 5 5 5 6 5 5 5 5 5 5 5 5 5 6 5 6 5 5 5 5 5 5 5 6 5 5 6 6 5 5 5 5 6 5 5 5 5 5 6 5 5 5 5 5 5 6 5 5 5 6 5 5 5 5 5 5 5 5 5 5 5 5 5 5 5 5 5 5 5 5 5 5 6 5 5 6 5 5 5 5 5 5 5 5 5 5 5 5 5 5 5 5 5 5 6 5 5 5 5 5 5 5 5 5 5 6 5 5 5 5 5 5 5 6 6 6 5 5 5 5 5 5 5 5 5 6 5 5 5 5 5 5 5 6 5 5 5 6 5 5 6 5 5 5 5 5 5 5 5 5 5 5 5 5 5 5 6 5 5 5 6 5 5 5 5 5 5 5 5 5 5 5 5 5 5 5 5 5 5 5 5 5 5 5 5 5 5 5 6 5 5 6 5 5 5 5 5 5 5 5 5 5 6 5 5 5 6 5 5 5 5 5 5 5 6 5 5 5 5 6 5 6 5 5 5 5 5 6 5 5 5 5 5 5 5 5 5 5 5 6 5 6 5 6 6 5 6 5 5 6 5 5 5 5 5 5 5 5 5 5 5 5 5 5 5 6 5 5 5 5 5 5 5 6 6 5 5 5 5 5 5 5 5 5 5 5 5 5 5 5 6 5 5 5 6 5 6 6 5 5 5 5 6 5 6 5 5 5 5 5 5 5 5 5 5 6 5 5 5 6 5 5 5 5 5 5 5 5 5 6 5 6 5 6 5 5 6 6 5 5 5 5 6 5 5 5 5 6 6 5 5 5 5 5 5 6 5 5 5 5 5 5 5 5 5 5 6 5 5 5 6 5 6 5 5 5 6 5 5 6 5 5 6 6 5 5 5 5 5 5 5 5 5 5 5 5 5 5 5 5 5 5 5 6 5 5 5 5 6 6 5 5 6 5 5 5 5 6 5 5 5 6 5 5 5 5 5 5 6 5 5 5 5 5 5 5 6 5 5 6 5 6 5 5 5 5 5 5 5 5 5 5 5 6 6 5 5 5 5 5 5 5 5 5 6 5 5 5 5 5 5 5 5 5 5 5 5 5 5 5 5 5 5 5 5 5 5 5 5 5 5 5 5 5 5 5 5 6 5 5 5 5 6 5 5 5 5 5 5 5 5 5 5 5 6 5 6 5 5 5 5 5 6 5 5 5 5 5 5 5 5 5 5 5 5 5 5 5 5 5 5 5 5 5 5 5 5 5 5 5 5 5 5 5 5 5 5 5 5 5 5 5 5 5 5 5 5 5 5 5 6 5 5 5 5 5 5 5 5 5 5 5 5 5 5 5 5 5 5 5 5 5 5 5 5 5 5 5 5 6 5 5 5 5 5 5 5 5 5 5 5 5 5 5 5 5 5 6 5 5 5 5 5 5 5 5 5 5 5 5 5 5 5 5 5 5 5 5 5 5 5 5 5 5 5 5 5 5 5 5 5 5 5 5 6 5 5 6 5 5 5 5 5 5 5 5 5 5 5 5 5 5 5 5 6 5 5 5 5 6 6 5 5 6 5 5 5 5 5 5 5 5 5 6 6 5 5 5 5 6 5 5 5 5 6 5 5 5 6 5 5 5 5 5 5 5 5 5 6 5 5 5 5 5 5 5 5 5 5 5 5 5 5 5 5 5 5 5 5 5 5 5 5 6 5 5 5 5 5 5 5 5 6 5 5 5 5 6 5 5 5 5 6 6 5 5 5 5 5 5 5 5 5 5 6 5 5 5 5 5 5 5 5 5 6 5 5 6 5 6 5 5 6 5 5 5 6 5 5 5 5 5 5 5 5 5 5 5 6 5 5 5 5 5 6 6 5 5 5 5 6 5 5 5 6 5 5 5 5 5 5 6 5 5 5 5 5 6 5 5 5 5 6 5 5 6 5 6 6 5 6 5 5 5 5 6 5 6 5 5 5 5 5 5 5 5 6 5 5 5 6 5 5 5 5 5 5 6 5 5 5 5 5 5 6 6 5 5 5 5 5 5 6 5 5 5 5 6 5 5 5 5 5 5 5 5 5 6 5 5 5 5 5 5 6 5 6 5 5 5 5 6 5 5 6 5 5 6 5 6 5 5 5 5 5 5 5 5 6 5 6 5 5 5 5 5 5 5 5 5 5 6 5 5 5 5 5 5 5 5 5 6 5 5 5 5 6 6 5 5 6 5 5 5 5 5 5 5 5 5 5 5 5 5 5 6 5 6 5 5 5 5 5 5 5 5 5 6 5 5 5 5 5 5 5 5 5 5 5 5 5 5 5 5 5 5 5 5 5 5 5 5 5 5 5 5 5 5 5 5 5 5 5 5 5 5 5 5 5 5 5 5 5 5 5 5 5 5 5 5 5 6 5 6 5 5 5 6 5 5 6 6 5 5 5 5 5 5 5 5 5 6 5 5 5 5 5 5 5 5 5 5 5 5 5 5 5 5 5 5 5 5 5 5 5 5 5 5 5 5 5 5 5 6 5 5 5 5 6 5 5 5 5 5 5 5 6 5 5 5 5 5 5 5 6 5 5 5 5 5 5 6 5 6 5 6 5 5 5 5 5 5 5 5 6 5 5 5 5 5 5 6 5 5 6 5 5 5 5 5 5 5 5 5 5 5 5 5 6 5 6 5 5 5 5 5 5 6 5 5 5 5 6 5 5 5 5 5 6 6 5 6 5 5 5 6 5 5 5 5 5 5 5 5 5 5 5 5 5 5 5 5 5 6 5 5 5 5 5 5 5 5 5 5 5 5 5 5 5 5 5 6 5 5 5 5 5 5 6 5 6 5 5 6 5 5 5 5 5 6 5 5 6 5 6 6 6 5 5 5 5 5 5 5 5 5 6 5 5 5 6 5 5 5 5 6 5 5 5 5 5 5 5 5 5 5 5 5 5 5 5 5 5 5 5 6 5 5 5 5 6 5 5 5 5 5 5 5 5 6 5 5 5 5 5 6 5 5 5 5 5 5 5 5 5 5 5 5 5 5 5 5 5 5 5 6 5 5 6 6 6 5 5 6 6 5 5 5 5 6 5 5 5 5 5 5 5 5 6 6 5 6 5 6 5 5 5 5 5 5 5 5 6 5 5 5 5 5 5 6 5 5 5 5 5 5 5 6 5 5 5 5 5 5 5 5 5 5 5 6 5 5 5 5 5 5 5 5 5 5 5 5 5 5 5 5 5 5 5 5 5 5 6 5 5 5 5 6 5 5 5 6 5 6 5 5 5 5 5 6 5 5 5 5 5 5 5 5 5 5 5 5 5 5 5 5 5 5 5 5 5 5 5 5 5 5 6 5 5 5 5 5 5 5 5 5 6 6 5 6 5 5 5 6 5 5 6 5 5 6 5 5 5 6 5 5 5 6 5 6 5 5 5 5 5 5 5 5 5 5 5 5 6 5 5 5 5 5 5 5 5 5 5 5 5 5 5 5 5 5 6 5 5 5 6 5 5 5 6 5 5 5 5 5 5 5 6 5 5 5 5 6 5 5 5 5 5 5 5 5 6 5 5 5 5 5 5 5 5 5 5 5 5 5 5 5 5 5 5 5 5 5 5 5 5 5 5 5 5 5 5 5 5 5 6 5 5 5 5 5 5 5 5 5 5 5 5 5 5 6 5 6 5 5 5 6 5 5 5 5 5 6 5 5 5 5 5 5 5 5 6 5 5 6 5 5 5 5 5 5 5 5 5 5 5 5 6 5 5 6 5 6 5 5 5 5 6 5 5 6 5 5 5 5 5 5 5 5 5 5 5 6 5 6 5 5 6 6 5 6 5 5 5 5 6 5 5 5 5 5 5 5 5 5 5 5 6 5 5 6 5 6 5 5 5 5 5 5 5 5 5 5 6 5 5 5 5 5 5 5 5 5 5 5 5 5 5 5 5 5 5 5 5 5 5 5 5 5 5 5 5 5 5 5 5 5 5 5 6 5 5 5 5 5 5 6 5 5 5 5 6 5 5 5 5 6 5 5 5 5 5 5 5 5 5 6 5 5 5 5 5 6 6 5 5 5 6 5 6 5 5 5 5 5 5 5 5 5 6 5 6 5 5 5 5 5 6 5 6 5 5 5 5 5 5 5 6 5 5 5 5 5 5 5 5 5 5 5 5 5 5 5 5 5 5 5 5 5 6 6 6 5 5 5 5 6 5 5 5 5 5 5 5 5 5 5 5 5 5 5 5 5 5 5 5 5 5 5 5 5 5 5 5 5 5 5 5 5 5 5 5 6 5 5 5 5 5 5 5 5 5 5 5 5 5 5 5 5 5 5 6 5 5 5 6 5 5 5 5 5 5 5 5 5 6 5 5 5 5 5 5 5 5 5 5 5 5 5 5 5 5 5 6 5 6 5 5 5 5 5 5 5 5 5 5 5 5 5 6 5 5 5 5 5 5 5 6 5 5 5 5 5 5 6 5 5 5 5 5 5 5 5 5 5 5 6 5 5 5 5 5 6 5 5 5 5 5 5 6 5 5 5 5 5 6 5 6 5 5 5 5 5 5 5 5 5 5 5 5 5 5 5 6 5 5 5 5 5 5 5 5 5 5 6 6 5 5 6 5 5 6 5 6 5 5 5 5 5 5 5 5 5 6 6 5 5 5 5 5 6 5 5 5 5 5 5 5 6 5 5 5 5 5 5 5 5 5 5 5 5 5 5 5 5 5 5 5 5 5 5 5 5 5 5 5 5 5 5 5 5 5 5 5 5 5 5 5 5 5 5 5 5 6 5 5 6 5 5 5 5 5 5 5 6 5 5 5 6 5 5 6 5 5 6 6 5 5 6 5 5 5 5 5 5 5 5 5 5 5 5 5 5 5 6 5 5 5 5 5 5 5 5 5 5 5 5 5 6 5 5 5 5 5 5 5 5 5 5 5 5 5 5 5 5 5 5 5 5 5 5 5 5 5 5 6 5 5 5 5 5 5 5 5 5 5 5 5 6 5 5 5 5 5 5 5 5 5 5 5 6 5 5 5 6 5 5 5 5 5 5 6 5 5 5 5 5 5 5 5 5 5 5 5 5 5 5 5 5 5 5 5 5 5 5 5 5 6 5 6 5 5 5 5 6 5 5 6 5 5 5 5 5 5 5 5 5 5 5 5 5 5 5 5 5 5 5 5 5 5 5 5 5 5 5 5 6 5 5 5 5 5 5 5 5 5 5 5 5 5 5 5 5 5 5 6 5 5 5 5 6 5 6 5 5 5 5 5 5 5 5 5 5 5 5 5 5 5 5 5 5 5 5 5 5 5 5 5 5 5 5 5 6 5 5 5 5 5 5 5 6 5 5 5 5 5 5 5 6 5 5 5 6 5 5 5 5 5 5 5 6 5 5 5 6 6 6 5 5 6 5 5 5 6 5 5 5 5 5 5 5 5 5 6 6 5 5 5 5 5 5 5 5 5 5 5 5 6 5 5 5 5 5 5 6 5 5 5 5 5 5 5 5 5 5 5 5 5 5 5 5 5 6 5 5 5 5 6 5 5 5 5 6 5 5 5 5 5 5 5 5 5 5 5 5 5 5 5 5 5 5 5 5 5 5 5 5 5 6 5 5 5 5 5 5 5 5 6 5 5 5 5 5 5 5 5 5 5 5 6 5 5 5 5 5 5 5 5 5 5 5 5 5 5 5 6 5 5 5 5 5 6 5 5 5 5 5 5 5 5 5 5 5 5 5 6 5 5 5 5 6 5 5 6 5 5 5 5 5 5 5 5 5 5 5 5 5 5 5 5 5 5 5 5 5 5 5 5 5 5 5 5 5 5 5 5 6 5 6 5 5 5 5 5 5 5 5 6 5 5 5 5 5 5 5 5 5 5 5 6 5 6 5 5 5 5 6 5 5 5 5 5 5 5 5 5 5 5 5 6 5 5 5 5 5 5 5 5 5 6 5 5 6 5 5 5 5 6 5 6 5 5 5 5 5 5 5 5 5 5 5 5 5 5 5 5 5 5 5 5 5 6 5 5 5 5 5 5 5 6 5 6 5 5 5 5 6 6 5 5 5 5 5 6 6 5 5 5 5 6 5 5 6 6 5 6 6 6 5 5 5 5 5 5 5 5 6 6 5 5 5 5 6 6 5 5 5 5 5 5 5 5 5 6 5 5 5 5 5 5 6 5 5 5 5 5 5 5 5 6 5 5 5 5 5 5 6 5 5 6 6 5 5 6 5 6 5 6 5 5 5 6 5 6 5 5 6 6 6 5 5 5 5 6 5 6 6 5 6 6 5 5 6 5 5 5 6 5 5 5 5 5 6 5 5 5 6 6 5 5 5 6 5 5 5 5 5 6 5 5 5 5 5 5 5 5 5 5 5 5 5 5 5 5 5 6 5 5 5 5 5 5 6 5 5 5 6 5 5 5 5 5 5 6 5 6 5 5 5 5 5 5 5 5 5 5 5 5 5 5 5 5 5 5 5 5 5 5 5 6 5 5 5 6 5 5 5 5 5 5 5 5 5 5 5 5 5 5 5 5 5 5 6 5 5 5 5 5 5 5 5 5 5 5 5 5 5 5 5 5 5 5 5 5 5 6 5 5 5 5 5 5 5 5 5 5 5 5 6 5 6 5 5 5 5 5 6 5 5 5 6 5 5 6 5 6 5 5 6 6 5 5 5 5 5 5 5 5 5 5 5 5 5 5 5 5 5 6 6 5 5 5 5 5 5 5 5 5 5 5 5 5 5 5 5 5 5 5 5 5 5 6 5 6 5 5 5 6 5 5 5 6 5 5 5 5 5 5 5 5 5 6 5 5 5 6 5 5 5 5 5 5 5 5 5 6 5 5 5 5 5 5 5 5 5 5 5 5 5 5 5 5 5 5 5 5 5 5 5 5 5 5 5 5 5 5 5 5 5 5 5 5 5 5 5 5 5 5 5 5 5 6 5 5 5 5 6 6 5 5 6 6 5 5 5 5 6 5 5 5 5 5 5 5 5 5 6 5 5 5 5 6 5 5 5 5 6 5 5 5 6 6 5 5 5 5 5 5 5 5 6 5 5 5 5 5 5 6 5 5 5 5 5 5 6 5 5 5 5 6 5 6 5 6 5 5 5 6 6 5 5 5 5 6 5 6 5 5 5 5 6 6 5 6 5 5 5 5 5 6 5 5 6 6 6 6 5 5 5 6 5 6 6 5 5 5 5 5 5 5 5 5 5 5 5 5 5 5 5 5 5 5 5 6 5 5 5 5 5 6 5 5 6 5 6 5 5 5 5 5 5 5 5 5 6 5 5 6 5 6 5 5 6 6 5 6 5 5 5 6 5 6 5 5 6 5 5 6 5 5 5 5 5 5 5 5 5 5 5 5 5 5 5 5 5 5 5 5 5 5 5 5 5 5 5 6 5 5 5 6 5 5 6 5 5 5 5 5 5 5 5 5 5 5 5 5 5 5 5 5 5 5 5 5 5 6 5 5 6 5 5 6 5 5 5 6 5 5 5 5 5 5 5 5 5 5 5 5 5 5 6 5 5 6 5 5 5 6 5 5 5 5 5 5 5 5 6 5 5 5 5 6 5 5 5 5 5 5 5 5 5 5 5 5 5 5 5 5 6 5 5 5 6 5 5 5 5 5 5 5 5 5 5 5 5 5 5 5 5 5 5 5 5 5 5 5 5 5 5 5 5 5 5 5 5 5 5 5 5 5 5 5 5 5 5 5 5 5 5 5 5 5 5 5 6 5 5 6 5 5 5 5 5 5 5 5 5 5 5 5 5 5 5 5 5 5 5 6 5 6 6 6 5 5 5 5 5 5 5 5 5 5 5 5 5 5 5 5 5 6 6 5 5 5 6 5 5 5 5 6 6 5 6 5 5 5 6 5 5 5 5 6 5 5 5 5 5 6 5 5 6 6 5 5 6 5 6 5 5 6 5 5 5 5 5 5 5 5 5 6 5 5 5 5 6 5 5 5 5 5 5 5 5 5 5 5 6 5 5 5 5 5 5 5 5 5 6 5 5 5 5 5 5 5 5 6 5 5 6 5 5 5 5 5 5 5 5 5 5 5 5 5 5 5 5 5 5 6 5 5 5 5 5 5 5 5 5 5 5 6 5 5 5 5 5 5 5 6 5 5 6 5 5 5 5 6 5 5 5 5 6 5 5 5 5 6 5 6 5 5 5 5 6 5 5 5 6 5 5 5 5 5 5 5 5 5 5 5 5 5 5 5 5 5 5 5 5 5 5 5 5 5 5 5 5 5 6 5 6 5 6 6 5 5 5 6 5 5 5 5 6 5 6 5 5 5 6 5 5 5 5 5 5 5 5 6 5 5 5 5 5 5 5 5 5 5 5 5 5 5 6 5 6 5 5 5 5 5 6 5 5 5 6 5 5 5 5 6 5 5 5 5 5 5 5 5 6 5 5 6 5 5 5 5 6 5 5 5 5 5 5 6 5 5 5 5 5 6 5 6 6 5 5 5 5 5 5 5 5 5 5 5 6 5 5 5 5 5 5 5 6 5 5 5 5 5 5 5 5 5 5 5 5 5 5 5 5 5 5 5 5 5 5 5 5 5 5 5 5 5 6 5 5 5 5 6 5 5 5 5 6 5 5 5 5 5 5 5 5 5 5 5 5 6 5 5 5 5 5 5 5 5 5 5 5 5 5 5 5 5 5 5 5 5 5 5 5 5 5 5 5 5 5 5 5 5 5 5 5 6 5 5 5 6 5 5 5 5 5 5 5 5 5 5 5 5 5 6 5 5 5 5 5 5 5 5 6 6 5 6 5 5 5 5 5 6 5 5 5 5 5 6 5 5 6 5 5 5 6 5 5 6 5 5 5 5 5 6 6 5 5 5 5 5 5 5 5 5 5 5 5 5 5 6 5 5 5 5 5 6 5 6 5 5 6 5 6 6 6 5 5 5 6 5 5 5 5 5 5 5 5 6 6 5 6 5 6 5 5 5 5 5 5 5 5 5 5 5 5 5 5 5 5 5 5 5 5 5 5 5 5 5 5 5 5 5 5 5 5 5 5 5 6 5 5 5 5 5 5 5 5 5 5 5 5 5 5 5 5 5 5 5 5 5 5 5 5 5 5 6 5 5 5 5 5 5 6 5 5 6 5 6 5 5 5 5 6 5 5 5 6 5 5 5 5 5 5 6 5 5 6 5 5 5 6 5 5 6 5 5 5 5 5 6 5 5 6 6 5 5 6 5 6 5 5 5 6 5 5 6 6 5 6 5 5 6 5 5 5 5 5 5 5 5 5 5 5 5 5 5 5 5 5 5 6 5 5 5 5 5 5 5 5 5 5 6 5 5 5 5 5 5 5 6 5 5 5 5 5 5 5 5 5 5 5 5 5 5 5 5 5 5 5 5 6 6 5 5 5 5 5 5 5 5 5 5 5 6 5 5 5 5 5 5 6 5 5 5 5 6 5 5 5 5 5 5 5 5 5 6 5 5 5 5 5 5 5 5 5 5 5 5 5 5 5 5 6 5 5 5 5 5 5 5 5 5 5 5 5 5 6 5 5 5 5 5 5 5 5 5 5 6 5 5 5 6 5 5 5 5 5 5 6 5 5 5 5 5 5 5 5 5 5 5 6 5 5 5 5 5 5 5 5 6 5 5 6 5 5 6 5 6 6 5 6 5 5 5 5 6 6 5 5 5 5 5 6 5 5 5 5 6 5 5 5 6 5 5 6 5 5 5 5 5 5 5 5 5 5 6 5 6 5 6 6 5 5 5 6 5 5 6 6 5 5 5 5 5 6 5 5 5 5 5 5 5 5 5 5 5 5 5 5 5 5 6 5 5 6 5 5 5 6 5 5 5 6 5 6 5 5 5 5 5 5 5 5 6 5 5 5 6 6 5 5 5 5 5 5 5 5 5 5 5 5 5 6 5 6 5 5 5 5 5 5 5 5 5 5 5 5 5 5 5 5 5 5 5 5 5 5 5 5 5 6 5 5 5 5 6 5 6 5 5 6 5 5 5 5 5 5 5 5 5 5 5 5 5 5 5 5 5 5 5 5 5 5 5 5 5 5 5 5 5 5 5 5 6 5 5 5 5 5 5 5 6 5 5 5 5 5 5 5 5 5 5 5 6 6 5 5 5 5 5 6 5 5 6 5 6 5 5 5 5 5 5 5 5 5 5 5 5 6 5 5 5 5 5 6 6 5 5 5 5 6 5 5 5 5 5 5 5 5 5 5 6 5 5 5 5 5 5 5 5 5 5 5 5 5 5 5 5 5 5 5 5 5 5 5 5 5 5 5 5 5 5 5 5 5 5 5 5 5 5 5 5 5 5 5 5 5 5 5 5 5 5 5 5 5 5 5 5 6 5 5 5 6 5 5 5 5 5 5 5 6 5 5 5 5 5 6 5 5 5 5 6 5 5 5 5 5 5 5 5 5 5 5 5 5 5 5 6 6 5 5 5 6 6 5 5 5 5 5 5 6 5 5 6 5 5 5 5 5 5 5 5 5 5 6 6 5 5 6 5 5 5 5 5 5 5 6 5 5 5 5 5 5 5 5 5 5 5 5 5 6 5 5 5 5 5 5 6 5 5 5 5 5 5 5 5 5 6 5 5 5 5 6 5 5 5 5 5 5 5 5 6 5 5 5 5 5 5 5 5 6 5 5 5 5 5 6 6 5 5 6 5 5 5 6 5 5 5 5 5 5 6 5 5 6 5 5 6 5 5 5 5 5 6 5 5 5 5 6 5 5 5 5 5 5 5 5 5 5 5 5 6 5 5 5 5 5 6 5 5 5 5 5 5 6 5 5 5 5 5 5 5 5 5 5 5 5 5 5 5 5 5 5 5 5 6 5 5 5 5 6 5 5 5 5 5 5 6 5 5 5 5 5 5 5 5 5 6 5 5 5 5 5 5 5 5 5 5 5 5 5 5 5 5 5 5 5 5 5 5 5 5 5 5 5 5 5 5 6 5 5 5 5 5 5 5 5 6 5 5 6 5 5 5 5 5 6 5 5 5 5 6 5 5 5 5 5 5 5 5 6 5 5 5 6 5 6 5 5 5 6 6 6 5 5 5 5 6 5 5 5 5 5 5 5 5 5 5 5 6 5 5 5 5 5 5 5 5 5 5 5 5 5 5 5 5 6 5 5 5 5 5 5 5 5 5 5 5 5 5 5 5 5 5 5 5 5 5 5 5 5 5 5 5 5 5 5 5 5 5 5 5 5 5 5 5 5 5 5 5 5 5 5 5 5 5 5 5 5 5 5 5 6 5 6 5 5 6 5 5 5 5 5 5 5 6 5 5 6 5 6 5 5 5 5 5 5 5 5 5 5 5 6 5 5 6 5 5 6 5 6 5 5 5 5 5 5 5 6 5 5 5 5 5 5 5 5 5 5 5 5 5 5 5 5 5 5 5 5 5 5 6 5 5 5 5 5 5 5 5 5 5 5 5 5 6 5 5 5 5 5 5 6 5 5 5 5 5 5 5 5 5 5 5 5 5 5 5 5 5 5 5 5 5 5 5 5 5 5 5 6 5 5 5 5 5 5 5 6 5 5 5 5 5 5 5 5 5 6 5 5 5 5 6 6 6 5 5 5 5 6 5 5 6 5 5 5 5 5 5 5 5 6 5 5 6 5 5 5 6 5 5 5 6 5 5 5 6 5 5 5 5 5 5 5 5 5 5 5 5 5 5 6 5 5 5 6 5 5 6 5 5 5 5 5 5 5 5 5 5 5 5 5 5 5 5 5 6 5 6 5 5 5 5 5 5 5 5 5 6 5 6 6 5 5 5 5 5 5 5 6 5 5 6 5 6 5 5 5 5 5 5 5 5 5 5 5 5 5 5 5 6 5 5 5 5 6 5 5 5 5 5 6 6 5 5 6 5 5 5 5 6 5 5 5 5 5 5 5 5 5 5 6 5 6 5 5 5 5 6 5 5 5 5 5 5 5 5 5 5 6 5 5 5 5 6 5 5 5 5 6 5 5 5 6 6 5 6 5 5 5 5 5 5 5 6 5 6 5 5 6 6 5 6 5 5 5 5 5 5 6 5 5 5 5 5 6 5 5 5 5 5 5 5 6 5 5 5 5 5 5 5 5 5 5 5 5 5 5 5 5 6 5 5 5 5 5 5 5 5 5 5 5 5 5 5 5 5 5 5 5 6 5 5 5 5 5 5 5 5 5 5 6 5 6 5 5 5 5 5 6 5 5 6 5 5 5 5 5 5 5 5 5 6 5 5 6 5 5 5 5 5 5 6 5 5 6 6 5 5 5 5 5 6 5 5 5 5 6 5 5 5 5 5 5 5 5 5 5 5 5 5 5 5 5 5 5 5 5 5 5 5 5 5 5 5 6 5 5 5 5 5 5 5 5 5 5 5 6 5 5 5 5 5 5 5 5 5 5 5 5 5 5 5 5 5 5 5 5 5 5 5 5 5 6 5 5 5 6 5 5 5 5 5 5 5 5 5 5 5 5 5 5 5 5 5 5 5 5 6 5 5 5 5 5 5 5 5 5 5 5 5 5 5 5 5 5 5 5 5 5 5 5 5 5 5 5 6 5 5 6 5 5 5 5 5 5 5 5 5 5 5 5 6 5 5 5 5 6 6 6 5 5 5 5 5 5 5 6 5 5 5 6 5 5 5 5 5 5 5 5 6 5 5 5 5 6 5 5 6 6 5 5 5 5 6 6 5 5 6 5 6 5 5 5 5 5 5 5 5 6 5 5 5 5 5 6 6 5 6 5 6 5 6 6 6 5 5 5 5 6 5 6 5 6 5 5 5 5 5 5 6 5 5 5 5 5 5 5 6 5 6 6 5 6 5 6 5 6 5 5 5 5 5 6 5 5 6 5 5 5 5 5 6 5 5 5 5 6 6 5 5 5 5 5 5 5 5 5 5 5 5 5 5 5 5 5 5 5 6 5 6 5 5 5 6 5 5 5 6 5 5 5 5 5 6 6 5 5 5 6 5 6 5 5 5 6 6 5 5 6 6 5 6 6 6 5 6 5 5 5 6 6 5 5 5 5 5 5 5 5 5 5 5 6 6 5 5 6 5 5 5 5 5 5 5 5 5 5 5 5 5 6 5 5 5 5 5 5 5 5 6 6 5 5 5 6 5 5 6 5 5 5 5 5 6 6 5 6 5 5 5 5 5 5 5 5 5 5 5 5 5 5 5 5 5 5 5 5 5 5 5 5 5 5 5 5 6 5 5 5 5 5 5 5 5 5 5 5 6 6 5 5 6 5 5 5 5 5 5 5 5 5 6 5 5 6 5 5 5 5 5 6 5 5 5 5 5 5 5 5 5 5 5 6 5 5 5 5 5 6 5 5 5 6 5 5 5 5 5 5 5 5 5 6 6 5 5 5 5 5 6 5 5 5 6 6 5 5 5 5 5 5 5 5 5 5 5 5 5 5 5 5 5 5 5 5 5 5 5 5 5 5 5 5 5 5 5 5 5 5 5 5 5 5 5 5 5 5 5 5 5 5 5 5 5 5 5 5 5 6 5 5 5 5 6 5 5 5 5 5 5 5 5 5 5 5 5 5 5 5 5 5 6 5 6 5 5 5 6 5 5 5 5 5 5 5 5 5 5 5 5 5 6 5 5 5 5 5 5 5 5 5 5 5 5 5 5 5 5 5 5 5 5 5 5 6 5 6 5 5 5 6 5 5 6 5 5 6 6 6 5 5 5 5 5 5 5 6 5 5 6 5 5 5 5 5 5 5 5 5 5 5 6 5 5 5 5 5 6 5 5 5 5 5 5 5 5 5 5 5 5 6 5 5 5 5 5 5 6 5 5 5 5 5 5 5 5 5 5 5 5 5 5 5 5 5 5 5 5 5 5 5 5 5 5 6 5 6 5 5 5 5 5 5 5 5 5 5 5 5 5 5 5 5 6 5 5 5 5 6 5 5 5 5 5 6 5 5 5 6 5 5 6 5 5 5 5 5 5 5 5 6 5 5 5 5 5 5 5 5 5 5 5 5 5 5 5 5 5 5 5 5 5 5 5 5 6 5 5 5 5 5 5 5 5 5 6 5 6 5 5 5 5 5 5 5 5 5 6 5 5 5 5 5 5 5 5 5 5 5 5 5 6 5 5 5 6 5 5 6 5 6 5 6 6 5 5 5 6 6 5 6 5 5 5 6 5 5 5 5 5 5 5 6 5 5 5 5 5 6 5 5 5 6 6 6 5 5 5 5 5 5 6 5 5 5 5 5 5 5 5 5 5 5 6 5 6 5 5 5 6 5 5 6 5 5 5 5 5 5 5 5 5 5 5 5 5 5 5 6 5 5 5 5 5 5 5 5 5 5 5 5 5 5 5 6 5 5 5 5 5 6 5 5 5 5 6 5 5 5 5 5 5 5 5 5 6 5 5 5 6 6 5 5 6 5 5 6 5 5 6 5 5 5 5 6 5 5 6 5 5 5 5 5 5 5 5 5 5 5 6 5 5 5 5 5 5 5 5 5 5 6 5 5 5 5 5 5 5 5 5 5 5 5 5 6 5 5 5 5 5 5 6 6 5 5 5 5 6 5 5 6 5 5 6 5 5 5 5 5 5 6 6 5 5 5 6 5 5 5 5 5 5 5 6 5 5 5 5 6 5 5 5 5 5 5 5 5 5 6 5 5 5 5 6 5 5 5 5 5 5 5 5 6 5 5 5 5 5 5 5 5 5 5 5 5 5 5 5 5 5 5 5 5 5 5 5 5 6 5 5 6 5 6 5 5 5 5 5 5 5 5 5 6 5 6 5 5 5 5 5 5 5 6 5 5 5 6 5 5 6 5 5 5 6 5 6 5 5 5 6 5 5 5 5 5 6 6 5 5 5 5 5 5 5 6 5 5 6 5 5 5 5 5 5 5 5 5 5 5 5 5 5 5 5 5 5 5 5 5 5 5 5 5 5 5 5 5 5 6 6 5 5 5 5 5 6 5 6 5 5 6 5 5 5 5 5 5 5 5 5 5 5 5 5 6 5 5 5 5 6 5 5 5 5 5 5 5 5 5 5 5 5 5 5 5 5 5 5 6 5 6 5 5 6 5 5 5 5 5 5 6 5 5 5 5 5 5 5 5 5 5 5 5 5 5 5 5 5 5 5 6 5 5 5 5 6 5 5 5 5 5 5 6 5 5 5 5 6 5 5 5 5 6 6 5 5 6 5 5 5 5 6 5 6 5 6 5 6 5 5 6 5 5 5 5 6 5 5 5 6 5 5 5 5 5 5 5 6 5 5 5 5 6 5 6 5 6 5 5 5 5 5 6 5 6 5 6 5 5 5 5 5 5 5 5 5 5 5 5 5 5 5 5 5 5 5 5 5 5 5 5 5 5 5 5 6 5 5 5 5 6 5 5 5 5 5 6 5 5 5 5 5 5 6 5 5 5 5 5 5 5 5 5 5 5 5 5 5 6 5 5 5 5 5 5 6 5 5 5 5 5 5 5 6 5 5 6 5 5 6 5 5 5 5 5 5 5 5 5 5 6 5 5 5 5 5 5 5 5 5 5 5 5 5 5 5 5 5 5 5 5 5 5 5 5 5 6 5 5 6 5 5 5 6 5 5 5 5 5 5 5 5 5 5 5 5 5 5 5 5 5 5 5 5 5 6 5 5 5 6 5 5 6 5 5 5 5 5 5 5 5 5 5 5 5 5 5 5 5 5 6 5 5 6 5 5 5 5 6 5 5 5 5 5 5 5 5 5 5 5 5 5 5 6 5 5 5 5 6 5 5 5 5 5 6 5 6 5 5 5 5 5 6 5 5 5 5 6 5 5 5 5 6 5 5 5 5 5 5 5 5 6 5 5 5 5 6 5 5 5 5 6 5 5 5 5 5 5 5 5 5 5 5 5 6 5 5 5 6 5 5 5 5 6 5 5 5 5 6 5 5 5 5 5 5 5 5 5 5 5 5 6 5 5 5 5 5 5 5 5 5 5 5 5 6 5 5 5 5 5 5 5 5 5 5 5 5 5 5 5 5 5 5 5 5 5 5 5 5 5 5 5 5 5 5 5 5 5 5 5 5 5 5 5 6 5 5 5 5 5 5 5 5 6 5 6 5 5 5 5 5 5 5 5 5 5 5 5 5 5 5 5 5 5 5 5 5 5 5 5 5 5 5 5 5 5 5 5 5 5 5 5 5 5 5 5 5 5 5 5 5 5 5 5 5 5 5 5 5 5 5 5 5 5 5 5 5 5 5 5 5 5 5 5 5 5 5 5 5 5 5 5 5 5 5 5 5 5 5 5 6 5 5 5 5 5 5 5 5 5 5 5 5 5 5 5 5 5 5 5 5 5 5 5 5 5 6 5 5 5 5 5 5 5 6 5 5 5 5 6 6 5 5 6 6 5 5 5 6 5 5 6 6 5 5 5 5 5 5 5 6 5 5 6 5 5 5 5 5 6 5 5 5 5 5 5 5 5 5 5 5 5 5 5 5 5 5 5 5 5 5 5 5 5 5 5 5 5 5 5 5 5 5 5 5 5 5 5 5 5 5 5 5 5 5 5 5 5 5 5 5 5 5 5 5 5 5 5 5 5 5 5 5 5 5 5 5 5 5 5 6 5 6 5 5 5 5 5 6 6 5 5 5 5 5 5 5 5 5 5 5 5 5 5 5 5 5 5 6 5 5 6 5 5 6 5 6 5 5 6 6 6 5 5 5 5 5 6 5 5 5 5 6 5 5 5 5 6 5 5 5 5 5 6 5 6 5 5 5 5 5 6 5 5 5 6 5 5 5 5 5 5 5 5 5 5 5 5 5 5 5 5 5 5 5 5 5 6 5 5 5 5 5 5 5 5 5 5 5 5 5 5 5 5 6 5 5 6 5 5 5 5 5 5 5 6 5 5 5 5 5 5 5 5 5 5 5 5 5 5 5 5 5 6 5 5 5 5 5 6 5 5 6 5 5 5 5 5 6 5 5 5 5 5 5 5 5 5 5 6 5 5 6 5 5 5 5 5 6 6 6 6 5 5 5 5 6 5 5 5 5 5 5 6 5 5 5 5 5 5 5 5 5 5 5 5 5 6 5 5 5 5 6 6 5 5 5 5 5 5 5 5 5 5 5 5 5 6 5 5 5 5 6 6 5 5 5 6 6 5 6 5 5 5 5 6 6 5 5 5 5 5 5 5 5 5 6 5 5 5 5 5 5 5 5 5 5 5 5 5 5 5 5 5 5 5 6 5 5 5 5 5 5 5 5 5 5 5 5 5 5 5 5 5 5 5 5 5 5 5 5 5 5 5 6 5 5 5 5 5 5 5 5 5 5 6 5 6 5 5 6 5 5 5 5 5 5 5 5 5 5 5 6 5 5 6 5 6 5 5 5 5 5 5 5 5 5 5 5 6 5 5 5 5 5 5 6 5 5 5 5 6 5 5 5 5 5 5 5 5 5 5 5 6 5 5 5 5 5 5 5 5 5 5 5 5 5 5 5 5 5 6 5 5 5 5 5 5 5 6 5 5 5 5 5 5 5 5 5 6 5 5 5 5 6 6 5 5 5 5 5 5 5 5 5 5 5 5 5 5 5 5 5 5 5 5 5 5 5 5 5 5 5 5 5 5 5 5 5 5 5 5 5 5 5 5 5 5 5 5 5 5 5 5 5 5 5 5 5 5 5 5 5 5 5 5 5 5 5 5 5 5 5 5 5 5 5 5 5 5 5 5 5 5 5 5 5 5 5 5 5 6 5 6 5 5 5 5 5 5 5 5 5 5 5 6 5 5 5 6 5 5 5 5 5 5 5 5 5 5 6 5 5 5 5 5 5 5 5 5 5 5 5 5 5 5 5 5 6 5 5 6 5 5 5 5 5 6 5 6 5 6 5 5 5 5 5 5 5 5 5 5 5 5 5 5 5 5 5 5 5 5 5 5 5 5 5 5 5 5 5 5 5 5 5 5 5 5 5 5 5 5 5 5 5 6 5 5 6 5 5 5 6 5 5 5 5 5 5 5 5 5 5 5 5 5 5 5 5 5 5 5 5 5 5 5 5 5 5 5 5 5 5 5 5 5 5 5 5 5 5 5 5 5 5 5 6 5 5 5 5 6 5 5 5 5 5 5 5 5 6 5 5 5 6 5 5 5 5 5 5 5 6 5 5 5 5 5 6 5 5 5 5 5 5 5 5 5 5 5 5 5 5 5 5 6 6 5 5 5 6 5 6 5 5 5 5 5 5 5 5 5 5 5 5 5 5 6 5 5 6 6 5 5 5 5 5 5 5 5 5 5 6 5 5 6 5 5 5 5 6 5 5 6 5 5 5 5 5 5 6 5 5 5 5 5 5 6 5 5 6 5 6 5 5 5 5 5 5 5 5 5 5 5 5 5 5 5 5 5 5 6 5 5 5 5 5 5 5 5 5 5 5 6 5 5 5 5 5 5 5 5 5 5 5 6 5 5 5 5 5 6 5 5 5 5 5 5 5 5 5 5 5 5 6 5 5 5 5 5 6 5 6 5 5 5 5 5 5 5 5 5 5 5 5 5 5 5 5 5 5 5 5 5 5 6 5 5 5 5 6 5 5 5 5 5 5 5 5 5 5 5 5 5 5 5 5 5 5 5 5 5 5 5 5 5 5 5 5 5 5 5 5 5 5 5 5 5 5 5 5 5 5 5 5 5 5 5 6 5 5 5 5 5 5 5 5 5 5 5 5 5 5 5 5 6 5 5 5 5 5 5 5 5 5 5 5 5 5 5 5 6 5 5 6 5 6 5 5 5 5 5 5 6 6 5 6 5 5 5 5 5 5 5 5 5 6 5 6 5 5 5 5 5 5 5 5 5 6 6 5 6 5 5 5 5 5 5 5 6 5 6 5 5 5 5 5 5 5 5 5 5 5 5 5 5 5 5 6 5 5 6 5 5 5 5 5 6 5 5 5 5 5 5 5 5 5 5 5 5 5 5 5 5 5 5 5 5 5 6 5 5 5 5 5 5 5 5 5 5 5 5 5 5 5 5 5 5 5 6 5 5 5 5 6 5 5 5 6 5 5 5 5 5 5 5 5 5 5 5 5 6 5 5 5 5 5 5 5 5 5 5 5 5 5 5 5 5 5 5 5 5 5 6 5 5 5 5 6 5 5 5 6 5 5 5 5 5 5 5 5 5 5 5 6 5 5 5 5 6 5 5 5 5 5 5 5 6 5 5 5 5 5 5 5 5 5 5 5 5 5 5 5 6 5 5 5 5 5 5 5 6 5 5 6 5 5 6 5 5 5 6 5 5 5 5 5 6 5 5 5 6 5 5 5 5 5 5 5 5 5 5 5 5 5 6 5 5 5 5 5 5 6 5 5 5 5 6 5 5 5 5 6 6 5 6 5 6 5 5 5 5 5 5 6 5 5 5 5 5 6 5 5 5 5 5 5 6 5 5 6 5 5 5 6 6 5 5 5 5 5 5 5 6 5 5 5 5 5 6 5 5 6 5 5 5 5 6 5 6 5 5 5 5 5 6 5 5 5 6 6 5 5 5 5 5 6 5 5 5 5 6 5 6 5 5 5 6 6 5 6 6 5 5 6 5 5 6 5 6 5 5 6 5 5 5 6 5 6 6 5 6 5 5 5 5 6 5 6 5 5 6 5 6 5 5 5 5 5 5 5 5 5 5 5 6 5 5 5 6 5 5 5 5 5 6 5 5 5 5 5 6 5 5 5 5 5 5 5 5 5 6 5 5 5 6 5 5 5 5 5 5 5 5 5 5 5 5 6 5 5 5 5 5 5 5 5 5 5 6 6 5 6 5 5 5 5 6 5 6 6 5 5 5 6 5 5 6 5 6 5 5 6 5 5 6 5 5 5 5 5 6 5 5 5 6 5 6 5 5 5 5 6 5 5 5 5 5 5 6 5 5 5 5 5 5 5 5 5 6 5 5 5 5 5 5 5 5 5 5 6 5 5 5 5 6 5 5 6 5 5 5 6 5 5 5 5 5 5 6 5 5 5 5 5 5 5 5 5 5 5 5 6 5 5 5 5 6 5 5 6 6 5 6 5 5 5 5 6 5 5 5 5 5 5 5 5 5 5 5 5 5 5 5 5 5 5 5 5 5 5 5 5 5 5 5 5 6 5 5 5 5 5 5 5 5 5 6 5 5 5 6 5 5 5 5 5 5 5 5 5 5 5 5 5 5 5 5 5 6 5 5 6 6 5 5 6 5 6 5 6 5 5 5 5 5 5 5 5 5 5 5 5 5 5 5 5 5 5 5 5 5 5 5 5 5 5 5 5 5 5 5 5 5 5 6 5 5 5 5 5 5 5 5 5 5 5 5 5 5 5 5 5 6 5 5 5 5 5 5 5 6 5 5 5 5 5 5 5 5 5 5 5 6 5 5 5 5 5 5 5 5 5 5 5 5 5 5 5 5 5 5 5 5 5 5 5 5 5 5 5 5 5 5 5 5 5 5 5 5 5 5 5 5 5 5 5 5 5 5 5 5 5 5 5 5 5 5 5 5 5 5 5 5 5 5 5 5 5 5 5 5 5 5 5 5 5 5 5 5 5 5 5 6 5 5 5 6 5 6 5 5 5 5 5 5 5 5 5 5 5 6 5 5 5 5 6 5 5 5 6 5 5 5 5 5 5 5 5 5 5 5 5 5 5 5 5 5 5 5 5 5 5 5 5 5 5 5 5 5 5 5 5 5 5 5 5 5 5 5 6 5 5 5 5 5 5 5 5 5 5 5 5 5 5 5 6 6 5 5 5 5 5 5 5 5 5 5 5 5 6 6 5 5 5 5 5 5 5 5 5 5 5 5 5 6 6 5 5 5 5 5 6 5 6 6 5 6 5 6 5 6 5 6 5 5 6 5 6 5 5 5 5 5 5 5 6 6 6 5 5 5 6 5 5 5 6 5 6 6 5 5 6 5 5 5 5 5 5 5 5 5 5 5 5 5 6 5 5 5 5 6 5 6 5 6 5 5 5 6 5 5 5 5 5 5 6 5 5 5 5 6 5 5 5 6 5 5 5 5 5 5 5 5 5 5 5 5 5 5 5 6 5 5 6 5 5 5 5 5 5 5 5 5 5 6 5 5 5 6 5 6 5 5 5 5 6 5 6 5 6 6 6 5 5 5 5 6 5 5 5 6 6 6 5 6 5 5 5 5 5 5 5 5 5 5 5 5 6 5 5 5 5 5 5 6 5 5 5 5 5 5 6 5 5 5 5 5 6 5 6 5 5 5 5 5 6 6 5 5 5 6 5 5 5 6 6 5 6 5 5 6 5 5 5 5 5 5 5 5 6 5 5 5 5 5 5 6 5 5 5 5 5 5 5 5 5 5 5 5 5 5 6 6 5 5 5 5 5 5 5 5 5 5 5 5 5 5 5 5 5 5 5 5 6 5 5 5 5 6 5 6 5 5 5 6 6 5 5 6 5 5 5 5 5 5 5 5 5 5 5 5 5 5 6 5 5 5 6 5 5 5 5 5 5 5 5 5 5 5 5 5 5 5 5 5 5 5 5 5 5 5 5 5 5 5 5 5 5 5 5 5 5 5 5 5 5 5 5 5 5 5 5 5 5 5 5 6 5 5 5 5 5 5 5 5 6 5 5 5 5 5 5 5 5 6 5 5 5 6 5 5 5 6 5 6 6 5 5 5 6 5 5 5 6 5 5 5 6 5 5 6 5 6 5 6 5 5 6 5 6 5 6 5 5 5 6 5 5 6 5 5 5 5 5 5 5 5 5 5 5 5 5 5 5 5 5 5 6 5 5 5 6 5 5 5 5 5 6 5 5 6 5 5 5 5 5 5 5 5 6 5 5 6 5 6 5 5 6 5 5 5 5 5 5 5 5 5 5 5 5 5 5 5 5 5 5 5 5 5 6 5 5 5 5 5 5 5 5 5 5 5 5 5 5 5 5 5 5 5 5 5 5 5 5 5 5 5 5 6 5 5 5 5 5 5 5 6 5 5 5 5 5 5 5 5 5 5 5 6 5 5 5 6 5 5 5 5 6 5 5 5 6 5 5 5 5 6 5 5 6 5 5 5 5 5 6 5 5 5 5 5 5 5 5 5 5 5 5 6 5 5 5 5 5 6 5 5 5 5 5 5 5 5 5 5 5 5 5 5 5 5 6 5 5 5 5 5 5 5 5 5 5 5 5 5 5 5 5 5 5 5 6 5 6 6 5 5 5 5 5 5 5 5 5 5 5 6 5 6 5 5 5 5 5 5 5 5 5 5 5 5 5 5 5 5 5 6 5 5 5 5 6 5 5 5 5 5 5 5 5 5 5 6 5 5 5 5 5 5 5 6 5 5 6 5 5 5 5 6 5 6 5 5 5 5 5 5 5 5 5 5 5 5 5 5 6 5 5 5 6 5 5 6 5 5 5 5 5 5 5 6 5 5 5 5 5 5 5 5 5 5 5 5 5 5 5 5 5 5 5 5 5 5 5 5 5 5 5 5 5 5 5 5 5 5 5 5 5 5 6 6 5 5 5 5 5 5 5 5 6 5 5 5 5 5 5 5 5 5 5 5 5 5 5 5 5 5 5 5 5 5 5 5 5 5 5 5 5 5 5 5 6 5 5 6 5 5 5 6 5 6 5 6 5 5 5 5 5 5 6 5 6 5 6 5 6 5 6 5 6 5 5 5 6 5 5 6 6 5 5 6 6 6 5 6 5 5 5 6 5 6 6 5 5 6 5 5 5 5 5 5 5 6 5 6 5 6 5 5 5 5 5 5 5 5 5 5 6 5 5 5 5 5 6 6 5 5 5 5 5 5 5 5 5 5 5 5 5 5 5 5 5 5 5 5 5 5 5 5 5 5 5 5 5 5 5 5 5 5 5 5 5 6 5 5 5 6 5 5 5 5 5 5 5 5 5 5 5 5 5 5 5 6 5 5 5 6 5 5 5 5 5 5 5 5 5 5 5 5 5 6 6 5 5 5 6 5 6 5 5 5 5 5 5 5 5 5 5 5 5 5 5 5 6 5 5 5 6 5 5 5 5 6 5 6 5 5 5 5 5 5 5 6 5 5 6 6 5 5 5 5 5 5 5 5 5 5 5 5 6 5 5 5 5 6 5 5 5 5 5 5 5 5 5 5 5 5 5 5 5 5 5 5 5 5 5 5 5 6 5 5 5 5 5 5 5 5 5 5 5 5 5 5 5 5 5 5 5 5 5 5 5 5 5 6 5 6 5 5 5 6 5 5 5 6 6 5 5 6 5 5 6 5 5 5 5 5 5 5 5 5 5 5 5 5 5 5 5 5 6 5 5 5 5 5 5 5 6 5 5 5 5 5 5 5 5 5 5 5 5 6 5 5 5 5 5 5 5 5 5 5 5 5 5 5 5 5 5 5 5 5 5 5 5 6 6 5 5 5 5 5 5 5 6 5 5 5 5 5 5 5 5 5 5 5 5 5 5 5 5 5 5 5 5 5 5 5 5 5 5 5 5 5 5 5 5 5 5 5 5 5 5 5 5 5 5 5 5 5 5 5 5 5 5 5 5 5 5 5 5 5 5 5 5 5 5 5 5 5 5 5 5 5 5 5 5 5 5 5 5 5 5 5 5 5 5 6 5 5 6 5 5 5 5 5 5 5 5 5 5 5 5 5 5 5 5 5 5 5 5 5 5 5 5 5 5 5 5 5 5 5 5 5 6 5 5 5 5 5 5 5 5 5 5 5 5 5 5 6 6 5 5 5 5 5 5 5 5 5 6 5 5 5 6 5 5 5 5 5 5 5 5 5 5 5 5 5 5 5 5 5 5 5 5 5 5 5 5 5 5 5 5 6 5 5 5 5 5 5 5 5 5 5 5 5 5 5 5 5 6 5 5 5 5 5 5 5 6 5 5 5 6 5 5 5 5 5 5 5 5 5 5 5 5 5 5 5 6 5 5 5 5 5 5 6 5 5 5 6 5 5 5 5 5 5 5 5 6 5 5 5 6 5 6 5 5 5 5 5 5 5 5 5 5 5 5 5 5 5 5 5 5 5 5 5 5 5 5 5 5 5 5 5 5 5 5 5 5 5 5 5 5 5 5 5 5 5 5 5 5 5 5 5 5 5 5 5 5 5 5 5 5 5 5 5 6 5 5 5 5 5 6 5 5 5 5 5 5 5 5 5 5 5 5 5 5 5 5 5 5 6 5 5 5 5 5 5 5 6 5 5 6 5 5 5 5 5 5 5 5 5 5 5 6 5 6 6 5 5 6 5 5 6 5 5 5 6 6 6 5 5 5 5 6 5 6 6 5 5 5 6 5 6 5 5 5 6 5 5 5 5 5 5 6 5 5 5 5 6 5 6 6 6 5 5 5 6 6 5 5 5 6 5 5 5 6 5 6 6 5 5 6 6 5 6 5 5 5 6 5 5 5 6 6 6 5 6 6 5 5 5 6 5 5 5 6 5 6 5 5 5 6 5 5 6 6 5 6 5 5 6 5 6 5 5 5 5 6 5 5 5 6 5 5 5 5 5 5 5 5 5 5 5 5 5 5 5 5 5 5 5 5 5 5 5 5 6 5 5 6 5 6 6 5 6 6 5 5 5 5 6 5 5 5 5 5 5 5 5 6 5 5 5 5 5 5 6 5 6 5 5 5 5 5 5 5 6 5 5 6 5 5 5 6 5 6 5 5 5 5 6 5 6 
</DataArray>
<DataArray type="Float64" Name="stress" NumberOfComponents="9" format="ascii">
-1493.1327923910576 -3.5180778673342621 0 -3.5180778673342621 3.369032555322963 0 0 0 0 -0.58800278594796396 0.12491015167915975 0 0.12491015167915975 0.016651834875634826 0 0 0 0 -1146.1313229674524 393.85962555797448 0 393.85962555797448 -9.399667288955353 0 0 0 0 -3.1174034265422961 -2.1149211836746629 0 -2.1149211836746629 -0.0039437814705583062 0 0 0 0 8.0420366071111857 -32.729178425965749 0 -32.729178425965749 136.36903540917842 0 0 0 0 -6.8091389618899711 1.5481535929465409 0 1.5481535929465409 0.39635029539418093 0 0 0 0 83.215586334576074 161.39059885562872 0 161.39059885562872 9.4397206698258778 0 0 0 0 -1498.2880224610089 -860.71712760506307 0 -860.71712760506307 -402.61191111991747 0 0 0 0 -915.41450662907664 -507.4074028179183 0 -507.4074028179183 -223.24609494509045 0 0 0 0 -642.50028959226984 -261.39187811539892 0 -261.39187811539892 -123.27246570057821 0 0 0 0 -642.55534600173905 -264.86012505749801 0 -264.86012505749801 -78.024365514402234 0 0 0 0 -14.190458816711157 5.6924088272052416 0 5.6924088272052416 1.1684326328974772 0 0 0 0 -433.24598859743128 -235.29514185372227 0 -235.29514185372227 -73.889952202273548 0 0 0 0 -1500.0597697595658 -505.55816999539508 0 -505.55816999539508 201.99172353986202 0 0 0 0 -1299.5871923379818 -317.64151225939088 0 -317.64151225939088 232.82168821615616 0 0 0 0 -17.062712447537862 7.5312058984366672 0 7.5312058984366672 1.4123067819375579 0 0 0 0 -51.311015015446173 174.32559796992308 0 174.32559796992308 34.733580601840742 0 0 0 0 -152.07456142199226 -18.633391235513727 0 -18.633391235513727 6.542871651766859 0 0 0 0 60.764711433621414 146.89689277413925 0 146.89689277413925 30.387557803008875 0 0 0 0 -177.74463529164495 -85.710022002859986 0 -85.710022002859986 6.2758392028233656 0 0 0 0 -174.19795084660291 25.834874251278137 0 25.834874251278137 -13.721147005095304 0 0 0 0 -0.69738628238725653 0.13062570956463304 0 0.13062570956463304 0.43121893328461225 0 0 0 0 62.283693805526127 -20.936760800141748 0 -20.936760800141748 115.92233267200885 0 0 0 0 -203.66270637859634 -23.264694714878992 0 -23.264694714878992 -90.374262510415463 0 0 0 0 -0.82491562454778489 0.34437883538772951 0 0.34437883538772951 0.15542970251532837 0 0 0 0 -10.727673750923714 18.353253210482201 0 18.353253210482201 -10.182065662014001 0 0 0 0 -19.934525065167691 -56.125051622009607 0 -56.125051622009607 -74.274489354795008 0 0 0 0 -63.996323053383094 -58.545268953545182 0 -58.545268953545182 -24.120535151768937 0 0 0 0 -115.14555908019975 -16.081852621918266 0 -16.081852621918266 -0.14342437255519977 0 0 0 0 -253.92248756649133 -63.789872479592546 0 -63.789872479592546 8.0162338714335402 0 0 0 0 -332.43093529209727 -91.075635898544704 0 -91.075635898544704 -81.380991870576395 0 0 0 0 -527.20714862853492 -62.947791161957262 0 -62.947791161957262 0.13721792866739432 0 0 0 0 -468.10157094504029 -1.9006477799668184 0 -1.9006477799668184 60.181963172164608 0 0 0 0 -854.31889972319186 -61.321416368050571 0 -61.321416368050571 68.293342392171553 0 0 0 0 -494.83972747161351 -228.69289793786339 0 -228.69289793786339 -120.45721422924041 0 0 0 0 -310.90803774195228 -147.97013940314761 0 -147.97013940314761 -30.468597931614774 0 0 0 0 -46.475368683986744 80.943862909370779 0 80.943862909370779 -126.98437764108675 0 0 0 0 -422.49164231601753 3.6184533750639738 0 3.6184533750639738 0.091193941299821168 0 0 0 0 -421.64331986251636 275.69023238729056 0 275.69023238729056 -9.6968883250411864 0 0 0 0 26.171323642527568 -131.28231958832973 0 -131.28231958832973 -134.72871702164383 0 0 0 0 -414.81188147835928 -468.21243649713813 0 -468.21243649713813 73.793221331774433 0 0 0 0 -5.846533689743211 -0.8625696711848807 0 -0.8625696711848807 0.023551165172389643 0 0 0 0 -787.3243498955344 -163.31235139388306 0 -163.31235139388306 105.15258085463734 0 0 0 0 -612.72500893108372 -158.77260738727227 0 -158.77260738727227 100.67368399152625 0 0 0 0 -359.40052149127223 148.13493833034514 0 148.13493833034514 -38.428736969176498 0 0 0 0 -495.88640963214129 -59.735098793338011 0 -59.735098793338011 -128.95125471757777 0 0 0 0 -166.22144229059813 -47.607535283806975 0 -47.607535283806975 -105.18703699734732 0 0 0 0 -349.89346340593693 -75.768731396539479 0 -75.768731396539479 -30.707422355832819 0 0 0 0 -638.77731445003155 39.204031422269395 0 39.204031422269395 -40.36498555659881 0 0 0 0 -349.09896476529684 -56.214562838455237 0 -56.214562838455237 -226.61216089846079 0 0 0 0 -459.61705379570049 -50.582074986895236 0 -50.582074986895236 51.67622187631315 0 0 0 0 14.852713372194557 -41.544948854616791 0 -41.544948854616791 -35.181977930543098 0 0 0 0 -351.86679206074768 -118.02200234491062 0 -118.02200234491062 23.541493657105434 0 0 0 0 -341.36753123864764 -26.179611494572953 0 -26.179611494572953 5.789965388578139 0 0 0 0 -286.68480265401013 -167.03189672847418 0 -167.03189672847418 31.055915320522217 0 0 0 0 -417.66671992767624 -90.225433928022142 0 -90.225433928022142 30.423281757913401 0 0 0 0 -578.29449756291433 -171.3214098301865 0 -171.3214098301865 25.791799134086205 0 0 0 0 -415.32702549303212 -95.456149713383056 0 -95.456149713383056 -15.090447235989132 0 0 0 0 -18.236383324725466 119.86555937257111 0 119.86555937257111 568.66726572426501 0 0 0 0 -16.089385622792904 7.0687096738299715 0 7.0687096738299715 1.4047189999724932 0 0 0 0 -883.93106030276977 -86.213723754312014 0 -86.213723754312014 58.865785159981442 0 0 0 0 -532.01492841867002 -87.445263200337138 0 -87.445263200337138 49.166119032546931 0 0 0 0 -565.5093270032412 -219.74123339111111 0 -219.74123339111111 -95.865138534671814 0 0 0 0 -613.41521252190614 213.82928422737223 0 213.82928422737223 -52.387468044796378 0 0 0 0 -382.09607795404736 49.052809084638511 0 49.052809084638511 -151.74403909291453 0 0 0 0 -941.37445797653163 387.90369846342503 0 387.90369846342503 -223.82847843946683 0 0 0 0 -1409.5018882873337 -456.80418605726868 0 -456.80418605726868 -102.56657332608933 0 0 0 0 -816.78190395039201 211.32618805790884 0 211.32618805790884 14.475594855476857 0 0 0 0 -518.56293209490104 534.02942191552802 0 534.02942191552802 -16.98439425149752 0 0 0 0 -380.94840966875199 -45.32727104263131 0 -45.32727104263131 -308.68910397562684 0 0 0 0 -290.86003756438367 -17.140976682865698 0 -17.140976682865698 516.92845617893158 0 0 0 0 -151.71453859954636 -103.06585369313706 0 -103.06585369313706 385.72056401888449 0 0 0 0 -7.0975781703760248 3.1465211759577869 0 3.1465211759577869 0.38590898981923072 0 0 0 0 -144.13944322343013 1004.0020085753263 0 1004.0020085753263 331.36450977245431 0 0 0 0 115.45368652803154 646.59876806884495 0 646.59876806884495 -195.48765670957528 0 0 0 0 -438.31334713066462 317.30612955067909 0 317.30612955067909 -274.78966532418553 0 0 0 0 -638.45468045616872 290.21166678005932 0 290.21166678005932 -154.47662003999466 0 0 0 0 -656.76853749841393 732.47661781773741 0 732.47661781773741 -689.5200359922294 0 0 0 0 -5.0601896446728176 -0.016537635991291211 0 -0.016537635991291211 -0.057002889391434497 0 0 0 0 -45.374014598979556 71.136363064014404 0 71.136363064014404 190.54319598908955 0 0 0 0 -13.817267773278317 -2.927007870257988 0 -2.927007870257988 2.541790149044663 0 0 0 0 -50.109880228426846 99.263796622819086 0 99.263796622819086 439.72554389018569 0 0 0 0 63.505652820458636 50.474501425969265 0 50.474501425969265 39.497203560255457 0 0 0 0 -154.19565030217746 -96.352878616955451 0 -96.352878616955451 645.08485151192463 0 0 0 0 -53.596740737266373 229.12876857221795 0 229.12876857221795 393.0210701848257 0 0 0 0 -412.49440132152813 24.525216635644256 0 24.525216635644256 646.99517472473053 0 0 0 0 101.50747664412484 -215.70609274070162 0 -215.70609274070162 266.49556639167736 0 0 0 0 -2.3242894774685183 2.0858429132499907 0 2.0858429132499907 5.1855881482802459 0 0 0 0 -112.95854176657667 120.23846569197703 0 120.23846569197703 -33.702236786878416 0 0 0 0 -794.62483599691768 414.58373288234037 0 414.58373288234037 34.159000441347231 0 0 0 0 -423.54355583058714 28.70727740228935 0 28.70727740228935 335.15152749203833 0 0 0 0 -867.30332574651402 317.71678432061589 0 317.71678432061589 227.01496129643459 0 0 0 0 -1333.6533693615202 437.89644270513708 0 437.89644270513708 200.77750303909386 0 0 0 0 -939.37917949630014 145.67100988227818 0 145.67100988227818 530.7758039565723 0 0 0 0 -1500.0513382734644 377.10429853450654 0 377.10429853450654 497.10721598870049 0 0 0 0 -940.45488476498576 155.21099953945048 0 155.21099953945048 511.49486784029904 0 0 0 0 -426.85728804504379 220.67782272609895 0 220.67782272609895 261.52130037099482 0 0 0 0 -958.95332359986605 -56.056252786576408 0 -56.056252786576408 367.53181617949008 0 0 0 0 -524.69891193542571 171.15554383735025 0 171.15554383735025 441.32554314610906 0 0 0 0 -1036.2277982906817 176.25149010263107 0 176.25149010263107 540.72213241819463 0 0 0 0 -953.10570994153386 -87.627806980716144 0 -87.627806980716144 382.58183323867445 0 0 0 0 -1499.4802371429978 -104.54368878298354 0 -104.54368878298354 507.99016969797583 0 0 0 0 -969.77460524521848 -146.44591518937057 0 -146.44591518937057 243.55060498434591 0 0 0 0 -576.53584513845999 10.74885114334495 0 10.74885114334495 282.59443146760833 0 0 0 0 -211.27562839787788 106.67221743623958 0 106.67221743623958 225.4700032726937 0 0 0 0 -541.13406693044089 -96.74434212668308 0 -96.74434212668308 130.03375799503669 0 0 0 0 -165.79380708305598 28.574912192380673 0 28.574912192380673 84.951991771267217 0 0 0 0 -99.588463998617954 -51.931052588793023 0 -51.931052588793023 96.228517511956483 0 0 0 0 -2.1353582719411861 60.883755254281724 0 60.883755254281724 226.55439925253904 0 0 0 0 61.758185969778424 -158.64634682728666 0 -158.64634682728666 470.73993110442871 0 0 0 0 -488.89172252363915 21.067419579033242 0 21.067419579033242 345.72616164688043 0 0 0 0 -267.38444689042808 302.95874422999128 0 302.95874422999128 448.12662918305512 0 0 0 0 63.128026216858416 -237.84962580399463 0 -237.84962580399463 68.362883334570597 0 0 0 0 5.3183083968615392 -2.8011162737887787 0 -2.8011162737887787 39.841775765273695 0 0 0 0 11.647805165266618 -33.411863291815763 0 -33.411863291815763 70.309666672450959 0 0 0 0 -11.12038692375063 -3.3294420058121403 0 -3.3294420058121403 39.897320070165733 0 0 0 0 -3.9993610201246526 2.5679637218949765 0 2.5679637218949765 2.4698471717407982 0 0 0 0 288.8469033802503 -80.154411066578859 0 -80.154411066578859 -882.41077725841933 0 0 0 0 35.03602238727035 -26.381273090034682 0 -26.381273090034682 -21.334470076308037 0 0 0 0 -20.236306489666561 -6.272890931317324 0 -6.272890931317324 0.51632485320884003 0 0 0 0 -37.301821357679728 -6.3570091755111093 0 -6.3570091755111093 66.552651707671458 0 0 0 0 -0.35791965709827878 -2.1010929820240403 0 -2.1010929820240403 -0.32416501648957197 0 0 0 0 -64.936690847818682 -25.824979996425412 0 -25.824979996425412 52.922187525743226 0 0 0 0 -13.899794986449706 -15.312156137755618 0 -15.312156137755618 23.671648320236073 0 0 0 0 -19.675875007305876 -10.981831782316846 0 -10.981831782316846 25.694934035447531 0 0 0 0 -3.2744453498235089 5.1245935612605678 0 5.1245935612605678 12.136556118664021 0 0 0 0 -1.9053387792337162 -18.340583974820234 0 -18.340583974820234 -7.5102805948584077 0 0 0 0 3.0207336275125272 -14.426590544625348 0 -14.426590544625348 24.045304821604134 0 0 0 0 -15.115635509631829 -2.857755416267139 0 -2.857755416267139 40.166408714428883 0 0 0 0 -8.0708448647128535 3.4084428618587541 0 3.4084428618587541 -11.479926235110243 0 0 0 0 -0.59149939631322468 0.06503289670429524 0 0.06503289670429524 -0.022500486924120135 0 0 0 0 -23.090430804000789 -1.4087233010881604 0 -1.4087233010881604 -12.905833872558862 0 0 0 0 -22.085817114297242 2.7913818700645066 0 2.7913818700645066 -0.19594171798241433 0 0 0 0 -0.33818737682813094 0.10157269235314459 0 0.10157269235314459 -0.10654387430827192 0 0 0 0 -143.34203475007234 -45.387501966748957 0 -45.387501966748957 -39.909309822607291 0 0 0 0 -175.94942369227647 144.37621702386753 0 144.37621702386753 -97.215275447080998 0 0 0 0 -279.16938311776539 61.198317193761689 0 61.198317193761689 0.14676782504106295 0 0 0 0 -443.41123986358434 214.13137670460861 0 214.13137670460861 -136.79324208658275 0 0 0 0 -454.87824240264399 29.076906873822171 0 29.076906873822171 39.593855741404916 0 0 0 0 -167.12522756842372 34.646835637940491 0 34.646835637940491 -211.34793082812098 0 0 0 0 -59.267021066101734 166.54252055309388 0 166.54252055309388 85.826086319235344 0 0 0 0 0.391122933609239 0.27665145088129606 0 0.27665145088129606 -0.19202768059862918 0 0 0 0 -37.181598829556606 -77.466471733107198 0 -77.466471733107198 38.70265132815004 0 0 0 0 -12.573996966966661 -28.067895291258161 0 -28.067895291258161 -43.892042257727837 0 0 0 0 -3.5082834956891134 -3.0325277069110328 0 -3.0325277069110328 0.24134234158443335 0 0 0 0 -95.86155884481559 60.495337753729927 0 60.495337753729927 52.761590188039236 0 0 0 0 -68.95519866302493 -32.398512819098784 0 -32.398512819098784 119.35197334254553 0 0 0 0 -303.59924097889598 -82.243395545722592 0 -82.243395545722592 -7.8280578459205117 0 0 0 0 -43.749886748551944 59.38646968386081 0 59.38646968386081 -19.572910817255774 0 0 0 0 -215.73220216013488 132.06806874780725 0 132.06806874780725 -34.939935823563076 0 0 0 0 -24.228069093009253 170.27621602004049 0 170.27621602004049 -277.56740705140561 0 0 0 0 -251.43882706587465 139.1862381583399 0 139.1862381583399 -27.509442724456676 0 0 0 0 -190.9137097128114 308.13742386160197 0 308.13742386160197 -378.79719056762792 0 0 0 0 -3.8109418478245232 0.62872239490773829 0 0.62872239490773829 0.08082913884413967 0 0 0 0 -420.40925896097133 305.87012089995437 0 305.87012089995437 -190.86125883858233 0 0 0 0 -206.31708965282087 -83.111800375714168 0 -83.111800375714168 143.20340096117218 0 0 0 0 4.7818868818467308 30.999358194699354 0 30.999358194699354 0.020365675436226562 0 0 0 0 -25.884157241855519 165.60642696693361 0 165.60642696693361 52.189419146135151 0 0 0 0 -10.146814658196234 0.6100634987519431 0 0.6100634987519431 0.53341086828539896 0 0 0 0 1.7269598078237323 -0.67820733440310099 0 -0.67820733440310099 99.669474275936224 0 0 0 0 0.36867973620610428 -20.42516010536561 0 -20.42516010536561 -0.094075264863747426 0 0 0 0 -12.264283538017622 -0.62295761475730771 0 -0.62295761475730771 0.61114542082865686 0 0 0 0 -75.234507049095555 -10.563639180690775 0 -10.563639180690775 96.977439333267341 0 0 0 0 -89.25859363285781 175.11091818787088 0 175.11091818787088 -244.84958825763687 0 0 0 0 -343.50529921450652 -171.42709047656439 0 -171.42709047656439 483.46502138758098 0 0 0 0 -10.141220662582782 316.85682842834348 0 316.85682842834348 -223.87074700149239 0 0 0 0 -453.23384839309711 146.51504720177977 0 146.51504720177977 19.904988287495144 0 0 0 0 -2.0892476802959976 2.9921150059693673 0 2.9921150059693673 -4.102253098868613 0 0 0 0 164.564921108813 128.40698897643654 0 128.40698897643654 -210.96653228281411 0 0 0 0 -413.69119587673777 217.31810273930392 0 217.31810273930392 -126.57293173811223 0 0 0 0 -398.56125324908498 46.066555307110889 0 46.066555307110889 73.035167558863236 0 0 0 0 -374.12175113408739 89.579747900838015 0 89.579747900838015 -73.860963902545336 0 0 0 0 10.489494218435539 88.432218980736479 0 88.432218980736479 -32.993124352797622 0 0 0 0 -26.737900783733494 2.7616205985482338 0 2.7616205985482338 -100.58738709690658 0 0 0 0 -37.077894075941003 71.466294909920066 0 71.466294909920066 -109.42190933071686 0 0 0 0 -378.24204490018747 71.755418303997061 0 71.755418303997061 -18.017339111087267 0 0 0 0 -46.078949601287604 -111.7727882406549 0 -111.7727882406549 -317.78954829368001 0 0 0 0 0.27540218362263147 -0.39026010159994584 0 -0.39026010159994584 -0.11436904675447934 0 0 0 0 -313.88770017065144 72.874513549391793 0 72.874513549391793 -114.17752866416936 0 0 0 0 0.66922752716622824 -1.3997950998022741 0 -1.3997950998022741 0.43904690540314517 0 0 0 0 -63.144215607120714 -95.213744632691089 0 -95.213744632691089 -109.10873789960078 0 0 0 0 23.633910472366551 -102.72090643158401 0 -102.72090643158401 -320.48983015669148 0 0 0 0 -50.452657291030846 -34.820523235791384 0 -34.820523235791384 -10.06263310663735 0 0 0 0 11.440022036753362 -45.639289502577185 0 -45.639289502577185 -40.143425190045676 0 0 0 0 67.895206146884448 -8.0994825730379034 0 -8.0994825730379034 -32.866044744325791 0 0 0 0 -1.1879908555201837 -20.779951011967341 0 -20.779951011967341 -8.2671745256686791 0 0 0 0 1.3805939479789231 -16.885737960528331 0 -16.885737960528331 -30.745281173558396 0 0 0 0 0.49089218527890921 -2.0113175386387407 0 -2.0113175386387407 0.14984109078910191 0 0 0 0 -5.3297852825053269 -134.65450262236232 0 -134.65450262236232 -242.85342782014277 0 0 0 0 6.5716895949735772 -7.961256895718634 0 -7.961256895718634 -16.918864832794917 0 0 0 0 1.6437898351188949 1.2981680057342935 0 1.2981680057342935 -2.5273556441927654 0 0 0 0 -4.6073166752593124 1.4574841107873766 0 1.4574841107873766 -3.6625289480350416 0 0 0 0 -11.169633800600423 -0.64167030990574858 0 -0.64167030990574858 -11.794719608132255 0 0 0 0 9.0067999744205736 22.174292474624963 0 22.174292474624963 24.168316153081832 0 0 0 0 34.992623446421931 19.574969331125999 0 19.574969331125999 -17.282370903903484 0 0 0 0 49.561754321173794 21.762510642591792 0 21.762510642591792 -27.929127076712575 0 0 0 0 -6.4935835975243492 7.4901018033097415 0 7.4901018033097415 -8.6605732305634238 0 0 0 0 -648.73660635951092 238.47759263219359 0 238.47759263219359 127.79325626528089 0 0 0 0 26.860970453959453 141.95194370120885 0 141.95194370120885 72.217516170828048 0 0 0 0 -5.713357857101073 -78.13686550261059 0 -78.13686550261059 50.368754082689975 0 0 0 0 -320.20753670094564 174.43222618898039 0 174.43222618898039 13.512998131152472 0 0 0 0 268.36227069477172 169.22920954125118 0 169.22920954125118 -37.130598331261353 0 0 0 0 -4.8355251840638545 7.4597892245026287 0 7.4597892245026287 -9.6317497555441225 0 0 0 0 140.49794277651381 -341.66280005415979 0 -341.66280005415979 -54.659594575005883 0 0 0 0 -39.183895198446407 32.644938496277405 0 32.644938496277405 119.31990895239255 0 0 0 0 -168.24293518396371 23.427375801720473 0 23.427375801720473 40.543088506653135 0 0 0 0 -92.834551431889849 -15.817657353396328 0 -15.817657353396328 12.167497191457016 0 0 0 0 -85.519029547946047 -2.005078312938025 0 -2.005078312938025 -2.7213060404803855 0 0 0 0 -17.18640998931005 -18.397973466492203 0 -18.397973466492203 73.506245625637689 0 0 0 0 -11.208046304927024 -6.8003620281378474 0 -6.8003620281378474 -2.2534031429397507 0 0 0 0 -14.689842687679629 -22.423823407235204 0 -22.423823407235204 76.171829788378545 0 0 0 0 19.241844889664208 -53.605774183835877 0 -53.605774183835877 54.29660215267586 0 0 0 0 3.0171965887275292 -76.278021012172303 0 -76.278021012172303 50.076886158015895 0 0 0 0 -4.0129855175877935 -2.0552250984211042 0 -2.0552250984211042 -1.3949288034352287 0 0 0 0 -34.833010400623607 -58.366340750757445 0 -58.366340750757445 53.885248033516291 0 0 0 0 -46.768918929097708 -64.275779516469811 0 -64.275779516469811 51.212431341817975 0 0 0 0 -7.2335823044268182 -77.743677355436716 0 -77.743677355436716 52.951722073144765 0 0 0 0 -65.05698746334383 -48.193688317941209 0 -48.193688317941209 37.285258214873579 0 0 0 0 -39.975031709633186 -50.879911900435481 0 -50.879911900435481 29.104067519849625 0 0 0 0 -37.221797491190955 -31.783632217340937 0 -31.783632217340937 27.691012364411115 0 0 0 0 -27.317552091888501 -59.373279576974852 0 -59.373279576974852 19.068602446477485 0 0 0 0 -41.387940334636369 -45.598549662686025 0 -45.598549662686025 15.657007879447292 0 0 0 0 -56.008888902288163 -36.335266759662318 0 -36.335266759662318 -2.9987806459274111 0 0 0 0 -37.158586036006454 -57.486002161836353 0 -57.486002161836353 -5.1850062111612374 0 0 0 0 -43.773018740706902 -57.931603083044124 0 -57.931603083044124 9.3486963894486834 0 0 0 0 -45.334030332087423 -35.757679305077318 0 -35.757679305077318 70.387518020714424 0 0 0 0 -49.329975093998655 -50.56163683901309 0 -50.56163683901309 47.946446451608381 0 0 0 0 -20.704932553460822 -44.151003025411001 0 -44.151003025411001 48.547607489560818 0 0 0 0 -61.315624939481495 -12.803176723687102 0 -12.803176723687102 108.080498018958 0 0 0 0 -39.363473394849279 -29.122678949222063 0 -29.122678949222063 60.142467901318412 0 0 0 0 -64.029159988291212 -47.256335283725491 0 -47.256335283725491 66.44323656198624 0 0 0 0 -55.424258890932833 -63.943438098515642 0 -63.943438098515642 -18.078455856258898 0 0 0 0 -49.161224046805728 -31.44430342992483 0 -31.44430342992483 14.315851076078587 0 0 0 0 -97.653046595733031 -47.422786649215766 0 -47.422786649215766 94.090614985714637 0 0 0 0 -22.165152024128474 2.3200933139644917 0 2.3200933139644917 86.330974478824032 0 0 0 0 -39.631588795708012 6.0553397866112277 0 6.0553397866112277 141.05395892734896 0 0 0 0 0.057023388563919752 -1.6531151109591349 0 -1.6531151109591349 3.2880324975752804 0 0 0 0 3.5010169256802328 70.014558789980242 0 70.014558789980242 154.38739984455287 0 0 0 0 -10.411324473340756 10.915703480426529 0 10.915703480426529 79.676613253622008 0 0 0 0 -1.1681015323594153 -6.1481153164111859 0 -6.1481153164111859 4.0777459676467513 0 0 0 0 -12.95994551305921 -2.5200528491091063 0 -2.5200528491091063 68.881367845345949 0 0 0 0 -2.6447671947607887 120.95195525674308 0 120.95195525674308 47.96847795928602 0 0 0 0 -352.02009679334878 62.734619647098611 0 62.734619647098611 16.684220931258551 0 0 0 0 -312.06489359838724 -204.05262905339305 0 -204.05262905339305 -21.054910262159183 0 0 0 0 -93.767898703888932 -154.80800759859449 0 -154.80800759859449 -68.519972524947889 0 0 0 0 48.841057147536048 27.523728684791934 0 27.523728684791934 -77.067875262296184 0 0 0 0 -133.06775247281621 20.210236776969168 0 20.210236776969168 28.71289615703563 0 0 0 0 -66.609265439044975 -2.1090318227809348 0 -2.1090318227809348 36.202813410258841 0 0 0 0 -52.408262791732341 38.108509593381768 0 38.108509593381768 51.394747150881813 0 0 0 0 -68.076364850829123 -11.590535356860073 0 -11.590535356860073 68.291159275583141 0 0 0 0 5.5919208680279553 -10.788920777601788 0 -10.788920777601788 38.982859427237599 0 0 0 0 -0.85258014359715162 141.47069259675811 0 141.47069259675811 92.49643610375108 0 0 0 0 -35.40121322345658 -2.5558225987367678 0 -2.5558225987367678 112.40210911578288 0 0 0 0 4.1229687052764348 7.7111603652315353 0 7.7111603652315353 -3.7631678426150756 0 0 0 0 -57.175374517115415 12.265651746451908 0 12.265651746451908 -2.6517653255109508 0 0 0 0 -51.391043579704274 -44.230274872222935 0 -44.230274872222935 -169.38339253425784 0 0 0 0 -39.367885876696164 -2.6869180782642843 0 -2.6869180782642843 -69.72259881781838 0 0 0 0 -186.24211394033773 58.535709496367645 0 58.535709496367645 -95.074191181473338 0 0 0 0 -2.6531191133670546 0.26601276568260346 0 0.26601276568260346 -0.0043693395104131838 0 0 0 0 -124.05001151006581 -159.39464907170839 0 -159.39464907170839 -184.25317479213902 0 0 0 0 -2.8316192230013257 75.546377238797362 0 75.546377238797362 -123.36423064001815 0 0 0 0 -143.49605938258901 -38.742801060742629 0 -38.742801060742629 16.493136948668848 0 0 0 0 -68.563530620001984 -87.262234298783028 0 -87.262234298783028 -149.04454840983374 0 0 0 0 -53.988320084521547 -80.370522079286758 0 -80.370522079286758 -60.340332189016522 0 0 0 0 -70.393698804728047 -56.526453714215052 0 -56.526453714215052 -20.238180475873378 0 0 0 0 41.939700777356848 34.400884697037384 0 34.400884697037384 -197.99622453728034 0 0 0 0 -183.7211446902802 -26.531049666960939 0 -26.531049666960939 65.576191526419279 0 0 0 0 1.6977184340939857 -41.904353323966006 0 -41.904353323966006 -19.271465255565886 0 0 0 0 -142.60368603100869 -124.43536284541636 0 -124.43536284541636 -61.696844703548777 0 0 0 0 -6.5846117208051851 1.0137246848461956 0 1.0137246848461956 0.32194576942238129 0 0 0 0 -22.474117662757635 -69.347503258885524 0 -69.347503258885524 -114.98247174313235 0 0 0 0 -106.1268119464803 33.687099100365117 0 33.687099100365117 64.481633529458961 0 0 0 0 57.491962626008899 -5.829488582779959 0 -5.829488582779959 -41.403655871820092 0 0 0 0 62.346550210497298 -64.680074505493536 0 -64.680074505493536 -75.915056615282992 0 0 0 0 -40.174448321038653 -14.50436471624144 0 -14.50436471624144 -35.901128827337629 0 0 0 0 -21.443252157885581 0.39772449947668065 0 0.39772449947668065 -1.9459083271040072 0 0 0 0 -1.4008865201612934 -2.0179062361701199 0 -2.0179062361701199 -5.5966502207497797 0 0 0 0 -8.2948362879709521 1.8565259565088112 0 1.8565259565088112 -0.70196789341740073 0 0 0 0 -0.59823651454284743 -0.098333781731298586 0 -0.098333781731298586 -0.76465753346605725 0 0 0 0 -0.45317138310616656 -0.88596175605279015 0 -0.88596175605279015 -0.77017444641133426 0 0 0 0 -12.996114166009647 17.86796387561958 0 17.86796387561958 -36.251210566438658 0 0 0 0 -3.1745533209468704 -60.152819886760199 0 -60.152819886760199 15.330425267133137 0 0 0 0 -0.82728646581745124 -59.336594435527132 0 -59.336594435527132 -145.51182576452356 0 0 0 0 -40.453446650353726 -103.51959881976859 0 -103.51959881976859 -53.218463036211574 0 0 0 0 -95.943280254854471 -144.41877950318872 0 -144.41877950318872 -98.017874425890227 0 0 0 0 -121.01827083582066 -50.411169134472118 0 -50.411169134472118 -109.78037813937681 0 0 0 0 -38.121884565109212 -95.44094478667671 0 -95.44094478667671 -102.34902026715224 0 0 0 0 -27.123044290245161 -119.39623190002578 0 -119.39623190002578 -131.85115099045538 0 0 0 0 7.3709246334801719 -18.5306548050213 0 -18.5306548050213 -41.884443611116239 0 0 0 0 -3.0905804234719767 -0.28428538589906238 0 -0.28428538589906238 0.022663250924310541 0 0 0 0 -23.173137001351279 -115.61352444568433 0 -115.61352444568433 -93.013637704722441 0 0 0 0 -1.4416198517678822 6.1005258733299357 0 6.1005258733299357 -4.9469279851186911 0 0 0 0 -39.327243259016541 33.711215226957847 0 33.711215226957847 -16.250444171787535 0 0 0 0 -112.16007636553695 63.263785563017223 0 63.263785563017223 -20.036672990413081 0 0 0 0 -178.18705284159296 29.078936302843772 0 29.078936302843772 70.647472043885045 0 0 0 0 -146.96797666401835 77.126162273888895 0 77.126162273888895 84.504168178046939 0 0 0 0 -86.744100442272611 110.73207004695382 0 110.73207004695382 79.31690688039501 0 0 0 0 1.4786355807324867 0.51597076874067227 0 0.51597076874067227 0.20483763516064446 0 0 0 0 -169.308549014444 201.79666572127326 0 201.79666572127326 -19.626957165135536 0 0 0 0 -122.08098821641761 52.320797006907014 0 52.320797006907014 47.885934764542526 0 0 0 0 90.379539023590041 -228.95137732008953 0 -228.95137732008953 -24.645691931729743 0 0 0 0 -0.60298914654629243 0.3262556049342038 0 0.3262556049342038 0.056875137440080437 0 0 0 0 -199.3510579651047 -75.059753160218008 0 -75.059753160218008 3.941441677685134 0 0 0 0 -38.676199203913711 -11.193964991894518 0 -11.193964991894518 -9.9970402134417782 0 0 0 0 -0.80507133302027611 3.5753671746127864 0 3.5753671746127864 2.7695138840644242 0 0 0 0 -50.525413014223886 -15.118751455351685 0 -15.118751455351685 20.349706469356533 0 0 0 0 -4.4783903500938322 22.617706599136682 0 22.617706599136682 -30.710266917017748 0 0 0 0 -69.071623603878834 -33.342294255823617 0 -33.342294255823617 2.9472390318595387 0 0 0 0 -76.105721921878285 -12.777977974049463 0 -12.777977974049463 -12.504716721851537 0 0 0 0 -113.33644558474953 -28.148425481899693 0 -28.148425481899693 5.2671985885267532 0 0 0 0 -110.18902726333363 -17.670570305462405 0 -17.670570305462405 -28.864171505577815 0 0 0 0 -77.51727407911676 -16.666208406169972 0 -16.666208406169972 -21.046789661761238 0 0 0 0 -70.24656905644224 1.9052042133651526 0 1.9052042133651526 13.739619841897536 0 0 0 0 -129.2326416440886 12.298759612436109 0 12.298759612436109 -13.844338936024997 0 0 0 0 -185.71965059768991 -6.7164260613558042 0 -6.7164260613558042 11.957140713630338 0 0 0 0 -129.16960747167468 -30.379236573741082 0 -30.379236573741082 -7.7595120242498297 0 0 0 0 -78.475543733438826 3.6427929728689996 0 3.6427929728689996 -1.8068262453136494 0 0 0 0 -113.41304718289757 -54.295835528701161 0 -54.295835528701161 -36.896451065244833 0 0 0 0 -41.322426832102792 -32.559387681829122 0 -32.559387681829122 -3.4561952147162458 0 0 0 0 -64.9500598993327 -2.8548351276421613 0 -2.8548351276421613 -15.880675738708945 0 0 0 0 -3.711107025873897 2.2706461668473565 0 2.2706461668473565 4.4415729049047057 0 0 0 0 -4.0330671767587774 8.3228147795234193 0 8.3228147795234193 -23.442038572806304 0 0 0 0 15.822265622304258 -2.5311306119129995 0 -2.5311306119129995 -16.429893398736112 0 0 0 0 -2.900192236932071 -13.457552488428824 0 -13.457552488428824 21.821115695005574 0 0 0 0 -6.9076713274138513 1.2297693357398181 0 1.2297693357398181 1.0498618221814198 0 0 0 0 -68.230452710282407 -61.365669285796457 0 -61.365669285796457 166.46421556569521 0 0 0 0 17.727323410596 -39.147794894148774 0 -39.147794894148774 -52.307930211868552 0 0 0 0 -27.859488950598461 -13.254299777532538 0 -13.254299777532538 100.42457259336379 0 0 0 0 -53.951689363108017 25.854355558618863 0 25.854355558618863 48.631999719781561 0 0 0 0 -53.274347296784981 -69.997520636764875 0 -69.997520636764875 30.304523045705196 0 0 0 0 -81.1575563197257 -93.710165055904781 0 -93.710165055904781 -74.493160014966861 0 0 0 0 -38.722853013947315 -26.950738933947264 0 -26.950738933947264 -86.446230386114166 0 0 0 0 -48.553932439419441 -97.172453503596444 0 -97.172453503596444 -224.68235352146485 0 0 0 0 -82.033977037237491 -106.08984977688988 0 -106.08984977688988 -89.426016495803651 0 0 0 0 -29.577555120922625 -100.37831563017062 0 -100.37831563017062 -53.991186520661714 0 0 0 0 -17.563211743014108 -69.992570664076652 0 -69.992570664076652 -161.91308509919781 0 0 0 0 -26.576208450307604 -131.45464440548767 0 -131.45464440548767 -160.13168217876171 0 0 0 0 -2.1928785988784512 -95.472923751843496 0 -95.472923751843496 -198.53298205093142 0 0 0 0 -84.172526245223708 -80.007195313665648 0 -80.007195313665648 -205.92329268039384 0 0 0 0 -159.31051258802472 -181.19388193929262 0 -181.19388193929262 -191.68837265340932 0 0 0 0 -58.306999720708518 -54.12958117704207 0 -54.12958117704207 -104.28616308084383 0 0 0 0 -40.014928088559827 -145.80930695172435 0 -145.80930695172435 -171.61394761114207 0 0 0 0 -12.428172863117652 -152.48424058426053 0 -152.48424058426053 -212.23452321116383 0 0 0 0 -36.927803053302341 -112.93521762501632 0 -112.93521762501632 -102.01617079700372 0 0 0 0 -22.583351949724602 -95.356869404944746 0 -95.356869404944746 -1.5404021440403994 0 0 0 0 12.090419887212192 -50.011839489541899 0 -50.011839489541899 -90.79352441264291 0 0 0 0 41.606737676756893 -63.275600887334804 0 -63.275600887334804 -109.67192048996662 0 0 0 0 10.533194357674802 -95.204770958351105 0 -95.204770958351105 78.842959677782346 0 0 0 0 108.11037045292323 20.103842885655297 0 20.103842885655297 45.832317765236667 0 0 0 0 -18.400790305558985 54.164911560004185 0 54.164911560004185 214.61276906251101 0 0 0 0 -26.540444885293255 -82.785764268413004 0 -82.785764268413004 121.76177298000329 0 0 0 0 7.5010260341514368 -47.246847160015022 0 -47.246847160015022 12.540237609125029 0 0 0 0 -14.122547936940848 -2.3716370260866677 0 -2.3716370260866677 1.7611889057742645 0 0 0 0 -79.793664092598192 -10.745113472574047 0 -10.745113472574047 39.362067003127066 0 0 0 0 -99.837180255550265 -78.792918258923663 0 -78.792918258923663 -129.31765663159155 0 0 0 0 -11.435658878348704 -1.7546940551890686 0 -1.7546940551890686 0.55409549195369989 0 0 0 0 22.371935562878207 -62.363338673290002 0 -62.363338673290002 -130.90396664565543 0 0 0 0 -106.80804577946765 9.332792285271637 0 9.332792285271637 312.31650830157992 0 0 0 0 -55.348261589504546 -57.892338629674668 0 -57.892338629674668 51.2031797884311 0 0 0 0 35.785577616770752 -35.783983142925877 0 -35.783983142925877 -105.01477392256834 0 0 0 0 -75.06774946225778 -152.28868763677929 0 -152.28868763677929 169.7479683523004 0 0 0 0 107.89472277210007 -20.685602518171777 0 -20.685602518171777 -99.955352519597 0 0 0 0 3.9648831879603676 -141.04719132753371 0 -141.04719132753371 -97.024664679196647 0 0 0 0 -23.415439241028707 -74.586131057479321 0 -74.586131057479321 8.0003767882295733 0 0 0 0 -83.910478600228089 -73.455330333409478 0 -73.455330333409478 11.474337624017437 0 0 0 0 -29.033734759146682 -127.74758134784169 0 -127.74758134784169 80.465193075066281 0 0 0 0 -0.12941844760328602 -0.007576464672233385 0 -0.007576464672233385 -0.16175068712217899 0 0 0 0 -223.14240954515481 -54.206488611035127 0 -54.206488611035127 17.141740671466437 0 0 0 0 118.43593842007249 5.2939620757780972 0 5.2939620757780972 21.643341622009984 0 0 0 0 55.491410747228656 -75.112187311963567 0 -75.112187311963567 -39.48623964194428 0 0 0 0 0.5113067818339494 -0.54453011166335585 0 -0.54453011166335585 0.83165404634976481 0 0 0 0 -22.612865211063763 -121.88560493792289 0 -121.88560493792289 -166.14525227718502 0 0 0 0 -129.03607999161613 -19.498508288950632 0 -19.498508288950632 5.5374824769812676 0 0 0 0 -105.71431599500102 34.603465335909533 0 34.603465335909533 8.3916021731545243 0 0 0 0 -97.867042853329622 -138.3963466692951 0 -138.3963466692951 84.42991778119324 0 0 0 0 -232.42523361671192 46.169897588349954 0 46.169897588349954 232.81572624839896 0 0 0 0 -42.659054924144584 -157.90436629810461 0 -157.90436629810461 90.464893135191119 0 0 0 0 45.253147104085656 -108.88526347731334 0 -108.88526347731334 24.371761463419432 0 0 0 0 -1.6269018618932449 -0.72688890392078953 0 -0.72688890392078953 -0.12481456173220662 0 0 0 0 -50.460636323252402 57.041374843885592 0 57.041374843885592 -51.819344687192199 0 0 0 0 -10.032815137496527 21.995656579367761 0 21.995656579367761 7.3666633192909785 0 0 0 0 -10.443170443018062 25.773819497884325 0 25.773819497884325 -27.39223343329104 0 0 0 0 -65.756552598439157 6.3482336837473667 0 6.3482336837473667 28.04910866696801 0 0 0 0 -25.9169677578695 8.729843328472807 0 8.729843328472807 1.9782376861648854 0 0 0 0 -28.543934488639934 4.5088344386209656 0 4.5088344386209656 -5.379018381149308 0 0 0 0 -10.125577728401103 -2.1912930779262823 0 -2.1912930779262823 3.2264862029016093 0 0 0 0 -57.274704030060093 2.1918295218507922 0 2.1918295218507922 25.664836390697502 0 0 0 0 -23.636501355824294 -1.8752650190731401 0 -1.8752650190731401 -4.1806892982508259 0 0 0 0 -28.395662319850089 4.4037844385102858 0 4.4037844385102858 -6.0960423550759515 0 0 0 0 -28.458646642055101 4.5117436420302965 0 4.5117436420302965 -6.1315936760233853 0 0 0 0 -27.09911009341522 4.0656608394824616 0 4.0656608394824616 -8.8824873338767247 0 0 0 0 -27.043295770621768 -3.327016942331662 0 -3.327016942331662 -0.66729345705776888 0 0 0 0 -18.26182054057972 -8.6847634411097374 0 -8.6847634411097374 0.36039556956416163 0 0 0 0 -38.906840788728005 -15.905482199676953 0 -15.905482199676953 -0.23056564079283959 0 0 0 0 -35.504069443632034 4.9778628996610905 0 4.9778628996610905 27.66149542676385 0 0 0 0 -53.533462265721028 0.25209005585145405 0 0.25209005585145405 14.256894943601537 0 0 0 0 -54.7885156156226 -13.108233032027783 0 -13.108233032027783 10.78708536883471 0 0 0 0 -52.990035938048095 1.1190044182440033 0 1.1190044182440033 30.063707132243962 0 0 0 0 -40.4538975148389 -2.71372711292247 0 -2.71372711292247 15.979948128644764 0 0 0 0 -51.714889752862291 -5.8388863158210143 0 -5.8388863158210143 26.936512689470419 0 0 0 0 -51.88063626989242 1.5438046689696421 0 1.5438046689696421 28.156926260542377 0 0 0 0 -43.366522868549509 -0.99824084660804147 0 -0.99824084660804147 33.074682277921397 0 0 0 0 -61.754933612794559 -3.4926903085672727 0 -3.4926903085672727 28.266226979488238 0 0 0 0 -10.905063706037476 -0.82863412913258827 0 -0.82863412913258827 -0.010204285371635535 0 0 0 0 -32.646182106072956 3.5873692784855393 0 3.5873692784855393 30.316557393728885 0 0 0 0 -38.686218841214469 -2.7823547592704543 0 -2.7823547592704543 1.7767334555805316 0 0 0 0 -23.792983672643572 -3.2445568869934731 0 -3.2445568869934731 3.9563179331249216 0 0 0 0 -40.50166598823855 -1.6078227317999136 0 -1.6078227317999136 1.4100850841248389 0 0 0 0 -30.421086396465014 -0.95229056823202463 0 -0.95229056823202463 0.4151087996940408 0 0 0 0 -35.050601684946741 -0.46370866215943352 0 -0.46370866215943352 -6.982024937047413 0 0 0 0 -53.971550806651102 -10.89047072590661 0 -10.89047072590661 -2.6187692262701452 0 0 0 0 -60.377195764940552 -51.83964838617544 0 -51.83964838617544 -2.0855284817298525 0 0 0 0 -42.961402492641355 -6.6707562971066636 0 -6.6707562971066636 43.990441844672887 0 0 0 0 -13.377915752273033 -2.7275685851299976 0 -2.7275685851299976 -2.5355184657168817 0 0 0 0 -39.690509584979736 8.219729666551757 0 8.219729666551757 34.512667310021698 0 0 0 0 -44.601460888043221 -1.3957760703210624 0 -1.3957760703210624 28.080758700691376 0 0 0 0 4.3140585615619784 -15.570508808976228 0 -15.570508808976228 21.803237083350268 0 0 0 0 -42.021194859073148 8.935844807707781 0 8.935844807707781 4.6366165696726966 0 0 0 0 -28.162418949890707 -5.7238257714602696 0 -5.7238257714602696 18.93302041060781 0 0 0 0 -42.954950850951718 -7.1330314144053091 0 -7.1330314144053091 11.772646438507991 0 0 0 0 -158.26234409357858 61.79666189989257 0 61.79666189989257 33.493566229123644 0 0 0 0 -743.22009513473313 273.96573196072677 0 273.96573196072677 -96.160805918116239 0 0 0 0 -292.30766115771257 1.3826650937770637 0 1.3826650937770637 41.078171301799557 0 0 0 0 -196.90304975415711 -171.40619735666519 0 -171.40619735666519 -89.039242271399416 0 0 0 0 -25.910085422789962 37.519308230801386 0 37.519308230801386 -1.2667811529877326 0 0 0 0 -57.034592320469528 27.419360757956724 0 27.419360757956724 -1.1653641604602853 0 0 0 0 -84.127955909672892 65.630877176522063 0 65.630877176522063 -1.0041518723580793 0 0 0 0 19.507422946961015 19.056556185583759 0 19.056556185583759 4.9798383415150056 0 0 0 0 -32.647732026205631 80.049294257369866 0 80.049294257369866 34.648665774190249 0 0 0 0 -1.3364967987893408 1.0489262640869335 0 1.0489262640869335 -0.74156161569214474 0 0 0 0 -166.17448986271847 -110.57364103495934 0 -110.57364103495934 -82.109169787448991 0 0 0 0 -204.01358421843224 25.549951335892132 0 25.549951335892132 18.599908460308143 0 0 0 0 -189.52066069212742 -170.82584259620307 0 -170.82584259620307 27.692045567644527 0 0 0 0 -51.210587908601156 -17.053692936436164 0 -17.053692936436164 -30.013305536392181 0 0 0 0 -112.26912885245292 -15.605654818300081 0 -15.605654818300081 52.39528385740914 0 0 0 0 -57.323138336816555 -19.474391424957446 0 -19.474391424957446 3.3358642206499098 0 0 0 0 -53.358773925348942 -17.004601105573613 0 -17.004601105573613 -2.4136731957789834 0 0 0 0 -57.348505627206265 -11.703472592592775 0 -11.703472592592775 -0.90881573897807211 0 0 0 0 -13.98908377654724 1.0926716369399117 0 1.0926716369399117 1.1223373384787125 0 0 0 0 -73.292245137592545 -9.1055504947720465 0 -9.1055504947720465 11.690473422406228 0 0 0 0 -92.333791829619656 -7.7848056891014235 0 -7.7848056891014235 8.729155023277599 0 0 0 0 -54.188088085535128 -12.034298030653076 0 -12.034298030653076 0.25275305335730991 0 0 0 0 -65.390682883989939 -3.2245971050567732 0 -3.2245971050567732 1.7233934472749297 0 0 0 0 -74.602459467918379 -13.260548224541253 0 -13.260548224541253 -4.3186024536131526 0 0 0 0 -74.386284332766081 -12.051508483985231 0 -12.051508483985231 1.6629836735388608 0 0 0 0 -113.53487994406532 -5.8953185297789901 0 -5.8953185297789901 3.1795499720626594 0 0 0 0 -61.905686001460708 -23.485508346314589 0 -23.485508346314589 -3.3747850691856911 0 0 0 0 -70.45337472720712 -28.405115606524646 0 -28.405115606524646 -43.905043840301232 0 0 0 0 -46.76660631984123 12.324406597105394 0 12.324406597105394 8.6499767566066339 0 0 0 0 -90.014598658650357 -6.5444300730034684 0 -6.5444300730034684 21.867587473950834 0 0 0 0 -93.194145327828664 -50.751389372380608 0 -50.751389372380608 6.7297717682822622 0 0 0 0 -89.487989681532781 -12.036903392149497 0 -12.036903392149497 -1.4567057991009733 0 0 0 0 -25.814365164450464 -15.480743816334652 0 -15.480743816334652 6.6344417484808886 0 0 0 0 -31.806203877007647 -11.93946679209057 0 -11.93946679209057 -3.9512809366273132 0 0 0 0 -32.020617641440253 -11.532822267612383 0 -11.532822267612383 -2.990660065549811 0 0 0 0 -65.183666383594755 -51.305519144363075 0 -51.305519144363075 -0.11080460979792406 0 0 0 0 -31.241230651394289 -4.3678896866877039 0 -4.3678896866877039 0.17802232048848055 0 0 0 0 -36.536672976522823 -6.765696265266115 0 -6.765696265266115 0.47629437408301101 0 0 0 0 -40.487028010826762 -3.5230569013981032 0 -3.5230569013981032 0.34309357787100891 0 0 0 0 -63.479225597551704 6.3140561584209536 0 6.3140561584209536 28.816509732634131 0 0 0 0 -24.596758990637873 -8.5387940207613102 0 -8.5387940207613102 0.25813732678204726 0 0 0 0 -20.173374449985936 8.7092417729302696 0 8.7092417729302696 4.2770661926212314 0 0 0 0 -66.843026616756106 14.970827661466274 0 14.970827661466274 -14.337736821424187 0 0 0 0 -40.272400080153602 -7.4046134038983382 0 -7.4046134038983382 1.673182201292434 0 0 0 0 -38.326026178681786 -4.8739536113804149 0 -4.8739536113804149 0.8981270356512141 0 0 0 0 29.798620819870848 73.166286661913432 0 73.166286661913432 22.382693632180235 0 0 0 0 -5.5243953287865502 0.94363163426629981 0 0.94363163426629981 1.1362012040984188 0 0 0 0 -108.93974046802032 -66.052527181989717 0 -66.052527181989717 54.004145470368258 0 0 0 0 -3.7941363570218911 2.7551719266163808 0 2.7551719266163808 0.49002017773789763 0 0 0 0 -1.021831698162714 -16.824316229428177 0 -16.824316229428177 10.022129638085062 0 0 0 0 -23.424028826102585 8.2955797469181789 0 8.2955797469181789 6.4746724075482689 0 0 0 0 -57.552950574550778 -106.23240628768849 0 -106.23240628768849 -36.139900546342005 0 0 0 0 -88.584099169747788 -57.311773748699352 0 -57.311773748699352 -19.806742633767954 0 0 0 0 -34.765902091581665 -15.303044688347654 0 -15.303044688347654 25.853210417394848 0 0 0 0 -36.133455662697088 -6.3220047446368426 0 -6.3220047446368426 4.809496605535287 0 0 0 0 -34.449487258210866 -15.325855244293393 0 -15.325855244293393 13.105182480881808 0 0 0 0 -41.43451609238673 -3.7219734869655667 0 -3.7219734869655667 2.7184163326057842 0 0 0 0 -31.487217680642061 -11.244312744485569 0 -11.244312744485569 9.1979556562538676 0 0 0 0 -42.751840545446612 -15.934268953521439 0 -15.934268953521439 -1.3955137966827351 0 0 0 0 -14.184019866796024 -5.2232751223104721 0 -5.2232751223104721 2.4224314075115121 0 0 0 0 -63.317562420295872 -20.46521089578232 0 -20.46521089578232 2.9459089051146066 0 0 0 0 -49.087824760260446 -10.432882378118336 0 -10.432882378118336 12.505631605167082 0 0 0 0 -47.368807791550353 -19.751326474269717 0 -19.751326474269717 11.7959915904909 0 0 0 0 0.82614879446219547 0.017597786167570462 0 0.017597786167570462 2.0809424449110776 0 0 0 0 -172.20289317395145 -100.81030553135713 0 -100.81030553135713 -24.946603351845226 0 0 0 0 -30.292867840557847 1.6877180439044537 0 1.6877180439044537 22.37249611899631 0 0 0 0 -48.671873833513928 -16.018973465148136 0 -16.018973465148136 34.17257880473403 0 0 0 0 -84.48765154650755 -77.539801497644703 0 -77.539801497644703 -54.055661053221741 0 0 0 0 -115.53829543666143 -25.133995293153191 0 -25.133995293153191 31.005639405020929 0 0 0 0 -68.237595350172342 -14.423353398209372 0 -14.423353398209372 -18.318675653062087 0 0 0 0 -26.620881023409311 -8.1007332596009292 0 -8.1007332596009292 12.950191263449028 0 0 0 0 -112.58630037747434 -63.733074895485998 0 -63.733074895485998 11.982755058377734 0 0 0 0 -85.699410910954612 -41.585072610900511 0 -41.585072610900511 14.90000000110922 0 0 0 0 -38.212585589786961 -8.0018141995458585 0 -8.0018141995458585 -1.499642176216164 0 0 0 0 -42.485707875532171 -19.316904964516183 0 -19.316904964516183 14.002696262439031 0 0 0 0 -32.676720099894432 -4.0483607802367061 0 -4.0483607802367061 -1.5919310790369545 0 0 0 0 -61.216653919564123 -5.1388070359108724 0 -5.1388070359108724 3.4032407456670626 0 0 0 0 -31.400786492486723 -10.564937385808458 0 -10.564937385808458 -1.1564229976624265 0 0 0 0 -26.869331364810932 -15.860447773884971 0 -15.860447773884971 -35.185145621589982 0 0 0 0 -69.054135835460329 -14.647273701924405 0 -14.647273701924405 33.179630777128864 0 0 0 0 -65.768938341454486 -11.702378059096947 0 -11.702378059096947 3.3877765558294795 0 0 0 0 -13.768843420819408 -5.670109422707803 0 -5.670109422707803 0.43252620197172487 0 0 0 0 -64.444244941667421 -2.7225916682061779 0 -2.7225916682061779 -26.64256116278284 0 0 0 0 -54.804734479352192 -44.304025004704613 0 -44.304025004704613 -12.92464000828295 0 0 0 0 -72.192960941181809 -40.897493857047948 0 -40.897493857047948 -13.510830630954388 0 0 0 0 -110.13636927845073 29.673969703311968 0 29.673969703311968 -49.600367087786253 0 0 0 0 -5.7379895511610641 -1.7296708860349099 0 -1.7296708860349099 -0.076685423338449965 0 0 0 0 -32.481329573463881 50.12532933795751 0 50.12532933795751 123.35458112100173 0 0 0 0 -11.65004137721553 -16.845739018712038 0 -16.845739018712038 115.7732809186225 0 0 0 0 -87.075107168864633 20.919821783302723 0 20.919821783302723 97.014448660538619 0 0 0 0 -76.837811782803328 51.469951472629418 0 51.469951472629418 2.944340126005045 0 0 0 0 -5.6546710091948853 2.4928286111529587 0 2.4928286111529587 2.9898663264489551 0 0 0 0 -46.026115382853554 -11.226555241297419 0 -11.226555241297419 -0.98373405699482497 0 0 0 0 -773.74065881874958 284.98053976247013 0 284.98053976247013 -39.501601952434726 0 0 0 0 -619.10050622420749 503.50454994804397 0 503.50454994804397 -112.38057345182412 0 0 0 0 -438.11133081052321 484.80516845141915 0 484.80516845141915 -118.19544473119956 0 0 0 0 -161.13973490985518 316.9622353904507 0 316.9622353904507 -414.15108649730678 0 0 0 0 -1568.8620740648512 30.825728282027967 0 30.825728282027967 -308.86352941830251 0 0 0 0 -557.69568486506978 263.89557546150598 0 263.89557546150598 -267.58400615019218 0 0 0 0 -0.48605106026577971 0.46206248197905353 0 0.46206248197905353 1.1357991539835015 0 0 0 0 -764.86785408220203 -291.40167622360121 0 -291.40167622360121 -153.10020792816073 0 0 0 0 -1498.3663733080211 -199.8693446789714 0 -199.8693446789714 -20.997146928136086 0 0 0 0 -1042.9094167784624 20.78232485828698 0 20.78232485828698 -385.11313608013052 0 0 0 0 -1497.6752239061861 -535.7136533194066 0 -535.7136533194066 124.23741885310631 0 0 0 0 -936.89164681352486 -341.90006698864556 0 -341.90006698864556 13.773899823877628 0 0 0 0 -928.19112924465435 -222.06932721831024 0 -222.06932721831024 33.971218275687448 0 0 0 0 -20.858824197512149 115.39685938660199 0 115.39685938660199 -127.96587225820295 0 0 0 0 14.782548535778915 37.615270527264229 0 37.615270527264229 40.306625186340398 0 0 0 0 -560.2116514137997 -604.871304631405 0 -604.871304631405 -383.5003184727297 0 0 0 0 -1415.8657939586628 728.75982412181543 0 728.75982412181543 -220.90837932134514 0 0 0 0 -6.4581710925388336 -1.1022886871607351 0 -1.1022886871607351 -0.93735879032056901 0 0 0 0 63.538441327560577 26.930179511796837 0 26.930179511796837 -221.82974171040104 0 0 0 0 -1498.0158161588772 609.64693229555644 0 609.64693229555644 -393.10815110090863 0 0 0 0 -1521.8410343253345 644.94139063526529 0 644.94139063526529 -20.234996065361287 0 0 0 0 -3.4944383507411203 1.7427897353666317 0 1.7427897353666317 0.59917272016390433 0 0 0 0 -1037.397399115438 928.34184505057419 0 928.34184505057419 -687.56838005978818 0 0 0 0 -16.196095621944693 -3.5313208511371794 0 -3.5313208511371794 1.6891810688345503 0 0 0 0 -49.804769080114056 -28.666881824230387 0 -28.666881824230387 16.237363307462857 0 0 0 0 -497.39019170476604 552.08606321645732 0 552.08606321645732 -472.45736499104237 0 0 0 0 -162.30051218495646 127.25140653158195 0 127.25140653158195 -46.074717943083769 0 0 0 0 -5.6766302860659437 0.52087069893035576 0 0.52087069893035576 3.5497401693687065 0 0 0 0 -1.584277523754281 -3.1829704799824867 0 -3.1829704799824867 11.842995245669798 0 0 0 0 -233.13035767914334 68.604828289989655 0 68.604828289989655 42.577939884277924 0 0 0 0 -15.952493708393163 -2.226543083439644 0 -2.226543083439644 7.2306184268518008 0 0 0 0 0.053941822199703893 -9.3666455657504457 0 -9.3666455657504457 3.8925498273547419 0 0 0 0 -440.44075474404235 316.25412242659991 0 316.25412242659991 -219.15487655292691 0 0 0 0 -0.91261113465114363 0.46224103285604912 0 0.46224103285604912 3.0630693745205133 0 0 0 0 -1.2440246324637982 3.695240896782515 0 3.695240896782515 6.212103724113903 0 0 0 0 -394.13147176932034 258.5839160888562 0 258.5839160888562 -147.53326418138204 0 0 0 0 -514.31432570219476 273.83117716598235 0 273.83117716598235 -43.564964441928112 0 0 0 0 -564.89135036948028 404.19611142799243 0 404.19611142799243 -140.00716039891995 0 0 0 0 -444.91287838632707 396.91999967193669 0 396.91999967193669 -140.6150544750526 0 0 0 0 -401.39574615689344 368.91822058564026 0 368.91822058564026 -281.67564865554823 0 0 0 0 -422.11190457295379 404.78581312718029 0 404.78581312718029 -224.22637723905746 0 0 0 0 -356.45715667783224 264.7233520041159 0 264.7233520041159 -204.95786742738824 0 0 0 0 -428.33023588660581 358.15026941750011 0 358.15026941750011 -208.08543669442042 0 0 0 0 -287.17155053162787 283.81593381647701 0 283.81593381647701 -259.39962796126929 0 0 0 0 -327.89233319492268 374.38574111925703 0 374.38574111925703 -440.30072232570274 0 0 0 0 -463.08470253010455 493.84686217930903 0 493.84686217930903 -297.5805030587569 0 0 0 0 -510.52878838952165 263.63663365854393 0 263.63663365854393 -246.78059720222569 0 0 0 0 -262.55546843738011 342.29885889179445 0 342.29885889179445 -239.97889267790288 0 0 0 0 -50.865375621149724 238.0149019071757 0 238.0149019071757 -288.08209757490278 0 0 0 0 -404.11639773327261 327.80674495888593 0 327.80674495888593 -160.13509230407917 0 0 0 0 -352.49265206035489 429.07398917715489 0 429.07398917715489 -203.27856597337393 0 0 0 0 -417.57844388794365 416.20729632282746 0 416.20729632282746 -204.77843127401684 0 0 0 0 -486.99295273904136 79.711733576122981 0 79.711733576122981 -23.535897324570968 0 0 0 0 -397.16249023512137 100.97707730629952 0 100.97707730629952 -340.89410041895076 0 0 0 0 -4.4596481099697485 -0.14789892901308388 0 -0.14789892901308388 -0.030555193051917368 0 0 0 0 -438.84561665590809 207.58452748874399 0 207.58452748874399 220.06084892956545 0 0 0 0 -2.2378602744574891 -123.96289113576586 0 -123.96289113576586 -368.66305952216118 0 0 0 0 -553.09083582332823 -99.227109120838449 0 -99.227109120838449 195.17490935954891 0 0 0 0 14.04840890291598 156.57021756131149 0 156.57021756131149 191.58678577024415 0 0 0 0 -1.4593904731076606 -4.1003890240777565 0 -4.1003890240777565 2.3658400749354378 0 0 0 0 -36.927062686287442 0.007371727515526949 0 0.007371727515526949 2.3270229382394567 0 0 0 0 -152.33352689827007 -24.602548838278267 0 -24.602548838278267 20.73538968199864 0 0 0 0 -155.94514897868794 -49.768464097800774 0 -49.768464097800774 261.48641222507928 0 0 0 0 -5.5608481714344293 2.4073092569793211 0 2.4073092569793211 1.858583404924506 0 0 0 0 -207.20776488284901 491.68298508637486 0 491.68298508637486 -25.049735662654797 0 0 0 0 -111.95879842338763 73.516218425255943 0 73.516218425255943 16.369799763038259 0 0 0 0 -261.18748571251308 216.60047402485981 0 216.60047402485981 -93.186092082686173 0 0 0 0 -32.263008431044341 30.382788398423802 0 30.382788398423802 115.07848531579884 0 0 0 0 -26.883785557529393 0.3167842606282445 0 0.3167842606282445 0.55348488504328341 0 0 0 0 -31.855271926590149 32.651359291517586 0 32.651359291517586 7.6313794113034419 0 0 0 0 6.6477904701750958 120.89300393656868 0 120.89300393656868 -27.327857419925522 0 0 0 0 -37.984051096591429 5.7736787633012341 0 5.7736787633012341 -0.93298669753636432 0 0 0 0 -26.481428036084097 6.7500826315000069 0 6.7500826315000069 3.1097710176764322 0 0 0 0 -36.544758916734281 11.720079988829468 0 11.720079988829468 12.96985194182048 0 0 0 0 -43.476020830014022 19.325874716359294 0 19.325874716359294 33.019141076279794 0 0 0 0 -25.756455590104451 24.418872350673041 0 24.418872350673041 -14.79525393422341 0 0 0 0 -23.455887014093605 11.25636904444093 0 11.25636904444093 -19.332474121494712 0 0 0 0 -32.28576131099544 3.319479864977211 0 3.319479864977211 -2.3683847840865724 0 0 0 0 -24.626441205684387 9.9702542058508641 0 9.9702542058508641 -12.187386232858955 0 0 0 0 -24.912931790328003 -4.5895115905760946 0 -4.5895115905760946 -0.79272799914405589 0 0 0 0 -25.106067230885856 2.8535988437602526 0 2.8535988437602526 -24.975098148017196 0 0 0 0 -19.666299669690488 6.5693022008697426 0 6.5693022008697426 -12.504063589134319 0 0 0 0 -38.136949624145927 -16.708872380634261 0 -16.708872380634261 37.525984991054827 0 0 0 0 18.072972628557181 25.800509894800996 0 25.800509894800996 -99.539431351881547 0 0 0 0 -28.840408163061511 -103.79141759689972 0 -103.79141759689972 89.176266433937087 0 0 0 0 31.072143876324844 -14.952748841905461 0 -14.952748841905461 -142.21017591453204 0 0 0 0 23.185041168662792 -12.844068997009643 0 -12.844068997009643 -33.945868504659927 0 0 0 0 -23.256274659143465 -4.179196948134507 0 -4.179196948134507 -0.72007934366170068 0 0 0 0 -25.562384610362642 -11.107182681074107 0 -11.107182681074107 20.498316824055109 0 0 0 0 -102.21422669786261 -18.39721159400591 0 -18.39721159400591 115.71258606285485 0 0 0 0 -20.655556555706127 -3.8747507172199276 0 -3.8747507172199276 -0.59961166455683834 0 0 0 0 -541.50164125108131 -519.30694598235129 0 -519.30694598235129 -346.21390224757147 0 0 0 0 -9.532969620034379 -1.6087433639852176 0 -1.6087433639852176 -0.56686324216941508 0 0 0 0 -1408.2464900221421 495.14104668586941 0 495.14104668586941 -91.035903488508893 0 0 0 0 -504.35174552551325 498.01172636369512 0 498.01172636369512 -229.09859018610953 0 0 0 0 -1502.4288000402375 307.59156951496658 0 307.59156951496658 36.058039284915139 0 0 0 0 -771.44610343659588 279.94892704368857 0 279.94892704368857 -4.5175958371235652 0 0 0 0 64.298659181438779 -47.399237610347015 0 -47.399237610347015 -269.03697675519572 0 0 0 0 -726.3919350618271 75.120472666875258 0 75.120472666875258 -111.66755840125265 0 0 0 0 14.203446669809637 -26.208897156739454 0 -26.208897156739454 -190.69594815052818 0 0 0 0 -1375.7519810112644 63.498068533709272 0 63.498068533709272 167.38893116105606 0 0 0 0 -1594.9900596971493 286.10791371801031 0 286.10791371801031 169.14471172995735 0 0 0 0 -856.47844434353465 -308.39533501219944 0 -308.39533501219944 245.76717437274488 0 0 0 0 -663.08179703491078 776.86691760475412 0 776.86691760475412 -834.55572936620445 0 0 0 0 -10.880448067780165 0.88281095662057929 0 0.88281095662057929 0.067825372806815665 0 0 0 0 -3.455626425254124 1.2227572651798724 0 1.2227572651798724 -1.1311981930686896 0 0 0 0 -557.55803001194727 12.842835128316096 0 12.842835128316096 -518.79160869036366 0 0 0 0 -772.56402731947674 -12.089464530434725 0 -12.089464530434725 -427.17146547701782 0 0 0 0 -1376.6866657929277 342.98686510464279 0 342.98686510464279 -511.14624257827427 0 0 0 0 -776.52370918298402 -46.672764015967005 0 -46.672764015967005 -701.05056998238786 0 0 0 0 -1710.3291402809045 -107.75227503062709 0 -107.75227503062709 66.590811637990512 0 0 0 0 -857.29460380104865 -172.94493989674893 0 -172.94493989674893 -8.2507321755260818 0 0 0 0 -1499.6143318059258 -495.90832286459158 0 -495.90832286459158 10.298552212893101 0 0 0 0 -1499.5631588341785 -18.724271097931954 0 -18.724271097931954 -94.815346573000213 0 0 0 0 -895.78062228103499 118.89356621521992 0 118.89356621521992 -303.25684117910117 0 0 0 0 -3.2952925690327639 1.4060328133035824 0 1.4060328133035824 -1.0026853568304315 0 0 0 0 -1043.3952347287959 -432.59827605329912 0 -432.59827605329912 -9.6508969029660836 0 0 0 0 -2091.6723107513353 -80.446145625758746 0 -80.446145625758746 213.76375141789146 0 0 0 0 -1480.0269843085352 73.590223523481583 0 73.590223523481583 38.837632747984003 0 0 0 0 -1552.4205599179513 227.95291339968119 0 227.95291339968119 144.14727372152538 0 0 0 0 -1892.0762863243217 287.13017892951586 0 287.13017892951586 -4.2768578108153292 0 0 0 0 -1917.0290820968075 -161.80348240543697 0 -161.80348240543697 -385.82179970427086 0 0 0 0 -1580.8737166585488 -4.0308423400430797 0 -4.0308423400430797 -861.89699738115723 0 0 0 0 -1278.3443254118429 144.7943061320515 0 144.7943061320515 -285.45760872331118 0 0 0 0 -1325.525102193882 241.3841857355761 0 241.3841857355761 -298.68551311141459 0 0 0 0 -1404.9170919003518 174.40188291340135 0 174.40188291340135 -247.20047750300279 0 0 0 0 -1465.7168800284016 264.30455084017376 0 264.30455084017376 -254.87103951204378 0 0 0 0 -1499.4563218358871 196.15711114197245 0 196.15711114197245 -244.49163243867662 0 0 0 0 -1728.4613862610204 397.26578158082356 0 397.26578158082356 -299.85834730139248 0 0 0 0 -1254.2872368190874 182.14870912118246 0 182.14870912118246 -210.8689744701465 0 0 0 0 -1134.2940795780596 265.81886713943641 0 265.81886713943641 63.259642860192194 0 0 0 0 -1520.6409072171064 288.86626292703033 0 288.86626292703033 67.295680175914896 0 0 0 0 -121.85018582277735 -193.38448237740886 0 -193.38448237740886 -344.80101856262814 0 0 0 0 49.355952466131384 96.221850980688487 0 96.221850980688487 -228.80054384911068 0 0 0 0 -1735.1588460066814 -149.00800542373895 0 -149.00800542373895 -41.421622173072876 0 0 0 0 -1309.1912927007229 -299.72668140422564 0 -299.72668140422564 -21.434307251439691 0 0 0 0 -522.84800344094037 -44.174002897655647 0 -44.174002897655647 -135.41122795918483 0 0 0 0 -466.82962633447278 -192.90579374003497 0 -192.90579374003497 -148.88455543412266 0 0 0 0 -207.85776146728131 -24.302142745102756 0 -24.302142745102756 -167.51521010822074 0 0 0 0 -962.30441439316201 30.986563844145721 0 30.986563844145721 -1.4701782204366793 0 0 0 0 -745.99394278741966 18.195769809882464 0 18.195769809882464 -1.7925731419582034 0 0 0 0 -290.28057013728539 160.11413770282701 0 160.11413770282701 -62.594687092209398 0 0 0 0 -144.01805859374963 -147.59122836586374 0 -147.59122836586374 -171.51277516774402 0 0 0 0 -1501.1090190554205 367.18414460287244 0 367.18414460287244 203.23982587166694 0 0 0 0 -667.59126661168557 286.229986025198 0 286.229986025198 -12.272117563474078 0 0 0 0 -1053.6200593761901 301.77715951188009 0 301.77715951188009 -12.245804173851752 0 0 0 0 -1061.088184726812 518.65058898460643 0 518.65058898460643 161.39365604303998 0 0 0 0 -1495.8063470273119 575.58372426472988 0 575.58372426472988 154.0953202618677 0 0 0 0 -12.72533246696527 0.20869804409290804 0 0.20869804409290804 -0.88033493839755017 0 0 0 0 -732.43249464399923 -901.64731578983003 0 -901.64731578983003 -797.69290133434993 0 0 0 0 -316.70559372348362 799.36451259537716 0 799.36451259537716 -354.30567570242386 0 0 0 0 -322.35344532258165 -123.3266531828319 0 -123.3266531828319 70.013253308991239 0 0 0 0 -131.55405114948724 -171.42959866517262 0 -171.42959866517262 176.74181266712733 0 0 0 0 -29.541701937350986 0.83888982698730219 0 0.83888982698730219 0.66871478002214313 0 0 0 0 -135.31559021505745 147.59076429544137 0 147.59076429544137 381.25323845243747 0 0 0 0 -272.76272125801461 -148.09889256373526 0 -148.09889256373526 102.48485632001623 0 0 0 0 -38.837433350505307 17.877504826770434 0 17.877504826770434 -38.278774233780105 0 0 0 0 -165.18377871740086 -177.26994919700067 0 -177.26994919700067 -68.462540706580853 0 0 0 0 -884.49119999698814 -357.49909541981447 0 -357.49909541981447 41.446105967133548 0 0 0 0 -726.42761274355325 -378.09691797406839 0 -378.09691797406839 13.545119840727295 0 0 0 0 -1500.2359971015658 -407.52446439176174 0 -407.52446439176174 249.91564644301513 0 0 0 0 -872.60513833648474 -468.58237371670731 0 -468.58237371670731 80.590273441498852 0 0 0 0 -1497.2667452606961 -739.12625625754015 0 -739.12625625754015 -36.564609966738878 0 0 0 0 -121.10599038445798 -235.30717679076875 0 -235.30717679076875 -295.93834999273781 0 0 0 0 -47.783540432379141 16.182199047361749 0 16.182199047361749 237.85769151017081 0 0 0 0 -35.232856773101844 0.69681275101181228 0 0.69681275101181228 0.93911517715698201 0 0 0 0 -59.88580184971579 32.286128362419305 0 32.286128362419305 320.08603765298494 0 0 0 0 -33.229691030186082 0.62896613686879133 0 0.62896613686879133 1.0244677914575537 0 0 0 0 -14.442241558153455 -13.147446784625057 0 -13.147446784625057 103.3798167685776 0 0 0 0 -59.145623266748771 -65.650926554945954 0 -65.650926554945954 71.491946908301912 0 0 0 0 -106.73480000761401 -7.7165308882992747 0 -7.7165308882992747 236.41789748117779 0 0 0 0 -9.5635007028577093 -9.9312721174609777 0 -9.9312721174609777 21.874399985183061 0 0 0 0 16.119682142153579 -41.971486107438963 0 -41.971486107438963 85.13059222843944 0 0 0 0 -34.732903537138824 0.79441812075875351 0 0.79441812075875351 1.0625453662543345 0 0 0 0 -115.45029296483699 -4.4524216120348683 0 -4.4524216120348683 404.21590057189741 0 0 0 0 10.410948280836237 -66.826788014646695 0 -66.826788014646695 -24.570409569245889 0 0 0 0 -60.97762354945371 -108.27546019389949 0 -108.27546019389949 86.297186662757355 0 0 0 0 32.575339172186432 -78.393546810355758 0 -78.393546810355758 -66.765090823489601 0 0 0 0 -36.220046033515246 -6.2791987886527636 0 -6.2791987886527636 192.60886110473683 0 0 0 0 -57.078063532555461 79.280083126304703 0 79.280083126304703 199.75039678751955 0 0 0 0 18.199421926289688 -27.19687448037898 0 -27.19687448037898 15.723360292875384 0 0 0 0 10.717423414756922 -20.060573553893505 0 -20.060573553893505 11.714299663377261 0 0 0 0 3.0086151839750528 -115.90407025062436 0 -115.90407025062436 -63.382811454654671 0 0 0 0 -13.346010625993586 -100.62367370548851 0 -100.62367370548851 -76.508011956474888 0 0 0 0 -2.3200684925641326 -120.84256367482018 0 -120.84256367482018 -93.472213740567156 0 0 0 0 -3.938302363013463 -110.75545798703163 0 -110.75545798703163 -70.567764634983462 0 0 0 0 9.0402389086339099 -105.66743019836852 0 -105.66743019836852 -119.99637674257724 0 0 0 0 -4.6115254259784706 -82.734104450042366 0 -82.734104450042366 -129.61378853241069 0 0 0 0 -4.9060066083083029 -73.609774619484128 0 -73.609774619484128 -69.099275916817305 0 0 0 0 -51.003267493073508 -105.26592294520319 0 -105.26592294520319 -89.619037978790203 0 0 0 0 -121.47519342537089 -83.714769223761309 0 -83.714769223761309 -26.049384978031565 0 0 0 0 -27.175586156223289 -63.24440893443105 0 -63.24440893443105 -147.13341574264467 0 0 0 0 7.6696437926784711 -127.84728571893629 0 -127.84728571893629 -170.84247047519716 0 0 0 0 -30.161530837498503 -14.756645650756667 0 -14.756645650756667 -90.681068286589607 0 0 0 0 -6.6260478987605893 1.0419547312399686 0 1.0419547312399686 -228.00838212272131 0 0 0 0 -75.534780886877343 -137.98597125964056 0 -137.98597125964056 -241.20810754733668 0 0 0 0 14.45740240242958 -60.945768455685482 0 -60.945768455685482 -172.8020924425538 0 0 0 0 -42.360188605354779 -65.344297124432131 0 -65.344297124432131 -69.079294292440068 0 0 0 0 16.191245715239347 -49.413487267247717 0 -49.413487267247717 -96.662200438199363 0 0 0 0 -19.438107923357165 -46.047256285684057 0 -46.047256285684057 -52.85397326869213 0 0 0 0 -14.849416251958246 -24.605810682363256 0 -24.605810682363256 -58.398575711941362 0 0 0 0 -33.998828494078225 -11.928848606423117 0 -11.928848606423117 -7.0064716255499206 0 0 0 0 -45.426205467547106 -40.226680375442925 0 -40.226680375442925 -20.744188825052447 0 0 0 0 -67.014142751988402 -35.093348275350309 0 -35.093348275350309 -19.205701659505621 0 0 0 0 -67.012304672214583 -0.62414158928583008 0 -0.62414158928583008 0.54294810183341724 0 0 0 0 -59.890365899849712 -4.0988363820159748 0 -4.0988363820159748 1.9263041557478289 0 0 0 0 -44.725815587727993 -0.59111352022989649 0 -0.59111352022989649 2.5063590851000299 0 0 0 0 -52.517215739899257 6.4928004776835451 0 6.4928004776835451 4.3950312867610819 0 0 0 0 -77.920243695854879 7.6633209985208168 0 7.6633209985208168 0.64968236436016014 0 0 0 0 -52.418918430452322 9.6983168535537061 0 9.6983168535537061 -0.38020465989529839 0 0 0 0 -60.503009324389495 3.1067634641879636 0 3.1067634641879636 1.8578661313399607 0 0 0 0 -145.57955068011506 -5.8890691244532718 0 -5.8890691244532718 11.390864868407789 0 0 0 0 -139.08561480390927 9.1340601942933972 0 9.1340601942933972 24.923734071604713 0 0 0 0 -51.65723396131358 31.335807741074529 0 31.335807741074529 -5.5839034030709627 0 0 0 0 -77.706360925203626 30.662660429563289 0 30.662660429563289 1.903501099778623 0 0 0 0 -74.01018288418345 28.515344965355212 0 28.515344965355212 2.9744892479229179 0 0 0 0 -54.217500553186255 29.415905774878667 0 29.415905774878667 -1.8998563857717272 0 0 0 0 -82.681510501767661 31.814657593744684 0 31.814657593744684 2.7925436035304756 0 0 0 0 -64.228472770304506 1.0037290460278427 0 1.0037290460278427 1.025823993468066 0 0 0 0 -109.67243419298029 -10.755470927290162 0 -10.755470927290162 -0.88488606288637328 0 0 0 0 -43.952921673992932 14.346178344324528 0 14.346178344324528 -7.8717981456587722 0 0 0 0 0.26146641065223974 0.049321088337837438 0 0.049321088337837438 -0.61181420405395026 0 0 0 0 -306.58582319578272 29.017871215540339 0 29.017871215540339 23.078846161235187 0 0 0 0 -122.36026242812659 58.665157063095037 0 58.665157063095037 6.5255757430124675 0 0 0 0 -138.47211991617223 -84.576140177663575 0 -84.576140177663575 -14.405307697422529 0 0 0 0 -341.24780954906237 -178.76631536087802 0 -178.76631536087802 -56.687588815564261 0 0 0 0 -26.085491082034423 -142.31266139374253 0 -142.31266139374253 -115.39514314672759 0 0 0 0 -152.99946061377705 -135.60377675902862 0 -135.60377675902862 -60.381854849242416 0 0 0 0 -48.841073480647992 -93.364575140655518 0 -93.364575140655518 -43.340386859639466 0 0 0 0 -117.05164341626732 -74.647668179609155 0 -74.647668179609155 -36.790756173239686 0 0 0 0 -216.45837727802882 -56.339850594427688 0 -56.339850594427688 -0.39956224278796526 0 0 0 0 -96.605588784712381 -21.726489266867617 0 -21.726489266867617 8.219248036108695 0 0 0 0 -35.261417938665545 -26.263098091109725 0 -26.263098091109725 -27.624344655362506 0 0 0 0 -52.170125899780032 -44.468890394628431 0 -44.468890394628431 -92.309501493723474 0 0 0 0 -49.966673968763644 -27.885405340813577 0 -27.885405340813577 -27.197874975493335 0 0 0 0 -40.504940241213262 -38.700865594069228 0 -38.700865594069228 11.124587717711734 0 0 0 0 -39.159169246289821 -30.939596321775412 0 -30.939596321775412 -10.299196148618648 0 0 0 0 -39.597154343913644 -14.511162503503215 0 -14.511162503503215 -2.6778050398797859 0 0 0 0 -30.073540367109672 -24.635897017349407 0 -24.635897017349407 -31.818403578503819 0 0 0 0 -28.729748122608726 -20.221531888993297 0 -20.221531888993297 -18.206271564151166 0 0 0 0 -39.160931907948907 -12.41022445571457 0 -12.41022445571457 -0.604282346481682 0 0 0 0 -24.94580777914598 -10.720759842633129 0 -10.720759842633129 -35.600817504096085 0 0 0 0 -40.396342318606912 -28.519756991097324 0 -28.519756991097324 -24.083946019078212 0 0 0 0 -86.261841787789308 -25.146584717413134 0 -25.146584717413134 -20.900710152698593 0 0 0 0 17.263460410287735 -39.392952572274339 0 -39.392952572274339 -46.953005943867538 0 0 0 0 -61.364067752685514 -43.290073563083979 0 -43.290073563083979 -19.489544697633391 0 0 0 0 -128.66311331488396 -70.22739811854899 0 -70.22739811854899 -7.1440801128819658 0 0 0 0 -47.696911578814252 -18.3761429898844 0 -18.3761429898844 -9.0866033003844677 0 0 0 0 -43.254668577972552 -14.835132182766358 0 -14.835132182766358 -6.2719971935539434 0 0 0 0 -24.412364712992712 -7.8569589620235547 0 -7.8569589620235547 -17.591783012072682 0 0 0 0 0.075338388580522775 0.084643006291251766 0 0.084643006291251766 -0.41708594092910634 0 0 0 0 -23.923178512279264 5.8482185429227229 0 5.8482185429227229 -1.2650640116235365 0 0 0 0 -8.9738762131619296 9.645402521944419 0 9.645402521944419 -13.712814404352116 0 0 0 0 -15.636476168076115 8.2483588440132891 0 8.2483588440132891 -3.3416587116335918 0 0 0 0 -4.907097698477628 1.3504157359536464 0 1.3504157359536464 -5.640325851139437 0 0 0 0 -15.531013522671856 8.8553030811888007 0 8.8553030811888007 -2.2694619619315048 0 0 0 0 -23.869323459512088 8.3545456929014108 0 8.3545456929014108 -2.2644850104288992 0 0 0 0 -24.270767845413502 11.777624913151286 0 11.777624913151286 -20.219245873174827 0 0 0 0 -31.841200216656944 -9.9979173345341081 0 -9.9979173345341081 -24.204757070745018 0 0 0 0 -28.689251142002831 -11.471210548143574 0 -11.471210548143574 -24.280704024658235 0 0 0 0 -29.007509112922889 -17.005331244782269 0 -17.005331244782269 -65.619211267703349 0 0 0 0 -33.991453163154802 9.3944831004667009 0 9.3944831004667009 -8.7206343681004341 0 0 0 0 -29.796816188444609 10.869969532864758 0 10.869969532864758 -41.593947491955646 0 0 0 0 -70.211360536861321 -1.1694907436096287 0 -1.1694907436096287 -9.7304474026056482 0 0 0 0 -49.796336556217284 -2.6988038139943455 0 -2.6988038139943455 -35.441061032654744 0 0 0 0 -59.319887463891973 20.275413740781516 0 20.275413740781516 -87.458228197022436 0 0 0 0 -27.82812374385594 -3.0204253347852301 0 -3.0204253347852301 8.9273504031664856 0 0 0 0 -26.532260380645312 4.7077791461927632 0 4.7077791461927632 -0.85389548632241485 0 0 0 0 -0.16201421665566684 0.28039789115503311 0 0.28039789115503311 0.49613379781375633 0 0 0 0 15.127046439939932 21.753767962441156 0 21.753767962441156 11.525166848006862 0 0 0 0 -5.299240714399275 2.3420676898763872 0 2.3420676898763872 -12.330334879541539 0 0 0 0 -58.823640397398776 -28.556664549742194 0 -28.556664549742194 21.915646658838043 0 0 0 0 -35.222071772259369 26.555997475714729 0 26.555997475714729 17.211267991971795 0 0 0 0 -27.955132370625506 19.048787067688451 0 19.048787067688451 -7.8106667074964893 0 0 0 0 -38.617036877210921 9.769880256144944 0 9.769880256144944 31.964718337288588 0 0 0 0 -38.872551543278405 12.184533808168554 0 12.184533808168554 13.047649626083285 0 0 0 0 -32.936718673834548 -3.4346970931148064 0 -3.4346970931148064 22.193059423544582 0 0 0 0 -32.408114677924459 5.1264100541937125 0 5.1264100541937125 11.737942873675536 0 0 0 0 -32.854546223323268 7.0400061583082731 0 7.0400061583082731 12.31686250224692 0 0 0 0 -35.707378876104485 2.9887671566106064 0 2.9887671566106064 15.134544697143383 0 0 0 0 -35.999984882299032 3.4818153984107489 0 3.4818153984107489 14.824062797202128 0 0 0 0 -33.408980293266723 4.8295056429829586 0 4.8295056429829586 9.0262666443589126 0 0 0 0 -38.421606355979748 7.4330097973587996 0 7.4330097973587996 16.193135154793264 0 0 0 0 -29.272291328803476 10.59203444730084 0 10.59203444730084 7.041845178087982 0 0 0 0 -29.320409989643167 10.127134148243037 0 10.127134148243037 3.7758136108088252 0 0 0 0 -21.699064540280233 4.9843072987944339 0 4.9843072987944339 6.6746220158256619 0 0 0 0 -14.584954662699602 6.5067491330036153 0 6.5067491330036153 0.326997257494412 0 0 0 0 -17.356786772223131 0.87115089131473056 0 0.87115089131473056 5.4052038281400883 0 0 0 0 -20.070809030163218 0.37257303503395178 0 0.37257303503395178 5.3139443119187604 0 0 0 0 -21.628398040491447 -1.9346649344380467 0 -1.9346649344380467 11.892687391772597 0 0 0 0 -36.953339477586269 -3.5113554108846756 0 -3.5113554108846756 14.665087232352789 0 0 0 0 -9.6790154964146495 -6.7792364898964195 0 -6.7792364898964195 6.5116028799704964 0 0 0 0 -7.4396192400499785 2.9079915330675874 0 2.9079915330675874 1.0889740142298479 0 0 0 0 -44.098922529839911 -7.496425798189307 0 -7.496425798189307 19.327072257467975 0 0 0 0 5.522280570861767 -20.158547931309158 0 -20.158547931309158 6.2970193069475044 0 0 0 0 8.9914947880874934 -3.7666146300409231 0 -3.7666146300409231 0.76873275335879043 0 0 0 0 -23.372215110997786 -9.8170282323020501 0 -9.8170282323020501 14.129601274634354 0 0 0 0 -9.9625327752728481 -6.7193476698339509 0 -6.7193476698339509 6.5650930430205676 0 0 0 0 -25.151886109495535 -14.643570011722261 0 -14.643570011722261 16.370943293311029 0 0 0 0 -24.82194557608841 -6.6659999324509158 0 -6.6659999324509158 15.067112177101762 0 0 0 0 -46.256032942517777 -7.638678045104939 0 -7.638678045104939 20.831229461250558 0 0 0 0 -31.478950201933912 -14.873921923973626 0 -14.873921923973626 23.426824668905738 0 0 0 0 -47.474473669521103 -3.2742328593092225 0 -3.2742328593092225 19.028210425739189 0 0 0 0 -12.427093022459303 -24.752270901027543 0 -24.752270901027543 22.484985576326835 0 0 0 0 -538.65938929495314 382.23185336491025 0 382.23185336491025 592.03347264588365 0 0 0 0 -14.472951820526518 7.5634472010585281 0 7.5634472010585281 -1.6708165434983597 0 0 0 0 -1051.1579992581646 710.41563019481919 0 710.41563019481919 -776.9347407446337 0 0 0 0 -12.693524426942531 -266.98416151193737 0 -266.98416151193737 110.32461219179959 0 0 0 0 -1.9389740246495037 0.35129382750186444 0 0.35129382750186444 0.36988335685365326 0 0 0 0 -59.665394102783466 2.364963740442704 0 2.364963740442704 15.768649625299588 0 0 0 0 -70.515195146916085 13.223924561049216 0 13.223924561049216 12.266665684644067 0 0 0 0 199.72656451062039 -246.20497765675862 0 -246.20497765675862 -241.4055317784825 0 0 0 0 -41.504934071721436 43.100596612188895 0 43.100596612188895 -40.528907371643868 0 0 0 0 -60.147127129879664 147.7677343008645 0 147.7677343008645 -212.97382794805344 0 0 0 0 -75.457539559716679 32.267836326856866 0 32.267836326856866 0.21448116935061989 0 0 0 0 -45.289380609225191 13.681644429702033 0 13.681644429702033 4.4987407112352571 0 0 0 0 -59.162668542339816 6.9003326680731902 0 6.9003326680731902 15.223979981018601 0 0 0 0 -46.721359351053252 -1.0497445466538693 0 -1.0497445466538693 15.938568627128149 0 0 0 0 -45.667885042443231 2.5885672394869061 0 2.5885672394869061 17.375164197669847 0 0 0 0 -39.828387546365775 1.9174915559620729 0 1.9174915559620729 15.008484932703936 0 0 0 0 -40.844588110150653 12.863357326224794 0 12.863357326224794 8.232304698027292 0 0 0 0 -17.733616540661387 18.445291932919531 0 18.445291932919531 -19.44334569328737 0 0 0 0 -14.344767545526793 2.3594690613531739 0 2.3594690613531739 -3.038827479191923 0 0 0 0 -48.921409668737397 14.47305805299888 0 14.47305805299888 9.2039480413391743 0 0 0 0 -32.238131230100407 -8.2224982059478862 0 -8.2224982059478862 18.310092159125816 0 0 0 0 -1.510730367532986 -0.98994512651942124 0 -0.98994512651942124 -0.49931693638202501 0 0 0 0 -32.873767913151823 -12.235540389387324 0 -12.235540389387324 8.2145631969738133 0 0 0 0 -14.511715666507371 2.1817406333235567 0 2.1817406333235567 -3.2174118198859674 0 0 0 0 -12.863694495776144 -11.00584565775921 0 -11.00584565775921 -10.52272270681982 0 0 0 0 -5.1082580918373424 -3.8866775248678209 0 -3.8866775248678209 -7.8721695269498468 0 0 0 0 -2.3486692450985007 -1.4498374680826096 0 -1.4498374680826096 -0.33798149468227523 0 0 0 0 -4.918048420797362 -2.3523484363235134 0 -2.3523484363235134 -0.39587071975367361 0 0 0 0 -23.855829355929018 -15.181293908471616 0 -15.181293908471616 -5.1997339373024261 0 0 0 0 -14.909368238950265 2.0322527831504544 0 2.0322527831504544 -2.9165866797616218 0 0 0 0 -2.7450360143788597 -0.32453257286033121 0 -0.32453257286033121 1.1017362860235749 0 0 0 0 -14.740567700642714 2.2266907112287981 0 2.2266907112287981 -2.7079132600571825 0 0 0 0 -29.880530637043194 -142.19728191578676 0 -142.19728191578676 -284.61679875582087 0 0 0 0 -180.88943115168513 -44.407481736947176 0 -44.407481736947176 -58.468285242576862 0 0 0 0 173.56751260977398 21.240421776505514 0 21.240421776505514 -99.487819021878522 0 0 0 0 37.223368302406925 -100.93622281568854 0 -100.93622281568854 -187.691145930164 0 0 0 0 -124.34337358297125 -144.72085054269746 0 -144.72085054269746 -101.98608788598362 0 0 0 0 -122.27547557966352 -163.73434173170477 0 -163.73434173170477 -252.06823726435238 0 0 0 0 -746.04336090359357 -118.43032748788499 0 -118.43032748788499 -182.0669292215554 0 0 0 0 -31.790372523464612 43.602329744742462 0 43.602329744742462 -67.146379234411839 0 0 0 0 -2.653196939217267 0.86645817859248098 0 0.86645817859248098 -0.024937291959538796 0 0 0 0 -0.85380604846045571 0.70675186189030725 0 0.70675186189030725 0.11299330091196891 0 0 0 0 -8.7673171266687859 5.9500555237172552 0 5.9500555237172552 -2.0659195479433059 0 0 0 0 -8.8984037446762159 6.0373606270407834 0 6.0373606270407834 -0.39807132054176009 0 0 0 0 0.31699652225415775 7.2711948952990966 0 7.2711948952990966 1.1556372353939253 0 0 0 0 -7.4929637176076085 8.2420206980718405 0 8.2420206980718405 1.2319798591950928 0 0 0 0 -11.900055967414563 4.3396567235955974 0 4.3396567235955974 0.093371293054720583 0 0 0 0 -7.1173517823881411 2.9768546803296658 0 2.9768546803296658 1.0722698488336846 0 0 0 0 -633.07024439988163 -359.98332173500711 0 -359.98332173500711 -267.45083436744613 0 0 0 0 -691.55720788005419 -347.82688908047112 0 -347.82688908047112 -254.21286195194293 0 0 0 0 -604.19664849698893 -474.1233060971478 0 -474.1233060971478 -228.78719113043556 0 0 0 0 -1.6594669823729227 -0.14597187084466512 0 -0.14597187084466512 -0.68417616629829059 0 0 0 0 -196.07755307560365 -336.06228714076599 0 -336.06228714076599 -651.7793405599939 0 0 0 0 -172.15615915136368 171.08033872170768 0 171.08033872170768 -219.14279771625661 0 0 0 0 -299.79934240189391 -485.09900256762876 0 -485.09900256762876 -344.65993478801624 0 0 0 0 -11.374212443802531 -0.62409098822595155 0 -0.62409098822595155 0.30534637066305836 0 0 0 0 -68.353853749376867 -595.41201141925069 0 -595.41201141925069 -523.41658933700262 0 0 0 0 -250.13320856959035 -359.89798590682767 0 -359.89798590682767 -447.26599552628886 0 0 0 0 -449.86371712119944 215.42046444055848 0 215.42046444055848 404.49724942644121 0 0 0 0 764.58081620355915 -1588.747725741347 0 -1588.747725741347 453.5013585511133 0 0 0 0 -353.19976102403234 -222.03325530359155 0 -222.03325530359155 -177.03866016846894 0 0 0 0 -639.50702014776289 80.149081412104863 0 80.149081412104863 139.3495670169516 0 0 0 0 -44.166815723530817 328.22016857240851 0 328.22016857240851 79.849232660148232 0 0 0 0 110.74285951848492 28.676242352308449 0 28.676242352308449 42.108397491071059 0 0 0 0 -52.742007540105988 -61.312578627750611 0 -61.312578627750611 267.85531154853675 0 0 0 0 -27.180283891475256 -0.12015954207637713 0 -0.12015954207637713 1.1503748700620267 0 0 0 0 -360.76628317016002 -18.75122979357684 0 -18.75122979357684 290.57367809264679 0 0 0 0 -49.5764200327867 77.168162369304298 0 77.168162369304298 409.79257086626819 0 0 0 0 -11.073221818602178 -20.886878825354813 0 -20.886878825354813 181.9189129151186 0 0 0 0 -116.19469339279749 -39.137007618583766 0 -39.137007618583766 179.25782006453142 0 0 0 0 10.715754347585971 32.712061962564405 0 32.712061962564405 97.069264543460804 0 0 0 0 -70.892431153642974 17.222780843152719 0 17.222780843152719 39.779439406800577 0 0 0 0 -287.59902120600509 -27.476682154584068 0 -27.476682154584068 30.755821166425449 0 0 0 0 -210.25004847168293 104.36609034539583 0 104.36609034539583 30.527166292146134 0 0 0 0 -138.03758134215968 85.851406526589699 0 85.851406526589699 35.013213096239326 0 0 0 0 -135.41004702948521 2.1739965161728492 0 2.1739965161728492 93.218588597069214 0 0 0 0 -52.489915103194562 109.25521365051134 0 109.25521365051134 31.532926992805869 0 0 0 0 -151.54945973155009 148.3153200173544 0 148.3153200173544 85.283926604701406 0 0 0 0 -194.41932687151893 109.24200560464715 0 109.24200560464715 69.336270858632133 0 0 0 0 -212.01842503381886 129.88230881222131 0 129.88230881222131 84.908481752268614 0 0 0 0 -317.10580483746162 77.803001847506437 0 77.803001847506437 85.161583302579857 0 0 0 0 -176.22165808072577 102.87295620985189 0 102.87295620985189 18.349071917083791 0 0 0 0 -142.68362583588532 49.314899918185176 0 49.314899918185176 88.714171809701355 0 0 0 0 -114.10145129407192 85.162060829827197 0 85.162060829827197 22.049025369373986 0 0 0 0 -157.15755106014149 134.84765951420766 0 134.84765951420766 65.651229221295068 0 0 0 0 -139.00289074095008 135.72185125255493 0 135.72185125255493 -74.100703813017731 0 0 0 0 -114.58976177295699 68.739967734988099 0 68.739967734988099 -26.105758755705978 0 0 0 0 -25.944969196370948 21.512556768920987 0 21.512556768920987 -35.153537286925143 0 0 0 0 -94.713468854499297 62.5981968421452 0 62.5981968421452 -65.867108295885714 0 0 0 0 -86.929879755514776 69.100358520431953 0 69.100358520431953 -66.205325241472451 0 0 0 0 -18.679981384084339 -3.3325876112788015 0 -3.3325876112788015 -0.09918857476129736 0 0 0 0 -492.50897132272803 309.09680617228298 0 309.09680617228298 -253.49370929434153 0 0 0 0 -131.10472286263212 137.67273520394548 0 137.67273520394548 -173.30703931242965 0 0 0 0 -687.00320538808114 -137.67038517330093 0 -137.67038517330093 -48.836377010717229 0 0 0 0 -269.9412989421262 -134.80149554146951 0 -134.80149554146951 -55.369066183333416 0 0 0 0 -134.376619667868 -76.374328156580191 0 -76.374328156580191 -41.390518641009805 0 0 0 0 -163.665846522028 51.15515887418799 0 51.15515887418799 2.7426783931199452 0 0 0 0 -505.92135674705332 115.96128395451881 0 115.96128395451881 -8.5024727048462978 0 0 0 0 -16.419715583127982 -5.1288006500610663 0 -5.1288006500610663 -10.05567744336895 0 0 0 0 -15.75553216403474 2.2449865745393094 0 2.2449865745393094 3.1609682267783556 0 0 0 0 -35.381469292806287 17.752720337948176 0 17.752720337948176 68.37440800807326 0 0 0 0 -20.518150663688971 46.088196290627778 0 46.088196290627778 58.723826593956801 0 0 0 0 -13.295556851553556 66.310320583060388 0 66.310320583060388 84.583597402243413 0 0 0 0 -26.547676636966571 3.2969757066659895 0 3.2969757066659895 43.997081618810398 0 0 0 0 -3.8510130942553715 -2.1175295318550118 0 -2.1175295318550118 0.40619623570433161 0 0 0 0 -17.580403384218698 -6.067315687973462 0 -6.067315687973462 0.17218342035903333 0 0 0 0 -17.444065323721588 -6.1720056274518811 0 -6.1720056274518811 0.11199705864828502 0 0 0 0 -21.766021205743527 -0.57328522257694203 0 -0.57328522257694203 -7.0751466604010602 0 0 0 0 -29.868046092951772 2.6843799810312703 0 2.6843799810312703 46.754294191422446 0 0 0 0 -14.509296940493378 4.0684234624619471 0 4.0684234624619471 0.59797063346443258 0 0 0 0 -4.6008726284548978 1.4885797588637679 0 1.4885797588637679 1.3979349362735443 0 0 0 0 -1.4194927621247189 19.590384275049473 0 19.590384275049473 3.23101294032449 0 0 0 0 -27.82016722296612 -0.36706314100956661 0 -0.36706314100956661 13.54668547113215 0 0 0 0 -25.320376506591856 -2.4517397913250534 0 -2.4517397913250534 3.9836006728838811 0 0 0 0 -23.355093854101142 -11.957279512799687 0 -11.957279512799687 32.858194945912601 0 0 0 0 -26.358171839401621 -6.1914517591467302 0 -6.1914517591467302 25.053835766533439 0 0 0 0 -29.031553408166019 -15.280628271055093 0 -15.280628271055093 24.697971460387862 0 0 0 0 -17.157817549612446 -9.7517668134167934 0 -9.7517668134167934 4.0780588430270654 0 0 0 0 -16.855132192962628 -8.1118205828216787 0 -8.1118205828216787 5.515749398822777 0 0 0 0 -20.638554313099121 1.8232122926564216 0 1.8232122926564216 15.114027653741232 0 0 0 0 -22.979608063304113 1.9637901425368796 0 1.9637901425368796 28.218018257028959 0 0 0 0 -5.0833495033596705 0.07282721600044173 0 0.07282721600044173 1.3485316024457439 0 0 0 0 18.372752277278778 -30.485384495319522 0 -30.485384495319522 129.6664842046622 0 0 0 0 -28.151939773188133 -47.033445958127459 0 -47.033445958127459 -22.40745970647572 0 0 0 0 -23.878534602238233 -1.4127303394918584 0 -1.4127303394918584 26.703938789787571 0 0 0 0 -55.045553768833997 -58.279254282231591 0 -58.279254282231591 123.36519260572732 0 0 0 0 -34.477323005412472 32.188462791332768 0 32.188462791332768 -48.265762654176342 0 0 0 0 -251.94184641727543 -81.79802212427964 0 -81.79802212427964 93.676477180497159 0 0 0 0 -12.930660275297669 12.652521175512447 0 12.652521175512447 5.5123702944950992 0 0 0 0 -59.000499945082993 -29.732283965609355 0 -29.732283965609355 30.980208757764274 0 0 0 0 -149.30787890657803 22.939279393341209 0 22.939279393341209 15.227906598986124 0 0 0 0 0.30600111695767307 -0.25268682118487007 0 -0.25268682118487007 1.1401542047152442 0 0 0 0 -61.307568209642341 13.030011585569099 0 13.030011585569099 16.181214509681311 0 0 0 0 -38.559433647146761 14.999879191544188 0 14.999879191544188 -11.121634271222874 0 0 0 0 -4.3947187680575732 -0.7298478612441599 0 -0.7298478612441599 3.6833657772650295 0 0 0 0 -56.123771807177945 4.8095534279455165 0 4.8095534279455165 6.1429912264651279 0 0 0 0 -24.706059537316268 -2.1983248620008395 0 -2.1983248620008395 1.7398761856793379 0 0 0 0 -14.104375563466192 112.62445202970349 0 112.62445202970349 318.04403322929039 0 0 0 0 113.744857568344 154.40074434218172 0 154.40074434218172 83.482669138856181 0 0 0 0 -6.8333378992288036 9.6117286832337108 0 9.6117286832337108 0.6607261600863934 0 0 0 0 -62.862336932255857 24.614965005548584 0 24.614965005548584 -8.747916020710818 0 0 0 0 -39.044751080560673 17.123328081888502 0 17.123328081888502 -0.7268662202491214 0 0 0 0 -41.013216986126281 22.666012193327447 0 22.666012193327447 -9.0293167320323846 0 0 0 0 -4.7591317912725444 1.2475518766363969 0 1.2475518766363969 0.65242841902401216 0 0 0 0 -13.583896238982561 2.5176919182199526 0 2.5176919182199526 2.8461350853331169 0 0 0 0 -19.737016604659857 -4.2724222839343327 0 -4.2724222839343327 2.2023064006839377 0 0 0 0 -2.3000676016818034 5.2023294391628951 0 5.2023294391628951 -3.640533719047653 0 0 0 0 -14.090822380181635 0.63430755313424925 0 0.63430755313424925 0.14289965198349819 0 0 0 0 -10.276974247677572 -16.141079568231589 0 -16.141079568231589 -2.2393339483714954 0 0 0 0 -10.795666341477954 -3.9526141785337359 0 -3.9526141785337359 -12.791774246979458 0 0 0 0 -44.565346479466825 -27.317337368265726 0 -27.317337368265726 21.201976839239649 0 0 0 0 -16.581730137641898 -29.586406133162768 0 -29.586406133162768 -30.184387300892467 0 0 0 0 -71.466530534073172 -62.439646194167722 0 -62.439646194167722 -24.443356779689793 0 0 0 0 -12.979756433362127 -27.05980388315254 0 -27.05980388315254 -63.588397685735345 0 0 0 0 119.03866136929719 32.6289508905204 0 32.6289508905204 -69.463966709914871 0 0 0 0 -0.95424274151272215 -0.59248858224963463 0 -0.59248858224963463 -0.31892106797225228 0 0 0 0 0.82953111470851582 -3.6729973050607896 0 -3.6729973050607896 -26.050814889763387 0 0 0 0 -34.593003597800816 16.290890139116584 0 16.290890139116584 -6.7805878755616504 0 0 0 0 -48.048808318995725 -8.9115863962106232 0 -8.9115863962106232 -53.953897984949663 0 0 0 0 -51.369156870516235 5.6657320121144323 0 5.6657320121144323 5.1330899098641112 0 0 0 0 8.7112801979301366 -3.5936172490109186 0 -3.5936172490109186 -6.9047445241848493 0 0 0 0 0.82600449149683541 0.54858846509383308 0 0.54858846509383308 -0.382347808160858 0 0 0 0 -0.49078784644553064 0.14722053820244518 0 0.14722053820244518 1.2428009236997513 0 0 0 0 -19.135669409470211 0.88838837289870298 0 0.88838837289870298 3.6037204947303962 0 0 0 0 -171.79747926110576 65.62135637576057 0 65.62135637576057 30.596725932834261 0 0 0 0 83.464746094850398 1.1117405698403786 0 1.1117405698403786 -56.50899237046815 0 0 0 0 55.689494410626139 54.975770902746831 0 54.975770902746831 -127.04185382588071 0 0 0 0 -1.1150408644045493 3.4525804419670703 0 3.4525804419670703 0.2255394468398757 0 0 0 0 -145.51020738776333 53.355830928806824 0 53.355830928806824 25.043225897161392 0 0 0 0 17.9968056032601 2.372315640566562 0 2.372315640566562 -3.9885924961629939 0 0 0 0 -27.452980116999697 11.050945926231639 0 11.050945926231639 23.118850742192009 0 0 0 0 -0.204732242294976 -0.44932734459925605 0 -0.44932734459925605 0.61255906175154273 0 0 0 0 -6.278989116584853 6.2228340895696022 0 6.2228340895696022 -5.6032670798992967 0 0 0 0 -24.032291902632096 3.4938256585147656 0 3.4938256585147656 1.5256774540366536 0 0 0 0 -19.249455339598171 11.124015206707583 0 11.124015206707583 6.9808049607120211 0 0 0 0 -33.864680986709118 23.713957171158384 0 23.713957171158384 17.216039675528265 0 0 0 0 388.29949313780617 97.094021918297813 0 97.094021918297813 -348.65959264092254 0 0 0 0 -66.267559384054948 -2.4202034651593891 0 -2.4202034651593891 13.822913215049162 0 0 0 0 -2.5004937076306133 9.8673856213840008 0 9.8673856213840008 -2.6540962528457483 0 0 0 0 -37.632582986580474 18.523921483726696 0 18.523921483726696 0.65040692637967368 0 0 0 0 42.362666431739243 134.33508781370838 0 134.33508781370838 -68.138349163132261 0 0 0 0 47.013419511889538 169.50411908030071 0 169.50411908030071 92.183551211492386 0 0 0 0 138.42045661000674 -21.320476704149129 0 -21.320476704149129 -135.84690893554853 0 0 0 0 203.83482980195799 -176.24136845544177 0 -176.24136845544177 -46.590705673832872 0 0 0 0 -42.263248751323523 0.44494446346115302 0 0.44494446346115302 1.0212698819498736 0 0 0 0 119.07406269908211 -236.1925167390487 0 -236.1925167390487 267.84354332752838 0 0 0 0 -158.53383416579527 72.536858127527921 0 72.536858127527921 182.41011512612371 0 0 0 0 -34.92644861027361 -439.39670336907665 0 -439.39670336907665 24.681568943733424 0 0 0 0 45.330058446629209 -0.24442100179129511 0 -0.24442100179129511 -6.5932508276400377 0 0 0 0 -4.3830737757584952 -4.1206611698359756 0 -4.1206611698359756 -0.23753852439110223 0 0 0 0 -33.441152476603747 -14.023568080342557 0 -14.023568080342557 103.16398633106382 0 0 0 0 -6.7249148346254515 9.6302049817563784 0 9.6302049817563784 3.9068569641466695 0 0 0 0 -30.063628690223286 -1.9258753427781099 0 -1.9258753427781099 1.1556391613804742 0 0 0 0 68.047803709916479 84.835322709203865 0 84.835322709203865 58.466655258149331 0 0 0 0 -26.095874734149447 8.0083833501819655 0 8.0083833501819655 -0.58779692031370967 0 0 0 0 -10.119304760639789 8.9727727216451996 0 8.9727727216451996 -4.0638387274634189 0 0 0 0 90.562092847777876 -5.9259509275970572 0 -5.9259509275970572 33.898114854778214 0 0 0 0 -8.7811230531580442 8.0223000518639864 0 8.0223000518639864 -4.5140848463161465 0 0 0 0 46.615832181933229 -111.88882721053298 0 -111.88882721053298 136.43074305048134 0 0 0 0 -32.837703363769833 -19.091211655037512 0 -19.091211655037512 -0.089311734792460129 0 0 0 0 -59.460379685300268 -8.4919394384506148 0 -8.4919394384506148 -1.166057265651034 0 0 0 0 -33.690256327146017 1.6469856609894009 0 1.6469856609894009 -19.96617468468844 0 0 0 0 -29.094164297195544 4.4702218388381088 0 4.4702218388381088 0.0069039101010252568 0 0 0 0 -25.97537435457707 4.1236773325863396 0 4.1236773325863396 4.6713696699814022 0 0 0 0 -26.264869007309283 -2.4506151088404238 0 -2.4506151088404238 -1.235583388291708 0 0 0 0 -29.574446037008784 -3.5808978780360121 0 -3.5808978780360121 -16.291605052397358 0 0 0 0 -25.791852096873299 -3.4990206590377397 0 -3.4990206590377397 -28.589805191411187 0 0 0 0 -48.783677437819279 11.849246756671619 0 11.849246756671619 -18.382908600872497 0 0 0 0 -65.155744600218895 0.71655693487628014 0 0.71655693487628014 -3.4867820897111983 0 0 0 0 -3.8234307178763629 -2.2800401284365535 0 -2.2800401284365535 -16.444268013242208 0 0 0 0 -40.06678425033715 6.8705478862104883 0 6.8705478862104883 -5.4075129285183721 0 0 0 0 -16.581941989963525 25.201708320416913 0 25.201708320416913 8.839754091082682 0 0 0 0 -40.796972084383015 25.797587020459197 0 25.797587020459197 24.226610371986453 0 0 0 0 -39.489731515442728 2.8154704901924612 0 2.8154704901924612 0.33399366762327298 0 0 0 0 -556.40646842543356 -153.82753899098657 0 -153.82753899098657 362.2093986071946 0 0 0 0 -14.192524198715546 215.53833207128352 0 215.53833207128352 -310.80335511075248 0 0 0 0 -123.68895915006647 -407.01735427219694 0 -407.01735427219694 -184.57743212258174 0 0 0 0 -7.2974190558568175 -1.9293633369882979 0 -1.9293633369882979 -0.57007951037726989 0 0 0 0 -23.531937564174314 -556.25182526845879 0 -556.25182526845879 -72.719024705674769 0 0 0 0 -53.472497058573893 52.910339099940224 0 52.910339099940224 137.07477619263739 0 0 0 0 -149.16617273129145 272.67348465088776 0 272.67348465088776 161.41331128593743 0 0 0 0 -282.5505444568696 -221.27236095537756 0 -221.27236095537756 580.57446555353988 0 0 0 0 -406.39075149890618 565.35332976711675 0 565.35332976711675 -481.48744162362607 0 0 0 0 -1016.2816977842922 -302.65643864589208 0 -302.65643864589208 46.891199913000207 0 0 0 0 -14.174972340682334 1.1652947204958952 0 1.1652947204958952 -0.61969622966866478 0 0 0 0 -123.05949024637562 -546.66026506389471 0 -546.66026506389471 -564.08722370676833 0 0 0 0 -16.791983221306737 425.36378958319591 0 425.36378958319591 -377.4500720483652 0 0 0 0 -930.24542847691293 -104.27243811896278 0 -104.27243811896278 446.02486769952964 0 0 0 0 -1.3422265715421418 -399.69253853112468 0 -399.69253853112468 -963.82872047797821 0 0 0 0 -447.57529340830609 224.79277572707625 0 224.79277572707625 663.40772417359221 0 0 0 0 -118.95692789773238 -179.91730019186753 0 -179.91730019186753 -47.935874833802131 0 0 0 0 -32.585139213252567 -0.34341806464653057 0 -0.34341806464653057 0.47454255809650342 0 0 0 0 -12.275313058934145 1.2528521127022518 0 1.2528521127022518 -0.40567668584292726 0 0 0 0 -42.787704377155478 440.75113463614912 0 440.75113463614912 -150.3109927493864 0 0 0 0 -508.05857022352302 300.75474737899901 0 300.75474737899901 342.67912124697585 0 0 0 0 -9.23396104211497 -248.79878546793634 0 -248.79878546793634 -503.52995986677786 0 0 0 0 62.393241048033815 -0.33468270674399037 0 -0.33468270674399037 -664.51792118065396 0 0 0 0 59.735059310805809 13.266909421653574 0 13.266909421653574 -284.42648216534059 0 0 0 0 241.11113476145147 107.8929906422585 0 107.8929906422585 48.709619182137715 0 0 0 0 -1.6707565764245178 -2.7824002390576954 0 -2.7824002390576954 -0.59210293147985382 0 0 0 0 185.71635328146112 249.94413545854184 0 249.94413545854184 -303.00080123211762 0 0 0 0 73.017055334015822 -88.425237351830845 0 -88.425237351830845 1.8537988013165432 0 0 0 0 176.04128648800906 -156.6368306025542 0 -156.6368306025542 -136.94859172470439 0 0 0 0 295.79014961977373 153.89793700509802 0 153.89793700509802 -99.873529011413353 0 0 0 0 -1.0414492510072222 -1.7273715029316334 0 -1.7273715029316334 0.24274557117113321 0 0 0 0 50.893602633548142 -90.312799469251132 0 -90.312799469251132 -103.27688503537411 0 0 0 0 68.177078972588788 -176.54073831062556 0 -176.54073831062556 -127.03164034299243 0 0 0 0 84.515482296770642 -138.03110542855427 0 -138.03110542855427 -41.086583566466288 0 0 0 0 55.717499777155354 -197.61287787537805 0 -197.61287787537805 18.707863242348367 0 0 0 0 24.219072336489262 -125.48561746417863 0 -125.48561746417863 20.008262695103305 0 0 0 0 39.783307896977931 -112.36400435674796 0 -112.36400435674796 -17.694514440695229 0 0 0 0 26.145345752347566 -115.73679051111378 0 -115.73679051111378 6.6591752051094772 0 0 0 0 -335.03776338923558 -387.6133838930952 0 -387.6133838930952 14.473365297463374 0 0 0 0 -6.3973287973913102 -284.85822271327618 0 -284.85822271327618 -100.91404559899968 0 0 0 0 -55.543026955491555 4.4431321873293133 0 4.4431321873293133 0.19678062966331633 0 0 0 0 -105.37490787578463 134.07627383821716 0 134.07627383821716 284.19903511229802 0 0 0 0 -204.53897485572088 -82.576834075393663 0 -82.576834075393663 479.21656342889605 0 0 0 0 -6.8319958005831722 -19.229362729844127 0 -19.229362729844127 -131.83492285341922 0 0 0 0 6.6509207755557327 100.74765808600031 0 100.74765808600031 -19.552827077701295 0 0 0 0 10.430859661395289 75.409175279951256 0 75.409175279951256 -88.059420251471238 0 0 0 0 -15.992891230558598 1.7982773125145286 0 1.7982773125145286 6.7623310968963182 0 0 0 0 -13.847529262851806 -5.7136703723970648 0 -5.7136703723970648 4.8811592867214273 0 0 0 0 57.565985886110866 -84.880271255826358 0 -84.880271255826358 -12.343525859245442 0 0 0 0 1.0300807523260875 -1.388996856331655 0 -1.388996856331655 0.63634852598221436 0 0 0 0 -18.747910018133553 47.151147462359972 0 47.151147462359972 38.996405962627577 0 0 0 0 -11.643065670474243 -3.7533095668872534 0 -3.7533095668872534 40.529842838538727 0 0 0 0 -75.650941235558093 -96.884593714397624 0 -96.884593714397624 141.65389419151302 0 0 0 0 -61.720913041780477 -24.481986315359848 0 -24.481986315359848 1.4872857253701568 0 0 0 0 -64.492191927442661 2.4623679863784753 0 2.4623679863784753 2.1869856217078967 0 0 0 0 -28.06470310149416 59.922036061424762 0 59.922036061424762 106.64074303603434 0 0 0 0 -116.71576176190865 -34.824120752600379 0 -34.824120752600379 78.418523854430077 0 0 0 0 -2.9184117479205653 -14.917015294016942 0 -14.917015294016942 4.8691571777544436 0 0 0 0 -2.999290758985353 -41.178920530354901 0 -41.178920530354901 -49.561369969292393 0 0 0 0 -63.741694922753595 -38.368922046821098 0 -38.368922046821098 66.317696645525928 0 0 0 0 -37.01064342094805 -0.89978751106970334 0 -0.89978751106970334 1.5030895385922032 0 0 0 0 -27.164839448009616 -8.8665573843136372 0 -8.8665573843136372 -22.190401983536162 0 0 0 0 -26.3612953873637 -4.0624043968893622 0 -4.0624043968893622 5.1679342580516971 0 0 0 0 -17.712651763346457 -11.280501952758186 0 -11.280501952758186 -4.0382359647453541 0 0 0 0 -8.6962525631347489 2.4447157134795816 0 2.4447157134795816 17.564698983268585 0 0 0 0 -37.297571606135421 -1.9109236543698671 0 -1.9109236543698671 19.231179784595952 0 0 0 0 -45.730668006743144 -18.683662106119186 0 -18.683662106119186 46.406174979870798 0 0 0 0 -10.630446736064187 -48.962213565534171 0 -48.962213565534171 20.88026080291754 0 0 0 0 -37.868822722057303 -18.683029238865515 0 -18.683029238865515 -2.0912281812563833 0 0 0 0 32.324455159784065 -82.202821648314142 0 -82.202821648314142 -73.623932633041477 0 0 0 0 51.112113022386467 -107.5188926919399 0 -107.5188926919399 -52.897557048827366 0 0 0 0 9.4758288556203318 -8.2195977720959377 0 -8.2195977720959377 -6.841848894175028 0 0 0 0 -57.724348456729786 28.676704838480873 0 28.676704838480873 99.880680073581971 0 0 0 0 -18.114687385748667 -4.5396946984975362 0 -4.5396946984975362 4.1795561700795645 0 0 0 0 -63.370767208070902 -25.862096579376157 0 -25.862096579376157 6.5515837100447243 0 0 0 0 -59.044648085731751 30.31582781612633 0 30.31582781612633 48.006804824916799 0 0 0 0 5.2310674901891616 9.1167755898073892 0 9.1167755898073892 -18.925353312663219 0 0 0 0 -29.212935323841521 -7.7971614650218726 0 -7.7971614650218726 83.148516026476273 0 0 0 0 20.342012380002416 -18.012134458798755 0 -18.012134458798755 28.645596297297743 0 0 0 0 -51.272375904265573 -41.788367590485564 0 -41.788367590485564 26.85072779405084 0 0 0 0 -15.192007180495239 18.394959202366806 0 18.394959202366806 39.149161862314713 0 0 0 0 -31.049805123597253 -37.386719049339774 0 -37.386719049339774 -9.8060096954457094 0 0 0 0 -31.953259075458845 -31.653580946882755 0 -31.653580946882755 10.934605868619428 0 0 0 0 -31.358579573443421 -23.309828074461279 0 -23.309828074461279 12.955632009386733 0 0 0 0 -22.035783942954509 -18.364368596593753 0 -18.364368596593753 -2.0123834174686288 0 0 0 0 -3.8125025238814487 -31.950438579449951 0 -31.950438579449951 -16.809820372104468 0 0 0 0 -10.137211768554607 -60.041120264748486 0 -60.041120264748486 14.804245779287712 0 0 0 0 -59.901861540193295 -22.341886626666394 0 -22.341886626666394 139.29732933690519 0 0 0 0 -134.75869210185465 -104.1501800301462 0 -104.1501800301462 82.059929015631042 0 0 0 0 -4.3565011948071515 -121.78690600141697 0 -121.78690600141697 -77.838997418760314 0 0 0 0 37.137739422713821 -58.686272971944661 0 -58.686272971944661 14.673974695236527 0 0 0 0 51.49457494590888 -11.882679121447314 0 -11.882679121447314 -9.1415788202680801 0 0 0 0 93.722796217144605 -44.104217498356363 0 -44.104217498356363 -79.991613644608094 0 0 0 0 -13.469260631040925 -163.95698488517309 0 -163.95698488517309 -149.6039835563235 0 0 0 0 6.5332144260467064 -7.8671814081658944 0 -7.8671814081658944 0.37566644543236982 0 0 0 0 -36.919972210765991 14.498358887630502 0 14.498358887630502 3.277311139457936 0 0 0 0 13.281043143256284 -18.496780057383603 0 -18.496780057383603 21.117826581634972 0 0 0 0 -15.382411317687001 5.0690231944065545 0 5.0690231944065545 40.188564937638517 0 0 0 0 21.633612569819888 -40.217885077936899 0 -40.217885077936899 57.302682647132315 0 0 0 0 -4.3524307029336429 -1.8047887382378114 0 -1.8047887382378114 3.199322638537045 0 0 0 0 -20.607878549688614 -20.076502410389317 0 -20.076502410389317 -2.6743994356629051 0 0 0 0 28.123019981131165 -35.709673526611795 0 -35.709673526611795 -24.644929510245959 0 0 0 0 -620.98439354582138 561.30662970464323 0 561.30662970464323 -142.649552665513 0 0 0 0 -6.556335853057484 1.9209374674392918 0 1.9209374674392918 -0.76444926078304776 0 0 0 0 -1500.4428629475894 77.002322673000009 0 77.002322673000009 -758.13107073898107 0 0 0 0 -1216.904315845758 -682.2876422670023 0 -682.2876422670023 -287.85597058173045 0 0 0 0 -1924.6817906916413 -274.24414944300156 0 -274.24414944300156 -57.539635370056935 0 0 0 0 -94.57838411617513 -102.0960879565615 0 -102.0960879565615 -79.881137509376671 0 0 0 0 -440.29723479225368 -44.992872880346184 0 -44.992872880346184 -48.503928655991835 0 0 0 0 -332.3681062245962 102.82223314822113 0 102.82223314822113 -176.37457546040426 0 0 0 0 -767.77561107448628 164.14894369658901 0 164.14894369658901 -25.708910999411316 0 0 0 0 -1443.1075058604119 346.43977252207304 0 346.43977252207304 144.96432967736501 0 0 0 0 -1602.1003899935777 152.54355746377877 0 152.54355746377877 255.82120653929917 0 0 0 0 -1597.2377717000702 528.04319359456906 0 528.04319359456906 -924.51851832925547 0 0 0 0 -1499.994071447479 224.28639681841969 0 224.28639681841969 -70.99622437588819 0 0 0 0 -892.6470316357304 -214.96909704875475 0 -214.96909704875475 289.68747287720026 0 0 0 0 -1846.0398605104149 56.549112728410719 0 56.549112728410719 297.64888557044105 0 0 0 0 -15.733045807532562 27.792130026006646 0 27.792130026006646 -44.946823488836344 0 0 0 0 2.6652417086597104 -1.0729964186647813 0 -1.0729964186647813 0.59553080108540979 0 0 0 0 -583.87166425990586 -421.45719504723479 0 -421.45719504723479 -358.80297806688293 0 0 0 0 -9.7349173777761084 0.44433901348041416 0 0.44433901348041416 -0.3683888611977495 0 0 0 0 -1232.6945346484154 658.74279210269469 0 658.74279210269469 -14.922132093847807 0 0 0 0 -628.40109039270374 605.79357177111024 0 605.79357177111024 -300.7767916679415 0 0 0 0 -113.79555040005653 394.44704238235596 0 394.44704238235596 -325.54875453655592 0 0 0 0 -868.85255212254287 334.71308975910216 0 334.71308975910216 -3.3541359424149562 0 0 0 0 -1624.3473409150051 41.618935950864483 0 41.618935950864483 -133.44393369137546 0 0 0 0 -57.647501805893626 -7.6827440386315402 0 -7.6827440386315402 8.8014637616090567 0 0 0 0 10.335552913505126 5.3633735737076904 0 5.3633735737076904 10.893507816543178 0 0 0 0 16.812367314717221 -25.733161950737099 0 -25.733161950737099 -4.3877881056871217 0 0 0 0 -8.807790564537413 18.848278293341991 0 18.848278293341991 -60.04446800704693 0 0 0 0 -25.162095281534622 1.1030023119886716 0 1.1030023119886716 -0.048823999365397164 0 0 0 0 -97.222995432392054 -63.986771992536383 0 -63.986771992536383 254.08746854318795 0 0 0 0 55.931486067304377 -89.919675004011125 0 -89.919675004011125 -19.388254232042947 0 0 0 0 8.5830400321356137 -82.006559961457071 0 -82.006559961457071 17.170006873459727 0 0 0 0 33.345237320720116 -112.95974642895897 0 -112.95974642895897 34.144905963701547 0 0 0 0 20.028452087466576 -51.942550619579848 0 -51.942550619579848 -15.248648656077478 0 0 0 0 81.714831941379089 51.996132037959228 0 51.996132037959228 -6.1057664455810254 0 0 0 0 -214.57779015983124 -32.3881986840167 0 -32.3881986840167 212.53056415942132 0 0 0 0 -190.59352120289941 23.608590625957632 0 23.608590625957632 6.3768789999127762 0 0 0 0 -503.48461507537741 218.49942406158922 0 218.49942406158922 -21.382631306842406 0 0 0 0 -558.32125683763661 186.03700256743377 0 186.03700256743377 49.460083677714508 0 0 0 0 -223.66265699823634 -3.637340611693503 0 -3.637340611693503 -1.8656792580121646 0 0 0 0 -221.11905897089719 1.8176572627650529 0 1.8176572627650529 3.6877809046135326 0 0 0 0 -57.466532373984592 -11.497274930955996 0 -11.497274930955996 -46.842856656869969 0 0 0 0 -1499.9878901984589 375.52282222701149 0 375.52282222701149 224.57517896160914 0 0 0 0 -485.63623474804888 323.18918392782507 0 323.18918392782507 -47.290608798668217 0 0 0 0 -1086.8158296947931 271.92479748771734 0 271.92479748771734 201.91660662743081 0 0 0 0 -665.80695955058081 40.983274960225145 0 40.983274960225145 152.49198922133496 0 0 0 0 -1109.5074563638125 107.73631842844179 0 107.73631842844179 330.71556371410907 0 0 0 0 -1060.8594006597436 -136.09245573579628 0 -136.09245573579628 292.34430559892019 0 0 0 0 -1499.4576610835857 61.656870758075634 0 61.656870758075634 376.54583891382077 0 0 0 0 -839.24365274669617 77.988894271845851 0 77.988894271845851 154.44370677067909 0 0 0 0 -1013.8530379185822 -153.36453075040788 0 -153.36453075040788 293.23841702408754 0 0 0 0 -242.1891037583996 -79.551142580613217 0 -79.551142580613217 -25.014592169746038 0 0 0 0 -150.03856233557417 -57.345899667439653 0 -57.345899667439653 -52.014315915583722 0 0 0 0 -335.68387378035914 46.958324275111636 0 46.958324275111636 -4.7843190624150722 0 0 0 0 -584.66003729426575 -118.61330675072811 0 -118.61330675072811 45.996370921666937 0 0 0 0 -411.93220945772191 -79.265943754368976 0 -79.265943754368976 24.950649948081093 0 0 0 0 -385.28773749288985 -129.50716044862827 0 -129.50716044862827 7.3565090748857642 0 0 0 0 -129.16786400538649 -113.66592363003866 0 -113.66592363003866 -29.301146273647248 0 0 0 0 -51.54575803062653 -45.979023292185929 0 -45.979023292185929 -75.010387058919548 0 0 0 0 -31.102139688616262 -98.02336998627905 0 -98.02336998627905 -69.937097952566205 0 0 0 0 -31.178624767117071 -111.48374566859812 0 -111.48374566859812 -27.141371135436543 0 0 0 0 -36.444825565051815 -124.99531170684287 0 -124.99531170684287 -39.408782342619759 0 0 0 0 -18.337057848656514 -84.964534839228335 0 -84.964534839228335 -46.506498834238812 0 0 0 0 -62.93258761062043 -75.388490970452665 0 -75.388490970452665 95.901137059115769 0 0 0 0 -24.101758050068838 -46.675319202761557 0 -46.675319202761557 56.609275693849895 0 0 0 0 -138.7125871722742 -118.37467801890926 0 -118.37467801890926 15.998913632530616 0 0 0 0 -55.688595458081181 -158.9564104945122 0 -158.9564104945122 -77.917976360501882 0 0 0 0 -146.57139211869253 -94.025827646209848 0 -94.025827646209848 2.4549908083809697 0 0 0 0 -61.747354318114503 -39.416997218635842 0 -39.416997218635842 -77.043799122734754 0 0 0 0 -107.94528606785752 -242.9333834813292 0 -242.9333834813292 -402.10916377225368 0 0 0 0 -20.893749921840936 -81.316224491483752 0 -81.316224491483752 -131.9498320675437 0 0 0 0 -27.497441072100855 -84.238805970633834 0 -84.238805970633834 20.672434046531407 0 0 0 0 1.0466487390731345 -5.7237085217103072 0 -5.7237085217103072 -27.609149741674742 0 0 0 0 10.450653401598174 53.403500364740921 0 53.403500364740921 179.95542796378652 0 0 0 0 26.352957321490976 -165.71309284098402 0 -165.71309284098402 86.294163830871327 0 0 0 0 -8.074226345790521 -86.033777431738855 0 -86.033777431738855 -14.632953332140858 0 0 0 0 -43.532143134792022 -118.59059089406429 0 -118.59059089406429 -41.675866714270683 0 0 0 0 -1.7618774649690749 -123.15291259322225 0 -123.15291259322225 -50.325579616245818 0 0 0 0 -118.3199505575285 -91.140049965806384 0 -91.140049965806384 -47.097143481831722 0 0 0 0 -65.385292956698322 5.5141992086098526 0 5.5141992086098526 -17.026231681549689 0 0 0 0 -133.12982799175552 12.048925946716054 0 12.048925946716054 75.979779233295631 0 0 0 0 -19.905293482268462 45.82981083049367 0 45.82981083049367 113.94662116846439 0 0 0 0 -1.4900606620753685 -0.15092683100110982 0 -0.15092683100110982 0.83397600941430738 0 0 0 0 -54.582043709158825 -10.696316983993711 0 -10.696316983993711 37.234266149066571 0 0 0 0 -31.013842394691395 -1.9882585179031071 0 -1.9882585179031071 0.66179540400456427 0 0 0 0 -40.036815342900809 -37.537928974071292 0 -37.537928974071292 -28.963181148435751 0 0 0 0 -39.545040141992104 42.951904046861728 0 42.951904046861728 -0.21207738808152499 0 0 0 0 -21.90232932859908 22.477527353025835 0 22.477527353025835 -13.97171097196383 0 0 0 0 -39.453162562477146 -2.6909893511016714 0 -2.6909893511016714 2.8986472688986296 0 0 0 0 -34.833632256913916 -18.277328105957395 0 -18.277328105957395 4.5814415501611165 0 0 0 0 -46.1534268072337 18.107234382641764 0 18.107234382641764 48.48986340211377 0 0 0 0 -7.0448216789206484 1.6466727350893038 0 1.6466727350893038 3.9683818576354604 0 0 0 0 -8.480718533471812 -10.602511053744102 0 -10.602511053744102 2.2544866398295653 0 0 0 0 -4.8673074398766403 -22.067142923875849 0 -22.067142923875849 11.600405959177465 0 0 0 0 -12.808942659873082 -15.231737929287249 0 -15.231737929287249 10.722861387595003 0 0 0 0 -21.344457954553945 -6.3361329877931212 0 -6.3361329877931212 30.876108774049953 0 0 0 0 -25.706596145460935 1.7281688564928572 0 1.7281688564928572 60.989128606439635 0 0 0 0 -25.443841250605828 2.3088867409437626 0 2.3088867409437626 36.523648988079003 0 0 0 0 -11.348596550866205 -14.967997541124078 0 -14.967997541124078 34.441326660497225 0 0 0 0 -72.188818820695133 30.622879401339787 0 30.622879401339787 1.3078500307074137 0 0 0 0 12.449407440319192 -47.55590491591488 0 -47.55590491591488 78.078843260345366 0 0 0 0 -38.168150708341273 -12.034726045048501 0 -12.034726045048501 91.093882978837996 0 0 0 0 1.5121534177793592 0.58319364021585507 0 0.58319364021585507 -1.2672201104857344 0 0 0 0 -29.964890787850891 -0.14296296107772832 0 -0.14296296107772832 73.816269070526687 0 0 0 0 -41.792450714995539 2.0707528058523508 0 2.0707528058523508 67.03350153413794 0 0 0 0 -29.794976503091675 -14.900923439149778 0 -14.900923439149778 59.538148794949393 0 0 0 0 -59.852461570439118 -14.756365551788804 0 -14.756365551788804 65.749795799618141 0 0 0 0 -44.149791931238269 21.405754327353918 0 21.405754327353918 74.878012718394302 0 0 0 0 -51.716089264780749 -1.5486503606094857 0 -1.5486503606094857 67.295218263880543 0 0 0 0 -19.313651426411525 -5.5420813545025567 0 -5.5420813545025567 68.896729316139499 0 0 0 0 -70.951639327930025 -14.713902741350239 0 -14.713902741350239 75.737535775694937 0 0 0 0 -46.174459000586467 -6.6125640943769213 0 -6.6125640943769213 70.530806526951892 0 0 0 0 -61.415188729359215 -26.617670853493223 0 -26.617670853493223 52.197942579596656 0 0 0 0 -76.810549583333341 -20.961160175718305 0 -20.961160175718305 65.927656751374911 0 0 0 0 -61.945475867405548 -23.540574706645202 0 -23.540574706645202 66.297303191904348 0 0 0 0 -56.328852499477989 -32.437496853997061 0 -32.437496853997061 70.692079978937727 0 0 0 0 -92.727314835681 -7.642962058402162 0 -7.642962058402162 90.932147986441123 0 0 0 0 -102.12801524072347 -44.763094793416712 0 -44.763094793416712 67.780640543827644 0 0 0 0 -21.937012184111836 -43.520258742770807 0 -43.520258742770807 16.710158337488792 0 0 0 0 -58.557751709928198 0.17320473346092058 0 0.17320473346092058 81.369425984217287 0 0 0 0 -31.339997478733494 -8.0227065007493934 0 -8.0227065007493934 55.22733685427329 0 0 0 0 -52.662020384208517 -24.928682033456937 0 -24.928682033456937 41.871753320612811 0 0 0 0 -37.728527717009911 -27.830585280357752 0 -27.830585280357752 46.147048537072578 0 0 0 0 -29.706272577811433 -24.062642878498536 0 -24.062642878498536 39.129202293205594 0 0 0 0 -32.942020054484601 -28.164871750320685 0 -28.164871750320685 42.344568126682049 0 0 0 0 -27.357502996478615 -28.61556337609619 0 -28.61556337609619 42.215729414850102 0 0 0 0 -19.783970693291849 -25.711173726041125 0 -25.711173726041125 40.683061784497568 0 0 0 0 -32.156098631350687 -21.150749583573315 0 -21.150749583573315 53.265105080419289 0 0 0 0 -8.0142802622332283 -1.2483158051367411 0 -1.2483158051367411 52.050999397359647 0 0 0 0 -1.7488653639175027 -31.977815649052843 0 -31.977815649052843 38.010251525500053 0 0 0 0 7.5366598099385556 -23.605267173644847 0 -23.605267173644847 30.54824489857765 0 0 0 0 -19.78280722935969 -24.548120827111141 0 -24.548120827111141 36.203442500276196 0 0 0 0 -1.5098021050477684 -27.75543276062654 0 -27.75543276062654 32.299087120727108 0 0 0 0 -73.654268786479861 -25.31514008165783 0 -25.31514008165783 -4.7771663625671863 0 0 0 0 -6.678435694997475 -6.1558336885254876 0 -6.1558336885254876 -4.7278403067525181 0 0 0 0 -1.5329088317603237 -26.231715417430223 0 -26.231715417430223 25.201445375775393 0 0 0 0 -13.307252005798546 -11.900900085787271 0 -11.900900085787271 9.4455275263467229 0 0 0 0 -5.5063451538369463 -8.2329166512072902 0 -8.2329166512072902 -11.677562556479643 0 0 0 0 -19.286188941703585 -11.106112055203994 0 -11.106112055203994 5.4486108905894071 0 0 0 0 -11.043394380113924 -7.3257094531630012 0 -7.3257094531630012 -6.3030612915651645 0 0 0 0 -18.069331793411038 -7.1948683343039193 0 -7.1948683343039193 10.302478185091104 0 0 0 0 -13.21442257279557 9.3479973673811969 0 9.3479973673811969 -20.276928002024761 0 0 0 0 -14.402321106110321 2.9350124670818332 0 2.9350124670818332 38.225159609651811 0 0 0 0 -21.977564791514851 -15.758195134735843 0 -15.758195134735843 38.358760546357644 0 0 0 0 -22.202642937614655 -14.995806334206463 0 -14.995806334206463 35.842052057165233 0 0 0 0 -14.883411891732862 -20.593899046310526 0 -20.593899046310526 22.622557873432925 0 0 0 0 -19.798413736491057 -9.4165755470735348 0 -9.4165755470735348 16.157217872519368 0 0 0 0 -6.3568426219052085 -1.5023932346223474 0 -1.5023932346223474 -1.4835740858092334 0 0 0 0 -19.111385502272242 -18.853366600052595 0 -18.853366600052595 -1.3181595966952351 0 0 0 0 -15.582784169040679 -10.713571531912066 0 -10.713571531912066 -1.3807792267998593 0 0 0 0 -18.929496454979699 -15.226942747929741 0 -15.226942747929741 3.9193199766086764 0 0 0 0 -19.051334808425963 -8.6398593624010118 0 -8.6398593624010118 -29.671266746838228 0 0 0 0 -24.557945098549681 -13.089861426636162 0 -13.089861426636162 3.1328727122240707 0 0 0 0 -31.383724669173262 -20.54433495261992 0 -20.54433495261992 5.5738668440703805 0 0 0 0 -20.103271914729703 -40.057211461769384 0 -40.057211461769384 -43.221474887310251 0 0 0 0 -2.5484547687419621 0.45924960273535254 0 0.45924960273535254 0.85113530146566507 0 0 0 0 0.64405718320483629 41.777742727080351 0 41.777742727080351 -6.7107297613674746 0 0 0 0 -0.52529578572966429 42.038117977423099 0 42.038117977423099 8.4219248581348438 0 0 0 0 -3.6661125874376239 31.756206673543034 0 31.756206673543034 28.882384505455775 0 0 0 0 1.9681033752214034 28.47126536391653 0 28.47126536391653 -14.03167918723193 0 0 0 0 0.51814135135871453 25.629526028692794 0 25.629526028692794 12.534552695746697 0 0 0 0 -22.568520050128996 12.142638647388139 0 12.142638647388139 -19.963972804324385 0 0 0 0 -21.316759734848798 -2.6285170701486766 0 -2.6285170701486766 0.39214648760801751 0 0 0 0 -12.727262229731423 -4.8370219757453015 0 -4.8370219757453015 -9.4933796178320335 0 0 0 0 -2.9726346079148742 -0.046168466506401495 0 -0.046168466506401495 0.64390095668147396 0 0 0 0 1.8670740187795332 21.079440153916153 0 21.079440153916153 11.834007648108809 0 0 0 0 -22.455719945742317 -14.082259431979066 0 -14.082259431979066 -7.7345114753038482 0 0 0 0 5.8773588954517209 34.326234908261824 0 34.326234908261824 -47.243725710842682 0 0 0 0 -10.763135459560942 1.3004798302978884 0 1.3004798302978884 -5.7123246490343718 0 0 0 0 -3.6646747874871153 19.303212637365505 0 19.303212637365505 -17.927760025625048 0 0 0 0 -13.555004285021198 4.4331227308275629 0 4.4331227308275629 35.997694176840241 0 0 0 0 5.4748719253434501 2.7125493939873877 0 2.7125493939873877 -1.5947956816655733 0 0 0 0 30.957843091899747 -52.640145857896073 0 -52.640145857896073 69.011514411731468 0 0 0 0 93.910553653466195 -7.6716890543245881 0 -7.6716890543245881 -83.021211235113242 0 0 0 0 7.087800445589437 -2.8080921652669986 0 -2.8080921652669986 15.496585098018613 0 0 0 0 0.34848997969288886 0.63390411989170325 0 0.63390411989170325 -1.1685292465335659 0 0 0 0 127.37701252410341 -68.793019881523151 0 -68.793019881523151 -57.082247288602503 0 0 0 0 -7.0158824741736225 53.313743388800276 0 53.313743388800276 -67.787178767284786 0 0 0 0 0.70978552509811266 17.565676805552698 0 17.565676805552698 2.1647699670961629 0 0 0 0 -102.55136949336816 -63.911038233184172 0 -63.911038233184172 -29.740114296923821 0 0 0 0 2.0555513792731972 17.031078830211754 0 17.031078830211754 -7.242512453603922 0 0 0 0 -8.6416146921733343 -15.356911770157126 0 -15.356911770157126 -32.212544976667232 0 0 0 0 -4.6143521384883197 -0.33058845833336736 0 -0.33058845833336736 -1.5716193208283746 0 0 0 0 -27.169436434747865 -2.7337495187236982 0 -2.7337495187236982 -27.829501789097776 0 0 0 0 -23.648973327758767 0.74087683859238496 0 0.74087683859238496 -9.5081325605781331 0 0 0 0 -2.4816746730981789 -1.9839895798017677 0 -1.9839895798017677 -1.3651961760527871 0 0 0 0 -20.838200086224106 -10.558804846743442 0 -10.558804846743442 -40.453273425359157 0 0 0 0 -12.52601033443716 2.7682589810289073 0 2.7682589810289073 -33.130054705982161 0 0 0 0 -19.690444675728941 10.707995091708653 0 10.707995091708653 -12.685525874323275 0 0 0 0 -8.2595048643488553 13.765706033676565 0 13.765706033676565 1.794280700893637 0 0 0 0 -19.035115354163281 9.4737746326208594 0 9.4737746326208594 20.577999151297035 0 0 0 0 -1.8872506054581208 9.7993273481829419 0 9.7993273481829419 -13.957048494492625 0 0 0 0 -25.604115623012376 -8.6041617218123747 0 -8.6041617218123747 -20.033788182300668 0 0 0 0 -5.3662557514822993 -10.405284854074779 0 -10.405284854074779 -31.521188457038079 0 0 0 0 -7.6350217364247328 -2.3551162829795658 0 -2.3551162829795658 -35.957416722242215 0 0 0 0 -7.3938604031980049 37.673527273027389 0 37.673527273027389 2.8821243011860815 0 0 0 0 -24.891763502929336 15.827653042420209 0 15.827653042420209 53.132592963554714 0 0 0 0 -3.1128668419861469 13.94294161432407 0 13.94294161432407 20.156607824236627 0 0 0 0 -38.462556474449684 9.8075641912936362 0 9.8075641912936362 -8.5703808633171832 0 0 0 0 -13.569109623707279 0.78348722789659941 0 0.78348722789659941 0.012025846233320592 0 0 0 0 -17.330837905305088 14.5373343445101 0 14.5373343445101 2.2472055450084554 0 0 0 0 -4.1414195888624832 0.42383596386370748 0 0.42383596386370748 -3.2880631966508824 0 0 0 0 -61.393861719190404 5.1017495902446237 0 5.1017495902446237 4.6641566773770364 0 0 0 0 -21.50364668907946 -12.55461575776269 0 -12.55461575776269 0.90452112557932196 0 0 0 0 -55.810642494841261 -26.296328316212225 0 -26.296328316212225 -18.560322980343244 0 0 0 0 -35.445371157584759 -23.251220170656779 0 -23.251220170656779 -41.682660628235396 0 0 0 0 -28.772260683921985 -10.616296779402726 0 -10.616296779402726 -22.753017425938651 0 0 0 0 -45.623502697987988 -10.237081658226771 0 -10.237081658226771 0.92764774077761558 0 0 0 0 -4.1016595681152959 -0.033688824208991885 0 -0.033688824208991885 -1.0482657921298379 0 0 0 0 -5.2394506736764015 24.968916189931662 0 24.968916189931662 54.70230748423036 0 0 0 0 -28.730737646096959 -14.676308787717621 0 -14.676308787717621 3.4357670226921755 0 0 0 0 -1.6860578877250987 26.728744105074355 0 26.728744105074355 28.886664406241003 0 0 0 0 -30.753657371903614 -21.986527336559277 0 -21.986527336559277 10.304116682744223 0 0 0 0 -22.986910442737475 0.99373406305805556 0 0.99373406305805556 -0.42270460192906062 0 0 0 0 -16.360078915601662 6.759181704851926 0 6.759181704851926 -2.7825066162245093 0 0 0 0 -31.89368199006185 4.739578598031926 0 4.739578598031926 14.287631325482721 0 0 0 0 -22.752751440164502 12.064171600540703 0 12.064171600540703 -9.4114030638185113 0 0 0 0 -36.493922702387863 -6.5374231592718957 0 -6.5374231592718957 14.213970344876003 0 0 0 0 -51.870516098657845 11.3619182897272 0 11.3619182897272 34.257828790385929 0 0 0 0 -32.143412756800615 3.3999479137371251 0 3.3999479137371251 1.48582887125817 0 0 0 0 -29.420005934793203 4.0195141510735031 0 4.0195141510735031 0.27479881510283366 0 0 0 0 -30.144978841941338 -4.5367932589607278 0 -4.5367932589607278 4.3788489456553066 0 0 0 0 -32.144325299025084 2.5704428301930466 0 2.5704428301930466 0.67152200484129065 0 0 0 0 -48.678005386249424 11.41931103752222 0 11.41931103752222 19.375046948988043 0 0 0 0 -12.606541314638434 25.606085876705833 0 25.606085876705833 16.740675177378648 0 0 0 0 -40.97424853144264 18.514895821191601 0 18.514895821191601 15.736430846171061 0 0 0 0 -28.154493237480686 4.351616703572744 0 4.351616703572744 0.80701492598519176 0 0 0 0 -57.438097363375618 -1.7931480496412178 0 -1.7931480496412178 15.089310420283709 0 0 0 0 -46.665845322697464 24.202476209000167 0 24.202476209000167 17.730125379301853 0 0 0 0 -70.419445386971063 5.5175808722418367 0 5.5175808722418367 10.97462144926817 0 0 0 0 -140.99540894529355 -12.108579918641567 0 -12.108579918641567 13.540980555711485 0 0 0 0 -76.478614032054338 -16.357913222446314 0 -16.357913222446314 -6.5807564031202901 0 0 0 0 -94.953039649866469 27.90601935822383 0 27.90601935822383 -18.54384659914831 0 0 0 0 -85.237869877798801 17.606584220159505 0 17.606584220159505 8.6421455829752176 0 0 0 0 -50.850386542503657 5.6473057283968728 0 5.6473057283968728 8.2981924033431937 0 0 0 0 -50.240884681540564 11.9979486562072 0 11.9979486562072 41.183131246544235 0 0 0 0 -2.7891767687310676 -3.7238014291369836 0 -3.7238014291369836 1.7444280374172649 0 0 0 0 -22.08721543274396 -12.188074027480866 0 -12.188074027480866 5.6108333595157092 0 0 0 0 -35.03057001094237 5.32690019328993 0 5.32690019328993 -18.068314023259063 0 0 0 0 -43.079991328533652 -7.5616812752055012 0 -7.5616812752055012 -3.6071355247283918 0 0 0 0 -15.470240994124993 -20.426143990956007 0 -20.426143990956007 -15.079584448263176 0 0 0 0 -15.818998250933305 -19.333295158122155 0 -19.333295158122155 -3.2550037842734127 0 0 0 0 -30.566251374271189 1.5129785717856521 0 1.5129785717856521 -28.155976848374394 0 0 0 0 -107.93940719035572 -30.791111152910844 0 -30.791111152910844 66.289854411227338 0 0 0 0 -26.966054281843704 -10.60261708095365 0 -10.60261708095365 6.6990810828033895 0 0 0 0 -53.910674581038954 11.279636531604911 0 11.279636531604911 2.6975046636346178 0 0 0 0 -37.996129485088886 1.7377116113125339 0 1.7377116113125339 -0.28383527051119017 0 0 0 0 -54.547029502907563 -7.3746170482454723 0 -7.3746170482454723 5.3646511088090847 0 0 0 0 -27.828844614002264 -12.796714741573624 0 -12.796714741573624 -6.763643518113895 0 0 0 0 -24.916590618921873 -4.2474033573862471 0 -4.2474033573862471 3.5375146260865904 0 0 0 0 -11.922037937275036 1.4555732097808232 0 1.4555732097808232 1.4808007820874991 0 0 0 0 -22.554567691395278 -6.4127420040435936 0 -6.4127420040435936 10.407817686191265 0 0 0 0 -26.191873627506538 -10.255050210000263 0 -10.255050210000263 66.922437882543591 0 0 0 0 -7.9630082407264808 17.691747705674544 0 17.691747705674544 35.76005308800859 0 0 0 0 -34.268774092946842 -6.5485151880952799 0 -6.5485151880952799 23.642127576639894 0 0 0 0 -31.078460548357725 5.7502835638440501 0 5.7502835638440501 25.866676430187454 0 0 0 0 -29.053720238051028 0.81833935444711869 0 0.81833935444711869 33.738300910857106 0 0 0 0 -44.03674028163914 -2.1335353460628994 0 -2.1335353460628994 22.383695955138819 0 0 0 0 -39.34123220652873 -6.5512086341889244 0 -6.5512086341889244 21.105022240885432 0 0 0 0 -34.494888171785078 -1.2872182792923468 0 -1.2872182792923468 12.030645636476265 0 0 0 0 -43.752466060859206 -1.0107621023836373 0 -1.0107621023836373 12.573736426668802 0 0 0 0 -42.552689539245989 1.3535538024455889 0 1.3535538024455889 17.094407043641922 0 0 0 0 -7.6013013623304699 -2.7945812470507967 0 -2.7945812470507967 -1.2816098292187894 0 0 0 0 -38.421221062475752 -5.5210952027965163 0 -5.5210952027965163 19.086388395029189 0 0 0 0 -36.232737316767469 -2.6845440817374246 0 -2.6845440817374246 17.223689792523146 0 0 0 0 -39.885152883052683 -1.4701049779374955 0 -1.4701049779374955 17.502049454879625 0 0 0 0 -36.080005447380699 -4.7471107856079868 0 -4.7471107856079868 16.835788939802843 0 0 0 0 -38.732541718372431 -7.0442029123800012 0 -7.0442029123800012 18.917258014131676 0 0 0 0 -37.893615759114709 -6.0812861794358923 0 -6.0812861794358923 16.613837459605065 0 0 0 0 -25.400823737597733 -9.6259899719261934 0 -9.6259899719261934 0.43193553285998532 0 0 0 0 -33.484359850040619 -3.8917252344327267 0 -3.8917252344327267 7.3967205060265329 0 0 0 0 -6.034007552206992 2.0078923158522546 0 2.0078923158522546 2.9341642347217589 0 0 0 0 -9.6019703034580743 -31.414548236359224 0 -31.414548236359224 56.101051823530156 0 0 0 0 -13.390574560982486 -5.1815714287392325 0 -5.1815714287392325 39.835758228774466 0 0 0 0 -3.004072077685624 -1.7454082213559827 0 -1.7454082213559827 1.6877430091553489 0 0 0 0 -38.610025903830433 -8.278051355189092 0 -8.278051355189092 29.396033173052729 0 0 0 0 -28.376177921403723 -33.876905745452859 0 -33.876905745452859 12.471999118673466 0 0 0 0 -30.524166545416392 -23.764620584010345 0 -23.764620584010345 42.935268091878697 0 0 0 0 -33.254851355024584 -11.177633414067714 0 -11.177633414067714 15.105469266816925 0 0 0 0 -33.859671024888939 2.0021339993220622 0 2.0021339993220622 6.1190494716914259 0 0 0 0 -29.202259881515289 -1.4216382770325398 0 -1.4216382770325398 3.5412843013958302 0 0 0 0 -35.194248248684744 -6.8066706364189713 0 -6.8066706364189713 8.0211957702892676 0 0 0 0 -57.816151940640793 -28.856010649570266 0 -28.856010649570266 -33.627668618139467 0 0 0 0 -48.921778472128935 -18.597522591786955 0 -18.597522591786955 4.7890314390018425 0 0 0 0 -25.796595519133916 -10.085139685320883 0 -10.085139685320883 19.444106730666135 0 0 0 0 -50.294212179741798 -21.689695620567413 0 -21.689695620567413 6.3439649787119325 0 0 0 0 -39.702178197921889 -12.815974585452311 0 -12.815974585452311 2.9419046759759677 0 0 0 0 -36.028218656078565 -16.070212409987434 0 -16.070212409987434 -4.9485613874707965 0 0 0 0 -44.265943387429616 -28.011928012444812 0 -28.011928012444812 -8.0718858370703543 0 0 0 0 -64.731387780069781 -27.602430836697408 0 -27.602430836697408 1.3337347677645539 0 0 0 0 -89.11478370465602 -44.986122258506498 0 -44.986122258506498 5.9693473939705655 0 0 0 0 -92.99260049330951 -21.852954560077137 0 -21.852954560077137 22.211923411244015 0 0 0 0 -30.032388674972026 -6.8429585945784197 0 -6.8429585945784197 -3.1548619568648064 0 0 0 0 -53.21279514395701 -36.100928315690908 0 -36.100928315690908 -4.6896355987111633 0 0 0 0 -71.468645573366757 3.5052448365071314 0 3.5052448365071314 20.633255727641199 0 0 0 0 -44.622253730400644 -120.90652802051369 0 -120.90652802051369 -6.6578705346983043 0 0 0 0 -17.675861653024185 -35.815031455842359 0 -35.815031455842359 -8.4190667501055714 0 0 0 0 -23.840049729934979 -22.335499581647198 0 -22.335499581647198 -1.5828918911301408 0 0 0 0 -22.28969250181035 -41.94150827008275 0 -41.94150827008275 9.4165708969088655 0 0 0 0 -34.630652408690366 -23.272540828462439 0 -23.272540828462439 3.3585038868499169 0 0 0 0 -30.031166610937362 -17.795455527252102 0 -17.795455527252102 -2.0098941610979111 0 0 0 0 -13.451025508494178 -31.159157158346996 0 -31.159157158346996 2.9556385879169529 0 0 0 0 34.935978274517765 5.5615382875777186 0 5.5615382875777186 159.8277871110048 0 0 0 0 -357.84260984370121 -355.34326778227842 0 -355.34326778227842 251.66976953670121 0 0 0 0 -246.33280474427738 -233.08238376386078 0 -233.08238376386078 -221.68767902250875 0 0 0 0 -347.8067392182852 -80.703264950633667 0 -80.703264950633667 8.8929692433765695 0 0 0 0 4.512172503471561 -3.3133540557508603 0 -3.3133540557508603 -0.21704228662915703 0 0 0 0 -264.35433635070513 26.821425938068387 0 26.821425938068387 118.53381008895883 0 0 0 0 -249.76038967477871 62.579034672026637 0 62.579034672026637 35.525715513340856 0 0 0 0 203.25119143723714 -575.1996525278746 0 -575.1996525278746 -68.274671139219208 0 0 0 0 -232.87063794250207 129.39958010774546 0 129.39958010774546 -324.20288254571233 0 0 0 0 1174.8167830198363 -261.15171204481612 0 -261.15171204481612 -1991.114331828383 0 0 0 0 -112.35568639593293 -58.138517319731363 0 -58.138517319731363 -50.47088357433995 0 0 0 0 -219.55362390161099 -72.738346053869918 0 -72.738346053869918 -4.2876426612015166 0 0 0 0 -221.77633514575064 -83.903300064971063 0 -83.903300064971063 -54.305148396307004 0 0 0 0 -228.19363137624532 -42.722012686614448 0 -42.722012686614448 -36.096942613849251 0 0 0 0 -226.67555935758173 -22.836958282730421 0 -22.836958282730421 65.634868463286693 0 0 0 0 -249.44938751100926 -91.251709090565996 0 -91.251709090565996 -15.488517070853277 0 0 0 0 -272.73005148413631 -47.431592313782232 0 -47.431592313782232 26.251727760793983 0 0 0 0 -226.18154802206845 -88.362810043141195 0 -88.362810043141195 -23.904687701765901 0 0 0 0 -228.57525391695253 -76.918237052175826 0 -76.918237052175826 7.4506349184970304 0 0 0 0 -317.61391537050622 -124.22485051840933 0 -124.22485051840933 -23.148201679887443 0 0 0 0 -99.744838855660419 -4.2732877447653976 0 -4.2732877447653976 -30.275318766901449 0 0 0 0 -60.100258363781904 -157.10149741609564 0 -157.10149741609564 -46.109571805547603 0 0 0 0 -82.119941143224423 -88.489976111108717 0 -88.489976111108717 -259.58839702733349 0 0 0 0 -122.04096601650235 -89.52017060406861 0 -89.52017060406861 -46.377026801237037 0 0 0 0 -4.2835673207671938 -2.9112533055979242 0 -2.9112533055979242 5.6931147201057479 0 0 0 0 -233.12788513071064 -97.000047907535333 0 -97.000047907535333 -24.302335944338722 0 0 0 0 -229.16016070456317 -12.431503712509027 0 -12.431503712509027 35.873660207380354 0 0 0 0 22.918532155546927 -15.313108197895048 0 -15.313108197895048 -12.976467683986129 0 0 0 0 -294.2337934440111 -4.2658412064388926 0 -4.2658412064388926 309.60502271268888 0 0 0 0 -0.028768611480151307 0.53368266135758091 0 0.53368266135758091 -1.352830722463338 0 0 0 0 -257.83973325976694 -45.966708624606383 0 -45.966708624606383 4.2882088223180972 0 0 0 0 -244.43012667299627 -68.694493395827806 0 -68.694493395827806 34.751414267599927 0 0 0 0 -211.23713612552774 -75.399208308060935 0 -75.399208308060935 -56.870903211751113 0 0 0 0 -202.29133894272309 -109.37816273080941 0 -109.37816273080941 16.817537926481293 0 0 0 0 -162.83113607170162 -116.25036729769641 0 -116.25036729769641 -141.89106825069751 0 0 0 0 -109.74481738727627 -28.451916373780193 0 -28.451916373780193 -50.472122129371201 0 0 0 0 -103.19937040784316 9.0497340418555154 0 9.0497340418555154 -167.05079671050157 0 0 0 0 -94.697982197428018 61.026235357571871 0 61.026235357571871 -13.270436279705905 0 0 0 0 -0.058287717261436001 0.49519468671861588 0 0.49519468671861588 1.3385485455266448 0 0 0 0 -159.90925479215639 0.37362445425870305 0 0.37362445425870305 49.393910595586021 0 0 0 0 -3.1935120656817162 -8.8796826420943944 0 -8.8796826420943944 -0.4905780958225705 0 0 0 0 2.9437107783214742 -3.1366113772595554 0 -3.1366113772595554 4.8726446935858547 0 0 0 0 9.5950447436266586 -8.6539919347830221 0 -8.6539919347830221 -6.4065863578219933 0 0 0 0 -4.563991356673796 -22.611448353267463 0 -22.611448353267463 12.252649564533741 0 0 0 0 -25.972080090753455 -15.403639495950612 0 -15.403639495950612 0.55842370209150793 0 0 0 0 37.91120100696935 -34.729773290699086 0 -34.729773290699086 8.7754151024318219 0 0 0 0 -44.611056829520294 -2.573010423601886 0 -2.573010423601886 12.965935782679253 0 0 0 0 -54.421957002492718 -32.316643375673237 0 -32.316643375673237 8.1521764103238183 0 0 0 0 11.76908804307277 -11.27596625155752 0 -11.27596625155752 8.0901881738030283 0 0 0 0 32.20530917744054 -0.41923242646134895 0 -0.41923242646134895 5.1691112798375798 0 0 0 0 2.8432845006536809 -22.639053875256764 0 -22.639053875256764 46.870422688186295 0 0 0 0 -10.274135939431289 -76.370062729026245 0 -76.370062729026245 -84.941869843089648 0 0 0 0 -39.236977990261948 28.599777180217586 0 28.599777180217586 25.566961529998231 0 0 0 0 -39.914307906063186 40.900966108356315 0 40.900966108356315 34.612955290528177 0 0 0 0 -44.892083441337491 33.093809037765467 0 33.093809037765467 22.633664417868772 0 0 0 0 -47.750441849806521 24.112567689000628 0 24.112567689000628 18.52030969703128 0 0 0 0 -51.029340104576477 25.428360435108658 0 25.428360435108658 41.41726091122905 0 0 0 0 -52.039265515726584 16.59308711423887 0 16.59308711423887 20.312765732435025 0 0 0 0 -52.931514324736781 24.126304105717054 0 24.126304105717054 15.641680459217923 0 0 0 0 -52.974492526169342 19.340892042394671 0 19.340892042394671 21.730236433439927 0 0 0 0 -49.096558330082189 16.858694644902698 0 16.858694644902698 -2.0884672901775048 0 0 0 0 -45.641973950423562 12.512968817441561 0 12.512968817441561 -1.8973709508700267 0 0 0 0 -56.16714309296367 25.849317915619622 0 25.849317915619622 -18.350530501511457 0 0 0 0 -55.416342343934957 -44.913443573273526 0 -44.913443573273526 6.5976072859730266 0 0 0 0 -8.7108043649683715 -3.3948990584801866 0 -3.3948990584801866 3.1130376148336039 0 0 0 0 -29.178616904027876 4.7217560170547586 0 4.7217560170547586 -40.228485159837419 0 0 0 0 -11.801990920514982 -1.717701860642137 0 -1.717701860642137 18.00105647412056 0 0 0 0 -23.468478632123848 -3.3239962247333508 0 -3.3239962247333508 0.70888700332456012 0 0 0 0 -25.078560068983656 -13.645333360194304 0 -13.645333360194304 2.0216993721568919 0 0 0 0 -26.431667371175507 1.4834944196461228 0 1.4834944196461228 -1.4762639787551604 0 0 0 0 -19.928620431596755 -3.6607257843761545 0 -3.6607257843761545 7.0934761368050658 0 0 0 0 -14.885603764043935 -0.82729006348563416 0 -0.82729006348563416 6.4934677986127554 0 0 0 0 -22.094851130141738 -3.6922160555232937 0 -3.6922160555232937 0.58154088594931008 0 0 0 0 -14.008257863194871 -0.67881643903207234 0 -0.67881643903207234 0.17234243357294954 0 0 0 0 -18.011555612098164 -1.7931723613201029 0 -1.7931723613201029 7.4565208691869884 0 0 0 0 -18.011555612103621 -1.7931723613173745 0 -1.7931723613173745 7.4565208691901717 0 0 0 0 -18.011555612102228 -1.7931723613157331 0 -1.7931723613157331 7.4565208691838052 0 0 0 0 -38.470598463934039 -1.9424802177779839 0 -1.9424802177779839 -8.3236147074976543 0 0 0 0 -5.8754163352512521 -0.585115885346422 0 -0.585115885346422 1.5877673598341042 0 0 0 0 -50.710585263041139 7.4971725555492412 0 7.4971725555492412 -11.565392151426295 0 0 0 0 -53.068408715782425 6.584261794739632 0 6.584261794739632 3.9933283858294999 0 0 0 0 -45.315460576385703 12.679806101978556 0 12.679806101978556 -8.3466166101102317 0 0 0 0 -22.972671319001165 0.28089018704184809 0 0.28089018704184809 -2.3155175289048202 0 0 0 0 -53.182068432642609 19.688459727083547 0 19.688459727083547 25.564286224761418 0 0 0 0 -52.580137246097365 40.422475444599627 0 40.422475444599627 82.953149205539944 0 0 0 0 -55.681457187449269 12.563443696771287 0 12.563443696771287 55.401320595438165 0 0 0 0 -24.970920846873923 4.4904407612139039 0 4.4904407612139039 15.621892124571787 0 0 0 0 -18.157280794221389 0.6938101266786556 0 0.6938101266786556 4.4325843709999759 0 0 0 0 -10.325973454229526 8.4818040806380903 0 8.4818040806380903 2.7040045537705217 0 0 0 0 -25.04613825193519 3.5370191478241964 0 3.5370191478241964 3.823423515558602 0 0 0 0 -22.257323292183024 -5.4418252473531039 0 -5.4418252473531039 -0.5657268783880971 0 0 0 0 -58.183297422686792 1.1074691010602464 0 1.1074691010602464 31.568689838750288 0 0 0 0 -2.7894048194791274 1.1658265411089701 0 1.1658265411089701 -0.080639439876169838 0 0 0 0 -6.8982625163989724 -29.903143632256104 0 -29.903143632256104 93.566991249481589 0 0 0 0 -41.525573941402399 21.512937945943349 0 21.512937945943349 21.365460013450047 0 0 0 0 -18.107172385822196 0.84552673116172627 0 0.84552673116172627 16.749421894500955 0 0 0 0 -40.453455718296027 14.077806757342614 0 14.077806757342614 72.638485456667127 0 0 0 0 -38.8052053878273 38.997524066540045 0 38.997524066540045 36.919777286538547 0 0 0 0 -33.637888352312075 43.815284808825737 0 43.815284808825737 41.351704887457288 0 0 0 0 -1.5473443975297414 31.122646103894731 0 31.122646103894731 53.36234650152872 0 0 0 0 -35.758689639053046 41.453506912908182 0 41.453506912908182 104.05877871182827 0 0 0 0 -4.4972692785901209 0.83875263064499439 0 0.83875263064499439 0.026063430457021475 0 0 0 0 -3.967570411388806 41.984142685318432 0 41.984142685318432 51.381073656909138 0 0 0 0 -11.361520228649169 -8.8769643189322665 0 -8.8769643189322665 139.77461810803339 0 0 0 0 14.802762267423532 66.417077898699063 0 66.417077898699063 -53.503566657387978 0 0 0 0 -42.6796324432853 18.41092192745387 0 18.41092192745387 144.71467017694266 0 0 0 0 -25.285608897087513 33.47226360948963 0 33.47226360948963 -40.469225948505482 0 0 0 0 15.73454329317974 50.735538841829111 0 50.735538841829111 -50.700354689778578 0 0 0 0 -34.477025561075195 5.786297233242621 0 5.786297233242621 0.72689754976761778 0 0 0 0 -5.3204572696376999 82.265355675108594 0 82.265355675108594 56.708382925600915 0 0 0 0 90.242389516446565 83.408831919411341 0 83.408831919411341 1.6001297945354054 0 0 0 0 144.85015729507904 -6.5902252952218419 0 -6.5902252952218419 -2.5659904469775938 0 0 0 0 -20.77506680479928 21.810741681941863 0 21.810741681941863 -7.3897614911652454 0 0 0 0 69.130898860079469 51.946403950829222 0 51.946403950829222 -44.081137275929905 0 0 0 0 6.3389260931162426 61.934402896882489 0 61.934402896882489 4.9202008693923744 0 0 0 0 -204.2170721148068 -23.438913522933944 0 -23.438913522933944 141.31215050287153 0 0 0 0 -12.087648562772998 2.7906778815289619 0 2.7906778815289619 -0.14112054442088323 0 0 0 0 -142.53307026006587 22.510743071318871 0 22.510743071318871 -6.2936179924491853 0 0 0 0 6.598652208900603 -31.766190330682093 0 -31.766190330682093 13.005207330733811 0 0 0 0 20.077332875616776 -88.480743962427709 0 -88.480743962427709 86.987297435575783 0 0 0 0 -108.47282545293274 -65.018729073004124 0 -65.018729073004124 124.91267218401822 0 0 0 0 -130.25576378235564 -20.574671952334938 0 -20.574671952334938 56.474991669465226 0 0 0 0 -127.89429054480229 -50.786385886795635 0 -50.786385886795635 66.987083113485369 0 0 0 0 -205.21861744134367 -30.47278740856018 0 -30.47278740856018 115.05254183646355 0 0 0 0 -205.69675355613435 -25.604115511770033 0 -25.604115511770033 65.875093656341505 0 0 0 0 -157.19137113679972 -41.258353982688561 0 -41.258353982688561 2.6879747954837967 0 0 0 0 -195.02310206227776 -45.154164162968641 0 -45.154164162968641 20.069806635913437 0 0 0 0 -195.85085904844527 -25.307414076157556 0 -25.307414076157556 57.523062498070431 0 0 0 0 -1.7048798976965323 0.035254991953228121 0 0.035254991953228121 0.49076410715445995 0 0 0 0 -102.65433746059898 -169.50522413027949 0 -169.50522413027949 110.6485174325385 0 0 0 0 -203.07370994464509 -9.0483306547417897 0 -9.0483306547417897 -13.144076331152974 0 0 0 0 -198.35999718031053 108.07825516576358 0 108.07825516576358 -126.86212916665826 0 0 0 0 -12.678988978614143 24.164603843073763 0 24.164603843073763 -89.872150012277871 0 0 0 0 -365.42609785051536 -9.0536244379588098 0 -9.0536244379588098 1.9772384307750812 0 0 0 0 -284.61711802350283 -83.269745655518221 0 -83.269745655518221 70.023125291361026 0 0 0 0 -345.74959461972321 -162.6566880251043 0 -162.6566880251043 4.811617807282289 0 0 0 0 -68.327738659567331 96.950443865610055 0 96.950443865610055 -166.54532428050459 0 0 0 0 -266.26391645965987 114.15600786460898 0 114.15600786460898 -23.553318642531394 0 0 0 0 3.8427581367923267 9.6420586625762326 0 9.6420586625762326 -92.516321826172245 0 0 0 0 -37.026051523134811 84.606348690138475 0 84.606348690138475 -87.431087981937026 0 0 0 0 -149.54864055052167 17.672616167652762 0 17.672616167652762 5.2847839591871093 0 0 0 0 -58.271454510628246 58.15891463293508 0 58.15891463293508 56.082930545314966 0 0 0 0 -21.457605177398364 2.7634843468855195 0 2.7634843468855195 6.7270849591566844 0 0 0 0 -21.805006829761624 54.682348187320656 0 54.682348187320656 -17.825756071529611 0 0 0 0 -26.512713071065264 54.115116683028688 0 54.115116683028688 28.736291625661977 0 0 0 0 -19.234985222210526 48.963198493327354 0 48.963198493327354 -16.07914313180811 0 0 0 0 -4.2995643458380073 1.6010669112926053 0 1.6010669112926053 -32.794830879392521 0 0 0 0 -11.27249684911294 36.286305324948501 0 36.286305324948501 -52.440490771514192 0 0 0 0 -12.779387643982773 23.610433258208218 0 23.610433258208218 -24.754541268247635 0 0 0 0 -13.177918731629688 30.349184975041851 0 30.349184975041851 -9.9077624166458236 0 0 0 0 -8.2043116054774146 10.325231282962818 0 10.325231282962818 -1.2321032419815765 0 0 0 0 -1.9866440291139487 -0.1600304456870667 0 -0.1600304456870667 -0.022466317227947563 0 0 0 0 1.7629295561600884 5.0523645787441183 0 5.0523645787441183 -10.902091468174604 0 0 0 0 -27.871247409610078 18.587221483322175 0 18.587221483322175 -4.6635971489311885 0 0 0 0 -25.428971566983819 39.756316577392845 0 39.756316577392845 -13.54974804682487 0 0 0 0 -23.429944847986008 29.643703768775065 0 29.643703768775065 22.676721580283498 0 0 0 0 -2.6785577050554252 2.5133166506173552 0 2.5133166506173552 -1.3777076973332858 0 0 0 0 -10.876024155000778 1.4765105376533256 0 1.4765105376533256 -0.55779107065609423 0 0 0 0 -7.2829268047416917 4.2962346538793099 0 4.2962346538793099 3.8901171553236509 0 0 0 0 -8.3567331148715311 2.9734579603916131 0 2.9734579603916131 -0.89329838888158974 0 0 0 0 -4.1674764049292889 3.1039797589316009 0 3.1039797589316009 -0.43045559057506677 0 0 0 0 -19.228538043647404 12.381451861110733 0 12.381451861110733 -11.309994520112696 0 0 0 0 -6.8543529545396318 2.1509178919664627 0 2.1509178919664627 -0.41768355093589316 0 0 0 0 -63.782359216551413 -9.9917706436454523 0 -9.9917706436454523 2.6373717346357353 0 0 0 0 -77.5133664835339 -15.141854668296958 0 -15.141854668296958 6.6546558548134271 0 0 0 0 -5.2198917876153246 1.9874437563317855 0 1.9874437563317855 -20.121240151269603 0 0 0 0 -74.103930476216192 -22.079224360677642 0 -22.079224360677642 3.3275459267521228 0 0 0 0 -187.76186087880887 -81.966686761570543 0 -81.966686761570543 -14.926039700897775 0 0 0 0 -2.6326914529509153 0.66656923202295548 0 0.66656923202295548 -0.35597989485007608 0 0 0 0 -287.80354337110384 -172.72779315068917 0 -172.72779315068917 -90.250067355324063 0 0 0 0 -43.634282001707106 -35.128149053554068 0 -35.128149053554068 -42.14460344604484 0 0 0 0 -411.81774875879364 14.555318503972217 0 14.555318503972217 20.927437692204194 0 0 0 0 -331.09665064606816 60.577650130473302 0 60.577650130473302 -41.972785408994696 0 0 0 0 -314.3344260367503 -28.681754586684008 0 -28.681754586684008 37.398813844398774 0 0 0 0 -256.15482585654308 -5.632613898945749 0 -5.632613898945749 37.624193616758987 0 0 0 0 -211.79708391323493 -20.944654467628126 0 -20.944654467628126 38.10036907205108 0 0 0 0 -223.46787906427198 -34.258317354229831 0 -34.258317354229831 65.029224077306509 0 0 0 0 -265.81298763275663 -13.706211886434801 0 -13.706211886434801 91.707916208973586 0 0 0 0 -242.64854649713197 -13.822742819972632 0 -13.822742819972632 85.673174843717163 0 0 0 0 -169.43285652164013 39.987099793583297 0 39.987099793583297 44.366929517223525 0 0 0 0 -244.03807715987023 32.747082331765171 0 32.747082331765171 49.153257102827013 0 0 0 0 -164.31678416405521 -0.9971057414413167 0 -0.9971057414413167 48.60995097750174 0 0 0 0 -203.90605947482527 -10.061660102911503 0 -10.061660102911503 46.62241588006475 0 0 0 0 -34.746770074078086 -20.071735278490166 0 -20.071735278490166 -3.2404404729741714 0 0 0 0 -135.69099160107362 -36.590862074642075 0 -36.590862074642075 7.796088566114264 0 0 0 0 -74.81564284257729 4.6556101525031863 0 4.6556101525031863 9.2418630339403762 0 0 0 0 -90.617003459967236 -4.3441906588503798 0 -4.3441906588503798 11.233111548528186 0 0 0 0 -160.8457819387495 56.985907103272837 0 56.985907103272837 10.684307315697964 0 0 0 0 -149.00193691538334 29.302107269574364 0 29.302107269574364 21.681800326838015 0 0 0 0 -79.364313806672726 31.33570884169859 0 31.33570884169859 14.200848386646044 0 0 0 0 -33.950667144323234 22.42571502386204 0 22.42571502386204 -25.381536303456301 0 0 0 0 -46.826616027999989 14.421591246129708 0 14.421591246129708 -2.9941063622038655 0 0 0 0 -74.329796191052992 9.9246428566077256 0 9.9246428566077256 0.22631473426031334 0 0 0 0 -14.034487743223508 -3.916271075658301 0 -3.916271075658301 -7.3279821374462699 0 0 0 0 19.140490016274271 7.9720181270320154 0 7.9720181270320154 -4.4235962330840266 0 0 0 0 -1.2755325806539624 -0.1874078981633609 0 -0.1874078981633609 -4.2309622558060571 0 0 0 0 -44.556315725334571 4.737387164146071 0 4.737387164146071 6.9200720709143297 0 0 0 0 -8.8372527701903891 7.0038384770572293 0 7.0038384770572293 -13.720747090626446 0 0 0 0 -13.631595121427381 -1.8282031193692774 0 -1.8282031193692774 -9.2895216894523855 0 0 0 0 4.6508257540463092 12.032687197918818 0 12.032687197918818 -10.573999362293193 0 0 0 0 21.243288946934626 6.5655517962758836 0 6.5655517962758836 -18.585786461358566 0 0 0 0 36.559246910590446 10.410023129675437 0 10.410023129675437 -1.1935489833206674 0 0 0 0 1.1899237311754405 -9.9113064187115469 0 -9.9113064187115469 -1.6327156423812994 0 0 0 0 -12.710656821487646 2.7949873370259866 0 2.7949873370259866 -6.2981419329698838 0 0 0 0 -5.1103475626932777 10.650701062569908 0 10.650701062569908 -9.1447199826739052 0 0 0 0 -4.1498309017086683 -2.9742126705054943 0 -2.9742126705054943 -4.5836975470664107 0 0 0 0 -1.5587255615039748 2.3744189609989128 0 2.3744189609989128 -3.2349410068440787 0 0 0 0 -17.662154279452807 -4.7151350125836871 0 -4.7151350125836871 -6.0911199542865688 0 0 0 0 -0.027116114975441974 1.1603776636889336 0 1.1603776636889336 -0.49422859889608084 0 0 0 0 -16.344018773535936 -2.5342035160143723 0 -2.5342035160143723 -1.7613462494609848 0 0 0 0 -16.975537024758523 7.0901360752686742 0 7.0901360752686742 -4.748610139653465 0 0 0 0 -11.753735720231816 -2.8820213392589835 0 -2.8820213392589835 -2.5644410721579334 0 0 0 0 -0.18152104625792731 -0.29659604042094223 0 -0.29659604042094223 -0.49876345504204167 0 0 0 0 -15.515032832305224 -4.5750136675983413 0 -4.5750136675983413 22.400561996694933 0 0 0 0 -16.875676278827086 -2.2475214870611353 0 -2.2475214870611353 18.444654306752682 0 0 0 0 -0.93602850438433105 0.69947616272763824 0 0.69947616272763824 7.1156425794067761 0 0 0 0 -7.9228329218994986 -0.35239765607661866 0 -0.35239765607661866 31.212368226041463 0 0 0 0 -9.701981753563814 -6.8511702169457749 0 -6.8511702169457749 16.561033127130258 0 0 0 0 -5.8401525690563574 -7.3416400551044632 0 -7.3416400551044632 1.8347995308483436 0 0 0 0 -11.459501678797096 -3.8648554400210742 0 -3.8648554400210742 11.491943948270091 0 0 0 0 5.3466111317065952 -12.463059613900327 0 -12.463059613900327 -9.5770930752997856 0 0 0 0 -52.992085438256254 -68.158065471500549 0 -68.158065471500549 -46.141591159797542 0 0 0 0 -0.33890718656205721 -1.8500665776346779 0 -1.8500665776346779 -3.8910782481404125 0 0 0 0 -185.66971962020034 -45.308471214368524 0 -45.308471214368524 -29.227461173014945 0 0 0 0 -177.44081680394811 -9.6603107977793954 0 -9.6603107977793954 59.361927827466616 0 0 0 0 -158.66559190433327 40.514961769336992 0 40.514961769336992 8.1519640358375511 0 0 0 0 -0.44604511452536855 -0.98986332169480118 0 -0.98986332169480118 0.72058253522240912 0 0 0 0 -276.8393715396378 27.906410995748388 0 27.906410995748388 -22.818789838846101 0 0 0 0 -0.53020632422245662 0.35247224025988189 0 0.35247224025988189 -0.12968787915976776 0 0 0 0 12.77274230457806 15.508731096220771 0 15.508731096220771 -13.353287097736143 0 0 0 0 -85.378748779377929 -3.9344691312186058 0 -3.9344691312186058 18.312059307437949 0 0 0 0 -36.712249413718382 -15.645594479912518 0 -15.645594479912518 10.726750949589643 0 0 0 0 -91.41064327404456 -10.32067355305351 0 -10.32067355305351 11.572719145650012 0 0 0 0 -101.10230096471059 10.832131174772712 0 10.832131174772712 6.8435806134906443 0 0 0 0 -227.74725473225476 -20.956759633189854 0 -20.956759633189854 69.733359854459877 0 0 0 0 -143.07883128242429 -33.255322142872274 0 -33.255322142872274 63.042800602646935 0 0 0 0 -244.26226369368669 -64.137673909647674 0 -64.137673909647674 84.49568381847439 0 0 0 0 -135.42824471378026 -52.939879087729821 0 -52.939879087729821 102.36022646731863 0 0 0 0 -71.811427275526512 -9.030090335242221 0 -9.030090335242221 61.004136064053455 0 0 0 0 5.1231769806963712 -68.948458370517983 0 -68.948458370517983 73.031672408756208 0 0 0 0 57.502402425227046 66.916072111411722 0 66.916072111411722 47.155256926065903 0 0 0 0 0.35803420099942151 0.87795391651942722 0 0.87795391651942722 2.3383383603390331 0 0 0 0 -5.7821745450473827 28.939741059980975 0 28.939741059980975 58.147837492696794 0 0 0 0 1.9638250704720122 12.071042777054117 0 12.071042777054117 10.042438957167292 0 0 0 0 -30.853345015188097 71.576469561264105 0 71.576469561264105 162.6015700051488 0 0 0 0 -43.940307270746416 29.764933346677822 0 29.764933346677822 82.784621127241508 0 0 0 0 -55.735484993894715 -0.19510843139497069 0 -0.19510843139497069 91.815022829192344 0 0 0 0 -111.84086691465382 -24.96676294087257 0 -24.96676294087257 99.831209976848754 0 0 0 0 -66.761495789650326 -10.647641206386311 0 -10.647641206386311 183.45664841066741 0 0 0 0 -12.951210878311031 -10.18212990487234 0 -10.18212990487234 7.6866420774042012 0 0 0 0 -46.199968759896365 35.59525243098399 0 35.59525243098399 41.44254332211699 0 0 0 0 -25.995925388095202 0.34120152461908759 0 0.34120152461908759 2.2456308084242096 0 0 0 0 119.09385827816004 -28.198311061891729 0 -28.198311061891729 65.981562543775965 0 0 0 0 45.737185959535054 119.12188011880603 0 119.12188011880603 102.13933675034468 0 0 0 0 -78.258940679896114 -1.5488231072906729 0 -1.5488231072906729 201.13522902794921 0 0 0 0 -14.151289872179404 31.954003091399812 0 31.954003091399812 43.9357513463302 0 0 0 0 -133.42095053000594 -39.943231305155365 0 -39.943231305155365 54.951498734298411 0 0 0 0 -136.76101044102143 -37.020720935209226 0 -37.020720935209226 66.968833801387518 0 0 0 0 -120.88161827921704 -80.748991555449479 0 -80.748991555449479 33.510489150395017 0 0 0 0 -1.9925846011796793 -0.32125345392626059 0 -0.32125345392626059 -0.10072896708776119 0 0 0 0 17.580032407189719 76.691104384697269 0 76.691104384697269 -5.0908308684659538 0 0 0 0 -22.058169068995085 45.456025058172159 0 45.456025058172159 27.21427987213761 0 0 0 0 -44.799995774269064 88.783373301893633 0 88.783373301893633 40.339298629142327 0 0 0 0 -3.9421357381245912 -0.94855489914524593 0 -0.94855489914524593 -0.22591100926118285 0 0 0 0 30.191282683010286 143.30877594690625 0 143.30877594690625 -206.26693487230278 0 0 0 0 -142.37475029143752 265.35435613554262 0 265.35435613554262 -225.0631801344876 0 0 0 0 -128.00597291651039 93.758303182086749 0 93.758303182086749 -46.592721453315164 0 0 0 0 -0.035175241408325064 -0.019355208784123334 0 -0.019355208784123334 -0.31559896849283586 0 0 0 0 -128.86809229276258 145.16685835176048 0 145.16685835176048 -152.81464144400275 0 0 0 0 47.19964126931518 84.211258866160279 0 84.211258866160279 -136.15550570770557 0 0 0 0 28.348970086342888 145.57836125428645 0 145.57836125428645 -177.79366895730823 0 0 0 0 -106.41700871994544 -36.882801050617104 0 -36.882801050617104 -416.34147648201099 0 0 0 0 -42.119388289134804 278.25293684727569 0 278.25293684727569 -219.16027229634557 0 0 0 0 -15.135072230549667 -173.82313036449727 0 -173.82313036449727 -65.8619168431959 0 0 0 0 -205.61829462683249 -252.68834098848464 0 -252.68834098848464 8.7876931921177857 0 0 0 0 -1.6363632664808776 -0.93067931350488298 0 -0.93067931350488298 -0.49819238713572683 0 0 0 0 -165.33003642051062 38.431941676265623 0 38.431941676265623 -2.7832143231613173 0 0 0 0 -56.080223017699609 62.71610478321729 0 62.71610478321729 -121.28428631746176 0 0 0 0 3.4246384524526547 8.3588114457736395 0 8.3588114457736395 9.5225933222104686 0 0 0 0 -19.894139102603731 4.3405091356194703 0 4.3405091356194703 34.997173921247168 0 0 0 0 -8.8027510744040143 -2.19693812871113 0 -2.19693812871113 -0.097645306811768862 0 0 0 0 -16.93963140553933 -10.096777090522835 0 -10.096777090522835 12.125425524131089 0 0 0 0 7.3519398716230171 -5.8637566133172072 0 -5.8637566133172072 -3.4855923662843225 0 0 0 0 -8.0278380435811414 -3.1200858142046286 0 -3.1200858142046286 -30.770849555861815 0 0 0 0 -7.6730884208482166 -9.5230120041554187 0 -9.5230120041554187 -1.1189592396626153 0 0 0 0 6.812741307107899 48.681874328214803 0 48.681874328214803 -88.129779595016998 0 0 0 0 -21.24111141629146 -18.275622779144896 0 -18.275622779144896 -0.060392085881630919 0 0 0 0 6.6281542361357424 26.711015121253013 0 26.711015121253013 2.0309805484460526 0 0 0 0 -390.66927877076159 141.11562199805371 0 141.11562199805371 -102.40579023053607 0 0 0 0 -3.6474763584319803 -0.75083379852721421 0 -0.75083379852721421 -0.4084535202078321 0 0 0 0 -136.59046564643177 149.65593375441202 0 149.65593375441202 -115.98220762215067 0 0 0 0 -117.65189272721909 -117.29705399875127 0 -117.29705399875127 -120.62593496995312 0 0 0 0 -267.76057562818278 123.58499087625506 0 123.58499087625506 18.691649458469556 0 0 0 0 -405.34368318678025 171.27536931650081 0 171.27536931650081 3.9990112389077979 0 0 0 0 -490.43471139141548 40.554916044087918 0 40.554916044087918 93.780926552977178 0 0 0 0 -343.60123105065395 -101.66136250307869 0 -101.66136250307869 74.914093341459193 0 0 0 0 -341.13529352455498 -15.499566723771878 0 -15.499566723771878 114.03729240525911 0 0 0 0 -455.49276419766829 39.223009907764379 0 39.223009907764379 -200.30408478120523 0 0 0 0 -399.22142045654095 -116.09045009167957 0 -116.09045009167957 -42.974638490210509 0 0 0 0 -462.15974953130717 192.13452204701849 0 192.13452204701849 -74.438590579309377 0 0 0 0 -146.95256688465315 -86.914087567550482 0 -86.914087567550482 -34.276142440478793 0 0 0 0 -202.43562198333348 62.186336678298382 0 62.186336678298382 -56.372894842197411 0 0 0 0 -115.50411190421983 -65.782138592891727 0 -65.782138592891727 -22.867442606957241 0 0 0 0 -84.727126194311495 -109.23638027204419 0 -109.23638027204419 -39.231053575965007 0 0 0 0 -124.43849210131543 -120.63951648790284 0 -120.63951648790284 -74.105175492620674 0 0 0 0 -134.70779464597945 -57.402739232548839 0 -57.402739232548839 -60.46277143203244 0 0 0 0 17.516449765127618 -33.624019165854406 0 -33.624019165854406 -101.41835793847684 0 0 0 0 -50.594764594647813 -49.305881914767774 0 -49.305881914767774 -7.087111297298236 0 0 0 0 -48.572313266158744 -75.092634383904667 0 -75.092634383904667 -51.597093384102386 0 0 0 0 -80.047977068483306 -72.65179898337351 0 -72.65179898337351 -20.916924552176795 0 0 0 0 -70.945629393732816 -86.17590283185838 0 -86.17590283185838 -0.99217218422666065 0 0 0 0 -50.288643426264571 -31.543586130203337 0 -31.543586130203337 3.1832219336646403 0 0 0 0 -17.632464636444638 4.3526673783905068 0 4.3526673783905068 10.089754628848709 0 0 0 0 -11.62801120846234 -20.066222203542928 0 -20.066222203542928 -43.934702924382051 0 0 0 0 -116.4682543781073 -9.2774298605543777 0 -9.2774298605543777 -35.892001154431682 0 0 0 0 -179.66516227713691 63.276197786305431 0 63.276197786305431 -110.79342133383875 0 0 0 0 -68.484327243112602 1.8412984742086849 0 1.8412984742086849 -34.175687762167286 0 0 0 0 -131.81486044703342 -48.248528299809294 0 -48.248528299809294 -0.066600893871452627 0 0 0 0 -112.88402952884917 -86.496304065357521 0 -86.496304065357521 -0.95610177827580856 0 0 0 0 -104.39247609629638 -77.685234953103873 0 -77.685234953103873 0.2930397026624405 0 0 0 0 -254.93997159735409 -56.120533946510022 0 -56.120533946510022 0.8655683789963291 0 0 0 0 -126.46889355670282 -131.72706340123554 0 -131.72706340123554 -67.8575935541121 0 0 0 0 40.244233400040685 -30.437037045765237 0 -30.437037045765237 6.4232739936019243 0 0 0 0 0.089673360930078161 0.31567615234876811 0 0.31567615234876811 0.89601506231438854 0 0 0 0 -69.06890990982356 -42.344910074545624 0 -42.344910074545624 15.522114604573773 0 0 0 0 -37.203120105130438 -30.189543447138988 0 -30.189543447138988 -34.175756568721454 0 0 0 0 -24.835139973715741 -87.68577732599897 0 -87.68577732599897 -17.693329471436414 0 0 0 0 -91.952416955318768 -111.20409776028188 0 -111.20409776028188 24.349922552682834 0 0 0 0 -77.506964893120312 -3.9624429434333308 0 -3.9624429434333308 -21.348888956719861 0 0 0 0 -90.558654691885749 8.8536093656197608 0 8.8536093656197608 26.077517111831071 0 0 0 0 -23.198468821428833 -52.157071814074243 0 -52.157071814074243 54.129384824650856 0 0 0 0 -61.338826307759518 -8.742039917160497 0 -8.742039917160497 30.496267737123276 0 0 0 0 -13.429995961970235 -28.116302921572341 0 -28.116302921572341 24.289720565957282 0 0 0 0 -12.67112055841784 -9.1310709551595224 0 -9.1310709551595224 3.6609155600604026 0 0 0 0 -18.487993085858761 -13.254168506537383 0 -13.254168506537383 0.76269445529703717 0 0 0 0 -20.423179088831603 -6.3780232534643346 0 -6.3780232534643346 -2.0687517436124381 0 0 0 0 -18.94218518120897 -6.3925394704332348 0 -6.3925394704332348 15.764043868445015 0 0 0 0 -15.444262599983631 -11.15245498921837 0 -11.15245498921837 2.1977415382170875 0 0 0 0 -3.4169951650363855 -1.207651367971053 0 -1.207651367971053 2.2528733610082194 0 0 0 0 -82.770600276046025 -5.897685221405311 0 -5.897685221405311 48.629678468487214 0 0 0 0 -5.0571797197545436 -2.7767659599446564 0 -2.7767659599446564 -1.1124282541074928 0 0 0 0 -25.832162724453156 8.4504488809985787 0 8.4504488809985787 1.3384516077944681 0 0 0 0 2.6915198008291554 -55.198953006439382 0 -55.198953006439382 -102.75789186037559 0 0 0 0 -344.40989412584531 149.35932892370658 0 149.35932892370658 3.7037574334293595 0 0 0 0 -1.0951001158777842 -1.0210032638546629 0 -1.0210032638546629 -1.2380282432184972 0 0 0 0 -90.888738489245952 -32.967819381444912 0 -32.967819381444912 -27.617061877044307 0 0 0 0 -197.87331129940321 78.458853623609173 0 78.458853623609173 -3.3335244837542177 0 0 0 0 -333.8710411749089 -117.76604712323618 0 -117.76604712323618 -6.0641675661938734 0 0 0 0 -54.485313855779168 122.9899776186673 0 122.9899776186673 126.13689373820787 0 0 0 0 -13.50663766733669 -6.8952837889729608 0 -6.8952837889729608 -14.700551391674509 0 0 0 0 -0.73003475121493011 -0.098552775913432811 0 -0.098552775913432811 1.0135728004182116 0 0 0 0 -99.220403765501032 -22.036367263251293 0 -22.036367263251293 -15.59271680621714 0 0 0 0 -373.46974497537667 -69.200765415041815 0 -69.200765415041815 58.468457702740977 0 0 0 0 -117.14850570437284 -81.649015073635525 0 -81.649015073635525 -213.51181328281064 0 0 0 0 -120.90778527221482 -8.0031251562688794 0 -8.0031251562688794 19.751230602319254 0 0 0 0 -273.35570938931232 119.72871312492475 0 119.72871312492475 95.710225714398916 0 0 0 0 -251.01442962252804 123.06741251950228 0 123.06741251950228 -33.662182921915189 0 0 0 0 -230.45931049548062 187.58589699856878 0 187.58589699856878 -169.68189382199552 0 0 0 0 -465.25913342706838 372.95800308089019 0 372.95800308089019 -164.25130200775482 0 0 0 0 -4.1883363239127789 -2.524828483891719 0 -2.524828483891719 -1.8737211713900415 0 0 0 0 -524.14208154621156 -2.6823717220831895 0 -2.6823717220831895 -32.5218667259889 0 0 0 0 -72.565836136877465 105.11706620697747 0 105.11706620697747 -129.22531333768654 0 0 0 0 0.38873446948230139 0.24081089559924607 0 0.24081089559924607 0.23632178626731037 0 0 0 0 -95.884747098956154 -158.30105815233358 0 -158.30105815233358 -18.277697822837922 0 0 0 0 -100.98205822315595 48.931758286510373 0 48.931758286510373 -14.667991455664719 0 0 0 0 -44.505425615216154 11.018243632046563 0 11.018243632046563 2.9310012297180208 0 0 0 0 -20.985156442111474 -1.226298720845989 0 -1.226298720845989 9.8668980443152918 0 0 0 0 -50.429938063975897 16.690443284406086 0 16.690443284406086 2.2635025194046534 0 0 0 0 -26.955413472258442 2.2538677723251794 0 2.2538677723251794 9.7899309410418027 0 0 0 0 -10.25380602070436 2.3424551702300391 0 2.3424551702300391 9.629046195586966 0 0 0 0 -27.51641916177141 -0.096280904599211681 0 -0.096280904599211681 12.950156992830273 0 0 0 0 -29.421790541966402 -12.004395830528779 0 -12.004395830528779 8.3869262517785046 0 0 0 0 -21.317762932925689 9.4836362696344167 0 9.4836362696344167 21.397261563258098 0 0 0 0 -7.0450580180331599 -4.3128501275934923 0 -4.3128501275934923 0.38398362557700239 0 0 0 0 -22.509614199980206 -4.8316070396610371 0 -4.8316070396610371 14.243199546629057 0 0 0 0 -15.160319500428443 -0.92135013577167157 0 -0.92135013577167157 4.80508333909843 0 0 0 0 -26.53969102195515 1.3249200820622491 0 1.3249200820622491 15.911756405394499 0 0 0 0 -25.919144326826199 11.300007921933606 0 11.300007921933606 12.102925675508459 0 0 0 0 -1.0768611559765198 2.2876399374542498 0 2.2876399374542498 3.6604050663708394 0 0 0 0 -20.424215339484363 12.024432512089135 0 12.024432512089135 12.171874272275886 0 0 0 0 -14.586698462156185 -1.669784194917888 0 -1.669784194917888 4.6480675749796276 0 0 0 0 -322.52688716925331 128.40381647372288 0 128.40381647372288 -55.078558598339043 0 0 0 0 -281.17537782893487 103.83526214187378 0 103.83526214187378 -39.334659028820653 0 0 0 0 -300.52737579474251 154.80601374719225 0 154.80601374719225 -53.786737950421639 0 0 0 0 -90.405900567260687 212.95461863812778 0 212.95461863812778 -136.63656027230354 0 0 0 0 -1.343170140025947 -0.86325738175654898 0 -0.86325738175654898 0.44492833446166957 0 0 0 0 -47.297370030450111 -7.600057679354677 0 -7.600057679354677 10.805227202174194 0 0 0 0 -11.641977587031761 -20.360111069439995 0 -20.360111069439995 13.323565487661199 0 0 0 0 -7.0969835422159626 -4.6659919371554572 0 -4.6659919371554572 -2.1163323280317696 0 0 0 0 -238.30436045752504 133.50142393028784 0 133.50142393028784 -112.2805290209922 0 0 0 0 -569.24615685450044 275.08654647127833 0 275.08654647127833 -121.34043806303491 0 0 0 0 -328.66786337906888 73.767858760489275 0 73.767858760489275 -38.182147084429516 0 0 0 0 -201.86932875057755 81.195265850577243 0 81.195265850577243 -88.380791548945723 0 0 0 0 -172.24323812763032 -4.7515577728960352 0 -4.7515577728960352 -40.543922953003403 0 0 0 0 -151.19297197644846 -18.88425118520081 0 -18.88425118520081 -72.194895247241391 0 0 0 0 -158.84745798590302 -28.060800112504523 0 -28.060800112504523 45.724033886348707 0 0 0 0 -107.65576810666607 -79.046796476823857 0 -79.046796476823857 -4.0875741696784686 0 0 0 0 -20.945741181945777 43.069298545802837 0 43.069298545802837 -60.379282405631713 0 0 0 0 -240.99773972966796 133.69693940144887 0 133.69693940144887 -34.969385392520024 0 0 0 0 -243.82868879026501 117.17681029983623 0 117.17681029983623 -77.769644265676931 0 0 0 0 -8.3326905718057489 -10.30173628873489 0 -10.30173628873489 -15.058444445160962 0 0 0 0 -12.52683692593564 -6.3134098730956794 0 -6.3134098730956794 -11.775631960756094 0 0 0 0 0.69609931607661579 -1.7189443488412071 0 -1.7189443488412071 -5.3971755460520043 0 0 0 0 -2.3500851888165926 -3.0533723723183357 0 -3.0533723723183357 -11.735870442570558 0 0 0 0 -49.72032778445282 -5.4667367634915536 0 -5.4667367634915536 33.517291301764089 0 0 0 0 -15.516916711369966 -11.256560233596799 0 -11.256560233596799 -7.667972856244873 0 0 0 0 -9.9271161985185152 -3.3790280124410081 0 -3.3790280124410081 -3.7364116369978326 0 0 0 0 -2.9336449015972903 -4.9259426841476852 0 -4.9259426841476852 1.6112787723377551 0 0 0 0 -3.0096705859273385 -3.2998611906352657 0 -3.2998611906352657 0.28995746279415746 0 0 0 0 22.840753478943952 -136.11262388077785 0 -136.11262388077785 161.19437050015404 0 0 0 0 185.89243909027573 -99.542020437727615 0 -99.542020437727615 29.117661094773666 0 0 0 0 66.649478724386427 -66.99035224960835 0 -66.99035224960835 70.365252474468775 0 0 0 0 24.194100022980933 -60.692102656939127 0 -60.692102656939127 69.970506795188157 0 0 0 0 -12.293485630575343 -9.9531277802581286 0 -9.9531277802581286 -6.6414273980041081 0 0 0 0 53.235354984743026 -21.35297186239552 0 -21.35297186239552 -33.726678494947464 0 0 0 0 68.431465778663551 -13.93568768741477 0 -13.93568768741477 -82.921541278562927 0 0 0 0 41.719172339282522 -24.35781634249247 0 -24.35781634249247 -25.723172195086136 0 0 0 0 73.302395466768758 -16.801394978595766 0 -16.801394978595766 -30.004039426079544 0 0 0 0 54.658088188043621 20.405227321960638 0 20.405227321960638 -68.397790300810698 0 0 0 0 -52.74584682042223 23.564971546804827 0 23.564971546804827 -137.34475994807462 0 0 0 0 -54.949078371566429 32.399298774170575 0 32.399298774170575 -52.265826254625722 0 0 0 0 -60.669388814458216 19.258724571078233 0 19.258724571078233 -46.619795349827086 0 0 0 0 -55.426827511466399 -6.553989915019315 0 -6.553989915019315 17.804402177001293 0 0 0 0 81.272213217011085 73.603724374069202 0 73.603724374069202 43.838684002753325 0 0 0 0 256.96840827817505 -40.277974058523796 0 -40.277974058523796 37.389883061001001 0 0 0 0 -16.433342679426833 -12.284926812177691 0 -12.284926812177691 -8.7512819777772073 0 0 0 0 -20.489990279953872 -28.284842522792616 0 -28.284842522792616 8.3680038491393134 0 0 0 0 -10.191420536762053 -9.5799561186796609 0 -9.5799561186796609 -2.6375427118164225 0 0 0 0 -4.4591055954245231 -0.85449163959067498 0 -0.85449163959067498 0.93875275616279197 0 0 0 0 -11.834878492902135 8.5363892579489402 0 8.5363892579489402 5.6213246026986781 0 0 0 0 -6.6635571273485752 -0.22800591416930516 0 -0.22800591416930516 -0.83044711074046607 0 0 0 0 -12.934228930753306 -7.7156265538180833 0 -7.7156265538180833 -13.448002601827966 0 0 0 0 -16.414075992231574 -3.594461286281728 0 -3.594461286281728 9.5903871180971692 0 0 0 0 -23.734081509972384 -5.1073580888976267 0 -5.1073580888976267 16.096036249431108 0 0 0 0 -18.084481517735639 -6.8022292771092907 0 -6.8022292771092907 7.7962097222048214 0 0 0 0 -31.686860787352998 -11.37068360407909 0 -11.37068360407909 11.965753012622372 0 0 0 0 -30.997426986293476 -7.8419148112047026 0 -7.8419148112047026 26.505021175534239 0 0 0 0 -25.629289491428608 5.4029909563683987 0 5.4029909563683987 -18.332543643391659 0 0 0 0 -28.503373238851964 2.3392902818529819 0 2.3392902818529819 14.687154625677721 0 0 0 0 -19.584952906218859 -4.2134057781875072 0 -4.2134057781875072 -12.719966206479739 0 0 0 0 -252.51358694454575 108.76225738888138 0 108.76225738888138 -37.703983960986911 0 0 0 0 -11.979113488161161 -7.7393931942573904 0 -7.7393931942573904 -4.5421502097567927 0 0 0 0 -1.5784352728707063 -58.786495091195498 0 -58.786495091195498 64.71353169473241 0 0 0 0 -8.3293659678965923 -14.612324505835204 0 -14.612324505835204 22.94878711853994 0 0 0 0 -43.799895805619599 18.441297714620191 0 18.441297714620191 33.63280799734622 0 0 0 0 -46.896657757655703 -23.955091203025518 0 -23.955091203025518 75.782300517567677 0 0 0 0 -49.800107130573451 52.913820713532694 0 52.913820713532694 -11.971416008841516 0 0 0 0 -193.67629332127717 -62.962278495728825 0 -62.962278495728825 22.888868679336895 0 0 0 0 -101.33643058776397 -112.46178154414594 0 -112.46178154414594 -84.963709662813045 0 0 0 0 -5.7494748271947174 -23.037766998150801 0 -23.037766998150801 -144.30525771920099 0 0 0 0 -27.175122452139476 -4.9985854898244497 0 -4.9985854898244497 -16.714950791828869 0 0 0 0 -22.49186271232702 -11.050321712948225 0 -11.050321712948225 -4.1248891712587294 0 0 0 0 -25.105742846963949 -17.426975300268651 0 -17.426975300268651 -17.149919578980814 0 0 0 0 -45.701691548591043 -49.608973218293215 0 -49.608973218293215 -21.00525795975706 0 0 0 0 -20.701980982469649 -13.952781109075261 0 -13.952781109075261 -44.512647240281957 0 0 0 0 -38.024562760334447 -30.717855270979371 0 -30.717855270979371 1.2221039503169777 0 0 0 0 -37.463326331644566 -28.043202568197728 0 -28.043202568197728 13.909106497900893 0 0 0 0 -35.013387114397119 -21.993324181573534 0 -21.993324181573534 -13.51029168745427 0 0 0 0 -49.761757615317038 -28.245469401602577 0 -28.245469401602577 43.27524595935779 0 0 0 0 -40.333849031348109 -23.631222393867859 0 -23.631222393867859 13.151186393219859 0 0 0 0 -56.299084893630607 -43.781552091987407 0 -43.781552091987407 11.515434990927702 0 0 0 0 -65.498552259812641 -34.995872010021117 0 -34.995872010021117 47.299661672052082 0 0 0 0 -66.341793657715243 -37.291674577523111 0 -37.291674577523111 49.145248136561179 0 0 0 0 -83.028329599570498 -27.683804208338188 0 -27.683804208338188 67.002347324002699 0 0 0 0 -90.641176088653083 -1.3547921641046514 0 -1.3547921641046514 116.42260683567747 0 0 0 0 -71.648614639239895 -17.699046827840789 0 -17.699046827840789 67.004255012127373 0 0 0 0 -103.89370265876641 -39.570143773268342 0 -39.570143773268342 69.123086161856378 0 0 0 0 -85.141324857559084 -37.321094336908274 0 -37.321094336908274 28.127628379540795 0 0 0 0 -83.234963483104821 -65.005852133860472 0 -65.005852133860472 6.2694268984466817 0 0 0 0 -46.137794212890185 -47.754284616203449 0 -47.754284616203449 -9.1153208722001295 0 0 0 0 -3.2460055193166681 -13.473837836653759 0 -13.473837836653759 39.773964477922057 0 0 0 0 -3.4686633232981876 -12.043032920732884 0 -12.043032920732884 33.454495719444935 0 0 0 0 3.6602812006785825 -11.329306642110323 0 -11.329306642110323 37.237195981071515 0 0 0 0 -8.7656500018692896 -18.983316582614577 0 -18.983316582614577 51.146971881058334 0 0 0 0 -14.831484581961831 -31.76600417208931 0 -31.76600417208931 25.981135809383431 0 0 0 0 -43.311741623185981 -32.356142297527398 0 -32.356142297527398 34.160447497422524 0 0 0 0 -45.899657766492965 -16.107641588687954 0 -16.107641588687954 24.681653989159656 0 0 0 0 -0.16677658667054018 -0.72847634449767984 0 -0.72847634449767984 -0.13718897524478577 0 0 0 0 -23.086626543405146 -35.056885280932619 0 -35.056885280932619 6.6419517126078915 0 0 0 0 -17.998299353960647 13.940717855384037 0 13.940717855384037 16.082900455239894 0 0 0 0 -32.28855394823313 -11.771426116286818 0 -11.771426116286818 -1.3889047727763 0 0 0 0 -20.10628870190348 5.115189959316556 0 5.115189959316556 7.6978386110707788 0 0 0 0 5.0903057367413567 2.8758224282295828 0 2.8758224282295828 -1.5080264515959243 0 0 0 0 5.023378896403301 2.4245278643761736 0 2.4245278643761736 -4.3672551619891919 0 0 0 0 -0.63433898761840624 -0.85925000347790048 0 -0.85925000347790048 -0.1108520081342137 0 0 0 0 2.3061756537799738 22.983830564750519 0 22.983830564750519 37.431910649296725 0 0 0 0 0.73552006450790941 -3.5906550408831208 0 -3.5906550408831208 -1.0834965753681445 0 0 0 0 -1.174522152325153 4.9714297947887189 0 4.9714297947887189 16.178198679947855 0 0 0 0 -30.000763838634157 -53.68214796323673 0 -53.68214796323673 -62.155510167202465 0 0 0 0 -3.6980951225616323 0.067493464004176218 0 0.067493464004176218 0.6043294812204647 0 0 0 0 -33.411763391189652 -46.617467374183946 0 -46.617467374183946 -67.093250870863812 0 0 0 0 -9.2844022070780738 -0.44614464932408282 0 -0.44614464932408282 7.2351610722947726 0 0 0 0 -8.0043938803864876 7.8302322573467791 0 7.8302322573467791 12.194417585277961 0 0 0 0 -1.208109684766896 7.4049385453939749 0 7.4049385453939749 0.30694082382325405 0 0 0 0 -4.7979193117824153 0.63429916399341302 0 0.63429916399341302 0.74220176583745356 0 0 0 0 -30.769933455120736 -25.793532272533866 0 -25.793532272533866 -23.830367473429988 0 0 0 0 -30.060287292418252 -37.598891141516873 0 -37.598891141516873 -17.707284523047747 0 0 0 0 -35.203707169986956 -29.792959232913518 0 -29.792959232913518 -26.380356459490486 0 0 0 0 -19.465282191176811 -4.0883092247545392 0 -4.0883092247545392 -8.8693168275553944 0 0 0 0 -11.815777661257016 -1.0153577317628333 0 -1.0153577317628333 -7.6432213171083276 0 0 0 0 -52.899130361901371 -88.147403655721519 0 -88.147403655721519 -14.501645989826329 0 0 0 0 -30.448176890132402 -30.678867561882342 0 -30.678867561882342 -33.812998416408391 0 0 0 0 -31.834633925414323 -24.044806185545298 0 -24.044806185545298 -26.852346598134318 0 0 0 0 -55.970445788248071 -31.846227799115468 0 -31.846227799115468 -25.467527488759742 0 0 0 0 -33.610264883817038 5.2103820139857753 0 5.2103820139857753 7.988857177409729 0 0 0 0 -56.68415368258951 -29.719465241287452 0 -29.719465241287452 33.903168627088689 0 0 0 0 29.754543655248199 45.879606503586118 0 45.879606503586118 5.9226386434852998 0 0 0 0 -10.375885769541128 16.982626012852478 0 16.982626012852478 36.343581508991917 0 0 0 0 -1.803606894081895 72.817842481421778 0 72.817842481421778 51.896084168795426 0 0 0 0 -22.119465592666529 -32.53164888081028 0 -32.53164888081028 -26.561119733533417 0 0 0 0 -28.511754926244343 2.5650069092794308 0 2.5650069092794308 9.7735278684517493 0 0 0 0 -0.66386872960605103 0.28102583531621006 0 0.28102583531621006 -0.055328597476694302 0 0 0 0 -8.2202201634099765 1.1634689240447358 0 1.1634689240447358 74.863824436623986 0 0 0 0 6.2121786708767104 37.11285012327307 0 37.11285012327307 -31.744740434415007 0 0 0 0 15.150901241315296 27.397274237093711 0 27.397274237093711 -88.440116182626412 0 0 0 0 -0.20004935858272432 0.47603662173220407 0 0.47603662173220407 0.040754401476547034 0 0 0 0 -10.383497162092681 6.2034981769219257 0 6.2034981769219257 6.2215318727125686 0 0 0 0 -1.2329145180073198 0.84684555385667082 0 0.84684555385667082 -0.41168719469478698 0 0 0 0 -5.5643013818771578 25.595086727284695 0 25.595086727284695 79.738096422737982 0 0 0 0 4.0711666408714109 4.6969161099688943 0 4.6969161099688943 60.41068903267427 0 0 0 0 3.304859894216861 14.097059963258999 0 14.097059963258999 44.54987548730179 0 0 0 0 10.639670333604954 8.2215260146193998 0 8.2215260146193998 18.669053599118683 0 0 0 0 -21.470387850251427 77.323310614825175 0 77.323310614825175 -71.759441869148418 0 0 0 0 -23.42285457680191 -32.834251688777158 0 -32.834251688777158 28.591533823741713 0 0 0 0 -19.231764767733694 40.653043214927322 0 40.653043214927322 52.906939475166546 0 0 0 0 -67.806787543824612 121.42765155848491 0 121.42765155848491 -70.117152714291478 0 0 0 0 42.751509436504421 34.460070199208758 0 34.460070199208758 -1.7183772484443125 0 0 0 0 0.13572625203745048 0.55791210372556677 0 0.55791210372556677 -0.7648705527665145 0 0 0 0 -51.533372404997863 7.0350712443583348 0 7.0350712443583348 21.764191967239839 0 0 0 0 -0.44583256718619424 0.54910935950883832 0 0.54910935950883832 -0.40414728046610005 0 0 0 0 -2.9109096427127952 -9.1898316863429841 0 -9.1898316863429841 41.18539749995 0 0 0 0 -23.642558110950631 27.816406616481814 0 27.816406616481814 40.534232419407942 0 0 0 0 -10.492726120819498 31.777024581088611 0 31.777024581088611 -0.80963960871645213 0 0 0 0 -4.282876729437703 5.367002494504078 0 5.367002494504078 25.181667093076669 0 0 0 0 -30.546800864027318 16.953147504904663 0 16.953147504904663 57.680583935219687 0 0 0 0 -1.4834967439473914 3.1430279213086991 0 3.1430279213086991 2.5676957588893838 0 0 0 0 -168.24379580173263 58.691149420838428 0 58.691149420838428 -76.029141224580599 0 0 0 0 -24.318092468914678 -2.6050488055462964 0 -2.6050488055462964 9.4961274981023127 0 0 0 0 71.1527489260734 -97.114093259879155 0 -97.114093259879155 -75.746032609795293 0 0 0 0 66.192679862371733 -14.994697293061108 0 -14.994697293061108 -147.53232744931734 0 0 0 0 2.5599052032703185 -4.1662763701982897 0 -4.1662763701982897 39.84280545960894 0 0 0 0 -5.4549926069012145 34.261687012319143 0 34.261687012319143 20.409941155076982 0 0 0 0 -86.236525509551029 -83.233499188401083 0 -83.233499188401083 2.6863842355833185 0 0 0 0 -15.596336836470073 -46.231198590831809 0 -46.231198590831809 -18.847692860270968 0 0 0 0 -106.23652449887845 6.1370375693990695 0 6.1370375693990695 1.1204340534177391 0 0 0 0 0.038030757404719395 -0.65904912102062063 0 -0.65904912102062063 -1.3446676194738423 0 0 0 0 -2.453873890444811 57.7380615727443 0 57.7380615727443 -133.16177978329324 0 0 0 0 24.658989961713814 5.3700934543498988 0 5.3700934543498988 -33.768005512493801 0 0 0 0 51.65118868142963 -49.673061871702771 0 -49.673061871702771 -61.390436554128428 0 0 0 0 -16.460192595438912 -19.001205097174875 0 -19.001205097174875 7.6110784536904248 0 0 0 0 28.394904911649064 -23.769316927913451 0 -23.769316927913451 -72.75155220229999 0 0 0 0 6.3292529733080301 -43.744494128820065 0 -43.744494128820065 10.358031763395957 0 0 0 0 -54.589267395196657 39.630383365613852 0 39.630383365613852 -83.685069588920754 0 0 0 0 -90.263562510015618 117.2677733353072 0 117.2677733353072 -129.02557317201172 0 0 0 0 -59.423220064747511 31.891811155109167 0 31.891811155109167 -95.521254969322399 0 0 0 0 -46.897589094460272 70.040633871543719 0 70.040633871543719 -92.165281009672753 0 0 0 0 -65.752292799530551 71.215748589806481 0 71.215748589806481 -25.498892345286549 0 0 0 0 -107.98950460844935 117.45508336119769 0 117.45508336119769 -81.759588630545124 0 0 0 0 -76.945154558125068 114.0807425352632 0 114.0807425352632 -116.00986701355509 0 0 0 0 -103.59142050644914 117.66818593026198 0 117.66818593026198 -112.24621121785594 0 0 0 0 -138.27286146263577 125.93262497992873 0 125.93262497992873 -94.914257660133217 0 0 0 0 -127.54085058773489 129.80079443644013 0 129.80079443644013 -105.65179574618617 0 0 0 0 -116.53692540687371 111.11914773447654 0 111.11914773447654 -79.669560268441273 0 0 0 0 -127.32663109701389 87.06789735822997 0 87.06789735822997 -120.08077241750885 0 0 0 0 39.04328753716436 -46.818992713626358 0 -46.818992713626358 -59.468694236875308 0 0 0 0 -160.48385004590091 122.5556310727701 0 122.5556310727701 -122.42373036281484 0 0 0 0 4.6271690619250876 8.4887774102302842 0 8.4887774102302842 -60.177321037279853 0 0 0 0 -0.007311203524423604 -3.8986562716197133 0 -3.8986562716197133 -4.2793045485311092 0 0 0 0 -7.1788288884481286 -12.636931721869228 0 -12.636931721869228 -20.087508977278233 0 0 0 0 -23.616542481311946 -10.933295467488618 0 -10.933295467488618 -0.1780778336822833 0 0 0 0 4.9090370949925273 -83.255740407175836 0 -83.255740407175836 86.795669232016166 0 0 0 0 33.818254355559475 -51.565551252346268 0 -51.565551252346268 12.876066612236173 0 0 0 0 -161.64896380830578 8.8079158631935002 0 8.8079158631935002 34.675189265509516 0 0 0 0 22.688547663545251 -25.569588056251575 0 -25.569588056251575 -83.48316994615152 0 0 0 0 -2.0282561002765362 -1.3418338388697926 0 -1.3418338388697926 -1.3999878503394383 0 0 0 0 -174.65786170595675 13.786390647243138 0 13.786390647243138 -255.24932066775034 0 0 0 0 -199.52217960057533 176.1246948589237 0 176.1246948589237 -208.80303340368852 0 0 0 0 -431.03133177572181 -19.581624422133785 0 -19.581624422133785 -89.461140798647193 0 0 0 0 -138.33707231695371 94.154672952422288 0 94.154672952422288 -108.13870655577148 0 0 0 0 -142.62331879605335 105.78116075493767 0 105.78116075493767 -123.03834735724718 0 0 0 0 -143.49270542661179 113.81171141766242 0 113.81171141766242 -63.665422918340255 0 0 0 0 -176.57440303605836 149.50979656395407 0 149.50979656395407 -101.29400475550955 0 0 0 0 -214.75078259522343 60.318408723625112 0 60.318408723625112 -18.518494887701308 0 0 0 0 -338.14841914571116 136.77728299590882 0 136.77728299590882 -65.84382384367359 0 0 0 0 -294.21641745248098 -46.545301313205869 0 -46.545301313205869 -20.100851666659082 0 0 0 0 -105.32959297636444 -47.882375201766308 0 -47.882375201766308 -36.593917525390225 0 0 0 0 -102.56841587308736 -31.414631147648208 0 -31.414631147648208 32.761565983267474 0 0 0 0 -184.08647935749832 -6.3455952770110002 0 -6.3455952770110002 9.214591667136574 0 0 0 0 -121.75783344091542 -0.97145911334763468 0 -0.97145911334763468 30.684898178256844 0 0 0 0 -89.321769620954001 -9.7490450402818851 0 -9.7490450402818851 6.3730933436190185 0 0 0 0 -106.95860602500761 38.108515284795089 0 38.108515284795089 -9.5284427300248353 0 0 0 0 -135.67785305064535 35.769255917290252 0 35.769255917290252 -7.0553373541885094 0 0 0 0 -150.02849393289944 56.585904741502077 0 56.585904741502077 -28.80372204266564 0 0 0 0 -151.11858434022179 90.988126660007964 0 90.988126660007964 -30.161749332676209 0 0 0 0 -118.65261302570434 91.563418782779308 0 91.563418782779308 -60.055669163821165 0 0 0 0 -104.49439939813237 47.70252688887399 0 47.70252688887399 -12.503884829882395 0 0 0 0 -101.54620944509952 58.754032288243302 0 58.754032288243302 3.6846844170652275 0 0 0 0 -75.796200932152715 13.840645544094968 0 13.840645544094968 32.655841875007127 0 0 0 0 -75.080765183087351 36.930247059288433 0 36.930247059288433 71.454574961862932 0 0 0 0 -59.621820513755665 -13.26928057141663 0 -13.26928057141663 64.723557016122129 0 0 0 0 -95.390449629496288 20.235387370772912 0 20.235387370772912 47.526086023557241 0 0 0 0 -93.257919498051251 9.4701731045079498 0 9.4701731045079498 23.133934018618447 0 0 0 0 -64.535023489832383 -13.875867544948505 0 -13.875867544948505 31.243770838147157 0 0 0 0 -71.005488738788699 -3.1965183126131365 0 -3.1965183126131365 90.789549142407054 0 0 0 0 -24.309066303683721 -37.123414330643755 0 -37.123414330643755 64.941289375788529 0 0 0 0 -66.863728582582553 -43.396930541678785 0 -43.396930541678785 115.68259811703433 0 0 0 0 -53.351976456830016 -34.702680256756594 0 -34.702680256756594 32.313970224045761 0 0 0 0 -82.971407993347384 -22.505530896084792 0 -22.505530896084792 70.338482623939512 0 0 0 0 -166.9462854842277 108.84922450826554 0 108.84922450826554 -44.828645131885423 0 0 0 0 -167.28232897502312 105.96093579227613 0 105.96093579227613 -63.225857038574304 0 0 0 0 -4.5885151137504785 -1.1598467366643881 0 -1.1598467366643881 -0.18337819087990059 0 0 0 0 -7.5495792169240303 12.526293549391113 0 12.526293549391113 14.558759269816047 0 0 0 0 -153.93089022133609 103.19084000632711 0 103.19084000632711 -69.971351884141086 0 0 0 0 -178.58556955815584 102.16423514040753 0 102.16423514040753 -71.567856712959838 0 0 0 0 -133.89053746355785 110.08511394334641 0 110.08511394334641 -70.618939833063678 0 0 0 0 -126.70658339953661 111.19141943135742 0 111.19141943135742 -78.825099018595779 0 0 0 0 -107.95220160984536 94.151765861138983 0 94.151765861138983 -49.673395670876516 0 0 0 0 -131.85372127473966 87.834368501204835 0 87.834368501204835 -50.421336092575757 0 0 0 0 -108.71446761789684 101.23686853750904 0 101.23686853750904 -64.8242024282481 0 0 0 0 -94.29449163719255 50.099752505297033 0 50.099752505297033 -11.958088734392106 0 0 0 0 -93.621202414303298 62.404945233000504 0 62.404945233000504 9.2584080223675755 0 0 0 0 -58.517091616275138 41.956219760117619 0 41.956219760117619 -41.442281947478421 0 0 0 0 -158.45753159898959 148.63955716643352 0 148.63955716643352 -90.954088391691187 0 0 0 0 -110.15378412994323 46.715355147206481 0 46.715355147206481 -0.3241794029893299 0 0 0 0 -309.54815732289171 159.39802560453006 0 159.39802560453006 -38.602114321317686 0 0 0 0 -109.96986519137135 11.364831993254143 0 11.364831993254143 79.778733435016818 0 0 0 0 -109.50134649661777 81.670189465586702 0 81.670189465586702 25.879004547410773 0 0 0 0 -42.35148957625097 48.528729775682393 0 48.528729775682393 -11.111830044398118 0 0 0 0 -35.344123634720745 -21.997289779445737 0 -21.997289779445737 48.121606976824467 0 0 0 0 -1.9156419618567924 0.65571740084083885 0 0.65571740084083885 1.1664148914523698 0 0 0 0 -82.693663091358758 -58.835470566069716 0 -58.835470566069716 3.3208014236593044 0 0 0 0 -79.731655761199363 59.262232978662723 0 59.262232978662723 -43.527612207024049 0 0 0 0 65.47601266586571 43.530957712896338 0 43.530957712896338 -76.313193999908663 0 0 0 0 -60.147016672882387 1.6460625535540094 0 1.6460625535540094 2.6740350428012412 0 0 0 0 -66.853377646599256 -63.009640070720593 0 -63.009640070720593 146.11928393132837 0 0 0 0 -77.435387758581783 12.588996082612539 0 12.588996082612539 -15.496691582805624 0 0 0 0 -12.260802088661194 18.246473759266877 0 18.246473759266877 -54.428514893738338 0 0 0 0 -30.368496976683673 -71.881594250287549 0 -71.881594250287549 111.99944502305675 0 0 0 0 22.852366079356216 -4.6688734477666287 0 -4.6688734477666287 89.550485215877529 0 0 0 0 -15.777995867523714 -32.624869630984222 0 -32.624869630984222 -78.842364771739312 0 0 0 0 -103.23833318281686 6.8036407722929653 0 6.8036407722929653 -5.2816968981205719 0 0 0 0 -90.085135289238679 -3.3589246099991215 0 -3.3589246099991215 172.30583170123734 0 0 0 0 -80.891237294732491 -36.195976169195831 0 -36.195976169195831 125.41389344222591 0 0 0 0 -52.707878144953753 2.6146911865406071 0 2.6146911865406071 3.1484950970935635 0 0 0 0 -137.03612767856248 6.7358459099177708 0 6.7358459099177708 -12.505961292057691 0 0 0 0 -102.78732013062836 17.156871980434062 0 17.156871980434062 -12.121715792954774 0 0 0 0 -110.06788198935101 -34.259344720501645 0 -34.259344720501645 -49.169968503192649 0 0 0 0 -45.002284686277562 -10.925996210489984 0 -10.925996210489984 -42.634824831451169 0 0 0 0 -44.374765563683468 -7.8283070213118435 0 -7.8283070213118435 -27.684255889196947 0 0 0 0 -45.639013170170074 11.76352859219196 0 11.76352859219196 -55.106341777586749 0 0 0 0 -31.856401846367021 -13.39470007252395 0 -13.39470007252395 -9.5468091848757695 0 0 0 0 -33.918545244061534 -2.4720438189319793 0 -2.4720438189319793 -25.45725923883947 0 0 0 0 -63.520605734640412 -2.5296282902239504 0 -2.5296282902239504 1.3501634996275982 0 0 0 0 -32.997737677003897 17.893000835727378 0 17.893000835727378 13.194308168748307 0 0 0 0 -45.34766439039231 13.642152672295794 0 13.642152672295794 -11.961217637094952 0 0 0 0 -75.280468304041278 31.784958531747463 0 31.784958531747463 7.6825451208605955 0 0 0 0 -37.293836957021995 15.888451208829906 0 15.888451208829906 13.689291701808997 0 0 0 0 -33.781547132257401 19.447356667084705 0 19.447356667084705 12.566939963485311 0 0 0 0 -43.05286406007508 15.885288931174273 0 15.885288931174273 15.213272233447697 0 0 0 0 -51.842302901284711 7.4739174179844099 0 7.4739174179844099 -10.091129631633294 0 0 0 0 -12.300106226113712 -26.64957093308476 0 -26.64957093308476 43.136822542558093 0 0 0 0 -1.0496090582045667 -0.28665467169327741 0 -0.28665467169327741 1.3608827964861727 0 0 0 0 -17.862106125587161 9.9877139240441579 0 9.9877139240441579 -4.9234248050942142 0 0 0 0 -2.624566535580513 0.7616052289709998 0 0.7616052289709998 1.4895178454367319 0 0 0 0 -33.592468110357004 37.300814970152771 0 37.300814970152771 -37.850044929400525 0 0 0 0 -51.504920752900944 27.088054600549583 0 27.088054600549583 0.68664433485133713 0 0 0 0 -49.23437742835813 16.185672584103656 0 16.185672584103656 15.446299429111292 0 0 0 0 -13.990174895663586 15.294998198552449 0 15.294998198552449 -13.439627045089424 0 0 0 0 -57.867795372600085 9.9419182089616243 0 9.9419182089616243 10.346370818206651 0 0 0 0 -48.337691282336891 21.436561868836975 0 21.436561868836975 17.225054248418928 0 0 0 0 -29.044341994012939 13.142796655550342 0 13.142796655550342 8.1731296387380326 0 0 0 0 -29.378652337098629 10.667591374087856 0 10.667591374087856 4.8260064492629908 0 0 0 0 -3.9471837704986683 0.55677840186430672 0 0.55677840186430672 4.4513055876282124 0 0 0 0 -9.1201570830235141 10.689929919540418 0 10.689929919540418 7.5235633768434127 0 0 0 0 -8.9871716878842562 9.0345903044957652 0 9.0345903044957652 -4.9246268343623569 0 0 0 0 -34.628232047980418 84.23841449063525 0 84.23841449063525 -46.520494070632651 0 0 0 0 -52.472118142213731 113.77994512109302 0 113.77994512109302 -51.497903091744718 0 0 0 0 -1.8170685917918235 0.89195948288024596 0 0.89195948288024596 1.3189675125316698 0 0 0 0 -4.2009146220734692 1.7809312227599037 0 1.7809312227599037 8.9083612354431807 0 0 0 0 -23.576788760910858 -13.318423304050157 0 -13.318423304050157 14.191722854869454 0 0 0 0 -1.4727287144487491 18.686332149892678 0 18.686332149892678 -197.87137855608944 0 0 0 0 -115.82735043748835 202.33934132784714 0 202.33934132784714 -93.033440743377412 0 0 0 0 -29.8498660021869 140.42309297971019 0 140.42309297971019 -238.89496708799584 0 0 0 0 -58.026339214542531 88.542743456730079 0 88.542743456730079 -94.279548240687291 0 0 0 0 -19.275543697789544 102.32022409605293 0 102.32022409605293 -355.62314564059005 0 0 0 0 -4.9509790528002497 2.3052079010890942 0 2.3052079010890942 -1.2618940772177247 0 0 0 0 -108.32119936679373 96.866213052024705 0 96.866213052024705 -54.269198833173164 0 0 0 0 -438.71681902272394 332.78649853281223 0 332.78649853281223 -214.97244761363407 0 0 0 0 -103.56892353531293 196.79344508604731 0 196.79344508604731 8.9023859514106221 0 0 0 0 -181.52011603003484 91.73427059970868 0 91.73427059970868 336.44708246908897 0 0 0 0 -45.723191132448846 34.551152871330942 0 34.551152871330942 29.972313507497347 0 0 0 0 -132.80179004211823 123.50368541814663 0 123.50368541814663 68.126086310014784 0 0 0 0 -74.81746027954479 -1.621837558386348 0 -1.621837558386348 2.11244555305744 0 0 0 0 -26.551877762756703 37.940932931653833 0 37.940932931653833 -161.71258725241003 0 0 0 0 -80.044513138904222 0.33144189071411745 0 0.33144189071411745 -66.81467726268653 0 0 0 0 -4.3973206520022359 -17.039733454338517 0 -17.039733454338517 -62.895916800878467 0 0 0 0 37.693092467585302 21.812869998395655 0 21.812869998395655 -88.839836171586171 0 0 0 0 -63.302577028814994 17.957980741637812 0 17.957980741637812 -87.718650583793647 0 0 0 0 -97.721297804425376 68.370925917654176 0 68.370925917654176 -63.687656323723672 0 0 0 0 -81.198698928476006 78.828206270589618 0 78.828206270589618 -69.470065449167237 0 0 0 0 -53.830414222153195 35.543218786287525 0 35.543218786287525 -55.416252549991754 0 0 0 0 -111.92868739696678 100.54772295836506 0 100.54772295836506 -79.867504668627475 0 0 0 0 -92.919933997829503 -12.239410577138869 0 -12.239410577138869 13.942605609795692 0 0 0 0 -57.224975128319784 55.136964104995627 0 55.136964104995627 14.476951592392879 0 0 0 0 -67.605271961411006 0.60087939393577017 0 0.60087939393577017 2.5085998661404245 0 0 0 0 -94.269716945884284 3.501365069431813 0 3.501365069431813 86.980002067443252 0 0 0 0 -55.24998571510514 -35.538531100151431 0 -35.538531100151431 115.20131711385784 0 0 0 0 -99.627569446985945 1.8149431807676137 0 1.8149431807676137 88.767824101919359 0 0 0 0 -107.72043864440639 10.6582632314894 0 10.6582632314894 87.815130762370956 0 0 0 0 -94.157979601674015 9.7210471672401582 0 9.7210471672401582 105.99225096686081 0 0 0 0 -63.309551699861416 -14.857593795706627 0 -14.857593795706627 -1.7872108141385934 0 0 0 0 -73.397334274777677 -41.373255933190649 0 -41.373255933190649 120.97413997656531 0 0 0 0 -121.20460116630784 -45.439859220390531 0 -45.439859220390531 112.55989171224451 0 0 0 0 -70.068857533497066 3.2112242428038371 0 3.2112242428038371 62.877353856648824 0 0 0 0 19.697468666036002 6.1380493593102301 0 6.1380493593102301 61.990906997142702 0 0 0 0 -69.98974361391447 33.252174302879666 0 33.252174302879666 202.89483556819778 0 0 0 0 -37.696855536487419 -107.61600764963714 0 -107.61600764963714 164.93953935663103 0 0 0 0 -14.202004973554473 -2.3904680798065101 0 -2.3904680798065101 -0.10360851636665735 0 0 0 0 -44.042073557688127 -4.0429436724859897 0 -4.0429436724859897 -1.6913721425460153 0 0 0 0 -40.515229344880936 -38.532047998110784 0 -38.532047998110784 32.355312076695554 0 0 0 0 -125.76225168036035 20.925336904574124 0 20.925336904574124 -9.0753404858269278 0 0 0 0 -163.11035739257204 -26.906116619450017 0 -26.906116619450017 -52.762857931585359 0 0 0 0 -99.047353808407934 -97.614868766023477 0 -97.614868766023477 -111.85665405775421 0 0 0 0 -62.922162344045546 -9.8892444557525501 0 -9.8892444557525501 -2.183659772060103 0 0 0 0 -63.264548043593095 -68.720123083599958 0 -68.720123083599958 4.4855299617821913 0 0 0 0 -13.659740780416939 -3.976474943612704 0 -3.976474943612704 -2.0301513338462742 0 0 0 0 -55.691524905110782 28.675579336360428 0 28.675579336360428 79.821250811056984 0 0 0 0 -76.026353456276411 -35.867616908324749 0 -35.867616908324749 65.108677099319891 0 0 0 0 25.395443860630621 -9.1550635245241665 0 -9.1550635245241665 4.3623978733984359 0 0 0 0 -54.411990357024479 -5.5340374188943429 0 -5.5340374188943429 -22.876258452814909 0 0 0 0 -96.246909359186247 0.53707827584128154 0 0.53707827584128154 8.6355567623035654 0 0 0 0 -140.79497488066409 -38.614407458849485 0 -38.614407458849485 -50.367459695789762 0 0 0 0 -140.40553463245396 -11.446580203608349 0 -11.446580203608349 -16.574957569200819 0 0 0 0 -51.941176103577163 39.463079897474358 0 39.463079897474358 -16.097663687187818 0 0 0 0 -147.54121420068032 18.766910788764228 0 18.766910788764228 21.906634379758088 0 0 0 0 -105.958121454918 2.7167328984551204 0 2.7167328984551204 27.773570179042281 0 0 0 0 -147.45054287251151 -174.4006205819841 0 -174.4006205819841 44.570947553881979 0 0 0 0 -261.42318498122768 2.7385968314877118 0 2.7385968314877118 55.918334338147133 0 0 0 0 -156.31529729367321 71.18242900832152 0 71.18242900832152 56.295960363996073 0 0 0 0 -248.19154571053878 -171.97892999989142 0 -171.97892999989142 -95.459984936149141 0 0 0 0 -10.037665352074782 121.72809217865526 0 121.72809217865526 62.142604468240279 0 0 0 0 -1.0373383379259664 1.1079657438682879 0 1.1079657438682879 -0.87901746721475571 0 0 0 0 -394.00194141681277 -5.0685671588200876 0 -5.0685671588200876 50.053025794276891 0 0 0 0 -307.90783763282252 185.06865778442011 0 185.06865778442011 72.746979514388613 0 0 0 0 -97.028231764761586 160.72180631664449 0 160.72180631664449 -38.914649613224356 0 0 0 0 -34.545920718530397 -7.4997792636856957 0 -7.4997792636856957 12.459090214647858 0 0 0 0 -39.696006670408678 7.5424739635119522 0 7.5424739635119522 -13.195174252448624 0 0 0 0 -39.961088196814671 -17.988408573107819 0 -17.988408573107819 36.734485214647975 0 0 0 0 -40.98134454184401 -24.170262093184192 0 -24.170262093184192 3.1414502993391125 0 0 0 0 -17.248290618215833 -130.61500257193035 0 -130.61500257193035 -16.744143398433152 0 0 0 0 -57.058154886264674 -17.753421257090849 0 -17.753421257090849 25.990193488965815 0 0 0 0 39.005724124704102 -13.870151382773599 0 -13.870151382773599 -48.629418377847287 0 0 0 0 -2.7145882772394261 4.6872298271386228 0 4.6872298271386228 7.005757971087216 0 0 0 0 -15.303453912158076 -9.8193236844405902 0 -9.8193236844405902 -3.9658341605011702 0 0 0 0 -49.112991168221924 -7.1984659429980979 0 -7.1984659429980979 -5.5885083838238643 0 0 0 0 -47.529346544244618 51.727391370484213 0 51.727391370484213 -0.13899590377195636 0 0 0 0 -16.570034349501 -1.7600083808049281 0 -1.7600083808049281 3.3992304192391494 0 0 0 0 -15.141388563377404 9.6896506776298565 0 9.6896506776298565 9.2310774307476322 0 0 0 0 -10.910043989846599 -0.013108261480510919 0 -0.013108261480510919 47.373462285992446 0 0 0 0 -2.7790504029990473 -2.8037511077178578 0 -2.8037511077178578 0.2496856993518457 0 0 0 0 -5.5500571489874346 -29.770596580951434 0 -29.770596580951434 31.685020650722436 0 0 0 0 -2.7604175219338885 0.69110544711418598 0 0.69110544711418598 0.91644951113341078 0 0 0 0 3.1947485345954192 -4.6961828735865083 0 -4.6961828735865083 5.7885459077222094 0 0 0 0 -18.927041891593035 -18.029639493558207 0 -18.029639493558207 35.296237218426995 0 0 0 0 -16.99231103895363 -9.9463941192954053 0 -9.9463941192954053 1.4172657175472523 0 0 0 0 -42.077126152649726 -6.9537337741444105 0 -6.9537337741444105 -1.1858052528857854 0 0 0 0 -23.722834756455995 -18.221703483100214 0 -18.221703483100214 3.5208122984978445 0 0 0 0 -34.420957350597746 6.4052070624596809 0 6.4052070624596809 -2.8965172157643337 0 0 0 0 -72.328502028478397 3.9266887430772783 0 3.9266887430772783 9.0521491244315939 0 0 0 0 -19.710348989547128 63.523981430618164 0 63.523981430618164 -44.411446746523325 0 0 0 0 -57.247067516216703 -8.9059111358767495 0 -8.9059111358767495 3.279187400717376 0 0 0 0 -11.83805192639236 4.4471987388549685 0 4.4471987388549685 6.929220793439038 0 0 0 0 -51.734714944793325 -7.6295087911159456 0 -7.6295087911159456 -0.45180983953346665 0 0 0 0 -43.229501188272479 -8.941852864636985 0 -8.941852864636985 -4.5446997072412216 0 0 0 0 -179.01053621894971 -67.017928195901277 0 -67.017928195901277 183.23718072779468 0 0 0 0 -23.505468857154483 -64.745598382809021 0 -64.745598382809021 89.716041592026158 0 0 0 0 -17.18726970278567 30.612647626393937 0 30.612647626393937 208.2816451628687 0 0 0 0 -41.829774072655709 -27.588331972126355 0 -27.588331972126355 12.856661706709076 0 0 0 0 -47.602077808659921 -9.6006639363582771 0 -9.6006639363582771 -1.5241917328896688 0 0 0 0 -39.290368457913246 -18.676183154598348 0 -18.676183154598348 43.752300337912402 0 0 0 0 -36.46983610580719 -24.065293024339667 0 -24.065293024339667 -2.5656275682550813 0 0 0 0 -34.589149502768123 -42.57797029974256 0 -42.57797029974256 15.52397511242043 0 0 0 0 -33.427614313273352 -26.964584929591581 0 -26.964584929591581 9.6163313441521723 0 0 0 0 -40.123796324642171 -33.638596617979715 0 -33.638596617979715 3.8959671508795282 0 0 0 0 -58.492770411541642 9.2511247522370468 0 9.2511247522370468 -1.9500079200586242 0 0 0 0 7.6107568943043589 -48.340626453546292 0 -48.340626453546292 5.7918568526670242 0 0 0 0 0.51366881353071392 -0.12165866833919381 0 -0.12165866833919381 -0.72476559486636116 0 0 0 0 -25.871169304042269 -6.7266188049474067 0 -6.7266188049474067 12.527777845572018 0 0 0 0 -9.9456845724671439 5.5734431983290733 0 5.5734431983290733 -3.8468767081444639 0 0 0 0 -14.443199140787328 -9.9287535815025194 0 -9.9287535815025194 -15.414589480644054 0 0 0 0 -24.850755230170762 -19.71417984042705 0 -19.71417984042705 -12.747731614783106 0 0 0 0 -23.452993326729484 -33.359389621868104 0 -33.359389621868104 -16.763388946455393 0 0 0 0 -16.218647673918895 -22.69284052489138 0 -22.69284052489138 -25.646159659055627 0 0 0 0 -36.588001512292067 -29.034002402673252 0 -29.034002402673252 -18.005663873123694 0 0 0 0 -21.69489900125518 -32.439710711391967 0 -32.439710711391967 -28.241032785790139 0 0 0 0 -20.856874997476552 -23.788689103992056 0 -23.788689103992056 -34.544555953603322 0 0 0 0 -21.287922590687231 -47.97053085665425 0 -47.97053085665425 -48.628392249201909 0 0 0 0 -17.577176815500025 -26.221486834877993 0 -26.221486834877993 -32.890616490621596 0 0 0 0 -17.127962222330098 1.9156572589528764 0 1.9156572589528764 -35.747331957732513 0 0 0 0 -22.792407199834997 -6.3034177145518697 0 -6.3034177145518697 2.523585971323655 0 0 0 0 -111.91383385652807 -96.340406270312201 0 -96.340406270312201 -81.43680197650626 0 0 0 0 -18.791828063795947 -31.939646281168336 0 -31.939646281168336 -82.507802360986716 0 0 0 0 -61.158428033850214 -71.91909536987373 0 -71.91909536987373 -45.115508065616496 0 0 0 0 -98.430304462357526 -34.352713318021472 0 -34.352713318021472 -10.194575838525225 0 0 0 0 -56.506628071179875 -45.989366651866931 0 -45.989366651866931 -11.001060045150538 0 0 0 0 -58.198697758114577 -36.654873109245443 0 -36.654873109245443 29.168919376232907 0 0 0 0 -35.375268892992608 -55.64634998839108 0 -55.64634998839108 -12.932758980094629 0 0 0 0 -38.094688870784012 -44.40013685077389 0 -44.40013685077389 -13.40704482640308 0 0 0 0 -21.158962709529078 -36.675712418881346 0 -36.675712418881346 -12.338772767344608 0 0 0 0 -26.82508701545521 -53.500261232203911 0 -53.500261232203911 -10.902838307800167 0 0 0 0 -32.691397555362528 -40.94847939302295 0 -40.94847939302295 22.56346694803392 0 0 0 0 -46.780272118059656 -38.781261148449744 0 -38.781261148449744 61.440247878534734 0 0 0 0 -32.676902193968999 -38.069731843363741 0 -38.069731843363741 21.75427163080667 0 0 0 0 -34.174760374601647 -39.991542722828626 0 -39.991542722828626 56.312499383366003 0 0 0 0 -28.977957369806973 -53.102830357072094 0 -53.102830357072094 25.976851964942398 0 0 0 0 -37.909249325632118 -53.336674428272943 0 -53.336674428272943 53.758617786275977 0 0 0 0 -59.030524457833963 -17.086876166588809 0 -17.086876166588809 107.96580579968349 0 0 0 0 -28.035748057387536 -38.24810400755581 0 -38.24810400755581 57.680668256050609 0 0 0 0 -17.47249208381254 -43.407513721180976 0 -43.407513721180976 56.997597245558836 0 0 0 0 -22.94745164903361 -25.390867373978494 0 -25.390867373978494 131.12631714548024 0 0 0 0 -19.798312507096853 -22.564931863682659 0 -22.564931863682659 84.658963973884511 0 0 0 0 -31.69231365575979 -26.457435186468047 0 -26.457435186468047 88.27887798373979 0 0 0 0 -11.051992028049426 -11.043194254762739 0 -11.043194254762739 93.490306938548883 0 0 0 0 -28.337128331353597 -19.902405518044361 0 -19.902405518044361 123.5288535427344 0 0 0 0 -25.29830426027911 -21.936459412591205 0 -21.936459412591205 74.512538157064682 0 0 0 0 -50.598932995941141 -33.512854633688676 0 -33.512854633688676 102.18396808170223 0 0 0 0 -56.84056069838698 -47.826720087417755 0 -47.826720087417755 84.375108947050421 0 0 0 0 -60.855346213367739 -24.76732597844989 0 -24.76732597844989 130.76584496787927 0 0 0 0 -63.428665896532038 -31.171711468334934 0 -31.171711468334934 78.666977113075518 0 0 0 0 -41.796132871322698 -45.948589678727387 0 -45.948589678727387 30.533822277270701 0 0 0 0 -42.918096410794533 -35.158284299225897 0 -35.158284299225897 71.678641170353529 0 0 0 0 -43.164287288664184 2.4976983588745449 0 2.4976983588745449 1.1988660200053696 0 0 0 0 -65.699349448434077 -40.287618436958383 0 -40.287618436958383 162.76562878812263 0 0 0 0 -53.648010133154457 7.6635936034590486 0 7.6635936034590486 -14.493199363096892 0 0 0 0 -13.890029439185252 -1.606454895029394 0 -1.606454895029394 -16.355970667396122 0 0 0 0 -9.0929324517710484 7.7479192975504247 0 7.7479192975504247 -35.72010110353267 0 0 0 0 -38.690462420039694 23.768358370037276 0 23.768358370037276 -43.940962629770638 0 0 0 0 -11.895516383636277 -14.577397193588695 0 -14.577397193588695 141.53645067381456 0 0 0 0 -35.562311830995895 -7.6812177998135667 0 -7.6812177998135667 140.11713274708995 0 0 0 0 35.584670711657964 -35.037183664345321 0 -35.037183664345321 150.0973051473992 0 0 0 0 -21.901272238857928 -5.5385652957302227 0 -5.5385652957302227 145.56644490655981 0 0 0 0 -33.405773269492784 -31.88512425774843 0 -31.88512425774843 15.390637176570181 0 0 0 0 -43.773758204065061 -7.2110878322742407 0 -7.2110878322742407 -3.9688483084514501 0 0 0 0 17.878840922203381 -53.437396151144412 0 -53.437396151144412 149.99339889639577 0 0 0 0 -10.565876000378921 -27.475644236469179 0 -27.475644236469179 -47.274841063757322 0 0 0 0 122.4379978456418 -89.2331990790085 0 -89.2331990790085 157.33401003087442 0 0 0 0 -3.6886592310499893 0.13206211855972327 0 0.13206211855972327 0.12881280294073605 0 0 0 0 -25.27198313711051 -6.3149118008705045 0 -6.3149118008705045 -17.130002971790873 0 0 0 0 -13.182753679851885 -8.3617211580000799 0 -8.3617211580000799 -7.2984190037177541 0 0 0 0 -10.515235653375669 -1.9607104856899722 0 -1.9607104856899722 -2.5251613506730934 0 0 0 0 -15.550072291238394 -6.0367587790495918 0 -6.0367587790495918 -9.1766891084855615 0 0 0 0 -25.650183767313138 -15.285179343935198 0 -15.285179343935198 -26.099485360792073 0 0 0 0 -4.0711320491756382 -7.2425024849452555 0 -7.2425024849452555 -8.7346708814077569 0 0 0 0 -0.29115694900752942 -0.85221546823761329 0 -0.85221546823761329 -4.788725443163969 0 0 0 0 -51.136976164991211 -17.931122913620356 0 -17.931122913620356 -14.034470731322926 0 0 0 0 -43.216385045923744 -9.8210982912064537 0 -9.8210982912064537 -9.8012844904629901 0 0 0 0 -1.7043258479858849 -5.7671019805571859 0 -5.7671019805571859 0.12867037371235224 0 0 0 0 -74.504763345143147 2.7935180620488609 0 2.7935180620488609 44.254079639246015 0 0 0 0 -19.53300566454709 0.87509374825425823 0 0.87509374825425823 -2.9358765276024315 0 0 0 0 -18.677136750218779 2.1459482583352099 0 2.1459482583352099 -9.722814300814548 0 0 0 0 -17.431367783814494 4.4990919972533874 0 4.4990919972533874 -5.4130232589097318 0 0 0 0 -14.089954690956802 -3.4674020874570033 0 -3.4674020874570033 -6.6663249446016835 0 0 0 0 -15.287305399120669 0.47262436628378168 0 0.47262436628378168 -17.544920845412207 0 0 0 0 -18.034339164812991 8.7315559983872504 0 8.7315559983872504 -20.739419463805007 0 0 0 0 -13.545245289362356 2.93406364654345 0 2.93406364654345 -14.179350657859459 0 0 0 0 -19.917277192580514 9.5689446259999045 0 9.5689446259999045 -15.748438153004798 0 0 0 0 -21.881349382103508 10.967971431649147 0 10.967971431649147 -7.7141132580564431 0 0 0 0 -48.986306283142767 21.145075500451675 0 21.145075500451675 -0.33407480115494081 0 0 0 0 -30.182744528916373 23.363378536707842 0 23.363378536707842 -23.921061729043565 0 0 0 0 -36.082086253820307 36.177195624238777 0 36.177195624238777 -46.640485316212789 0 0 0 0 -14.934558626642684 11.188713577610429 0 11.188713577610429 -21.812875213497207 0 0 0 0 0.32450012674780737 -1.7370347381871625 0 -1.7370347381871625 -45.63573664045316 0 0 0 0 -6.2350611892123737 -0.90944859255925703 0 -0.90944859255925703 0.18578521637773099 0 0 0 0 -14.781060186227478 -5.567913358515284 0 -5.567913358515284 -0.061135015067520726 0 0 0 0 -7.4944559326686431 -0.32304324350309344 0 -0.32304324350309344 -22.619528649197747 0 0 0 0 -7.4920954580920807 -7.3699084965304564 0 -7.3699084965304564 -12.419464615147263 0 0 0 0 -7.8244041360594565 -41.225649276071806 0 -41.225649276071806 -101.21639604990742 0 0 0 0 -17.784211262900499 -42.883114558302509 0 -42.883114558302509 -8.6192204431567916 0 0 0 0 -69.13752597788698 -65.95591127238913 0 -65.95591127238913 65.301189243279481 0 0 0 0 -132.19372302835836 -159.14060366629803 0 -159.14060366629803 -187.15102539930717 0 0 0 0 -2.1677621350772824 14.708305275464625 0 14.708305275464625 3.2854006731863592 0 0 0 0 -130.58196908572063 52.516198195284687 0 52.516198195284687 -21.70500422873306 0 0 0 0 -71.865985193682718 -47.9645859730133 0 -47.9645859730133 89.993406638497405 0 0 0 0 -142.89462994929909 -116.17120685691702 0 -116.17120685691702 -170.42708907446058 0 0 0 0 -28.6091256175132 -28.09962355405446 0 -28.09962355405446 -241.95403681075152 0 0 0 0 -72.682964754363638 52.168028125029878 0 52.168028125029878 -36.810566761385473 0 0 0 0 -2.1095341020800191 -0.79291806462794323 0 -0.79291806462794323 -0.096700019869448151 0 0 0 0 -179.9460044233565 -14.40977393826654 0 -14.40977393826654 -32.707755598023027 0 0 0 0 -70.479013549997035 36.711528926777362 0 36.711528926777362 -47.27244353440733 0 0 0 0 -64.998527901261696 22.735209152273882 0 22.735209152273882 -17.477147340878162 0 0 0 0 -53.890171116487181 30.696722145982477 0 30.696722145982477 -18.658044162315448 0 0 0 0 -74.979010638759064 11.295829413778982 0 11.295829413778982 2.2754264409627609 0 0 0 0 -64.23655870762741 37.332289820099987 0 37.332289820099987 -23.554131191844462 0 0 0 0 -104.0402299806392 -27.090726710444443 0 -27.090726710444443 -85.74746001941196 0 0 0 0 -61.376219194222358 -33.059178596283573 0 -33.059178596283573 -85.701178826674038 0 0 0 0 -64.860232741011714 -23.988201395777764 0 -23.988201395777764 -113.6271942252074 0 0 0 0 -55.866727395237831 -51.699046873501629 0 -51.699046873501629 -167.00026471208616 0 0 0 0 -45.69094642773689 -0.44564606094814962 0 -0.44564606094814962 -132.79357195703187 0 0 0 0 -62.50573508002708 -40.071757433394467 0 -40.071757433394467 -94.161904051797563 0 0 0 0 -129.2142519400586 18.912950199009927 0 18.912950199009927 8.9378667264869023 0 0 0 0 -288.98114132694172 -20.768869973417054 0 -20.768869973417054 -92.812607578888219 0 0 0 0 -69.346735314058606 5.6877627885779702 0 5.6877627885779702 -281.55609444223637 0 0 0 0 -72.921002412978851 -17.577010231412146 0 -17.577010231412146 -63.11005297950237 0 0 0 0 -147.10720746949755 -113.15715421321921 0 -113.15715421321921 -164.01729628049611 0 0 0 0 -56.041255713302235 -58.852960266949367 0 -58.852960266949367 -162.08858552304798 0 0 0 0 -45.488356135960203 -2.9720500292617373 0 -2.9720500292617373 -55.272284101606601 0 0 0 0 -32.894529221244738 10.110421390744477 0 10.110421390744477 -60.295255761821636 0 0 0 0 -86.632190704463028 28.554930260918781 0 28.554930260918781 61.939461179803402 0 0 0 0 -89.171347395691555 2.9962572571719193 0 2.9962572571719193 62.937121852569817 0 0 0 0 -93.252469080180163 -10.352841375528101 0 -10.352841375528101 61.397097306638443 0 0 0 0 -84.076987172493318 19.361194874037466 0 19.361194874037466 30.262560453344122 0 0 0 0 -86.336112401400896 27.591144860749068 0 27.591144860749068 60.137523755283382 0 0 0 0 -100.85801759685273 -42.822317272912869 0 -42.822317272912869 -28.664888661662189 0 0 0 0 -6.8041533618015819 1.6716724868882373 0 1.6716724868882373 -0.32345864582074912 0 0 0 0 -62.343855221377453 -63.739257286692464 0 -63.739257286692464 -154.24172413080942 0 0 0 0 -104.3996345256528 -230.65240070491762 0 -230.65240070491762 -254.67422911363838 0 0 0 0 -62.289854149083112 -49.426827004904055 0 -49.426827004904055 -86.744941167284878 0 0 0 0 -100.41250741018303 -86.852508403565707 0 -86.852508403565707 -34.453791938050188 0 0 0 0 -121.04592702592709 -43.960883312929042 0 -43.960883312929042 42.939799175872736 0 0 0 0 -98.109230335896427 -99.565434923344554 0 -99.565434923344554 -86.574142614717857 0 0 0 0 49.615001753765682 52.915888785760814 0 52.915888785760814 121.44757712382568 0 0 0 0 11.310749672779821 184.77673257639111 0 184.77673257639111 287.27772344160286 0 0 0 0 -8.8096421000263945 29.033921583237898 0 29.033921583237898 6.3820068533678125 0 0 0 0 -89.17655541691056 -26.223626867738361 0 -26.223626867738361 146.03886771602188 0 0 0 0 -59.519188709563878 50.126975824424029 0 50.126975824424029 41.871920158658945 0 0 0 0 -69.61996365120649 -14.199323186675173 0 -14.199323186675173 193.83937029542579 0 0 0 0 -0.81545374283227545 -0.63188077171099621 0 -0.63188077171099621 1.667470240475676 0 0 0 0 -128.54391400256281 -69.012174136006365 0 -69.012174136006365 53.683002206646165 0 0 0 0 -139.6198110048972 -130.39247418275062 0 -130.39247418275062 -58.749727123789086 0 0 0 0 -99.195849499958967 -9.765547986852761 0 -9.765547986852761 28.301526699361887 0 0 0 0 -100.13456231461532 -5.6239824023487799 0 -5.6239824023487799 119.04888045761157 0 0 0 0 -66.202699489738734 7.0028426630712204 0 7.0028426630712204 35.829628211531997 0 0 0 0 -84.907652336248248 33.231992459909506 0 33.231992459909506 18.904675375881453 0 0 0 0 -67.006408422017557 11.394485137454868 0 11.394485137454868 12.59657995827618 0 0 0 0 -57.120258396113059 -13.116492595335217 0 -13.116492595335217 18.096853195441213 0 0 0 0 -52.53285577997849 4.3138465546529758 0 4.3138465546529758 18.256287676605439 0 0 0 0 -43.181502633589844 -2.7582264753088452 0 -2.7582264753088452 17.00183288363155 0 0 0 0 -34.942573075735709 -9.8558257357037178 0 -9.8558257357037178 17.867428160323016 0 0 0 0 -27.576033893324663 4.146494336925894 0 4.146494336925894 0.40745950180395507 0 0 0 0 -51.061119200112444 -44.887111995297744 0 -44.887111995297744 -42.431308866450536 0 0 0 0 -107.29326303751441 164.08645268454271 0 164.08645268454271 376.73080001127369 0 0 0 0 -76.288881534628672 -39.482761600526857 0 -39.482761600526857 -28.682979520259664 0 0 0 0 -19.382320250797406 3.4394997479727429 0 3.4394997479727429 0.029144036925212946 0 0 0 0 -240.49207216397917 -122.53626532332487 0 -122.53626532332487 207.78626954654001 0 0 0 0 49.340341301714943 -131.68639286043486 0 -131.68639286043486 13.74027543767977 0 0 0 0 -48.15227370676439 139.48868767738048 0 139.48868767738048 375.89209299097553 0 0 0 0 -123.59347477845586 -108.22271490879541 0 -108.22271490879541 63.588801965957146 0 0 0 0 -95.901231790216116 -50.988981328443032 0 -50.988981328443032 88.766264944094445 0 0 0 0 -271.67675265356593 -33.275178611238672 0 -33.275178611238672 266.66817208408054 0 0 0 0 -30.694563016279091 4.0579566835712164 0 4.0579566835712164 0.3970921905958481 0 0 0 0 -33.834403138782363 14.981357324745716 0 14.981357324745716 27.595999217285339 0 0 0 0 -29.281137118829065 17.453097732335948 0 17.453097732335948 21.556095390909491 0 0 0 0 -25.09270706501411 13.547022804956725 0 13.547022804956725 15.977071579498215 0 0 0 0 -33.283179783895321 0.53544404601780116 0 0.53544404601780116 17.725578233240014 0 0 0 0 -41.172118925620453 4.6019898689730212 0 4.6019898689730212 14.259779395338896 0 0 0 0 -29.713992751763726 8.9320090058583901 0 8.9320090058583901 13.230730150079808 0 0 0 0 -42.977717692462647 11.789373015027849 0 11.789373015027849 12.991848087186554 0 0 0 0 -40.585360955243232 16.222910793789438 0 16.222910793789438 1.0390367466680175 0 0 0 0 -39.056649339167052 13.529061375225044 0 13.529061375225044 3.2139491892316414 0 0 0 0 -24.094845319050364 9.6970691993595466 0 9.6970691993595466 0.59250705857741348 0 0 0 0 -26.841964919382008 14.716128010118883 0 14.716128010118883 -8.4265455655494996 0 0 0 0 -30.775778278461075 11.876284762057423 0 11.876284762057423 3.5406744385410036 0 0 0 0 -24.752756474335911 10.581544516291101 0 10.581544516291101 0.43676191821096921 0 0 0 0 -31.419611481667744 11.959470107415967 0 11.959470107415967 10.961003115362189 0 0 0 0 -34.524135854022461 13.104962269015289 0 13.104962269015289 21.387849518323605 0 0 0 0 -29.147976184067375 11.793297874556032 0 11.793297874556032 10.972522588339245 0 0 0 0 -23.405588432353397 10.363355040961835 0 10.363355040961835 11.045132388192542 0 0 0 0 -28.119637093048368 6.6778384424646333 0 6.6778384424646333 22.986514148071137 0 0 0 0 -26.238244428212056 7.8106194616998152 0 7.8106194616998152 9.8910769312159061 0 0 0 0 -25.245721105935445 10.920346990966944 0 10.920346990966944 8.3372402401345767 0 0 0 0 -23.157013787233154 6.6565664480580722 0 6.6565664480580722 1.0280032014488825 0 0 0 0 -21.826930348543101 6.8408907843959881 0 6.8408907843959881 0.86090683484357555 0 0 0 0 -21.75185855874588 9.0920285576455253 0 9.0920285576455253 -6.3776409032660082 0 0 0 0 -27.846060259584192 5.1247601577867243 0 5.1247601577867243 10.24293660643599 0 0 0 0 -22.477395748417621 5.7795696764872417 0 5.7795696764872417 0.76465855844546127 0 0 0 0 -8.8561820549755339 -2.5163204272329125 0 -2.5163204272329125 8.400861765429001 0 0 0 0 -23.361555163835874 5.5952915122361446 0 5.5952915122361446 0.9871261711814725 0 0 0 0 -30.589920204218913 2.6040631981554192 0 2.6040631981554192 2.1886397985722641 0 0 0 0 -27.330388833936013 10.96416746227743 0 10.96416746227743 14.84009874807407 0 0 0 0 -27.673022231690993 9.7710540535621888 0 9.7710540535621888 14.685319917484946 0 0 0 0 -10.701100515958387 -13.423097595927885 0 -13.423097595927885 -14.749314860727225 0 0 0 0 -89.416480178333586 -43.507630853161302 0 -43.507630853161302 78.508162936584498 0 0 0 0 -6.1604543863777792 0.10309416034825958 0 0.10309416034825958 0.66439879704287375 0 0 0 0 -5.9425611437764019 -14.204526844597979 0 -14.204526844597979 31.626223330577147 0 0 0 0 119.17215427728661 -12.371011496280858 0 -12.371011496280858 -140.9917676634376 0 0 0 0 -1.5664898376995495 0.30862667217251527 0 0.30862667217251527 -0.03984794977889794 0 0 0 0 -40.084429543378064 11.747109240122427 0 11.747109240122427 132.15951164257862 0 0 0 0 2.9827654989931034 -15.576794028323931 0 -15.576794028323931 39.681868081351809 0 0 0 0 -11.255663657226251 -37.816874256628722 0 -37.816874256628722 36.137589053253706 0 0 0 0 -0.81778358940573526 -14.398377065165917 0 -14.398377065165917 14.334279431848472 0 0 0 0 22.038481384319311 -25.2139096370516 0 -25.2139096370516 13.554965040736818 0 0 0 0 1.7937193302132073 -20.163639898275619 0 -20.163639898275619 26.77695569492073 0 0 0 0 5.122037109133089 -42.86077411366341 0 -42.86077411366341 7.3310402057732063 0 0 0 0 15.461518253061513 -25.485547268308075 0 -25.485547268308075 9.241660434092223 0 0 0 0 -40.23440285185643 -41.373478863579152 0 -41.373478863579152 17.859904883310151 0 0 0 0 -9.5807029761235754 -39.583016905851096 0 -39.583016905851096 15.316620535446987 0 0 0 0 4.6016451636787679 -41.842326182627367 0 -41.842326182627367 -14.978975408432518 0 0 0 0 -25.516562027220061 -14.398554422087159 0 -14.398554422087159 6.1313568337546371 0 0 0 0 19.321077190928918 -20.741008280536885 0 -20.741008280536885 -9.2960814339649218 0 0 0 0 -18.447164032109868 1.1115321049242457 0 1.1115321049242457 0.10008465303310388 0 0 0 0 16.86292272191713 -15.842887217163463 0 -15.842887217163463 -0.018373370351383377 0 0 0 0 -37.988546143122221 -15.92106738670552 0 -15.92106738670552 -0.0062423947056000784 0 0 0 0 -22.273205803983728 -14.535676288653846 0 -14.535676288653846 -39.913932139494662 0 0 0 0 -86.426940674384241 -6.4223588404217491 0 -6.4223588404217491 2.3255285799742289 0 0 0 0 -77.996320026675676 4.3956047995465237 0 4.3956047995465237 0.66623025027568161 0 0 0 0 -102.74552335846784 -16.470012585792897 0 -16.470012585792897 0.030292990525449308 0 0 0 0 -129.03778053270361 -23.431148694212933 0 -23.431148694212933 0.76732363646137713 0 0 0 0 -129.65399835235439 23.024831338850184 0 23.024831338850184 -12.055558397774945 0 0 0 0 -20.763997447196743 -40.564109553334447 0 -40.564109553334447 -43.367983790073886 0 0 0 0 -62.748746630626556 17.679291279328226 0 17.679291279328226 -57.309684381779363 0 0 0 0 -41.860168013730799 -51.787388680766234 0 -51.787388680766234 -47.446847171273021 0 0 0 0 -50.969752503719064 -118.00183564087294 0 -118.00183564087294 47.74068029885666 0 0 0 0 -76.621235206741403 46.466630561622296 0 46.466630561622296 -178.91443139974299 0 0 0 0 1.7576189827595954 -126.81432392203389 0 -126.81432392203389 -138.90493066508611 0 0 0 0 -3.1588409896761789 0.39479058167224412 0 0.39479058167224412 -0.085859398093668604 0 0 0 0 -91.212750084247091 -91.332518431664553 0 -91.332518431664553 -35.513087432415361 0 0 0 0 55.755643132137266 128.44033305057761 0 128.44033305057761 -184.00514833392452 0 0 0 0 -74.379752688739245 -64.560377085555885 0 -64.560377085555885 -32.440494888716536 0 0 0 0 17.021644869593729 -24.262204497530959 0 -24.262204497530959 -31.356436912229647 0 0 0 0 -318.62375374001931 14.344635769708148 0 14.344635769708148 -10.343531979159735 0 0 0 0 -117.52713887990831 -23.096188095388936 0 -23.096188095388936 -10.14582973677914 0 0 0 0 -108.24858241421316 -15.822976755578935 0 -15.822976755578935 3.1320718626647563 0 0 0 0 -79.781077357347385 -19.105195707537383 0 -19.105195707537383 -0.018162887422773083 0 0 0 0 -102.05691490206209 -35.579617399061341 0 -35.579617399061341 2.7016935315219968 0 0 0 0 -124.24502150673652 -27.167325291244175 0 -27.167325291244175 0.090005258616230321 0 0 0 0 -43.78921785458806 -21.891062819972952 0 -21.891062819972952 -17.335781163808615 0 0 0 0 -47.172927742976754 -33.429898220870712 0 -33.429898220870712 -18.75999658609096 0 0 0 0 -45.209076690013717 -20.185658372689637 0 -20.185658372689637 -8.2509464453318451 0 0 0 0 -24.550320452246524 -6.6244848779891239 0 -6.6244848779891239 0.028981598822333487 0 0 0 0 -7.488382051960798 -17.847935647324594 0 -17.847935647324594 -22.464778095539245 0 0 0 0 -11.409647268011668 -6.8677815139022105 0 -6.8677815139022105 38.219423673277078 0 0 0 0 -11.938573012201232 2.809374458142301 0 2.809374458142301 34.643173225996662 0 0 0 0 -9.1591474752294744 -3.3565700427139404 0 -3.3565700427139404 33.794308611176831 0 0 0 0 -0.23881716759402138 -0.022893215478116957 0 -0.022893215478116957 0.022025883767150589 0 0 0 0 -49.104909709956701 19.142452622698769 0 19.142452622698769 50.923208435748776 0 0 0 0 -35.448518861758203 -27.296069631641107 0 -27.296069631641107 -22.69882260325565 0 0 0 0 -0.60258215284557082 -2.3039925546799651 0 -2.3039925546799651 24.962086491045742 0 0 0 0 163.49093976864242 70.933651652841945 0 70.933651652841945 -90.353356225272549 0 0 0 0 -10.269861853862864 1.0767783125730412 0 1.0767783125730412 0.15068399293239196 0 0 0 0 -22.173866361321416 -7.053340226424524 0 -7.053340226424524 69.016725008315532 0 0 0 0 -18.614219883930275 -0.88048470592717054 0 -0.88048470592717054 0.5963281564107179 0 0 0 0 -13.063618945765484 2.7459138364112547 0 2.7459138364112547 54.579612656141563 0 0 0 0 -28.19343027171999 174.76780683403794 0 174.76780683403794 339.38777696849598 0 0 0 0 -23.151479178137379 3.8074205774248995 0 3.8074205774248995 54.486156316239743 0 0 0 0 -4.6720805472723441 5.0543586264727765 0 5.0543586264727765 33.656819219806138 0 0 0 0 -65.329859869045322 -19.761461754993846 0 -19.761461754993846 -10.017570564039474 0 0 0 0 -45.095562023270759 -24.249939742431224 0 -24.249939742431224 -22.137561637380713 0 0 0 0 -43.501389652796206 -3.9354509499322035 0 -3.9354509499322035 -13.30168206241278 0 0 0 0 -39.28006653853663 -6.1895808301568991 0 -6.1895808301568991 -18.237195668675518 0 0 0 0 -50.984372256571078 -9.0635318400520966 0 -9.0635318400520966 -15.351977140577048 0 0 0 0 -58.194507812098891 -4.3351080755726699 0 -4.3351080755726699 -9.8798793630276833 0 0 0 0 -80.657810072851134 -23.27191535474476 0 -23.27191535474476 -9.7324134853601461 0 0 0 0 -96.635728322100476 -13.106934630169906 0 -13.106934630169906 3.0535465477925783 0 0 0 0 -141.80177988874857 -6.5295804959622252 0 -6.5295804959622252 22.51889374309043 0 0 0 0 -112.72416659979353 -24.089482200674468 0 -24.089482200674468 5.8904625896805811 0 0 0 0 -134.20314902390965 -23.540192620155551 0 -23.540192620155551 6.1478437024686912 0 0 0 0 -103.85985789528058 -51.192656067656408 0 -51.192656067656408 -16.690267968219118 0 0 0 0 -49.61876163987472 -40.261329400265055 0 -40.261329400265055 -34.250317869231566 0 0 0 0 -63.407509477267013 -31.541454150435229 0 -31.541454150435229 -23.354728519524656 0 0 0 0 -108.56540366402623 -89.535388953995835 0 -89.535388953995835 -71.168487678553277 0 0 0 0 -362.8180729119631 -69.066543851038176 0 -69.066543851038176 25.540142481318156 0 0 0 0 -275.11197017301311 -37.130341201898418 0 -37.130341201898418 7.0127353073713437 0 0 0 0 -153.58914353123691 -36.416014089633975 0 -36.416014089633975 6.5992809661507579 0 0 0 0 -121.80889673059573 -69.95619311513579 0 -69.95619311513579 -32.767416178218042 0 0 0 0 -472.39485688643617 -41.397011873662308 0 -41.397011873662308 -63.226909063968748 0 0 0 0 -123.97711761428945 -107.20619254742549 0 -107.20619254742549 -93.295793444244907 0 0 0 0 -314.31668586279557 -105.37682186663 0 -105.37682186663 -34.094838781567077 0 0 0 0 -3.2382908268937172 -2.7696584573868215 0 -2.7696584573868215 -67.285912536352555 0 0 0 0 -10.707835075634648 -34.029233491090054 0 -34.029233491090054 -70.673270216641285 0 0 0 0 -12.540543796952988 9.4813981230049649 0 9.4813981230049649 29.918555140805438 0 0 0 0 -14.14342429941739 5.6562300045501495 0 5.6562300045501495 -2.2022842493266013 0 0 0 0 -33.869713820218749 8.1598352159073926 0 8.1598352159073926 9.1379974034526867 0 0 0 0 -18.443810846416454 -15.906743047643999 0 -15.906743047643999 -24.585812719112454 0 0 0 0 -54.29171198358199 -12.939819792107699 0 -12.939819792107699 -13.39376824891292 0 0 0 0 -16.830868719633145 15.03257728472056 0 15.03257728472056 -3.9706049115539912 0 0 0 0 -31.127601809894259 14.183658350888891 0 14.183658350888891 18.809116292752947 0 0 0 0 -27.98323664615782 -5.6306088561312659 0 -5.6306088561312659 -16.575954090201321 0 0 0 0 -11.143244599225 8.0626777146296718 0 8.0626777146296718 4.766163540913908 0 0 0 0 -21.780170721328034 8.3915604395294032 0 8.3915604395294032 -3.1665741377460432 0 0 0 0 -21.099053608122631 9.1028582514957179 0 9.1028582514957179 8.7470226097659634 0 0 0 0 13.18371414009016 29.275766286685212 0 29.275766286685212 11.570909219071666 0 0 0 0 -23.750554573955014 -33.983843937971415 0 -33.983843937971415 -10.739143017566221 0 0 0 0 -17.269877156897564 3.4362111176434382 0 3.4362111176434382 9.7274207474943069 0 0 0 0 -91.9635588431629 -23.01405932566513 0 -23.01405932566513 11.196913093185231 0 0 0 0 -29.489892632282135 28.748465188895807 0 28.748465188895807 -17.570254558824217 0 0 0 0 -91.471278911309724 27.049591858738935 0 27.049591858738935 17.124603200501497 0 0 0 0 -0.83009416318672891 -0.25198553934368739 0 -0.25198553934368739 0.47820343956844535 0 0 0 0 8.0984691273333738 -6.8884320763313553 0 -6.8884320763313553 -1.4894408386744544 0 0 0 0 -30.028945238296728 23.773664885378167 0 23.773664885378167 5.5287591805296756 0 0 0 0 -117.75140003790875 28.639975944457092 0 28.639975944457092 39.814302821945375 0 0 0 0 -29.367080664804348 9.9855832252527144 0 9.9855832252527144 -2.7244158620300061 0 0 0 0 -17.169015342085913 16.729017085504637 0 16.729017085504637 -4.4925761627589367 0 0 0 0 -23.536326104658656 1.0650798672366477 0 1.0650798672366477 1.9742879278488203 0 0 0 0 -31.44563610718069 8.4289607044820443 0 8.4289607044820443 -3.8119433385140269 0 0 0 0 -41.410570797466789 21.720905480582246 0 21.720905480582246 -7.0422514886213321 0 0 0 0 -56.040865506023692 20.330512222191373 0 20.330512222191373 4.2619841061818988 0 0 0 0 -24.50194589435705 12.484961212701364 0 12.484961212701364 -3.7456509004441614 0 0 0 0 -20.035491611843099 1.8950851384053067 0 1.8950851384053067 -1.4209062063932834 0 0 0 0 -3.9690809635244477 1.0880434100120695 0 1.0880434100120695 1.9882237542202184 0 0 0 0 -38.475588353489002 20.01707456764575 0 20.01707456764575 14.763432804568538 0 0 0 0 -7.634375214431202 -7.791626140668086 0 -7.791626140668086 13.947389802825576 0 0 0 0 -19.119130288971064 3.9081959226949579 0 3.9081959226949579 5.071946324399164 0 0 0 0 -19.54517944261211 3.1453525142356753 0 3.1453525142356753 0.76967350218384079 0 0 0 0 -25.175443045754037 5.1519498383288038 0 5.1519498383288038 2.0344846812602446 0 0 0 0 -21.878697330045284 4.918707347153001 0 4.918707347153001 0.71220945033870486 0 0 0 0 -36.920070218075125 7.7047489772755853 0 7.7047489772755853 3.26019622794729 0 0 0 0 -19.394942920756876 3.8858903687682869 0 3.8858903687682869 5.2317755611597931 0 0 0 0 -23.545475736445201 -0.0039050566760181482 0 -0.0039050566760181482 2.3352946751000641 0 0 0 0 -51.257868696251535 14.037548696926251 0 14.037548696926251 3.5488987430144334 0 0 0 0 -7.2924605395564868 -10.934262540720823 0 -10.934262540720823 24.983243431589187 0 0 0 0 -22.522059024595364 3.3150042972845029 0 3.3150042972845029 2.0741952232326497 0 0 0 0 -3.3989143340705681 0.29751686382383014 0 0.29751686382383014 2.19077721805784 0 0 0 0 -25.179944050305494 3.6885231964532359 0 3.6885231964532359 3.511687977449867 0 0 0 0 -24.808594516762241 3.4160724020468933 0 3.4160724020468933 2.7600815575080446 0 0 0 0 -24.058022508997965 5.1666748643383897 0 5.1666748643383897 -0.042222749886136057 0 0 0 0 -57.818983868768555 24.161353499846676 0 24.161353499846676 -13.831784891433214 0 0 0 0 -40.11305707327665 4.6717424736287105 0 4.6717424736287105 -14.743893536928539 0 0 0 0 -30.519705819308001 2.5799609698582628 0 2.5799609698582628 -14.443632593239499 0 0 0 0 -38.080809046907234 15.575566780240493 0 15.575566780240493 -4.2617413970606268 0 0 0 0 -28.897439453285187 18.067382541880662 0 18.067382541880662 -14.157296049933251 0 0 0 0 -32.537365648138802 16.349625821507786 0 16.349625821507786 1.3470842268462206 0 0 0 0 -7.2527966414337186 3.0936057814279323 0 3.0936057814279323 -0.9612670575119675 0 0 0 0 0.28114706647915 0.11349869500924825 0 0.11349869500924825 -0.35632787327351412 0 0 0 0 -17.085160534115857 -7.331138416465393 0 -7.331138416465393 -1.9937934705264837 0 0 0 0 -24.926239486776467 4.992067079933669 0 4.992067079933669 2.8838181744650484 0 0 0 0 -47.764662680092442 -2.9383163930668807 0 -2.9383163930668807 -10.559100194736278 0 0 0 0 -47.373520916538837 1.8043291377723065 0 1.8043291377723065 -12.898239732428848 0 0 0 0 -49.943193647253793 -7.4327295449009974 0 -7.4327295449009974 -5.4247935100204927 0 0 0 0 -40.411899179976899 -1.7412437753246897 0 -1.7412437753246897 -11.864178992437985 0 0 0 0 -35.239568973600399 -5.7541366894409425 0 -5.7541366894409425 -5.8685695118458518 0 0 0 0 -40.069439352188965 0.089149546184886574 0 0.089149546184886574 -2.2715462135201818 0 0 0 0 -30.316855755139841 -1.0507326592354489 0 -1.0507326592354489 -3.7661526484725218 0 0 0 0 -32.380226059460256 -7.7098526416665978 0 -7.7098526416665978 -1.4928364314508507 0 0 0 0 -43.261752877915569 -0.042226191354425957 0 -0.042226191354425957 -1.6224377009549666 0 0 0 0 -49.432449168147286 -7.7602581101404553 0 -7.7602581101404553 -0.97340633045587088 0 0 0 0 0.17283960251563357 -0.23612839502081329 0 -0.23612839502081329 1.2822578502993633 0 0 0 0 44.423953711331706 -37.604144791171386 0 -37.604144791171386 5.6446774079666966 0 0 0 0 -31.502928230669568 1.6748135407776736 0 1.6748135407776736 -0.21887485169369469 0 0 0 0 -27.33776187156036 1.3609565006900333 0 1.3609565006900333 -2.1533084189105933 0 0 0 0 -43.784244627058797 1.2051680024275182 0 1.2051680024275182 3.3621752226827066 0 0 0 0 89.373911965951265 -39.672275482159208 0 -39.672275482159208 2.225441808894713 0 0 0 0 18.362057512069441 -33.147523846591781 0 -33.147523846591781 18.265369300196625 0 0 0 0 -0.058491060700898601 -0.13054767830664105 0 -0.13054767830664105 0.40455857037838311 0 0 0 0 10.199416752948309 -29.647025705577366 0 -29.647025705577366 28.923067362237447 0 0 0 0 -37.828596718503832 -7.4906707613402697 0 -7.4906707613402697 16.02211223600753 0 0 0 0 31.034805946409506 -32.986643599778525 0 -32.986643599778525 8.5056666548674347 0 0 0 0 22.861184085049899 -8.7624598078053086 0 -8.7624598078053086 8.0939826630699532 0 0 0 0 -38.884427064265765 -0.41928135435285618 0 -0.41928135435285618 3.0479234401711608 0 0 0 0 -18.590636149478087 -6.8254125842539448 0 -6.8254125842539448 0.015554276049653841 0 0 0 0 -47.814211364464427 -2.9576663979872149 0 -2.9576663979872149 0.0027998980102080283 0 0 0 0 -26.706855247859494 -18.985746007940186 0 -18.985746007940186 6.9678258920485696 0 0 0 0 -56.050625890740776 -10.391738750475572 0 -10.391738750475572 2.5906285370531674 0 0 0 0 -64.765293085572921 -1.6060460648049932 0 -1.6060460648049932 0.011157234829185955 0 0 0 0 -65.410574802299379 -2.6217187120182079 0 -2.6217187120182079 -0.53184715084743872 0 0 0 0 -66.208345755789196 -3.7618345237428352 0 -3.7618345237428352 5.4374711840765304 0 0 0 0 -49.453607135746097 -8.2690507109234463 0 -8.2690507109234463 -5.420874094777469 0 0 0 0 -86.803403258403705 -8.0054431123427179 0 -8.0054431123427179 -0.085506702191757156 0 0 0 0 -78.562636371163535 1.5150320460683591 0 1.5150320460683591 -6.3455333708775896 0 0 0 0 -64.189267644902429 -11.193805063438628 0 -11.193805063438628 -9.0094702528980832 0 0 0 0 -54.057918766491639 -1.0681338351043195 0 -1.0681338351043195 -6.3251051036333852 0 0 0 0 -0.19486422611725374 -0.048518576220743626 0 -0.048518576220743626 0.057273482265366008 0 0 0 0 -64.516524553131603 -17.040739003288749 0 -17.040739003288749 23.19280512578684 0 0 0 0 -102.69979981968936 -13.438874854226095 0 -13.438874854226095 3.3778091735950313 0 0 0 0 -142.35282345968881 19.99121598857695 0 19.99121598857695 2.3643524010084525 0 0 0 0 -83.473593681424973 11.36730001321428 0 11.36730001321428 -3.2719963576155293 0 0 0 0 -0.2964328352194201 -0.11632006606471634 0 -0.11632006606471634 0.12456637263473797 0 0 0 0 -83.849673222695856 8.2713295910324316 0 8.2713295910324316 2.2287800470814858 0 0 0 0 -74.211760697868158 -3.8101444614888833 0 -3.8101444614888833 4.3783370122038567 0 0 0 0 -71.980291187632247 9.0034480753949548 0 9.0034480753949548 1.572673132819892 0 0 0 0 -55.018369044810242 1.403393046239729 0 1.403393046239729 -0.0054947336936204145 0 0 0 0 -0.229611543424042 -0.02976998215942217 0 -0.02976998215942217 0.056295568925905148 0 0 0 0 -125.49875098710618 31.031328555486027 0 31.031328555486027 -2.3372495804058389 0 0 0 0 -109.12428919674494 16.062908307391535 0 16.062908307391535 -0.025535236433334517 0 0 0 0 -105.26937190647732 17.308658842434649 0 17.308658842434649 1.9906911955123192 0 0 0 0 -97.116976755394717 17.649469657956274 0 17.649469657956274 -5.8275315817277269 0 0 0 0 -98.41352995334455 24.807782277739079 0 24.807782277739079 -8.2251282878689196 0 0 0 0 -102.4146051591415 9.7985523406802368 0 9.7985523406802368 -0.015238410271153554 0 0 0 0 -99.415430339857267 11.006171937757401 0 11.006171937757401 -5.449913187877133 0 0 0 0 -97.011290208531136 13.476311570340098 0 13.476311570340098 -3.0871404106804583 0 0 0 0 -94.98740405494982 -7.7600553439413131 0 -7.7600553439413131 -1.4122756561522216 0 0 0 0 -82.779479871020158 10.393767200843833 0 10.393767200843833 -2.4353526522436244 0 0 0 0 -64.500685065308062 6.6685728088256369 0 6.6685728088256369 -9.5806266346296098 0 0 0 0 -85.912471679399459 6.0184499056271559 0 6.0184499056271559 -8.0995547646467614 0 0 0 0 -92.293289996130625 16.954351805216334 0 16.954351805216334 1.7996098293114571 0 0 0 0 -99.323838356256601 22.061440551783832 0 22.061440551783832 8.5539968114758373 0 0 0 0 -98.196886877238285 19.237974118086338 0 19.237974118086338 2.4619306484969687 0 0 0 0 -92.560815734201242 24.545634584973062 0 24.545634584973062 6.2292895608841761 0 0 0 0 -90.88047991215717 19.939018130003589 0 19.939018130003589 8.3475377630448477 0 0 0 0 -107.83616999749574 23.26559296276745 0 23.26559296276745 24.196463217110505 0 0 0 0 -122.22871116892748 27.029631545709247 0 27.029631545709247 29.301119514443869 0 0 0 0 -211.37888875478529 18.761143164806327 0 18.761143164806327 28.780053789220315 0 0 0 0 -50.150332750596135 21.430285222101304 0 21.430285222101304 -5.2372589700903678 0 0 0 0 -109.61321433126795 34.351979826223328 0 34.351979826223328 4.9202825289630168 0 0 0 0 -62.567558416849351 47.364221161397076 0 47.364221161397076 -12.112973870047114 0 0 0 0 -59.292172575292852 8.1015302799063456 0 8.1015302799063456 -12.790352295021904 0 0 0 0 -11.786785879805393 21.040748738184931 0 21.040748738184931 -11.664426484095394 0 0 0 0 -2.000241742160398 0.0025382557797151151 0 0.0025382557797151151 0.16651237153649542 0 0 0 0 -53.318929460867366 25.724687453395298 0 25.724687453395298 29.344122982017041 0 0 0 0 -19.489035834949391 16.241372642250703 0 16.241372642250703 -5.6436770434600874 0 0 0 0 -45.255442706518807 27.799481932270243 0 27.799481932270243 9.4896519081795141 0 0 0 0 -13.161866806263788 26.084576354156585 0 26.084576354156585 -2.7613811233343029 0 0 0 0 21.81545116725465 23.841950222990206 0 23.841950222990206 -16.478468483930499 0 0 0 0 9.8775972934672609 -36.556637699795374 0 -36.556637699795374 -118.18312895364983 0 0 0 0 39.53080324712937 -1.3357318328988868 0 -1.3357318328988868 -89.460703617897025 0 0 0 0 -164.76996859221981 -24.491346752614319 0 -24.491346752614319 16.781088460981266 0 0 0 0 -1.1822615184512699 0.045341323086930174 0 0.045341323086930174 0.024555102604612966 0 0 0 0 -284.46201894128899 151.21130172574971 0 151.21130172574971 -61.535163244778602 0 0 0 0 -436.01176499603025 194.1277792512015 0 194.1277792512015 -129.51618407495465 0 0 0 0 -101.97448017998067 90.144497970473935 0 90.144497970473935 -41.879230765828694 0 0 0 0 -110.24779228687839 -33.455317212149055 0 -33.455317212149055 -19.171267361766937 0 0 0 0 -170.09137452326468 -8.7207909517051281 0 -8.7207909517051281 20.649701267556466 0 0 0 0 -155.94725723114607 -54.168780732112836 0 -54.168780732112836 8.6363148973658213 0 0 0 0 -266.44333018804173 45.751511515516938 0 45.751511515516938 -5.1038231461897396 0 0 0 0 -96.098811990050308 -62.647184998023917 0 -62.647184998023917 7.6667074925319554 0 0 0 0 -93.190822876083303 -21.858611901548905 0 -21.858611901548905 6.3868508082430253 0 0 0 0 -49.698915896318795 -50.605393003714234 0 -50.605393003714234 25.346185614152262 0 0 0 0 0.65512414275872288 31.216135158116657 0 31.216135158116657 -4.3980701903007917 0 0 0 0 -0.84505262266594627 0.015077488614867463 0 0.015077488614867463 0.045138740755173878 0 0 0 0 -41.805222306906217 62.996774567665412 0 62.996774567665412 -78.591379196019005 0 0 0 0 -117.21300969602453 29.217894722931476 0 29.217894722931476 -4.4140360792333793 0 0 0 0 -106.65185162842317 -42.124754215852306 0 -42.124754215852306 -4.1580765502918666 0 0 0 0 -110.2118887754259 4.5665096242963727 0 4.5665096242963727 -1.6229443906757908 0 0 0 0 -48.406410729425261 -42.231294450610193 0 -42.231294450610193 29.276791911002373 0 0 0 0 -104.95663094678457 -13.051564004552294 0 -13.051564004552294 -0.50745548441288779 0 0 0 0 -135.38261567600057 -1.6127563912184932 0 -1.6127563912184932 -4.1099361213043437 0 0 0 0 -115.82899652748893 -6.4226970121811107 0 -6.4226970121811107 -23.073018601006169 0 0 0 0 -139.44894277241292 -5.4450154966324096 0 -5.4450154966324096 14.992536970729759 0 0 0 0 -129.4851389880605 -0.2739594512339707 0 -0.2739594512339707 -4.5823133899860746 0 0 0 0 -131.3685084341414 5.6983834113150262 0 5.6983834113150262 -13.266922226050148 0 0 0 0 -116.91464735704358 3.0715167106543593 0 3.0715167106543593 -12.058804485932427 0 0 0 0 -117.79165218664639 -5.4167239981688926 0 -5.4167239981688926 -11.652979495570662 0 0 0 0 -127.60720657710044 4.1400914515926726 0 4.1400914515926726 -1.8081388848990398 0 0 0 0 -64.91488646157859 -1.5994160472420029 0 -1.5994160472420029 -13.440035102481836 0 0 0 0 -0.21743295560158771 0.080094352860626827 0 0.080094352860626827 -0.02925565571413595 0 0 0 0 -125.62680203233322 -6.823345946479094 0 -6.823345946479094 -0.17040985269200704 0 0 0 0 -66.193727689620573 -7.0816842818554244 0 -7.0816842818554244 -4.8949852948985253 0 0 0 0 -60.261184144677827 -2.4741475563031763 0 -2.4741475563031763 -13.336870242300206 0 0 0 0 -97.74896915228237 -18.047191549108238 0 -18.047191549108238 0.7404448062643405 0 0 0 0 -68.074989587998061 2.404783765294551 0 2.404783765294551 -0.025502064696373051 0 0 0 0 -0.25489136271636426 0.071341830070466017 0 0.071341830070466017 -0.030513867142084199 0 0 0 0 -129.86159392805712 -3.822305490466289 0 -3.822305490466289 1.5513569536157559 0 0 0 0 -117.37712415843635 -1.0671598334883741 0 -1.0671598334883741 -0.71726618005378207 0 0 0 0 -112.11880310252309 2.8564347495767333 0 2.8564347495767333 0.023192462665214887 0 0 0 0 -114.68040092557931 4.6340274108120294 0 4.6340274108120294 1.6238220673813535 0 0 0 0 -117.88512299081663 7.1738499590693747 0 7.1738499590693747 0.39421175846448264 0 0 0 0 -100.53106791283426 14.492114383994226 0 14.492114383994226 -2.9265564047130956 0 0 0 0 -116.64753658797417 12.283215961352688 0 12.283215961352688 -1.7561946386258109 0 0 0 0 -104.01102385156264 3.8175748946506567 0 3.8175748946506567 -0.0030078183516529444 0 0 0 0 -95.842388525928982 14.126792020052131 0 14.126792020052131 -3.6160109719680356 0 0 0 0 -95.938272074068664 12.116878683606824 0 12.116878683606824 -4.0755724856338933 0 0 0 0 -70.402204478061321 1.0785129158542697 0 1.0785129158542697 0.0027086501888525412 0 0 0 0 -27.264687571951072 10.992430047420848 0 10.992430047420848 -2.5357593792223185 0 0 0 0 4.6314757227228256 6.431712177769465 0 6.431712177769465 -2.7219690467526068 0 0 0 0 -0.18676509110520101 0.10902794096811874 0 0.10902794096811874 0.0030381459748803092 0 0 0 0 -107.39341028093077 -9.6046612499217581 0 -9.6046612499217581 -11.595617789038382 0 0 0 0 -53.700543067054241 -23.483565627313833 0 -23.483565627313833 -9.3824014813410983 0 0 0 0 -48.173437572113471 -15.924907043462269 0 -15.924907043462269 0.64804803099408126 0 0 0 0 -11.31012571435167 2.2826574448632559 0 2.2826574448632559 2.110828172827905 0 0 0 0 -0.36007966260748958 0.28123630353972828 0 0.28123630353972828 0.040327661079439359 0 0 0 0 -27.994294760501361 -7.0231077513076396 0 -7.0231077513076396 -4.079494111124907 0 0 0 0 17.565664916073729 28.277719209947055 0 28.277719209947055 -3.5816709812856429 0 0 0 0 -0.47028860743942857 0.3271023806488671 0 0.3271023806488671 -0.06460137040142401 0 0 0 0 -214.17998928028283 -33.814565572447606 0 -33.814565572447606 1.4920825018495165 0 0 0 0 -175.12647965580982 16.194878518580847 0 16.194878518580847 -9.6174052122847531 0 0 0 0 -120.58144699905824 8.8877854477122504 0 8.8877854477122504 -18.826333886326129 0 0 0 0 -118.95409452734748 1.3798366056159488 0 1.3798366056159488 -4.1815343433630892 0 0 0 0 -73.6572682092592 32.391714180383566 0 32.391714180383566 -2.3318535319083673 0 0 0 0 -34.397153972400702 1.40276189917165 0 1.40276189917165 -2.0992985879992214 0 0 0 0 -33.512626684513634 -3.0515794853348526 0 -3.0515794853348526 -6.1620418964981765 0 0 0 0 -28.693647451473225 -0.66342239478302667 0 -0.66342239478302667 0.0069907763440578757 0 0 0 0 -33.681337479310969 -2.7355407804401248 0 -2.7355407804401248 1.7982732963786219 0 0 0 0 -31.307763987540966 1.3292274039099499 0 1.3292274039099499 -2.6065586162116707 0 0 0 0 -23.892754298965883 -3.5802614636520453 0 -3.5802614636520453 -1.6224704257069578 0 0 0 0 -16.979934278539076 -1.7468906852672665 0 -1.7468906852672665 -0.01435841312502959 0 0 0 0 -23.599090115058061 -2.3166957568506792 0 -2.3166957568506792 3.3792018706502946 0 0 0 0 -18.614635610578262 -3.6023208083471863 0 -3.6023208083471863 1.8124996862062615 0 0 0 0 -24.217726910545025 -5.5179000069800219 0 -5.5179000069800219 2.0698287405843061 0 0 0 0 -30.534724228913547 -1.6098824457057437 0 -1.6098824457057437 4.3448042537533915 0 0 0 0 -25.528699610727017 -0.48264194005021555 0 -0.48264194005021555 -0.076062560405340207 0 0 0 0 -36.133847054152284 -0.3016619130172753 0 -0.3016619130172753 3.4166647302301634 0 0 0 0 -37.222885726696404 5.7824310387168065 0 5.7824310387168065 1.6869283508857684 0 0 0 0 -36.133527490237611 6.1461328371343562 0 6.1461328371343562 0.29386491182861452 0 0 0 0 -33.22716920408493 0.25135257707310199 0 0.25135257707310199 -1.6407474817005285 0 0 0 0 -49.988873251961195 11.092969319691861 0 11.092969319691861 0.19260152626075211 0 0 0 0 -47.172314279265265 10.18456001073265 0 10.18456001073265 -4.1617334039077321 0 0 0 0 -41.064143132345635 11.506181767767615 0 11.506181767767615 0.1442331742230607 0 0 0 0 -40.378930694860173 6.2271097532335791 0 6.2271097532335791 2.3144683100541457 0 0 0 0 -35.876247881926247 10.145018390551671 0 10.145018390551671 -0.56101752064247989 0 0 0 0 -46.018392518621113 7.1418889409517732 0 7.1418889409517732 2.8535398510562828 0 0 0 0 -52.000665816041874 2.0528839925789768 0 2.0528839925789768 0.94169977727110066 0 0 0 0 -40.711761055550596 1.4468837433803792 0 1.4468837433803792 0.74254193267609025 0 0 0 0 -37.355186363231041 -5.3845026749100384 0 -5.3845026749100384 -2.9328278561802676 0 0 0 0 -40.428032792086015 2.129302206194204 0 2.129302206194204 2.0925527291784398 0 0 0 0 -31.668402536233771 -9.379527967547844 0 -9.379527967547844 -0.56513991562970034 0 0 0 0 -0.42827878753132609 0.36709577465005339 0 0.36709577465005339 0.064744898339731405 0 0 0 0 -19.584294067622977 -0.74401707017022289 0 -0.74401707017022289 -0.3306664078950039 0 0 0 0 -0.41246036271672892 0.37420234471341018 0 0.37420234471341018 0.0065351371064235608 0 0 0 0 -9.8143604270881042 9.6557791100488881 0 9.6557791100488881 8.1778359913699603 0 0 0 0 -5.9870561607676791 -5.2790546790832842 0 -5.2790546790832842 0.50414546545935934 0 0 0 0 -27.796362616179977 1.4848946462510391 0 1.4848946462510391 14.592658853115537 0 0 0 0 -24.543116385601024 8.8343473015106611 0 8.8343473015106611 -3.1106655347168441 0 0 0 0 -32.777512611399288 -2.5416257344628193 0 -2.5416257344628193 0.36386829518613695 0 0 0 0 -22.039603955381608 -1.145313941908114 0 -1.145313941908114 -6.8202102791469912 0 0 0 0 19.846719138440676 28.370535071451812 0 28.370535071451812 -3.9663892293879019 0 0 0 0 -31.65778457072156 18.450801247874313 0 18.450801247874313 1.2148439733203187 0 0 0 0 -0.19772785810145876 0.16247195160103445 0 0.16247195160103445 -0.027790692031415598 0 0 0 0 -52.327803070020309 -15.84666957623978 0 -15.84666957623978 -6.423161188528951 0 0 0 0 -96.617894873186742 -14.470167139957283 0 -14.470167139957283 1.9388942223522179 0 0 0 0 -62.656242211276549 6.7627218312410804 0 6.7627218312410804 0.20305385678543075 0 0 0 0 -51.231755631559281 7.7601120226132636 0 7.7601120226132636 -2.8602184945301872 0 0 0 0 -51.09926355722564 7.4959044301795359 0 7.4959044301795359 -6.7531790821157216 0 0 0 0 -50.725996998786286 12.079890608149775 0 12.079890608149775 -9.5020651913804883 0 0 0 0 -81.436175408058261 10.371985124554659 0 10.371985124554659 -2.070587922842023 0 0 0 0 -46.772737535429769 -2.1056316219166291 0 -2.1056316219166291 -3.045655064013026 0 0 0 0 -15.269011017197045 -9.5459637599777949 0 -9.5459637599777949 3.7653149636644514 0 0 0 0 -46.273562196496641 0.44413009755862021 0 0.44413009755862021 3.7544569305575806 0 0 0 0 -41.907827979775902 -0.61198845327645301 0 -0.61198845327645301 -3.0288023703651845 0 0 0 0 -0.35553103784033624 -0.31986103645878927 0 -0.31986103645878927 0.20721775661153252 0 0 0 0 -45.978689783365553 1.4407815980675807 0 1.4407815980675807 1.5763302548850788 0 0 0 0 0.075393935100283471 0.31791185108576769 0 0.31791185108576769 0.039169825952732745 0 0 0 0 -51.925979813826416 8.9727561249997905 0 8.9727561249997905 -1.3010439246534276 0 0 0 0 -49.423846063466044 7.2012698511523734 0 7.2012698511523734 -1.3403595049812225 0 0 0 0 -47.182226846489357 6.4876921742545619 0 6.4876921742545619 -8.5928065917272747 0 0 0 0 -49.060887626605108 7.9430139165307878 0 7.9430139165307878 -4.8917921973235394 0 0 0 0 -0.81572736070832264 0.80873999679188557 0 0.80873999679188557 -0.18922210482234669 0 0 0 0 -88.942084662921843 -3.2932937918689049 0 -3.2932937918689049 1.2764594800161575 0 0 0 0 -90.12937014754425 -15.116679087021765 0 -15.116679087021765 5.6279947694081187 0 0 0 0 -127.14903009179943 -34.450911248609245 0 -34.450911248609245 -4.8318625302695963 0 0 0 0 -149.0194094758408 6.0375368112248715 0 6.0375368112248715 5.2600874324874098 0 0 0 0 -35.851474250903266 -2.2417434304593975 0 -2.2417434304593975 15.646171744023459 0 0 0 0 -11.944745921013237 10.490764408284814 0 10.490764408284814 10.695294263626151 0 0 0 0 -32.65912924031727 -6.5683445822925925 0 -6.5683445822925925 7.5745059943556505 0 0 0 0 -26.950350942119258 -1.1538243359237512 0 -1.1538243359237512 5.2801703177939334 0 0 0 0 -34.079766386523261 -6.5572719924425229 0 -6.5572719924425229 7.3895568592979917 0 0 0 0 -26.189640771764971 -2.4149018333574972 0 -2.4149018333574972 7.2245228460158017 0 0 0 0 -34.523515406821389 -5.7178384748278717 0 -5.7178384748278717 6.5678114490397803 0 0 0 0 -16.702075719540517 7.1411731849152851 0 7.1411731849152851 -12.628179380561022 0 0 0 0 -1.3425348498120258 0.76907804999376594 0 0.76907804999376594 -0.18335903824860872 0 0 0 0 -19.236215995973907 -10.466868013918912 0 -10.466868013918912 -8.7172358920394686 0 0 0 0 -28.004501731142227 5.2242485414673396 0 5.2242485414673396 2.8579087865223869 0 0 0 0 -31.033315463588224 -6.4042548907300727 0 -6.4042548907300727 5.5776874773820708 0 0 0 0 -42.281402033346239 -14.664247615784475 0 -14.664247615784475 -12.355421758640517 0 0 0 0 -34.868023793836073 -2.8681998755093865 0 -2.8681998755093865 2.3499590177010532 0 0 0 0 -42.573371772115934 0.70171618997358109 0 0.70171618997358109 6.6514157253225648 0 0 0 0 -62.608030928924563 -1.6519079838407436 0 -1.6519079838407436 -1.5264866392496401 0 0 0 0 -30.783423512195441 -4.2624865777995744 0 -4.2624865777995744 -3.3437845858589128 0 0 0 0 -57.913628560971119 -18.923852164354543 0 -18.923852164354543 -3.3975939749746402 0 0 0 0 -0.94455005604676501 -0.0059635443277272771 0 -0.0059635443277272771 0.050952135505268836 0 0 0 0 -60.577382803108776 -14.441574033537449 0 -14.441574033537449 -2.6790455476233603 0 0 0 0 -60.277040438959375 -15.098713642078096 0 -15.098713642078096 -8.0338895714752994 0 0 0 0 1.0038155047930957 0.17116530792807794 0 0.17116530792807794 -0.10974521746337207 0 0 0 0 1.7181873674926464 -2.6389746725359089 0 -2.6389746725359089 -5.1056317884642795 0 0 0 0 -33.036450216808589 -0.64113858334236085 0 -0.64113858334236085 -10.979570372859541 0 0 0 0 -34.94752423245518 16.019836212409643 0 16.019836212409643 11.74729929305812 0 0 0 0 4.4180051445873687 -9.9341189883277821 0 -9.9341189883277821 0.97501007180619581 0 0 0 0 -10.936838505085575 0.40243453594270306 0 0.40243453594270306 0.83315194785465829 0 0 0 0 -18.064517037637415 -6.3326716097813573 0 -6.3326716097813573 1.9636417661038905 0 0 0 0 -4.1068693612102436 -1.9919914160302383 0 -1.9919914160302383 0.20387835767319662 0 0 0 0 20.64635038281267 5.5696241868253509 0 5.5696241868253509 2.688305871987609 0 0 0 0 -4.1446826114843134 -18.325726527328086 0 -18.325726527328086 -3.770475648537797 0 0 0 0 -23.55147642607335 14.471974148603266 0 14.471974148603266 -17.845752646651803 0 0 0 0 -89.52924640719084 23.10778531187318 0 23.10778531187318 -32.585928812556375 0 0 0 0 -35.014653796286439 13.508716995576236 0 13.508716995576236 -13.259148512848299 0 0 0 0 -85.183630106272176 5.0415934859721467 0 5.0415934859721467 3.0233281252628785 0 0 0 0 -91.296484942802635 2.1774699010133389 0 2.1774699010133389 -0.70035628884463108 0 0 0 0 -90.88223821400652 7.9129437239837115 0 7.9129437239837115 6.1673561990487258 0 0 0 0 -20.466917064110021 -1.442149823346579 0 -1.442149823346579 -5.3479019197659738 0 0 0 0 -130.59531335631618 9.0131288836994301 0 9.0131288836994301 18.142963298020277 0 0 0 0 -136.61266254743532 -9.6814496624262176 0 -9.6814496624262176 11.79589579802353 0 0 0 0 -155.98838406828872 -8.2156993461294547 0 -8.2156993461294547 17.21063758783032 0 0 0 0 -156.37032582549728 22.292307523210198 0 22.292307523210198 6.5323788565291494 0 0 0 0 -132.14980400030618 -124.81889183365672 0 -124.81889183365672 -142.19997380796022 0 0 0 0 -125.94379996277712 38.332909765730292 0 38.332909765730292 -136.71792447176941 0 0 0 0 -155.4544635903876 -81.101929032030483 0 -81.101929032030483 -67.099556132089361 0 0 0 0 -160.21803708720836 -131.09699064892439 0 -131.09699064892439 -47.266274581479891 0 0 0 0 -245.99135550353094 -192.01188946552512 0 -192.01188946552512 -90.06385097701525 0 0 0 0 -24.300747496214171 -14.755244283739898 0 -14.755244283739898 -369.38606711371358 0 0 0 0 -86.123335700453026 -14.907669850243792 0 -14.907669850243792 6.0451857905471797 0 0 0 0 -183.19459858907794 -107.63823602007677 0 -107.63823602007677 27.274934282139156 0 0 0 0 -3.6497973760217235 -6.5548273520948515 0 -6.5548273520948515 -0.68973947302478522 0 0 0 0 -113.42602353791881 -15.170931064384035 0 -15.170931064384035 43.573570310493864 0 0 0 0 -216.36206217505969 -90.423844441739362 0 -90.423844441739362 -8.463760293642423 0 0 0 0 -108.41704379702423 1.6737649502778353 0 1.6737649502778353 13.476160462917305 0 0 0 0 -12.410588679747889 14.889573027038848 0 14.889573027038848 -17.518584759042731 0 0 0 0 -57.118115054414375 -35.412186461783172 0 -35.412186461783172 -11.603464747917116 0 0 0 0 -84.687789773764962 2.3752436541006148 0 2.3752436541006148 -5.1071692715974315 0 0 0 0 -97.10585093501868 -18.423812827370298 0 -18.423812827370298 -27.544682304146466 0 0 0 0 -7.4994525038352862 -10.923275785847864 0 -10.923275785847864 -5.2506693151904855 0 0 0 0 30.76692379303131 -19.767849424816688 0 -19.767849424816688 -27.148946235143683 0 0 0 0 -18.507095484281777 6.6579299085039949 0 6.6579299085039949 3.8650522122747422 0 0 0 0 -47.479531754041091 8.0075897427900031 0 8.0075897427900031 14.835031455113722 0 0 0 0 -35.339610234761494 -7.2709777760844361 0 -7.2709777760844361 -5.7640081441900293 0 0 0 0 -49.441095609319746 13.283719495675086 0 13.283719495675086 5.0112364761195352 0 0 0 0 -39.527568758603593 -6.8871653859187845 0 -6.8871653859187845 -4.0274741551207143 0 0 0 0 -6.6350477841870088 -1.7683861360077628 0 -1.7683861360077628 -0.49592488309872979 0 0 0 0 -34.724757017098995 0.28235994231039196 0 0.28235994231039196 -0.56161453063713995 0 0 0 0 -40.347132267805137 -7.8930341929098233 0 -7.8930341929098233 5.4395546996724136 0 0 0 0 -31.845396312892262 -3.1513711313940007 0 -3.1513711313940007 -5.0616955305437639 0 0 0 0 -50.259072299202671 22.634185046222001 0 22.634185046222001 86.018533346972873 0 0 0 0 -241.38131265644915 -104.06738308467808 0 -104.06738308467808 94.095555798820342 0 0 0 0 -29.567435914210364 -8.146815731178199 0 -8.146815731178199 4.8407288572223734 0 0 0 0 -12.096601703342905 -9.7469259610612298 0 -9.7469259610612298 -1.2218379671422599 0 0 0 0 -37.358631594771211 -9.1798994962890585 0 -9.1798994962890585 0.95489562358520252 0 0 0 0 43.077835490272264 -20.789706024813285 0 -20.789706024813285 -27.06944144047462 0 0 0 0 27.591477598474739 2.0142985925896255 0 2.0142985925896255 -25.398180526748632 0 0 0 0 12.088551277985971 43.083415655199232 0 43.083415655199232 -31.252684258648856 0 0 0 0 -114.98268915483277 -61.793522098136009 0 -61.793522098136009 -38.269005011421484 0 0 0 0 -1.1370433309168675 -0.32883657715188974 0 -0.32883657715188974 -1.8418211834009737 0 0 0 0 -12.400280309098889 30.267788205295005 0 30.267788205295005 -80.935432844975452 0 0 0 0 20.699269469136198 -26.453613725983587 0 -26.453613725983587 -3.6787840151182536 0 0 0 0 -36.816016583047038 -19.895656824343824 0 -19.895656824343824 -1.2751382323877016 0 0 0 0 -0.073831326106287065 -0.24784694899484094 0 -0.24784694899484094 -1.5383784018682343 0 0 0 0 -10.584557051130105 15.169447087631283 0 15.169447087631283 -16.904392094735613 0 0 0 0 -1.2140609776647437 -16.694111586650035 0 -16.694111586650035 -11.15643046180535 0 0 0 0 -53.421287996531738 5.0652173041318775 0 5.0652173041318775 10.2185903793811 0 0 0 0 -15.049118782035919 -0.40369088743796766 0 -0.40369088743796766 4.6735266930434243 0 0 0 0 -12.501471219788073 -16.64678046256995 0 -16.64678046256995 19.233810243049447 0 0 0 0 5.4855631792452186 32.111675282492627 0 32.111675282492627 -53.171539239927029 0 0 0 0 84.035669063068781 20.275413187275063 0 20.275413187275063 -40.084279008123019 0 0 0 0 -154.66042212813772 -27.458369530435732 0 -27.458369530435732 -13.196146058578677 0 0 0 0 -78.082499093737169 -87.386029898329127 0 -87.386029898329127 19.520972718942176 0 0 0 0 -27.179420064667283 16.898246825831961 0 16.898246825831961 2.3153768468503131 0 0 0 0 -44.747266939647943 70.509305790631032 0 70.509305790631032 -19.688117039020426 0 0 0 0 -51.20765888729693 21.680587713660316 0 21.680587713660316 52.677971688857724 0 0 0 0 0.29202812613168483 11.157673059549484 0 11.157673059549484 -0.47345281659781424 0 0 0 0 -14.557121267738999 -1.3438099675420858 0 -1.3438099675420858 -2.0405477506028933 0 0 0 0 -68.232891898825983 31.629023617771907 0 31.629023617771907 45.692539737790412 0 0 0 0 -30.036482916017121 89.423706906021863 0 89.423706906021863 -97.749286253221683 0 0 0 0 -90.279558103629824 107.83852120852644 0 107.83852120852644 -95.781512244105841 0 0 0 0 -39.37714002514258 -4.6539126919261378 0 -4.6539126919261378 11.672981696268721 0 0 0 0 -5.3661009671978306 -3.5659198574895932 0 -3.5659198574895932 -2.1119081699931948 0 0 0 0 -78.443222399121268 5.2099208786034747 0 5.2099208786034747 0.38906543821638634 0 0 0 0 -239.36892850894947 141.59038674827821 0 141.59038674827821 510.44224567408088 0 0 0 0 -114.13467543730803 39.496041203951648 0 39.496041203951648 169.77692574291433 0 0 0 0 -95.703117806537193 377.75420652643419 0 377.75420652643419 196.1086284322397 0 0 0 0 -91.223243536267546 42.964941813869885 0 42.964941813869885 136.26765748677315 0 0 0 0 -222.30715107468131 -413.46950173802043 0 -413.46950173802043 131.82771404484839 0 0 0 0 26.667057539860252 344.09548943058303 0 344.09548943058303 -114.64553259944353 0 0 0 0 -68.159049701935146 -255.31134285161318 0 -255.31134285161318 -106.10043920931986 0 0 0 0 -59.504765093392052 5.8660783496500244 0 5.8660783496500244 39.603933322746059 0 0 0 0 -207.59636107788538 -133.16355003407921 0 -133.16355003407921 283.31111432772775 0 0 0 0 -73.459006293967192 1.0202615287388817 0 1.0202615287388817 1.4865345115622448 0 0 0 0 -67.350401298670477 66.005595299261813 0 66.005595299261813 13.764889706098984 0 0 0 0 44.747431681491435 -79.530039259122361 0 -79.530039259122361 -187.91263929401276 0 0 0 0 -33.351277328561991 17.531469663626069 0 17.531469663626069 107.59437919805316 0 0 0 0 -31.227914621245873 -0.51376549642284886 0 -0.51376549642284886 0.35727028931755456 0 0 0 0 -34.021797074698043 1.37772540244179 0 1.37772540244179 7.6913707244323177 0 0 0 0 -39.770330539246061 -6.1559485157758722 0 -6.1559485157758722 10.383178109285744 0 0 0 0 -31.799173299525776 -2.069876641005842 0 -2.069876641005842 0.61903030558881156 0 0 0 0 -35.325228890069411 -4.1146477306957863 0 -4.1146477306957863 4.1865106905750338 0 0 0 0 -36.286701427859953 -4.0057328233449105 0 -4.0057328233449105 6.8751164953555843 0 0 0 0 -32.493179636308923 -2.5622414478418349 0 -2.5622414478418349 5.0208344258586806 0 0 0 0 -40.788904860935872 -7.1007120780208979 0 -7.1007120780208979 4.7478105900166696 0 0 0 0 -34.575602513068588 -6.8666685621715118 0 -6.8666685621715118 1.2930861572820618 0 0 0 0 -28.726244340236008 -2.8705708814328688 0 -2.8705708814328688 1.940650285537493 0 0 0 0 -43.595577694275562 2.9748848387637228 0 2.9748848387637228 1.1761757778736381 0 0 0 0 -44.310426630836446 -0.89856190259952484 0 -0.89856190259952484 -4.2036795179994115 0 0 0 0 -33.520077688372837 0.95189318365303244 0 0.95189318365303244 0.61175374716169995 0 0 0 0 -37.712636468637356 -3.7535273760634595 0 -3.7535273760634595 7.286611995399797 0 0 0 0 -42.685713084229064 8.8430618550079956 0 8.8430618550079956 3.8426370767645714 0 0 0 0 -49.852195955625575 11.193145601699467 0 11.193145601699467 1.9813200302990595 0 0 0 0 -42.388343742990401 8.3234309978115597 0 8.3234309978115597 2.7554871886962227 0 0 0 0 -33.697570580141473 0.32922517745749147 0 0.32922517745749147 -3.451478373216446 0 0 0 0 -43.095921893895138 -0.90866378328888331 0 -0.90866378328888331 -3.5834153322211737 0 0 0 0 -23.046451658846166 6.2201464837615603 0 6.2201464837615603 1.9415401194360931 0 0 0 0 -36.434758275492641 -2.3859098637062743 0 -2.3859098637062743 -7.9462887339892916 0 0 0 0 -26.499397038656753 -0.53668540280557409 0 -0.53668540280557409 -0.6168125824440267 0 0 0 0 -17.708445178408063 -0.92349828850404236 0 -0.92349828850404236 0.60263324106041738 0 0 0 0 -27.774871687880221 1.1552667391570486 0 1.1552667391570486 -0.45103153069422219 0 0 0 0 -51.595328116387464 -3.9186624537625789 0 -3.9186624537625789 -1.8224351729841146 0 0 0 0 4.8645812583908992 17.099472118899683 0 17.099472118899683 -25.031346725496974 0 0 0 0 -14.99419072060272 0.35563458513110646 0 0.35563458513110646 -1.4660511149936319 0 0 0 0 -42.061002608927083 3.0577292752163885 0 3.0577292752163885 32.133754557376506 0 0 0 0 -33.232156238631809 -6.2903127162374188 0 -6.2903127162374188 0.41532726948951515 0 0 0 0 -60.916350016130309 -0.75397663355863642 0 -0.75397663355863642 5.3923570476538316 0 0 0 0 -38.043420868538128 -8.5336083515775982 0 -8.5336083515775982 -0.41666915714831465 0 0 0 0 -53.811317944033362 -13.109159759899512 0 -13.109159759899512 -0.1099906377305615 0 0 0 0 -52.553507106384131 -0.78037678542150957 0 -0.78037678542150957 -0.83044247203349641 0 0 0 0 -68.808820596779697 -14.896900008322064 0 -14.896900008322064 10.23923590432355 0 0 0 0 -15.898671525851565 5.2647977700079238 0 5.2647977700079238 3.10070685777539 0 0 0 0 -73.138573094442108 -13.62187019631574 0 -13.62187019631574 3.439283016920001 0 0 0 0 -12.166605422354614 -1.6649986627902926 0 -1.6649986627902926 0.42884238026053456 0 0 0 0 -51.648672857132624 0.96997169258497706 0 0.96997169258497706 1.5280462515274849 0 0 0 0 -58.909520082896051 6.2601704438964916 0 6.2601704438964916 13.435616302973386 0 0 0 0 -27.215050573714265 4.0739441377010621 0 4.0739441377010621 3.4202020058927713 0 0 0 0 -15.169803685421741 1.7841179184843803 0 1.7841179184843803 2.0198333407984248 0 0 0 0 -14.306375859267753 10.35885638784816 0 10.35885638784816 -0.061390511080552296 0 0 0 0 -67.457489534841443 -19.880582715549849 0 -19.880582715549849 3.5296943886835379 0 0 0 0 -14.60164251725655 2.9601263245867813 0 2.9601263245867813 19.254293304188536 0 0 0 0 -51.194791078589333 -25.887611181332318 0 -25.887611181332318 -5.2763749453866922 0 0 0 0 -21.006777736307413 1.5385066863204244 0 1.5385066863204244 -2.2768137127871029 0 0 0 0 -36.483702207823676 -4.6703576236910971 0 -4.6703576236910971 1.5422816678280102 0 0 0 0 -64.080899182561552 -5.4919196459584327 0 -5.4919196459584327 2.7795861557075909 0 0 0 0 1.3388601672387779 -8.0902063759915315 0 -8.0902063759915315 -1.763819946781173 0 0 0 0 -8.1696049914153264 -0.29751287926529812 0 -0.29751287926529812 1.6422425257099431 0 0 0 0 -31.081107022329888 3.3978873725409748 0 3.3978873725409748 -6.1336396320765516 0 0 0 0 -20.244938731836285 -4.1346711012561475 0 -4.1346711012561475 -0.34542066930348403 0 0 0 0 -28.699203575116812 -0.29904698035813837 0 -0.29904698035813837 2.4899855934059265 0 0 0 0 -12.4311077625498 -2.87720192966583 0 -2.87720192966583 19.587181126092787 0 0 0 0 -36.76790961111692 -3.3320668092784445 0 -3.3320668092784445 27.076893693827742 0 0 0 0 -30.811097635493041 -12.498144087263086 0 -12.498144087263086 6.0606458228834637 0 0 0 0 -34.936260351541932 -8.8606961061236404 0 -8.8606961061236404 7.7346708412333669 0 0 0 0 -21.940151842718478 -2.360316584976033 0 -2.360316584976033 -1.5126880113920791 0 0 0 0 -36.649127408949425 -5.7022947223638809 0 -5.7022947223638809 4.1065753122568296 0 0 0 0 -7.0090688439364399 -2.9453679213081223 0 -2.9453679213081223 0.92129378177734467 0 0 0 0 -33.415613758093968 -3.792091387814132 0 -3.792091387814132 -4.2796498091807962 0 0 0 0 -18.854101565812016 -10.303074350382929 0 -10.303074350382929 0.029491535554768689 0 0 0 0 -22.642770535226191 -0.85142792326642258 0 -0.85142792326642258 -2.5125256454485978 0 0 0 0 -16.923635958660725 -1.5492358496449041 0 -1.5492358496449041 -2.8596198356135076 0 0 0 0 -28.283134865148895 -9.0809564732087011 0 -9.0809564732087011 0.12596189466560759 0 0 0 0 -29.325464032525645 -4.2624257760030382 0 -4.2624257760030382 1.0243425530982928 0 0 0 0 -40.943761670263484 -5.0961199404189301 0 -5.0961199404189301 10.140074024856403 0 0 0 0 -6.9188561023875081 -10.856119779266862 0 -10.856119779266862 10.069169505923583 0 0 0 0 -32.241024899492913 -6.4582113752171608 0 -6.4582113752171608 -3.9335395199909158 0 0 0 0 -9.7620984063768681 7.3303576765653986 0 7.3303576765653986 3.107918765848896 0 0 0 0 -7.5065469331372547 -8.0483805402368134 0 -8.0483805402368134 -1.7450615147124977 0 0 0 0 -22.073059335840298 -5.1980871314161892 0 -5.1980871314161892 -4.6442265480862446 0 0 0 0 -29.340033751430383 -0.50265654135526461 0 -0.50265654135526461 -2.9662796184222771 0 0 0 0 -36.144742233434954 -10.514299738942384 0 -10.514299738942384 -2.7526351040778678 0 0 0 0 -7.6732065154029279 7.6905045158961087 0 7.6905045158961087 3.1848545854552608 0 0 0 0 -39.344208095940303 13.830873689245166 0 13.830873689245166 16.389774857103021 0 0 0 0 -37.450626055162502 15.169274845176343 0 15.169274845176343 15.787524002289402 0 0 0 0 -44.047752992917594 24.840343560385826 0 24.840343560385826 18.780310334621056 0 0 0 0 -4.8074366375067257 32.82997622167008 0 32.82997622167008 33.83974003746107 0 0 0 0 -94.697494551497584 -24.478148511818631 0 -24.478148511818631 5.2564288722867332 0 0 0 0 -0.5633199689345858 -0.058843323669186987 0 -0.058843323669186987 0.085051599734371042 0 0 0 0 -38.737413879816813 7.4204540881099206 0 7.4204540881099206 15.566698822937724 0 0 0 0 -52.834792146365089 0.26692625736311726 0 0.26692625736311726 21.981887540795071 0 0 0 0 -63.046491353454257 23.32237052886839 0 23.32237052886839 42.382027076173848 0 0 0 0 -66.307504603304551 6.0165444068972178 0 6.0165444068972178 -15.863981726703003 0 0 0 0 -99.311738495092868 6.4583474188072643 0 6.4583474188072643 22.323819703855548 0 0 0 0 -111.60365425104283 -16.229935929618591 0 -16.229935929618591 -5.8902579784244722 0 0 0 0 -76.667526008879577 2.6304250436901668 0 2.6304250436901668 -23.298535824031774 0 0 0 0 -42.921349065831237 5.3680824020838145 0 5.3680824020838145 -16.670636475520155 0 0 0 0 -80.459742158111112 -1.4681530230417792 0 -1.4681530230417792 10.032917839662105 0 0 0 0 -46.128557931519026 19.880852183392705 0 19.880852183392705 2.3901864291711945 0 0 0 0 -75.226237359976039 16.016524028059372 0 16.016524028059372 24.34315847825377 0 0 0 0 -46.652029758506615 20.887033092744531 0 20.887033092744531 35.406841025787173 0 0 0 0 -1.8443286202527815 24.713888232750588 0 24.713888232750588 8.5603415947828694 0 0 0 0 -0.18975998301903019 32.493234049353973 0 32.493234049353973 11.757829245684746 0 0 0 0 -43.702230341821632 3.8978930777902292 0 3.8978930777902292 20.101879279803541 0 0 0 0 -12.305199826549142 20.335757528064079 0 20.335757528064079 4.2136677316267992 0 0 0 0 -13.496993924654362 23.602550177514669 0 23.602550177514669 85.271789297487544 0 0 0 0 -2.9591902332027331 -0.50164159082777715 0 -0.50164159082777715 0.23789206529044504 0 0 0 0 -99.125063232095272 -0.94245350782074411 0 -0.94245350782074411 3.132845709234573 0 0 0 0 20.703781940921544 43.658777505059703 0 43.658777505059703 58.141975105748543 0 0 0 0 -29.139655631399364 30.963207784991482 0 30.963207784991482 -3.1157435427621181 0 0 0 0 40.312185912567656 17.286161799972945 0 17.286161799972945 -2.970732529686984 0 0 0 0 2.8891076370673545 74.161857527213385 0 74.161857527213385 21.885809429104256 0 0 0 0 -48.212396919569073 3.2425417648110653 0 3.2425417648110653 -0.17974220756462955 0 0 0 0 -3.5656766995097904 0.076641169245515783 0 0.076641169245515783 0.72385394254421409 0 0 0 0 67.878675784886582 35.672328988624827 0 35.672328988624827 9.7117544372455455 0 0 0 0 39.95436907126259 -40.328356843643945 0 -40.328356843643945 -11.089028548100373 0 0 0 0 -51.990852780585556 -83.434767075228933 0 -83.434767075228933 -30.968943680944722 0 0 0 0 -3.3031203732662426 1.3318638738744077 0 1.3318638738744077 -0.61772291277363101 0 0 0 0 -67.166116084670648 -74.367847454058492 0 -74.367847454058492 -59.403113076955393 0 0 0 0 -118.67759273583579 -35.395678958785254 0 -35.395678958785254 -78.339819687393231 0 0 0 0 -51.632835802892146 -97.83014232604117 0 -97.83014232604117 41.699074068376603 0 0 0 0 -8.9733569987238297 36.821862763028548 0 36.821862763028548 -34.417827688181319 0 0 0 0 -128.72369018027257 -11.365662423386425 0 -11.365662423386425 -6.0029140694821308 0 0 0 0 -61.731656363731986 63.972213635418299 0 63.972213635418299 -58.747472339488695 0 0 0 0 -2.242780679272137 2.6652150054174371 0 2.6652150054174371 -0.69308432851989599 0 0 0 0 -40.670135597207263 -21.6387478123726 0 -21.6387478123726 48.483303734110876 0 0 0 0 -26.881858938370932 -2.4578146189983165 0 -2.4578146189983165 1.3155849083729003 0 0 0 0 -39.262474192617901 -28.521030197595081 0 -28.521030197595081 20.307944283054155 0 0 0 0 -52.625128152696561 6.1962375649351173 0 6.1962375649351173 33.564431682405683 0 0 0 0 -57.512287860228753 -16.437411314238965 0 -16.437411314238965 14.800944415553143 0 0 0 0 -78.556086243872414 -38.567499697652622 0 -38.567499697652622 -6.9366903855621302 0 0 0 0 -161.90900675247394 -25.277414102621606 0 -25.277414102621606 -8.3065650632266284 0 0 0 0 -90.209124766413879 -17.530638331975979 0 -17.530638331975979 -77.084445298112712 0 0 0 0 -83.992853376372295 -103.87696615905749 0 -103.87696615905749 -47.157861232523089 0 0 0 0 -47.574995479839345 -81.3850622880326 0 -81.3850622880326 -35.325398652337441 0 0 0 0 -48.153034368513829 -62.262768684300077 0 -62.262768684300077 -51.840097778289561 0 0 0 0 -78.494746479551395 -62.88437717356237 0 -62.88437717356237 -12.346589937244886 0 0 0 0 -77.838121543603847 -63.78299237676427 0 -63.78299237676427 -12.156189007885928 0 0 0 0 -180.51579903683523 -51.284429746197915 0 -51.284429746197915 28.729268938086186 0 0 0 0 -97.494591425864201 -37.598452971676977 0 -37.598452971676977 28.157209001952875 0 0 0 0 -105.54702065295896 -7.9378142130705598 0 -7.9378142130705598 -24.802206358941248 0 0 0 0 -69.033844343201508 -68.465366392509736 0 -68.465366392509736 -62.059958981246105 0 0 0 0 -103.01171003847048 -96.656322376459386 0 -96.656322376459386 -54.978482672106693 0 0 0 0 34.271099892430357 -89.107007453581446 0 -89.107007453581446 -153.88908422697421 0 0 0 0 -214.98245941476671 -153.1295773083028 0 -153.1295773083028 -106.07061833283154 0 0 0 0 -254.1690532000523 73.649663541623468 0 73.649663541623468 -146.36299768766608 0 0 0 0 -64.491421605900541 -7.5321473812319404 0 -7.5321473812319404 -289.86655474709016 0 0 0 0 -352.14333069487441 -115.07684131591533 0 -115.07684131591533 -138.43521814953601 0 0 0 0 -105.19244335055191 -29.893477969421014 0 -29.893477969421014 -109.72379073787039 0 0 0 0 -133.99019804504496 90.394027994312438 0 90.394027994312438 -122.70567643726056 0 0 0 0 -2.3623715350011594 -1.0737184885223918 0 -1.0737184885223918 -0.71895254865066527 0 0 0 0 -329.50538927774437 188.26724633174697 0 188.26724633174697 -141.5243650014861 0 0 0 0 -235.05541764587178 -45.385526787124604 0 -45.385526787124604 -21.270966706678394 0 0 0 0 80.137987906768103 -37.261183880237205 0 -37.261183880237205 -170.97788090267687 0 0 0 0 1.1295031373076476 -0.68146329125371352 0 -0.68146329125371352 -0.89313670946996893 0 0 0 0 -58.022700983223785 -39.042476679148095 0 -39.042476679148095 -156.68214417178274 0 0 0 0 -64.369460955978866 -7.1422016468623895 0 -7.1422016468623895 -179.79403997272104 0 0 0 0 -124.32208035708754 6.2886705412576802 0 6.2886705412576802 -43.832294861732294 0 0 0 0 -40.517109115362473 -35.495063384036797 0 -35.495063384036797 -26.448533290150351 0 0 0 0 -136.94048321004993 -44.14812859265038 0 -44.14812859265038 -38.495869375649761 0 0 0 0 -103.97517501406764 -43.240458310570773 0 -43.240458310570773 31.981388171764479 0 0 0 0 -71.267153370482902 63.535268444181675 0 63.535268444181675 123.59411952480804 0 0 0 0 -107.90372482481143 10.127568200768479 0 10.127568200768479 62.489043839429002 0 0 0 0 -52.095988496410428 55.86841470728443 0 55.86841470728443 -45.653665013409949 0 0 0 0 -14.639443176623899 52.974558987113483 0 52.974558987113483 7.8266948699775298 0 0 0 0 -12.018034741955489 55.708924480416385 0 55.708924480416385 -21.283349389639056 0 0 0 0 -44.20833351917463 30.537785432339092 0 30.537785432339092 31.847702217287861 0 0 0 0 -3.684891640983551 36.627688837908323 0 36.627688837908323 -47.436436928227209 0 0 0 0 -92.596985118461816 81.917388614697728 0 81.917388614697728 -15.310178057172777 0 0 0 0 -4.9866331379780604 30.544864564328748 0 30.544864564328748 -9.4042173190052836 0 0 0 0 11.32394200629642 18.639959377086029 0 18.639959377086029 -29.692531290233887 0 0 0 0 -2.9534502309652453 31.840538623826205 0 31.840538623826205 -39.465847444937538 0 0 0 0 18.14847633163663 -11.927154260073905 0 -11.927154260073905 -32.862389486476673 0 0 0 0 -0.62866362307095613 0.39931615897150508 0 0.39931615897150508 -0.24480170294956816 0 0 0 0 -71.408433855463954 -24.796469629068923 0 -24.796469629068923 24.175331605224159 0 0 0 0 -55.16001178211809 -45.902761364202263 0 -45.902761364202263 -52.475889212490756 0 0 0 0 -52.651566618198558 -28.790763702064339 0 -28.790763702064339 -51.670595460454365 0 0 0 0 26.205732975846331 20.603326990346204 0 20.603326990346204 -23.325735101056466 0 0 0 0 -27.765788057171449 -48.331791631444219 0 -48.331791631444219 -39.303077028545616 0 0 0 0 -30.604557139737153 -3.9804224756010171 0 -3.9804224756010171 4.0608244563202618 0 0 0 0 -59.285504423105522 28.405391929121606 0 28.405391929121606 -144.42810060737582 0 0 0 0 -93.150005849745867 19.07931154212487 0 19.07931154212487 -50.816154811391513 0 0 0 0 -93.612890976555718 17.37620281348071 0 17.37620281348071 -55.253354300564212 0 0 0 0 -89.447992161920411 -47.051956027256153 0 -47.051956027256153 -28.227254918862883 0 0 0 0 -100.69647637212074 -31.587065037202308 0 -31.587065037202308 -48.372802475210733 0 0 0 0 -128.95885498501775 -81.425269224486925 0 -81.425269224486925 -131.74055096848372 0 0 0 0 -133.81606561130502 -30.32951655264479 0 -30.32951655264479 -24.015752912726214 0 0 0 0 -97.086337836411985 -52.137493166477441 0 -52.137493166477441 -52.723961738226507 0 0 0 0 -84.577420510675438 -39.92256747505678 0 -39.92256747505678 -55.155720449608111 0 0 0 0 -87.293366713551222 -6.802804454854197 0 -6.802804454854197 -18.80922741385325 0 0 0 0 -69.668545972341235 -31.025149965042488 0 -31.025149965042488 -51.303093267255576 0 0 0 0 -72.970400884278206 -48.109412093345952 0 -48.109412093345952 -52.100462945846516 0 0 0 0 -63.642722133316056 -8.4763434007247724 0 -8.4763434007247724 -116.2926215759465 0 0 0 0 -72.407734689953941 -23.978625652099993 0 -23.978625652099993 -48.52326427501788 0 0 0 0 -48.323227035311902 -41.139564969132906 0 -41.139564969132906 -83.229776385671585 0 0 0 0 -96.654794936531687 -249.34318924507798 0 -249.34318924507798 99.9043349119043 0 0 0 0 -78.758608650629228 -5.0868061391763195 0 -5.0868061391763195 1.3030003045713168 0 0 0 0 -240.22250318423539 -170.06836236858902 0 -170.06836236858902 443.70498982183278 0 0 0 0 71.005313317447872 -66.14645862973714 0 -66.14645862973714 -95.059591129059271 0 0 0 0 -3.9348612854300882 8.8034636912625288 0 8.8034636912625288 128.16083289053762 0 0 0 0 -10.587961637378612 -85.693410341851262 0 -85.693410341851262 -75.074250087313644 0 0 0 0 13.33126512862691 -86.520938352242879 0 -86.520938352242879 -101.78955776255883 0 0 0 0 2.7890872311836574 -44.001869252092483 0 -44.001869252092483 -197.37390727458623 0 0 0 0 -114.87743500577926 -205.87907561608878 0 -205.87907561608878 -113.01597794985396 0 0 0 0 -119.0050385252689 -33.026057262168194 0 -33.026057262168194 -111.90720572627121 0 0 0 0 -95.332666346730548 13.376070348665309 0 13.376070348665309 -440.72180662033065 0 0 0 0 -572.03145022058197 -304.64480265900664 0 -304.64480265900664 -190.44252181263579 0 0 0 0 -210.07875787175726 -21.579665955408132 0 -21.579665955408132 20.856849996627645 0 0 0 0 -96.879108148725209 -20.506764188903759 0 -20.506764188903759 -36.781934515919545 0 0 0 0 -6.2526128360401572 -8.0303024043043543 0 -8.0303024043043543 1.2513006855304909 0 0 0 0 -50.09669743723498 -186.1819894424936 0 -186.1819894424936 89.856085381464709 0 0 0 0 -79.431912176476359 -3.9715679032640825 0 -3.9715679032640825 0.57192320059451329 0 0 0 0 -36.357954669727405 -11.126810102913016 0 -11.126810102913016 48.06304986467179 0 0 0 0 -4.0584428020665655 -37.175168440806054 0 -37.175168440806054 -25.274674199970761 0 0 0 0 -42.157008087568101 1.8384152722035223 0 1.8384152722035223 38.215156111587085 0 0 0 0 -26.114224871867918 -26.940704954879735 0 -26.940704954879735 54.104798089581109 0 0 0 0 -49.362403329181689 29.529672237163233 0 29.529672237163233 78.53525125778107 0 0 0 0 -48.893701234562307 3.7105979580109807 0 3.7105979580109807 -1.5923133354127124 0 0 0 0 -41.460114265551965 -1.4225743492327174 0 -1.4225743492327174 28.340686796079833 0 0 0 0 -102.14886210978239 6.5029949821223454 0 6.5029949821223454 -1.0029158746541498 0 0 0 0 -35.837562794346013 -1.0563679758862534 0 -1.0563679758862534 6.3599188120140759 0 0 0 0 -33.764756451614289 1.2226450796998929 0 1.2226450796998929 0.66728341711499206 0 0 0 0 -37.654801859825966 86.708629090857102 0 86.708629090857102 -113.6273086109079 0 0 0 0 -81.381287519739999 69.786133899240554 0 69.786133899240554 44.633394752415086 0 0 0 0 -8.6613426629830599 1.634262462597226 0 1.634262462597226 -0.54884880388944357 0 0 0 0 -40.579240848470363 46.635274466788928 0 46.635274466788928 14.342490240226368 0 0 0 0 -33.215659998009528 12.489590702512594 0 12.489590702512594 0.51205651929988349 0 0 0 0 -59.991200640295574 31.314082527977291 0 31.314082527977291 8.5462135266583061 0 0 0 0 -5.3541577404630516 34.300855419517163 0 34.300855419517163 58.804966491369271 0 0 0 0 -6.3633992068549858 1.2931136979619566 0 1.2931136979619566 0.244603696611574 0 0 0 0 -2.6497404055616585 -0.12562257479074823 0 -0.12562257479074823 -0.096672860194190385 0 0 0 0 -66.512862443720678 -98.756039471079589 0 -98.756039471079589 0.69479928437363014 0 0 0 0 -41.950679392844904 28.869580089983117 0 28.869580089983117 75.086468616633468 0 0 0 0 -241.87041548173875 -73.911044393889199 0 -73.911044393889199 40.753411281904576 0 0 0 0 -193.4302560070646 248.58301211465226 0 248.58301211465226 -261.23211987247407 0 0 0 0 -271.96019470456667 -127.65279639907953 0 -127.65279639907953 -20.165967014419522 0 0 0 0 -66.159233111880894 190.45016923023613 0 190.45016923023613 60.420442374486925 0 0 0 0 -211.86199151790788 48.304198623458717 0 48.304198623458717 134.37028356962264 0 0 0 0 -105.66694093012484 -50.936328654956355 0 -50.936328654956355 11.202558254293422 0 0 0 0 -112.77398272875871 -96.411931879413459 0 -96.411931879413459 53.001109531759653 0 0 0 0 -118.65969393425621 28.190452227178127 0 28.190452227178127 201.31171368284595 0 0 0 0 -45.647527485096361 39.293952208867438 0 39.293952208867438 -76.894247320753777 0 0 0 0 -85.253572788307793 117.70072418889029 0 117.70072418889029 -0.16567548714567693 0 0 0 0 -102.49090120739857 78.052302277668431 0 78.052302277668431 61.216058594851233 0 0 0 0 -70.796024137554923 11.93762957910883 0 11.93762957910883 100.02262054515785 0 0 0 0 -109.38219653264969 119.18246850624706 0 119.18246850624706 223.25904057632494 0 0 0 0 -164.33807551960126 53.928975771402577 0 53.928975771402577 184.45768713772543 0 0 0 0 -322.92300288955448 -183.9334663899258 0 -183.9334663899258 229.06169346787451 0 0 0 0 -74.104452374492496 9.8167872018375189 0 9.8167872018375189 -0.064784534066683427 0 0 0 0 -6.9098029056164449 -6.4847657558053005 0 -6.4847657558053005 1.7232035394787872 0 0 0 0 -71.07032845509093 49.855118877608625 0 49.855118877608625 107.24130557722611 0 0 0 0 -88.034640359692276 169.50452242360271 0 169.50452242360271 228.68974307826372 0 0 0 0 -92.643564647762105 -119.51196942864715 0 -119.51196942864715 332.10082699198665 0 0 0 0 44.218343008164084 147.0977105855286 0 147.0977105855286 69.650597303844933 0 0 0 0 89.720079198392341 -20.021609262396396 0 -20.021609262396396 142.08274734826847 0 0 0 0 -196.22939037624383 -20.312784266565991 0 -20.312784266565991 108.27513789002444 0 0 0 0 -165.24417011692276 -49.02429828887751 0 -49.02429828887751 -32.529998969249249 0 0 0 0 334.40684700237398 158.62971392008939 0 158.62971392008939 -173.40608765331905 0 0 0 0 -93.227493175538257 17.562268040210085 0 17.562268040210085 8.6637669218180484 0 0 0 0 -10.148388306337438 60.319454221301555 0 60.319454221301555 13.000199145708876 0 0 0 0 -156.89569423983767 20.667231989130272 0 20.667231989130272 29.373917581393059 0 0 0 0 -144.56694797066621 73.686835969563504 0 73.686835969563504 -50.567264812772407 0 0 0 0 -104.56537670689067 48.229197189493092 0 48.229197189493092 -64.758372385037916 0 0 0 0 -135.91152267125563 -28.82643506232786 0 -28.82643506232786 58.778087230826536 0 0 0 0 -121.33235482783493 1.4734353185926636 0 1.4734353185926636 17.260969165047896 0 0 0 0 -180.15494916691387 41.719817617749719 0 41.719817617749719 56.138984990607959 0 0 0 0 -174.39409105604136 -8.882571692374043 0 -8.882571692374043 78.851056442821999 0 0 0 0 -245.69029507002006 -37.303987708365639 0 -37.303987708365639 6.2406755547463888 0 0 0 0 -252.22738864092025 94.15594581286436 0 94.15594581286436 -22.720675386155634 0 0 0 0 -105.30852822441648 -1.9075687537717165 0 -1.9075687537717165 9.6791256131227925 0 0 0 0 -78.460089259533561 -73.734361837151695 0 -73.734361837151695 29.852963443513087 0 0 0 0 -110.0525668963428 1.0780171000225494 0 1.0780171000225494 -6.8061314793596353 0 0 0 0 -11.644506471939215 0.13641516024379996 0 0.13641516024379996 -1.8720275908718955 0 0 0 0 -99.914943220823261 -2.9605670014979637 0 -2.9605670014979637 -14.512829463554397 0 0 0 0 -71.094520431556617 11.612124471211416 0 11.612124471211416 -0.84798828610991117 0 0 0 0 -145.77740015034215 20.362041997494202 0 20.362041997494202 25.37405720608939 0 0 0 0 -71.158123718703791 -54.816922084448663 0 -54.816922084448663 48.820258360248658 0 0 0 0 4.1631470357115177 -0.62061619946295821 0 -0.62061619946295821 -2.2785486593048461 0 0 0 0 2.6196008663819441 13.278494044667603 0 13.278494044667603 -2.2978450513981556 0 0 0 0 -61.171876005115337 -75.480888118355153 0 -75.480888118355153 87.35349093641355 0 0 0 0 -15.129484793545998 -30.342445956633103 0 -30.342445956633103 54.633094079008629 0 0 0 0 -34.362719594017108 -4.7981716885024071 0 -4.7981716885024071 48.128435434144876 0 0 0 0 -10.940340771977382 12.584871372181986 0 12.584871372181986 -8.1248156203657889 0 0 0 0 -480.74833916565331 263.84256604630667 0 263.84256604630667 -154.14639043335424 0 0 0 0 -76.853495355684572 106.42847931507208 0 106.42847931507208 -187.64345874464698 0 0 0 0 10.415339985585888 -58.361506845852091 0 -58.361506845852091 81.545522944984896 0 0 0 0 2.9686674295226112 -50.888316918499186 0 -50.888316918499186 85.859369916278865 0 0 0 0 10.641092756653961 -53.012889022413731 0 -53.012889022413731 72.55640663019949 0 0 0 0 -4.4958368711231742 -43.426352470674829 0 -43.426352470674829 78.643469525099135 0 0 0 0 -13.362376171164215 -29.918230173007032 0 -29.918230173007032 77.027420628302934 0 0 0 0 -754.55075027814746 -75.228777606971278 0 -75.228777606971278 150.35232276189774 0 0 0 0 -1499.7926502421251 -212.85695822885853 0 -212.85695822885853 193.7189210585434 0 0 0 0 -7.3395355566658012 10.763383736088024 0 10.763383736088024 -9.232277650144006 0 0 0 0 139.99987256781606 38.435866517656223 0 38.435866517656223 -146.35792935205154 0 0 0 0 185.26141070906488 226.1908800333147 0 226.1908800333147 -21.459992593572224 0 0 0 0 -469.50433357320435 -88.262273778090503 0 -88.262273778090503 752.06477865895886 0 0 0 0 -2.1911585478191498 -1.3909279695377705 0 -1.3909279695377705 -0.16428322040998822 0 0 0 0 -289.17685513400647 372.53132645682763 0 372.53132645682763 -57.382072902968503 0 0 0 0 21.212312178380671 -60.354561522358381 0 -60.354561522358381 68.304631847156998 0 0 0 0 -368.21481994545866 319.16261668845425 0 319.16261668845425 50.244815788921187 0 0 0 0 20.681144208327169 -54.290455585309246 0 -54.290455585309246 65.885183774094003 0 0 0 0 3.8643472013354767 -46.330455557334062 0 -46.330455557334062 66.067760701756185 0 0 0 0 72.362097169854678 160.82321189402865 0 160.82321189402865 -88.096876871788481 0 0 0 0 -93.609687723044772 221.3762575023519 0 221.3762575023519 -296.4368023499228 0 0 0 0 -69.165087624671287 83.325472802370314 0 83.325472802370314 6.0342418825051709 0 0 0 0 -184.05254815159424 -11.613449519209553 0 -11.613449519209553 -110.38837856629198 0 0 0 0 -9.8793726950437843 -5.0559227175912884 0 -5.0559227175912884 -1.4552832278252166 0 0 0 0 1.7435105769473012 -24.548602497558477 0 -24.548602497558477 48.688090803287878 0 0 0 0 36.892947184998775 -46.462598275269556 0 -46.462598275269556 50.312345452373847 0 0 0 0 37.315587411343586 -38.50716009557982 0 -38.50716009557982 50.573544750011934 0 0 0 0 37.315587411343586 -38.507160095599829 0 -38.507160095599829 50.573544750009205 0 0 0 0 37.315587411343586 -38.507160095578001 0 -38.507160095578001 50.573544750011934 0 0 0 0 23.31329105309851 -33.121918225097943 0 -33.121918225097943 51.896629145370753 0 0 0 0 16.977886754932115 -29.328172745556003 0 -29.328172745556003 51.882050365997671 0 0 0 0 -0.70288894746772712 -28.330968275459099 0 -28.330968275459099 56.933581234483427 0 0 0 0 -11.339528693664761 -23.68000360667429 0 -23.68000360667429 54.24699825083826 0 0 0 0 0.14732092973281397 -25.895862719794195 0 -25.895862719794195 55.007881327843279 0 0 0 0 -8.9571323847776512 -21.3415049613468 0 -21.3415049613468 56.530412109790632 0 0 0 0 -1.4687584157654783 -29.514612309286804 0 -29.514612309286804 58.592579807456787 0 0 0 0 -1.422706109500723 -29.357237032812918 0 -29.357237032812918 58.882931633832413 0 0 0 0 32.015379630727693 -54.406094291769477 0 -54.406094291769477 56.021281764289597 0 0 0 0 -3.8682372099428903 -32.103987015560961 0 -32.103987015560961 62.275060933675149 0 0 0 0 11.672993832238717 -38.98445484092008 0 -38.98445484092008 63.430726805349423 0 0 0 0 17.171181052173779 -40.552401410465336 0 -40.552401410465336 58.480475629221473 0 0 0 0 14.787621302668413 -45.46281043251247 0 -45.46281043251247 58.737081510742428 0 0 0 0 29.735268956865184 -49.875750907354814 0 -49.875750907354814 57.470425716105638 0 0 0 0 23.745637012005318 -38.631059362483938 0 -38.631059362483938 53.105941456735309 0 0 0 0 13.477401644631755 -33.622165897972991 0 -33.622165897972991 57.603332265178324 0 0 0 0 22.638153041130863 -39.552143205261018 0 -39.552143205261018 53.086225003993604 0 0 0 0 11.253098259010585 -37.336839885796508 0 -37.336839885796508 57.887112873209844 0 0 0 0 -9.7944187083267025 -21.749782404738198 0 -21.749782404738198 53.31927075785552 0 0 0 0 -9.7848246315770666 -17.579197432849469 0 -17.579197432849469 54.626062839237079 0 0 0 0 -9.6404974321849295 -21.132504305010571 0 -21.132504305010571 54.503977251525839 0 0 0 0 -14.638890435249778 -19.113047539442505 0 -19.113047539442505 54.247897668711801 0 0 0 0 -9.5985101245787519 -21.361492766308913 0 -21.361492766308913 53.839642514433763 0 0 0 0 -8.6579556145752576 2.5439726800659628 0 2.5439726800659628 16.543145233624273 0 0 0 0 -21.005590005341219 -8.0481510139125021 0 -8.0481510139125021 35.96694004925007 0 0 0 0 -9.4927400999022211 -20.416846424219216 0 -20.416846424219216 43.313076058921069 0 0 0 0 -16.390270644838893 -16.06655095314585 0 -16.06655095314585 47.46058017408177 0 0 0 0 -13.442227485356852 -7.6331776070619526 0 -7.6331776070619526 33.847248099752278 0 0 0 0 -11.279966121641337 -17.280727794115592 0 -17.280727794115592 49.037228177768156 0 0 0 0 -12.012393913712003 -29.149582402075794 0 -29.149582402075794 71.798965543620398 0 0 0 0 7.1491129294081475 -42.244110200704199 0 -42.244110200704199 68.864566133044718 0 0 0 0 -4.3401059920254283 -32.745834159687242 0 -32.745834159687242 64.522189600056663 0 0 0 0 -1.0297218645609973 -25.924313069514028 0 -25.924313069514028 55.782311742737875 0 0 0 0 -12.096553087540087 -14.406955350037606 0 -14.406955350037606 48.024328893262464 0 0 0 0 -12.447701377081103 -23.661761272305284 0 -23.661761272305284 60.594586852540488 0 0 0 0 -10.769932251183491 -5.7772198424779617 0 -5.7772198424779617 29.252823796073699 0 0 0 0 -23.429575022462814 -13.382607721649492 0 -13.382607721649492 60.250864627386363 0 0 0 0 -21.304092794962344 -4.7612649589250395 0 -4.7612649589250395 52.46483615312593 0 0 0 0 -14.826832175742311 -16.055471251333756 0 -16.055471251333756 23.530950767385207 0 0 0 0 -3.8544316318366327 -3.9947773587155098 0 -3.9947773587155098 12.356173464821268 0 0 0 0 -16.971197019230274 0.82262458735383959 0 0.82262458735383959 -0.83240367669123283 0 0 0 0 -14.989231552222918 8.0677555384773996 0 8.0677555384773996 -16.272712056920227 0 0 0 0 -4.607248142690878 5.04650245190291 0 5.04650245190291 -47.496215199924791 0 0 0 0 -18.01141887545873 17.042376349599976 0 17.042376349599976 -0.89122871905738066 0 0 0 0 -19.745826766658865 2.5619526690832686 0 2.5619526690832686 0.43453568411533716 0 0 0 0 -17.72909588983434 3.9037562240852823 0 3.9037562240852823 -1.0367485221672192 0 0 0 0 -16.877226061006638 -0.40607090810918756 0 -0.40607090810918756 -0.84412882480171436 0 0 0 0 -16.162352040220867 2.8205777750465026 0 2.8205777750465026 -8.8119850641500168 0 0 0 0 -418.4170406869307 -299.57892818238628 0 -299.57892818238628 -171.22708240798735 0 0 0 0 -12.133743629545485 3.1403161788033316 0 3.1403161788033316 -6.4633518387479745 0 0 0 0 -1.914734664755656 3.5198203611525738 0 3.5198203611525738 -2.4038159617581427 0 0 0 0 -795.6814474780258 379.92311011935737 0 379.92311011935737 -165.49322696244917 0 0 0 0 -62.077115987514844 -42.820166760008668 0 -42.820166760008668 -52.834878654728492 0 0 0 0 -1244.5512494330615 78.292042753696464 0 78.292042753696464 115.03313497193238 0 0 0 0 -1497.8323168895658 436.27092483258849 0 436.27092483258849 81.498649590771464 0 0 0 0 -6.7470462688958861 -1.5007546181332829 0 -1.5007546181332829 -1.2554372692893399 0 0 0 0 45.053834660437133 -450.62878488183878 0 -450.62878488183878 -1129.1509665703973 0 0 0 0 -1117.5728203068174 690.33447224490453 0 690.33447224490453 -299.1332051093533 0 0 0 0 -1497.0681902156466 -447.32099502163533 0 -447.32099502163533 168.50422301535883 0 0 0 0 -894.3046627858057 -831.74833958586396 0 -831.74833958586396 -370.99567614379481 0 0 0 0 -696.1857190974797 -203.42610686072982 0 -203.42610686072982 -17.891932488191351 0 0 0 0 -1049.8562464160241 -100.5326717693425 0 -100.5326717693425 86.616029860419019 0 0 0 0 -810.55846036451112 -92.968339704193198 0 -92.968339704193198 -0.62389863221862885 0 0 0 0 -1011.3145699009237 -197.88952542468002 0 -197.88952542468002 25.960562727480834 0 0 0 0 -493.71785859018564 -142.20715543253888 0 -142.20715543253888 -19.053983503678467 0 0 0 0 0.010868470852301471 -0.64554849001733317 0 -0.64554849001733317 -0.3826079489225217 0 0 0 0 -24.957952519480386 -1.6941056272278119 0 -1.6941056272278119 -3.039460543099231 0 0 0 0 -398.98590901850548 -172.04918527011597 0 -172.04918527011597 -62.339986636157306 0 0 0 0 -394.62797771890473 -100.5292852950746 0 -100.5292852950746 -110.23370867869616 0 0 0 0 -18.427942955218896 -6.6023877726238203 0 -6.6023877726238203 -2.0362674293299636 0 0 0 0 -3.5707216512205591 -1.1043796252066187 0 -1.1043796252066187 0.17471081489279644 0 0 0 0 -14.39999379094661 -2.2648555537958028 0 -2.2648555537958028 2.591306015130769 0 0 0 0 -18.688543421769282 -11.436679717364246 0 -11.436679717364246 8.966038571634865 0 0 0 0 -22.242661710937682 1.0511190593406354 0 1.0511190593406354 -3.241288272846873 0 0 0 0 -17.739518638667505 3.7227442836237401 0 3.7227442836237401 -5.6564587372903361 0 0 0 0 -17.362563878914159 -1.6229079724356978 0 -1.6229079724356978 1.5598214628454028 0 0 0 0 -338.32854514885548 -134.43461361908695 0 -134.43461361908695 -135.14774338716461 0 0 0 0 -551.37399423603529 -174.18246264635869 0 -174.18246264635869 30.335669274627577 0 0 0 0 -528.10042367245478 -276.65837380781346 0 -276.65837380781346 -105.08884673387186 0 0 0 0 -6.0272721156070261 7.0828535329535711 0 7.0828535329535711 -3.5120554057290057 0 0 0 0 -9.4139717020019944 5.0509498469638814 0 5.0509498469638814 -0.54179569048463483 0 0 0 0 -456.6628873940499 -347.98519259240862 0 -347.98519259240862 -50.495118426569206 0 0 0 0 -126.86708278929291 -67.531954496804417 0 -67.531954496804417 -235.63490954890992 0 0 0 0 -17.429159794075531 2.0850601819996086 0 2.0850601819996086 -3.2344980637467415 0 0 0 0 -17.626604421459433 3.4505178263533409 0 3.4505178263533409 -1.0812217941188464 0 0 0 0 -13.523678996221861 1.3319581224984631 0 1.3319581224984631 -4.3564129825497275 0 0 0 0 -13.28480458217382 0.41366374779750004 0 0.41366374779750004 -6.8069466972854684 0 0 0 0 -18.002811736398144 -5.1667432261616568 0 -5.1667432261616568 -4.5608802662001722 0 0 0 0 -34.399578929507697 -5.7088681240679904 0 -5.7088681240679904 8.637999447351099 0 0 0 0 -17.7387576645514 -2.1520887153462986 0 -2.1520887153462986 2.1884016779981921 0 0 0 0 -39.183511727722362 -0.99944503905794591 0 -0.99944503905794591 3.2311533418687759 0 0 0 0 -23.55243849017279 16.381110624881156 0 16.381110624881156 1.8256286996090809 0 0 0 0 -52.86896473302113 11.32778526447564 0 11.32778526447564 -3.3146962013435655 0 0 0 0 -12.887506858613051 -10.003690365331263 0 -10.003690365331263 -3.9455762329392527 0 0 0 0 -28.340317742582556 -5.780150164492353 0 -5.780150164492353 -8.1862374111108913 0 0 0 0 -24.767394950948074 -0.15337341694869244 0 -0.15337341694869244 -0.49797427145466189 0 0 0 0 -1.1659012028163218 0.32119829007253031 0 0.32119829007253031 -0.24887648971285356 0 0 0 0 -55.361117952837958 5.1189442721562628 0 5.1189442721562628 7.8350126720447193 0 0 0 0 -32.623733035481564 1.5258751140399216 0 1.5258751140399216 0.011408871152548117 0 0 0 0 -30.793845844642419 3.8529906798113793 0 3.8529906798113793 -5.0600126218596762 0 0 0 0 -25.973462676309282 -1.2024933201249182 0 -1.2024933201249182 -0.010898624230036996 0 0 0 0 -3.2483183032672969 -3.4927625958848014 0 -3.4927625958848014 0.0028846396169369621 0 0 0 0 2.1934451804190758 -1.8629927034198586 0 -1.8629927034198586 -0.94130824603373231 0 0 0 0 0.15898061699305543 -0.014427235686000017 0 -0.014427235686000017 0.013526068892770624 0 0 0 0 -22.716474443041079 -2.4591611865583625 0 -2.4591611865583625 -1.7738953662073094 0 0 0 0 -6.0681718750056461 -1.0826850606866416 0 -1.0826850606866416 -1.964115850279702 0 0 0 0 -4.0675089506257791 -2.1686665012964497 0 -2.1686665012964497 1.4834078920959914 0 0 0 0 -5.4535694087317097 -3.2570787976809474 0 -3.2570787976809474 0.71562053984213136 0 0 0 0 -2.1580686743833226 0.19901891364497715 0 0.19901891364497715 0.11832193242560865 0 0 0 0 -6.1338260789052583 -3.7335970854961289 0 -3.7335970854961289 4.9844634827043652 0 0 0 0 -9.2219239165173121 0.71929447114932454 0 0.71929447114932454 0.67369742723047721 0 0 0 0 -12.774333172939805 2.2416294598665143 0 2.2416294598665143 2.2968779190831228 0 0 0 0 -0.29038793083989844 1.3551363269142769 0 1.3551363269142769 -0.3360990371010702 0 0 0 0 2.8578470755601302 -1.9339690950499744 0 -1.9339690950499744 2.5650974490252167 0 0 0 0 -15.198826088591886 10.309704135652225 0 10.309704135652225 8.0242090319053609 0 0 0 0 -7.8735787227815308 3.7607489065709956 0 3.7607489065709956 -6.390900883815533 0 0 0 0 -0.32196065620252057 -0.0020030362405734081 0 -0.0020030362405734081 0.23232983126613038 0 0 0 0 -1.6956110818472752 4.1004064078904605 0 4.1004064078904605 -0.93610684441329406 0 0 0 0 -5.7912521002144786 9.1794186094346486 0 9.1794186094346486 -6.3292868375033393 0 0 0 0 -23.613961357499647 -18.248348993447806 0 -18.248348993447806 -27.838963843834335 0 0 0 0 -12.140732014886453 -0.55593874745118654 0 -0.55593874745118654 1.3550643594915073 0 0 0 0 -11.14392043359112 15.192224075198467 0 15.192224075198467 -8.9270990189844248 0 0 0 0 -0.42025856795478944 -0.088246900293480479 0 -0.088246900293480479 0.18328711823567184 0 0 0 0 -15.337464872965938 13.270482753863746 0 13.270482753863746 -6.5060038603992325 0 0 0 0 -2.8533180210584277 -0.72881960877329277 0 -0.72881960877329277 0.15125971450278114 0 0 0 0 -12.17205322686641 -0.10102680869977121 0 -0.10102680869977121 0.44871694895755354 0 0 0 0 -2.9636157752174768 -3.483462355085635 0 -3.483462355085635 2.2805859548648648 0 0 0 0 -71.321175134260557 -26.632859937934086 0 -26.632859937934086 53.112369943087629 0 0 0 0 10.931502848892706 -18.967300630018769 0 -18.967300630018769 -3.2216643433819172 0 0 0 0 -6.5442549655548987 -2.3863537273367443 0 -2.3863537273367443 1.1741001228903616 0 0 0 0 -8.5131022220124208 -4.8570118044171977 0 -4.8570118044171977 2.3964411124525942 0 0 0 0 -13.734639194064584 -4.8976231495184663 0 -4.8976231495184663 2.3765925763543692 0 0 0 0 -6.2547615281923328 -2.7498980687711807 0 -2.7498980687711807 0.50513676094649274 0 0 0 0 -11.94672121253825 -1.5737151583552986 0 -1.5737151583552986 -0.21577124690020355 0 0 0 0 44.545758091400785 -176.78679049474385 0 -176.78679049474385 -73.228504901863346 0 0 0 0 -121.03477892064438 88.166666862219017 0 88.166666862219017 33.425939171961545 0 0 0 0 2.8611050640465692 -2.8544336860152271 0 -2.8544336860152271 -9.0174224737744453 0 0 0 0 -108.84495280322881 7.570271191901611 0 7.570271191901611 119.60465553735267 0 0 0 0 -21.450865468799265 1.7423189948782873 0 1.7423189948782873 1.4504347980118288 0 0 0 0 -18.18929813755858 0.58182340935860566 0 0.58182340935860566 8.2472392059692083 0 0 0 0 -2.7925785428087693 -7.4477799416069956 0 -7.4477799416069956 6.2409906893401512 0 0 0 0 -4.0884746041150777 -7.7327142502631512 0 -7.7327142502631512 1.8436987730429402 0 0 0 0 -12.533393446665215 -1.5117824710723511 0 -1.5117824710723511 2.6230341791152627 0 0 0 0 -10.372393908343994 -3.5079332399693186 0 -3.5079332399693186 2.5642998267033139 0 0 0 0 -15.248017543206124 3.48790171820648 0 3.48790171820648 2.1007240371400231 0 0 0 0 -36.265581023602863 11.00652616861737 0 11.00652616861737 5.4257134085975167 0 0 0 0 -28.920574054136523 36.44476878793057 0 36.44476878793057 22.599605736016436 0 0 0 0 -18.285291818861879 -0.98296393052601161 0 -0.98296393052601161 6.4229036550981391 0 0 0 0 -20.066412617784536 2.9514010020071115 0 2.9514010020071115 0.093785191200685125 0 0 0 0 -3.4866048906187643 -4.8640663611313357 0 -4.8640663611313357 3.1910406635284119 0 0 0 0 -9.4728404956463521 -0.83442199549209306 0 -0.83442199549209306 -0.026314253484905015 0 0 0 0 -3.0226704164410449 -0.15338499923758153 0 -0.15338499923758153 -0.15433722024861585 0 0 0 0 -26.777851559956616 -37.212812378661511 0 -37.212812378661511 -50.673084040111178 0 0 0 0 23.565724577731089 -34.422511341069423 0 -34.422511341069423 -57.891543839578389 0 0 0 0 3.4672413570588105 56.117443028042089 0 56.117443028042089 -145.00325527474502 0 0 0 0 -21.246838059552829 -14.784839013171222 0 -14.784839013171222 14.135952368817755 0 0 0 0 -10.750440277031885 1.748870064763878 0 1.748870064763878 13.029159102289213 0 0 0 0 -65.010540946132096 5.5450611805664494 0 5.5450611805664494 67.707540588695338 0 0 0 0 -0.0086339292338379892 1.6397528862001991 0 1.6397528862001991 26.214925843081801 0 0 0 0 7.7536504370582406 -20.927671154868449 0 -20.927671154868449 26.193082788551465 0 0 0 0 17.745116193014837 -48.028886981169308 0 -48.028886981169308 85.155778484491293 0 0 0 0 21.768629559126566 -13.185718530362465 0 -13.185718530362465 35.074684458583761 0 0 0 0 91.495530385574966 -20.864444063277006 0 -20.864444063277006 24.746144718178812 0 0 0 0 -82.903251713651116 32.020376420560297 0 32.020376420560297 66.155719430230164 0 0 0 0 -18.769761526611546 68.033561028227723 0 68.033561028227723 27.362229904662854 0 0 0 0 92.383259800029919 52.920486937925034 0 52.920486937925034 24.892500524445779 0 0 0 0 -243.94189956753689 7.805661905983925 0 7.805661905983925 104.85997817000953 0 0 0 0 -72.418509969382285 -112.70336243066117 0 -112.70336243066117 -31.607061063543824 0 0 0 0 -53.350184689865273 7.6777658391315526 0 7.6777658391315526 74.56710142419206 0 0 0 0 -72.356438574948697 12.341292648368039 0 12.341292648368039 100.38954155002102 0 0 0 0 -52.591535660729278 -59.143445648659963 0 -59.143445648659963 58.200446567200743 0 0 0 0 -28.989322748726408 -0.42946722737224263 0 -0.42946722737224263 79.580144917350935 0 0 0 0 -1.1323852312072233 -1.6865213541346975 0 -1.6865213541346975 1.0388238045965932 0 0 0 0 -2.2211890758480877 -22.768842058962946 0 -22.768842058962946 1.679086770851427 0 0 0 0 -5.748781466667424 -35.470701873736289 0 -35.470701873736289 -33.188629806453264 0 0 0 0 -7.8317371900448052 -36.271245308234711 0 -36.271245308234711 12.271353726586312 0 0 0 0 3.5414036163128912 -14.972625114847688 0 -14.972625114847688 23.960500358897661 0 0 0 0 0.48475155675259884 -28.651689613338931 0 -28.651689613338931 11.03800598988164 0 0 0 0 -1.3360735426090002 0.46960915817010829 0 0.46960915817010829 -0.16269437015331434 0 0 0 0 20.091151979926508 -18.971136606822256 0 -18.971136606822256 10.977425696129426 0 0 0 0 16.480252096240292 -9.4880239850317594 0 -9.4880239850317594 16.102953761993831 0 0 0 0 -6.059354036068207 -5.9190147771515029 0 -5.9190147771515029 1.4917918646619057 0 0 0 0 -17.755584969105257 -1.1710062996985471 0 -1.1710062996985471 2.6170610937329002 0 0 0 0 1.9266744260097681 -1.5925447348141759 0 -1.5925447348141759 -0.31326258865327272 0 0 0 0 56.715293884763014 35.190797662625982 0 35.190797662625982 33.612852433671833 0 0 0 0 -105.771072251242 160.13684819477726 0 160.13684819477726 -51.50934295584608 0 0 0 0 -48.037905153854808 -13.448285140175813 0 -13.448285140175813 0.030353138978625793 0 0 0 0 -137.87807002318004 -70.399144071418959 0 -70.399144071418959 58.964959647043088 0 0 0 0 -64.090939047862776 9.0308270734503822 0 9.0308270734503822 79.161802033646381 0 0 0 0 -0.28118903185531963 -13.331800016930003 0 -13.331800016930003 -4.7099264726709862 0 0 0 0 -0.71131146450352389 -2.6351681542164442 0 -2.6351681542164442 -1.2025387148902098 0 0 0 0 -31.118490488472162 -20.967981705322927 0 -20.967981705322927 22.007101538768438 0 0 0 0 -10.925858678339864 -7.7256703278615078 0 -7.7256703278615078 2.2590552837307314 0 0 0 0 0.11980166306520346 -6.919051370627507 0 -6.919051370627507 5.0272693521892355 0 0 0 0 -15.206694726948626 -35.708245290653849 0 -35.708245290653849 -26.70099179313587 0 0 0 0 -64.672990992548876 -25.819551356951706 0 -25.819551356951706 -27.725121751889219 0 0 0 0 0.42989489958983995 -0.14214981381270064 0 -0.14214981381270064 -0.4184796505583166 0 0 0 0 -23.772953214735026 -37.398666506235031 0 -37.398666506235031 -31.563736286999472 0 0 0 0 -1.3768993883874572 -3.9805247896001106 0 -3.9805247896001106 -0.52027913505285939 0 0 0 0 -9.0989988588698907 -5.4384739517207663 0 -5.4384739517207663 0.18082908232599948 0 0 0 0 -4.2300637959342566 -4.0243511067832856 0 -4.0243511067832856 2.8230344654289752 0 0 0 0 -7.1461436578705957 -4.0122389797211646 0 -4.0122389797211646 3.1639535106941823 0 0 0 0 -4.6832095331479238 -2.7656612648385064 0 -2.7656612648385064 1.6396446921005889 0 0 0 0 -15.472020013447036 -5.2967771619685777 0 -5.2967771619685777 3.1342599883478215 0 0 0 0 -6.9957046888011121 -4.3834718808378632 0 -4.3834718808378632 2.7853527324619476 0 0 0 0 -1.0259026860585436 -8.2188362230945131 0 -8.2188362230945131 4.6736260769962428 0 0 0 0 -7.2501896662870422 -3.6400937069847714 0 -3.6400937069847714 -5.2233678028260329 0 0 0 0 -17.040348937676754 -3.4807141607516314 0 -3.4807141607516314 3.5245424325084969 0 0 0 0 -0.29496642008999174 1.1556133956252808 0 1.1556133956252808 -0.63842391758698191 0 0 0 0 -23.13046654271966 3.0428548128863895 0 3.0428548128863895 30.541875585175148 0 0 0 0 -4.3198648593885736 -1.9518223116146665 0 -1.9518223116146665 1.9972155075591758 0 0 0 0 -6.6308256701740902 -15.080704688220067 0 -15.080704688220067 2.4678539953984 0 0 0 0 -15.269102454814856 -7.4819344920123285 0 -7.4819344920123285 -5.939969685759479 0 0 0 0 -7.4006914979073315 -5.2341925991898677 0 -5.2341925991898677 0.076549438091402244 0 0 0 0 -7.0864780201009125 -19.186310794676046 0 -19.186310794676046 -0.73168499664006958 0 0 0 0 -20.037225963391393 -0.50518351659661676 0 -0.50518351659661676 22.782651927345796 0 0 0 0 -22.370583299478128 -3.3023155615936908 0 -3.3023155615936908 2.1974775740635417 0 0 0 0 -19.908429910181439 -43.013343736903153 0 -43.013343736903153 30.321923055467892 0 0 0 0 -12.004858006777795 2.2689728453378848 0 2.2689728453378848 16.867827595215203 0 0 0 0 -13.189602765531163 6.349917226012451 0 6.349917226012451 30.77545797856601 0 0 0 0 -24.912044383134344 -4.1170039192018066 0 -4.1170039192018066 14.165726624925355 0 0 0 0 -15.859153870260343 -26.558673595970617 0 -26.558673595970617 0.24877369618673129 0 0 0 0 4.276633531691914 -14.109809433876478 0 -14.109809433876478 7.7163139197839428 0 0 0 0 -18.443134496199491 -14.097018218362223 0 -14.097018218362223 26.10025573246628 0 0 0 0 -39.008299749759317 -16.21289259939374 0 -16.21289259939374 65.257896728369474 0 0 0 0 -36.728015458735172 -8.6988970876268468 0 -8.6988970876268468 26.980047995898531 0 0 0 0 -37.154138745070668 -13.457369247495194 0 -13.457369247495194 17.728546593045849 0 0 0 0 -45.462952439731453 -7.4665424114639336 0 -7.4665424114639336 31.874041487809791 0 0 0 0 -49.253758486775041 2.8720204161117522 0 2.8720204161117522 23.141900705275702 0 0 0 0 -34.740683347867162 -5.4117073381124783 0 -5.4117073381124783 6.6760141030836166 0 0 0 0 -28.050017689616652 -12.268632693868085 0 -12.268632693868085 -0.27133952335270806 0 0 0 0 -41.840171737581841 -16.403254316073685 0 -16.403254316073685 0.53769139801033816 0 0 0 0 -55.265562248969218 -24.263914098568193 0 -24.263914098568193 -14.968540411387664 0 0 0 0 -48.09787195584795 -5.8099835236297395 0 -5.8099835236297395 6.9351907919659936 0 0 0 0 -37.002599778468721 -19.970745848477122 0 -19.970745848477122 -15.06317248201276 0 0 0 0 -44.820662242127582 -21.387922638298846 0 -21.387922638298846 -6.3357306674886331 0 0 0 0 -52.177802595047979 -15.259796382276022 0 -15.259796382276022 -7.2445031060969995 0 0 0 0 -28.598681306779326 -20.689577827920971 0 -20.689577827920971 -2.370862464711081 0 0 0 0 -12.771711066292482 -25.660557354944331 0 -25.660557354944331 -19.962868515310817 0 0 0 0 -34.576550059849978 -15.607984450659728 0 -15.607984450659728 -8.9293173628152545 0 0 0 0 -40.3222964379529 -30.797588291452087 0 -30.797588291452087 -24.342228213064487 0 0 0 0 -34.325359693626524 -33.35154253704286 0 -33.35154253704286 -13.120065261072796 0 0 0 0 -26.35143544129096 -31.307402034301049 0 -31.307402034301049 -24.491386839729557 0 0 0 0 -32.669172514128149 -41.133984093661638 0 -41.133984093661638 -28.647038582916764 0 0 0 0 -0.28726392278993274 -0.66273358467577026 0 -0.66273358467577026 0.19763829593639315 0 0 0 0 -32.228516701521585 -37.172034423404284 0 -37.172034423404284 -21.30023028638621 0 0 0 0 -36.179484287480591 -31.57783375414698 0 -31.57783375414698 -42.091006396599596 0 0 0 0 -64.011556278826902 -56.724348076137858 0 -56.724348076137858 -57.970678030402837 0 0 0 0 -0.12531555476221001 -0.087411514939240931 0 -0.087411514939240931 0.062815473840154734 0 0 0 0 -63.716967243221006 -52.18649011049564 0 -52.18649011049564 -42.860408206868044 0 0 0 0 -3.3951555804742384 -0.39992784553041361 0 -0.39992784553041361 3.5431620544186444 0 0 0 0 -0.45048173941189873 -0.13340299584112358 0 -0.13340299584112358 0.31232242889643103 0 0 0 0 -2.9632033590014544 -2.9769888326623501 0 -2.9769888326623501 -2.2769892252138106 0 0 0 0 -58.821222777158255 -17.339625814557508 0 -17.339625814557508 -5.8205986553220441 0 0 0 0 -56.778582538245246 -18.638466260889913 0 -18.638466260889913 -12.19978245214395 0 0 0 0 -48.612133499715128 -28.729995181119875 0 -28.729995181119875 -29.595186695052917 0 0 0 0 -50.018940495829156 -27.961103399055816 0 -27.961103399055816 -30.013930790390305 0 0 0 0 -67.866969263064675 -52.182591748086566 0 -52.182591748086566 -36.792262868687601 0 0 0 0 -63.682663767878694 -37.928130548827227 0 -37.928130548827227 -11.596290363572848 0 0 0 0 -72.985576477658469 -32.155773555813937 0 -32.155773555813937 -12.311626588244394 0 0 0 0 -69.693102201701549 -33.473250786291175 0 -33.473250786291175 -7.2704619824052088 0 0 0 0 -39.360095245829143 -42.618499277092546 0 -42.618499277092546 -32.904893849225544 0 0 0 0 -3.1428891282484983 -4.2608072414994353 0 -4.2608072414994353 -1.1254931271326996 0 0 0 0 -5.5659112655266654 -7.6066303803793431 0 -7.6066303803793431 2.8618839169459172 0 0 0 0 -2.772645185541478 -7.3422427276723141 0 -7.3422427276723141 -7.301308428699258 0 0 0 0 -1.2854426740814233 -0.8517559275185036 0 -0.8517559275185036 -10.64077954558098 0 0 0 0 -3.3710356845258502 -3.225450532867459 0 -3.225450532867459 -3.4953256976182914 0 0 0 0 -3.2336102710833075 -1.6645287204156247 0 -1.6645287204156247 -2.5289357739654577 0 0 0 0 -5.7469396092492389 -2.8749312190666956 0 -2.8749312190666956 -2.9585013643012417 0 0 0 0 -6.1073579309013439 -1.5219807553095421 0 -1.5219807553095421 -3.400646152307786 0 0 0 0 -3.439740081623313 -3.2433951556900524 0 -3.2433951556900524 -3.4742913879206867 0 0 0 0 -5.3243078903251444 -3.2984305330003281 0 -3.2984305330003281 -1.7508421013686757 0 0 0 0 -6.6375555676349904 -2.0892232971681892 0 -2.0892232971681892 -1.2759093453906303 0 0 0 0 -3.7616021848079981 -3.4570786789170995 0 -3.4570786789170995 -2.0967366711978457 0 0 0 0 -2.3086124223455897 -0.89299043703899272 0 -0.89299043703899272 0.66263928100075853 0 0 0 0 -7.6529371977958363 -2.5088879180183312 0 -2.5088879180183312 -2.6755504223581781 0 0 0 0 -6.9736319002240634 -0.82468453508911921 0 -0.82468453508911921 -2.3046282410962249 0 0 0 0 -4.914736403580136 -3.6297318785392605 0 -3.6297318785392605 0.51542322883151304 0 0 0 0 -8.4489595449304034 -2.4227232801057426 0 -2.4227232801057426 -1.7963327604020378 0 0 0 0 -13.066095090776798 -2.3780933715896708 0 -2.3780933715896708 -1.5582094740218508 0 0 0 0 -5.9577035731905212 -2.054352924383096 0 -2.054352924383096 0.34673780637918483 0 0 0 0 -11.130055611225544 -2.0885672669263045 0 -2.0885672669263045 -6.9898378152243481 0 0 0 0 -15.695126680286194 0.75672881999142305 0 0.75672881999142305 -1.8897911797937468 0 0 0 0 -16.576505635675858 -5.02453895973008 0 -5.02453895973008 -1.1324529974663164 0 0 0 0 0.025246342847140113 -1.4228722299780239 0 -1.4228722299780239 -0.19557199247173387 0 0 0 0 -11.266607747078524 -2.2189515736165362 0 -2.2189515736165362 -2.2766234896326552 0 0 0 0 -8.0816687141632428 -0.2620442714298008 0 -0.2620442714298008 -4.5987802623345715 0 0 0 0 -7.9673856173467357 -0.58013323775553971 0 -0.58013323775553971 -1.8043747850546765 0 0 0 0 -8.3883280402806122 -1.5963942865272998 0 -1.5963942865272998 -1.07632899919804 0 0 0 0 -6.9563067646377021 -1.2074840119098091 0 -1.2074840119098091 -1.8041980471566905 0 0 0 0 -6.9664493682503235 -2.2424116602497755 0 -2.2424116602497755 -1.1746958717901357 0 0 0 0 -23.223392734260415 6.6769384791136019 0 6.6769384791136019 -1.9908971921620564 0 0 0 0 -9.6467805201682495 1.0761074562022657 0 1.0761074562022657 4.0119569382291616 0 0 0 0 -13.016173116637219 -0.54880165715226692 0 -0.54880165715226692 3.3371620299482849 0 0 0 0 -1.7456083339930046 -0.33643547805643337 0 -0.33643547805643337 -0.16847531924564407 0 0 0 0 -3.7329607415613282 -3.974672284020663 0 -3.974672284020663 2.015433798103885 0 0 0 0 -2.581389647362812 -1.7735741809107424 0 -1.7735741809107424 -0.36059362229376291 0 0 0 0 -6.3223057263894589 -1.4232325600860882 0 -1.4232325600860882 -0.13473116265346619 0 0 0 0 -4.0294789704430514 -0.52979183429815779 0 -0.52979183429815779 -2.2146997869586311 0 0 0 0 -7.3136203906193487 -1.0801071450162434 0 -1.0801071450162434 0.073376800229564887 0 0 0 0 -7.9760281960479915 -4.4569471596188066 0 -4.4569471596188066 5.0052914879015802 0 0 0 0 -6.5949255125015043 -5.9437097134944441 0 -5.9437097134944441 4.2706542252235842 0 0 0 0 -0.0045073922345011397 -0.013952497019161569 0 -0.013952497019161569 -0.012584830243049308 0 0 0 0 -6.7057656926190248 -5.4594945357330111 0 -5.4594945357330111 0.2688338291476331 0 0 0 0 -4.2529290990723894 -3.3057740221461804 0 -3.3057740221461804 -2.5225513450359642 0 0 0 0 -19.650843828305369 -1.969953644510686 0 -1.969953644510686 -0.62190083344819858 0 0 0 0 -0.01538364341289622 -0.0078572251590998121 0 -0.0078572251590998121 -0.0068045626506234563 0 0 0 0 -13.062678071961273 4.1482913226588787 0 4.1482913226588787 -6.490797342236502 0 0 0 0 -8.1292064918416145 -3.4842375772167595 0 -3.4842375772167595 -0.0012493145388458974 0 0 0 0 -4.4216198684007395 -0.4527519902924198 0 -0.4527519902924198 -0.035145412766772924 0 0 0 0 -51.954234469936637 15.516114331605465 0 15.516114331605465 -2.133922864249409 0 0 0 0 -25.410400429042056 1.6031026763700211 0 1.6031026763700211 -0.0055284549663296061 0 0 0 0 -19.515515377664997 11.200407476720482 0 11.200407476720482 -13.347612942016717 0 0 0 0 -17.549208831645956 -2.1301496742657875 0 -2.1301496742657875 -4.4933138245963491 0 0 0 0 -20.044701101520332 0.30574280770633777 0 0.30574280770633777 10.269001803247619 0 0 0 0 -4.9568283365549632 -0.70266626014933209 0 -0.70266626014933209 -0.1125970490586643 0 0 0 0 -7.5004437926181708 0.40970436988918379 0 0.40970436988918379 9.7549584372538334 0 0 0 0 -3.1141604610093054 7.9298100812569317 0 7.9298100812569317 2.0415224871289297 0 0 0 0 6.5279353300284129 -1.6350388035000236 0 -1.6350388035000236 -26.495033407395411 0 0 0 0 -133.77046996320496 4.4958703714391266 0 4.4958703714391266 14.911440119767271 0 0 0 0 -1.8320320076417147 -0.37926484179228925 0 -0.37926484179228925 -0.11884920533162743 0 0 0 0 -49.969971320439072 -55.253984639516837 0 -55.253984639516837 -67.837866387442944 0 0 0 0 -100.29163999431876 -43.009855153768058 0 -43.009855153768058 -6.953663353796637 0 0 0 0 -71.726945994916605 59.688116428982454 0 59.688116428982454 -66.175811151190615 0 0 0 0 -60.765626318754585 53.839473237410701 0 53.839473237410701 -27.031692804569765 0 0 0 0 -75.853186548552912 -5.5440136559145801 0 -5.5440136559145801 0.014997248280508441 0 0 0 0 -71.135193556459853 3.4371593148485369 0 3.4371593148485369 14.428813838026732 0 0 0 0 -60.951280433615466 3.0814451026662297 0 3.0814451026662297 0.0094307362202609123 0 0 0 0 -41.453639834937348 -2.8220263387774858 0 -2.8220263387774858 -0.014740535572648789 0 0 0 0 -51.21459835594942 -16.521945630663289 0 -16.521945630663289 -4.0765531306139291 0 0 0 0 -31.502337686055398 -13.768932223311943 0 -13.768932223311943 -4.6216500028395879 0 0 0 0 -37.641706366339349 -5.5475528633677698 0 -5.5475528633677698 -14.949980533534653 0 0 0 0 -29.102328694993048 6.9316668858568597 0 6.9316668858568597 -5.3859756770530627 0 0 0 0 -54.29955007704848 21.251539859180198 0 21.251539859180198 7.6379054346312074 0 0 0 0 -17.384462644586165 -13.41064882952309 0 -13.41064882952309 -77.565736850870735 0 0 0 0 2.1483795983403979 -44.478269310657751 0 -44.478269310657751 -32.982511368801326 0 0 0 0 -34.870068015938159 8.1848329586356634 0 8.1848329586356634 0.43654927797813414 0 0 0 0 0.056085241377381578 0.14963561654792557 0 0.14963561654792557 0.1299602475128851 0 0 0 0 -34.53361006824889 7.5331876062687524 0 7.5331876062687524 0.16945321780385925 0 0 0 0 7.4449240234134777 1.847094597661922 0 1.847094597661922 -7.1235118461553384 0 0 0 0 -30.20638793350372 10.7892577005527 0 10.7892577005527 -0.48888881521592964 0 0 0 0 0.2247987363593964 0.56864822281211502 0 0.56864822281211502 0.81034921310069197 0 0 0 0 3.1760312650258129 8.1698317954621444 0 8.1698317954621444 -1.8134016760803213 0 0 0 0 -26.358309570561687 22.406482736318253 0 22.406482736318253 -1.5495292960403049 0 0 0 0 -15.825219188147457 19.299695964557827 0 19.299695964557827 -2.9171358435768298 0 0 0 0 -38.388997955073137 24.159775310478608 0 24.159775310478608 5.0388686988873133 0 0 0 0 -59.052065218784264 20.957494848222495 0 20.957494848222495 9.7032951800952105 0 0 0 0 -36.289829322086007 18.240630064512686 0 18.240630064512686 3.944298821654229 0 0 0 0 -71.448489421680279 29.177952428628998 0 29.177952428628998 8.5851323775688684 0 0 0 0 -12.867148434252158 31.899695986917166 0 31.899695986917166 -19.529914537222169 0 0 0 0 -181.31632442162299 15.035838661653983 0 15.035838661653983 9.3555683899135715 0 0 0 0 -83.767098920798162 12.397567135617294 0 12.397567135617294 9.345375791009495 0 0 0 0 -141.10115169977507 -63.718898875004356 0 -63.718898875004356 -14.793821751878767 0 0 0 0 -72.070723694516346 -39.778649576433111 0 -39.778649576433111 -9.2625692485402169 0 0 0 0 -84.731312878895551 -39.996468813654815 0 -39.996468813654815 -6.1485949650251541 0 0 0 0 -113.70283489930443 -8.2555913478633158 0 -8.2555913478633158 12.10618128314502 0 0 0 0 -68.393777722361847 -3.6053573321531758 0 -3.6053573321531758 7.5034963055148864 0 0 0 0 -78.302245702092478 -11.947440066938157 0 -11.947440066938157 4.1193631943826858 0 0 0 0 -74.685949893253564 8.6862843944868473 0 8.6862843944868473 7.034987791708545 0 0 0 0 -70.202431384685042 17.066268975072944 0 17.066268975072944 11.984532273860793 0 0 0 0 -77.993567614368658 1.6159186233674347 0 1.6159186233674347 13.334917913269692 0 0 0 0 -55.933371756073029 13.383540954583282 0 13.383540954583282 12.951700638063357 0 0 0 0 -61.218382789127645 11.850144894793971 0 11.850144894793971 12.82611785995141 0 0 0 0 -62.069457447054447 9.1239525725520707 0 9.1239525725520707 19.240411788198273 0 0 0 0 -63.364087703825135 6.1510247582714896 0 6.1510247582714896 18.024924115879912 0 0 0 0 -64.798965130648867 10.269210573839587 0 10.269210573839587 19.358164205917546 0 0 0 0 -58.258119767251628 -2.8041863394942084 0 -2.8041863394942084 10.035324601855336 0 0 0 0 -55.913817539163574 -3.4197876310782362 0 -3.4197876310782362 4.6996471901550194 0 0 0 0 -64.732893405656796 8.2849383449423613 0 8.2849383449423613 15.702914585795668 0 0 0 0 -66.832753328548279 -1.6349813945512324 0 -1.6349813945512324 12.889867534446921 0 0 0 0 -59.71714258393331 9.3476173509649243 0 9.3476173509649243 19.490620283854469 0 0 0 0 -59.246487098833313 4.4214160769668069 0 4.4214160769668069 20.787082768264327 0 0 0 0 -52.911970948858652 5.4663111435920655 0 5.4663111435920655 16.301619503298639 0 0 0 0 -51.441578730446054 -5.3628459943188318 0 -5.3628459943188318 10.98108940216207 0 0 0 0 -44.638836816171533 9.7646516971306028 0 9.7646516971306028 22.118431425957624 0 0 0 0 -64.905384589925234 6.1826102950801669 0 6.1826102950801669 26.812967137780106 0 0 0 0 -61.466005597609183 12.4406953770727 0 12.4406953770727 29.647276099721239 0 0 0 0 -54.571980123774551 4.548569409442921 0 4.548569409442921 21.366273434046434 0 0 0 0 -61.792190626802039 6.0265116156829208 0 6.0265116156829208 26.623600591407239 0 0 0 0 -64.215004844278155 4.3195686891116338 0 4.3195686891116338 30.938614102259635 0 0 0 0 -73.154254031484015 -3.9456225524677393 0 -3.9456225524677393 36.236834016745661 0 0 0 0 -64.55704491524375 0.63989931992477977 0 0.63989931992477977 20.541186934423536 0 0 0 0 -67.826961923332419 -17.667232365890186 0 -17.667232365890186 10.669620483479775 0 0 0 0 -49.106211392470868 -4.744269261269892 0 -4.744269261269892 19.04394686723731 0 0 0 0 -39.943092379849986 4.2065649315029532 0 4.2065649315029532 13.594647745256225 0 0 0 0 -49.065563335112529 -1.092289272229209 0 -1.092289272229209 11.32871340679003 0 0 0 0 -54.619217330028391 7.4372024543023407 0 7.4372024543023407 12.947496348039977 0 0 0 0 -35.594069423590554 9.7383751486443089 0 9.7383751486443089 7.2623180694310463 0 0 0 0 -35.98384619798162 8.5182752921233487 0 8.5182752921233487 6.7751763608332567 0 0 0 0 -40.451689883531799 5.9290272206053487 0 5.9290272206053487 8.3496603776679876 0 0 0 0 -33.938564303913154 4.3878770898306811 0 4.3878770898306811 8.7141662750143496 0 0 0 0 -33.957256456153118 7.9345189655130071 0 7.9345189655130071 6.4195867555874884 0 0 0 0 -33.692816526374372 7.5876776439585001 0 7.5876776439585001 5.1824687046214422 0 0 0 0 0.26299553897021877 1.0166973738774203 0 1.0166973738774203 3.6146980467265228 0 0 0 0 -33.916627728671301 6.7678606404510901 0 6.7678606404510901 3.6943507660607793 0 0 0 0 -32.270351135876808 11.495566645054737 0 11.495566645054737 5.509411216594799 0 0 0 0 0.11058889813184436 0.78504570920661365 0 0.78504570920661365 2.1700417151710814 0 0 0 0 -34.22132962392061 10.86126545652769 0 10.86126545652769 6.1980638275704223 0 0 0 0 -11.432127013431455 8.3236255011102571 0 8.3236255011102571 -2.7273033862088596 0 0 0 0 -23.188721252285177 4.374910675285264 0 4.374910675285264 4.6695132959658849 0 0 0 0 -31.781276166098905 6.3722887827874004 0 6.3722887827874004 5.8562352945014027 0 0 0 0 -25.498808453647143 13.452201974377545 0 13.452201974377545 2.6283584273105589 0 0 0 0 -28.400199129340763 13.074134206947065 0 13.074134206947065 3.2944061898945165 0 0 0 0 -29.909978672323632 17.604186388004223 0 17.604186388004223 2.7874877295882925 0 0 0 0 -41.511242331500398 15.685246496707805 0 15.685246496707805 7.1678885116702986 0 0 0 0 -42.131979531317484 17.366591622672786 0 17.366591622672786 9.5768630614934409 0 0 0 0 -43.496849427552661 10.72891867168164 0 10.72891867168164 12.405376419932054 0 0 0 0 -55.826695350184309 13.308357489310566 0 13.308357489310566 12.153855612007192 0 0 0 0 -34.751592727960087 13.890520312057333 0 13.890520312057333 7.2975652134098254 0 0 0 0 -43.193961084214607 12.523278971679602 0 12.523278971679602 8.4172567574837558 0 0 0 0 -30.001493780564488 -6.7994469409682168 0 -6.7994469409682168 11.244781517256342 0 0 0 0 -29.248962925034675 -14.730369672025642 0 -14.730369672025642 35.582585866366003 0 0 0 0 -112.74106413925983 112.64968566484248 0 112.64968566484248 15.6653802467074 0 0 0 0 2.6890493642858928 -81.977005369567223 0 -81.977005369567223 22.305374647109147 0 0 0 0 75.047630676697736 -70.109295510354116 0 -70.109295510354116 -122.77876608337965 0 0 0 0 -33.641187290952075 -7.2243741132663217 0 -7.2243741132663217 11.484486772907587 0 0 0 0 -33.73236210379811 -2.3135459800294065 0 -2.3135459800294065 0.96801949530871778 0 0 0 0 -18.637518867282779 -64.147115115777069 0 -64.147115115777069 65.646567221058376 0 0 0 0 -29.499320260438381 -7.7759064453764548 0 -7.7759064453764548 -0.56746754165083091 0 0 0 0 -25.920122990999577 -1.3685223368997939 0 -1.3685223368997939 2.4639740413061428 0 0 0 0 -9.8345750703733685 0.10762342242514933 0 0.10762342242514933 4.8473030244580633 0 0 0 0 -39.714677322597709 4.4196892942584327 0 4.4196892942584327 16.244079169056675 0 0 0 0 -43.771522222632484 -0.19843834876758137 0 -0.19843834876758137 12.312620955489137 0 0 0 0 -37.101061255525565 1.5953967702032514 0 1.5953967702032514 2.8531617133994587 0 0 0 0 -36.126364240048133 4.6779866791075619 0 4.6779866791075619 10.87384037307811 0 0 0 0 -33.754800186259672 7.4959885453631614 0 7.4959885453631614 5.8925192825520298 0 0 0 0 -33.356875535930158 5.0028279809034757 0 5.0028279809034757 9.3118759162184688 0 0 0 0 -30.32257918601681 5.4892841925077391 0 5.4892841925077391 10.474098816464675 0 0 0 0 -24.829037766561669 -1.4503034159199615 0 -1.4503034159199615 12.717746255604652 0 0 0 0 -29.962012381936802 -9.6810488424919185 0 -9.6810488424919185 21.938925413968263 0 0 0 0 -33.241622277775264 -1.9146450789994827 0 -1.9146450789994827 10.46798190275058 0 0 0 0 -36.401295148272766 -7.931061192720108 0 -7.931061192720108 3.9145158914017202 0 0 0 0 -41.100312048583874 0.16007534730738371 0 0.16007534730738371 19.78007324142709 0 0 0 0 -53.81780469455407 9.2803704440345882 0 9.2803704440345882 61.976409810820542 0 0 0 0 -58.846968855177693 -31.979718371295803 0 -31.979718371295803 -20.778604066700154 0 0 0 0 -101.75674885063199 -22.823776184144663 0 -22.823776184144663 24.510068256707882 0 0 0 0 -18.51794542222342 42.402062172766534 0 42.402062172766534 -21.675382654902023 0 0 0 0 -90.364063796316259 -92.512252039920639 0 -92.512252039920639 44.505145993140331 0 0 0 0 -31.240811743733246 -9.9957437127770383 0 -9.9957437127770383 -0.5344949432325381 0 0 0 0 -34.057409690399254 -0.11615654349573745 0 -0.11615654349573745 2.9681809706372726 0 0 0 0 -37.425262259232113 -8.9608982735453537 0 -8.9608982735453537 63.51902723353578 0 0 0 0 -22.206436131760711 14.370230415303467 0 14.370230415303467 25.093465413180411 0 0 0 0 -74.61405098992509 28.28228867328562 0 28.28228867328562 52.350042094988567 0 0 0 0 -1.5030153704184102 -5.7784255875773685 0 -5.7784255875773685 2.4990389498087997 0 0 0 0 -42.675462152612454 -27.132010400308275 0 -27.132010400308275 70.042323258121598 0 0 0 0 -45.207201908669958 4.6017130387036786 0 4.6017130387036786 21.919401612904608 0 0 0 0 -32.688822139640251 -4.1369122134161671 0 -4.1369122134161671 6.9749088538235355 0 0 0 0 -71.27893117324129 -37.378732558579713 0 -37.378732558579713 104.41725691995208 0 0 0 0 -34.850090908917466 -2.5108660981776421 0 -2.5108660981776421 0.88384335672884062 0 0 0 0 -31.712902190956541 -8.2782710842162608 0 -8.2782710842162608 -0.46982807324400694 0 0 0 0 -30.816350703556054 -33.795806747784781 0 -33.795806747784781 0.18103673650671226 0 0 0 0 -5.1760571154815977 -2.7275026264932762 0 -2.7275026264932762 0.18995775225794587 0 0 0 0 -21.238180547257798 -31.860369773192986 0 -31.860369773192986 -38.832165497613943 0 0 0 0 -47.248733944714331 -43.006670945673704 0 -43.006670945673704 -84.771490139377192 0 0 0 0 -39.793541140665184 -18.078148699930239 0 -18.078148699930239 -7.0490438053580533 0 0 0 0 -1.3518070827631021 7.1233638977980345 0 7.1233638977980345 0.60899625351595565 0 0 0 0 -69.745335869549308 -18.661636353058867 0 -18.661636353058867 -24.327517758185301 0 0 0 0 -33.843398728156899 -24.642516049886126 0 -24.642516049886126 -48.046614509403149 0 0 0 0 -32.127765101908153 0.70625270377448146 0 0.70625270377448146 -41.110515991834859 0 0 0 0 -84.683224482549122 -19.78683695095981 0 -19.78683695095981 12.930233311753568 0 0 0 0 -30.189192271576154 6.9645590624644829 0 6.9645590624644829 1.0444364920732374 0 0 0 0 -25.469945166007165 -68.709246053413281 0 -68.709246053413281 -7.6880830902293837 0 0 0 0 -38.792285308383725 -17.722291797941811 0 -17.722291797941811 27.613323761264894 0 0 0 0 -41.226037247551403 -3.3408625547785018 0 -3.3408625547785018 -13.304989201249043 0 0 0 0 -36.246488548164052 -0.76367821931336266 0 -0.76367821931336266 -13.505039376263994 0 0 0 0 -61.584709159393242 -7.1233392200125536 0 -7.1233392200125536 6.029213412897434 0 0 0 0 -33.33391597493074 -3.7408573203598117 0 -3.7408573203598117 0.3617065333635715 0 0 0 0 -1.7904315647901967 9.5829605744713717 0 9.5829605744713717 -22.324528355262601 0 0 0 0 -23.726794396083278 -14.928732400601461 0 -14.928732400601461 11.649675372204456 0 0 0 0 -18.801432302038222 -5.7161515737712518 0 -5.7161515737712518 -1.2718473204487177 0 0 0 0 -9.1229177475313818 0.61619446106097087 0 0.61619446106097087 0.10002457087174133 0 0 0 0 23.241983805722612 -12.846976275117974 0 -12.846976275117974 25.472760293966076 0 0 0 0 -13.704780950669374 -26.630336032026776 0 -26.630336032026776 20.669913343239841 0 0 0 0 -9.9641223546924031 -1.2893284746524429 0 -1.2893284746524429 2.2842654644419613 0 0 0 0 -31.287307122045604 2.1441883812785818 0 2.1441883812785818 5.7078728049390861 0 0 0 0 -10.727767713166987 -6.9199061452103763 0 -6.9199061452103763 -0.24508873699304656 0 0 0 0 -47.310988181643552 3.6301351871981922 0 3.6301351871981922 -10.680119658587429 0 0 0 0 -18.025800265750149 -3.2287279051795039 0 -3.2287279051795039 3.7152054118520361 0 0 0 0 -5.0604066551297997 -7.6230730226010053 0 -7.6230730226010053 -1.4367939674744894 0 0 0 0 -48.631097502978264 12.167408925650864 0 12.167408925650864 -4.5804752990910629 0 0 0 0 -43.728896973085284 6.0314711875168712 0 6.0314711875168712 -4.3052062131986872 0 0 0 0 -31.901592080088449 7.8125604881226245 0 7.8125604881226245 -9.5506547214506643 0 0 0 0 -16.977618522851117 11.189003290023962 0 11.189003290023962 -9.0049162219815884 0 0 0 0 -39.473813414666893 15.472861505703847 0 15.472861505703847 -1.3491053388422642 0 0 0 0 -46.908553309323906 3.3730483711900661 0 3.3730483711900661 -3.4373499138317669 0 0 0 0 -70.491007397296926 -3.9726422774356251 0 -3.9726422774356251 -2.1509286179612843 0 0 0 0 -43.916777883774557 23.752799374179304 0 23.752799374179304 -14.041878948245994 0 0 0 0 -28.042871708618804 3.3449738988351925 0 3.3449738988351925 -0.97895831884309814 0 0 0 0 0.1368639740496036 0.29947459816093769 0 0.29947459816093769 0.29497099421886741 0 0 0 0 -23.040879405642045 13.046755114900407 0 13.046755114900407 -19.107465787413119 0 0 0 0 -39.26506689542839 29.123895939575675 0 29.123895939575675 -20.533820552050546 0 0 0 0 -65.903901887162647 47.962906508206686 0 47.962906508206686 1.5083843339569114 0 0 0 0 -77.057311327542266 27.904394960154832 0 27.904394960154832 -9.4304556103185746 0 0 0 0 -0.44453631325255216 0.29154453496011712 0 0.29154453496011712 0.25515689621855531 0 0 0 0 3.1865652523010795 3.0123451917280022 0 3.0123451917280022 -4.60516509472086 0 0 0 0 -25.03887264138757 2.592019821946792 0 2.592019821946792 6.7291521265112806 0 0 0 0 -20.510229890835035 8.6432918180008755 0 8.6432918180008755 -10.090291851381153 0 0 0 0 -5.7272070612780226 -6.0146034599001723 0 -6.0146034599001723 -0.43123215084710864 0 0 0 0 -20.205254110189344 5.8314199848575754 0 5.8314199848575754 -0.45755320684315848 0 0 0 0 -30.538078447625594 15.291596378361646 0 15.291596378361646 -6.3847786699428752 0 0 0 0 -18.605814069996995 6.0778018970999028 0 6.0778018970999028 -8.1074410985762881 0 0 0 0 -28.098801276891777 5.4632050697486818 0 5.4632050697486818 -2.8896423944722756 0 0 0 0 -28.808792320803605 13.762067197935533 0 13.762067197935533 -12.585456655156577 0 0 0 0 -26.318241772853071 14.581600318483453 0 14.581600318483453 -20.730815469574566 0 0 0 0 -37.177370176694239 10.759313135465391 0 10.759313135465391 -9.0639361088005899 0 0 0 0 -0.11843242159100065 0.20043804043817204 0 0.20043804043817204 0.10149713016488171 0 0 0 0 -5.1639061704249798 -5.5777186154350602 0 -5.5777186154350602 -0.93252047707983365 0 0 0 0 -2.105509260953113 16.29792976909718 0 16.29792976909718 45.486677336177308 0 0 0 0 -30.007149800709158 12.088677493025642 0 12.088677493025642 -4.1703930898806334 0 0 0 0 -27.057744016739889 18.156908556788551 0 18.156908556788551 -11.715672082368123 0 0 0 0 40.877955260017188 23.984453846202783 0 23.984453846202783 -22.769900272513723 0 0 0 0 -52.661114870385063 55.211883800718653 0 55.211883800718653 -32.371164329119892 0 0 0 0 -8.2093903918903379 85.952721130246317 0 85.952721130246317 48.750476291880915 0 0 0 0 -20.423561588647317 53.347608349711777 0 53.347608349711777 -37.005465419151932 0 0 0 0 -6.8737142061836494 70.709003034575133 0 70.709003034575133 -71.765168020978905 0 0 0 0 0.17964478765099656 0.13858565267998202 0 0.13858565267998202 -0.047810189973603645 0 0 0 0 -31.255417158607088 63.962193267569319 0 63.962193267569319 -8.0912720581466502 0 0 0 0 -10.080657266710205 -4.6227847467211678 0 -4.6227847467211678 -3.8683762412127294 0 0 0 0 -6.1148060665891535 5.6772749213604961 0 5.6772749213604961 -11.295361183517649 0 0 0 0 -29.653087803348171 -4.731087454749602 0 -4.731087454749602 -13.789759317338563 0 0 0 0 10.059355238314311 -9.9375357261375612 0 -9.9375357261375612 -73.633216198803126 0 0 0 0 4.9039926279256179 -12.391700986490884 0 -12.391700986490884 -70.487837391722792 0 0 0 0 -10.134414725904207 -79.438589687446466 0 -79.438589687446466 -114.99263598882295 0 0 0 0 -170.32333565709996 127.12568965406722 0 127.12568965406722 57.803552950793922 0 0 0 0 -29.477434123227411 8.8170958162011726 0 8.8170958162011726 0.97184467191987545 0 0 0 0 -13.422845592984231 37.420106374066776 0 37.420106374066776 -203.04474603286954 0 0 0 0 55.07985448047657 -39.323012821278098 0 -39.323012821278098 -38.237385660634416 0 0 0 0 -2.9456613968212721 0.94968557352327387 0 0.94968557352327387 -0.57612089205764794 0 0 0 0 -81.167303397967771 -163.8340760121643 0 -163.8340760121643 -100.85120646134951 0 0 0 0 -45.414618285103643 -81.153276036373427 0 -81.153276036373427 -37.039614380088096 0 0 0 0 -49.665175114503654 -85.915367940687418 0 -85.915367940687418 -41.078717547889937 0 0 0 0 -64.724681735497143 -98.566473312080632 0 -98.566473312080632 -47.880507085358914 0 0 0 0 -30.273781268984749 -132.12112877415387 0 -132.12112877415387 -93.533037581680674 0 0 0 0 0.37514643117174273 -131.70062319689671 0 -131.70062319689671 -103.00285077748751 0 0 0 0 -17.928946127107338 -121.28632833546078 0 -121.28632833546078 -98.519455413949231 0 0 0 0 33.872832091197779 -127.16877146550976 0 -127.16877146550976 -105.60487540400757 0 0 0 0 -34.632540154845628 4.8949422448829409 0 4.8949422448829409 -39.549228264226997 0 0 0 0 -211.18783226900632 69.55815131317955 0 69.55815131317955 -61.647596978253191 0 0 0 0 -221.18576218731323 -122.48563408417638 0 -122.48563408417638 -30.943539237750372 0 0 0 0 -159.79948468886141 -64.36318438270996 0 -64.36318438270996 5.5147872909714124 0 0 0 0 -47.992991908431577 -29.021884895774178 0 -29.021884895774178 7.2957039565036226 0 0 0 0 -102.83329602078629 29.158400733896869 0 29.158400733896869 4.780061443277873 0 0 0 0 -26.936007994227111 20.302731067606146 0 20.302731067606146 1.3193622225713852 0 0 0 0 -27.913350694263499 -1.8213876019275972 0 -1.8213876019275972 104.54947855280841 0 0 0 0 -9.6816721484626953 24.158574047904668 0 24.158574047904668 37.369799223282826 0 0 0 0 -9.3805153307039291 79.168757351261547 0 79.168757351261547 74.048958515452398 0 0 0 0 -0.16460237119889953 0.27513067312029094 0 0.27513067312029094 0.83056912551160922 0 0 0 0 24.17283917554596 25.352956422936245 0 25.352956422936245 22.752516001133245 0 0 0 0 54.650390625458385 65.880504570816584 0 65.880504570816584 26.309227505951867 0 0 0 0 -9.9329037430889002 13.476151168629784 0 13.476151168629784 26.905497323901272 0 0 0 0 -16.192660874097783 32.228855884597579 0 32.228855884597579 44.647233890442976 0 0 0 0 -52.07307242726165 -19.705518260069255 0 -19.705518260069255 13.804938426742865 0 0 0 0 -22.466456922360521 22.260274205472058 0 22.260274205472058 54.478558166483481 0 0 0 0 -92.28665935536992 -21.009924868634812 0 -21.009924868634812 43.531190918230095 0 0 0 0 -53.262925599450682 -25.586939003900682 0 -25.586939003900682 21.786434528993368 0 0 0 0 -126.11805384912986 30.630554743308466 0 30.630554743308466 -5.4812570448798184 0 0 0 0 -29.208416751218465 -71.956093143136854 0 -71.956093143136854 -44.300758032888666 0 0 0 0 3.0452832985274654 -63.139594888348256 0 -63.139594888348256 -79.473729506510438 0 0 0 0 -0.15251227296459291 -0.46107392290419824 0 -0.46107392290419824 -0.95589665911714405 0 0 0 0 -36.505208639078774 -80.967975496475219 0 -80.967975496475219 -54.655712838718728 0 0 0 0 18.245027323137037 -111.8445662012781 0 -111.8445662012781 -108.56365872084791 0 0 0 0 -14.236510445727617 16.704817247168762 0 16.704817247168762 41.375244366245852 0 0 0 0 24.481751454146433 -22.85340491276952 0 -22.85340491276952 -24.490945140039344 0 0 0 0 -48.223111618048279 18.3502869637976 0 18.3502869637976 -3.6231134235491709 0 0 0 0 -19.585715562296173 0.31076073842388041 0 0.31076073842388041 -3.6161496630522834 0 0 0 0 -1.3378607088670833 0.52692162992985914 0 0.52692162992985914 0.10996403520857712 0 0 0 0 -0.84376720158842744 -1.5057028139648665 0 -1.5057028139648665 -1.3007593062886729 0 0 0 0 -2.3305033325013937 -8.3170876944259362 0 -8.3170876944259362 34.767603902622341 0 0 0 0 -20.001832163372228 -1.9429902752289649 0 -1.9429902752289649 -0.35685793874404226 0 0 0 0 -0.7321310337559126 -0.071534264176744244 0 -0.071534264176744244 1.9919977581533548 0 0 0 0 -7.399146453350113 3.1754958007330742 0 3.1754958007330742 6.9728861192650129 0 0 0 0 -1.9075829286739463 -9.786620186735604 0 -9.786620186735604 22.442330519850657 0 0 0 0 -1.6189034126218758 5.5066150084153378 0 5.5066150084153378 11.456392242517495 0 0 0 0 -1.7184573868580628 6.8084992391702599 0 6.8084992391702599 44.81265113250447 0 0 0 0 -4.6776426629196592 4.3607158087587337 0 4.3607158087587337 -0.27168599826293116 0 0 0 0 -66.259819387842526 -20.302513890954998 0 -20.302513890954998 38.116589752754976 0 0 0 0 -36.519911656407203 -19.724126322277414 0 -19.724126322277414 -0.22141782760343176 0 0 0 0 -88.176843238361471 -15.094262421416374 0 -15.094262421416374 17.143085682687584 0 0 0 0 -66.771767009231553 -25.197065517431554 0 -25.197065517431554 5.706376146854609 0 0 0 0 -5.9460397381627885 4.7820379904516681 0 4.7820379904516681 -1.8697010851253997 0 0 0 0 -112.92548720348714 39.562033703104873 0 39.562033703104873 -110.92942149839217 0 0 0 0 -127.93045047958913 -25.950887097827788 0 -25.950887097827788 5.901638466617726 0 0 0 0 -82.643256708347508 -55.393116838190949 0 -55.393116838190949 -26.341598457366217 0 0 0 0 -21.115729618660225 5.3565629114904034 0 5.3565629114904034 0.15957711559865118 0 0 0 0 -13.661011285850122 5.1026552075343332 0 5.1026552075343332 2.2350001192610138 0 0 0 0 -5.3783964108297369 7.4554952676406572 0 7.4554952676406572 -11.589313773440097 0 0 0 0 -16.149567558827968 6.2567324736372534 0 6.2567324736372534 -0.15553392380759856 0 0 0 0 -2.191534528230477 52.689483864435601 0 52.689483864435601 16.925325703160354 0 0 0 0 -0.15703529303755204 11.017447898559098 0 11.017447898559098 1.6223498111338586 0 0 0 0 64.661352609546157 -108.57257608571817 0 -108.57257608571817 -114.25091474599931 0 0 0 0 -31.893831855995813 -13.136261347803583 0 -13.136261347803583 -36.147820697743271 0 0 0 0 -27.72796642307307 9.2093537048385663 0 9.2093537048385663 0.79178457487536813 0 0 0 0 -41.374991862609022 10.878033935216223 0 10.878033935216223 -34.779792007657051 0 0 0 0 -27.545792191794135 -15.486276772934353 0 -15.486276772934353 -28.628241304370267 0 0 0 0 -4.9870846475969302 5.9314265509299542 0 5.9314265509299542 -49.826971810223029 0 0 0 0 -7.7099214119181561 -0.80814815792917472 0 -0.80814815792917472 -0.22151132444504873 0 0 0 0 -22.122651218689498 10.387696954310087 0 10.387696954310087 -12.657013018832401 0 0 0 0 -28.424564449127502 19.248461667528119 0 19.248461667528119 -24.716826042179065 0 0 0 0 -26.912626281466146 -1.8809654122611619 0 -1.8809654122611619 10.161671989496995 0 0 0 0 -9.9232407030885952 14.253970153816923 0 14.253970153816923 -13.166026963959325 0 0 0 0 -28.508409983802267 -11.188631660094558 0 -11.188631660094558 -18.672568941191741 0 0 0 0 -14.759487077844824 -24.348572404190747 0 -24.348572404190747 -6.2717706041912606 0 0 0 0 -35.439070094231283 -11.702404999278514 0 -11.702404999278514 -18.644594955957757 0 0 0 0 -33.92306237240291 -16.114079258359137 0 -16.114079258359137 -27.724522838724795 0 0 0 0 -33.927680879326545 -17.797798199807723 0 -17.797798199807723 -37.079513083425297 0 0 0 0 -36.621408156490361 -14.576891721436539 0 -14.576891721436539 -28.80589883568075 0 0 0 0 -36.68279971476295 -12.765247771368337 0 -12.765247771368337 -17.421589824797707 0 0 0 0 -31.672855290809821 -14.275429392757871 0 -14.275429392757871 -29.190046199630217 0 0 0 0 -35.588077557338693 -7.048995534222513 0 -7.048995534222513 -36.190175819637005 0 0 0 0 -38.415010099815845 -4.3316327365619003 0 -4.3316327365619003 -29.393375780807332 0 0 0 0 -43.061766518105287 -12.713521971933858 0 -12.713521971933858 -27.149747513290549 0 0 0 0 -23.79899300404395 -2.3964092221612248 0 -2.3964092221612248 -30.628372397265707 0 0 0 0 -30.949947710345441 -13.34102687942692 0 -13.34102687942692 -30.716134664664992 0 0 0 0 -19.898989574336156 -0.16768594185191432 0 -0.16768594185191432 -23.374242322614521 0 0 0 0 -48.025464098514931 -3.9709759449308422 0 -3.9709759449308422 -17.208931902228812 0 0 0 0 -38.398176241684268 5.7588705631653454 0 5.7588705631653454 -15.414967884217504 0 0 0 0 -38.907593435666058 -19.78683477544044 0 -19.78683477544044 8.4550011254457331 0 0 0 0 -86.514180267404299 -1.6997016146810324 0 -1.6997016146810324 9.9925553937802434 0 0 0 0 -53.621246848319061 33.705209138974425 0 33.705209138974425 -22.417365862520228 0 0 0 0 13.816893439543492 -45.702863073045592 0 -45.702863073045592 -24.856469164156994 0 0 0 0 -39.340311492651381 -35.991760017233958 0 -35.991760017233958 100.47924882374048 0 0 0 0 -15.013787410891382 6.2913131580868935 0 6.2913131580868935 -15.483917282154252 0 0 0 0 -25.784867186415795 -6.670335717227033 0 -6.670335717227033 15.570707603503706 0 0 0 0 -11.831373825978517 -1.2835912753794787 0 -1.2835912753794787 7.3089576947992327 0 0 0 0 -21.872752037474129 11.116119361007577 0 11.116119361007577 28.809092896013681 0 0 0 0 -18.554884826297908 -9.925636392920449 0 -9.925636392920449 0.88977320346365363 0 0 0 0 -27.714439209841657 -14.015606731327352 0 -14.015606731327352 33.360086110949396 0 0 0 0 -19.686636847095627 0.11708823440304883 0 0.11708823440304883 2.6121903727031426 0 0 0 0 -19.046976654070022 -13.436782337255408 0 -13.436782337255408 56.628837076004856 0 0 0 0 -25.754720367543626 -0.89120288303734618 0 -0.89120288303734618 2.1715995974496121 0 0 0 0 -20.610176300978608 -6.2476590833009062 0 -6.2476590833009062 -0.13710080417552328 0 0 0 0 -124.70178236170432 58.20296161618117 0 58.20296161618117 92.196948794219111 0 0 0 0 -21.312785644313408 -5.033263129491047 0 -5.033263129491047 21.492729936953765 0 0 0 0 -2.4334866650315234 6.6428776711400133 0 6.6428776711400133 41.546093742224457 0 0 0 0 -16.571494226395174 0.25089298629507617 0 0.25089298629507617 1.6522027893871987 0 0 0 0 -13.195981134907925 -1.5186454240756575 0 -1.5186454240756575 16.675431784145132 0 0 0 0 -17.627661411861482 -1.3818436218502939 0 -1.3818436218502939 24.461689170446334 0 0 0 0 -9.7944578868919052 1.7538381765634767 0 1.7538381765634767 19.092881264139123 0 0 0 0 -30.937628857631353 39.481940274088174 0 39.481940274088174 47.554071827050251 0 0 0 0 -8.5332761141324056 -2.0642200160490383 0 -2.0642200160490383 -0.43483984834904144 0 0 0 0 -50.475727503380767 -13.886555390648709 0 -13.886555390648709 47.171453551635295 0 0 0 0 -19.411585580993176 -4.6147252610681715 0 -4.6147252610681715 -0.56457845583731114 0 0 0 0 -9.4061045359981108 -5.5161516315367436 0 -5.5161516315367436 24.562225788294199 0 0 0 0 41.404354537618929 17.079676205287342 0 17.079676205287342 15.072238342522724 0 0 0 0 -18.123018628946738 -4.8022650289804005 0 -4.8022650289804005 29.126433370059203 0 0 0 0 -3.5409251873036993 1.7454583233650549 0 1.7454583233650549 1.6256626792308699 0 0 0 0 -13.970013208487217 -9.3446749346055071 0 -9.3446749346055071 61.467547027874957 0 0 0 0 2.984236601376324 11.814302664356205 0 11.814302664356205 37.879311225495371 0 0 0 0 3.5200439141553943 -12.399807494084598 0 -12.399807494084598 32.894232567606878 0 0 0 0 -1.3173619747358316 -4.5791777553128838 0 -4.5791777553128838 -1.7896212305078052 0 0 0 0 -12.622573411470512 3.2666237032045728 0 3.2666237032045728 30.532608072746029 0 0 0 0 -3.0651497868348088 -10.365292663721931 0 -10.365292663721931 12.98037396051086 0 0 0 0 -26.352652469264285 -35.942164927423278 0 -35.942164927423278 30.746464422052838 0 0 0 0 -26.440994716802379 -7.9770392547156916 0 -7.9770392547156916 10.447260718751181 0 0 0 0 -0.78766059776907582 -0.21368671850726351 0 -0.21368671850726351 -0.044859142408900154 0 0 0 0 17.714503055758541 -18.55013212163567 0 -18.55013212163567 12.578405444193436 0 0 0 0 51.268073239894875 -13.951421022662885 0 -13.951421022662885 -53.792616763531441 0 0 0 0 -46.827246696200746 -34.204919508128228 0 -34.204919508128228 31.391820824220986 0 0 0 0 -19.71646332819364 -16.689862923788354 0 -16.689862923788354 -12.856868232898933 0 0 0 0 -41.029882066490245 -41.772046784371582 0 -41.772046784371582 -0.86926560486824656 0 0 0 0 -12.946545187882293 -9.3184246678797535 0 -9.3184246678797535 14.070140376792921 0 0 0 0 -19.577897217626742 -26.690523345712279 0 -26.690523345712279 9.6422553259928918 0 0 0 0 -13.716938866426062 1.2276465401276369 0 1.2276465401276369 15.744918685262121 0 0 0 0 -26.479244749898498 -2.1746341442832318 0 -2.1746341442832318 57.78457255979788 0 0 0 0 -14.716501390554185 -4.204250706947164 0 -4.204250706947164 24.715335904709228 0 0 0 0 0.3652690777562384 5.0288706114991086 0 5.0288706114991086 25.751616993683228 0 0 0 0 -36.633603800310084 -26.344590864844378 0 -26.344590864844378 31.085363300013341 0 0 0 0 -43.121190984405985 -66.843104623197405 0 -66.843104623197405 18.193286409028531 0 0 0 0 -138.36324062830681 -45.18095756571779 0 -45.18095756571779 64.502307438052412 0 0 0 0 -21.578550910373664 -5.9106394255710999 0 -5.9106394255710999 -0.64063145805493571 0 0 0 0 88.218551191414008 -10.723585686270781 0 -10.723585686270781 -80.678061717161654 0 0 0 0 -0.74086582526913958 -2.2410664441454529 0 -2.2410664441454529 -1.1931355035285582 0 0 0 0 -129.97243825133773 15.490640134166824 0 15.490640134166824 31.564354862668552 0 0 0 0 -7.3640501618938288 -13.386324166614031 0 -13.386324166614031 -10.183579564302818 0 0 0 0 -0.97746061954239849 -13.225114414273776 0 -13.225114414273776 -29.304797715233917 0 0 0 0 -2.9991905669812695 -55.097095793074914 0 -55.097095793074914 -85.180100730979575 0 0 0 0 262.49306523418636 48.81258711830742 0 48.81258711830742 9.1271479460576757 0 0 0 0 -2.4912558745228495 -0.67233322822765373 0 -0.67233322822765373 -0.14022904358956212 0 0 0 0 23.285585921243182 -2.6989343668756192 0 -2.6989343668756192 -29.292689613889934 0 0 0 0 -23.808245160331353 -3.0631180175510053 0 -3.0631180175510053 79.804433643462175 0 0 0 0 -59.509529067807307 142.50297482183487 0 142.50297482183487 48.640816746552446 0 0 0 0 -19.867472023338749 -6.981219119146223 0 -6.981219119146223 -1.9266861148722236 0 0 0 0 -25.226472610280325 -34.682025169647886 0 -34.682025169647886 30.907260127088307 0 0 0 0 -422.63076141654165 -111.65070715902857 0 -111.65070715902857 75.987811848632191 0 0 0 0 -28.987800058126595 -15.934112438262105 0 -15.934112438262105 57.535017076801182 0 0 0 0 -25.321937141212402 12.452295346335859 0 12.452295346335859 26.695613195499391 0 0 0 0 -15.725542157104897 -6.1258203681488599 0 -6.1258203681488599 -1.7007937984708603 0 0 0 0 -27.426564323563071 9.5832749607590131 0 9.5832749607590131 -16.724329168819395 0 0 0 0 -35.29036098175493 -1.7650705432716904 0 -1.7650705432716904 12.618873768562253 0 0 0 0 -3.144892210189937 -11.245026296756521 0 -11.245026296756521 14.786130834759888 0 0 0 0 -26.949349840679133 -29.153950531892207 0 -29.153950531892207 -9.9385432477718609 0 0 0 0 -52.815636702121992 -2.2351325874640793 0 -2.2351325874640793 17.070172594081789 0 0 0 0 -27.53570172509535 -10.084837998654109 0 -10.084837998654109 -12.567590759156531 0 0 0 0 -52.782450062450152 -36.075061770612791 0 -36.075061770612791 -33.315611864837592 0 0 0 0 68.064312095142668 -123.43704895122778 0 -123.43704895122778 -28.16496968707262 0 0 0 0 -0.59443120309626352 -0.11707211017169783 0 -0.11707211017169783 0.80620712610960021 0 0 0 0 -106.75274073124001 26.943983018238129 0 26.943983018238129 -10.315337558890121 0 0 0 0 -13.380253894105408 -18.56436153645177 0 -18.56436153645177 -38.019527823587069 0 0 0 0 -0.0036443132101453557 0.3004685140750567 0 0.3004685140750567 -0.37983322901364214 0 0 0 0 -17.460186717857141 -12.963703554062443 0 -12.963703554062443 -30.163568814024188 0 0 0 0 -10.505090214715892 -16.710358267551996 0 -16.710358267551996 -33.927326865875727 0 0 0 0 -7.4893758983744192 -8.2058540557094943 0 -8.2058540557094943 -11.699011527499696 0 0 0 0 -1.6661895642537274 -13.12374770583078 0 -13.12374770583078 -42.313842376136066 0 0 0 0 0.069881966558043018 0.21056965831240326 0 0.21056965831240326 -0.2510095082509245 0 0 0 0 6.9494342532279916 -2.0787253732074138 0 -2.0787253732074138 -36.020623299603486 0 0 0 0 2.2771070843336929 -6.7247453918092042 0 -6.7247453918092042 -28.988151654799289 0 0 0 0 11.682601747048466 -2.3354926899178672 0 -2.3354926899178672 -56.931712638455025 0 0 0 0 10.676481339520251 8.3262666900916287 0 8.3262666900916287 -39.329880185189118 0 0 0 0 4.0007376087232842 9.2401570335188836 0 9.2401570335188836 -21.612945492134031 0 0 0 0 -5.362660795712145 4.8291077595888794 0 4.8291077595888794 -8.8923957338726893 0 0 0 0 -20.426293314123043 5.898510960536008 0 5.898510960536008 -0.086534105762556962 0 0 0 0 6.392457647696574 42.972712215452901 0 42.972712215452901 13.490890163201925 0 0 0 0 -19.310883983416716 6.6199226405552736 0 6.6199226405552736 0.56989330990694498 0 0 0 0 -17.729948166819668 5.5006352045829772 0 5.5006352045829772 -0.95261679701172852 0 0 0 0 1.0214125188758771 57.434291783655851 0 57.434291783655851 57.613249839764137 0 0 0 0 16.360300559928874 31.831298403411324 0 31.831298403411324 -31.957994955384024 0 0 0 0 -11.979010933258166 4.0024711509255653 0 4.0024711509255653 -0.26536200105115348 0 0 0 0 -17.508771620110565 7.0057918751550545 0 7.0057918751550545 -1.171425167238624 0 0 0 0 -18.704625896481986 8.2941579721163468 0 8.2941579721163468 -1.4907966322165156 0 0 0 0 -13.22115280136375 5.2297020010706543 0 5.2297020010706543 0.71261487873981455 0 0 0 0 -13.106453161202808 4.652205911985277 0 4.652205911985277 1.5859392395594227 0 0 0 0 -32.018682124638872 18.504174103426578 0 18.504174103426578 102.95822603499471 0 0 0 0 -56.840974452032242 78.595573322065519 0 78.595573322065519 91.356463177612909 0 0 0 0 -17.509095161498408 10.389810305778838 0 10.389810305778838 -1.164200739307802 0 0 0 0 8.9380905736543355 69.887967557654818 0 69.887967557654818 -39.555949157430746 0 0 0 0 -3.2108690534614652 16.538233816607107 0 16.538233816607107 -30.071150439565713 0 0 0 0 -120.39656033317988 52.184629589561695 0 52.184629589561695 -32.575799078565851 0 0 0 0 -11.127008094676512 14.970060065681892 0 14.970060065681892 -139.01479416475405 0 0 0 0 19.16721889441942 -7.6583881220560954 0 -7.6583881220560954 -38.410146954605636 0 0 0 0 -9.223684169115586 0.87740367011770459 0 0.87740367011770459 -34.672583906902886 0 0 0 0 -35.293827733880789 -41.943659888212032 0 -41.943659888212032 -49.659360216942417 0 0 0 0 0.0388511009178103 0.17354195993123867 0 0.17354195993123867 -0.32926268405254316 0 0 0 0 -136.15032217032058 33.839111938192353 0 33.839111938192353 -133.94353917960555 0 0 0 0 -475.77920072623601 14.22905469923856 0 14.22905469923856 -33.072268651011569 0 0 0 0 -293.1714635326698 22.528725332628994 0 22.528725332628994 -46.275664600127072 0 0 0 0 -179.56431185420661 31.235477431973436 0 31.235477431973436 -25.32218624347027 0 0 0 0 -177.89960359419274 -74.138644129565336 0 -74.138644129565336 -85.73348083770685 0 0 0 0 -696.59765713002162 -60.646292488111698 0 -60.646292488111698 62.835315810588412 0 0 0 0 -308.77626360040813 -214.07533149940036 0 -214.07533149940036 -28.197966057368546 0 0 0 0 -0.55474627556537426 -0.67732079789166733 0 -0.67732079789166733 -0.7795836886675338 0 0 0 0 -17.291880391843733 -26.614293688583473 0 -26.614293688583473 -0.94243651426052111 0 0 0 0 -77.163752425429266 -94.112098806519782 0 -94.112098806519782 -63.263887792372202 0 0 0 0 -28.802399187261472 74.253355736988155 0 74.253355736988155 85.014834511449706 0 0 0 0 2.3731716382535524 -32.509660289293592 0 -32.509660289293592 -17.067051138154909 0 0 0 0 -201.94456400289346 -28.281267158517522 0 -28.281267158517522 132.00583855695908 0 0 0 0 -1079.2827312697809 -178.94711339668788 0 -178.94711339668788 227.73243685138723 0 0 0 0 -1500.0582190496498 -371.41117215318957 0 -371.41117215318957 167.1666872036464 0 0 0 0 -1045.9387890333128 -277.98264471810569 0 -277.98264471810569 31.778218310875403 0 0 0 0 -1072.3260564510711 -279.46698226757962 0 -279.46698226757962 40.693412907448732 0 0 0 0 -705.88403730907703 -116.1373278827849 0 -116.1373278827849 29.195224332749092 0 0 0 0 -1499.4743915488798 -102.81082882402177 0 -102.81082882402177 275.11281240780875 0 0 0 0 -958.42331101974924 87.486476287329282 0 87.486476287329282 215.95441849190681 0 0 0 0 -1074.0783297074322 52.849244321411959 0 52.849244321411959 217.02632799576458 0 0 0 0 -719.93534987152998 258.58089120340099 0 258.58089120340099 -31.3693311644912 0 0 0 0 -1500.3388796348117 358.34498171960848 0 358.34498171960848 221.17121256633479 0 0 0 0 -1496.4812834269687 704.82853921609706 0 704.82853921609706 49.078022470956505 0 0 0 0 -888.57448576074603 365.51015568977078 0 365.51015568977078 179.31062635755137 0 0 0 0 -606.58660291104388 797.07427490970974 0 797.07427490970974 -549.11535334531038 0 0 0 0 -313.34752014043625 194.72089569976123 0 194.72089569976123 -92.54215898008772 0 0 0 0 -257.92097923770234 213.6610386654587 0 213.6610386654587 -175.94978655710386 0 0 0 0 -450.25383346716626 155.69243920082869 0 155.69243920082869 -42.464313011899911 0 0 0 0 -791.74723859075311 460.95937028522076 0 460.95937028522076 -162.91911366391142 0 0 0 0 -425.47891022073964 179.63879238548469 0 179.63879238548469 -59.24536718783984 0 0 0 0 -136.16303297648665 44.876390384498116 0 44.876390384498116 -50.060217355767847 0 0 0 0 -145.67609162144072 72.486851876406604 0 72.486851876406604 40.706619016735431 0 0 0 0 -158.88162153111261 16.213985305949677 0 16.213985305949677 -110.55666516758275 0 0 0 0 -160.743719092834 21.026228188690027 0 21.026228188690027 75.04957238232555 0 0 0 0 -16.225492629691871 -100.76834730457279 0 -100.76834730457279 16.34523321851556 0 0 0 0 -40.426930557529886 30.818575464666758 0 30.818575464666758 -0.93973023136163647 0 0 0 0 -0.63851605199198502 0.361311407371538 0 0.361311407371538 2.186240237091631 0 0 0 0 -3.2256695242685964 -1.3697163834980302 0 -1.3697163834980302 -1.7765348319092134 0 0 0 0 -193.91709199378238 49.004153064827506 0 49.004153064827506 72.557434354174347 0 0 0 0 -25.0329862924591 5.6172484822959632 0 5.6172484822959632 24.625004329065177 0 0 0 0 -215.1679376976972 29.174300110391869 0 29.174300110391869 55.678740147724056 0 0 0 0 -0.99625961661968176 1.7061905105073265 0 1.7061905105073265 4.485151464125976 0 0 0 0 -86.228307160134136 136.54513660393184 0 136.54513660393184 234.03004512673624 0 0 0 0 -128.73175604950666 99.545656605903105 0 99.545656605903105 85.360836475643737 0 0 0 0 -168.00789912936852 15.065657111724818 0 15.065657111724818 69.03005532402949 0 0 0 0 -1152.3293972819192 -297.41292302133809 0 -297.41292302133809 -53.838401936761755 0 0 0 0 -3.3476382615841871 3.4170324012767281 0 3.4170324012767281 -4.1689772881251503 0 0 0 0 -1499.8357827542422 -492.96090671204195 0 -492.96090671204195 -161.96147808609169 0 0 0 0 324.58968559674031 285.34795211715323 0 285.34795211715323 -375.9498229041464 0 0 0 0 -135.70735305936432 -43.533523314670276 0 -43.533523314670276 146.333028076235 0 0 0 0 -124.06809411656286 -7.9429699750072587 0 -7.9429699750072587 -74.376242951929868 0 0 0 0 -384.01804354196975 -182.87915955548576 0 -182.87915955548576 81.980795746316119 0 0 0 0 -462.13870762324586 -25.01113657270551 0 -25.01113657270551 59.645818974137171 0 0 0 0 -850.46597588575241 -87.844737997035907 0 -87.844737997035907 115.65719908505667 0 0 0 0 -1500.1102509113898 -157.89086434218035 0 -157.89086434218035 362.72017461492254 0 0 0 0 -910.9353660468546 -12.845148651941768 0 -12.845148651941768 229.58333288801805 0 0 0 0 -902.89367095881062 -273.93454753107147 0 -273.93454753107147 249.90998562953942 0 0 0 0 -865.53559560665963 -290.53603916405325 0 -290.53603916405325 243.78054951386173 0 0 0 0 -268.93266594900524 -178.34864677870399 0 -178.34864677870399 77.78521525475432 0 0 0 0 -0.21944963815778884 -0.70634538725294149 0 -0.70634538725294149 0.9894950204191415 0 0 0 0 -850.48700927522555 -181.09908520327355 0 -181.09908520327355 204.66291461830247 0 0 0 0 -64.51198061057039 -41.173856054542398 0 -41.173856054542398 108.57061830032178 0 0 0 0 -78.299395295083741 -14.797226108846019 0 -14.797226108846019 63.537226787646432 0 0 0 0 -50.61174129763458 -56.281842419374783 0 -56.281842419374783 38.181562021571608 0 0 0 0 -238.92622248027692 -7.3898687950314184 0 -7.3898687950314184 109.36106790754033 0 0 0 0 12.690328603728631 51.517307919943676 0 51.517307919943676 31.32254244757047 0 0 0 0 -3.7100914336024289 113.77352206971739 0 113.77352206971739 102.12809798842616 0 0 0 0 -108.93204020387566 65.437750705296764 0 65.437750705296764 53.393479653728519 0 0 0 0 -17.262801279019186 35.041427449433399 0 35.041427449433399 -54.188880328411898 0 0 0 0 -93.58898585065981 74.508524268437895 0 74.508524268437895 -70.944611406223942 0 0 0 0 -14.045210547338911 68.545753342668903 0 68.545753342668903 -37.324281672061602 0 0 0 0 -331.07215620742954 68.482557607320956 0 68.482557607320956 52.75977204075059 0 0 0 0 -96.334193520372537 32.045899750942439 0 32.045899750942439 -15.508041609648785 0 0 0 0 -93.67223467178701 79.796061416326268 0 79.796061416326268 -106.18838075433564 0 0 0 0 -225.73810809947827 60.753626190743375 0 60.753626190743375 -1.7091902948366453 0 0 0 0 -216.18227834095705 17.69815989835736 0 17.69815989835736 -48.126126220270464 0 0 0 0 -326.78918209676522 31.280666671655027 0 31.280666671655027 -93.059132771163746 0 0 0 0 -434.48209888670317 102.00703505774592 0 102.00703505774592 -49.485720063511621 0 0 0 0 -147.29868158006684 35.542227286406501 0 35.542227286406501 -113.28716466278809 0 0 0 0 -84.418336797345546 79.722289954446381 0 79.722289954446381 -128.31299674737818 0 0 0 0 -34.191517921608465 4.4592955168357662 0 4.4592955168357662 -146.19741247267962 0 0 0 0 -86.457157719989482 88.460482887706746 0 88.460482887706746 -190.32034418626921 0 0 0 0 -221.19947942975887 139.85077423920535 0 139.85077423920535 -128.26501263339188 0 0 0 0 -15.441462493353242 39.029924055459141 0 39.029924055459141 -73.675225455953068 0 0 0 0 18.862936032366633 20.115729552838928 0 20.115729552838928 -71.655550038182014 0 0 0 0 -15.35126282325291 38.28208378783421 0 38.28208378783421 -105.93968204236063 0 0 0 0 -58.756892778419569 23.626576823670998 0 23.626576823670998 -81.601247071584083 0 0 0 0 -15.758430876961938 4.5839612478584399 0 4.5839612478584399 -105.22827337771767 0 0 0 0 -45.287915384906228 7.9449341181298792 0 7.9449341181298792 -78.682161642476103 0 0 0 0 -15.809326296144491 5.5987192590434391 0 5.5987192590434391 -76.750534372238377 0 0 0 0 -31.160883930031559 -12.313173832226127 0 -12.313173832226127 -82.684929928538736 0 0 0 0 -57.288434705518739 -6.2551979641850721 0 -6.2551979641850721 -13.588442797829416 0 0 0 0 -46.159783963536029 -35.563109144927012 0 -35.563109144927012 -12.413435990828248 0 0 0 0 -39.84368252333752 4.6957494391323849 0 4.6957494391323849 -33.397335710516927 0 0 0 0 -30.604747047847013 -2.7903981273111356 0 -2.7903981273111356 -34.508418119227031 0 0 0 0 0.75965337197367733 -0.3725494263364908 0 -0.3725494263364908 -0.83696675470891368 0 0 0 0 -190.14503236487508 160.60220762018773 0 160.60220762018773 -86.373186940405731 0 0 0 0 5.3917563106642774 -34.165703441389326 0 -34.165703441389326 -37.974905689560501 0 0 0 0 -18.026075867601321 12.526592713572654 0 12.526592713572654 -129.28474546840789 0 0 0 0 0.21760566546856808 0.60169825325145609 0 0.60169825325145609 -0.26456883460291114 0 0 0 0 -702.46855828893968 352.22242252247145 0 352.22242252247145 -202.48923143383669 0 0 0 0 -751.99257779768413 182.5814866237196 0 182.5814866237196 -86.925500987545789 0 0 0 0 -475.1205989773589 269.15207476738931 0 269.15207476738931 -218.43661653295709 0 0 0 0 -209.37808825285902 114.34218051081479 0 114.34218051081479 -193.82060135896813 0 0 0 0 -505.89094025432496 158.8430943367033 0 158.8430943367033 -170.86204843918938 0 0 0 0 -512.30446654508432 142.00289537376693 0 142.00289537376693 -88.396248141286833 0 0 0 0 -819.36546116952741 166.55613997321393 0 166.55613997321393 -13.401804866245527 0 0 0 0 -1500.1402185422576 272.76128692866774 0 272.76128692866774 191.3983793392662 0 0 0 0 -938.72582760687146 45.024852841224785 0 45.024852841224785 231.04249963536674 0 0 0 0 -862.60627685863619 353.95153448320025 0 353.95153448320025 -66.784588341327932 0 0 0 0 -700.95141100559704 393.32672315629941 0 393.32672315629941 -63.66909590323101 0 0 0 0 -1497.1664752362849 784.48959676454069 0 784.48959676454069 -233.49208205894928 0 0 0 0 -299.75894764358236 523.59155047913237 0 523.59155047913237 -917.117324963491 0 0 0 0 -0.19435498690970121 3.2678306391056253 0 3.2678306391056253 -0.59024360232920325 0 0 0 0 -36.486151332913551 16.920056045182683 0 16.920056045182683 -2.5155773859823967 0 0 0 0 -164.9187666878297 34.051874684527206 0 34.051874684527206 -10.612328111427132 0 0 0 0 -35.226291608585939 6.7243678172503856 0 6.7243678172503856 -6.4890615367254441 0 0 0 0 -47.26511624842351 1.9090392801964811 0 1.9090392801964811 5.5495356527972604 0 0 0 0 -28.420964903574991 9.383172835296623 0 9.383172835296623 -5.4503676916563109 0 0 0 0 -267.38947995774652 -1052.6402949582816 0 -1052.6402949582816 -1535.7782577920959 0 0 0 0 -515.68033373696016 -427.96858402285989 0 -427.96858402285989 -294.67877486968609 0 0 0 0 -1494.8198602308257 2.1791288812930061 0 2.1791288812930061 -2.3997147885008974 0 0 0 0 -5.2302049880983645 0.71371037915981361 0 0.71371037915981361 -2.4886575640799395 0 0 0 0 -0.70789859974352964 0.8374817031999946 0 0.8374817031999946 -2.5078842283032019 0 0 0 0 -28.360443910560953 19.470790931105832 0 19.470790931105832 -1.7288957347207088 0 0 0 0 -17.763501785163015 5.3717110499081393 0 5.3717110499081393 -1.239657126696043 0 0 0 0 -1132.6032277477516 -562.29385471324963 0 -562.29385471324963 36.438747533195475 0 0 0 0 -1497.829485034099 -908.29231407926591 0 -908.29231407926591 -54.913919327441917 0 0 0 0 -470.99386276006044 -589.05317792985136 0 -589.05317792985136 -548.41732915226578 0 0 0 0 -405.27081796911853 -146.6848931731904 0 -146.6848931731904 -93.239471901273589 0 0 0 0 -397.57399208080096 -233.4254102654175 0 -233.4254102654175 -192.93520388944495 0 0 0 0 -23.054172614953906 7.6606631933862772 0 7.6606631933862772 -1.6827151852417011 0 0 0 0 -964.20217100626337 -241.00578256872149 0 -241.00578256872149 46.683690363080345 0 0 0 0 -1002.1492940761834 -503.39432967273518 0 -503.39432967273518 60.198465297370319 0 0 0 0 -42.536144927886198 7.2128070527330692 0 7.2128070527330692 15.855016098689418 0 0 0 0 -51.467306191021635 45.523480254478841 0 45.523480254478841 59.906273652618324 0 0 0 0 -20.395655546519265 22.378783416434317 0 22.378783416434317 13.691881327645376 0 0 0 0 -31.748175577813143 10.830789162473264 0 10.830789162473264 -0.79245897193092685 0 0 0 0 27.33806716212348 61.72687419492209 0 61.72687419492209 27.575221341453414 0 0 0 0 -73.504261356614734 -13.822049975181955 0 -13.822049975181955 10.369595358676065 0 0 0 0 -9.8840279331351475 -0.93667023496060153 0 -0.93667023496060153 -1.6382985352895609 0 0 0 0 -23.929709275704226 54.291910550507282 0 54.291910550507282 61.211221382409065 0 0 0 0 -135.25352571710391 -162.43715714361133 0 -162.43715714361133 14.778044306257726 0 0 0 0 -51.401823113485875 1.0844905687805646 0 1.0844905687805646 19.618857455958391 0 0 0 0 -30.833699182603794 10.303795425473101 0 10.303795425473101 -1.273641596958309 0 0 0 0 -82.991844655613022 -36.747501778367194 0 -36.747501778367194 6.5834768034055742 0 0 0 0 -16.485620286511221 4.8903482236568152 0 4.8903482236568152 6.6223369617439403 0 0 0 0 -4.6463267645765356 1.3723679682344958 0 1.3723679682344958 -1.0582667767255276 0 0 0 0 -0.57465123984457023 21.513998838265479 0 21.513998838265479 -126.36819406610357 0 0 0 0 4.9681947023746034 -2.3645281100579041 0 -2.3645281100579041 -30.985017206823159 0 0 0 0 -28.217683657141606 64.073580688852303 0 64.073580688852303 3.5193581821440603 0 0 0 0 -16.622757518711296 24.347019946060186 0 24.347019946060186 -18.087378873902026 0 0 0 0 -29.781697407983302 45.483629935601812 0 45.483629935601812 -51.817811126946026 0 0 0 0 -6.54352157465887 0.63083946137444613 0 0.63083946137444613 -1.2113307044221302 0 0 0 0 -0.8393725565469623 0.79332688414461572 0 0.79332688414461572 -0.83883974303462416 0 0 0 0 10.542540195430774 -12.215372105374399 0 -12.215372105374399 -265.63952099014114 0 0 0 0 -30.731756147059059 109.56634644368864 0 109.56634644368864 -105.22476674391328 0 0 0 0 -75.214090124409267 126.30442636658466 0 126.30442636658466 31.648589453710883 0 0 0 0 -91.430682979964331 58.176080327422142 0 58.176080327422142 124.31137773331182 0 0 0 0 -55.291429199338381 -33.997107662555095 0 -33.997107662555095 85.245763898287123 0 0 0 0 -48.518815881088813 26.660701479775014 0 26.660701479775014 -13.142272944849537 0 0 0 0 -67.805771750598069 52.620554498153979 0 52.620554498153979 2.7686719274538802 0 0 0 0 -47.503515934422467 33.606519698814168 0 33.606519698814168 16.288002788383665 0 0 0 0 -53.053397589570523 4.5231185218503924 0 4.5231185218503924 12.538681183383915 0 0 0 0 -20.025549018488164 16.08893027998306 0 16.08893027998306 -16.999058818017147 0 0 0 0 -29.854383767367835 10.335806572188915 0 10.335806572188915 -20.365298649051851 0 0 0 0 -28.812079116529276 20.595568947033826 0 20.595568947033826 -12.503776921672852 0 0 0 0 7.9040830158282915 6.1431174221507945 0 6.1431174221507945 -3.8223898838739387 0 0 0 0 -9.208349910929428 23.864952950094448 0 23.864952950094448 3.6959345881277841 0 0 0 0 0.21755208505550172 -0.059948051788580869 0 -0.059948051788580869 0.19837933654997908 0 0 0 0 -12.694706876905002 10.572870400324234 0 10.572870400324234 -2.6573361941029816 0 0 0 0 -15.03449756189184 7.8261327951739759 0 7.8261327951739759 -3.8791898086239485 0 0 0 0 -11.297333477119537 1.1193986603501571 0 1.1193986603501571 -7.2563865160996102 0 0 0 0 -27.186838066071687 13.993333426318202 0 13.993333426318202 -1.3366773509212635 0 0 0 0 -8.6217434569671241 7.3273124078418164 0 7.3273124078418164 -3.6482515814250291 0 0 0 0 -2.9926410028773809 1.0757884602168275 0 1.0757884602168275 0.30019431337854829 0 0 0 0 -13.603240056845607 12.152958833843286 0 12.152958833843286 0.96869910838745454 0 0 0 0 -16.569093607572576 6.835319804705736 0 6.835319804705736 -2.4283311293492424 0 0 0 0 -20.631055575746359 6.1154238325704426 0 6.1154238325704426 -0.66842202492398428 0 0 0 0 -12.641098194417054 9.2398217080142899 0 9.2398217080142899 -4.8884391840729222 0 0 0 0 -22.567149291879872 7.374057507714129 0 7.374057507714129 -1.3734377165699789 0 0 0 0 -20.922087936527532 7.5610152737352792 0 7.5610152737352792 -0.67616794138859859 0 0 0 0 -10.055947296539927 1.7978666042272309 0 1.7978666042272309 0.81265218866849387 0 0 0 0 -17.588474547949289 -0.64202973734719393 0 -0.64202973734719393 -0.34822583980891864 0 0 0 0 -7.8531614472636306 -0.45923932048274452 0 -0.45923932048274452 4.5495621235714614 0 0 0 0 -20.174972742855061 1.4616336980522817 0 1.4616336980522817 2.0520267682011308 0 0 0 0 -14.184953282631795 1.9852556396853629 0 1.9852556396853629 -1.0403533686542232 0 0 0 0 -32.343091235135944 14.980429343752121 0 14.980429343752121 -2.1040079021977363 0 0 0 0 -19.483086784152533 8.7755877558548434 0 8.7755877558548434 -2.2621567008679926 0 0 0 0 -30.941512043229523 11.636983464255536 0 11.636983464255536 5.5203082616317261 0 0 0 0 -25.678297111515121 14.715059608755013 0 14.715059608755013 -4.762169459343113 0 0 0 0 -40.812132954948538 6.7879351039109679 0 6.7879351039109679 1.1510189242529805 0 0 0 0 -25.21080938632258 12.088926724455632 0 12.088926724455632 -2.3075313988449579 0 0 0 0 -33.60681030361593 9.8854402181007117 0 9.8854402181007117 -2.6167160096628095 0 0 0 0 -36.241053490848572 15.945974344949263 0 15.945974344949263 -5.8944098141014365 0 0 0 0 -43.959102951048408 10.189607082312705 0 10.189607082312705 -6.2942470393481926 0 0 0 0 -146.97187442731229 38.843118829324567 0 38.843118829324567 -286.91627640124352 0 0 0 0 -2.3544253024002693 4.1076501485097126 0 4.1076501485097126 0.44885682419280926 0 0 0 0 -3.0931190481029276 -3.5746448881894217 0 -3.5746448881894217 1.9250357064558878 0 0 0 0 -47.840036975665498 17.324858850960879 0 17.324858850960879 -0.54575300531314497 0 0 0 0 -1.0455318982250645 0.34850025748624702 0 0.34850025748624702 0.2010374547492324 0 0 0 0 -44.959301611552291 15.968734868308104 0 15.968734868308104 -6.090114310966328 0 0 0 0 -2.3071925457024083 -0.14759840655231216 0 -0.14759840655231216 1.1960258501239087 0 0 0 0 -72.319134465382376 19.484080688020526 0 19.484080688020526 -7.8278776976530935 0 0 0 0 -45.479723621308949 6.5430872719059607 0 6.5430872719059607 -5.2230033901934689 0 0 0 0 -45.234945034265365 7.8881919235033422 0 7.8881919235033422 1.3302010178090313 0 0 0 0 -49.206876824642677 14.029379868520664 0 14.029379868520664 12.268884446045831 0 0 0 0 -34.41366958872095 14.887141136340006 0 14.887141136340006 5.8466977359632892 0 0 0 0 -53.141259977359368 11.136680038814404 0 11.136680038814404 11.54484756974125 0 0 0 0 -49.264338081925416 14.268025397560336 0 14.268025397560336 13.644707174288669 0 0 0 0 -22.0803669597517 16.382852335139432 0 16.382852335139432 -2.3535987335503705 0 0 0 0 -34.327197055040983 13.293767753192444 0 13.293767753192444 3.6587478513401948 0 0 0 0 -14.088216778778587 16.314086341627785 0 16.314086341627785 3.2732872698813935 0 0 0 0 -38.067240872504044 27.238763775758542 0 27.238763775758542 13.664087170256607 0 0 0 0 -51.192059988683468 29.265143681526979 0 29.265143681526979 13.40192745077978 0 0 0 0 -54.088234771921634 12.55778243210824 0 12.55778243210824 15.14605682538172 0 0 0 0 -42.146499037368812 16.056173238340762 0 16.056173238340762 12.745901391818734 0 0 0 0 -51.321447397698648 21.897142621042576 0 21.897142621042576 20.722920402275861 0 0 0 0 -51.169445552470279 17.709532703334958 0 17.709532703334958 17.88127056319604 0 0 0 0 -35.728785472820164 -3.571438893393065 0 -3.571438893393065 23.216954697762276 0 0 0 0 -117.28558964577132 1.431650946779655 0 1.431650946779655 38.633858678971137 0 0 0 0 -87.344223432340186 44.332637055260051 0 44.332637055260051 7.7872896280562145 0 0 0 0 -91.328024161997746 30.321311605001711 0 30.321311605001711 -3.5868180379690102 0 0 0 0 -75.098795276842793 101.32202803400781 0 101.32202803400781 -138.04662263120716 0 0 0 0 -213.19591239672218 97.69627209478314 0 97.69627209478314 -33.268749333442997 0 0 0 0 17.764489824690827 19.916647753782797 0 19.916647753782797 -137.52452828813784 0 0 0 0 25.568956387269282 -40.42006542812365 0 -40.42006542812365 -101.58502688464939 0 0 0 0 4.9009405427059392 -2.1016134307581069 0 -2.1016134307581069 -109.5116160075445 0 0 0 0 7.0489704289102519 14.996364723024442 0 14.996364723024442 -108.5851797446816 0 0 0 0 -9.0472361535321397 36.672676494202335 0 36.672676494202335 -53.59621950047358 0 0 0 0 -11.15194706960574 29.295598882373383 0 29.295598882373383 -75.460727205312537 0 0 0 0 39.948899764389353 59.848237400893879 0 59.848237400893879 -43.708916958202053 0 0 0 0 -0.59692355783772655 19.690295562956997 0 19.690295562956997 -14.211977409787323 0 0 0 0 23.471186360963657 22.762715224372727 0 22.762715224372727 -62.08359348373574 0 0 0 0 -33.645765523850059 38.949112372217201 0 38.949112372217201 -6.1973740407423747 0 0 0 0 -52.419486650611361 73.991990735125114 0 73.991990735125114 -47.343872303220735 0 0 0 0 -3.0924220178925452 38.135620802178593 0 38.135620802178593 -12.168978882202964 0 0 0 0 -0.97380340518247976 5.3973407993830733 0 5.3973407993830733 16.513292009150575 0 0 0 0 -0.24327601928828457 -0.22901756604250778 0 -0.22901756604250778 0.19527289576190454 0 0 0 0 -52.263674161404197 34.863701247480748 0 34.863701247480748 -29.694189005011538 0 0 0 0 92.302951557452616 -4.4435835367975614 0 -4.4435835367975614 -40.778884953650476 0 0 0 0 -59.559781728154121 71.620412911028723 0 71.620412911028723 -25.847448123723098 0 0 0 0 -34.258245205975982 23.365280905590453 0 23.365280905590453 -28.23797641925762 0 0 0 0 -14.315302099948894 18.383117823197551 0 18.383117823197551 -44.805863253731161 0 0 0 0 -16.643524325722865 44.540857249796801 0 44.540857249796801 -36.196632913703979 0 0 0 0 -8.0853786767293059 27.2905463563404 0 27.2905463563404 -54.637032532308183 0 0 0 0 -13.541716787756741 9.0910157013328217 0 9.0910157013328217 -64.57111596787621 0 0 0 0 0.071731802123395028 20.249247975100474 0 20.249247975100474 -64.133196742769385 0 0 0 0 20.529417177458527 47.956656883645572 0 47.956656883645572 -70.683200325841554 0 0 0 0 -7.5921702736832231 26.670561185761159 0 26.670561185761159 -56.059640836204551 0 0 0 0 6.3075032765536889 56.352917117527703 0 56.352917117527703 -56.539756631023664 0 0 0 0 12.059070998635434 78.616331426100004 0 78.616331426100004 -17.483756344704943 0 0 0 0 21.360060083476128 66.103735518386969 0 66.103735518386969 -50.272547747609337 0 0 0 0 34.664473791533965 56.233161998996565 0 56.233161998996565 -65.837879924479552 0 0 0 0 1.2173636912521033 65.098174159607836 0 65.098174159607836 -51.428260740755164 0 0 0 0 -23.912504287960473 57.299854112484368 0 57.299854112484368 18.174699869873308 0 0 0 0 -14.332699821039569 51.776679827139418 0 51.776679827139418 -41.943042220663202 0 0 0 0 -14.211411350717754 114.61870377387706 0 114.61870377387706 23.24066330171928 0 0 0 0 -10.151626494545781 106.31127187102844 0 106.31127187102844 -51.165905372581705 0 0 0 0 -76.330454661299882 149.48816953244415 0 149.48816953244415 68.850759912870359 0 0 0 0 -3.3675983605207875 284.39962085565168 0 284.39962085565168 -74.955440809529691 0 0 0 0 -121.54945974977454 121.2770683989656 0 121.2770683989656 377.54364258393349 0 0 0 0 30.037222809864033 -78.991236330128345 0 -78.991236330128345 108.84204343079995 0 0 0 0 -122.31951783940895 367.20795058925205 0 367.20795058925205 196.05600568744217 0 0 0 0 -167.82686464127619 -135.30603110823503 0 -135.30603110823503 26.277276405511088 0 0 0 0 -2.4837482051265951 1.6868140465023327 0 1.6868140465023327 -1.1178938057735914 0 0 0 0 15.298358231862949 11.538671027360621 0 11.538671027360621 -531.05353909172607 0 0 0 0 61.075169397396166 134.3250963096973 0 134.3250963096973 -86.257551283255566 0 0 0 0 82.401483274754355 106.41295547174508 0 106.41295547174508 -54.446536474636076 0 0 0 0 95.027884732178791 55.546788326619719 0 55.546788326619719 -55.522315315311857 0 0 0 0 38.148261117717993 5.7681980789874672 0 5.7681980789874672 38.178013896806874 0 0 0 0 -67.379146759965806 6.8803252109307778 0 6.8803252109307778 2.7646007328407904 0 0 0 0 -5.7573758910257808 5.1392978454272065 0 5.1392978454272065 -3.8201176799601537 0 0 0 0 -28.628277851225903 3.136361566749045 0 3.136361566749045 -39.14570808508455 0 0 0 0 -24.004567615189444 -12.056619719788614 0 -12.056619719788614 -2.0766841361621555 0 0 0 0 -3.6334256226488328 2.8478079762283457 0 2.8478079762283457 -3.7050998352124154 0 0 0 0 -14.007297767628188 18.442001438232211 0 18.442001438232211 12.478212489300631 0 0 0 0 -3.6742028391093307 2.0736631477252772 0 2.0736631477252772 5.4916264483711892 0 0 0 0 -55.197044632228426 58.893224600732481 0 58.893224600732481 1.6803230223932406 0 0 0 0 -129.29910338625177 -11.757421477354924 0 -11.757421477354924 28.325956804296709 0 0 0 0 17.678259458172761 10.869717261717312 0 10.869717261717312 -143.92683150445151 0 0 0 0 -283.13031689734453 -21.134470284760056 0 -21.134470284760056 31.144952996877578 0 0 0 0 -0.49081651190276432 0.95191111115438609 0 0.95191111115438609 -1.9564844242160313 0 0 0 0 -49.589957210574539 39.02106777360865 0 39.02106777360865 -64.84559167895884 0 0 0 0 -39.898139841334341 10.420221130908658 0 10.420221130908658 13.138476547350759 0 0 0 0 -2.0051424907187538 -15.120306861214246 0 -15.120306861214246 -59.309717255394844 0 0 0 0 0.0684455386113072 0.40072197632686724 0 0.40072197632686724 1.6534770640387999 0 0 0 0 -30.076375344891858 56.178854886721311 0 56.178854886721311 -34.759149246259341 0 0 0 0 -78.387100040912628 21.604600521328734 0 21.604600521328734 -10.564730692338813 0 0 0 0 -232.40681882753233 89.615068431830224 0 89.615068431830224 -19.028958465186975 0 0 0 0 -81.770097230202737 17.825913758668506 0 17.825913758668506 9.9880275008756882 0 0 0 0 -157.93316465458201 17.266972409165291 0 17.266972409165291 31.395715225599446 0 0 0 0 -10.086576456606963 11.787607938812016 0 11.787607938812016 9.691797352551248 0 0 0 0 -3.7342847127730145 3.6947767363694286 0 3.6947767363694286 -3.883562678152177 0 0 0 0 -10.578145134141778 1.5885563179148789 0 1.5885563179148789 2.2780075307528023 0 0 0 0 -2.5701348686557139 -0.34349899764353609 0 -0.34349899764353609 -0.13135728468773777 0 0 0 0 -5.7629518709265 -1.5935851311847937 0 -1.5935851311847937 2.1404285352379402 0 0 0 0 -10.898606715963979 -4.4439730864851299 0 -4.4439730864851299 1.5185640283821158 0 0 0 0 -7.3679565398870182 1.2818548813120856 0 1.2818548813120856 0.00061887971946816833 0 0 0 0 -3.715989299545754 -0.34828428379751841 0 -0.34828428379751841 0.0022224252847991011 0 0 0 0 -5.2738110309735369 -0.6681082846995352 0 -0.6681082846995352 2.3742262206869711 0 0 0 0 -2.178900568486597 -1.8669966929688968 0 -1.8669966929688968 -0.051485925154338474 0 0 0 0 -3.9578579659537354 -1.807682224958171 0 -1.807682224958171 0.010818536314928906 0 0 0 0 -2.3625992055373395 0.14846328063336145 0 0.14846328063336145 -1.5754334660210767 0 0 0 0 38.678063918774569 -30.572319607687433 0 -30.572319607687433 -23.771657003273674 0 0 0 0 -21.894674228371969 19.545564420993404 0 19.545564420993404 11.377096814345919 0 0 0 0 -3.7818779657673076 3.3747640076915673 0 3.3747640076915673 -6.9971749315204761 0 0 0 0 -5.26589274700018 1.9902807893265617 0 1.9902807893265617 -3.8191277882830263 0 0 0 0 -6.4075834953346202 -5.052888223826244 0 -5.052888223826244 -6.8148158171672435 0 0 0 0 -1.2723681076772557 -0.1353262655502796 0 -0.1353262655502796 -1.4764465264616611 0 0 0 0 4.4290875905116991 -2.2611422354842716 0 -2.2611422354842716 -10.373064147484456 0 0 0 0 -5.5147223134081287 -1.5311017911083127 0 -1.5311017911083127 -0.31798124058718713 0 0 0 0 -3.7469221683941107 -2.0513210354260067 0 -2.0513210354260067 -1.8950148614280637 0 0 0 0 -5.7180103589208251 0.74010898967419614 0 0.74010898967419614 -2.213911736193801 0 0 0 0 -11.981807636730082 0.94028522695225547 0 0.94028522695225547 -5.742630523898697 0 0 0 0 -29.681182527449891 9.7191447602775725 0 9.7191447602775725 16.619471503799787 0 0 0 0 -1.0049135033514141 -0.059076894266709701 0 -0.059076894266709701 -0.36161479070410163 0 0 0 0 -4.1806940014246265 -1.9297516690187138 0 -1.9297516690187138 -0.69224996304774322 0 0 0 0 -5.5493506655540301 -1.6422461512079582 0 -1.6422461512079582 0.40264882431202853 0 0 0 0 -0.67491304407667485 -2.5438409042419607 0 -2.5438409042419607 -16.450215074802326 0 0 0 0 -9.9768297089904081 10.32532790872574 0 10.32532790872574 -7.8302410379983485 0 0 0 0 -4.3116742458005319 -17.154895146713898 0 -17.154895146713898 -3.3776469837684999 0 0 0 0 -4.2252046540268253 -4.5114815002226649 0 -4.5114815002226649 -3.7985030353092157 0 0 0 0 20.057269417557109 12.586945604961215 0 12.586945604961215 -9.3615643842590543 0 0 0 0 -2.2135156885105971 11.926941183950248 0 11.926941183950248 -1.741262790332712 0 0 0 0 -1.9126836966310785 -0.97175283232054355 0 -0.97175283232054355 -0.33266740096774594 0 0 0 0 -6.2524612892064422 -1.5565856561901974 0 -1.5565856561901974 2.2754624340928968 0 0 0 0 7.1396594366924546 -2.7153647687259763 0 -2.7153647687259763 6.0559006847961427 0 0 0 0 -0.47122089064340855 0.096598359603849104 0 0.096598359603849104 1.0483682893838804 0 0 0 0 -9.7350684929870113 18.843412517600555 0 18.843412517600555 -30.839748948671968 0 0 0 0 -98.236759833826 -76.067728804915873 0 -76.067728804915873 -5.0900494286292997 0 0 0 0 -0.36357877252244108 -0.47550064094220801 0 -0.47550064094220801 -0.28254975906406576 0 0 0 0 42.788529314280822 -27.07461354570728 0 -27.07461354570728 -15.994732010011006 0 0 0 0 -29.639806066690653 -26.261910385823512 0 -26.261910385823512 -63.096198033826568 0 0 0 0 -15.072423032741426 7.8502486481669393 0 7.8502486481669393 2.5927934323403861 0 0 0 0 -99.159092274267095 -17.679752119793761 0 -17.679752119793761 48.560329551225209 0 0 0 0 52.420183620365833 49.410734491363101 0 49.410734491363101 -42.09855411418863 0 0 0 0 -261.54470720696145 -52.049112093993273 0 -52.049112093993273 -6.2647250772581629 0 0 0 0 -136.2174765642776 -88.411400780701456 0 -88.411400780701456 -123.57253346480169 0 0 0 0 -82.074778683372642 75.248812966247186 0 75.248812966247186 -132.56923344572661 0 0 0 0 -103.31602564157583 -39.163408437060696 0 -39.163408437060696 -56.212791732788901 0 0 0 0 -167.58507036838455 -48.30590779105205 0 -48.30590779105205 10.595811668507849 0 0 0 0 -133.0346185323906 -5.1579677173969003 0 -5.1579677173969003 4.5119942223100225 0 0 0 0 -131.95868998584774 -95.885416389359534 0 -95.885416389359534 -32.455887829952019 0 0 0 0 -93.856655968986161 -65.471278702173436 0 -65.471278702173436 -13.037004806022424 0 0 0 0 -113.00185036680887 -43.380170561067416 0 -43.380170561067416 10.574837050652604 0 0 0 0 -98.785404900263529 -17.853302629388736 0 -17.853302629388736 9.2178305407991274 0 0 0 0 -103.46261598644924 -28.391562300696705 0 -28.391562300696705 16.48079334273416 0 0 0 0 -116.87266361909133 -26.695420935913489 0 -26.695420935913489 50.141890130562842 0 0 0 0 -109.43845052891993 -25.871645702161572 0 -25.871645702161572 -8.1845388733856907 0 0 0 0 -0.39727062977249616 -0.29898119060790762 0 -0.29898119060790762 0.51897538999453907 0 0 0 0 -29.315550087494557 -54.282431843565519 0 -54.282431843565519 35.927196556832314 0 0 0 0 -219.01051110110529 25.421355072304038 0 25.421355072304038 22.299313248987573 0 0 0 0 -230.97985357347352 -14.782401490120662 0 -14.782401490120662 29.346890340399113 0 0 0 0 -209.67500293878402 13.895558855681656 0 13.895558855681656 12.428757856765102 0 0 0 0 -177.71123199569683 -27.040339415898387 0 -27.040339415898387 29.129470924912312 0 0 0 0 -193.53864691395665 33.242051409494508 0 33.242051409494508 7.8066693779949219 0 0 0 0 -116.20751885778191 -36.147557322644843 0 -36.147557322644843 33.173174599273636 0 0 0 0 31.104065353196347 25.002864001357636 0 25.002864001357636 -57.172988714300118 0 0 0 0 -139.54393479757709 -55.73182968223432 0 -55.73182968223432 -31.581636898181841 0 0 0 0 -47.312443475088003 26.519276317730487 0 26.519276317730487 9.8053384194197406 0 0 0 0 -3.052086229411124 -2.8710599138291215 0 -2.8710599138291215 -2.5931811663978426 0 0 0 0 -8.8641713560846256 -7.9272707575955792 0 -7.9272707575955792 28.117432071108851 0 0 0 0 10.552931423317204 -25.103513641029139 0 -25.103513641029139 17.780468087571307 0 0 0 0 -4.5785501511927578 2.7290205599599631 0 2.7290205599599631 21.120561233672561 0 0 0 0 -4.3895117824977206 -9.6903367263400924 0 -9.6903367263400924 10.180648428960012 0 0 0 0 -106.73665740733077 22.050893444893006 0 22.050893444893006 -27.828844591837424 0 0 0 0 -130.77266948759643 22.233810754376009 0 22.233810754376009 -15.231883718165705 0 0 0 0 16.254430773215063 -41.295283506290389 0 -41.295283506290389 -58.490416508578164 0 0 0 0 -1.188151137017524 -0.90689142024055869 0 -0.90689142024055869 -0.90922847288414221 0 0 0 0 -385.13708788166559 182.80498051530844 0 182.80498051530844 168.4862042095142 0 0 0 0 -31.339798362150759 -90.771850003665577 0 -90.771850003665577 -78.631340205895185 0 0 0 0 -2.7757737754218397 -45.175220311847397 0 -45.175220311847397 -27.110500070289163 0 0 0 0 22.624389972585504 1.1045073786229409 0 1.1045073786229409 -16.545790518650392 0 0 0 0 -1.6223393757127269 2.1576789329582198 0 2.1576789329582198 -0.70960274191338613 0 0 0 0 -16.673417478916235 -8.3774010159046384 0 -8.3774010159046384 -4.8978386079809297 0 0 0 0 -0.40658621495276748 -15.182083935639071 0 -15.182083935639071 -10.36250650419629 0 0 0 0 -12.344505168421165 -35.554455350962826 0 -35.554455350962826 -36.629570721333607 0 0 0 0 -26.770279520011172 -42.133516361311536 0 -42.133516361311536 7.0719748357325898 0 0 0 0 -33.085258707946195 -29.809532746739933 0 -29.809532746739933 -14.164580956226246 0 0 0 0 -22.38599844743112 -13.449649068742133 0 -13.449649068742133 2.5503195314058758 0 0 0 0 -48.279852213272534 -20.658768241702433 0 -20.658768241702433 17.74825889223743 0 0 0 0 -48.856728871100131 -15.139360816252065 0 -15.139360816252065 2.5073917706979501 0 0 0 0 -68.036044257811227 -39.923061982831769 0 -39.923061982831769 7.0030005880551016 0 0 0 0 -72.349284098254429 -44.862806464108644 0 -44.862806464108644 55.428095180039691 0 0 0 0 -118.57484348170192 -119.88302411711308 0 -119.88302411711308 -10.013137948265921 0 0 0 0 -81.445996133021254 -77.843111744350153 0 -77.843111744350153 34.473794755193012 0 0 0 0 -43.446570004160094 -70.114825076134252 0 -70.114825076134252 -35.648262892664206 0 0 0 0 -6.48997094148217 2.6747813061118677 0 2.6747813061118677 -4.2314524770802109 0 0 0 0 0.21282898631216085 0.042261228761617531 0 0.042261228761617531 -0.03258285625759072 0 0 0 0 -0.13266560740833633 -0.76582663311922516 0 -0.76582663311922516 0.31246022809669949 0 0 0 0 0.19788052751015783 -0.82785239463440163 0 -0.82785239463440163 1.341060406244579 0 0 0 0 -15.440957162606537 4.5008934577272726 0 4.5008934577272726 0.54918322556022758 0 0 0 0 -21.641709395089492 -3.0841642662768436 0 -3.0841642662768436 -1.4382761431652398 0 0 0 0 -33.454616166418418 4.2984908019020622 0 4.2984908019020622 -0.7492443170837646 0 0 0 0 -26.434274628732965 -9.2228619793992266 0 -9.2228619793992266 -1.4458876170569965 0 0 0 0 -19.830321318466304 0.5499453462987276 0 0.5499453462987276 -0.41089627322412525 0 0 0 0 -13.218724729819769 -2.7983472662598956 0 -2.7983472662598956 -0.9394030645175917 0 0 0 0 -17.48338793538278 -0.28488690671747463 0 -0.28488690671747463 -0.51018709863257072 0 0 0 0 -13.172332769194327 -3.9530343378437465 0 -3.9530343378437465 -1.7518094900434846 0 0 0 0 -19.369609414203296 -2.9327040525822667 0 -2.9327040525822667 2.4605772494576286 0 0 0 0 -18.398238593137648 0.20301577298914708 0 0.20301577298914708 3.0354283564097386 0 0 0 0 -19.441019717618474 -1.1806667373848541 0 -1.1806667373848541 4.9008478260266202 0 0 0 0 -0.15768094455056314 -0.20347570218165245 0 -0.20347570218165245 1.3685106545447545 0 0 0 0 -2.6811463745834772 -3.0028464287686347 0 -3.0028464287686347 -0.50414326330337644 0 0 0 0 0.40639390723299584 -1.7465394274612436 0 -1.7465394274612436 6.4536267113608119 0 0 0 0 -12.514462065478256 -4.7310632204358285 0 -4.7310632204358285 -0.13930042958418198 0 0 0 0 -15.665506184221158 -3.415628957560898 0 -3.415628957560898 2.4834054735297286 0 0 0 0 -3.8827715821716993 -1.8973668942145423 0 -1.8973668942145423 -4.0482719734950479 0 0 0 0 -1.8730635989595612 -1.9633820447579637 0 -1.9633820447579637 -4.3137408804168444 0 0 0 0 -0.042590254687526752 0.039814177784769811 0 0.039814177784769811 0.53502169015032663 0 0 0 0 3.5987327170732897 -0.99575273075788573 0 -0.99575273075788573 8.8890196385036688 0 0 0 0 -10.222592211264782 -2.6586422420872395 0 -2.6586422420872395 0.21647362417229488 0 0 0 0 -23.667203002696624 -1.9964696471702155 0 -1.9964696471702155 6.0669210149180799 0 0 0 0 4.0028520631540232 2.7260436843385492 0 2.7260436843385492 -7.6275155396124319 0 0 0 0 0.50468502439678531 -1.0609995349045853 0 -1.0609995349045853 1.4863867392691086 0 0 0 0 -10.160380929012661 -6.0210701132115361 0 -6.0210701132115361 14.282251059858936 0 0 0 0 -8.920847196979139 -5.7860944130966345 0 -5.7860944130966345 7.4595109048545964 0 0 0 0 -12.847496079777557 1.598976864754718 0 1.598976864754718 6.1622160743922905 0 0 0 0 -15.603710843632143 -1.9263484475259247 0 -1.9263484475259247 4.2761241820977602 0 0 0 0 -21.350510102761291 1.9870816656523402 0 1.9870816656523402 5.4378583764964787 0 0 0 0 -13.221380863324157 -6.9924009202263733 0 -6.9924009202263733 -6.0531699380869668 0 0 0 0 -12.87843835993408 -10.751932352901804 0 -10.751932352901804 11.718464432029577 0 0 0 0 -20.244097228367536 -13.197683123841784 0 -13.197683123841784 8.1319442395088117 0 0 0 0 3.4845823441355606 -2.7559975899330311 0 -2.7559975899330311 -8.9365015351286274 0 0 0 0 -0.53756129404361808 -1.5563105283903589 0 -1.5563105283903589 2.6298643450565926 0 0 0 0 2.8552571367695236 -3.9850482852774007 0 -3.9850482852774007 7.84449980066438 0 0 0 0 -13.011633327201707 38.530577116700442 0 38.530577116700442 -107.10271064825429 0 0 0 0 -16.285226104133471 -8.6987160786497952 0 -8.6987160786497952 -9.6700043077580631 0 0 0 0 -15.89794223735953 -11.781448688667069 0 -11.781448688667069 13.812042962703799 0 0 0 0 -10.607143037799688 -7.5661069298068924 0 -7.5661069298068924 11.231746538572224 0 0 0 0 -10.514801033843469 -14.071601144562351 0 -14.071601144562351 11.47649527276053 0 0 0 0 -12.222991244780133 -15.600847890985506 0 -15.600847890985506 18.086185474476224 0 0 0 0 -13.728439416794572 -20.056412784039367 0 -20.056412784039367 38.289078789483938 0 0 0 0 13.702156852552434 -44.288599771553891 0 -44.288599771553891 -16.496036975730021 0 0 0 0 -6.8580786874790647 -24.292112759056749 0 -24.292112759056749 -0.50662319879029383 0 0 0 0 -4.7090453113924013 -38.618217650169754 0 -38.618217650169754 47.017558531004852 0 0 0 0 18.72349225889775 -75.622810567590022 0 -75.622810567590022 17.967053280799064 0 0 0 0 -8.2379173239387455 -11.021002346810747 0 -11.021002346810747 0.64717694009161164 0 0 0 0 -5.3431245698993735 -7.9108679618907445 0 -7.9108679618907445 6.4571267703887258 0 0 0 0 -6.1238046692578791 -7.2964821264806119 0 -7.2964821264806119 7.1062652972379965 0 0 0 0 -0.2155673022789415 -4.7142243579124283 0 -4.7142243579124283 4.295506167464282 0 0 0 0 1.080810160813229 -0.64989873755772543 0 -0.64989873755772543 0.63445777763392242 0 0 0 0 -2.9885967008664238 15.779290056635872 0 15.779290056635872 15.855511023451754 0 0 0 0 -24.923781028673773 5.1904160440391305 0 5.1904160440391305 16.994994522254501 0 0 0 0 -25.559953341649816 -19.955538370991235 0 -19.955538370991235 -3.1155400068669223 0 0 0 0 -11.717185729738048 -7.2913693684633927 0 -7.2913693684633927 7.5915294865626493 0 0 0 0 -8.9376591355653545 -5.4443305498110632 0 -5.4443305498110632 3.442008275178523 0 0 0 0 -10.584829648458253 -8.671887999375258 0 -8.671887999375258 6.8981420269424234 0 0 0 0 -9.9409119930496672 -10.528761947702833 0 -10.528761947702833 2.9747785422513289 0 0 0 0 -9.0179790786787635 -5.7879381512965438 0 -5.7879381512965438 8.8525292977761865 0 0 0 0 -7.6317435941546137 -9.1686619412856771 0 -9.1686619412856771 -6.2888840597136095 0 0 0 0 -1.1594643474272743 -5.3202892997965137 0 -5.3202892997965137 -9.1615318173097648 0 0 0 0 1.4290669556755802 -8.6074931326134525 0 -8.6074931326134525 -19.614404485217847 0 0 0 0 1.8669937345239305 -1.5921067551579426 0 -1.5921067551579426 -4.9210854053382036 0 0 0 0 -1.9247733532802158 -1.4583188225560093 0 -1.4583188225560093 0.76040535514107432 0 0 0 0 0.093194612589140746 -0.11369289343125288 0 -0.11369289343125288 -0.34023167293967482 0 0 0 0 -31.090026228994248 -7.7580612878125521 0 -7.7580612878125521 -4.9268363384164786 0 0 0 0 -21.155161564392984 -10.791064181118145 0 -10.791064181118145 -12.160171544239347 0 0 0 0 -31.406261616275515 4.6833657700339018 0 4.6833657700339018 1.0572641046009039 0 0 0 0 -24.933384588575791 3.7563872896229213 0 3.7563872896229213 -4.3110599512694989 0 0 0 0 -22.720527190162102 -3.0259218185728969 0 -3.0259218185728969 -3.4250054965868912 0 0 0 0 -21.26475289741029 1.6447263253795086 0 1.6447263253795086 -5.3932086795128953 0 0 0 0 -19.513745684118476 4.9087641201498968 0 4.9087641201498968 0.43879789820630322 0 0 0 0 -7.9336811323955772 0.29475448363496071 0 0.29475448363496071 -3.8075827333405527 0 0 0 0 -7.4489182836150576 2.1632135383430295 0 2.1632135383430295 2.5605997646434844 0 0 0 0 -4.1400105402135523 -4.8218066129988983 0 -4.8218066129988983 0.93014336802616526 0 0 0 0 -0.015281276906396357 -0.48445261474754986 0 -0.48445261474754986 -0.29318085881263878 0 0 0 0 -2.8141739922880333 -3.29464075076001 0 -3.29464075076001 1.9893211073328985 0 0 0 0 -5.8204274424824689 4.6506348938147539 0 4.6506348938147539 -3.552485761729713 0 0 0 0 -19.777185453868697 32.806217113866637 0 32.806217113866637 -29.133809956933646 0 0 0 0 0.18470650473754091 0.4464519330448411 0 0.4464519330448411 0.45686197452731903 0 0 0 0 2.2535744260603678 17.076777881896419 0 17.076777881896419 -28.563799934998823 0 0 0 0 -22.469111556896678 13.120561472024633 0 13.120561472024633 -16.279548748240018 0 0 0 0 -26.195412720618151 13.014826834945211 0 13.014826834945211 -14.35271128763452 0 0 0 0 -18.255195264668146 4.9653021652139842 0 4.9653021652139842 -9.3902235027338179 0 0 0 0 -2.5483691217050364 8.8154455794194746 0 8.8154455794194746 -15.531577351109291 0 0 0 0 11.090487514926281 26.232767551863958 0 26.232767551863958 -5.1644488584673525 0 0 0 0 0.066461618178159654 -0.097122409738275906 0 -0.097122409738275906 0.29913422066532158 0 0 0 0 -10.531013138852359 9.6983476691239048 0 9.6983476691239048 1.7397272653006439 0 0 0 0 16.612653116799265 -1.0458927943346907 0 -1.0458927943346907 -18.094758374216099 0 0 0 0 -12.245839761175375 -7.5050100792699368 0 -7.5050100792699368 -11.382944449027264 0 0 0 0 -2.8152017548391086 34.39431482402577 0 34.39431482402577 30.945389064402889 0 0 0 0 -34.832118411226475 25.773378118821938 0 25.773378118821938 36.378179900127179 0 0 0 0 8.0311516341394054 66.164740767594367 0 66.164740767594367 29.264069065944 0 0 0 0 21.404523851158956 2.2722882831295124 0 2.2722882831295124 22.577617969252373 0 0 0 0 46.540447794823194 53.067897572789093 0 53.067897572789093 18.868775990874497 0 0 0 0 8.6387854769445767 38.575482801290093 0 38.575482801290093 -48.925730319431864 0 0 0 0 82.072862944844019 -30.628502742095463 0 -30.628502742095463 -40.026967556370209 0 0 0 0 150.51828254988732 -232.50441148462357 0 -232.50441148462357 74.048573849514696 0 0 0 0 -2.5943809987639881 -0.56612235642776376 0 -0.56612235642776376 0.37989512222688426 0 0 0 0 -53.801330118232727 -189.30018475602097 0 -189.30018475602097 -11.796844780514931 0 0 0 0 -101.34957822883371 199.25126417543817 0 199.25126417543817 -78.320717038645682 0 0 0 0 28.026614475114911 -64.814509775704551 0 -64.814509775704551 -158.86671698588771 0 0 0 0 -54.03113229684709 68.282960672292859 0 68.282960672292859 -43.943385477590482 0 0 0 0 -31.182616448668341 -70.327691949849964 0 -70.327691949849964 -10.958999352721889 0 0 0 0 52.40711820555407 29.407642131092899 0 29.407642131092899 -30.532704132275057 0 0 0 0 23.250503069501065 1.8190695165520765 0 1.8190695165520765 12.201542364488859 0 0 0 0 59.139173509174725 12.900685563810612 0 12.900685563810612 9.5831105371971717 0 0 0 0 0.040923437520387296 -2.2969142490887791 0 -2.2969142490887791 2.1165983679169686 0 0 0 0 -4.953708148577789 -1.8358746331816747 0 -1.8358746331816747 6.8406172392204141 0 0 0 0 -4.7727814266454516 -2.8723782685837023 0 -2.8723782685837023 1.495692602146292 0 0 0 0 -8.4631395193590322 -1.962798490410373 0 -1.962798490410373 0.7490513037649329 0 0 0 0 -17.664912165157148 2.4871599235400481 0 2.4871599235400481 -5.8229529210966575 0 0 0 0 -16.102288069055703 3.4381104672433764 0 3.4381104672433764 -1.7071144216524772 0 0 0 0 -2.6449934938498458 -7.8005223885678063 0 -7.8005223885678063 0.27573355916550391 0 0 0 0 -9.9779358554806095 -3.4322995970069314 0 -3.4322995970069314 5.8109515334648449 0 0 0 0 -5.3428484864678794 -2.0280355635653962 0 -2.0280355635653962 3.0285489569598578 0 0 0 0 -1.0603819829743983 0.3464580077346433 0 0.3464580077346433 0.16713394876679954 0 0 0 0 -16.086864932060053 3.0025804272854657 0 3.0025804272854657 -6.1710741659517225 0 0 0 0 0.32340827025349483 -0.55782224147669623 0 -0.55782224147669623 0.61618446533701443 0 0 0 0 -47.298983356398821 -154.72606204413896 0 -154.72606204413896 84.297932123000436 0 0 0 0 46.307396721140321 1.9498174664907708 0 1.9498174664907708 57.180402374052619 0 0 0 0 140.53979535191684 -29.970426099699125 0 -29.970426099699125 1.2261937714316673 0 0 0 0 -19.560512987171933 -9.0145589070437495 0 -9.0145589070437495 -0.94566125911569543 0 0 0 0 -5.516322174683598 -2.5454742480943615 0 -2.5454742480943615 2.2266802753534281 0 0 0 0 -8.9140519990146032 -2.3984096618412938 0 -2.3984096618412938 3.3354839026774892 0 0 0 0 24.384341851786303 -8.1736773930867628 0 -8.1736773930867628 -10.258006117523053 0 0 0 0 -10.936446569690816 11.690763038556952 0 11.690763038556952 -5.8601402682211301 0 0 0 0 -27.526729073917522 4.0273352890365004 0 4.0273352890365004 -9.3944104534307371 0 0 0 0 -11.237537531076669 11.256131395526438 0 11.256131395526438 -13.592886216174065 0 0 0 0 -16.939082472501468 7.3139180668030122 0 7.3139180668030122 0.80537134476475103 0 0 0 0 -2.067444484313878 -1.0225408665405649 0 -1.0225408665405649 -1.1017368117869974 0 0 0 0 -16.929769259113527 6.9348995002422953 0 6.9348995002422953 -3.3980957439363806 0 0 0 0 -1.464939883138868 -1.3943665777578644 0 -1.3943665777578644 12.919756005598344 0 0 0 0 0.82841346867462562 -3.787319496440432 0 -3.787319496440432 1.9397506690012847 0 0 0 0 -45.455731439471492 -0.91754070944881505 0 -0.91754070944881505 4.1204791435183097 0 0 0 0 -0.79426515824814103 -0.52070692466628365 0 -0.52070692466628365 0.048871378049163194 0 0 0 0 -38.08581327732827 18.600171257752095 0 18.600171257752095 -6.9519594830795484 0 0 0 0 -28.866522027745305 5.7452697548300193 0 5.7452697548300193 -12.877055087726376 0 0 0 0 -13.582603899760215 20.109625593952842 0 20.109625593952842 -4.7909900745709137 0 0 0 0 -8.0763470883220663 -3.4145016900940401 0 -3.4145016900940401 3.4298350753252063 0 0 0 0 30.827095977456338 1.3961969176883287 0 1.3961969176883287 -39.511677568442451 0 0 0 0 -79.723571867798455 -42.167576678016189 0 -42.167576678016189 42.680278983645366 0 0 0 0 -1.223351550921592 0.28102102412794316 0 0.28102102412794316 0.62102112207413285 0 0 0 0 -87.120349643769032 -15.879748031759213 0 -15.879748031759213 50.271882971309424 0 0 0 0 -6.4538367806089809 -35.163111761137031 0 -35.163111761137031 29.108295427845121 0 0 0 0 -15.099985822565031 -14.367191297099261 0 -14.367191297099261 -29.966981129188468 0 0 0 0 -25.829781750856455 0.35872098175344291 0 0.35872098175344291 -3.5319388476361802 0 0 0 0 -9.444096638807423 -3.9225119747427755 0 -3.9225119747427755 -11.696681203990224 0 0 0 0 -7.4138179090895164 2.8837827862572141 0 2.8837827862572141 -16.015440749552624 0 0 0 0 -33.566076347274247 29.776232876974319 0 29.776232876974319 -16.800868995398631 0 0 0 0 -5.7519556823790481 -3.8803006015128148 0 -3.8803006015128148 -26.042021305317803 0 0 0 0 -7.0230454593793183 5.2100720063397148 0 5.2100720063397148 -6.9904771309931562 0 0 0 0 -22.194427300339157 -55.902052380753958 0 -55.902052380753958 33.662098771262322 0 0 0 0 -12.358297310937214 -0.78951829935529183 0 -0.78951829935529183 2.1372771117797309 0 0 0 0 -21.745579498123334 13.534911818217665 0 13.534911818217665 -8.5996164374550972 0 0 0 0 -14.089110520610557 -0.84269767583879318 0 -0.84269767583879318 3.2516160177270663 0 0 0 0 -1.445923533739915 11.51818461311322 0 11.51818461311322 6.6484271527280612 0 0 0 0 -7.2943318084279483 -0.0082667536288472121 0 -0.0082667536288472121 2.4094691575200815 0 0 0 0 -9.326013690627132 1.3276680473239209 0 1.3276680473239209 0.85671153694145352 0 0 0 0 -20.041832125822111 -0.28955202067913888 0 -0.28955202067913888 6.4062314062823589 0 0 0 0 71.41875177208567 -31.338938927253821 0 -31.338938927253821 -89.633792805278517 0 0 0 0 -7.8957605342293391 3.7463408462054986 0 3.7463408462054986 0.14444953078647416 0 0 0 0 -7.947210153330218 1.2415228194540231 0 1.2415228194540231 0.70125820952363449 0 0 0 0 -79.856005784922672 -48.236476731284313 0 -48.236476731284313 10.988917820584732 0 0 0 0 -7.3120195163951394 1.9502684379442385 0 1.9502684379442385 -14.34792836319815 0 0 0 0 -1.823635764555231 -0.21680025288607219 0 -0.21680025288607219 -0.12326117212972365 0 0 0 0 0.25241630564848094 -1.0425170207706023 0 -1.0425170207706023 -0.083854094076275032 0 0 0 0 -10.898241257074915 5.56818351793072 0 5.56818351793072 0.84936649076689719 0 0 0 0 -15.036894753125125 19.042444269479674 0 19.042444269479674 -19.780683198403665 0 0 0 0 -16.240629564226992 9.064535540030306 0 9.064535540030306 -9.0004023598957588 0 0 0 0 -4.605080998718222 2.7725674935821871 0 2.7725674935821871 -4.6882990988070219 0 0 0 0 -10.797003704635927 14.416709529250388 0 14.416709529250388 -42.599107237278375 0 0 0 0 -0.65023114684276351 -0.31559741760567128 0 -0.31559741760567128 0.31777686101362146 0 0 0 0 -18.204816641603884 -3.1178065390727951 0 -3.1178065390727951 -42.905441053705644 0 0 0 0 -25.101636760585279 13.110264422706663 0 13.110264422706663 -27.499524526179016 0 0 0 0 -14.470897076165784 14.975443764518928 0 14.975443764518928 -28.623747098908325 0 0 0 0 -16.638130578437995 4.0423464412560577 0 4.0423464412560577 -22.591999710088658 0 0 0 0 -33.181881001791226 7.0200030591586255 0 7.0200030591586255 -8.7210300597689638 0 0 0 0 -31.097638863864631 2.6942699216407391 0 2.6942699216407391 -21.622824219069798 0 0 0 0 -37.89319917666262 14.442504290399455 0 14.442504290399455 -15.753867254051329 0 0 0 0 -24.72560536128276 -11.213734800233603 0 -11.213734800233603 -27.247365796126374 0 0 0 0 -29.110785897119968 -2.812338882757615 0 -2.812338882757615 -6.5968612889018914 0 0 0 0 4.1505088240728583 -4.55393012852835 0 -4.55393012852835 -14.922281210814845 0 0 0 0 -36.935969102116815 8.465743949393385 0 8.465743949393385 -17.380852521565998 0 0 0 0 3.2774310243785294 -0.33216844807049029 0 -0.33216844807049029 -46.431073455885723 0 0 0 0 2.2895701191877151 2.0422208294012689 0 2.0422208294012689 -35.097179385233055 0 0 0 0 2.6835095981004997 5.2972309533937612 0 5.2972309533937612 -32.119287259629679 0 0 0 0 3.3574188077163853 -11.135060142761082 0 -11.135060142761082 -17.456594856024928 0 0 0 0 -2.7854649916293965 20.760897695013945 0 20.760897695013945 -3.1943583704490948 0 0 0 0 -1.7743323985987658 2.2103702382217696 0 2.2103702382217696 -2.5485607232477347 0 0 0 0 25.693752196693367 5.178978826272612 0 5.178978826272612 -7.693125308567744 0 0 0 0 -30.7190049162582 -1.6974435002371138 0 -1.6974435002371138 7.9458269310034666 0 0 0 0 -2.0345918485977634 3.1180664167248038 0 3.1180664167248038 -2.9455477710736986 0 0 0 0 -2.8659111372146526 -4.0341064826538684 0 -4.0341064826538684 -7.7896460566580572 0 0 0 0 -6.2099660248288728 0.63894254723925314 0 0.63894254723925314 -5.0292213215524271 0 0 0 0 -4.4824728607143243 -8.4398691451528265 0 -8.4398691451528265 -13.300873477827849 0 0 0 0 1.1262895001367461 -0.078867734901981734 0 -0.078867734901981734 -0.62704655662837538 0 0 0 0 -36.696198807714609 -45.629151930496903 0 -45.629151930496903 -48.314846084897681 0 0 0 0 9.9800013554445286 12.661240010823803 0 12.661240010823803 -12.041555407796068 0 0 0 0 -13.280845798333303 -1.2310679680517751 0 -1.2310679680517751 -5.2945487503983486 0 0 0 0 -2.4103679573541399 -3.1738742939070432 0 -3.1738742939070432 -0.72028489635334525 0 0 0 0 -11.298960446847559 -7.2932696541921587 0 -7.2932696541921587 -9.0444855024615549 0 0 0 0 -22.329818396983704 -12.765103703075123 0 -12.765103703075123 -0.010571403491145048 0 0 0 0 -49.402100786279107 -0.43906049609162778 0 -0.43906049609162778 10.442015226090007 0 0 0 0 -47.659720611998182 -5.0381348065953375 0 -5.0381348065953375 8.8214669830413186 0 0 0 0 -48.326198292850677 -3.4977057138958116 0 -3.4977057138958116 17.439485935371522 0 0 0 0 -48.223901594396011 -3.2652191548520477 0 -3.2652191548520477 8.3173616775659411 0 0 0 0 25.165021635378253 -41.401090935279854 0 -41.401090935279854 -26.895478812438341 0 0 0 0 -57.953792504687272 14.165915311971958 0 14.165915311971958 1.5614682619318501 0 0 0 0 -40.696791637346905 10.372929697933841 0 10.372929697933841 0.79555543243350257 0 0 0 0 -52.357560878809636 11.460872298729555 0 11.460872298729555 14.876965351618196 0 0 0 0 -34.951497177458911 7.2974831285315123 0 7.2974831285315123 -1.2013744576893013 0 0 0 0 -29.179947779352915 22.32741297529401 0 22.32741297529401 -0.23609923556932699 0 0 0 0 -37.976077407296543 -2.799902878755347 0 -2.799902878755347 8.763654636169278 0 0 0 0 -26.287180624618486 4.8560246113429457 0 4.8560246113429457 13.751291391670748 0 0 0 0 -32.003204401301844 11.348279436940281 0 11.348279436940281 -2.3758861670279954 0 0 0 0 -3.2160794101995442 1.4906335803950261 0 1.4906335803950261 -2.9432739564945143 0 0 0 0 -10.249939439965601 19.240713350838178 0 19.240713350838178 -27.227301004754736 0 0 0 0 -57.793776411893305 20.176270567360916 0 20.176270567360916 0.0087536833259491686 0 0 0 0 -47.220763127050304 3.1175660741096181 0 3.1175660741096181 -20.556041712901333 0 0 0 0 -52.334520693041668 3.4488890112664876 0 3.4488890112664876 -0.88385928721027085 0 0 0 0 -41.867144096164338 4.2048809550099122 0 4.2048809550099122 -14.157278845282235 0 0 0 0 -46.622706864191969 13.496253725565111 0 13.496253725565111 -12.635872550480599 0 0 0 0 -64.588269427697014 30.55857505916174 0 30.55857505916174 -38.026232961331061 0 0 0 0 -48.517266052900595 10.0391600691637 0 10.0391600691637 -18.885183056191636 0 0 0 0 -46.011263628162851 12.456613741249612 0 12.456613741249612 -5.1645165003951661 0 0 0 0 -63.363445537370239 22.867667333519208 0 22.867667333519208 -10.968127900576746 0 0 0 0 -48.793201157422118 15.708943200124963 0 15.708943200124963 -5.4194384729112244 0 0 0 0 -10.851901955983521 11.335875901958502 0 11.335875901958502 3.5868756934476096 0 0 0 0 -81.576535801741556 -10.371749743198507 0 -10.371749743198507 -6.119258550391578 0 0 0 0 -0.061064164574263557 0.65374808088004333 0 0.65374808088004333 -0.90408231459460975 0 0 0 0 -110.31715384874042 -10.718980585044847 0 -10.718980585044847 -5.7854330351501631 0 0 0 0 0.93469190131724567 -0.10073303691149782 0 -0.10073303691149782 -1.9005562830209781 0 0 0 0 -115.23581708291022 15.278790527816 0 15.278790527816 -2.7549775608513301 0 0 0 0 -89.156213958500302 14.933123846569742 0 14.933123846569742 -3.0096767837033553 0 0 0 0 -40.280355679997228 3.308133593017601 0 3.308133593017601 -0.89597158487993056 0 0 0 0 -24.536966632749682 -32.848997947624866 0 -32.848997947624866 6.8222203090372204 0 0 0 0 -65.924176775149817 2.4431685101301923 0 2.4431685101301923 1.983308226889676 0 0 0 0 -31.103980572135697 2.6669442345715879 0 2.6669442345715879 -9.3651014517331532 0 0 0 0 -41.823531389247364 13.142700153544411 0 13.142700153544411 -4.7869848353673206 0 0 0 0 -55.78593012239071 8.0298124929827281 0 8.0298124929827281 0.54039949548678123 0 0 0 0 -36.475136215489329 0.36932673147248352 0 0.36932673147248352 -0.38816188961565956 0 0 0 0 -44.53429822232647 9.5926554024666189 0 9.5926554024666189 -9.2013653934177455 0 0 0 0 -44.785774792429947 16.728588320059089 0 16.728588320059089 -7.0816348846944948 0 0 0 0 -39.570605575676382 18.436703496230052 0 18.436703496230052 -8.0918592823401241 0 0 0 0 -45.317620386666022 16.992449646379896 0 16.992449646379896 -6.3866244457058201 0 0 0 0 -45.45506019714685 15.501617016321575 0 15.501617016321575 0.31546631259379865 0 0 0 0 -50.113694571989981 20.974415515696592 0 20.974415515696592 -5.2642384901391779 0 0 0 0 -52.187432402052082 15.210653374791008 0 15.210653374791008 8.0886310402561321 0 0 0 0 -43.23281819708518 9.5883674967385559 0 9.5883674967385559 2.5262655663989335 0 0 0 0 -46.466902953362478 13.728344395876604 0 13.728344395876604 -1.8037327183453726 0 0 0 0 -43.169033947061507 6.1680020695762323 0 6.1680020695762323 2.3518064961006075 0 0 0 0 -45.580537479077975 17.529128663557685 0 17.529128663557685 -7.1570967687334814 0 0 0 0 -43.380181419393921 9.5500546320276953 0 9.5500546320276953 -7.8413372607000724 0 0 0 0 -44.880130010033099 5.7080819515134635 0 5.7080819515134635 -1.0391404166434768 0 0 0 0 -44.092718521633287 9.3109701921644046 0 9.3109701921644046 -6.9555981965604587 0 0 0 0 -38.979277340900808 6.7978324302036981 0 6.7978324302036981 -0.61834175400190361 0 0 0 0 -45.463466513977437 5.5682493522949699 0 5.5682493522949699 1.1607034095109157 0 0 0 0 -22.857493447964558 -4.0764076533025371 0 -4.0764076533025371 6.6644013948676388 0 0 0 0 -40.92373603966476 1.644234286596884 0 1.644234286596884 -1.4233049911686066 0 0 0 0 -44.688019120720128 2.5776461244849997 0 2.5776461244849997 4.6665121958762938 0 0 0 0 -23.248056650247122 -0.62467895002782825 0 -0.62467895002782825 0.51485690748614843 0 0 0 0 -20.274178481436575 -2.5200780501892854 0 -2.5200780501892854 0.82161357366749144 0 0 0 0 -19.77433191121553 -7.4411625210957428 0 -7.4411625210957428 6.1373555789456997 0 0 0 0 -35.841570123453494 -0.94337390578314739 0 -0.94337390578314739 5.502936049132586 0 0 0 0 -2.6586529497449343 -6.3950027388343251 0 -6.3950027388343251 1.016266095225185 0 0 0 0 -25.278411978127195 -2.0277233588989176 0 -2.0277233588989176 1.5860071231353317 0 0 0 0 -22.532166936312422 -6.8361107607989711 0 -6.8361107607989711 3.4391786934948603 0 0 0 0 -16.140443141756275 -11.183841139379389 0 -11.183841139379389 6.0365728967500729 0 0 0 0 -15.643140876036739 -6.7950488823005806 0 -6.7950488823005806 3.3128405130155514 0 0 0 0 -28.989647890253764 -17.014214387703063 0 -17.014214387703063 11.312498954910097 0 0 0 0 -31.546246783955212 2.7317503030508306 0 2.7317503030508306 3.5439663502635881 0 0 0 0 -47.720143206541252 2.8394587748291542 0 2.8394587748291542 9.2114637226193281 0 0 0 0 -63.542706536607511 23.777681767480715 0 23.777681767480715 1.8882764585295035 0 0 0 0 -43.662867179288696 2.3739557514114722 0 2.3739557514114722 8.5467753857176945 0 0 0 0 -48.197786995475553 -11.290937922488268 0 -11.290937922488268 11.614946272407678 0 0 0 0 -112.80893198934973 0.23670317076889091 0 0.23670317076889091 21.129592734845289 0 0 0 0 -75.769362870583791 -24.172253799068706 0 -24.172253799068706 32.421219556810911 0 0 0 0 -61.768303981190911 39.385635009665286 0 39.385635009665286 -12.019445356448804 0 0 0 0 -98.263322590735925 26.62678836823703 0 26.62678836823703 10.974570676307053 0 0 0 0 -60.164719387925288 7.3554419550839043 0 7.3554419550839043 20.251080745795775 0 0 0 0 -50.793641026571095 26.530796177467522 0 26.530796177467522 -8.0340627128596225 0 0 0 0 -47.103638449241771 22.301648382157737 0 22.301648382157737 -4.7147508458741925 0 0 0 0 -44.879914485482004 24.220943219140935 0 24.220943219140935 -12.925158069631834 0 0 0 0 -33.817710620172875 23.125078887440907 0 23.125078887440907 -16.267311442558224 0 0 0 0 -30.81553020620413 16.042000036374418 0 16.042000036374418 -17.327622841618947 0 0 0 0 -21.979923100147062 20.456000137737647 0 20.456000137737647 -23.88935224412387 0 0 0 0 -19.579903065023245 22.370235359170465 0 22.370235359170465 -29.996699044803904 0 0 0 0 -37.090154501842335 29.318507770219071 0 29.318507770219071 -21.928289067395752 0 0 0 0 -55.900808877419877 31.834523550710021 0 31.834523550710021 -8.9727065279051299 0 0 0 0 -27.875793295548647 32.937899494114163 0 32.937899494114163 -35.765570303162079 0 0 0 0 -42.982429173921901 40.034983727397616 0 40.034983727397616 -28.092176849878722 0 0 0 0 -18.808027368028888 24.558822721651666 0 24.558822721651666 -30.599760284923889 0 0 0 0 -29.907604792538223 57.494072294035028 0 57.494072294035028 -83.718370747657332 0 0 0 0 -12.006924250573775 14.231459507871058 0 14.231459507871058 -26.159992212196983 0 0 0 0 -13.886686128857718 22.287998574498005 0 22.287998574498005 -39.71039889306428 0 0 0 0 -15.418313362853951 12.905493316337868 0 12.905493316337868 -18.29723524452038 0 0 0 0 -8.9956902066696784 5.3806342402509699 0 5.3806342402509699 -24.245046747823721 0 0 0 0 -16.343827762620094 0.81759017283388857 0 0.81759017283388857 0.12750516721757776 0 0 0 0 -16.833626317372364 -2.2261126718060495 0 -2.2261126718060495 3.9983194830531374 0 0 0 0 -11.501449328206945 -4.0044969099617447 0 -4.0044969099617447 -29.702155594217231 0 0 0 0 -1.0674764969812713 1.3380716940134416 0 1.3380716940134416 -1.8142155406053173 0 0 0 0 1.0809478889477759 -6.7687178025271919 0 -6.7687178025271919 -43.451219450924498 0 0 0 0 -5.9245954157440792 49.725034880139305 0 49.725034880139305 -113.58354843104081 0 0 0 0 -290.50749564569924 22.183903156412839 0 22.183903156412839 31.804886379097042 0 0 0 0 -247.82048012047153 -19.982774410627439 0 -19.982774410627439 35.259856534229499 0 0 0 0 -71.508440675407655 -66.853839143723093 0 -66.853839143723093 -166.64677747950742 0 0 0 0 -161.43238294073581 132.05490595411152 0 132.05490595411152 -69.727895346160494 0 0 0 0 -78.635663538170775 48.707699505037169 0 48.707699505037169 -13.750546745429432 0 0 0 0 -10.042745224032918 -4.8443267380323203 0 -4.8443267380323203 2.1945771799801732 0 0 0 0 -28.004574214867716 -3.2175208310029006 0 -3.2175208310029006 5.7586651515072163 0 0 0 0 -28.258305579942316 -1.5587661324830151 0 -1.5587661324830151 9.1163806544008139 0 0 0 0 -24.269417121178776 -1.0636326223528556 0 -1.0636326223528556 -2.0533622127274498 0 0 0 0 -36.72623400952034 6.2031414976096926 0 6.2031414976096926 -19.766215492074977 0 0 0 0 108.20689246380971 -46.171333900726893 0 -46.171333900726893 -49.181571725283014 0 0 0 0 5.4202783582295524 -52.231463209994345 0 -52.231463209994345 -41.953352953271072 0 0 0 0 1.3828512139916711 -73.87240999134815 0 -73.87240999134815 25.855807402128448 0 0 0 0 -92.810427051043007 111.48827785798137 0 111.48827785798137 -84.431181334675443 0 0 0 0 -40.455471173856495 8.0715937038231687 0 8.0715937038231687 -3.2984813012497121 0 0 0 0 -32.82546165862118 0.20064032818474686 0 0.20064032818474686 -1.1469120348051547 0 0 0 0 79.260224639101125 22.70358016246233 0 22.70358016246233 -60.012443845697248 0 0 0 0 -5.2075059757518822 -5.5773511980106338 0 -5.5773511980106338 -0.75632041988237608 0 0 0 0 -12.047843620721697 7.3937926371387981 0 7.3937926371387981 4.4375589304769161 0 0 0 0 -34.89102415466914 -8.8036788357352975 0 -8.8036788357352975 1.5352282776905213 0 0 0 0 -18.592294836333167 21.651539287075025 0 21.651539287075025 -2.008068515209672 0 0 0 0 -67.876425985556722 -36.044373084010871 0 -36.044373084010871 -23.965296919143839 0 0 0 0 -34.022473574540527 -2.3371466193341917 0 -2.3371466193341917 -3.6668593738305617 0 0 0 0 -45.911182001284033 -2.8579525200275953 0 -2.8579525200275953 15.129682941586907 0 0 0 0 -38.956841888770214 -3.692523006326768 0 -3.692523006326768 3.2190974947853777 0 0 0 0 -23.628658286458176 1.607689294203908 0 1.607689294203908 4.3787020589238637 0 0 0 0 -20.452276791871554 -3.9665168264018575 0 -3.9665168264018575 6.1775646472005974 0 0 0 0 -15.531358381733279 5.4215361174193504 0 5.4215361174193504 4.7003351167520027 0 0 0 0 -37.605649217603059 8.8264530368537635 0 8.8264530368537635 8.0897908405978569 0 0 0 0 -29.01888979284459 12.419684694953681 0 12.419684694953681 0.48739866722354996 0 0 0 0 -28.701719252076145 -92.213939577647579 0 -92.213939577647579 175.42840805820157 0 0 0 0 -14.509675654551756 -46.370382592666374 0 -46.370382592666374 65.070337150879823 0 0 0 0 -11.590604190259626 -85.733101299381943 0 -85.733101299381943 44.675924955091887 0 0 0 0 -85.461680036021107 -59.800296957222713 0 -59.800296957222713 233.83739940578835 0 0 0 0 -57.335577118037577 -69.194840289739318 0 -69.194840289739318 -44.758320322009695 0 0 0 0 -74.553841701856072 -76.308747274832001 0 -76.308747274832001 53.60080967379281 0 0 0 0 -20.223162348190954 -83.388437812118923 0 -83.388437812118923 -19.986298402846614 0 0 0 0 -17.287150241973904 -66.96961205900584 0 -66.96961205900584 42.352160845602924 0 0 0 0 20.447883836648657 -82.546473667270732 0 -82.546473667270732 -0.24157736601046054 0 0 0 0 16.196936440475838 -55.732438684372937 0 -55.732438684372937 28.541762401326878 0 0 0 0 31.262620385401533 -60.84824431061088 0 -60.84824431061088 19.279174339427755 0 0 0 0 -7.8380640721952659 -63.335885006856188 0 -63.335885006856188 93.986092510239359 0 0 0 0 -27.625121437439702 -1.5238592988261139 0 -1.5238592988261139 2.5167042594727311 0 0 0 0 0.6908846175938379 -60.533881936920011 0 -60.533881936920011 16.749902753503591 0 0 0 0 -76.0111104154239 -84.582081121567398 0 -84.582081121567398 14.817218137391308 0 0 0 0 -38.708126836019801 -38.549203570790525 0 -38.549203570790525 47.351349446467466 0 0 0 0 51.479717985830575 -0.25394127138168443 0 -0.25394127138168443 -1.355332778334656 0 0 0 0 -49.023114819266084 -7.9873907492567469 0 -7.9873907492567469 18.632577482687225 0 0 0 0 -10.906739147752464 -20.441369025938847 0 -20.441369025938847 8.6315950668161712 0 0 0 0 -13.374050054623558 -20.202898301769654 0 -20.202898301769654 8.1734611577955345 0 0 0 0 -32.482694075438303 -21.448167800503029 0 -21.448167800503029 13.042761110315354 0 0 0 0 87.497478941908071 -33.225415645493229 0 -33.225415645493229 1.1034430151603374 0 0 0 0 90.370599969106877 -60.593250394910072 0 -60.593250394910072 -2.5606198740451873 0 0 0 0 115.2409453588125 -84.162319104538028 0 -84.162319104538028 36.182218053342694 0 0 0 0 8.7820203801481398 -3.2353936331170194 0 -3.2353936331170194 -1.5325315467004952 0 0 0 0 25.639780714654876 -47.642223581623966 0 -47.642223581623966 -5.0444147986233929 0 0 0 0 37.032646763761477 -71.978688035904725 0 -71.978688035904725 16.693052508745495 0 0 0 0 83.721043615664712 -33.009939510183813 0 -33.009939510183813 -1.493752426133085 0 0 0 0 1.8348906569653991 -21.09256763042066 0 -21.09256763042066 -36.910577694164431 0 0 0 0 35.259033418901254 -43.451395172721789 0 -43.451395172721789 -39.879643146005264 0 0 0 0 36.615754520001701 -33.027465074284635 0 -33.027465074284635 13.395584136746265 0 0 0 0 38.84467785679135 -15.925368172443655 0 -15.925368172443655 -10.573965726178216 0 0 0 0 41.319034236409379 -17.671992224873343 0 -17.671992224873343 -49.485512298505 0 0 0 0 -8.338416457051153 -18.721090908880313 0 -18.721090908880313 -17.891935412182647 0 0 0 0 102.93446389288897 -43.506557298245241 0 -43.506557298245241 -17.479849037521262 0 0 0 0 -7.3706167583075146 -5.8313514864690656 0 -5.8313514864690656 1.9273885450731121 0 0 0 0 89.774718737942749 -35.922261737784595 0 -35.922261737784595 -28.238913209297721 0 0 0 0 87.548012117777034 -30.373985425202477 0 -30.373985425202477 10.098139767239047 0 0 0 0 79.139023511781033 -44.11248671291969 0 -44.11248671291969 -0.2247926465674368 0 0 0 0 29.441008555445478 -2.4003664895786052 0 -2.4003664895786052 0.11677625666516089 0 0 0 0 23.495133546285274 26.345060459730512 0 26.345060459730512 -36.276861069941049 0 0 0 0 9.7511578386570363 20.345720170302599 0 20.345720170302599 -28.051679461002067 0 0 0 0 14.806595984834075 10.294257888614055 0 10.294257888614055 -12.044769129682379 0 0 0 0 74.098298080942982 -10.348984537957731 0 -10.348984537957731 -22.053150248077657 0 0 0 0 26.543084662434012 18.883757152312057 0 18.883757152312057 -12.354563062091295 0 0 0 0 -99.029835289369089 -8.2834447782969249 0 -8.2834447782969249 -25.132987597443304 0 0 0 0 -179.42831633230298 60.462305277953703 0 60.462305277953703 -62.183167696517287 0 0 0 0 -69.764489200854314 41.724447020827192 0 41.724447020827192 -29.442382149640999 0 0 0 0 -79.549553759573428 14.277124423097575 0 14.277124423097575 -29.118105056713262 0 0 0 0 -83.761989815706784 37.102926543298594 0 37.102926543298594 -101.33481023858201 0 0 0 0 -11.570239608851807 -5.777344200830413 0 -5.777344200830413 -57.845347340297337 0 0 0 0 -156.00254817484381 -5.2092600752133915 0 -5.2092600752133915 -57.515655223737475 0 0 0 0 -260.65514461283578 55.833642093153308 0 55.833642093153308 -70.50270174339984 0 0 0 0 -189.59663365453571 -6.9352057699240675 0 -6.9352057699240675 -77.673596346607837 0 0 0 0 -127.75302318098238 28.380689326857308 0 28.380689326857308 -99.105153002251541 0 0 0 0 -108.10057309454669 -16.144438679103047 0 -16.144438679103047 -48.924944642118135 0 0 0 0 -132.61178773975053 -28.633404309888874 0 -28.633404309888874 -80.061467475578638 0 0 0 0 -11.537120319162 -4.9027898345282495 0 -4.9027898345282495 -73.236305976385552 0 0 0 0 -58.38084196147247 -1.4228716174278588 0 -1.4228716174278588 -77.02247168283975 0 0 0 0 -42.996399771390315 -32.036273413664958 0 -32.036273413664958 -33.907872209564516 0 0 0 0 -10.023049097752391 -69.349457692101623 0 -69.349457692101623 -14.075834764166473 0 0 0 0 -70.130576317214945 -45.27542441133437 0 -45.27542441133437 -44.829165353304461 0 0 0 0 -24.025860013591682 -37.849321435740023 0 -37.849321435740023 -54.996316070317562 0 0 0 0 -64.191372166870224 -59.297810066180318 0 -59.297810066180318 -10.212180385672866 0 0 0 0 -129.25914531615126 -9.3314876880900783 0 -9.3314876880900783 -47.488274747623564 0 0 0 0 -181.59626316035917 33.540871591071777 0 33.540871591071777 -98.195546643196849 0 0 0 0 -89.022802447562299 -3.8702534121515555 0 -3.8702534121515555 -85.839221327689074 0 0 0 0 -61.324843761453849 -60.432644533564257 0 -60.432644533564257 -72.349268428236883 0 0 0 0 -343.33894994250682 16.267889844733986 0 16.267889844733986 -46.929389547564597 0 0 0 0 -185.82720163538221 18.305360169548877 0 18.305360169548877 -151.78197106700213 0 0 0 0 -324.51844721214161 92.718628798820475 0 92.718628798820475 -124.18647712251244 0 0 0 0 -174.78387226038353 -52.05718905381184 0 -52.05718905381184 -86.011885522069861 0 0 0 0 -746.28774725588994 445.07503929031088 0 445.07503929031088 -204.27017290349409 0 0 0 0 -317.00961075690395 38.437900287223897 0 38.437900287223897 -192.3758220280657 0 0 0 0 -602.60774984114437 204.23046325386548 0 204.23046325386548 -153.88689907802345 0 0 0 0 -794.75378571447948 -41.747491447087256 0 -41.747491447087256 -92.004324119715477 0 0 0 0 -393.33222331172749 28.888100351189507 0 28.888100351189507 -125.91070493942976 0 0 0 0 -584.61581131014384 5.3241844565197809 0 5.3241844565197809 -54.836622307226662 0 0 0 0 -420.8415530387615 111.50357795856266 0 111.50357795856266 -110.38237799122962 0 0 0 0 -614.39968094753067 50.966768122642989 0 50.966768122642989 -79.828372197974886 0 0 0 0 -232.44293428080482 -4.2764567857292946 0 -4.2764567857292946 -104.1093934202496 0 0 0 0 -346.8188677072269 17.084227774355895 0 17.084227774355895 -84.228947290992352 0 0 0 0 -253.26577117359375 68.39513659725111 0 68.39513659725111 -113.6006437743107 0 0 0 0 -260.42463303865782 54.429286236940342 0 54.429286236940342 -102.60901918798228 0 0 0 0 -415.29644075876263 1.2874739510894955 0 1.2874739510894955 -30.178460924619841 0 0 0 0 -592.56882456035407 -54.597249925506446 0 -54.597249925506446 -30.60840583838241 0 0 0 0 -472.56051858081537 67.636807310234104 0 67.636807310234104 -47.888877291710358 0 0 0 0 -543.20250696709047 8.2498109381606461 0 8.2498109381606461 -8.8689595458301369 0 0 0 0 -462.38519535166506 -63.09344781792467 0 -63.09344781792467 19.942462658852151 0 0 0 0 -351.40920404374674 43.229406764872095 0 43.229406764872095 -35.925898084074007 0 0 0 0 -271.81045285102118 -33.682492948181405 0 -33.682492948181405 -10.708167463418818 0 0 0 0 -1499.7935187539297 -20.017698716823716 0 -20.017698716823716 58.416250314720898 0 0 0 0 -2.9456222968001113 3.8593758565935046 0 3.8593758565935046 0.38629059620849626 0 0 0 0 -645.15233325585064 -43.216085112890582 0 -43.216085112890582 43.033174940382708 0 0 0 0 -1460.9786661236319 3.8432304915629825 0 3.8432304915629825 47.303847669213276 0 0 0 0 -768.84360288244238 -8.4297454637039948 0 -8.4297454637039948 6.3522445426833087 0 0 0 0 -2.5872478289142 5.038197796434198 0 5.038197796434198 -1.5624492537330714 0 0 0 0 -1169.6383185335164 100.55608911317952 0 100.55608911317952 120.9347568560584 0 0 0 0 -1496.548388565619 -3.3322561168344755 0 -3.3322561168344755 99.320342096607206 0 0 0 0 -1499.7478156412915 229.15984619423148 0 229.15984619423148 387.7354717117791 0 0 0 0 -871.84365199904641 -160.83818826787802 0 -160.83818826787802 521.96728316265285 0 0 0 0 -976.39805534781829 289.75056976741485 0 289.75056976741485 180.86909750605207 0 0 0 0 812.84995489593928 955.07268475036949 0 955.07268475036949 -658.91248216529482 0 0 0 0 -1294.1454466153714 121.9046202595398 0 121.9046202595398 95.648762948010472 0 0 0 0 -0.73165799935853326 1.7912207747587479 0 1.7912207747587479 -1.6627783604222142 0 0 0 0 -1080.6010962241749 266.51055374595717 0 266.51055374595717 -118.83620566402006 0 0 0 0 -1696.1810421527271 570.52156108933264 0 570.52156108933264 -224.86391389127706 0 0 0 0 -1814.5977825719324 262.54303390797537 0 262.54303390797537 134.34083405652362 0 0 0 0 -1500.3571127157238 389.98990482126777 0 389.98990482126777 -155.1743423340653 0 0 0 0 -1051.5087103896512 130.08017123885483 0 130.08017123885483 127.88789181051543 0 0 0 0 -8.7191686667164134 9.2666914346144136 0 9.2666914346144136 -11.374378955433318 0 0 0 0 -468.76330590886346 389.16536379232411 0 389.16536379232411 -343.16699207502654 0 0 0 0 75.347767010260554 145.98053734103041 0 145.98053734103041 103.29565802387651 0 0 0 0 -32.355601423287453 80.981402699153023 0 80.981402699153023 274.592455981581 0 0 0 0 255.9313530192012 -105.08155827644237 0 -105.08155827644237 77.373998436161628 0 0 0 0 -0.8577072131027994 3.566265469545316 0 3.566265469545316 -5.3670604674343396 0 0 0 0 -2033.3247720516406 410.45352273548571 0 410.45352273548571 84.415269932231467 0 0 0 0 916.98008430206551 665.59590806178153 0 665.59590806178153 -125.69736130364754 0 0 0 0 100.26198982850953 130.19719322354013 0 130.19719322354013 -187.19756229014388 0 0 0 0 -299.93135593676539 -5.8951502108732257 0 -5.8951502108732257 130.03425195349473 0 0 0 0 -246.75006440747788 162.61820649048059 0 162.61820649048059 121.42785608629356 0 0 0 0 -183.11083959056612 -30.439575022987128 0 -30.439575022987128 83.866276966321493 0 0 0 0 -148.48368925761565 -16.944413043071563 0 -16.944413043071563 -75.436397622419236 0 0 0 0 -138.7430272995241 48.63187679546445 0 48.63187679546445 186.39262259814495 0 0 0 0 -35.591537994519626 -45.003463832613534 0 -45.003463832613534 80.671586239111946 0 0 0 0 -38.511885405228213 135.06326047605171 0 135.06326047605171 113.70929467095857 0 0 0 0 -114.73838438420364 39.689738192709228 0 39.689738192709228 128.99303681844316 0 0 0 0 -138.609219962097 110.89417728367766 0 110.89417728367766 186.34531402023822 0 0 0 0 -8.6154326294906696 140.02166357056149 0 140.02166357056149 151.6312459575156 0 0 0 0 -82.705592851302754 22.466926219601191 0 22.466926219601191 197.64086147664466 0 0 0 0 9.6492301952262096 63.569328983860942 0 63.569328983860942 43.215263794486418 0 0 0 0 -13.803264074263678 -2.4587158115591641 0 -2.4587158115591641 9.4871481034960468 0 0 0 0 -31.9971777813149 1.6643270813250517 0 1.6643270813250517 -0.63650008302819883 0 0 0 0 -39.604899842252962 -12.195636338242082 0 -12.195636338242082 2.8743299061386551 0 0 0 0 -37.122695380423465 20.070986459679915 0 20.070986459679915 11.240637951745498 0 0 0 0 -41.690734134524973 25.317388626964203 0 25.317388626964203 74.335204657133659 0 0 0 0 -14.3685508587327 6.0558114375570806 0 6.0558114375570806 -3.8886103840040231 0 0 0 0 -9.7124106421377796 0.59136808779703642 0 0.59136808779703642 5.2571740063151164 0 0 0 0 95.254204773716992 13.880157212064205 0 13.880157212064205 -265.89677321720751 0 0 0 0 -786.5643952448354 -486.51621596747191 0 -486.51621596747191 -63.04393462148299 0 0 0 0 -1497.0724004923495 -690.48846552744442 0 -690.48846552744442 31.43263644835308 0 0 0 0 -430.48006234982495 -464.28366149694045 0 -464.28366149694045 -655.82692567920685 0 0 0 0 -1497.8321713283385 428.06493666810229 0 428.06493666810229 34.867468007166664 0 0 0 0 -965.41398243805361 635.40729223438825 0 635.40729223438825 -411.84137239134031 0 0 0 0 -9.6257413295666296 -0.29026045348615082 0 -0.29026045348615082 -2.3711131151669882 0 0 0 0 -59.106793964128883 -2.3744155856144857 0 -2.3744155856144857 17.185146248659748 0 0 0 0 -13.169305897470991 16.080350945273224 0 16.080350945273224 1.0036222685776011 0 0 0 0 -40.834687015982553 6.7457321509726809 0 6.7457321509726809 2.3555363255718751 0 0 0 0 -85.077322514927573 -0.7405228734000957 0 -0.7405228734000957 34.813441670409702 0 0 0 0 -67.811125103098675 42.991477194045686 0 42.991477194045686 8.6268464700436596 0 0 0 0 -31.877648178939126 24.103671666757094 0 24.103671666757094 16.36453956299755 0 0 0 0 -140.03009861444912 -38.031944112477731 0 -38.031944112477731 34.501550810875528 0 0 0 0 -37.666861530578899 -25.013142172392236 0 -25.013142172392236 49.133964784252498 0 0 0 0 -30.075716603886576 18.61244100564079 0 18.61244100564079 10.888231626228503 0 0 0 0 -40.233562618599535 15.837353464930345 0 15.837353464930345 8.4960497101701407 0 0 0 0 -59.836597782487843 9.3070333042682023 0 9.3070333042682023 22.618546799530293 0 0 0 0 -32.758165126400854 19.647628359952137 0 19.647628359952137 9.8362479694979612 0 0 0 0 -13.582453540060214 7.4158353848643941 0 7.4158353848643941 10.411037499751792 0 0 0 0 -7.1032464057228344 -2.8784365317769089 0 -2.8784365317769089 1.7980934873135788 0 0 0 0 -49.735348966898378 6.8457832048152873 0 6.8457832048152873 3.9478299204639127 0 0 0 0 -22.480194788124663 35.857344037716146 0 35.857344037716146 3.3549157830036549 0 0 0 0 -154.89114090878309 -82.368247658041383 0 -82.368247658041383 69.77194683738287 0 0 0 0 -52.497612041451525 -3.9318280517169359 0 -3.9318280517169359 3.6720632278598466 0 0 0 0 -518.88114205808233 -211.99971772440904 0 -211.99971772440904 259.7897589375691 0 0 0 0 -51.474188084071102 -5.5800483012727113 0 -5.5800483012727113 169.34092207467955 0 0 0 0 4.1943182497398084 -68.264324238189715 0 -68.264324238189715 65.123579349585242 0 0 0 0 -21.996506873686485 60.788407671261211 0 60.788407671261211 73.073924070599901 0 0 0 0 -34.335856340517694 -79.38546175390843 0 -79.38546175390843 -38.658403481477478 0 0 0 0 -0.37694685247367943 101.83081851101389 0 101.83081851101389 -107.85090129304984 0 0 0 0 140.20933170769058 45.807580739429113 0 45.807580739429113 -171.8986187419689 0 0 0 0 -4.6152907552661731 0.029883330382238338 0 0.029883330382238338 0.2147497451493936 0 0 0 0 33.169055114997491 -58.680900154842391 0 -58.680900154842391 85.240587914707135 0 0 0 0 -55.002512221223242 -60.54582820120379 0 -60.54582820120379 90.50721541514315 0 0 0 0 -60.435387601035075 66.750260708298327 0 66.750260708298327 145.30172504212953 0 0 0 0 -54.580920693318831 -103.03355688122736 0 -103.03355688122736 52.067782389403874 0 0 0 0 -144.63965181106255 -88.952692221011489 0 -88.952692221011489 89.877680197273435 0 0 0 0 18.257701048948547 -77.92113101907205 0 -77.92113101907205 42.846588520714903 0 0 0 0 15.291705103530603 -68.867332953169409 0 -68.867332953169409 40.332466530957277 0 0 0 0 -16.477974431327539 -42.026553559737323 0 -42.026553559737323 36.830011695665235 0 0 0 0 17.54404170299722 -71.788877837776909 0 -71.788877837776909 16.454056511218937 0 0 0 0 -13.080929584094065 -21.384920177210233 0 -21.384920177210233 32.834231152001564 0 0 0 0 -36.041486513822292 -64.348870751135337 0 -64.348870751135337 32.0837786230245 0 0 0 0 17.847758691778381 -8.6910380365442563 0 -8.6910380365442563 48.745996265987515 0 0 0 0 66.149891413796468 -56.638703611575238 0 -56.638703611575238 27.711251043460152 0 0 0 0 -3.5293534290585313 -2.0610554974130295 0 -2.0610554974130295 -1.1207975114341213 0 0 0 0 40.446528720999368 -123.44991982558815 0 -123.44991982558815 51.567648038410049 0 0 0 0 -311.12350759407639 304.31064126224658 0 304.31064126224658 -40.838743657297357 0 0 0 0 -123.38120219388685 172.80894725301954 0 172.80894725301954 -139.8746669616479 0 0 0 0 -164.05246331309615 12.467294453547765 0 12.467294453547765 -10.193152912703397 0 0 0 0 -140.49185718373815 131.76960666676132 0 131.76960666676132 116.26799328899301 0 0 0 0 27.784443920897502 -8.9529369031914712 0 -8.9529369031914712 20.011893887353835 0 0 0 0 -9.9763387074000693 -6.8632727963214357 0 -6.8632727963214357 -3.9802572044601225 0 0 0 0 36.128167921460317 -78.079641054899071 0 -78.079641054899071 67.332732593942524 0 0 0 0 -6.2457275614208356 -13.132665894755007 0 -13.132665894755007 38.184107427980734 0 0 0 0 -15.524066251517979 -18.213358317252528 0 -18.213358317252528 73.111257835464443 0 0 0 0 -23.792420758436492 15.917962668893182 0 15.917962668893182 6.7615799423233511 0 0 0 0 -77.713457686683341 15.797646177703541 0 15.797646177703541 30.53584272529838 0 0 0 0 -14.907607715615541 -25.068681675900507 0 -25.068681675900507 32.220754430248689 0 0 0 0 17.441930640265582 -18.187643483162276 0 -18.187643483162276 13.444052686536452 0 0 0 0 -241.38288981864844 -42.823926960080485 0 -42.823926960080485 38.776340341491164 0 0 0 0 -14.111691757821973 -30.711208640496807 0 -30.711208640496807 -21.207479205895197 0 0 0 0 -1.5209357147827394 -1.1851663504523797 0 -1.1851663504523797 -1.0356058098474521 0 0 0 0 -402.08869602724371 172.17850659185515 0 172.17850659185515 -10.535692255252116 0 0 0 0 -198.02683511188206 -126.53916191717045 0 -126.53916191717045 88.841032154525777 0 0 0 0 -246.71043396612367 -58.742642323326876 0 -58.742642323326876 75.672697237669297 0 0 0 0 -101.72675733899382 -38.115393099551952 0 -38.115393099551952 11.716156266708708 0 0 0 0 -0.55117614120008263 0.096073418138708622 0 0.096073418138708622 0.98030516924479771 0 0 0 0 24.47630582338661 101.30922188041481 0 101.30922188041481 -94.092790732244495 0 0 0 0 15.463423985259851 -9.3317868547735543 0 -9.3317868547735543 56.682137579622463 0 0 0 0 41.899035070761784 -150.33951881117525 0 -150.33951881117525 89.777147094441048 0 0 0 0 -137.06459716959966 -120.36807967512831 0 -120.36807967512831 65.005153847563463 0 0 0 0 -52.563687254522392 5.2627319317445682 0 5.2627319317445682 47.513947524858438 0 0 0 0 2.407032809626628 -16.979822367961948 0 -16.979822367961948 52.366017027547741 0 0 0 0 7.038689310131133 -16.467233392293853 0 -16.467233392293853 -6.0259485915149753 0 0 0 0 -122.80949993846389 -62.164250857827881 0 -62.164250857827881 45.282943452114694 0 0 0 0 -0.30949771357751743 -0.81887822089559981 0 -0.81887822089559981 -0.10167438641182987 0 0 0 0 -150.07510347130301 -92.049657645729411 0 -92.049657645729411 -33.247689519183723 0 0 0 0 -170.25740316182691 -93.909872432837005 0 -93.909872432837005 -31.786723368721937 0 0 0 0 -219.53316093768353 -97.706324998936566 0 -97.706324998936566 2.079659601024332 0 0 0 0 -167.30524601095021 -44.300636994935417 0 -44.300636994935417 49.150288452381119 0 0 0 0 -162.01785148890485 6.5894828994680665 0 6.5894828994680665 6.5318278611424603 0 0 0 0 -50.028561209997633 -15.973432400312497 0 -15.973432400312497 -14.001177133675355 0 0 0 0 -38.118479173655487 -10.267375897361426 0 -10.267375897361426 3.7326955154399855 0 0 0 0 -25.431450499281254 3.4984926453250011 0 3.4984926453250011 -2.2070609678597748 0 0 0 0 -0.31757745100120438 -0.61777863770521257 0 -0.61777863770521257 2.4246883913918973 0 0 0 0 -145.47724199949789 -73.615034142191689 0 -73.615034142191689 13.42102771782686 0 0 0 0 -145.49315589096568 -28.70339592360466 0 -28.70339592360466 80.144251701955639 0 0 0 0 -3.8307569856992814 -0.42860510791854267 0 -0.42860510791854267 1.3027108093289357 0 0 0 0 -27.296905692059113 16.159827486249593 0 16.159827486249593 33.287700169615647 0 0 0 0 7.7461200258942426 54.439670480792103 0 54.439670480792103 15.25271012155622 0 0 0 0 -8.8554932173931125 7.6206874806055742 0 7.6206874806055742 -0.95696231975500212 0 0 0 0 -40.00871695908679 4.4596903584100147 0 4.4596903584100147 6.3820122787687961 0 0 0 0 -17.175266431443333 -2.7041267494457202 0 -2.7041267494457202 18.240798217615065 0 0 0 0 59.997101051485515 4.7150356605720845 0 4.7150356605720845 -52.470567869438128 0 0 0 0 -6.7884498134722122 3.4151927377853744 0 3.4151927377853744 -1.2212373639334821 0 0 0 0 49.66598470885765 8.3840211539750271 0 8.3840211539750271 -53.540534737133385 0 0 0 0 -42.469166492440309 -22.501691635944326 0 -22.501691635944326 108.26626129957685 0 0 0 0 2.5683435877963348 78.25473688434306 0 78.25473688434306 64.243480073583925 0 0 0 0 -37.098030242484064 8.9976764432083982 0 8.9976764432083982 5.4899651403834913 0 0 0 0 59.635993357838743 154.94663373629828 0 154.94663373629828 73.372615217558632 0 0 0 0 143.98481222262581 134.11750069222035 0 134.11750069222035 -73.871649157854108 0 0 0 0 47.372025847444093 38.867891602710188 0 38.867891602710188 -1.2856074512897067 0 0 0 0 -24.686971391098268 -27.694694719931604 0 -27.694694719931604 7.234998629689926 0 0 0 0 -37.095460974697744 -1.9868353340079778 0 -1.9868353340079778 4.0208691626921791 0 0 0 0 -259.25963479297752 -92.980436275240208 0 -92.980436275240208 -86.766245026897138 0 0 0 0 -1.8240503950112412 -0.31369599531103276 0 -0.31369599531103276 0.54160932699870323 0 0 0 0 -14.415175203404942 26.706202944707286 0 26.706202944707286 -7.2666703153772687 0 0 0 0 -170.30605749431288 -98.07329396799048 0 -98.07329396799048 -123.15786545099718 0 0 0 0 -0.30300683520109395 -1.761373138365129 0 -1.761373138365129 4.3230027044411283 0 0 0 0 -288.31683551625883 -150.27982857878715 0 -150.27982857878715 -17.320635667398165 0 0 0 0 -279.68315992684984 -79.987290385182405 0 -79.987290385182405 -20.845615457184522 0 0 0 0 -0.17074101027742827 -0.29422736729578514 0 -0.29422736729578514 0.43684083175340804 0 0 0 0 -58.12947021965374 -5.6045591786942168 0 -5.6045591786942168 -50.589717688382279 0 0 0 0 -50.081100720982249 -84.826553587774242 0 -84.826553587774242 -140.46880820787283 0 0 0 0 93.965809405461187 35.225597789161839 0 35.225597789161839 -86.771935234131433 0 0 0 0 127.94077910463636 1.7541061186096414 0 1.7541061186096414 -164.65401889064151 0 0 0 0 -130.83096134139396 -107.78952402662719 0 -107.78952402662719 -78.178991683089862 0 0 0 0 -1.7374282019216167 1.2986473230185407 0 1.2986473230185407 0.36049031791669073 0 0 0 0 -23.970684942798471 -52.829481463525553 0 -52.829481463525553 -119.66847181623507 0 0 0 0 -288.78039214941418 -53.863369809236247 0 -53.863369809236247 -92.824197373272398 0 0 0 0 -47.068515319435392 -91.220280457486069 0 -91.220280457486069 -79.475699456318125 0 0 0 0 -256.03894647447351 99.803954436510026 0 99.803954436510026 190.53293797548167 0 0 0 0 -37.419133765221694 7.5796012549921254 0 7.5796012549921254 6.7342288410575666 0 0 0 0 7.0085514934435196 80.689288200671669 0 80.689288200671669 78.523714458191478 0 0 0 0 -12.162131521386982 25.43661706882158 0 25.43661706882158 32.534532672034871 0 0 0 0 -54.904156137583414 32.3110603497203 0 32.3110603497203 73.882648451514953 0 0 0 0 -0.58374997198188794 72.653967982342309 0 72.653967982342309 75.070799504593253 0 0 0 0 -88.083444825644392 -50.825824380819206 0 -50.825824380819206 -33.595625595154956 0 0 0 0 -88.959854902346706 36.554322046820147 0 36.554322046820147 77.336771017637915 0 0 0 0 -29.3168184110109 1.5728585532914394 0 1.5728585532914394 45.202405435681101 0 0 0 0 -99.064759464676172 13.993194627362669 0 13.993194627362669 50.620979545964985 0 0 0 0 -118.55388272302298 -10.35793530224862 0 -10.35793530224862 59.089320053418859 0 0 0 0 -40.636121950580673 -8.2150392734001834 0 -8.2150392734001834 24.606783731644441 0 0 0 0 -231.18252419514374 -98.238663163496142 0 -98.238663163496142 26.840441852603675 0 0 0 0 89.418833916486619 137.8276235875407 0 137.8276235875407 87.671091473033897 0 0 0 0 -0.63726620406020018 0.035442041593803708 0 0.035442041593803708 1.5002060421320622 0 0 0 0 -5.0379489845417993 21.067528991499529 0 21.067528991499529 63.018633207095377 0 0 0 0 -104.9123548272928 20.317938000076765 0 20.317938000076765 95.410779587906291 0 0 0 0 -47.524171599794499 20.269752928019784 0 20.269752928019784 67.412732817555934 0 0 0 0 46.89732345136872 21.471305510891398 0 21.471305510891398 50.64877864614914 0 0 0 0 -120.1513229957236 10.271790467357079 0 10.271790467357079 1.9566667785009884 0 0 0 0 -0.11816180222642103 0.21457273667207488 0 0.21457273667207488 3.6146543094930128 0 0 0 0 -171.23432054924706 -69.642311283812461 0 -69.642311283812461 30.45462817803292 0 0 0 0 -63.364735795405068 -9.7096236632787054 0 -9.7096236632787054 -25.416988739505598 0 0 0 0 -56.731626776327175 -41.886609420974537 0 -41.886609420974537 76.237808894625914 0 0 0 0 -90.450711718804996 -23.218306947354392 0 -23.218306947354392 27.395755611059826 0 0 0 0 -136.7814693278815 -3.2589363767990562 0 -3.2589363767990562 65.517036391338024 0 0 0 0 333.93770348379257 -53.753415941011781 0 -53.753415941011781 -396.86477654432565 0 0 0 0 -8.6124959917917039 -2.4522057715089112 0 -2.4522057715089112 4.9587961275131107 0 0 0 0 -92.5154825921054 25.70379074702322 0 25.70379074702322 71.642215244650686 0 0 0 0 -44.337523978856552 45.767617078696503 0 45.767617078696503 -48.549526988124398 0 0 0 0 -56.01560898272146 39.291003446679724 0 39.291003446679724 4.1859034592387161 0 0 0 0 -57.030251409923949 34.095809669340269 0 34.095809669340269 -4.9395205312843018 0 0 0 0 0.002451486144309456 7.9813095439158133 0 7.9813095439158133 -18.330025186065996 0 0 0 0 -105.98126224138832 74.459420653106008 0 74.459420653106008 -19.258589343725362 0 0 0 0 -121.10954208331168 45.331684716284144 0 45.331684716284144 45.25662160405318 0 0 0 0 -146.08592298774238 66.825544454915303 0 66.825544454915303 26.764207699909093 0 0 0 0 -78.315369114210625 12.859775729142257 0 12.859775729142257 50.465159869188298 0 0 0 0 -90.97761084261947 14.474236686159287 0 14.474236686159287 70.765167454968832 0 0 0 0 -30.681178985953011 10.472600583650546 0 10.472600583650546 14.983815174810843 0 0 0 0 -78.223800858403138 12.079016687001015 0 12.079016687001015 29.53616815364262 0 0 0 0 -65.507187920411525 -15.520804394337517 0 -15.520804394337517 69.865723701760302 0 0 0 0 -75.368036183817821 -5.5122995708894109 0 -5.5122995708894109 59.829910402645851 0 0 0 0 -111.0141631252045 -29.624866908795809 0 -29.624866908795809 57.518006435624898 0 0 0 0 -38.63962777618508 -25.426218362320355 0 -25.426218362320355 20.071983337252618 0 0 0 0 -46.07089810294201 -11.078701907678123 0 -11.078701907678123 45.941599690181647 0 0 0 0 -93.232889635855827 -29.552265872864552 0 -29.552265872864552 38.706093329907276 0 0 0 0 1.3441781245928723 -46.858485858589574 0 -46.858485858589574 25.328088179751376 0 0 0 0 -39.071633722629031 -26.775012316859758 0 -26.775012316859758 18.670439836287642 0 0 0 0 -0.43670949028534167 -0.48641681063550379 0 -0.48641681063550379 -1.0884814835460332 0 0 0 0 62.931984281958648 -74.329600454608681 0 -74.329600454608681 -59.411580057376199 0 0 0 0 -299.43075923038305 -11.334337832425177 0 -11.334337832425177 6.3247400503769313 0 0 0 0 -174.75160411343586 -99.206006157574677 0 -99.206006157574677 -55.548270594553628 0 0 0 0 -117.98095013508282 -16.046384507901223 0 -16.046384507901223 6.4175433134497268 0 0 0 0 -0.17143157629104167 -1.7053498026355456 0 -1.7053498026355456 -2.6216415226060432 0 0 0 0 -115.52814285662043 -14.012681142591759 0 -14.012681142591759 -15.855733235594244 0 0 0 0 -159.74265765335622 -47.937763073169833 0 -47.937763073169833 -7.070557443894927 0 0 0 0 -80.405744889152629 -30.256190743404829 0 -30.256190743404829 -17.354694491595865 0 0 0 0 -86.326241607889642 -23.762277039747573 0 -23.762277039747573 -19.990321923590955 0 0 0 0 -45.346635852511099 14.175325256391716 0 14.175325256391716 -6.65385818640857 0 0 0 0 -23.204603520194723 -13.688738762478806 0 -13.688738762478806 14.698680116735659 0 0 0 0 -7.7187218895090659 -0.76378309545539835 0 -0.76378309545539835 -3.816063503719227 0 0 0 0 -36.753534463824508 2.6711126958095406 0 2.6711126958095406 -9.0331510158914625 0 0 0 0 -22.392333825166133 -13.70117689917015 0 -13.70117689917015 13.911644757917657 0 0 0 0 -22.910237127918663 -12.925525142663901 0 -12.925525142663901 13.800749439574702 0 0 0 0 -24.76484058641654 -12.490489958885064 0 -12.490489958885064 14.084697758035645 0 0 0 0 -18.446240165325435 -7.9484469168971827 0 -7.9484469168971827 5.7689307989494409 0 0 0 0 -9.5824403608376088 -14.312579378922806 0 -14.312579378922806 9.58212421378812 0 0 0 0 -35.538204754382605 2.6639080080428812 0 2.6639080080428812 8.5693760383655899 0 0 0 0 -29.401152684905355 -7.0951261537333608 0 -7.0951261537333608 19.681959081401828 0 0 0 0 -37.24373567533712 -7.202113472354597 0 -7.202113472354597 20.623038349496255 0 0 0 0 0.18739645536373928 0.2784351840616921 0 0.2784351840616921 0.16256275703949408 0 0 0 0 -35.523064449211233 24.859800449192903 0 24.859800449192903 57.983263759542524 0 0 0 0 -47.212115719246867 64.831865690028565 0 64.831865690028565 -51.254024066685702 0 0 0 0 -11.180232171122043 30.695610255101769 0 30.695610255101769 -41.544664587091575 0 0 0 0 -63.998884415785142 33.788462094892282 0 33.788462094892282 7.7445739950055383 0 0 0 0 -50.109268856231893 26.084688202481328 0 26.084688202481328 -21.033127930243836 0 0 0 0 -9.7467084722757136 10.597033750259499 0 10.597033750259499 -20.469152190452974 0 0 0 0 -52.112073538575714 20.04688036420626 0 20.04688036420626 2.2556106168498218 0 0 0 0 -120.90236681680108 -0.75541331823694691 0 -0.75541331823694691 30.055192070909413 0 0 0 0 -92.432854908160152 2.9039487755301252 0 2.9039487755301252 -2.1692231109848876 0 0 0 0 -97.547932695983718 -34.876172896312255 0 -34.876172896312255 -30.475298387749604 0 0 0 0 -132.49776060820295 -33.168958392642651 0 -33.168958392642651 -1.1950103124313785 0 0 0 0 -135.49330315339284 -52.24625246720791 0 -52.24625246720791 -13.638569735441422 0 0 0 0 -190.2814320285579 -80.722957792977297 0 -80.722957792977297 -1.9673022988752109 0 0 0 0 -156.62774844378578 -63.00526623970358 0 -63.00526623970358 7.2572435793534851 0 0 0 0 -127.76004187502986 -85.340879360225074 0 -85.340879360225074 -51.52644433067951 0 0 0 0 -170.31433091698091 -25.641979489606172 0 -25.641979489606172 5.7856774046967985 0 0 0 0 -178.52828251146025 -19.249248746515008 0 -19.249248746515008 20.120582705829293 0 0 0 0 -57.748340407861178 32.752257681671608 0 32.752257681671608 14.80395536891001 0 0 0 0 -141.39464654493167 -27.722939777072952 0 -27.722939777072952 15.668532555017748 0 0 0 0 -201.4659517348282 10.328678331850938 0 10.328678331850938 11.499886921414657 0 0 0 0 -77.349114808559534 113.25872183261856 0 113.25872183261856 -76.922315820671201 0 0 0 0 -15.394528850602001 29.590252219944205 0 29.590252219944205 -5.7502715145594721 0 0 0 0 -66.573694605296623 48.51753737057345 0 48.51753737057345 47.476797812275322 0 0 0 0 -27.077050443711414 62.047117635880454 0 62.047117635880454 2.8453089808685945 0 0 0 0 202.18732234984736 -101.01834265735145 0 -101.01834265735145 -180.64566341509203 0 0 0 0 81.569223585571308 -290.7005907950296 0 -290.7005907950296 313.24828820395442 0 0 0 0 18.941821753754084 45.025802535317837 0 45.025802535317837 -118.32070995719937 0 0 0 0 26.630029326248405 56.186445914676199 0 56.186445914676199 -114.06723393565971 0 0 0 0 -202.68185950041152 262.25705078798916 0 262.25705078798916 -194.15849806904953 0 0 0 0 149.6995460682956 -211.73470776537459 0 -211.73470776537459 -482.03973360336943 0 0 0 0 -8.2792718313927267 2.5600690842067206 0 2.5600690842067206 -1.072132344827166 0 0 0 0 18.119496496005013 255.04939297271449 0 255.04939297271449 -429.30303739354252 0 0 0 0 -532.23612483506622 -17.888286040238427 0 -17.888286040238427 10.673282719250324 0 0 0 0 -194.4113562708435 -208.90451040990735 0 -208.90451040990735 -200.37236520550709 0 0 0 0 -65.20482862337667 -32.844392424456601 0 -32.844392424456601 -48.869395779131708 0 0 0 0 65.029124484267413 108.65028172116126 0 108.65028172116126 2.0807454124960998 0 0 0 0 -21.905048094403355 172.65371657705353 0 172.65371657705353 83.55242699159021 0 0 0 0 164.62927843601847 120.63943922876024 0 120.63943922876024 -20.212558560193202 0 0 0 0 26.931637549936568 95.880299541619479 0 95.880299541619479 127.86997498003075 0 0 0 0 -4.469426892921204 7.5444800869893909 0 7.5444800869893909 -10.573381436752307 0 0 0 0 -14.79329332387897 38.696764242765312 0 38.696764242765312 225.8133273430235 0 0 0 0 -63.562177263433114 114.53771642558712 0 114.53771642558712 192.70440296154129 0 0 0 0 -7.5356872506040347 4.4690268289951822 0 4.4690268289951822 3.6797834535371057 0 0 0 0 -24.442910743669927 13.671132256758597 0 13.671132256758597 -4.1585532095987219 0 0 0 0 -6.3712114948939416 64.660988171130384 0 64.660988171130384 203.46148875259036 0 0 0 0 -446.47849109051822 356.52977372970201 0 356.52977372970201 120.53445625612656 0 0 0 0 -537.6446365115728 -45.285395034180581 0 -45.285395034180581 456.90532040479059 0 0 0 0 -195.0684884187317 -318.41053182153661 0 -318.41053182153661 562.76367953316833 0 0 0 0 -8.2222585403749093 -0.52649285752218944 0 -0.52649285752218944 3.5194713072222754 0 0 0 0 -24.741447275375322 31.831526895250249 0 31.831526895250249 -33.659666882328565 0 0 0 0 -39.858203800160936 23.041598511496119 0 23.041598511496119 1.4534259775182363 0 0 0 0 -35.666170276092089 22.143918452831713 0 22.143918452831713 -31.376794066584125 0 0 0 0 -82.51797369800471 27.35586806600104 0 27.35586806600104 18.579426859944306 0 0 0 0 -6.8913806693238797 -1.4936433821276012 0 -1.4936433821276012 1.2315945404786035 0 0 0 0 -79.923802212231408 55.133997800878603 0 55.133997800878603 -49.262596084348111 0 0 0 0 93.569248211048716 -130.5608962004776 0 -130.5608962004776 4.1854652391714353 0 0 0 0 -96.161142323282547 -99.304298511785873 0 -99.304298511785873 313.50408346498079 0 0 0 0 120.29835677714209 -90.321131831774039 0 -90.321131831774039 55.818111707386606 0 0 0 0 64.107588285009115 -32.292788088593397 0 -32.292788088593397 159.00893858803158 0 0 0 0 9.4653732722099448 -154.89908359463777 0 -154.89908359463777 -104.07127382535327 0 0 0 0 -2.5024962453626358 -87.377298299254335 0 -87.377298299254335 139.49197813333217 0 0 0 0 79.901043939894862 -46.122010401012943 0 -46.122010401012943 24.822815917913616 0 0 0 0 -2.2581878731370866 5.4374670863511545 0 5.4374670863511545 5.1495996110976456 0 0 0 0 -20.245646390013576 174.67439983412316 0 174.67439983412316 -312.24495380229155 0 0 0 0 -244.10207779926964 62.073511929836798 0 62.073511929836798 146.72109892104493 0 0 0 0 -146.58534948784757 115.57464591261294 0 115.57464591261294 120.41010792103265 0 0 0 0 -15.319669470707169 -1.2843359449114757 0 -1.2843359449114757 -0.69557712980400277 0 0 0 0 -123.07880869025303 -86.642988699861803 0 -86.642988699861803 56.788158703697263 0 0 0 0 -42.073263431558821 -3.5218441455606357 0 -3.5218441455606357 3.0132435684391634 0 0 0 0 -12.342744496883824 -16.011770435662584 0 -16.011770435662584 -37.44814205647981 0 0 0 0 -20.441241377448023 -13.379895658858686 0 -13.379895658858686 13.245138794029117 0 0 0 0 16.615657951776484 0.46404673403100105 0 0.46404673403100105 8.1525624710707234 0 0 0 0 0.00073237473088916261 -1.8249674599448773 0 -1.8249674599448773 0.43414292719854575 0 0 0 0 -38.626822732326964 -7.8274285061755844 0 -7.8274285061755844 -3.2376887884285424 0 0 0 0 -35.914199600837584 4.9710842536753592 0 4.9710842536753592 -1.3452925103057214 0 0 0 0 -20.173412839754747 7.7243442673004665 0 7.7243442673004665 -17.155501769226163 0 0 0 0 -47.740758110538081 15.046445950949419 0 15.046445950949419 8.1130352585231549 0 0 0 0 -131.29856477618523 -209.54897088656662 0 -209.54897088656662 250.57625500059885 0 0 0 0 -83.505479378794917 -32.322038878331512 0 -32.322038878331512 -16.138996096573919 0 0 0 0 -23.974299648022164 5.8469422045359529 0 5.8469422045359529 -1.0792374209549263 0 0 0 0 -316.13365021688151 352.33012638025161 0 352.33012638025161 230.18338344841317 0 0 0 0 121.66996307897125 176.3703792156557 0 176.3703792156557 -1.6828476546832007 0 0 0 0 -75.627860712140318 -217.29126460986799 0 -217.29126460986799 193.54564114306595 0 0 0 0 56.63810156522959 -79.920887401779169 0 -79.920887401779169 -306.50881959361573 0 0 0 0 26.395361557259093 -238.42595131045721 0 -238.42595131045721 50.461378892906396 0 0 0 0 -420.14148229269267 244.05623123419491 0 244.05623123419491 -193.69606445473116 0 0 0 0 -101.48581234307176 -29.984537962627428 0 -29.984537962627428 -140.77017329088881 0 0 0 0 -446.70625483841195 -115.03352444529338 0 -115.03352444529338 -63.553175188401497 0 0 0 0 -283.20697707509089 123.4309063000623 0 123.4309063000623 -89.408182694653306 0 0 0 0 -103.26934099488062 -6.8198396804234562 0 -6.8198396804234562 -66.516781149538531 0 0 0 0 -868.01745107165152 -91.445247640044983 0 -91.445247640044983 35.654641140211709 0 0 0 0 -1.1303590735752351 1.7957847974881709 0 1.7957847974881709 -4.4634241693853003 0 0 0 0 209.1537974072171 190.92139473588941 0 190.92139473588941 -23.925773547347376 0 0 0 0 -361.65641078949216 -62.330728880858651 0 -62.330728880858651 -31.613838860403689 0 0 0 0 -359.77854497591125 -60.040723336389874 0 -60.040723336389874 -38.802620341665943 0 0 0 0 -282.99556683493302 -35.57315056579813 0 -35.57315056579813 -48.645505053983726 0 0 0 0 -138.10296439873628 80.847066372409557 0 80.847066372409557 -36.250730027013901 0 0 0 0 -271.7575257582921 -45.70762842401804 0 -45.70762842401804 -55.460704954280857 0 0 0 0 -193.75855570232488 11.517835298529747 0 11.517835298529747 -32.729006854384792 0 0 0 0 56.751050103613125 45.946299018762147 0 45.946299018762147 -53.85413344465163 0 0 0 0 -23.752650902418509 -13.203179544609064 0 -13.203179544609064 -62.081982470655362 0 0 0 0 34.852322899859701 -42.896907396621259 0 -42.896907396621259 55.876059834676198 0 0 0 0 -43.391624567529107 52.776177298462642 0 52.776177298462642 -52.720692208386481 0 0 0 0 39.717385577567711 -55.583571170731972 0 -55.583571170731972 -24.971557602388771 0 0 0 0 32.050929253544837 -77.097889509365984 0 -77.097889509365984 -74.759672804410684 0 0 0 0 -85.366019586889706 9.0918562710126025 0 9.0918562710126025 -46.472180125118655 0 0 0 0 202.04380206369933 -84.28194334117623 0 -84.28194334117623 -49.041900251247171 0 0 0 0 42.435087024097641 -55.202768354546237 0 -55.202768354546237 -22.392288990400516 0 0 0 0 4.0627914877315892 4.9739808806354562 0 4.9739808806354562 2.9609864493182281 0 0 0 0 -458.16838765895494 31.319259370167359 0 31.319259370167359 192.16682967326244 0 0 0 0 155.79855989771477 12.385444539652781 0 12.385444539652781 -43.371860907811083 0 0 0 0 54.088844125715241 -12.297749916452588 0 -12.297749916452588 66.040303770172017 0 0 0 0 46.992085363058777 26.621574380667951 0 26.621574380667951 2.919590571191975 0 0 0 0 133.2481135507071 -4.6065133735228869 0 -4.6065133735228869 -45.584440060686163 0 0 0 0 47.29722258380616 18.820952620718629 0 18.820952620718629 -26.470393073341299 0 0 0 0 25.191150922578345 53.819198108668907 0 53.819198108668907 -14.665224808510885 0 0 0 0 46.452874449032606 28.064835236245976 0 28.064835236245976 13.774826333419396 0 0 0 0 -20.399967506029498 64.878553988606853 0 64.878553988606853 -21.698347038010873 0 0 0 0 -2.6014019878161889 40.182658005066408 0 40.182658005066408 10.580733742124668 0 0 0 0 -75.339255941719784 32.653792524783313 0 32.653792524783313 -18.714698923992426 0 0 0 0 -75.375391434328776 43.042247566199563 0 43.042247566199563 -20.388778428472207 0 0 0 0 23.733850295227057 61.193116235737378 0 61.193116235737378 -50.340025931421252 0 0 0 0 -92.044207764405201 0.12262417437548123 0 0.12262417437548123 -66.384427416121071 0 0 0 0 -249.76790755192269 -73.303621186872761 0 -73.303621186872761 -91.954412367297067 0 0 0 0 -173.04282853304562 -2.2174938057885143 0 -2.2174938057885143 -82.455916162373882 0 0 0 0 -181.51392602135002 2.4311866233068002 0 2.4311866233068002 -39.774573156636727 0 0 0 0 -70.618380996668293 25.901985733043198 0 25.901985733043198 -61.436037587541279 0 0 0 0 -531.81077541994364 -112.10049087863699 0 -112.10049087863699 -31.171882812340044 0 0 0 0 -264.88675327630244 -52.100193524969463 0 -52.100193524969463 -77.111897540172862 0 0 0 0 -269.11354204724557 -22.425479196191805 0 -22.425479196191805 -250.58108624264671 0 0 0 0 -526.69771751482676 -67.175670019679075 0 -67.175670019679075 -33.409136460473633 0 0 0 0 -317.07971526715846 -62.523989072988776 0 -62.523989072988776 -20.01436988951863 0 0 0 0 -275.87217742832217 -81.894528585929834 0 -81.894528585929834 -34.807766988974514 0 0 0 0 -208.56638391397701 27.04118633470279 0 27.04118633470279 -76.212803836893258 0 0 0 0 -177.77517023469954 -58.67557412024204 0 -58.67557412024204 -11.943800980117778 0 0 0 0 -218.19603778205237 -39.485868531355734 0 -39.485868531355734 -14.703942273344488 0 0 0 0 -247.66884137934539 -78.998008370005593 0 -78.998008370005593 5.1400817730371386 0 0 0 0 -268.18384343222988 -91.936054768351454 0 -91.936054768351454 -2.1561939469824125 0 0 0 0 -119.11290143523911 48.282337748312656 0 48.282337748312656 -27.65963098989446 0 0 0 0 -163.95316756189141 -16.039144058818028 0 -16.039144058818028 -36.359179343015136 0 0 0 0 -161.37726681966797 24.762147386044944 0 24.762147386044944 -13.376451211513487 0 0 0 0 -64.967474829756611 23.660034421663447 0 23.660034421663447 -20.406832024394852 0 0 0 0 -80.820867792537058 61.197606842844806 0 61.197606842844806 8.7486536365984762 0 0 0 0 -87.133239702371611 18.542610454051129 0 18.542610454051129 7.52588613292464 0 0 0 0 -88.79392431554254 -6.1250517267301685 0 -6.1250517267301685 -7.4846825189969124 0 0 0 0 -88.015059751833178 -17.753936233880324 0 -17.753936233880324 28.143716276655809 0 0 0 0 -20.076380400912967 5.0741230054500193 0 5.0741230054500193 5.0927363791036981 0 0 0 0 -48.718529065024541 61.501986244850258 0 61.501986244850258 34.26251749593915 0 0 0 0 -183.8128276265918 -81.48870229549604 0 -81.48870229549604 -0.053517406800523304 0 0 0 0 -196.62637263991678 -47.191596366778327 0 -47.191596366778327 19.49599324944549 0 0 0 0 -106.72943602171927 -54.741533661214518 0 -54.741533661214518 8.8629901429359279 0 0 0 0 -126.30986138574281 -8.9579245158279406 0 -8.9579245158279406 37.089869248433104 0 0 0 0 -167.6184367118376 -81.947273838456312 0 -81.947273838456312 31.170955676917146 0 0 0 0 -93.014277294616477 -50.459339059529725 0 -50.459339059529725 38.774106428001119 0 0 0 0 144.49206074733593 18.91243249000695 0 18.91243249000695 44.629481048201356 0 0 0 0 -67.669141082089482 -57.680417517455737 0 -57.680417517455737 32.736505142702114 0 0 0 0 1.0932317622464325 -19.805544487591643 0 -19.805544487591643 114.94142527074052 0 0 0 0 -73.774456011498842 28.510519720240325 0 28.510519720240325 195.054259622686 0 0 0 0 -44.843211392844751 56.00046076850618 0 56.00046076850618 92.990744305026112 0 0 0 0 9.8424529734502357 39.267105946261125 0 39.267105946261125 41.396012393823412 0 0 0 0 19.796001448750758 6.2953421656419266 0 6.2953421656419266 30.293360025671781 0 0 0 0 43.587062508290728 20.747139082338151 0 20.747139082338151 13.491657348809916 0 0 0 0 -49.574759031906979 49.884909143644585 0 49.884909143644585 62.861076658201057 0 0 0 0 -18.418720662536543 73.846883038805359 0 73.846883038805359 28.745696067368513 0 0 0 0 -6.5515116454914146 8.7049806314863272 0 8.7049806314863272 0.18910913904500512 0 0 0 0 8.059001133982747 10.342675627195661 0 10.342675627195661 -18.062405113594501 0 0 0 0 1.0841910703424027 1.1959581865015987 0 1.1959581865015987 -0.67431302270951121 0 0 0 0 -4.1760339612249027 63.161788909871433 0 63.161788909871433 53.191752832406038 0 0 0 0 96.806533103545917 61.470658297028059 0 61.470658297028059 32.681328634666848 0 0 0 0 -2.179024023147853 0.49419053487788833 0 0.49419053487788833 0.22585087649515456 0 0 0 0 8.6018144835038584 57.158150426343788 0 57.158150426343788 49.585199825297146 0 0 0 0 11.733830927214285 59.659013608498462 0 59.659013608498462 4.3958247493385301 0 0 0 0 -11.556162248057262 79.088584690439205 0 79.088584690439205 31.459612833015697 0 0 0 0 -34.285032574950492 68.557177134385995 0 68.557177134385995 43.164298107953812 0 0 0 0 -20.942350687022554 48.19785463123705 0 48.19785463123705 7.6157776634488741 0 0 0 0 -30.105346406247918 45.943481636436104 0 45.943481636436104 27.645050291119333 0 0 0 0 -1.7495722877420121 2.0249406139436985 0 2.0249406139436985 -17.351935678144969 0 0 0 0 -3.0014608880383173 1.2852836899063984 0 1.2852836899063984 0.015991742414958043 0 0 0 0 -29.050044336879637 31.468247333403781 0 31.468247333403781 42.37133324413071 0 0 0 0 -27.528259206436843 0.47426497892463715 0 0.47426497892463715 -14.857451580499514 0 0 0 0 -5.8972120310033374 2.9818016816599169 0 2.9818016816599169 -0.28002637642817563 0 0 0 0 -41.378119483739283 10.8097351873555 0 10.8097351873555 39.458398517510432 0 0 0 0 -25.313345048996549 4.0985303382017735 0 4.0985303382017735 2.2762348367471748 0 0 0 0 -14.504125262876187 8.6000623634656819 0 8.6000623634656819 15.897169445452619 0 0 0 0 -17.486897623193727 5.5976134772813566 0 5.5976134772813566 -3.6758612679238354 0 0 0 0 -21.937517465512428 20.839648614784977 0 20.839648614784977 1.1171757479260123 0 0 0 0 -18.295239611116585 -10.756369574337555 0 -10.756369574337555 15.81466764225695 0 0 0 0 -70.126479093205035 -51.95500442965124 0 -51.95500442965124 42.729324436636489 0 0 0 0 -77.936399579650242 77.084136125667129 0 77.084136125667129 -50.493479468879244 0 0 0 0 -65.81540006967316 57.183722610499331 0 57.183722610499331 24.56159931319462 0 0 0 0 -161.33392527832984 16.601984850702081 0 16.601984850702081 13.049860752892975 0 0 0 0 -37.037681246677039 -31.157993670398753 0 -31.157993670398753 55.798587211687845 0 0 0 0 -67.000901437968423 -62.664012715138 0 -62.664012715138 -19.818818901317627 0 0 0 0 -1.4594270352190506 -32.44541920868528 0 -32.44541920868528 -5.8997374956608155 0 0 0 0 -3.1432180309658895 -1.5755032861815401 0 -1.5755032861815401 2.9804976426900436 0 0 0 0 23.574178798928415 -2.9341479024564023 0 -2.9341479024564023 25.118910070454262 0 0 0 0 -22.078750820725645 21.192209980989702 0 21.192209980989702 -7.5212748964775074 0 0 0 0 -22.235421284783378 5.3545027439534492 0 5.3545027439534492 1.115853872891488 0 0 0 0 -26.308498753345702 13.65289326898278 0 13.65289326898278 11.013015469212405 0 0 0 0 -140.60560593755872 -18.176515917430478 0 -18.176515917430478 -11.147605672076509 0 0 0 0 -10.23555601140637 8.495918160947177 0 8.495918160947177 -4.8485819410460262 0 0 0 0 -15.072518454648161 11.055983075931408 0 11.055983075931408 -5.9078154870998674 0 0 0 0 -4.7431137301179547 3.1561668439185127 0 3.1561668439185127 -1.5318133467730704 0 0 0 0 -96.040293748407748 -99.835826655340142 0 -99.835826655340142 -151.88999542933863 0 0 0 0 -198.56941575648489 -242.62036384437445 0 -242.62036384437445 -258.11948996584829 0 0 0 0 -331.19998400826444 -131.29012735231913 0 -131.29012735231913 -33.979974251178305 0 0 0 0 -266.41992845304776 -111.20292026616758 0 -111.20292026616758 -27.873654225392141 0 0 0 0 -257.67680597192884 -154.5773141411313 0 -154.5773141411313 -64.091249199852228 0 0 0 0 -232.65918358555064 -156.72952299732299 0 -156.72952299732299 -66.374894519426491 0 0 0 0 -272.04806627997277 -170.55857008945247 0 -170.55857008945247 -70.920441011203451 0 0 0 0 -0.67259786670343757 2.5828222492105328 0 2.5828222492105328 -0.17803430688004596 0 0 0 0 -202.38934604219685 -175.74270212228947 0 -175.74270212228947 -183.16591509869735 0 0 0 0 -234.53270973948383 -165.90693006259102 0 -165.90693006259102 -110.32929332464374 0 0 0 0 -242.86268106035277 -135.49398935384761 0 -135.49398935384761 -40.721339418989984 0 0 0 0 -196.03998260182379 -149.30358128761293 0 -149.30358128761293 -126.62007993835718 0 0 0 0 -215.50530759260255 -126.83648336835654 0 -126.83648336835654 -71.809072992673407 0 0 0 0 -187.95945602686606 -116.87622786655749 0 -116.87622786655749 -61.095503227100338 0 0 0 0 -219.7926351022179 -118.3007147047721 0 -118.3007147047721 -21.160531403017899 0 0 0 0 -220.53738661178068 -122.12384785296757 0 -122.12384785296757 -21.309584140160787 0 0 0 0 -242.07401068769468 -120.08250015119934 0 -120.08250015119934 -5.5168335307536864 0 0 0 0 -209.46366886089891 -112.33804677598636 0 -112.33804677598636 -15.710262904897732 0 0 0 0 -247.38197943281193 -114.93063694737447 0 -114.93063694737447 -28.160358544072345 0 0 0 0 -250.24339378916557 -104.39195771361162 0 -104.39195771361162 -17.003254939757902 0 0 0 0 -229.05471194049278 -132.7982782096966 0 -132.7982782096966 -40.318182534914072 0 0 0 0 -247.94242668202423 -93.260608123526836 0 -93.260608123526836 27.815418296912327 0 0 0 0 -209.78779116993547 -111.87785258438694 0 -111.87785258438694 -5.5851806446465559 0 0 0 0 -220.54470052980287 -100.76815765451454 0 -100.76815765451454 19.426180164974284 0 0 0 0 -210.76280211751873 -85.701141375642379 0 -85.701141375642379 25.730549227418592 0 0 0 0 -223.88765877736114 -112.90133657516354 0 -112.90133657516354 -20.214398197099392 0 0 0 0 -232.18279665883529 -116.95421460382961 0 -116.95421460382961 63.169060823031714 0 0 0 0 -180.33424792513415 -111.41106781264578 0 -111.41106781264578 22.202848674336799 0 0 0 0 -178.19572987188167 -74.151974186801013 0 -74.151974186801013 27.765386400205777 0 0 0 0 -155.43755219389004 -135.91036675632733 0 -135.91036675632733 48.494864167799534 0 0 0 0 -2.0944506043963145 0.15149431524215884 0 0.15149431524215884 -0.0056512927295702536 0 0 0 0 -175.38301928321789 -163.92230385748078 0 -163.92230385748078 55.243244213443973 0 0 0 0 -288.24363088850805 -122.92537230701083 0 -122.92537230701083 59.06067753388777 0 0 0 0 -381.93741002726574 -71.987503382518312 0 -71.987503382518312 52.19789730152263 0 0 0 0 -263.43858077401637 -110.51838439779623 0 -110.51838439779623 61.86139749041206 0 0 0 0 -300.02530949340871 -125.19682133344607 0 -125.19682133344607 64.717438366343103 0 0 0 0 -258.59443584861992 -74.080891814283518 0 -74.080891814283518 43.140062941922736 0 0 0 0 -305.03925191158851 -35.909995738670304 0 -35.909995738670304 18.147295908829165 0 0 0 0 -270.30997872895114 44.014875092315123 0 44.014875092315123 -112.24512015049152 0 0 0 0 -403.52930402076504 20.598473392177574 0 20.598473392177574 4.9881841119350838 0 0 0 0 -291.11843497641257 103.83830190873365 0 103.83830190873365 -128.74793465714657 0 0 0 0 -87.180968806472265 22.023121021308782 0 22.023121021308782 -99.164167211335354 0 0 0 0 -225.14342433218644 -50.388899676205497 0 -50.388899676205497 53.478845692680011 0 0 0 0 35.346846288443203 29.988187933538981 0 29.988187933538981 -77.164783541345571 0 0 0 0 0.52894529783065725 -0.84639255067039176 0 -0.84639255067039176 0.26223509773239451 0 0 0 0 -111.36575554215005 40.658921469417578 0 40.658921469417578 61.298277148655217 0 0 0 0 -90.277588909407086 21.95502044620056 0 21.95502044620056 35.373113721508531 0 0 0 0 -116.79614803680852 71.354096326555208 0 71.354096326555208 23.520194425304737 0 0 0 0 -144.83457568088784 111.84095883214316 0 111.84095883214316 -0.55658948725300661 0 0 0 0 -92.114884800424079 48.70642442120959 0 48.70642442120959 -148.5004087229874 0 0 0 0 5.982146217987065 -11.566399039071163 0 -11.566399039071163 -79.468229813434505 0 0 0 0 -0.4942379507032868 0.97301480339814317 0 0.97301480339814317 -1.2966774680130371 0 0 0 0 1.5773016197836114 43.615704749711426 0 43.615704749711426 -95.3378140203763 0 0 0 0 5.0969384710970189 11.035081930828397 0 11.035081930828397 -20.061185676195461 0 0 0 0 -36.456764725097855 19.094261727384264 0 19.094261727384264 -16.590561494229178 0 0 0 0 -172.32325293982194 -85.268435672070609 0 -85.268435672070609 31.113702086783974 0 0 0 0 -89.667520809719463 -51.489058417487144 0 -51.489058417487144 43.281830242978486 0 0 0 0 -21.000778555401666 -59.558864886209243 0 -59.558864886209243 -57.571943219409533 0 0 0 0 30.089468993735295 -17.495637888869602 0 -17.495637888869602 -69.905086455201229 0 0 0 0 -110.26245587099311 -128.6006666437234 0 -128.6006666437234 -84.596812902577113 0 0 0 0 -53.183434741126803 -6.5373206411230331 0 -6.5373206411230331 -144.48928302417741 0 0 0 0 -120.57950778696704 -24.262468354054995 0 -24.262468354054995 -102.43768270570266 0 0 0 0 -141.71038190888498 -61.934307678820488 0 -61.934307678820488 -112.90638654240905 0 0 0 0 -93.579614365674246 -100.59704868730445 0 -100.59704868730445 -49.481813548447803 0 0 0 0 -151.8606938459302 -133.45914507424811 0 -133.45914507424811 56.82752749305655 0 0 0 0 -117.31808946871297 -151.44597457327131 0 -151.44597457327131 1.8120924101195897 0 0 0 0 -134.13877974093464 -105.07546023270272 0 -105.07546023270272 42.551544123936992 0 0 0 0 -173.70446020251256 4.1303185984028232 0 4.1303185984028232 35.000341036283203 0 0 0 0 -148.48906652645402 56.567914840521624 0 56.567914840521624 -54.022903072760187 0 0 0 0 -134.81063373380221 -159.16884923906213 0 -159.16884923906213 -44.314375464507265 0 0 0 0 -352.60270008196085 -185.43295206455508 0 -185.43295206455508 -173.93064860318344 0 0 0 0 -95.828512804720958 -14.45642285458365 0 -14.45642285458365 -377.04441472943654 0 0 0 0 -285.59078970322389 11.488316203633531 0 11.488316203633531 -66.533936494114243 0 0 0 0 -492.64110861511267 106.69485874379936 0 106.69485874379936 -105.04910490177812 0 0 0 0 -420.8895956926799 -89.154501966574102 0 -89.154501966574102 34.62694205198094 0 0 0 0 -153.10808787746646 163.26139520936397 0 163.26139520936397 -229.43232283698995 0 0 0 0 134.2564122273061 -82.833531228480751 0 -82.833531228480751 -127.53392996944584 0 0 0 0 -343.53399753759231 217.23726975915412 0 217.23726975915412 -215.19923082618394 0 0 0 0 -132.7130605377663 222.06788734557642 0 222.06788734557642 -349.21332193725283 0 0 0 0 -3.6999676738432026 0.36639618016124897 0 0.36639618016124897 0.22545169559931177 0 0 0 0 -23.813367882943908 93.04794605626617 0 93.04794605626617 -300.282870460911 0 0 0 0 -141.45290372607269 103.95136602657226 0 103.95136602657226 -96.632637520200774 0 0 0 0 -42.008731924430322 119.02006739743445 0 119.02006739743445 -94.831805003725492 0 0 0 0 -94.664206482782106 90.947992690356955 0 90.947992690356955 66.432103224034563 0 0 0 0 -113.80373737212653 2.8145237265654259 0 2.8145237265654259 213.40024582209389 0 0 0 0 -60.354795233013419 66.660212394146697 0 66.660212394146697 50.500522416342164 0 0 0 0 19.239448998072703 -74.136052123135869 0 -74.136052123135869 134.9081790165917 0 0 0 0 -2.2413430753198487 0.62212097374951481 0 0.62212097374951481 3.1518439071946265 0 0 0 0 -1.882743332363134 -5.3269256169928667 0 -5.3269256169928667 70.473984980559862 0 0 0 0 -25.014821629002199 -1.7694997189204287 0 -1.7694997189204287 161.93007529314195 0 0 0 0 0.96322196244273073 35.883786902482143 0 35.883786902482143 45.34389520458717 0 0 0 0 3.9876283451995391 20.121307506440374 0 20.121307506440374 12.606876860073953 0 0 0 0 94.604266466792069 73.59093708715659 0 73.59093708715659 52.886591519504577 0 0 0 0 -120.66117994062506 -109.15361509499445 0 -109.15361509499445 199.90604541012999 0 0 0 0 -14.949326223394593 -96.221465703016221 0 -96.221465703016221 109.79836599232499 0 0 0 0 -60.727554627313566 -95.186638012460548 0 -95.186638012460548 38.551490792045826 0 0 0 0 -106.92028730863581 -163.94640095206927 0 -163.94640095206927 77.509224907240878 0 0 0 0 -1.5607700452032001 -0.99563218355108374 0 -0.99563218355108374 0.20089860808590565 0 0 0 0 -191.92476707528772 -56.700190702829957 0 -56.700190702829957 8.2244617244374467 0 0 0 0 -261.37861689802367 132.35116238401412 0 132.35116238401412 -23.760550899410219 0 0 0 0 -47.253070952782764 10.000312840035122 0 10.000312840035122 -2.9127204166877618 0 0 0 0 -20.882438457368835 13.341682736794603 0 13.341682736794603 18.338933681106965 0 0 0 0 -11.501645402307858 0.99318578774390709 0 0.99318578774390709 -0.43501350312299625 0 0 0 0 -3.2082609954885624 10.141602034720798 0 10.141602034720798 -8.9721348398312131 0 0 0 0 -11.391097907997061 3.6835326216465827 0 3.6835326216465827 -0.48438087974528576 0 0 0 0 -2.6792364539830942 22.622475719404349 0 22.622475719404349 -29.537666958795285 0 0 0 0 -13.449516800398204 7.4586538174134933 0 7.4586538174134933 -5.4877209215773775 0 0 0 0 -10.191676104157068 34.988619972904246 0 34.988619972904246 -2.8411679077886447 0 0 0 0 9.9186711825732345 47.449571029793333 0 47.449571029793333 -100.5507099739412 0 0 0 0 -8.5602933783333075 -0.055978085476747402 0 -0.055978085476747402 1.0295202594235746 0 0 0 0 -74.63795801881588 -10.105240917101455 0 -10.105240917101455 104.49616372314141 0 0 0 0 12.584398450130891 -40.535590651882757 0 -40.535590651882757 -25.938598985052693 0 0 0 0 -6.5071768706574025 0.26366149933684457 0 0.26366149933684457 0.24267414383520694 0 0 0 0 -103.83879870245801 131.61941217981649 0 131.61941217981649 67.753550794422154 0 0 0 0 -49.297770641776566 78.808752479122205 0 78.808752479122205 -85.034042840682559 0 0 0 0 -38.059484679172556 116.59656796052241 0 116.59656796052241 -70.645247765174588 0 0 0 0 -33.790734366759352 94.476481867446694 0 94.476481867446694 -77.275300834652882 0 0 0 0 -74.31670263484807 60.569049949846089 0 60.569049949846089 -45.826417673262995 0 0 0 0 -69.51920803172618 100.25497635515205 0 100.25497635515205 43.696413120790339 0 0 0 0 -2.5252974635046712 109.61287949440043 0 109.61287949440043 44.527697870301836 0 0 0 0 -38.188584709413135 21.538067818242098 0 21.538067818242098 115.45213004630659 0 0 0 0 -1.3369295163781532 0.49557150619103307 0 0.49557150619103307 -0.26717568704805306 0 0 0 0 -25.552526974461273 -16.89952541432649 0 -16.89952541432649 -8.1598152428505273 0 0 0 0 -126.15697574322451 -55.247555462203763 0 -55.247555462203763 -21.884175180323837 0 0 0 0 0.682622620669596 0.58493337008636415 0 0.58493337008636415 -1.248971775345006 0 0 0 0 -150.30825884475399 17.872482092644475 0 17.872482092644475 10.363531324071573 0 0 0 0 -67.741023052222545 44.883550960256571 0 44.883550960256571 -34.530778456967255 0 0 0 0 -47.864267400163953 3.5284262140137059 0 3.5284262140137059 -24.227298901576887 0 0 0 0 -0.59345230966815232 -1.1116332910955089 0 -1.1116332910955089 -5.48973644571804 0 0 0 0 -3.8907384579119935 10.516023493616444 0 10.516023493616444 -27.393360847819622 0 0 0 0 -57.308113141637818 0.076771344173550915 0 0.076771344173550915 2.2516356621363229 0 0 0 0 -3.1668769836069259 -0.49756347651080546 0 -0.49756347651080546 -4.3940256835886089 0 0 0 0 0.38244278099389639 -3.4286628960680297 0 -3.4286628960680297 -6.4516635331618915 0 0 0 0 -141.71493482398546 1.7298749243504972 0 1.7298749243504972 -4.2996725831179674 0 0 0 0 -204.55033121538781 59.969341011504412 0 59.969341011504412 -48.918489999743088 0 0 0 0 -107.24858665874444 -55.312336414047195 0 -55.312336414047195 -33.80343862099744 0 0 0 0 1.9461928210015245 1.116082703687642 0 1.116082703687642 -1.1363345767518314 0 0 0 0 -1057.9895486269625 -597.57952687563056 0 -597.57952687563056 -43.128554468064067 0 0 0 0 -1.5293026463029662 0.10710767074644956 0 0.10710767074644956 -8.2134625819561506 0 0 0 0 -143.23734403893286 67.266629197068482 0 67.266629197068482 -5.4099994013604373 0 0 0 0 -160.4904943827205 89.910488878148499 0 89.910488878148499 -17.886192935857707 0 0 0 0 -171.82564934658512 92.905501869560567 0 92.905501869560567 -9.972131163372751 0 0 0 0 -164.7563383554043 102.59081176295763 0 102.59081176295763 -10.453446206270655 0 0 0 0 -145.82150301604997 93.788286525841443 0 93.788286525841443 -18.374166647568245 0 0 0 0 -129.99973093915833 113.03749465844089 0 113.03749465844089 -21.732846479750549 0 0 0 0 -104.21811362897824 99.85921669447356 0 99.85921669447356 -36.027718773420474 0 0 0 0 -137.37443404295118 56.300261450174276 0 56.300261450174276 -55.166368164130063 0 0 0 0 -135.89002526768127 38.32219968929121 0 38.32219968929121 -73.515985102780178 0 0 0 0 -115.77814503626087 70.303637573464073 0 70.303637573464073 -83.263997027194137 0 0 0 0 -129.30176215318534 98.513955494961806 0 98.513955494961806 -38.151561025252931 0 0 0 0 -133.4912134100814 107.52846758515989 0 107.52846758515989 -232.37210121996759 0 0 0 0 -7.5568510551522685 -2.8943240014622891 0 -2.8943240014622891 -1.3146631903162902 0 0 0 0 -127.67178667893995 589.29271108621174 0 589.29271108621174 -27.008227986169004 0 0 0 0 -82.039144446989667 -166.46470435537572 0 -166.46470435537572 -92.991820260472196 0 0 0 0 -44.356228417966122 -18.099710302150925 0 -18.099710302150925 37.531322695522476 0 0 0 0 -24.401806475487135 -6.9669421636586977 0 -6.9669421636586977 -2.5057217125465581 0 0 0 0 -71.406640763298128 24.828861909783427 0 24.828861909783427 42.171681419473316 0 0 0 0 -38.387229677702635 25.4375216798162 0 25.4375216798162 21.405081293055446 0 0 0 0 -2.975131960412309 0.73418935561658216 0 0.73418935561658216 0.13423744385145753 0 0 0 0 -41.805076619170677 48.033731494370159 0 48.033731494370159 3.1003945308589209 0 0 0 0 -71.810531000475748 13.325393919662702 0 13.325393919662702 17.214333625687686 0 0 0 0 -123.5535920193588 26.694857578714391 0 26.694857578714391 28.651852329085614 0 0 0 0 -25.4917254808351 -78.71553452146641 0 -78.71553452146641 42.249799353693561 0 0 0 0 -119.56234839313038 18.891862491672555 0 18.891862491672555 -22.303782346602929 0 0 0 0 -306.56967846655061 -96.555368083955955 0 -96.555368083955955 48.706311975654103 0 0 0 0 -417.26009752666459 30.547894595714695 0 30.547894595714695 45.984130943449372 0 0 0 0 -311.6424317398214 76.525163334994659 0 76.525163334994659 -65.158611368748552 0 0 0 0 -405.4069648803179 -9.6687377227437992 0 -9.6687377227437992 -31.619768313514669 0 0 0 0 -214.94847438409124 -41.376187350989881 0 -41.376187350989881 -86.805660635756624 0 0 0 0 -187.33476679405567 8.905866332630012 0 8.905866332630012 1.1901303747515612 0 0 0 0 -196.61211855332203 -24.424387629311695 0 -24.424387629311695 -20.176167094741231 0 0 0 0 38.54816115332801 -1.960376271279074 0 -1.960376271279074 -45.686436807145128 0 0 0 0 -72.543971024490446 17.073277520805796 0 17.073277520805796 -39.056105127864612 0 0 0 0 -121.98675612144143 38.270319930280948 0 38.270319930280948 -24.199953884859724 0 0 0 0 -117.89173047291752 -33.598563470001068 0 -33.598563470001068 -42.889473642636233 0 0 0 0 -72.585051580445679 15.938215811156788 0 15.938215811156788 35.065750334533277 0 0 0 0 0.41678522937980933 -0.31813555189560283 0 -0.31813555189560283 -0.76398958067349199 0 0 0 0 5.599010142777388 -2.2609783071734455 0 -2.2609783071734455 0.42013268687156824 0 0 0 0 3.7271878722989165 0.99506408474458174 0 0.99506408474458174 -5.2305007629755123 0 0 0 0 27.716877815015778 155.03076419908177 0 155.03076419908177 -4.0075574244201562 0 0 0 0 -64.957954791505472 316.43070451687436 0 316.43070451687436 -161.53555368556863 0 0 0 0 -217.92229370278073 423.10143413391052 0 423.10143413391052 -229.97295777364945 0 0 0 0 68.270615885902771 -260.24238046403025 0 -260.24238046403025 158.78490285732073 0 0 0 0 13.392320375919553 52.014533168149455 0 52.014533168149455 88.716972651327751 0 0 0 0 -580.09448209705261 340.49115581644173 0 340.49115581644173 15.060645124097391 0 0 0 0 -621.0701954312317 -136.05406065935631 0 -136.05406065935631 256.55470958491469 0 0 0 0 -235.62580849094775 86.837931482502881 0 86.837931482502881 192.29890015808087 0 0 0 0 -28.325072194315908 109.89938315678421 0 109.89938315678421 11.364606241972979 0 0 0 0 -0.900195058241132 1.747959480767074 0 1.747959480767074 0.52405826033595559 0 0 0 0 -237.7741753448372 171.31104672845879 0 171.31104672845879 -70.469286432239613 0 0 0 0 -0.50540924901022777 0.24167002379259017 0 0.24167002379259017 -0.56130308371403825 0 0 0 0 -14.489499351219191 6.268455156701763 0 6.268455156701763 0.43681981804757175 0 0 0 0 42.944733800598584 -23.540801142201072 0 -23.540801142201072 -12.52853488487608 0 0 0 0 -11.00335976593442 10.758024976317042 0 10.758024976317042 -0.75489437910303003 0 0 0 0 -143.0317622985749 38.909724555223875 0 38.909724555223875 20.22033686450618 0 0 0 0 -10.928627198906611 12.732694380958392 0 12.732694380958392 -2.1951357668656897 0 0 0 0 -9.0808719290573876 10.325897694907654 0 10.325897694907654 -1.9439109131632648 0 0 0 0 -16.2148239757515 7.7357244296276022 0 7.7357244296276022 15.854246456859631 0 0 0 0 -10.817642487151033 11.875889855412254 0 11.875889855412254 2.4813797411839005 0 0 0 0 -11.472672408686343 9.2829735009309502 0 9.2829735009309502 0.091382508145529062 0 0 0 0 -88.163363006723557 0.25923089073421579 0 0.25923089073421579 2.5767667995765748 0 0 0 0 -139.64870395380603 -20.149447936700994 0 -20.149447936700994 -5.5115643297527868 0 0 0 0 -0.28181842044313932 7.4410857870378866 0 7.4410857870378866 1.7743762039112605 0 0 0 0 -148.69648161389523 37.282126782428605 0 37.282126782428605 -3.9031762538368184 0 0 0 0 1.4666691059031969 5.0193007703611698 0 5.0193007703611698 -3.2420458935678025 0 0 0 0 -14.178606476074492 9.8346818270152738 0 9.8346818270152738 -0.378775179419506 0 0 0 0 -186.3816291041212 43.16381112347193 0 43.16381112347193 13.936844104362081 0 0 0 0 -186.28280454862221 -5.1420789170770451 0 -5.1420789170770451 59.146660157457468 0 0 0 0 -210.66241046407504 21.527460046140874 0 21.527460046140874 32.902339347626331 0 0 0 0 -324.0618990026851 -16.037438436322248 0 -16.037438436322248 22.344777666077334 0 0 0 0 -174.59837611671173 -38.771671198970324 0 -38.771671198970324 1.3720097867847016 0 0 0 0 -21.104245586226625 3.9254379704162545 0 3.9254379704162545 37.816371894848004 0 0 0 0 -142.66642762708011 8.8292073715374073 0 8.8292073715374073 47.827503311015818 0 0 0 0 -42.836751956278704 47.129106825647433 0 47.129106825647433 -7.2096733454003186 0 0 0 0 -246.99352859675628 35.13414236570469 0 35.13414236570469 69.097486088431879 0 0 0 0 14.570755277828084 127.68093056402279 0 127.68093056402279 67.850600532424778 0 0 0 0 -139.43578030618573 -49.045322380453626 0 -49.045322380453626 27.72799204875048 0 0 0 0 -225.23938936264176 -31.457909125469598 0 -31.457909125469598 41.872989232127793 0 0 0 0 157.67439630080025 -45.312742706311838 0 -45.312742706311838 -534.38254413784921 0 0 0 0 -363.23446130716013 -256.05997470200458 0 -256.05997470200458 -118.5926757978666 0 0 0 0 -3.7426849577711749 1.7461349813471922 0 1.7461349813471922 -1.5878707133888863 0 0 0 0 -441.09218619197742 65.347372675694984 0 65.347372675694984 201.34815458873095 0 0 0 0 -386.73202612276236 -403.43593956505526 0 -403.43593956505526 -413.5964228028638 0 0 0 0 -0.68101905940557117 -84.475923687199497 0 -84.475923687199497 37.774321913160861 0 0 0 0 4.0503815925831077 -9.2937385912822492 0 -9.2937385912822492 44.907332717675217 0 0 0 0 -12.753250483416247 -9.5714891309588861 0 -9.5714891309588861 -6.5622692073682405 0 0 0 0 35.894282824988068 316.2031792593375 0 316.2031792593375 45.250278908637256 0 0 0 0 327.24446064820768 281.97655974454347 0 281.97655974454347 -456.06792152817218 0 0 0 0 -67.013290498576907 56.427913433178219 0 56.427913433178219 -8.6370791750247236 0 0 0 0 -23.745476644406153 78.304762008640182 0 78.304762008640182 -162.69059438069075 0 0 0 0 -62.391256456140695 47.912430114077779 0 47.912430114077779 -2.9724250183724052 0 0 0 0 4.1010736216209471 5.922121926293384 0 5.922121926293384 5.6543741430089414 0 0 0 0 0.48570245636696385 9.3952241850683222 0 9.3952241850683222 8.7438973158054942 0 0 0 0 34.620491138613488 33.779731557376437 0 33.779731557376437 1.1075390192097814 0 0 0 0 49.695487504890536 50.284677838838938 0 50.284677838838938 16.86056494719848 0 0 0 0 -8.2741581605839478 8.2696444046207098 0 8.2696444046207098 -1.9676598855436946 0 0 0 0 -18.895235949748553 37.33708462253793 0 37.33708462253793 -34.82173376483297 0 0 0 0 -130.26472894414701 43.937600818905025 0 43.937600818905025 -4.5779542108693647 0 0 0 0 -152.68420268464479 28.935860187030812 0 28.935860187030812 3.2034758203749334 0 0 0 0 18.532297481900173 -47.340052653907122 0 -47.340052653907122 70.003805311002907 0 0 0 0 -4.9181433404243649 -3.7681973490284628 0 -3.7681973490284628 -2.3898908978186482 0 0 0 0 -175.9422698838755 59.058334014223306 0 59.058334014223306 -2.1588711743710007 0 0 0 0 -152.27105892490727 83.359331358049985 0 83.359331358049985 -59.619289451513851 0 0 0 0 -151.92832172521719 24.457967904095398 0 24.457967904095398 -3.8246429904472734 0 0 0 0 12.315914609491301 -15.275456622426645 0 -15.275456622426645 4.0985841355307002 0 0 0 0 -192.87096509116373 -31.820501203523577 0 -31.820501203523577 25.129905164607408 0 0 0 0 -129.08149426836235 3.2652819592739206 0 3.2652819592739206 49.556846580715728 0 0 0 0 -131.5723730533864 39.573544314046444 0 39.573544314046444 6.9125447533524493 0 0 0 0 -136.94413024015557 9.4000192314958895 0 9.4000192314958895 25.905621862355588 0 0 0 0 -204.24030979307719 23.277349769367575 0 23.277349769367575 13.254243648290412 0 0 0 0 12.654260113944019 62.02403425524858 0 62.02403425524858 -27.141789871398259 0 0 0 0 -2.7392779636252422 -1.4075580965818952 0 -1.4075580965818952 -0.58855531550971119 0 0 0 0 -53.881337238760352 -38.077020604357585 0 -38.077020604357585 39.039198039308616 0 0 0 0 -10.615304625479856 -8.4410902136804022 0 -8.4410902136804022 -5.315081781735282 0 0 0 0 55.819163870251941 -4.9260268878547322 0 -4.9260268878547322 -1.0845633117770603 0 0 0 0 86.288925581480953 35.472729006180167 0 35.472729006180167 -17.774797229974922 0 0 0 0 17.076780855811194 23.910878686648033 0 23.910878686648033 -17.297271539599564 0 0 0 0 9.5707575862251133 20.319451376032134 0 20.319451376032134 16.054842000627332 0 0 0 0 0.43321649143049457 -5.7428809148466584 0 -5.7428809148466584 -3.5167616726945408 0 0 0 0 -144.91732401215268 40.433157641440289 0 40.433157641440289 29.327628239072737 0 0 0 0 -42.031776355821648 -22.290271585314372 0 -22.290271585314372 -0.60648676565631376 0 0 0 0 -98.463048395569103 41.303601793913472 0 41.303601793913472 11.954416123141527 0 0 0 0 -162.10780783504038 75.030281465694713 0 75.030281465694713 -21.449430725668208 0 0 0 0 -210.45821539073677 28.647482828184252 0 28.647482828184252 23.222738465955558 0 0 0 0 -158.13422887226716 48.541599633876785 0 48.541599633876785 6.2313116201485172 0 0 0 0 -144.72194841622712 17.405764640603877 0 17.405764640603877 25.085547447969248 0 0 0 0 -84.010960066844973 28.745113186553908 0 28.745113186553908 -8.4541948760827381 0 0 0 0 -126.36232705079749 -68.976541207920206 0 -68.976541207920206 -33.468698715650362 0 0 0 0 -51.710954735676978 50.231901581677164 0 50.231901581677164 -60.571252135630502 0 0 0 0 -1.6115179381907119 0.53085028356462338 0 0.53085028356462338 0.0098687794764684145 0 0 0 0 -95.536245226895517 15.918689270179016 0 15.918689270179016 -90.670550697029057 0 0 0 0 -222.994826621443 -60.629161293639868 0 -60.629161293639868 18.612369497885993 0 0 0 0 -148.12006162990156 -9.5333363831419433 0 -9.5333363831419433 49.837847395812332 0 0 0 0 -229.66236859124371 -18.123547454455839 0 -18.123547454455839 9.8104592979897234 0 0 0 0 0.3267909276864811 0.91550605993029288 0 0.91550605993029288 0.81249958973397929 0 0 0 0 6.7615110700428431 -17.793263212064289 0 -17.793263212064289 -17.11427852177269 0 0 0 0 -43.846031192770624 -7.5818286676561684 0 -7.5818286676561684 15.889719455538625 0 0 0 0 32.676011676126564 47.94217727714954 0 47.94217727714954 -22.542540836710259 0 0 0 0 -81.970109146650884 -28.321622029637297 0 -28.321622029637297 0.041604751841191501 0 0 0 0 3.9526784547571108 -6.8375657046673926 0 -6.8375657046673926 0.45299294865335149 0 0 0 0 -155.82414713373402 35.308648341392285 0 35.308648341392285 80.37488000285839 0 0 0 0 -7.5341627708892247 11.139950847497403 0 11.139950847497403 11.70821588070703 0 0 0 0 -23.242731898842749 -16.193091359126129 0 -16.193091359126129 -9.8090725549077433 0 0 0 0 -2.7370497293330658 1.3144215428242121 0 1.3144215428242121 3.0422292387937109 0 0 0 0 -8.6537403587335202 -9.201692337120198 0 -9.201692337120198 7.1145620911036609 0 0 0 0 -56.521380576725505 -4.9613472016428659 0 -4.9613472016428659 13.135293324837676 0 0 0 0 -21.656053582403047 4.1318416633009605 0 4.1318416633009605 4.9269952828391652 0 0 0 0 150.01891290946946 28.715337358628833 0 28.715337358628833 -102.24619452169163 0 0 0 0 24.284974391403921 -62.14533968392692 0 -62.14533968392692 9.0268932939958688 0 0 0 0 -131.84185047122469 127.69561837596353 0 127.69561837596353 -196.29158677574674 0 0 0 0 -26.109212335231746 -123.79511606196891 0 -123.79511606196891 -262.05663080288105 0 0 0 0 -121.69502297748841 25.963432133206879 0 25.963432133206879 55.415309187585535 0 0 0 0 8.0914197965437324 -12.437374601823539 0 -12.437374601823539 99.904517377371775 0 0 0 0 -139.65479409500131 -189.22401530834696 0 -189.22401530834696 165.17624845233223 0 0 0 0 -54.504614728788042 -10.210296253144715 0 -10.210296253144715 5.5421176260483325 0 0 0 0 -72.773334625322605 4.3681024530442301 0 4.3681024530442301 -10.390292329899239 0 0 0 0 -9.9526583855390172 3.2001483468561851 0 3.2001483468561851 1.4367248898875591 0 0 0 0 -14.430808077722759 -3.5502941763529634 0 -3.5502941763529634 1.3831159382916667 0 0 0 0 -69.855364285170253 7.0788967552476834 0 7.0788967552476834 -7.8788196504410735 0 0 0 0 -16.48033270639791 -6.0778212288647318 0 -6.0778212288647318 0.88166397860535817 0 0 0 0 -25.16384177108776 -6.318385522323144 0 -6.318385522323144 4.2230401680157748 0 0 0 0 -25.03551366445663 -27.55808274548815 0 -27.55808274548815 5.8246111821463273 0 0 0 0 -4.9246760250778578 0.66899432830332861 0 0.66899432830332861 0.13634966455633935 0 0 0 0 -186.61758434210878 -91.408916841838163 0 -91.408916841838163 26.341441760986186 0 0 0 0 -306.92669713233954 1.0814030026103865 0 1.0814030026103865 50.83976479395966 0 0 0 0 -157.81973379288593 -250.1844325456081 0 -250.1844325456081 17.544685432491747 0 0 0 0 -186.96131833997617 156.41708557302979 0 156.41708557302979 45.221323341958964 0 0 0 0 -28.488670486337924 123.20953075807256 0 123.20953075807256 -182.00344054868407 0 0 0 0 -61.30624982213385 64.090873927140024 0 64.090873927140024 -20.037410187083196 0 0 0 0 -55.550464712225768 -7.4180606736108823 0 -7.4180606736108823 5.1555309448232389 0 0 0 0 40.880242190978606 55.975616990925801 0 55.975616990925801 -41.759305856147193 0 0 0 0 -80.150000844730187 -33.453608096846921 0 -33.453608096846921 156.90919362799036 0 0 0 0 -104.35923506533072 -40.155222057725894 0 -40.155222057725894 146.35489638386025 0 0 0 0 -92.035675739252838 -59.066962833829621 0 -59.066962833829621 85.083241936472973 0 0 0 0 -30.933214206487719 30.915541318553963 0 30.915541318553963 -78.316136886091499 0 0 0 0 -1.6006212596708842 -0.74884574238783941 0 -0.74884574238783941 5.2141783545226774 0 0 0 0 -179.25930638378486 5.5367251295522237 0 5.5367251295522237 18.042317905745392 0 0 0 0 -203.28332836645859 116.4588712875684 0 116.4588712875684 31.617332686503772 0 0 0 0 -118.71299427646954 -15.272399122859127 0 -15.272399122859127 92.31024167477878 0 0 0 0 -79.931801646831445 47.517440075764284 0 47.517440075764284 26.646611648053053 0 0 0 0 -21.417775612429978 -10.648319119773873 0 -10.648319119773873 27.666067046910825 0 0 0 0 24.179301343818679 -5.0658218891888716 0 -5.0658218891888716 72.851694842246104 0 0 0 0 -71.471161474048131 7.2201830814755112 0 7.2201830814755112 -9.256594441127163 0 0 0 0 -6.2860291817670415 4.3792035557813058 0 4.3792035557813058 -13.588745397597167 0 0 0 0 -79.587407087012707 20.415864867530303 0 20.415864867530303 -10.433275170503293 0 0 0 0 -72.842931274580224 25.70358281661521 0 25.70358281661521 -8.7577412964105861 0 0 0 0 -132.74186343324368 34.151298072790283 0 34.151298072790283 -104.52642537954034 0 0 0 0 -70.372589466688623 4.7904250692589017 0 4.7904250692589017 -5.0425449413833121 0 0 0 0 -65.023054339486407 -0.15974267867056824 0 -0.15974267867056824 -3.9109885747511726 0 0 0 0 -61.723469090138678 9.5126387630368754 0 9.5126387630368754 -6.7362557747437677 0 0 0 0 -67.679640726055368 8.276453895474333 0 8.276453895474333 -6.8420379689196125 0 0 0 0 -72.588515450901468 9.3849730100214401 0 9.3849730100214401 -8.8261939830117626 0 0 0 0 -71.189898263450232 10.958601988740838 0 10.958601988740838 -8.589920051763329 0 0 0 0 -74.483731708745836 15.868783102111138 0 15.868783102111138 -8.0426809979271638 0 0 0 0 -78.380231598424871 12.521569934965953 0 12.521569934965953 -7.5901637150982424 0 0 0 0 -77.892293691264058 10.173379774785644 0 10.173379774785644 -8.893096705483913 0 0 0 0 -65.94380533619551 16.708130194940168 0 16.708130194940168 -8.6666244891466704 0 0 0 0 -60.436934419230965 8.6928233038315739 0 8.6928233038315739 -6.8560572674432478 0 0 0 0 -57.480712582349952 14.822280886390672 0 14.822280886390672 -8.7256274827113884 0 0 0 0 -63.260512848391954 20.30969692038434 0 20.30969692038434 -6.7036347234243294 0 0 0 0 -12.215224470299695 1.7933392549820688 0 1.7933392549820688 4.5874098379302675 0 0 0 0 -121.69502297749932 25.963432133198921 0 25.963432133198921 55.41530918758383 0 0 0 0 -53.368477486743359 27.991473208592652 0 27.991473208592652 -11.188618273309658 0 0 0 0 -121.69502297749568 25.963432133206027 0 25.963432133206027 55.415309187585819 0 0 0 0 -46.358037666375822 21.276594328606492 0 21.276594328606492 -0.84204536723325418 0 0 0 0 -50.246786170082487 19.660749937640389 0 19.660749937640389 -2.5443104056066659 0 0 0 0 -46.740176937819342 23.119839511822988 0 23.119839511822988 -9.6906915244080665 0 0 0 0 -3.4487635749010224 32.249359511070622 0 32.249359511070622 -31.344410691267058 0 0 0 0 -46.238694784435211 18.28094461400633 0 18.28094461400633 -7.1038713644572908 0 0 0 0 -49.350385192083195 15.76967000637319 0 15.76967000637319 -3.6985768169615767 0 0 0 0 -46.731879436207237 20.792140701993276 0 20.792140701993276 -2.8914862166150215 0 0 0 0 -46.637925914750667 22.374469516605586 0 22.374469516605586 -4.9533315036073873 0 0 0 0 -37.405332319223817 28.34325076112134 0 28.34325076112134 -11.485193864461735 0 0 0 0 -34.188278606539825 13.859039112839127 0 13.859039112839127 -4.3808156049854006 0 0 0 0 -27.323717984050745 23.399601733511645 0 23.399601733511645 -12.393678308670133 0 0 0 0 -19.388739499241638 3.3705145279182034 0 3.3705145279182034 -12.672308424219409 0 0 0 0 -54.696242163362058 -3.7138170810977655 0 -3.7138170810977655 -3.0325126033367269 0 0 0 0 -41.172479193563049 5.5327952856187039 0 5.5327952856187039 -6.4350688853392057 0 0 0 0 -45.894695617955222 -4.2130140663533666 0 -4.2130140663533666 -3.2907520115350053 0 0 0 0 -54.628547088301275 9.453571484315944 0 9.453571484315944 -7.4857946984211594 0 0 0 0 0.50035228460691972 5.0502589489587173 0 5.0502589489587173 -15.643206233755819 0 0 0 0 -37.883209353149141 75.59798415433886 0 75.59798415433886 -47.415933067142987 0 0 0 0 -18.751377444168611 62.250904463785332 0 62.250904463785332 -41.982265592198019 0 0 0 0 -36.823471860325299 32.3769652081603 0 32.3769652081603 -8.4145136208462645 0 0 0 0 -70.974360162756057 54.630042537252393 0 54.630042537252393 -19.691119528296895 0 0 0 0 -46.190610932041636 29.421180115883061 0 29.421180115883061 7.689155957738194 0 0 0 0 -59.2464001829876 21.900448526720922 0 21.900448526720922 -4.8381086801864512 0 0 0 0 -47.061485566500778 25.544047437043844 0 25.544047437043844 -8.0719865269063007 0 0 0 0 -57.001294292680996 45.735565374338861 0 45.735565374338861 67.540014725332696 0 0 0 0 -56.876551558536448 51.216095685297596 0 51.216095685297596 -9.7246035009524689 0 0 0 0 34.983474131813637 0.95374010777720741 0 0.95374010777720741 -17.132802418101164 0 0 0 0 -1.0280488433560084 4.4280194995282685 0 4.4280194995282685 -10.147321862837732 0 0 0 0 -0.8577753312238201 108.18736187482689 0 108.18736187482689 47.269334830055712 0 0 0 0 0.44688088567165352 -0.39553593218757044 0 -0.39553593218757044 -0.93531742657929484 0 0 0 0 0.49961412294214824 -51.849931890988103 0 -51.849931890988103 -12.892007013472792 0 0 0 0 -93.749042021116111 91.676962568166743 0 91.676962568166743 -91.201562445156981 0 0 0 0 -149.36379622819913 63.101664294278947 0 63.101664294278947 54.110985826042338 0 0 0 0 -43.455248819762346 25.717471051674526 0 25.717471051674526 9.9368368813653021 0 0 0 0 -23.433382042817811 -43.764449146891309 0 -43.764449146891309 77.743544293918205 0 0 0 0 -2.554064612592402 -0.38188412772118596 0 -0.38188412772118596 3.9872640600884863 0 0 0 0 -129.72229695302303 70.242179481149208 0 70.242179481149208 -111.30854292525805 0 0 0 0 -245.12660591437452 137.07753322699597 0 137.07753322699597 -14.275431412146645 0 0 0 0 -1.0480100968655321 -0.31301796714992136 0 -0.31301796714992136 1.4335106707356875 0 0 0 0 63.231989173829334 -232.21175383117614 0 -232.21175383117614 24.388437274190665 0 0 0 0 -154.46527564827556 -54.212808109751307 0 -54.212808109751307 69.583442878099504 0 0 0 0 -347.20046757306773 -40.639655496874639 0 -40.639655496874639 45.961711668403041 0 0 0 0 -125.78833998585378 -20.219892751541977 0 -20.219892751541977 -255.90203408872708 0 0 0 0 -128.07897300097829 0.70805525080965026 0 0.70805525080965026 113.98601152449365 0 0 0 0 -34.809158119501717 35.933192333482523 0 35.933192333482523 25.710622853695213 0 0 0 0 -139.54884399236471 77.267492195945067 0 77.267492195945067 64.805716193367843 0 0 0 0 -69.534461873490727 87.210981732074515 0 87.210981732074515 -28.958197154606751 0 0 0 0 -62.199842098259978 59.938864811321935 0 59.938864811321935 66.784854181117083 0 0 0 0 2.4573599093986935 -1.4835504321171378 0 -1.4835504321171378 -2.5782510000315835 0 0 0 0 198.75652312864077 146.59980976230884 0 146.59980976230884 -64.181197199663302 0 0 0 0 221.01511669264437 29.751218433985059 0 29.751218433985059 -12.391992296511035 0 0 0 0 -0.85889507706002388 1.5885811586776306 0 1.5885811586776306 0.081162572554613455 0 0 0 0 214.38284619955084 28.509561722988792 0 28.509561722988792 0.81837463076544736 0 0 0 0 207.67752200243558 51.291847532248994 0 51.291847532248994 -6.8145845875747 0 0 0 0 191.83023947267066 43.093023708264809 0 43.093023708264809 8.0440053067934727 0 0 0 0 298.01950668757604 70.098671711275159 0 70.098671711275159 7.6786186752278809 0 0 0 0 204.77580307764038 18.933749200548846 0 18.933749200548846 -8.6366748960249424 0 0 0 0 -251.95582876339358 199.92222932122252 0 199.92222932122252 -63.345056999968392 0 0 0 0 -0.040881856862361232 -0.62386484142512444 0 -0.62386484142512444 -0.82493558316613846 0 0 0 0 -224.84890558111692 160.55362585436239 0 160.55362585436239 -9.0109163016525144 0 0 0 0 -12.787392880388325 20.668864826508454 0 20.668864826508454 -125.44596251890857 0 0 0 0 -3.0819848380002579 0.098189929976406631 0 0.098189929976406631 -2.5345188471102871 0 0 0 0 -2.4575280496258216 0.84433388792350428 0 0.84433388792350428 -2.8093529614240875 0 0 0 0 81.472746885090601 21.291853115160166 0 21.291853115160166 16.404617495154525 0 0 0 0 177.52978878369595 48.912707037423161 0 48.912707037423161 4.8202166449141259 0 0 0 0 136.14284616977602 38.568743408621231 0 38.568743408621231 5.3689694910399339 0 0 0 0 154.9441693492372 28.339361556576819 0 28.339361556576819 -3.4306732901718533 0 0 0 0 143.09778532813652 -3.6877093828738907 0 -3.6877093828738907 -11.840512913688656 0 0 0 0 -12.821072315866104 7.8496676104277388 0 7.8496676104277388 -4.4278285733969689 0 0 0 0 178.7465054099448 91.457286543416558 0 91.457286543416558 -0.98448353389903787 0 0 0 0 -41.433495048861005 33.378754407943006 0 33.378754407943006 27.963954290178663 0 0 0 0 -182.2218036570157 -44.175226246564193 0 -44.175226246564193 -13.478240841511251 0 0 0 0 -9.3646819898940521 -29.167639806040938 0 -29.167639806040938 133.43026527811344 0 0 0 0 -3.7879117462130196 -4.0106257917666781 0 -4.0106257917666781 -5.6990356053003097 0 0 0 0 -46.01483087516317 31.298702177849464 0 31.298702177849464 -58.974948841226251 0 0 0 0 -297.91655950694258 -50.395746623219111 0 -50.395746623219111 4.3308308046006232 0 0 0 0 -310.36588986998686 14.672941716024411 0 14.672941716024411 -21.892111677632101 0 0 0 0 -333.99264470672642 55.850576707656046 0 55.850576707656046 -0.91583780118901359 0 0 0 0 -267.35816080079167 34.721623214367355 0 34.721623214367355 5.0722127130100034 0 0 0 0 -308.45962753362983 22.296472696590172 0 22.296472696590172 8.5210360058551942 0 0 0 0 -132.60583768891593 16.012081667952657 0 16.012081667952657 -47.307757802872516 0 0 0 0 -229.94537250784197 17.617832958262852 0 17.617832958262852 -18.513121453384429 0 0 0 0 -228.90214149391545 26.675753976406135 0 26.675753976406135 -17.780163199695153 0 0 0 0 -203.14130683333769 62.533754256655335 0 62.533754256655335 -67.95139640275147 0 0 0 0 -200.58643474135567 29.27936121284872 0 29.27936121284872 -40.164413685336513 0 0 0 0 -361.65432991684429 157.37600689014812 0 157.37600689014812 -121.15999051754159 0 0 0 0 -440.02532472885287 -33.412577713420319 0 -33.412577713420319 2.7730869306426484 0 0 0 0 -51.32938373746947 -18.20361104805761 0 -18.20361104805761 -48.068186156371439 0 0 0 0 -83.078476426039742 28.514312397881667 0 28.514312397881667 -85.779893139584601 0 0 0 0 -107.81535052593244 2.0541087676524512 0 2.0541087676524512 -34.217486068670951 0 0 0 0 -109.87579401185212 35.752494682958059 0 35.752494682958059 -37.54430275594882 0 0 0 0 -8.5759037050047482 33.368205555778559 0 33.368205555778559 -20.694931526564233 0 0 0 0 -39.329352720924362 2.744602691780301 0 2.744602691780301 -16.71016849904936 0 0 0 0 -1.7863600580385537 -23.820362191292134 0 -23.820362191292134 -13.404370450579336 0 0 0 0 3.7795404729763504 -21.654010346157293 0 -21.654010346157293 -37.862091049744777 0 0 0 0 -44.580059435364092 -30.034024123993277 0 -30.034024123993277 -7.8073525396230252 0 0 0 0 -117.07218680247934 -27.366613357169172 0 -27.366613357169172 -28.532275776472488 0 0 0 0 -56.217005388441976 6.2697974963261913 0 6.2697974963261913 -15.409821209972506 0 0 0 0 -150.18894839561835 60.677803914558808 0 60.677803914558808 -137.07452861448564 0 0 0 0 155.42337481233699 17.162294724053481 0 17.162294724053481 -39.253232094845998 0 0 0 0 180.36955670661337 76.177080418340211 0 76.177080418340211 -100.22991620687844 0 0 0 0 -0.41906950592008307 0.67221015293391773 0 0.67221015293391773 -2.5024799778897808 0 0 0 0 -419.12874877444392 -1.691641515485685 0 -1.691641515485685 -5.9960031700420586 0 0 0 0 -200.3249579224539 -29.200970201158725 0 -29.200970201158725 -36.248233250979865 0 0 0 0 -215.74953675652068 31.082674381015295 0 31.082674381015295 -28.976402934393718 0 0 0 0 -149.23931099676429 14.475241017985809 0 14.475241017985809 -24.406974582618204 0 0 0 0 -186.94506265142809 -10.945203865506755 0 -10.945203865506755 -28.716911240873742 0 0 0 0 -165.34517383273487 -1.7692532879841565 0 -1.7692532879841565 -22.815298120785883 0 0 0 0 -179.83249039716247 -21.581607085524638 0 -21.581607085524638 -14.795763332596835 0 0 0 0 180.20675657604403 78.274094143003566 0 78.274094143003566 21.183831099194322 0 0 0 0 -250.50670680585972 -44.026002834691781 0 -44.026002834691781 -14.407143485192137 0 0 0 0 -242.05959642137168 -18.599374012402222 0 -18.599374012402222 -11.573973720733193 0 0 0 0 -216.80105017474125 -9.8236429600365227 0 -9.8236429600365227 -23.859890158468261 0 0 0 0 -0.50077951593150871 3.0037461360229507 0 3.0037461360229507 -6.9565133578080909 0 0 0 0 -212.58754957443671 -35.010567735200539 0 -35.010567735200539 -18.193775763671511 0 0 0 0 -233.0208018708654 -10.477296993757591 0 -10.477296993757591 -26.966308686458888 0 0 0 0 -216.5575988595665 -32.073476107091665 0 -32.073476107091665 -41.397143621080431 0 0 0 0 -214.04475238884697 -38.198095092550375 0 -38.198095092550375 -26.551504252940504 0 0 0 0 -207.32700951584775 -17.806941920216104 0 -17.806941920216104 -16.162669329847461 0 0 0 0 -214.84586050139114 -32.574689104965955 0 -32.574689104965955 5.2654931670376754 0 0 0 0 -187.93789538486089 -11.527247824199094 0 -11.527247824199094 -17.528512093942481 0 0 0 0 -223.28394162232144 -17.233760411070307 0 -17.233760411070307 -10.520789344308469 0 0 0 0 -231.63017842431145 -16.401469166856714 0 -16.401469166856714 -5.169165310398057 0 0 0 0 -143.26950822015351 -23.250205567705962 0 -23.250205567705962 -10.685355433013683 0 0 0 0 -187.24206311340458 -31.19778257920234 0 -31.19778257920234 -15.000962609742601 0 0 0 0 -149.95027831914012 -36.16303523270517 0 -36.16303523270517 -14.406283645400435 0 0 0 0 -97.044660722250683 -29.641509623444335 0 -29.641509623444335 -13.749456621791978 0 0 0 0 -142.0105021169511 0.096825755269946967 0 0.096825755269946967 -16.653343929993184 0 0 0 0 -84.089018166923779 15.907137795484687 0 15.907137795484687 -18.816081540143614 0 0 0 0 -36.351449061361564 3.5050650661237341 0 3.5050650661237341 -37.450688399640512 0 0 0 0 -38.950068135002766 13.17786114936581 0 13.17786114936581 -46.387768358156791 0 0 0 0 -100.83802390215351 16.57235135101655 0 16.57235135101655 -22.462499200679758 0 0 0 0 -95.787032822572655 5.0187546847641897 0 5.0187546847641897 -39.43331348992433 0 0 0 0 -40.212931845472212 15.118944566080017 0 15.118944566080017 -24.533958218455155 0 0 0 0 -6.3258091828720353 19.915667738712727 0 19.915667738712727 -41.62576717397269 0 0 0 0 1.7744707108288367 46.91652368084273 0 46.91652368084273 -9.9043205408224821 0 0 0 0 -24.58025459748751 14.354795091692267 0 14.354795091692267 -8.7590622679713306 0 0 0 0 -39.981840378176912 30.500363043688367 0 30.500363043688367 -25.447412493135744 0 0 0 0 -64.186047491864429 108.12610338803324 0 108.12610338803324 123.49286526993092 0 0 0 0 -21.019775511101926 14.739123219758806 0 14.739123219758806 -9.622185464768398 0 0 0 0 -9.1339614181920297 -12.709044020680722 0 -12.709044020680722 -19.692681939091017 0 0 0 0 -73.761390607269277 -13.874412306930935 0 -13.874412306930935 18.618028070804939 0 0 0 0 -67.476494047346932 40.682556693252309 0 40.682556693252309 13.837490306423462 0 0 0 0 -15.492220974784725 10.625564117246721 0 10.625564117246721 -6.793127091148202 0 0 0 0 -48.662494442053685 214.28746353367205 0 214.28746353367205 150.7617586005822 0 0 0 0 66.180504175348233 -34.889430886087439 0 -34.889430886087439 -23.273887218019809 0 0 0 0 28.307087639932888 -59.427280513685901 0 -59.427280513685901 12.719892928503214 0 0 0 0 -251.97897874236048 -21.885564549631169 0 -21.885564549631169 5.5668954759548797 0 0 0 0 -246.19224122426931 -33.283487205496613 0 -33.283487205496613 12.312828210036969 0 0 0 0 -238.89270355740882 -33.655636171555216 0 -33.655636171555216 -7.383672410984218 0 0 0 0 -239.93919420198654 -35.199441854484576 0 -35.199441854484576 10.466815063437025 0 0 0 0 -197.11887938722793 -30.352466720371012 0 -30.352466720371012 -1.5558051168472957 0 0 0 0 -195.04134901479665 -61.1046519654642 0 -61.1046519654642 -8.5119960241017907 0 0 0 0 -142.48020841295693 -37.604513636582396 0 -37.604513636582396 -23.520579500273016 0 0 0 0 -158.32784831976096 -25.29052013979026 0 -25.29052013979026 -10.492486560088764 0 0 0 0 -195.13465782429375 -34.524096327158418 0 -34.524096327158418 -0.13985262640562723 0 0 0 0 -83.659964482299984 5.3836645650158061 0 5.3836645650158061 -18.162375754088941 0 0 0 0 -116.939917976777 -71.629404661679928 0 -71.629404661679928 -59.019158542171681 0 0 0 0 -43.314373626515589 8.4069081566399291 0 8.4069081566399291 -40.403608947153089 0 0 0 0 -263.994684343681 -112.50058556441445 0 -112.50058556441445 -60.71819766198405 0 0 0 0 -317.50445407602456 7.6401184227902377 0 7.6401184227902377 2.0889361262438797 0 0 0 0 -255.10666035196118 -54.730049845908525 0 -54.730049845908525 -0.35311407532253725 0 0 0 0 -259.34017836650673 -5.9115300470903094 0 -5.9115300470903094 -27.335445155503294 0 0 0 0 -874.89748599284212 278.47105442606562 0 278.47105442606562 874.17769327460337 0 0 0 0 -5.2141948124471966 4.1746656338167032 0 4.1746656338167032 -3.3978486191340398 0 0 0 0 -468.65687397123111 -210.89401105741536 0 -210.89401105741536 -30.771896875256402 0 0 0 0 34.367661443919133 233.06033276996573 0 233.06033276996573 95.859812053018686 0 0 0 0 -308.79217104578589 13.430298370879044 0 13.430298370879044 -15.912615439276124 0 0 0 0 184.89648318270611 54.88261162473691 0 54.88261162473691 -4.6618230996346028 0 0 0 0 -84.896267602088301 36.766527821804175 0 36.766527821804175 1.804782742446605 0 0 0 0 -67.26857105738236 64.205906688846881 0 64.205906688846881 -19.188132576697626 0 0 0 0 -5.8686974621850823 74.259629210308503 0 74.259629210308503 -17.561705248203452 0 0 0 0 -179.63327365205259 -96.141943979263033 0 -96.141943979263033 -253.08718262124785 0 0 0 0 -183.05460960535129 144.49092239126367 0 144.49092239126367 118.20709072055615 0 0 0 0 -108.02015755544562 178.42108717221117 0 178.42108717221117 74.123689324429506 0 0 0 0 -7.0237664355945526 146.36454306892702 0 146.36454306892702 3.2737260639332817 0 0 0 0 -114.91694584149081 135.4598507206839 0 135.4598507206839 2.3815912642658077 0 0 0 0 -115.03820664344676 130.71860075113125 0 130.71860075113125 -15.320309577729859 0 0 0 0 -152.79905446924386 114.98787262919291 0 114.98787262919291 -21.708023512030763 0 0 0 0 -185.66102975407193 136.63039733722826 0 136.63039733722826 23.869073663820018 0 0 0 0 -154.47232101084319 108.80640402654086 0 108.80640402654086 -6.7097135796225302 0 0 0 0 -226.05095480040472 113.74434835527381 0 113.74434835527381 20.119984777218178 0 0 0 0 -295.17006382004138 135.72080397970456 0 135.72080397970456 71.844859260074372 0 0 0 0 -350.98815153247415 -370.93826261443064 0 -370.93826261443064 -617.51668164734292 0 0 0 0 -184.68195438790281 116.21308095435506 0 116.21308095435506 24.447940019903598 0 0 0 0 -1105.3076003396709 -1356.4954695293818 0 -1356.4954695293818 -1902.4705974470999 0 0 0 0 -197.85830496279232 92.793335310947441 0 92.793335310947441 70.820382580960427 0 0 0 0 -8.6600130133772097 4.7435664089587704 0 4.7435664089587704 -12.515922318822049 0 0 0 0 16.332409863356588 -9.8439737334429083 0 -9.8439737334429083 -32.720277577015395 0 0 0 0 -0.21846188940617139 -112.42882211087999 0 -112.42882211087999 47.011415433538559 0 0 0 0 -177.57753313483613 -31.788775455770008 0 -31.788775455770008 72.589094065164318 0 0 0 0 -63.387293481220695 9.6467950017108706 0 9.6467950017108706 -6.8908096432867296 0 0 0 0 -0.7143208853559786 -2.2531295428778062 0 -2.2531295428778062 -1.9822399482499051 0 0 0 0 -1.6415225450987236 -2.0730944546846786 0 -2.0730944546846786 -5.9658500903140066 0 0 0 0 -50.611086889331546 21.253264148382868 0 21.253264148382868 -6.8799041065005895 0 0 0 0 0.06147294878622625 -1.1364935379732373 0 -1.1364935379732373 -3.4770226371052964 0 0 0 0 -90.643029088269486 14.703288206103934 0 14.703288206103934 -1.2305095432693633 0 0 0 0 -74.668378035817682 2.5991812605702762 0 2.5991812605702762 1.8947472144773201 0 0 0 0 -72.255695071612081 7.1593874429097468 0 7.1593874429097468 0.85228258419874692 0 0 0 0 -72.991266059030522 9.7491114506240137 0 9.7491114506240137 2.2478280033146802 0 0 0 0 -76.508548224474453 12.90119464441068 0 12.90119464441068 9.695768491005083 0 0 0 0 -68.151264666895941 -20.303647983195333 0 -20.303647983195333 4.8335312187587078 0 0 0 0 -87.257584453075253 6.9309749488111265 0 6.9309749488111265 11.043792680237857 0 0 0 0 -6.9113055376562897 -14.494974816211652 0 -14.494974816211652 -2.7019411153384851 0 0 0 0 -33.712688268505701 3.4285645233926516 0 3.4285645233926516 1.652261369844382 0 0 0 0 -27.643045491805324 -1.9567123587621609 0 -1.9567123587621609 -1.6368666630219195 0 0 0 0 -59.467647194203018 12.746527050382383 0 12.746527050382383 7.0169410263779355 0 0 0 0 -23.764788730286853 -11.849344152017693 0 -11.849344152017693 4.3511456859905593 0 0 0 0 -9.3083771258338039 -5.4891848617731451 0 -5.4891848617731451 2.5705723796203248 0 0 0 0 -68.065951926559819 -9.1167677870971602 0 -9.1167677870971602 3.0155433348172664 0 0 0 0 -67.235634840325702 -4.9811170913717433 0 -4.9811170913717433 -9.9827498953513896 0 0 0 0 -75.62703737736058 -0.35525836696706392 0 -0.35525836696706392 14.503548362516995 0 0 0 0 -50.463368253469696 -27.552743302609997 0 -27.552743302609997 -0.43123413731807148 0 0 0 0 0.0076779003396323375 -4.0301481789313662 0 -4.0301481789313662 0.67905760198816201 0 0 0 0 -20.905650231029579 -12.364535762372544 0 -12.364535762372544 9.2521746624602397 0 0 0 0 -15.356741876896173 -13.004403786844088 0 -13.004403786844088 7.2170914700624529 0 0 0 0 -36.717096468435557 0.14838553813115141 0 0.14838553813115141 2.2072851161547078 0 0 0 0 -40.227242911909343 -2.0777822428563013 0 -2.0777822428563013 0.81444406109949341 0 0 0 0 -53.351845545267224 -4.8925787335329005 0 -4.8925787335329005 4.7279013445904639 0 0 0 0 -54.631994699229011 -1.1281141488558148 0 -1.1281141488558148 1.0663399610875786 0 0 0 0 -54.122917807364502 -3.917150348207997 0 -3.917150348207997 45.458645993860955 0 0 0 0 -23.231347305064446 -9.1744797982719319 0 -9.1744797982719319 -5.2798613642598866 0 0 0 0 -29.988478313318865 -36.660763861925716 0 -36.660763861925716 4.7417383434603835 0 0 0 0 -0.055157931611643563 -1.2187146940326237 0 -1.2187146940326237 -1.203728600688585 0 0 0 0 -51.546623397909116 -5.5970799567044196 0 -5.5970799567044196 -10.288611780537394 0 0 0 0 -56.546306064137013 17.922214292228546 0 17.922214292228546 -17.046305157579809 0 0 0 0 -26.056112988345376 -16.558142166209109 0 -16.558142166209109 24.2520985707215 0 0 0 0 -22.102025688926005 -4.9604763659930917 0 -4.9604763659930917 7.3901317171619176 0 0 0 0 -27.553232555978667 -16.606189662253314 0 -16.606189662253314 25.219244071022331 0 0 0 0 -27.284446110639692 -16.121558629965875 0 -16.121558629965875 25.745178622035382 0 0 0 0 -27.335304276817624 -19.834509150880876 0 -19.834509150880876 18.196242502366658 0 0 0 0 -98.836544883530223 18.788135643460578 0 18.788135643460578 24.066471452761562 0 0 0 0 -63.742202030942735 47.244410604235327 0 47.244410604235327 -15.717929059730523 0 0 0 0 -101.40789790041049 73.100928411548693 0 73.100928411548693 -11.885894635812292 0 0 0 0 -107.66934823030715 49.825649827609141 0 49.825649827609141 -1.4523447553348205 0 0 0 0 -137.04584163023333 81.520364417552742 0 81.520364417552742 -0.72586238425901684 0 0 0 0 -8.2060543335129417 -2.2808596776682588 0 -2.2808596776682588 0.90704995344905193 0 0 0 0 -252.53527050402408 28.590304584687942 0 28.590304584687942 30.967931343456257 0 0 0 0 -473.60044203739426 -126.10234626865804 0 -126.10234626865804 175.39260917973297 0 0 0 0 -48.4038201995495 44.0236575228937 0 44.0236575228937 1.1624060057915813 0 0 0 0 143.27378521343985 -47.387176821285266 0 -47.387176821285266 -183.03249267355659 0 0 0 0 -10.070911974132537 6.3584875279780455 0 6.3584875279780455 3.6852824654032403 0 0 0 0 -30.767307218754695 72.010087641970586 0 72.010087641970586 44.197259353581558 0 0 0 0 -241.04870084134336 11.123482938789721 0 11.123482938789721 35.894003283590791 0 0 0 0 -0.71138028804758013 0.67847624918015992 0 0.67847624918015992 -1.9795844407365148 0 0 0 0 -4.2374234439674883 -2.2103417032105517 0 -2.2103417032105517 -0.86628554133759295 0 0 0 0 -223.09495016182518 -29.451670207406096 0 -29.451670207406096 -33.704515064813677 0 0 0 0 -9.0347987475370246 2.857570976879515 0 2.857570976879515 23.242860536340231 0 0 0 0 -8.9199770236395928 -14.249776051713022 0 -14.249776051713022 -4.7971148744541097 0 0 0 0 -22.208503716413361 2.4748331061969111 0 2.4748331061969111 4.2893495892672036 0 0 0 0 -10.926139176120351 3.678926745263662 0 3.678926745263662 2.3782033640184155 0 0 0 0 -8.5915321289028306 -5.6027941939557167 0 -5.6027941939557167 3.3619316579684497 0 0 0 0 -19.25149225760174 -5.0005950177478553 0 -5.0005950177478553 2.7137890589174276 0 0 0 0 -27.259763398776158 0.64194298195297961 0 0.64194298195297961 3.867705931385558 0 0 0 0 -20.337876070051223 -3.3868662696725345 0 -3.3868662696725345 2.8855630815126441 0 0 0 0 -37.959160300877556 -50.746298664701158 0 -50.746298664701158 43.88854904077084 0 0 0 0 -29.249169562393249 -8.1882873195408727 0 -8.1882873195408727 8.0662539541588281 0 0 0 0 -35.307291676352406 -4.148127369652002 0 -4.148127369652002 3.4012315099225816 0 0 0 0 -106.24422973024048 34.738215043011451 0 34.738215043011451 31.153004361645003 0 0 0 0 -173.7803432077053 68.916362698214016 0 68.916362698214016 -2.7653090103358409 0 0 0 0 -79.168467466370203 -5.1043540857485823 0 -5.1043540857485823 -8.1732943654836561 0 0 0 0 -171.73584585257959 81.020502315736849 0 81.020502315736849 -26.377625006729716 0 0 0 0 -70.676672877764759 13.781562091903993 0 13.781562091903993 27.258335277757169 0 0 0 0 -103.99546214939619 -52.632109968117589 0 -52.632109968117589 129.13008007227967 0 0 0 0 -154.97076678588382 105.69040307742659 0 105.69040307742659 -69.785052651066735 0 0 0 0 -63.190340907245286 5.3854263369560833 0 5.3854263369560833 3.1824724189259039 0 0 0 0 27.165376138345891 -47.168129719174431 0 -47.168129719174431 -83.126812506797251 0 0 0 0 -23.959692312422703 6.1172767434107982 0 6.1172767434107982 1.7684454034103965 0 0 0 0 -35.537387197138742 6.6333579865985257 0 6.6333579865985257 1.7457204595655185 0 0 0 0 -10.123267893839511 48.884379560411844 0 48.884379560411844 -10.04408150606173 0 0 0 0 -189.52396792731088 107.84890469728336 0 107.84890469728336 117.21564667869833 0 0 0 0 -64.151919931071632 9.8566260800030783 0 9.8566260800030783 -0.2234025753176192 0 0 0 0 -7.1275552589156632 6.1891412192499686 0 6.1891412192499686 0.32840132650086007 0 0 0 0 -3.2840156133538585 21.601413980044313 0 21.601413980044313 -35.145888415770514 0 0 0 0 -1.3463022367122672 -1.1326423062059341 0 -1.1326423062059341 -1.526322650232574 0 0 0 0 -261.11859384182753 48.410972558192611 0 48.410972558192611 -8.4019591517803747 0 0 0 0 -19.901597903198489 9.0354264933956863 0 9.0354264933956863 2.9202495554544323 0 0 0 0 -4.1647767371637201 2.2809823001619236 0 2.2809823001619236 -0.90677922309112091 0 0 0 0 -59.683321372996573 1.9210368258707202 0 1.9210368258707202 8.3831199321540311 0 0 0 0 -39.622111173428657 17.587737471754174 0 17.587737471754174 6.5270071890171835 0 0 0 0 -35.653204500230295 1.3849292536258506 0 1.3849292536258506 19.465454230461461 0 0 0 0 -22.407515805847652 -1.3398814854481316 0 -1.3398814854481316 24.885485540889931 0 0 0 0 -23.113686598258937 6.230968500133713 0 6.230968500133713 0.99166262064431976 0 0 0 0 -30.668631968449972 6.2880874651975205 0 6.2880874651975205 2.3750251328037848 0 0 0 0 -28.42974589916048 7.3771646959639838 0 7.3771646959639838 2.5364134712390296 0 0 0 0 -6.428777329685829 -4.4491397782914106 0 -4.4491397782914106 -2.7622072893053939 0 0 0 0 -27.364593712185524 -5.9138487015899273 0 -5.9138487015899273 14.205233319176386 0 0 0 0 -2.7860958912750693 8.732672173938667 0 8.732672173938667 3.5313496544712528 0 0 0 0 -23.886732886827303 8.289604665002571 0 8.289604665002571 -2.2383036723301757 0 0 0 0 -3.3610532913155424 -2.628384250310539 0 -2.628384250310539 -1.3974214617979097 0 0 0 0 -14.18786697037649 -17.181918424613968 0 -17.181918424613968 37.420493750299556 0 0 0 0 -109.70865811388649 17.842576206960189 0 17.842576206960189 -17.646456635263348 0 0 0 0 -250.85869118869232 130.84845539069124 0 130.84845539069124 -33.272200020726785 0 0 0 0 -422.27137246870916 201.78343267879438 0 201.78343267879438 -68.914363870501802 0 0 0 0 -132.46174035213517 2.8739704347352699 0 2.8739704347352699 -19.311207251712403 0 0 0 0 16.314306472873795 -90.098508981551731 0 -90.098508981551731 47.837167419143498 0 0 0 0 -1.4429505696856637 -0.83354075411586237 0 -0.83354075411586237 -0.23821282014214162 0 0 0 0 -316.40127754364948 60.617615342394856 0 60.617615342394856 -24.689458076558196 0 0 0 0 -270.45844662152467 -37.710078890842084 0 -37.710078890842084 40.673234302441415 0 0 0 0 -74.319677865169069 24.808279440634578 0 24.808279440634578 -23.099640890745562 0 0 0 0 -49.199272523621403 -0.0044126080608748453 0 -0.0044126080608748453 -0.69108863492692763 0 0 0 0 -20.192458263238677 15.689005537427363 0 15.689005537427363 7.2633087666331448 0 0 0 0 -29.479023935011355 8.7316083269754472 0 8.7316083269754472 10.204901113037067 0 0 0 0 -40.734462072906808 28.082385628255309 0 28.082385628255309 -9.1986683822556188 0 0 0 0 -5.9110814810900543 10.051294716119816 0 10.051294716119816 0.87809870253443911 0 0 0 0 -21.423070969374749 5.5999113045133981 0 5.5999113045133981 27.419904646688792 0 0 0 0 -5.5874198937576764 -0.33276798020201781 0 -0.33276798020201781 0.37192482406161442 0 0 0 0 -3.9673269156098492 4.7039186599257725 0 4.7039186599257725 8.4564289538409412 0 0 0 0 -17.379853403791003 9.3761917938575436 0 9.3761917938575436 4.3667083935437176 0 0 0 0 -14.951541746359602 0.59565207578108925 0 0.59565207578108925 6.3693476643528131 0 0 0 0 -18.134262237026633 16.522155915703934 0 16.522155915703934 -9.6029365642643825 0 0 0 0 -14.437085018600389 -10.234912812278441 0 -10.234912812278441 4.034676184518144 0 0 0 0 -26.234788821933762 -1.1127423446218927 0 -1.1127423446218927 -16.834854180521234 0 0 0 0 -12.352914310599552 3.2492117500222939 0 3.2492117500222939 -3.0766577757866571 0 0 0 0 -27.504147857238422 5.9970784697179624 0 5.9970784697179624 -0.6102226385683025 0 0 0 0 -4.0255184360050862 11.736346989111269 0 11.736346989111269 -38.937784051744529 0 0 0 0 -7.6965655860512925 14.338899937674796 0 14.338899937674796 -34.44600170321246 0 0 0 0 31.881703141763865 12.792259510453732 0 12.792259510453732 -42.217786288719253 0 0 0 0 -5.1242050650780584 4.3213937798709594 0 4.3213937798709594 -32.663736094154501 0 0 0 0 -27.364511674975027 16.048061751960283 0 16.048061751960283 -10.379406236820124 0 0 0 0 -58.539145288171085 20.543734141774621 0 20.543734141774621 45.961455781509542 0 0 0 0 -43.84855353188459 5.2445003745239092 0 5.2445003745239092 0.057003128709766315 0 0 0 0 -17.296090967921948 -10.568734513180418 0 -10.568734513180418 8.3024606959774978 0 0 0 0 -56.506300273501665 18.586451324581049 0 18.586451324581049 28.783365285499258 0 0 0 0 5.3185259820093052 -88.956454062800844 0 -88.956454062800844 40.577777064581824 0 0 0 0 -131.03190320016074 20.71332428491769 0 20.71332428491769 39.911378369614994 0 0 0 0 70.504307149316446 -85.719528093201916 0 -85.719528093201916 -13.259370238857628 0 0 0 0 -71.035814929709886 30.105943179635688 0 30.105943179635688 -47.099291351356896 0 0 0 0 -19.419267899563511 -11.496110730024846 0 -11.496110730024846 8.5427786856925465 0 0 0 0 70.447217196117208 -94.220800835069625 0 -94.220800835069625 -9.7547309820392911 0 0 0 0 -39.268789389563608 6.5127254923881992 0 6.5127254923881992 -3.0436811888794182 0 0 0 0 136.79334363282032 -20.454241046236348 0 -20.454241046236348 33.878327224838358 0 0 0 0 6.6854004212327709 -111.12408972515277 0 -111.12408972515277 96.161911298572704 0 0 0 0 -11.395091913956783 -5.5951360374105263 0 -5.5951360374105263 6.2197653805256863 0 0 0 0 -50.30689376175998 -16.556104215967999 0 -16.556104215967999 15.520761248130032 0 0 0 0 -11.21155878008085 -38.704597511358088 0 -38.704597511358088 50.703325569172193 0 0 0 0 -3.8512470411733375 -82.945834881403698 0 -82.945834881403698 134.65012096515329 0 0 0 0 129.84764080133755 -86.405166359460964 0 -86.405166359460964 -5.5242670087309307 0 0 0 0 101.90731918420397 34.734104205668132 0 34.734104205668132 -38.968841396846983 0 0 0 0 51.013304020223586 -39.141679972173051 0 -39.141679972173051 -47.46483514825195 0 0 0 0 -7.309282308397087 41.623880034133663 0 41.623880034133663 -23.123753747187038 0 0 0 0 21.932966461543401 -37.273733269642662 0 -37.273733269642662 -29.421105062852803 0 0 0 0 42.905798899104411 -17.220590217715653 0 -17.220590217715653 -65.811351641140845 0 0 0 0 51.394791961278315 -51.56546261779863 0 -51.56546261779863 -29.451768621793235 0 0 0 0 37.935892202287505 -33.223546054653525 0 -33.223546054653525 -25.01796077539484 0 0 0 0 -254.77371481922273 -89.588680459635611 0 -89.588680459635611 23.881767748567654 0 0 0 0 -56.851864194090012 -20.738491243630051 0 -20.738491243630051 -97.529446678787508 0 0 0 0 -273.01530066925284 -21.772821797956709 0 -21.772821797956709 6.0945171839421164 0 0 0 0 -83.880037924034696 55.370931520252043 0 55.370931520252043 -67.339799654361514 0 0 0 0 16.470052835920796 -14.367228004535036 0 -14.367228004535036 -20.726718131538291 0 0 0 0 11.13106333201722 -1.3254248559564985 0 -1.3254248559564985 -50.486086027657166 0 0 0 0 -22.024195499980124 -23.40333090302056 0 -23.40333090302056 -40.682846641983815 0 0 0 0 18.683486390975304 -2.1776014299903181 0 -2.1776014299903181 -47.726266491980937 0 0 0 0 8.8678952269547153 -1.0699931593071597 0 -1.0699931593071597 -28.471661283986123 0 0 0 0 -13.478688915986858 -10.442598725512671 0 -10.442598725512671 3.4821507103670122 0 0 0 0 37.135792527924423 -25.586556529348741 0 -25.586556529348741 17.025934118349596 0 0 0 0 2.0768966327505183 -0.91039068047532012 0 -0.91039068047532012 0.097603756074986947 0 0 0 0 7.8854205238749273 -16.614714688232652 0 -16.614714688232652 -12.721301885202138 0 0 0 0 12.078758640884473 -44.991291701019534 0 -44.991291701019534 -6.5884787119794055 0 0 0 0 9.0325143408990698 3.5635175872344007 0 3.5635175872344007 10.681380377597634 0 0 0 0 -13.090562714148255 -9.5595439296408138 0 -9.5595439296408138 3.9714598230976375 0 0 0 0 8.5585197064647218 -25.806818057117198 0 -25.806818057117198 -36.481789477189523 0 0 0 0 -31.749295139671631 -0.30637439282963896 0 -0.30637439282963896 -7.0522250405970226 0 0 0 0 29.756966479144467 -43.545118296335204 0 -43.545118296335204 -15.392778477318643 0 0 0 0 3.0853291857373613 -1.2488702335182111 0 -1.2488702335182111 -0.63504773638427636 0 0 0 0 -93.193822030621959 -20.176635381126289 0 -20.176635381126289 10.683708828171802 0 0 0 0 13.632963833457325 -31.995907984996393 0 -31.995907984996393 48.848144629933813 0 0 0 0 47.282664925034624 4.5094237382757001 0 4.5094237382757001 -16.071942017648325 0 0 0 0 -36.318765682543017 -7.0023095491897038 0 -7.0023095491897038 -10.073953294083594 0 0 0 0 4.4321061269038182 -7.4842923614712618 0 -7.4842923614712618 1.191258660247513 0 0 0 0 -1.1339817226564164 -0.51336953347144387 0 -0.51336953347144387 -0.24849406803712348 0 0 0 0 -1.1568140699402498 -0.80212696155460605 0 -0.80212696155460605 -0.1744756608816278 0 0 0 0 8.7647462538297987 -23.947001405957508 0 -23.947001405957508 -14.474003566295778 0 0 0 0 -13.724797431004845 -2.9082038199917406 0 -2.9082038199917406 1.7400565438529156 0 0 0 0 3.8436361427782231 -19.830530763844024 0 -19.830530763844024 -7.2765706337995653 0 0 0 0 -4.1745610992950324 -4.0100925768564757 0 -4.0100925768564757 0.91062291632185932 0 0 0 0 17.756296802507109 107.34685826861028 0 107.34685826861028 9.3838433340097254 0 0 0 0 -13.070481262725895 1.1706431258317362 0 1.1706431258317362 0.83715308713829373 0 0 0 0 8.0707148328486937 -20.704708122218705 0 -20.704708122218705 3.3740323707061179 0 0 0 0 -6.3047390043939231 -3.5653689962482531 0 -3.5653689962482531 1.4715700642373122 0 0 0 0 -7.6094365924363956 -3.4680709421031679 0 -3.4680709421031679 2.4955801161413547 0 0 0 0 -2.1988169577595329 -6.1142605108358978 0 -6.1142605108358978 1.7319929359203154 0 0 0 0 -1.3140182398317677 -4.6204012470383198 0 -4.6204012470383198 1.9919301481238847 0 0 0 0 -10.485282156683752 -8.2133996999282317 0 -8.2133996999282317 5.3702702248601781 0 0 0 0 -17.603376181265162 -13.860716093051835 0 -13.860716093051835 10.189633122541636 0 0 0 0 -12.355098504803856 -8.5758012174193645 0 -8.5758012174193645 2.079392977847057 0 0 0 0 -3.0061512520660827 -11.422162029961804 0 -11.422162029961804 -0.0080259881112567655 0 0 0 0 3.6137323272560025 -11.043296399484461 0 -11.043296399484461 0.86346939296345226 0 0 0 0 -0.85876016720503401 -20.855305747224762 0 -20.855305747224762 0.41468686007855515 0 0 0 0 -21.368977144630016 -5.098925278434546 0 -5.098925278434546 5.4473433994736169 0 0 0 0 -14.071298119499133 -3.1327191097432951 0 -3.1327191097432951 3.5603600403983968 0 0 0 0 -29.746992523861991 -5.6069477751171348 0 -5.6069477751171348 -0.061539949625483814 0 0 0 0 -14.837809556190253 -5.976302780589009 0 -5.976302780589009 -0.92569286125289985 0 0 0 0 -9.9469437346124323 -4.5185232385247218 0 -4.5185232385247218 2.1767301074759189 0 0 0 0 -7.6418868304936041 -7.6377698621308809 0 -7.6377698621308809 0.084293750135657319 0 0 0 0 11.036995388692048 -8.3362693446275671 0 -8.3362693446275671 -11.848101298839538 0 0 0 0 3.8679545924440646 -2.911388349582392 0 -2.911388349582392 -3.0537096508242119 0 0 0 0 -7.7534706881245228 -7.9268884807055606 0 -7.9268884807055606 1.8842678920177995 0 0 0 0 -22.60542277226341 -20.167832388543957 0 -20.167832388543957 -19.659774743662638 0 0 0 0 -28.332266061435803 -30.859699374368574 0 -30.859699374368574 -39.304590637751517 0 0 0 0 -7.7138524745678296 -10.246066037748733 0 -10.246066037748733 -49.304428631771998 0 0 0 0 -40.829851381364278 -9.8813627150839238 0 -9.8813627150839238 -22.348427661406731 0 0 0 0 -33.255907693506742 8.0777759367592807 0 8.0777759367592807 -14.993674985299549 0 0 0 0 -69.912649091813364 -13.654593506313176 0 -13.654593506313176 22.797073311891836 0 0 0 0 -51.778492333342001 -24.925148463089158 0 -24.925148463089158 -19.944840910122366 0 0 0 0 -65.159850272102631 9.0203782112830595 0 9.0203782112830595 -13.215307486178517 0 0 0 0 -30.896616167032334 -30.827873110166365 0 -30.827873110166365 -19.176227606559223 0 0 0 0 -8.7700943653544527 -6.6623500065368262 0 -6.6623500065368262 3.2790028623226135 0 0 0 0 -5.9095732891722719 -6.2636660443085574 0 -6.2636660443085574 3.0739307679914418 0 0 0 0 -20.576233653691588 -5.5358761533771261 0 -5.5358761533771261 2.2954627687481146 0 0 0 0 -5.6672482530839332 -2.4659234378638217 0 -2.4659234378638217 2.4360464232002688 0 0 0 0 2.8289050811326888 9.7731430579212883 0 9.7731430579212883 11.465790535558881 0 0 0 0 2.7173767121312267 9.2040451907810166 0 9.2040451907810166 8.6520676496429587 0 0 0 0 0.17683544562316911 2.4753388147134885 0 2.4753388147134885 1.107657190701272 0 0 0 0 15.913459205206891 20.533206674908797 0 20.533206674908797 1.9395614474315153 0 0 0 0 -2.5619126461533597 23.583341189117618 0 23.583341189117618 40.31383421226974 0 0 0 0 33.384206279984937 29.336169515741858 0 29.336169515741858 -16.672461818055581 0 0 0 0 -136.07406872413048 3.6197105804922103 0 3.6197105804922103 10.762852940865969 0 0 0 0 -43.374444960238179 -62.589908861465346 0 -62.589908861465346 0.094579781162792642 0 0 0 0 -133.82934387135538 21.452300352212205 0 21.452300352212205 59.829795602143804 0 0 0 0 -136.30661808279592 40.116664541962678 0 40.116664541962678 -40.492166091360104 0 0 0 0 -27.439629616150341 36.536652855239936 0 36.536652855239936 2.5397152185141749 0 0 0 0 -213.28283358844783 86.308264258020017 0 86.308264258020017 24.65187453061435 0 0 0 0 -130.2472649897245 52.923925178877198 0 52.923925178877198 33.31469303806125 0 0 0 0 -137.62442692406148 30.959771949364949 0 30.959771949364949 -32.062980424797388 0 0 0 0 -29.451311531212468 5.6345134616372192 0 5.6345134616372192 -10.008011156545308 0 0 0 0 236.8974024703748 27.718775059879363 0 27.718775059879363 -57.602675876683406 0 0 0 0 -23.228270684929356 11.289058469421402 0 11.289058469421402 3.0812579734348429 0 0 0 0 66.793788168852188 18.253446508395427 0 18.253446508395427 51.159969663988363 0 0 0 0 22.445232461532214 -55.34368115766938 0 -55.34368115766938 21.447606839135915 0 0 0 0 248.91642588845571 -208.47067608247971 0 -208.47067608247971 -174.64335029677386 0 0 0 0 -301.2650330316319 -174.39583462055998 0 -174.39583462055998 57.401488185520975 0 0 0 0 -7.2429881907082745 -23.19218947270565 0 -23.19218947270565 9.4381089205048738 0 0 0 0 -78.366902521189331 11.00036326090185 0 11.00036326090185 21.937797844526813 0 0 0 0 -39.123654866198194 7.4864889289856364 0 7.4864889289856364 35.779795127243233 0 0 0 0 -75.565679500861734 -16.898236919102374 0 -16.898236919102374 55.853333367407345 0 0 0 0 -0.57693002213977707 0.25150768069210017 0 0.25150768069210017 1.5228363164535028 0 0 0 0 -33.848328672493821 3.2592066767530232 0 3.2592066767530232 5.8862596266029819 0 0 0 0 -56.967260056597297 -76.717305682092388 0 -76.717305682092388 -13.502976082292207 0 0 0 0 10.131802132786106 -433.17886505522893 0 -433.17886505522893 -115.29208612969524 0 0 0 0 -29.115548434470838 1.5687048047420262 0 1.5687048047420262 2.3651407045301198 0 0 0 0 -6.4166146576430236 -13.521117375356305 0 -13.521117375356305 21.579757937942063 0 0 0 0 27.234401701352908 263.95505112864544 0 263.95505112864544 -37.610974566858772 0 0 0 0 71.535451944902888 -19.239645621660465 0 -19.239645621660465 47.551730810918258 0 0 0 0 -10.580279488314751 -0.44839876939464318 0 -0.44839876939464318 2.9544538295427469 0 0 0 0 -25.600306259795616 86.487925279674073 0 86.487925279674073 -43.84538797055859 0 0 0 0 -738.76364435092546 275.05517485002372 0 275.05517485002372 296.61641822739887 0 0 0 0 -117.33475093474408 124.75334995659387 0 124.75334995659387 39.259508138107776 0 0 0 0 -160.85493956615392 23.867781832386754 0 23.867781832386754 221.2217903029341 0 0 0 0 -576.06776762759546 -349.99584478842371 0 -349.99584478842371 -8.4576607745693764 0 0 0 0 -54.024836478340617 22.675067273549576 0 22.675067273549576 -3.2798302285848115 0 0 0 0 -1.0606588258484067 -4.4983370520492407 0 -4.4983370520492407 1.3981077200686278 0 0 0 0 384.29424954141723 14.350159005642126 0 14.350159005642126 -461.49181519689591 0 0 0 0 -44.574116129187018 23.392367172680704 0 23.392367172680704 -10.434746671324337 0 0 0 0 338.25567941236659 270.46834670969474 0 270.46834670969474 -144.70753575987692 0 0 0 0 78.044083424058044 309.17661426730774 0 309.17661426730774 271.78961493090901 0 0 0 0 1.9059953548421618 74.106544260148439 0 74.106544260148439 159.97762427890666 0 0 0 0 -134.19375647253764 -37.315413268235716 0 -37.315413268235716 119.29609937782425 0 0 0 0 -32.215054095446249 34.10752472119384 0 34.10752472119384 139.85868694452438 0 0 0 0 -221.27395903620345 53.953182485921616 0 53.953182485921616 70.656804567524887 0 0 0 0 -134.65020355356683 -9.025100169936195 0 -9.025100169936195 117.69827376286503 0 0 0 0 -323.88054010068299 -50.971782757032997 0 -50.971782757032997 113.96056740154381 0 0 0 0 -135.06870674493257 -213.67852549471536 0 -213.67852549471536 -155.01790440356308 0 0 0 0 -178.91132512147306 -32.953305265523795 0 -32.953305265523795 117.53766720042768 0 0 0 0 -199.06696414244834 -15.776813406906342 0 -15.776813406906342 155.47984915131019 0 0 0 0 -200.95398760316675 8.9364714681712485 0 8.9364714681712485 96.938625603615947 0 0 0 0 -169.50399915817252 -44.30174063395134 0 -44.30174063395134 129.89241822719669 0 0 0 0 -166.15037068682432 -22.530281317713843 0 -22.530281317713843 165.73619815711754 0 0 0 0 -112.8283072453778 -28.877435200942273 0 -28.877435200942273 133.85770672111448 0 0 0 0 -103.32611435139552 69.127899274419178 0 69.127899274419178 179.68851975548114 0 0 0 0 -145.99192617511289 0.23754333799024607 0 0.23754333799024607 87.290594387297915 0 0 0 0 -54.861924728116719 7.3128550261608325 0 7.3128550261608325 79.196975482355811 0 0 0 0 -100.06130952449166 -9.2520462088759814 0 -9.2520462088759814 74.002280280807099 0 0 0 0 137.79513245640555 32.527222553873798 0 32.527222553873798 8.864927570805321 0 0 0 0 -139.29633607603319 19.158971265168475 0 19.158971265168475 84.166351340028996 0 0 0 0 -105.12250750532257 -13.354968736035062 0 -13.354968736035062 73.362365259472426 0 0 0 0 -168.74145566899097 -24.545278693788987 0 -24.545278693788987 113.25140752673315 0 0 0 0 -160.87140997564711 -55.022621155582783 0 -55.022621155582783 50.211141300283998 0 0 0 0 -102.32567771911272 -16.78596948143786 0 -16.78596948143786 73.907024864589403 0 0 0 0 -45.110078941186657 -10.022091667906352 0 -10.022091667906352 47.269378568511456 0 0 0 0 -91.031552383865346 -41.169607080586957 0 -41.169607080586957 26.534201137365017 0 0 0 0 -8.2322400226694299 -23.249990757685282 0 -23.249990757685282 13.305084134203753 0 0 0 0 -22.483721688267806 -5.787437535506065 0 -5.787437535506065 17.943545121470041 0 0 0 0 4.216956614294304 -30.605054491807607 0 -30.605054491807607 7.2556511497332394 0 0 0 0 -45.604836704125773 -12.048568500874353 0 -12.048568500874353 42.276789650488354 0 0 0 0 -11.047332844740595 8.5914620105099857 0 8.5914620105099857 54.598066498297158 0 0 0 0 6.6727060330304084 -7.7577829800366089 0 -7.7577829800366089 25.793847425555214 0 0 0 0 -25.512140751416155 -9.0661322035570038 0 -9.0661322035570038 26.871996790897811 0 0 0 0 -9.3553744041419122 -28.117555168961189 0 -28.117555168961189 21.408767577631806 0 0 0 0 -25.402031584948418 -12.087297122735322 0 -12.087297122735322 44.870901598954219 0 0 0 0 -7.9810799992992543 -18.256202086368148 0 -18.256202086368148 -1.7759612467848456 0 0 0 0 -17.251117582556617 -13.205375567104056 0 -13.205375567104056 14.105877867563549 0 0 0 0 -17.204460807001396 -13.688789723169791 0 -13.688789723169791 18.574491117656635 0 0 0 0 26.468235675303731 -2.5550693713169039 0 -2.5550693713169039 -3.9387379567710923 0 0 0 0 -12.61034682318035 -10.863245194385836 0 -10.863245194385836 2.6121638337629389 0 0 0 0 -3.0089892669287868 2.3778538921813634 0 2.3778538921813634 -0.31485360307658627 0 0 0 0 -87.64670001047125 -27.741467715495219 0 -27.741467715495219 72.468681133241262 0 0 0 0 -46.418658628871299 9.3085546656073035 0 9.3085546656073035 8.0344549307992565 0 0 0 0 -16.78231517165267 -8.4702467490379121 0 -8.4702467490379121 1.1901462120244513 0 0 0 0 -6.9757471000393707 16.66169268825449 0 16.66169268825449 30.660081078086534 0 0 0 0 -12.567373879697698 -17.418638829928568 0 -17.418638829928568 1.5770150581604412 0 0 0 0 -37.11931837155862 27.222611559506163 0 27.222611559506163 41.430861066037551 0 0 0 0 -21.412662018385163 9.3598035211176693 0 9.3598035211176693 -3.8407783343072879 0 0 0 0 -14.08475466586242 11.747690841326857 0 11.747690841326857 -6.4339921958926425 0 0 0 0 21.05661296506878 -36.814573824204786 0 -36.814573824204786 6.4395527269953163 0 0 0 0 -126.58360682474449 -17.294390380270102 0 -17.294390380270102 6.7420209587658064 0 0 0 0 -42.370969485171372 26.536596222110347 0 26.536596222110347 74.088641325647586 0 0 0 0 19.68349864789343 -57.662408487185076 0 -57.662408487185076 94.113515591552883 0 0 0 0 -7.5098869171112241 1.3038634086605043 0 1.3038634086605043 1.5812221995984368 0 0 0 0 -7.2922783413669094 -1.3063510944682548 0 -1.3063510944682548 24.284598017575973 0 0 0 0 -9.1985207923189591 -6.9610795682532398 0 -6.9610795682532398 12.238260277868676 0 0 0 0 -7.2497773733761992 5.3834956171704818 0 5.3834956171704818 4.6821498931067476 0 0 0 0 -29.585895115182211 28.620528521765436 0 28.620528521765436 4.1098934379531329 0 0 0 0 0.72526444762843312 -9.3646685986765306 0 -9.3646685986765306 -23.029784653918682 0 0 0 0 -48.874268137820764 56.691204157866764 0 56.691204157866764 -29.640608086805969 0 0 0 0 -149.2086594637185 -28.790674549117057 0 -28.790674549117057 11.17721537890975 0 0 0 0 -30.430144430244766 -72.739089511233317 0 -72.739089511233317 10.499712563960202 0 0 0 0 -0.56620147215414818 -0.93493127860640968 0 -0.93493127860640968 -0.92914272479674054 0 0 0 0 -228.77153047739557 -78.117479684821546 0 -78.117479684821546 -30.948595805029072 0 0 0 0 -251.44714591785305 17.370650949638502 0 17.370650949638502 20.75309757331388 0 0 0 0 -251.94461148617484 -36.191908690504306 0 -36.191908690504306 24.961531124825797 0 0 0 0 -132.00344419470275 20.409289716659941 0 20.409289716659941 -13.252377543234616 0 0 0 0 -152.11526599914941 -20.31017051264871 0 -20.31017051264871 -44.18773013431246 0 0 0 0 -58.193467340543066 -4.3838353451235434 0 -4.3838353451235434 -243.87415289408364 0 0 0 0 -240.26368753076531 -190.46512899791867 0 -190.46512899791867 -192.45155752224491 0 0 0 0 -357.21209096733219 -51.808053363926319 0 -51.808053363926319 32.921648176671397 0 0 0 0 193.56387241318225 20.774271132532704 0 20.774271132532704 -504.49622449054573 0 0 0 0 161.50682910075557 212.07776955708709 0 212.07776955708709 -208.59275047498403 0 0 0 0 -43.86457273891665 75.575631751835886 0 75.575631751835886 305.45743633568418 0 0 0 0 -16.640382066489636 9.7520977796043624 0 9.7520977796043624 -4.6929559456710237 0 0 0 0 10.15734900739335 250.30051630797516 0 250.30051630797516 247.89809548187895 0 0 0 0 103.03006333007761 198.59089853499188 0 198.59089853499188 172.79150230024243 0 0 0 0 53.371654933129321 39.611520024419406 0 39.611520024419406 174.80662086492066 0 0 0 0 -499.06597562102979 -189.42707685218136 0 -189.42707685218136 312.52758193176828 0 0 0 0 -9.8823653127765283 24.052602856002068 0 24.052602856002068 24.937737615916831 0 0 0 0 -31.171360854716553 12.168077406329559 0 12.168077406329559 -4.2707290629614354 0 0 0 0 -270.91353726328089 68.867059664837356 0 68.867059664837356 317.12881464103782 0 0 0 0 14.584730823909922 -32.515989726034945 0 -32.515989726034945 -26.608765695254533 0 0 0 0 -222.95483550274002 -297.1657735564371 0 -297.1657735564371 -83.685428599474562 0 0 0 0 -5.3563784363929585 -2.1870396702662713 0 -2.1870396702662713 -0.65108340145351551 0 0 0 0 -5.3723971799227002 -149.579620913805 0 -149.579620913805 -295.51029901680704 0 0 0 0 -170.06270867538115 54.231093306788466 0 54.231093306788466 22.2707953086815 0 0 0 0 -76.610556329140309 -16.875831990311553 0 -16.875831990311553 47.966657558386487 0 0 0 0 -123.22352435428911 -160.51819865937591 0 -160.51819865937591 -84.978997210025909 0 0 0 0 -31.263971298800243 -115.40854611976172 0 -115.40854611976172 -62.880584888435806 0 0 0 0 -20.159721318457741 -76.639145972011931 0 -76.639145972011931 -88.337120283512149 0 0 0 0 -172.54856724786441 -36.833635924456757 0 -36.833635924456757 12.84715505358588 0 0 0 0 10.598645171567114 81.209450090898159 0 81.209450090898159 63.408668997310656 0 0 0 0 -75.410546562194213 -50.138244760660768 0 -50.138244760660768 -6.5401802835388025 0 0 0 0 -15.687050841325757 -2.3210085752264416 0 -2.3210085752264416 1.9854870628425352 0 0 0 0 -15.382737887264952 8.2699814083013443 0 8.2699814083013443 -3.8027845549054904 0 0 0 0 -328.56752375598444 65.348185080016719 0 65.348185080016719 -33.8484335214035 0 0 0 0 81.915882246845285 85.396878401788854 0 85.396878401788854 85.381096360885749 0 0 0 0 66.669274771777054 109.6491777140053 0 109.6491777140053 114.92726563889391 0 0 0 0 101.13892972460053 -97.001595669883443 0 -97.001595669883443 -35.185381322641433 0 0 0 0 -76.199896696452925 -380.28876421266318 0 -380.28876421266318 -368.32855340480018 0 0 0 0 -4.0888534510387728 0.43621929143219162 0 0.43621929143219162 0.10888285836904599 0 0 0 0 -186.73555440321434 -371.23778925838599 0 -371.23778925838599 -115.78789468620903 0 0 0 0 -203.4401700911003 -123.32544622801591 0 -123.32544622801591 188.13520052677273 0 0 0 0 -129.31259080587915 -110.56460542984996 0 -110.56460542984996 -283.19385315599152 0 0 0 0 -12.465560746242232 3.0604725725084485 0 3.0604725725084485 -0.064104507737939187 0 0 0 0 -20.309722174048403 12.8223556785737 0 12.8223556785737 -6.9848668259281723 0 0 0 0 -0.33953623933484778 13.99678491748773 0 13.99678491748773 17.010416754731978 0 0 0 0 -36.639818142492004 66.618027078485682 0 66.618027078485682 -10.948867434414524 0 0 0 0 121.17180544159783 198.81319276131126 0 198.81319276131126 151.225413479282 0 0 0 0 98.318844784851535 130.45570298256007 0 130.45570298256007 99.989182184541278 0 0 0 0 122.05249902882497 152.47639286664798 0 152.47639286664798 86.747771906502749 0 0 0 0 67.996937877789605 148.89083352021771 0 148.89083352021771 184.63298125588972 0 0 0 0 84.86275753150403 111.32279939034515 0 111.32279939034515 155.37519674451323 0 0 0 0 87.245272987573117 76.081617148049233 0 76.081617148049233 56.702571543331942 0 0 0 0 67.110865708884376 104.20608363093697 0 104.20608363093697 5.2176358889091716 0 0 0 0 22.412157952436246 88.104156690521449 0 88.104156690521449 27.353780767386979 0 0 0 0 74.283839216028355 96.753824658548524 0 96.753824658548524 0.35138108499631926 0 0 0 0 83.200322934033466 134.03553880058371 0 134.03553880058371 63.901538337668171 0 0 0 0 87.021832168407855 83.531761822965564 0 83.531761822965564 24.27611216254445 0 0 0 0 180.90336576853588 171.23993206490195 0 171.23993206490195 99.590508783710447 0 0 0 0 109.45470273288083 166.35270272265188 0 166.35270272265188 113.21159917396835 0 0 0 0 134.89181496313904 124.10536646610444 0 124.10536646610444 58.988226084982671 0 0 0 0 89.062830398135702 153.02877740167605 0 153.02877740167605 102.7247978624946 0 0 0 0 183.8325104139476 86.511107341878841 0 86.511107341878841 149.04602350918867 0 0 0 0 -18.376200248108944 177.66728255450107 0 177.66728255450107 299.11099211724286 0 0 0 0 -38.033118518040283 200.96116823513876 0 200.96116823513876 275.78300188084904 0 0 0 0 29.005955596774584 148.70145859603599 0 148.70145859603599 178.53689967611353 0 0 0 0 60.652814115368528 89.8524556231514 0 89.8524556231514 286.75601080696811 0 0 0 0 -1.5071161949381349 166.06742919364819 0 166.06742919364819 168.65922432747175 0 0 0 0 81.760596165404422 106.65492748300949 0 106.65492748300949 98.635617219980304 0 0 0 0 9.7736982254573377 145.57937901871446 0 145.57937901871446 77.762826515097004 0 0 0 0 -101.90124054717307 148.03306026197515 0 148.03306026197515 119.80791338888775 0 0 0 0 7.8993720978178317 131.26195080570415 0 131.26195080570415 31.020861848199274 0 0 0 0 -96.038755290064728 144.11183381743831 0 144.11183381743831 59.411428914068892 0 0 0 0 -42.640342380473157 170.2496415901951 0 170.2496415901951 110.08038908249955 0 0 0 0 -22.07072259960114 131.32723275883473 0 131.32723275883473 182.63417978779034 0 0 0 0 -68.958910900793853 154.51263638829187 0 154.51263638829187 175.55348568097776 0 0 0 0 -110.49188447195047 143.29040572295162 0 143.29040572295162 180.52866057735991 0 0 0 0 -23.723819384289527 176.19238506853196 0 176.19238506853196 151.01285313466724 0 0 0 0 -28.333042752026813 221.86964815127612 0 221.86964815127612 201.12191409488514 0 0 0 0 -95.841698775926488 37.056792250595436 0 37.056792250595436 140.51639209483437 0 0 0 0 -40.349780705670128 138.13686093615706 0 138.13686093615706 147.78747557486531 0 0 0 0 -179.97648372984258 100.53795698704653 0 100.53795698704653 149.92916596225228 0 0 0 0 -155.41519274356688 54.082312886473574 0 54.082312886473574 110.56730443282868 0 0 0 0 -313.15402630591416 8.372139260541644 0 8.372139260541644 103.26757685290249 0 0 0 0 -100.31032642297941 139.39892327000098 0 139.39892327000098 115.39436791503977 0 0 0 0 -202.50828119946527 117.78648792148306 0 117.78648792148306 119.39788954672167 0 0 0 0 -185.48763142163807 98.786098192862028 0 98.786098192862028 98.835094375339395 0 0 0 0 -392.72208887024317 87.930567711740878 0 87.930567711740878 99.361104506049543 0 0 0 0 -503.86549533810467 215.74150969194307 0 215.74150969194307 -27.961682350905903 0 0 0 0 -229.46678169333609 93.997735868399104 0 93.997735868399104 5.5806667082342756 0 0 0 0 -219.95016402118199 169.73284867473649 0 169.73284867473649 11.714342598304938 0 0 0 0 22.433335739566246 94.152709538798263 0 94.152709538798263 -45.088279265673464 0 0 0 0 -181.2647550774127 120.00356432145145 0 120.00356432145145 63.227847594524746 0 0 0 0 -87.734337356858305 195.19499904103532 0 195.19499904103532 -6.9832556970013684 0 0 0 0 -75.224310474175581 186.44874661040444 0 186.44874661040444 -120.48561357153267 0 0 0 0 -178.49654079673928 188.77667234179171 0 188.77667234179171 -91.90358514415766 0 0 0 0 -601.0240905738674 -86.817177678537405 0 -86.817177678537405 -131.8078131526604 0 0 0 0 -448.80972350163665 -201.07285673494596 0 -201.07285673494596 -55.338767417507825 0 0 0 0 -1.3198626924281882 1.2368614063298651 0 1.2368614063298651 -1.8532982421364768 0 0 0 0 22.327114039006119 64.310309451975399 0 64.310309451975399 -55.566547731947651 0 0 0 0 -197.04926598619932 -102.50954331037906 0 -102.50954331037906 -40.804591688561828 0 0 0 0 -158.22215016976406 -54.278475372505568 0 -54.278475372505568 -11.865567236031211 0 0 0 0 40.087265576239588 23.098329662345037 0 23.098329662345037 32.082168662793435 0 0 0 0 -4.3472368002816069 4.1938214075374489 0 4.1938214075374489 -4.0554660103571525 0 0 0 0 28.398034758703034 26.687831106384436 0 26.687831106384436 39.030456852532097 0 0 0 0 78.56858099517558 37.300658350217418 0 37.300658350217418 -13.175105258767871 0 0 0 0 59.678273223025826 80.945827793678745 0 80.945827793678745 92.017979694193855 0 0 0 0 77.437600888315501 56.568324812641663 0 56.568324812641663 36.945836251490164 0 0 0 0 68.901208584356937 66.531135309596266 0 66.531135309596266 64.152352276931651 0 0 0 0 33.196830477467302 45.527335398950697 0 45.527335398950697 53.52460566484919 0 0 0 0 48.5215460397485 54.751598230316574 0 54.751598230316574 28.451445264112181 0 0 0 0 49.276222489806969 58.668155916881346 0 58.668155916881346 32.311892565622429 0 0 0 0 38.606805308139883 61.405835661979268 0 61.405835661979268 64.805066781335512 0 0 0 0 44.151069094004924 79.490620615948387 0 79.490620615948387 110.51198105486992 0 0 0 0 65.602535681347945 74.667248512571859 0 74.667248512571859 61.25127032364901 0 0 0 0 -23.621376797898847 -21.22676294325106 0 -21.22676294325106 15.029594676772831 0 0 0 0 -27.729201884307258 -40.260259871534799 0 -40.260259871534799 57.545048898499999 0 0 0 0 -35.884618264177334 -0.30626383560445447 0 -0.30626383560445447 74.159014424421002 0 0 0 0 -29.266580189287197 -25.200240575709358 0 -25.200240575709358 14.913138280449857 0 0 0 0 -26.415509278194804 0.77861948559848315 0 0.77861948559848315 19.953422237164318 0 0 0 0 -32.861845798026479 -26.600468728493979 0 -26.600468728493979 29.276191304728059 0 0 0 0 -7.9243960143328565 -7.6602151518669288 0 -7.6602151518669288 8.3680366655174812 0 0 0 0 -27.979254627374758 -19.987740230744862 0 -19.987740230744862 70.460568286622674 0 0 0 0 -21.944070352523894 -15.111583819655749 0 -15.111583819655749 14.087161169500668 0 0 0 0 1.9034302419022424 -31.195015985028476 0 -31.195015985028476 11.628351987522137 0 0 0 0 -8.893293602646736 -36.110138401093991 0 -36.110138401093991 5.2462357006961611 0 0 0 0 -33.513031486349064 -30.113945548712763 0 -30.113945548712763 6.0154115052012571 0 0 0 0 -8.0428362200656238 -1.3122790826966479 0 -1.3122790826966479 3.2384398361327733 0 0 0 0 -36.570806871211971 -29.779919267217338 0 -29.779919267217338 11.882130887551284 0 0 0 0 -79.935668150341371 -53.690178005915641 0 -53.690178005915641 -7.6484456783764472 0 0 0 0 -37.47813897987362 -20.086409198350339 0 -20.086409198350339 15.802628878981068 0 0 0 0 -110.77629850558151 -144.36455964570109 0 -144.36455964570109 -178.19468030369899 0 0 0 0 -34.446158608516271 -27.271785510326026 0 -27.271785510326026 -2.2617364838976073 0 0 0 0 -225.96613991800405 -75.893422098127303 0 -75.893422098127303 92.032483792322637 0 0 0 0 -213.33123631525086 43.830305115915507 0 43.830305115915507 150.70531882108617 0 0 0 0 -183.95908043335658 -23.184591137713142 0 -23.184591137713142 141.98498700317759 0 0 0 0 -182.36651868508488 -72.871197642293737 0 -72.871197642293737 74.850346340388569 0 0 0 0 -189.09716005622613 -54.326183188850337 0 -54.326183188850337 43.294188514731559 0 0 0 0 -206.82686645200738 -69.70567735964778 0 -69.70567735964778 74.495877909000228 0 0 0 0 -368.32839842326939 -205.92909502570024 0 -205.92909502570024 -78.804586458061749 0 0 0 0 -253.42893061687209 -1.4096697026316178 0 -1.4096697026316178 61.840217750207557 0 0 0 0 -1.3834707250312874 1.203159961006552 0 1.203159961006552 -1.1329964457018367 0 0 0 0 -252.5138121233249 -242.6375334819927 0 -242.6375334819927 -207.63675983409939 0 0 0 0 -97.266872915119166 122.85325018523872 0 122.85325018523872 26.865848820290694 0 0 0 0 -499.09456609221525 -188.32804232849503 0 -188.32804232849503 -74.72155206140269 0 0 0 0 -689.99611956118679 -142.95369667016371 0 -142.95369667016371 24.645323284747064 0 0 0 0 -346.57575802276551 -66.564998232555922 0 -66.564998232555922 16.809083391506647 0 0 0 0 -612.2591157456045 -41.706746679875778 0 -41.706746679875778 -251.77698900074756 0 0 0 0 30.794717042404955 -30.646008993048781 0 -30.646008993048781 -13.903079570879072 0 0 0 0 -467.65241389027869 3.0493821228398303 0 3.0493821228398303 55.793114123016494 0 0 0 0 -359.82179526808613 76.139066383633235 0 76.139066383633235 31.335293983494466 0 0 0 0 -198.85669024686649 115.22805240317234 0 115.22805240317234 -5.6572407594748029 0 0 0 0 -264.8187651886401 2.9015448031103688 0 2.9015448031103688 23.323197574538653 0 0 0 0 -251.33689610899455 -19.881282510769552 0 -19.881282510769552 -19.405828504652163 0 0 0 0 -96.742464349841612 20.73721818647266 0 20.73721818647266 -24.417912957769659 0 0 0 0 -93.733588285820588 26.544157350211094 0 26.544157350211094 -15.175536850620119 0 0 0 0 -43.164119498222135 11.179249730179095 0 11.179249730179095 -29.273562787491755 0 0 0 0 -38.108677524343875 -25.727695420793509 0 -25.727695420793509 13.945301499921243 0 0 0 0 -13.648038463521516 15.269997251786208 0 15.269997251786208 -38.260566016999292 0 0 0 0 -24.518498327208363 -20.500493706711836 0 -20.500493706711836 -11.657401346680672 0 0 0 0 -27.849492819881561 -18.66023856371919 0 -18.66023856371919 13.873725337529777 0 0 0 0 -49.908191755937878 -5.4383373770033359 0 -5.4383373770033359 1.0024971823202122 0 0 0 0 -15.780004313128302 -8.2444541052509521 0 -8.2444541052509521 7.1081168190958124 0 0 0 0 -18.03458446746663 -29.232439611191467 0 -29.232439611191467 9.0674677082490973 0 0 0 0 -2.7567003424993466 1.6068612705673289 0 1.6068612705673289 2.9433940745465854 0 0 0 0 -53.424887656958163 0.35835119858643338 0 0.35835119858643338 53.350411496039442 0 0 0 0 -14.398870175052636 -10.605775323378097 0 -10.605775323378097 0.42753875876968284 0 0 0 0 4.0508350329419045 -23.256692607391557 0 -23.256692607391557 6.7179002956436307 0 0 0 0 4.4297239484176316 -25.25104544533157 0 -25.25104544533157 15.985737271342032 0 0 0 0 -40.174235675236559 66.943264486067733 0 66.943264486067733 -58.209336594228944 0 0 0 0 0.54220474126486806 -0.24523609701474314 0 -0.24523609701474314 -0.35963138441323128 0 0 0 0 -8.0287593511666273 -92.50571266847129 0 -92.50571266847129 -7.2684381587932876 0 0 0 0 -104.46962991221517 -23.726221786084665 0 -23.726221786084665 33.604799606475694 0 0 0 0 0.27619168834846519 0.35866657515129674 0 0.35866657515129674 -0.45901149873924485 0 0 0 0 183.15095866089541 -93.181173525399643 0 -93.181173525399643 29.552301839553138 0 0 0 0 -106.3759542857515 -5.1624434549596572 0 -5.1624434549596572 0.78033588640664675 0 0 0 0 -19.515977833829652 -8.9065059273514251 0 -8.9065059273514251 4.1462293408515798 0 0 0 0 -9.6440244459288635 -10.706331622518242 0 -10.706331622518242 1.4795280048281887 0 0 0 0 -23.913247233004171 -17.206238594040386 0 -17.206238594040386 9.8608272364239511 0 0 0 0 17.213736657577101 -27.134472720777698 0 -27.134472720777698 24.484464783278383 0 0 0 0 12.718586482464161 -33.600655959204914 0 -33.600655959204914 21.954108438778633 0 0 0 0 22.681855731323594 -18.384725584590399 0 -18.384725584590399 29.655916032210257 0 0 0 0 21.608366529180785 -31.20794643885732 0 -31.20794643885732 18.146916106552226 0 0 0 0 -42.270105963747483 -14.111204952873777 0 -14.111204952873777 -109.34774807810118 0 0 0 0 52.769309821675051 -95.514327810733405 0 -95.514327810733405 35.385813825656783 0 0 0 0 47.54793504567715 -25.360409064829696 0 -25.360409064829696 17.977625134525738 0 0 0 0 0.039729817827968361 -0.80897746517768354 0 -0.80897746517768354 -2.3025064266854018 0 0 0 0 -64.691222007561009 5.3175437590159049 0 5.3175437590159049 4.8386082517520776 0 0 0 0 -17.6462451651023 7.8073460329708269 0 7.8073460329708269 -1.7535191295428376 0 0 0 0 -2.1974498077223714 -0.79614081623345356 0 -0.79614081623345356 -2.4218147590807582 0 0 0 0 -17.55402183109436 8.5398921090574902 0 8.5398921090574902 0.44980262520448377 0 0 0 0 -42.698055538596236 13.842009507799787 0 13.842009507799787 8.1254149570731897 0 0 0 0 -18.725526171270758 9.578329460691748 0 9.578329460691748 3.1546354165150206 0 0 0 0 7.4842233496237895 -30.941239565733213 0 -30.941239565733213 36.345794875076535 0 0 0 0 7.0617769571690587 -42.209008952054546 0 -42.209008952054546 5.5022232204769352 0 0 0 0 8.1383953816693975 -33.906748253059277 0 -33.906748253059277 31.653703661861528 0 0 0 0 5.8496706275473116 -43.746590126174453 0 -43.746590126174453 14.435676059385059 0 0 0 0 1.643507115310058 -31.749298098936237 0 -31.749298098936237 26.510663631651823 0 0 0 0 -9.057310018230055 9.5225186155724941 0 9.5225186155724941 16.533290407906804 0 0 0 0 -7.9199872408717056 1.8478857224828289 0 1.8478857224828289 25.899564795402057 0 0 0 0 -1.094505422792281 17.912747152422867 0 17.912747152422867 13.339273358768793 0 0 0 0 -2.9750488166565461 1.3588938498327607 0 1.3588938498327607 0.74349618908200821 0 0 0 0 -14.606989050573247 1.9729408576820617 0 1.9729408576820617 3.0324439648070438 0 0 0 0 -16.4699947915542 -3.9326589523008124 0 -3.9326589523008124 0.60858729036522163 0 0 0 0 -33.134864430685411 -13.966796555877792 0 -13.966796555877792 -3.8409174238530852 0 0 0 0 13.034502531572798 21.818261695197407 0 21.818261695197407 -47.733460796064264 0 0 0 0 7.6957090484529544 -8.1140115700934992 0 -8.1140115700934992 -20.957285762135598 0 0 0 0 -0.87330598375628199 0.55010182273501584 0 0.55010182273501584 0.21390963122610895 0 0 0 0 -61.782008043395763 -12.646785857478221 0 -12.646785857478221 1.2593411578995983 0 0 0 0 -13.743015052037663 52.551831000075254 0 52.551831000075254 -49.640419865394833 0 0 0 0 13.976272259606048 143.9704572967394 0 143.9704572967394 50.667088659271485 0 0 0 0 -30.636591624959692 -11.625037238910267 0 -11.625037238910267 -43.715311881850809 0 0 0 0 -8.8720369145412405 1.9137215043285778 0 1.9137215043285778 -25.727844746611368 0 0 0 0 -2.0971802408894291 8.8553949181657572 0 8.8553949181657572 -34.792867996217979 0 0 0 0 -14.998795886749576 -22.966211845011816 0 -22.966211845011816 -38.849708475397392 0 0 0 0 -12.977439967438841 -28.422247516665095 0 -28.422247516665095 -58.54825605744918 0 0 0 0 -31.873625866792281 -10.830440453131018 0 -10.830440453131018 -32.784168905024558 0 0 0 0 -34.246974955145561 -28.297050767627979 0 -28.297050767627979 -17.664302162661215 0 0 0 0 -19.262936123162945 -37.342213893538428 0 -37.342213893538428 -48.590296751421647 0 0 0 0 21.028015434952977 -29.795058397082585 0 -29.795058397082585 -48.216831814797189 0 0 0 0 0.35289800925441739 -0.13533785201494197 0 -0.13533785201494197 -1.2634253368986732 0 0 0 0 -89.163209403006476 -4.5288099645295006 0 -4.5288099645295006 9.5075858926093133 0 0 0 0 155.50734291706431 -76.898967183652985 0 -76.898967183652985 93.421560885302824 0 0 0 0 -54.988399420588394 27.40568252858111 0 27.40568252858111 36.230947401842997 0 0 0 0 -45.024307459330885 30.258848793471316 0 30.258848793471316 18.291308572138405 0 0 0 0 -92.42895554057759 -55.451207097005408 0 -55.451207097005408 -21.114375509313959 0 0 0 0 -8.1468768601043848 -13.921303915547128 0 -13.921303915547128 9.1562105742739277 0 0 0 0 -1.2076598934276745 -2.6404370688360927 0 -2.6404370688360927 -2.9566847435491304 0 0 0 0 79.886820384672319 -194.83183350344893 0 -194.83183350344893 16.825038076381588 0 0 0 0 -15.678009730225313 4.1164414274828687 0 4.1164414274828687 125.46571151189983 0 0 0 0 -23.187003164792259 -7.1262126441837381 0 -7.1262126441837381 16.332786365756419 0 0 0 0 -19.971685530141258 -40.434308568194183 0 -40.434308568194183 14.952287631812396 0 0 0 0 134.26926369098692 6.256581473579871 0 6.256581473579871 -25.03326101026687 0 0 0 0 -20.090779048652621 -76.963235383863321 0 -76.963235383863321 -52.18784367502758 0 0 0 0 -122.34489240500989 -20.364031949497303 0 -20.364031949497303 68.758941891714585 0 0 0 0 -49.044392314081051 -5.2123588486913377 0 -5.2123588486913377 44.025619140051731 0 0 0 0 -115.37712197130895 -49.522437605236064 0 -49.522437605236064 15.113545502347506 0 0 0 0 -135.60674347044187 -28.732846795530463 0 -28.732846795530463 55.634987458091018 0 0 0 0 -127.23461628153018 -34.088203171430905 0 -34.088203171430905 55.521647252239475 0 0 0 0 -192.00736960247377 -73.320808337618018 0 -73.320808337618018 22.01805296575526 0 0 0 0 -201.05660208652034 -16.080501305431468 0 -16.080501305431468 50.833704664542893 0 0 0 0 -164.54259944259684 -35.979094927177812 0 -35.979094927177812 61.030186670775493 0 0 0 0 -168.2968839559544 -118.48393204538246 0 -118.48393204538246 -190.30116221020273 0 0 0 0 -183.18686523290671 -28.430348671094634 0 -28.430348671094634 13.457906116287631 0 0 0 0 -447.53495342320093 -32.995947158992635 0 -32.995947158992635 15.693016339190095 0 0 0 0 -120.00006406626926 -30.684032102686615 0 -30.684032102686615 -42.001085574619594 0 0 0 0 -96.845828700086713 -58.645392030117137 0 -58.645392030117137 -53.482290935419883 0 0 0 0 -68.054602687410807 -20.068371758812532 0 -20.068371758812532 -9.6746536977882442 0 0 0 0 -52.485135535611334 -43.794962323004881 0 -43.794962323004881 -29.369690607966504 0 0 0 0 -203.94349541361589 18.475657108769951 0 18.475657108769951 62.433289063460961 0 0 0 0 -151.98661015805556 38.609451874009892 0 38.609451874009892 69.392926209064285 0 0 0 0 -284.39665274326762 132.14239451430126 0 132.14239451430126 -68.788520587012499 0 0 0 0 -0.11947868948118412 59.123086303549144 0 59.123086303549144 -50.66937113699737 0 0 0 0 38.762226232472131 131.51054375268552 0 131.51054375268552 -34.724424032719298 0 0 0 0 -18.608640053082347 20.248948728774621 0 20.248948728774621 -5.2417672093953227 0 0 0 0 -14.229021822246068 -17.315468976526205 0 -17.315468976526205 -2.8353173551402051 0 0 0 0 -3.9326880636337194 -0.43408798667066861 0 -0.43408798667066861 0.65408233434656271 0 0 0 0 -31.453845346790331 40.580515893800936 0 40.580515893800936 -189.93967514185442 0 0 0 0 -426.6504956736826 -9.0045622086485508 0 -9.0045622086485508 90.978616390938555 0 0 0 0 -155.713959089735 -163.52727841544208 0 -163.52727841544208 -59.892518047458168 0 0 0 0 -218.15549152625579 -98.906398475843986 0 -98.906398475843986 -5.9477083231065535 0 0 0 0 -498.32659389416222 -202.18635141283221 0 -202.18635141283221 16.726273895176519 0 0 0 0 72.542752323182867 22.887579461298913 0 22.887579461298913 -76.45834744769013 0 0 0 0 -219.67415603769041 -31.931113364170756 0 -31.931113364170756 9.7106540089934583 0 0 0 0 -42.81243890368205 -46.91271049880126 0 -46.91271049880126 -96.914467757171678 0 0 0 0 -74.015297130310501 8.480205851220262 0 8.480205851220262 -39.181578372920228 0 0 0 0 -156.72272016719944 29.250454565119412 0 29.250454565119412 -150.39115689302275 0 0 0 0 -396.05171269306629 -132.43064647193415 0 -132.43064647193415 43.876234470124132 0 0 0 0 -302.99838605610785 27.829839471482217 0 27.829839471482217 -41.439520557712399 0 0 0 0 -111.35759269445407 -37.64036274643928 0 -37.64036274643928 -52.995306182040395 0 0 0 0 -148.90987490339467 -28.018183994043881 0 -28.018183994043881 -21.635439579634493 0 0 0 0 -136.63934678118312 -158.46334925733208 0 -158.46334925733208 -84.285853103222053 0 0 0 0 7.9843268130789511 -12.939233509117457 0 -12.939233509117457 -49.677807285805102 0 0 0 0 -0.19781991796650589 0.94223321424891537 0 0.94223321424891537 0.58333479642482167 0 0 0 0 -118.46251425931405 20.42457558106986 0 20.42457558106986 -30.403175352939172 0 0 0 0 -118.68695269474438 15.515426051162713 0 15.515426051162713 17.346989520741545 0 0 0 0 -12.886143002175231 19.075079346272787 0 19.075079346272787 8.7991735623659224 0 0 0 0 -111.16392837623334 68.393187284396461 0 68.393187284396461 -28.845503199274049 0 0 0 0 0.33697229637456871 -0.47287743818849748 0 -0.47287743818849748 -0.77008762629710004 0 0 0 0 -3.1920187749637989 -9.9931272789310697 0 -9.9931272789310697 -34.541141227042772 0 0 0 0 -65.817457282744726 -46.440230827722019 0 -46.440230827722019 50.572742644887285 0 0 0 0 -60.003117768485936 10.408149678304824 0 10.408149678304824 -3.8289038321821636 0 0 0 0 -31.461131316824321 11.499448208080594 0 11.499448208080594 -5.6344058544430027 0 0 0 0 -66.256648232047155 37.457910808179804 0 37.457910808179804 -18.746901423134716 0 0 0 0 -1.9058583817283798 0.21792580449128707 0 0.21792580449128707 1.7877594368329124 0 0 0 0 -87.874506423470848 -10.09151559880911 0 -10.09151559880911 22.367636454118838 0 0 0 0 -15.201532953076821 -2.0836179930037133 0 -2.0836179930037133 2.9549457559169241 0 0 0 0 -24.127054732878605 3.0248660906938767 0 3.0248660906938767 -15.739236853800321 0 0 0 0 -1.3022603871596594 -3.6168027950097539 0 -3.6168027950097539 -2.03010097977669 0 0 0 0 -45.212628803665211 -0.7568407009252951 0 -0.7568407009252951 9.6182020552359972 0 0 0 0 -41.339953953260192 -1.8634891742784703 0 -1.8634891742784703 1.193023245792574 0 0 0 0 -1.8407396149369859 0.96409229972792332 0 0.96409229972792332 -1.5714174739230167 0 0 0 0 -25.692000973940594 -5.6447956060831075 0 -5.6447956060831075 -31.822876869986999 0 0 0 0 -18.665628615417518 -15.007284866719147 0 -15.007284866719147 -21.338555030314183 0 0 0 0 -52.822062167544573 15.22238746730352 0 15.22238746730352 -17.451101574085897 0 0 0 0 -69.971216657790137 25.231459987279266 0 25.231459987279266 -21.841026011215945 0 0 0 0 -130.96605103936236 -68.834237533946265 0 -68.834237533946265 -41.43404640348399 0 0 0 0 -253.80114978359779 -14.403426163173776 0 -14.403426163173776 -13.024979039949358 0 0 0 0 -613.28322187469803 -48.924808873859391 0 -48.924808873859391 103.12595996503819 0 0 0 0 -492.75879841803544 45.46337797995966 0 45.46337797995966 6.8252631923543277 0 0 0 0 -0.84044674812446374 -0.28130177177137483 0 -0.28130177177137483 -2.6029840940478444 0 0 0 0 -281.53107135528262 -65.02438580752289 0 -65.02438580752289 -44.999952877539272 0 0 0 0 -450.84212380254758 -72.621890258732208 0 -72.621890258732208 18.283573006635379 0 0 0 0 -386.86653547399328 37.041377160668503 0 37.041377160668503 -57.662188582547969 0 0 0 0 -358.70012713732103 -24.977891080166387 0 -24.977891080166387 -4.3951001702794201 0 0 0 0 -320.76176658961776 -40.714058484309817 0 -40.714058484309817 -53.816793123457728 0 0 0 0 -264.31834136375255 -38.962499045968343 0 -38.962499045968343 -21.983696157705765 0 0 0 0 -307.29058610466927 -18.017178737088216 0 -18.017178737088216 -15.760929058157899 0 0 0 0 -214.19715179939158 -68.999222995539185 0 -68.999222995539185 -38.718279141254527 0 0 0 0 -148.37055977394994 -40.210397628836517 0 -40.210397628836517 -48.322479191720049 0 0 0 0 -170.14164275160692 -12.999481114000957 0 -12.999481114000957 -39.641973854796561 0 0 0 0 -107.59667472866204 -54.9789999098424 0 -54.9789999098424 -30.172082737280391 0 0 0 0 -165.32925145519403 14.430681660930532 0 14.430681660930532 -37.909626025126045 0 0 0 0 -225.03477811415723 -2.1479809344542673 0 -2.1479809344542673 -33.319866482431962 0 0 0 0 -268.5555609695366 4.5644537346749985 0 4.5644537346749985 -12.339222229033965 0 0 0 0 -226.06816650212568 -13.862130819375921 0 -13.862130819375921 -33.284293665049518 0 0 0 0 -280.27171462392289 -2.8394512069953635 0 -2.8394512069953635 -10.322114813940971 0 0 0 0 -283.06064033927396 -14.644082247606548 0 -14.644082247606548 -17.917639838086899 0 0 0 0 -313.81415554887644 -25.700675178152096 0 -25.700675178152096 -10.653682038207776 0 0 0 0 -269.74741057946721 -6.3252720512362828 0 -6.3252720512362828 -18.210997660731209 0 0 0 0 -328.15580223128927 -12.566605466654892 0 -12.566605466654892 -9.7695005277219025 0 0 0 0 -330.42685098566926 -2.4945879480471547 0 -2.4945879480471547 -17.60917368925675 0 0 0 0 -316.41854168011832 -13.134331792332944 0 -13.134331792332944 -26.228865164616309 0 0 0 0 -339.16421456982789 -26.490935643466003 0 -26.490935643466003 -4.5109752437861061 0 0 0 0 -377.84040674764765 -0.50853625358303134 0 -0.50853625358303134 18.841230737785509 0 0 0 0 -0.23515390883121823 0.47718197133026763 0 0.47718197133026763 -0.42584915526802547 0 0 0 0 -343.46392857787941 32.357097916014368 0 32.357097916014368 2.4005202335843023 0 0 0 0 -262.73877555154104 4.3517265778841647 0 4.3517265778841647 -12.879341256857515 0 0 0 0 -283.82136721392453 16.505563292716261 0 16.505563292716261 -10.473067968613577 0 0 0 0 -300.4538360893639 -4.260558784665136 0 -4.260558784665136 -3.2905128628144666 0 0 0 0 -326.80017163616503 4.5435005011568137 0 4.5435005011568137 -2.5686917424882267 0 0 0 0 -233.5266551466957 5.3941045459941961 0 5.3941045459941961 -23.841319197575558 0 0 0 0 -166.18787319863986 24.469540560207406 0 24.469540560207406 -31.804102104448702 0 0 0 0 -233.8550827833069 7.5944976724451152 0 7.5944976724451152 -14.919166675470024 0 0 0 0 -6.8417876229245849 -18.711976206443012 0 -18.711976206443012 -68.04249931791901 0 0 0 0 -1.2796572984623253 1.4057481690660758 0 1.4057481690660758 -1.8586198321473582 0 0 0 0 0.2943512726260451 5.1760398257284805 0 5.1760398257284805 -2.8841122366966374 0 0 0 0 -1.01726438793313 -4.3794912271014326 0 -4.3794912271014326 -4.9275845186395903 0 0 0 0 -152.03020884319994 -92.509247627880541 0 -92.509247627880541 82.328346984611244 0 0 0 0 -30.259479777698289 1.3818124663794151 0 1.3818124663794151 -11.847741786284701 0 0 0 0 -36.320764993215562 19.195853755025382 0 19.195853755025382 -456.29590862547047 0 0 0 0 -142.97160290276224 231.50468542757335 0 231.50468542757335 120.5090490502962 0 0 0 0 -43.993023378338876 -12.144462978399901 0 -12.144462978399901 11.815748792830618 0 0 0 0 1.0460425584387849 95.876421245427082 0 95.876421245427082 -146.43567845148482 0 0 0 0 13.819266231617803 18.913563960969896 0 18.913563960969896 25.119160575105525 0 0 0 0 111.95018183681532 248.04938467460897 0 248.04938467460897 92.896182234312619 0 0 0 0 -231.85157341873673 129.41287580160042 0 129.41287580160042 154.35049031673725 0 0 0 0 -15.431133144571618 10.982372341540875 0 10.982372341540875 -5.4750293817045312 0 0 0 0 18.930922615805457 42.736562840117728 0 42.736562840117728 -20.620178421749642 0 0 0 0 -3.612557583988746 7.0170723728951998 0 7.0170723728951998 -0.88820099593294799 0 0 0 0 -356.13743710842391 -11.811284832823731 0 -11.811284832823731 167.98504350625763 0 0 0 0 115.20231319114282 -127.0172371101994 0 -127.0172371101994 -76.742585714898269 0 0 0 0 -106.40594656991289 -91.604045674668669 0 -91.604045674668669 -18.666191253944817 0 0 0 0 -173.14097995531483 -45.058847324555245 0 -45.058847324555245 57.062801272775687 0 0 0 0 -110.38541822743719 13.128724714727014 0 13.128724714727014 89.818293932120469 0 0 0 0 -165.593120657079 -20.971078424705865 0 -20.971078424705865 70.580279508485546 0 0 0 0 -79.705430432837602 -26.093518320956719 0 -26.093518320956719 -8.2804073857023468 0 0 0 0 -11.546428078590907 28.825551884004653 0 28.825551884004653 32.420493257875933 0 0 0 0 7.5063436708460358 -41.909618676152149 0 -41.909618676152149 24.453590299460757 0 0 0 0 -11.955374556187962 -28.747254736269724 0 -28.747254736269724 47.896860126368665 0 0 0 0 27.059866274923479 -22.898282874120923 0 -22.898282874120923 -12.216660576658796 0 0 0 0 -5.8936494827414023 -3.8978696039267717 0 -3.8978696039267717 0.96470044534242927 0 0 0 0 -6.1608946888500213 -36.478797150711671 0 -36.478797150711671 23.227137841219701 0 0 0 0 6.3180814789038777 -17.166457807038569 0 -17.166457807038569 -9.3754789174263351 0 0 0 0 -10.878151745169816 1.5293440729701615 0 1.5293440729701615 -3.8949552392623445 0 0 0 0 -2.3993534246393224 0.46044538907280064 0 0.46044538907280064 -0.035337690216722173 0 0 0 0 14.701341891883203 -48.580246624071151 0 -48.580246624071151 -101.05753571969308 0 0 0 0 -29.033185676069905 -50.005217096406383 0 -50.005217096406383 55.703979887685819 0 0 0 0 -20.568644902743486 -0.22626870853281034 0 -0.22626870853281034 3.7406483528181109 0 0 0 0 -16.710032820854394 -1.1191948761827462 0 -1.1191948761827462 9.0961683625178011 0 0 0 0 -18.362171799578704 -5.7359877725932122 0 -5.7359877725932122 7.9269317967992539 0 0 0 0 -13.026677397690946 2.362330968938295 0 2.362330968938295 16.978690721768544 0 0 0 0 -15.01170658641081 2.0783505648401004 0 2.0783505648401004 3.7455725594708982 0 0 0 0 -8.4338306662832707 8.7887786005512556 0 8.7887786005512556 -0.98933205767959187 0 0 0 0 -8.15848969144281 7.6503660435264464 0 7.6503660435264464 -4.6055761334500858 0 0 0 0 -17.068582600130867 4.7660341494179725 0 4.7660341494179725 19.966699863777649 0 0 0 0 -17.762547396479931 -0.20209319499804224 0 -0.20209319499804224 2.8742550191032024 0 0 0 0 -10.230238019474044 0.65757073074061623 0 0.65757073074061623 4.7046637818649728 0 0 0 0 -15.206293630695626 -3.7529416166396672 0 -3.7529416166396672 4.8889929133524284 0 0 0 0 -16.578529925438488 -2.4295131971957744 0 -2.4295131971957744 6.3940380769763578 0 0 0 0 -11.560440713932053 -0.60851590988008653 0 -0.60851590988008653 1.800849167278167 0 0 0 0 -16.947973652844667 -22.106902230019841 0 -22.106902230019841 9.8154255663584991 0 0 0 0 -24.873410361047718 8.5980823468066774 0 8.5980823468066774 -0.83086242748140648 0 0 0 0 -8.9823964210299891 -2.7629718090647657 0 -2.7629718090647657 4.2728827567060463 0 0 0 0 -9.9828591806028442 -3.9444744431837506 0 -3.9444744431837506 -1.463554937390418 0 0 0 0 13.840135621197987 -14.381766980964585 0 -14.381766980964585 -5.8210198309379848 0 0 0 0 7.7904966893402161 -47.495248879121391 0 -47.495248879121391 36.427589386581985 0 0 0 0 -10.648619056411007 -17.829187361039743 0 -17.829187361039743 12.361290869517688 0 0 0 0 -17.556680048917769 6.3516610347171536 0 6.3516610347171536 2.1500632901625067 0 0 0 0 -19.292506629186391 4.950044857767125 0 4.950044857767125 1.5475590345618002 0 0 0 0 -14.594890384330938 5.2303142855735132 0 5.2303142855735132 0.0019603643531809212 0 0 0 0 -19.006918724546267 3.6055517709471587 0 3.6055517709471587 -2.7566464181768424 0 0 0 0 -11.43474074512158 0.40198693860340384 0 0.40198693860340384 1.1541740241195995 0 0 0 0 -17.424591775961744 6.27078533181475 0 6.27078533181475 -1.9152407993155975 0 0 0 0 -17.665628607963299 5.3496619769406379 0 5.3496619769406379 1.8569532388946755 0 0 0 0 -23.898597177731062 2.1096951725300528 0 2.1096951725300528 3.0290717035391026 0 0 0 0 -21.24390421660064 7.3295152214893733 0 7.3295152214893733 1.1536033705906448 0 0 0 0 -13.073910459759645 7.3109803895858931 0 7.3109803895858931 -9.2715625113414717 0 0 0 0 -9.560924630576018 1.6313167969363889 0 1.6313167969363889 1.1444571252582381 0 0 0 0 -7.1660739015605941 10.594930755168207 0 10.594930755168207 -7.4501611595742361 0 0 0 0 -17.339023495733272 -0.87716095266409866 0 -0.87716095266409866 2.5948023306549999 0 0 0 0 -15.207830809689767 0.58413071381505688 0 0.58413071381505688 2.8114467842883357 0 0 0 0 0.017184888456128533 -1.1377217340975392 0 -1.1377217340975392 0.077731870690378985 0 0 0 0 -4.2277070932988181 4.7680358362594113 0 4.7680358362594113 -5.0770749538432742 0 0 0 0 -0.92083444299572648 0.64210781853911314 0 0.64210781853911314 -2.1836042175326771 0 0 0 0 -8.6849694831325905 7.0021357419873311 0 7.0021357419873311 -3.8299191009236893 0 0 0 0 -3.7632755763879686 4.4046114808006678 0 4.4046114808006678 -2.7195592191681044 0 0 0 0 -7.3731316812081786 6.3961603350826408 0 6.3961603350826408 -0.67041389600535695 0 0 0 0 -6.3003765288376599 7.5434005171503031 0 7.5434005171503031 -5.4838068424605808 0 0 0 0 -13.254806278637261 12.607163094977295 0 12.607163094977295 0.6543676792698534 0 0 0 0 -33.305175281173433 101.50468037664359 0 101.50468037664359 112.64056115342078 0 0 0 0 -18.276844900964001 10.527344988938356 0 10.527344988938356 -3.9821646417260066 0 0 0 0 -920.25365848736647 -213.85909399059139 0 -213.85909399059139 -101.12280636075651 0 0 0 0 -872.4623690194112 -322.89586269522414 0 -322.89586269522414 -4.7673108899681749 0 0 0 0 -1496.7202953695635 -631.19303286735658 0 -631.19303286735658 80.982442037060622 0 0 0 0 -184.922337215683 -86.161527622007071 0 -86.161527622007071 -198.08353374267676 0 0 0 0 -363.69101313086321 185.69819747235118 0 185.69819747235118 27.353393474488996 0 0 0 0 -229.61391792786617 178.83002644773347 0 178.83002644773347 -121.66199840103786 0 0 0 0 -230.56522600580115 173.57437364971611 0 173.57437364971611 12.912621197323631 0 0 0 0 -121.88876367714556 31.921811443493866 0 31.921811443493866 -62.50946258383928 0 0 0 0 -525.48730384246119 133.6180257191815 0 133.6180257191815 -62.0103451076615 0 0 0 0 -494.50758737330943 38.873131258478608 0 38.873131258478608 -72.520295609856319 0 0 0 0 -580.75898477039482 389.12739785549314 0 389.12739785549314 -240.37823196760351 0 0 0 0 -3.3891793241148349 -1.6217046054726056 0 -1.6217046054726056 -0.60066351251501449 0 0 0 0 -1114.9922337420821 -44.384682008742686 0 -44.384682008742686 -67.098117572520025 0 0 0 0 -8.0441916523690686 -2.5886518071004625 0 -2.5886518071004625 1.043782481250112 0 0 0 0 -106.30318200187776 187.47497411169485 0 187.47497411169485 -270.34281285363835 0 0 0 0 -7.1846398382672305 -65.204528812196855 0 -65.204528812196855 116.11372311719788 0 0 0 0 -50.078474874423932 37.784204518950432 0 37.784204518950432 -0.4994033786114187 0 0 0 0 -7.1953557090742102 -3.8477650267434789 0 -3.8477650267434789 -2.3840552227997067 0 0 0 0 -88.486403010221693 -110.65130245209851 0 -110.65130245209851 -129.12881676902938 0 0 0 0 -1425.2896089650603 313.64081222335903 0 313.64081222335903 136.62696165063605 0 0 0 0 -2.6893766305362785 -1.933439938468525 0 -1.933439938468525 -1.8035795188208652 0 0 0 0 -1636.4522662843901 133.8078122620156 0 133.8078122620156 92.417470078639752 0 0 0 0 -1672.194451361247 -99.912634260395961 0 -99.912634260395961 -49.779361424678399 0 0 0 0 -1464.4757501925289 50.521496053659334 0 50.521496053659334 -88.10809508599344 0 0 0 0 -1129.4030665430082 16.341225980204012 0 16.341225980204012 -233.7498954941762 0 0 0 0 -1290.1075172478895 -306.07884635453411 0 -306.07884635453411 -5.4185187603594098 0 0 0 0 -1500.4479223298549 -127.02295140711674 0 -127.02295140711674 -91.486421827908046 0 0 0 0 -1312.5497957471548 -54.733818346757218 0 -54.733818346757218 -66.57269010628832 0 0 0 0 -1499.5701273384122 0.74153373149640955 0 0.74153373149640955 36.756885590772718 0 0 0 0 -1323.871266220794 -132.96288701177045 0 -132.96288701177045 -290.52544703817864 0 0 0 0 -1191.9933834649737 107.4169492663994 0 107.4169492663994 -27.254568208330454 0 0 0 0 -1117.0084373162676 -10.91110717471021 0 -10.91110717471021 131.66464368700554 0 0 0 0 -1226.0697574891983 -89.856026879409939 0 -89.856026879409939 103.4562884104093 0 0 0 0 -1252.2328699131203 127.3931440422499 0 127.3931440422499 85.554321415208321 0 0 0 0 -1500.292503484088 157.40369545284597 0 157.40369545284597 118.07845297638991 0 0 0 0 -492.86608398259409 56.94116083655755 0 56.94116083655755 84.291800996234798 0 0 0 0 -2.0260252774306053 1.4223817565193295 0 1.4223817565193295 0.46252265575501289 0 0 0 0 -517.78122882927141 -25.293204239313994 0 -25.293204239313994 -10.251714968856334 0 0 0 0 -1788.0613705941303 -60.057232072146803 0 -60.057232072146803 16.999105674081544 0 0 0 0 -1469.5616184395135 -20.466724853452749 0 -20.466724853452749 -1.3792229050192999 0 0 0 0 -187.38119385164896 16.836270406222681 0 16.836270406222681 -5.1395468729091363 0 0 0 0 -362.30967921498382 -84.174211441836988 0 -84.174211441836988 102.3198584754179 0 0 0 0 -508.79195096441708 15.223681526937185 0 15.223681526937185 57.37814041995658 0 0 0 0 -524.88439349129817 40.206873726144252 0 40.206873726144252 123.432714615181 0 0 0 0 -586.04496162357373 -40.852704244230154 0 -40.852704244230154 125.24510286014328 0 0 0 0 -187.23885708408466 -103.8998040639365 0 -103.8998040639365 -26.724884541139261 0 0 0 0 -355.44039645176514 -63.465594303873246 0 -63.465594303873246 13.988459120185325 0 0 0 0 -375.1947115462599 -153.59778131749184 0 -153.59778131749184 -79.451886381633713 0 0 0 0 9.6349410843731675 -337.26923714892234 0 -337.26923714892234 -219.45794219708813 0 0 0 0 -1221.1273611449299 -334.86615236224475 0 -334.86615236224475 -21.444549149849436 0 0 0 0 -16.604221558467998 31.067855527340409 0 31.067855527340409 -141.06443123108556 0 0 0 0 -158.78764580752068 56.922029414877699 0 56.922029414877699 43.990293253149552 0 0 0 0 0.51102196487678775 1.1109318329953366 0 1.1109318329953366 3.6736820179645724 0 0 0 0 -6.851955139497818 -14.070247975977566 0 -14.070247975977566 -1.659264382651827 0 0 0 0 -15.262497869700383 2.4576874832687281 0 2.4576874832687281 14.749581188251653 0 0 0 0 -17.713800511586555 7.6451177825662882 0 7.6451177825662882 5.8134492090373442 0 0 0 0 -42.1405665703669 6.0882760921855663 0 6.0882760921855663 15.896752727112343 0 0 0 0 -2.3849386600393245 -26.73939420898558 0 -26.73939420898558 29.676773729631748 0 0 0 0 -0.069143905404279948 0.18824718670257123 0 0.18824718670257123 0.98672544596960987 0 0 0 0 -66.916773811654537 46.896443826267486 0 46.896443826267486 -3.8374124229231938 0 0 0 0 -63.775928365696473 27.498637629462237 0 27.498637629462237 -33.35680328162772 0 0 0 0 -177.316609673117 -5.154034991563492 0 -5.154034991563492 31.31677204629349 0 0 0 0 18.54321744548588 26.966003386756782 0 26.966003386756782 20.312636852642754 0 0 0 0 0.21418831855201859 -0.14406310597932975 0 -0.14406310597932975 -0.28358195484197768 0 0 0 0 -15.126605662140264 13.977798974587301 0 13.977798974587301 12.149794236258231 0 0 0 0 18.564953787596096 35.074923734298523 0 35.074923734298523 -15.444328528465242 0 0 0 0 -23.5845203340333 32.704513448731824 0 32.704513448731824 9.0960155757800862 0 0 0 0 -2.540121208844198 10.408544002670666 0 10.408544002670666 -3.1164370493546016 0 0 0 0 0.76195856097433534 15.756919104534802 0 15.756919104534802 2.0415824099012525 0 0 0 0 -13.726869861304976 14.080014087329744 0 14.080014087329744 3.0488517090992673 0 0 0 0 -6.5371826306239882 8.9345645553814705 0 8.9345645553814705 1.6361937105190236 0 0 0 0 -11.855168514473917 8.4892671329205314 0 8.4892671329205314 1.7079777695064422 0 0 0 0 -17.030768287346291 3.9213979541681283 0 3.9213979541681283 -3.0842331582862244 0 0 0 0 -8.683722006928301 7.0737716505381414 0 7.0737716505381414 -1.4174581877971812 0 0 0 0 -14.792090492470379 3.7159565577466651 0 3.7159565577466651 -3.2647485275301875 0 0 0 0 -15.3622724402112 1.8667316190555425 0 1.8667316190555425 -0.98915389745059201 0 0 0 0 -26.615341474160232 0.28516757289594352 0 0.28516757289594352 1.5135671328121134 0 0 0 0 -0.78491717494041779 2.379003840171813 0 2.379003840171813 0.42489861635433623 0 0 0 0 -10.439177988726415 2.7082498510861348 0 2.7082498510861348 1.8119010663825341 0 0 0 0 -13.20703534615302 7.2336313515291408 0 7.2336313515291408 2.9518538794670803 0 0 0 0 -14.015626642836651 6.6256969063964561 0 6.6256969063964561 5.3462621936149901 0 0 0 0 -1.3536622167108967 2.6677216282724023 0 2.6677216282724023 7.4403583325264915 0 0 0 0 -19.395562569840422 5.7514407282537832 0 5.7514407282537832 30.69484508495168 0 0 0 0 -9.5535845666354362 -3.5888910840513866 0 -3.5888910840513866 4.1636309925978559 0 0 0 0 -10.084143541257152 -4.2400575746773947 0 -4.2400575746773947 -0.31304407778180082 0 0 0 0 -12.733737382208346 1.0243978736445172 0 1.0243978736445172 4.8769048636828174 0 0 0 0 -9.0015012557071259 -4.0135029612741384 0 -4.0135029612741384 4.3540170404915486 0 0 0 0 -3.864580718989453 -0.25613584649424403 0 -0.25613584649424403 0.55666792093605766 0 0 0 0 -12.843857977763719 -1.4297912555335126 0 -1.4297912555335126 0.3598767347716354 0 0 0 0 -12.044942653695671 0.65558500429765942 0 0.65558500429765942 -0.4054131213125487 0 0 0 0 -95.620036579009138 153.89947506159774 0 153.89947506159774 -118.70810864748759 0 0 0 0 -84.811099100634806 25.356668464591916 0 25.356668464591916 -16.769503539565335 0 0 0 0 -7.258867702390738 -3.0757919570667367 0 -3.0757919570667367 0.6096182093850242 0 0 0 0 -107.93213719450068 43.301058259658532 0 43.301058259658532 -14.259204610774201 0 0 0 0 -6.8538143554251292 3.9436041050965258 0 3.9436041050965258 -1.9570411911285674 0 0 0 0 -5.2924499501293258 2.9560544754619347 0 2.9560544754619347 -0.44849726047353566 0 0 0 0 -16.544415811738872 4.1628989381160153 0 4.1628989381160153 -1.2476631572600922 0 0 0 0 -16.618868876783381 1.8169837694485977 0 1.8169837694485977 -1.0961122399654393 0 0 0 0 -15.628652470019858 3.0080236259418793 0 3.0080236259418793 0.20765831814534863 0 0 0 0 -17.987244135991205 4.6502305413225713 0 4.6502305413225713 0.57094396709185702 0 0 0 0 -16.475342018504307 4.2624594578303459 0 4.2624594578303459 -0.12142150008108388 0 0 0 0 -17.252858230489437 5.0423633135831949 0 5.0423633135831949 -0.72867622812270838 0 0 0 0 -15.913155458146321 4.6195684376958468 0 4.6195684376958468 -0.98138060897019841 0 0 0 0 -17.080065315141837 6.0570341152649689 0 6.0570341152649689 -2.4381221962350281 0 0 0 0 -17.134220833808513 4.491909919344856 0 4.491909919344856 -0.68837101957410596 0 0 0 0 -11.485401651953907 1.6678366400475948 0 1.6678366400475948 4.7860718414287486 0 0 0 0 -17.272229707440715 3.6083429431748795 0 3.6083429431748795 1.4382213000353374 0 0 0 0 -6.1274175843944985 2.305357361536581 0 2.305357361536581 1.4842323859446906 0 0 0 0 -15.69902265520318 1.2564354719598345 0 1.2564354719598345 1.9213980232057395 0 0 0 0 -15.020986144092603 3.4456075160947748 0 3.4456075160947748 1.3760550674866838 0 0 0 0 -16.048687060601878 4.2094369341414293 0 4.2094369341414293 -0.72188288457779493 0 0 0 0 -16.184452430483816 4.2004345306247615 0 4.2004345306247615 -0.6834656856839274 0 0 0 0 -17.448139697838997 4.056464569205616 0 4.056464569205616 -0.11683324893324798 0 0 0 0 -15.135032635801508 2.6418018921747946 0 2.6418018921747946 -0.76851803270908192 0 0 0 0 -14.54681027098195 3.3127507628288981 0 3.3127507628288981 -2.3569015022836481 0 0 0 0 -17.107898550336017 2.4240889939849608 0 2.4240889939849608 -0.70971724607188236 0 0 0 0 -2.2070432631867334 0.53601605557682319 0 0.53601605557682319 -7.1152091068709922 0 0 0 0 -15.529106509210578 -7.7639955646572503 0 -7.7639955646572503 -12.038228359279856 0 0 0 0 -0.053646362883618792 0.028201716003426469 0 0.028201716003426469 -0.53602513389032569 0 0 0 0 -60.143082025424519 -24.348853416737171 0 -24.348853416737171 -7.4255170943442721 0 0 0 0 -21.205774614997608 24.389584297122042 0 24.389584297122042 -0.84423465017559352 0 0 0 0 -58.57921671562417 3.0775022496252431 0 3.0775022496252431 20.771064241286467 0 0 0 0 -66.340073193525768 13.755442672929846 0 13.755442672929846 -20.874385097769164 0 0 0 0 -10.46403646503677 -6.9430258147625352 0 -6.9430258147625352 -14.123309545702114 0 0 0 0 -67.387527614130704 -4.321359154836955 0 -4.321359154836955 -1.1595890637326747 0 0 0 0 -98.000288120633968 -3.7417579635705138 0 -3.7417579635705138 4.6243979611064816 0 0 0 0 -45.866992819062034 0.0022856900238537037 0 0.0022856900238537037 -9.175971386315922 0 0 0 0 -108.9828990239198 11.775066128384704 0 11.775066128384704 0.97484436642803018 0 0 0 0 -102.74204828121356 10.364272248007168 0 10.364272248007168 1.652173506586422 0 0 0 0 -72.336135873754188 -2.460037920205874 0 -2.460037920205874 -4.9490418190751484 0 0 0 0 -66.445981498022775 13.638459603651029 0 13.638459603651029 2.2893677830115369 0 0 0 0 -71.891842559058659 -0.39682721256941988 0 -0.39682721256941988 2.8974263556297615 0 0 0 0 0.021841163213036197 -0.29723153146411363 0 -0.29723153146411363 -1.3260413434695431 0 0 0 0 -7.6441611561303944 0.81007445729971295 0 0.81007445729971295 -1.7686460829071393 0 0 0 0 -14.424428446955062 0.86376911002048473 0 0.86376911002048473 1.1163108088899634 0 0 0 0 -13.767146832542494 2.3860450587548598 0 2.3860450587548598 -1.6078513520410525 0 0 0 0 -14.372642678534248 3.2804654219839904 0 3.2804654219839904 -2.1812983335131833 0 0 0 0 -6.0100030662631525 9.8199845801688355 0 9.8199845801688355 1.4196928633984953 0 0 0 0 -10.534708741492977 -0.72706688498664107 0 -0.72706688498664107 -3.2191134910772092 0 0 0 0 -6.4289323917066232 5.7607324404566924 0 5.7607324404566924 0.46556576227315194 0 0 0 0 -1.256154455803931 -0.39018756244629849 0 -0.39018756244629849 -1.8324375611457169 0 0 0 0 -22.170820076892596 -7.6424403855803007 0 -7.6424403855803007 -8.6412251931022865 0 0 0 0 -27.457210743555606 1.3588378407909403 0 1.3588378407909403 -7.6605191734093978 0 0 0 0 -9.0081967863743557 14.111004180849363 0 14.111004180849363 -1.2260028655537099 0 0 0 0 2.5821318149119179 7.6423776520182969 0 7.6423776520182969 -10.633056030437501 0 0 0 0 1.3123902209221594 0.041460161352704361 0 0.041460161352704361 -0.49081741777639376 0 0 0 0 -32.60920256515692 -3.4250620189480969 0 -3.4250620189480969 -6.8849011307941055 0 0 0 0 -5.5547877783528747 8.1182854512750282 0 8.1182854512750282 1.049928164692389 0 0 0 0 0.4530526504380985 5.8899659297295592 0 5.8899659297295592 0.77058647433563365 0 0 0 0 -1.6218339958313663 2.9322402409050881 0 2.9322402409050881 -8.1779036207408637 0 0 0 0 -9.8096280111467422 12.382484769860184 0 12.382484769860184 4.1339642306164706 0 0 0 0 -1.6168426175674542 5.9448961331261794 0 5.9448961331261794 2.6586363739166234 0 0 0 0 -4.8164080201368051 12.902838899351309 0 12.902838899351309 2.5134751368043453 0 0 0 0 -19.653630217228056 11.985801835293842 0 11.985801835293842 -1.6881397483527678 0 0 0 0 -4.8021531139477247 14.571958059421348 0 14.571958059421348 -14.314944519911251 0 0 0 0 -4.4590967803164858 17.399106625666462 0 17.399106625666462 -2.7250806194911092 0 0 0 0 -25.538347476470562 -2.6039088284356922 0 -2.6039088284356922 4.1629589293006006 0 0 0 0 -7.8227929550489534 26.293702671380302 0 26.293702671380302 21.44357682520922 0 0 0 0 -22.467109157159037 1.8917426505026684 0 1.8917426505026684 1.781989291914662 0 0 0 0 -5.461957884937644 -5.9958884700239956 0 -5.9958884700239956 0.3635521290210646 0 0 0 0 -28.299620406244287 -0.041101612779272045 0 -0.041101612779272045 3.2926761142998089 0 0 0 0 36.851348780252465 8.7370217829152637 0 8.7370217829152637 -2.6681324249473164 0 0 0 0 -109.59324674753771 27.983061489267811 0 27.983061489267811 151.78928904904706 0 0 0 0 -42.834637500782705 6.7549498364791081 0 6.7549498364791081 1.4286476174266665 0 0 0 0 -103.05715777158184 -19.070032425261388 0 -19.070032425261388 64.850132371477685 0 0 0 0 -13.30078404838423 -47.804287326034228 0 -47.804287326034228 72.388098373910452 0 0 0 0 -92.373354093078888 -21.152263423609611 0 -21.152263423609611 -7.3080427953691469 0 0 0 0 -183.67603344927193 -18.28999386122905 0 -18.28999386122905 89.065613280741275 0 0 0 0 -127.83391421449687 -83.251093316837455 0 -83.251093316837455 -32.371142055972314 0 0 0 0 -52.621322300705287 -67.447511808560307 0 -67.447511808560307 -55.390314593415496 0 0 0 0 -72.654135544138626 66.874638799878539 0 66.874638799878539 79.945396438327407 0 0 0 0 -22.875861416826247 -3.061304903605599 0 -3.061304903605599 1.6401326390287598 0 0 0 0 72.474314073420828 94.751310944637225 0 94.751310944637225 172.15585671227745 0 0 0 0 -20.212384914803575 -3.3130450161947849 0 -3.3130450161947849 8.2720395068550374 0 0 0 0 -25.544048385096175 60.076998062041412 0 60.076998062041412 74.878436891426531 0 0 0 0 -34.166659842567242 64.241894260017943 0 64.241894260017943 219.59917228982613 0 0 0 0 -7.6303469472532592 1.2258966729945584 0 1.2258966729945584 4.7020710325500028 0 0 0 0 -27.908150328828924 19.417314793325204 0 19.417314793325204 52.307421890273986 0 0 0 0 51.570741968067523 25.084868890100893 0 25.084868890100893 13.176333517326384 0 0 0 0 -31.351337065822008 48.256135255417803 0 48.256135255417803 7.7690495608947003 0 0 0 0 -48.464986093415973 -5.8272837997167244 0 -5.8272837997167244 -32.730067287413476 0 0 0 0 -12.536215467762304 39.993416589862363 0 39.993416589862363 -31.063555653781805 0 0 0 0 -16.608713479850849 4.7956301951535352 0 4.7956301951535352 -34.210205889624376 0 0 0 0 -64.291207186770407 -0.94074202898491421 0 -0.94074202898491421 -26.15316587181087 0 0 0 0 -45.581873317163627 -15.259183336925389 0 -15.259183336925389 -36.701608518519848 0 0 0 0 -86.847883831829677 -40.848692925866317 0 -40.848692925866317 -87.316168658142402 0 0 0 0 -0.26461073299415316 1.2913316026111996 0 1.2913316026111996 -0.64722080210717481 0 0 0 0 -103.94257518633594 38.769971264714087 0 38.769971264714087 -14.412225864894083 0 0 0 0 -90.054641362301481 40.736019345393061 0 40.736019345393061 -72.905233655579252 0 0 0 0 -257.18872043481997 -31.282773257102917 0 -31.282773257102917 9.0220144124150465 0 0 0 0 -178.48181770106839 -182.00746202467082 0 -182.00746202467082 -154.81447538823068 0 0 0 0 -0.24723805658071285 0.28762551801208147 0 0.28762551801208147 -0.079974961471987349 0 0 0 0 -119.21827951236719 -2.9412182763163059 0 -2.9412182763163059 -0.26572429885095517 0 0 0 0 -146.61030653708713 -17.872238730709284 0 -17.872238730709284 -2.4862435789161736 0 0 0 0 -78.374079569940477 1.0547407479284061 0 1.0547407479284061 -1.7961243335299173 0 0 0 0 -56.627005657006521 -9.5695111556441361 0 -9.5695111556441361 -13.951290754035426 0 0 0 0 -30.698176729137685 -4.8211249877956561 0 -4.8211249877956561 -18.964633983216345 0 0 0 0 -60.256832407152615 -21.860748709425593 0 -21.860748709425593 -38.149140084774672 0 0 0 0 -75.205648772498535 -10.835238524722172 0 -10.835238524722172 -2.8706623971170302 0 0 0 0 -78.840296582930932 -7.5663756438327994 0 -7.5663756438327994 4.4160281529025269 0 0 0 0 0.05937954420943381 0.76296066468363222 0 0.76296066468363222 -0.6778916755193658 0 0 0 0 28.313189551130563 -23.472390616911046 0 -23.472390616911046 -4.4728456224581663 0 0 0 0 -67.913693008567861 -4.853825111713661 0 -4.853825111713661 29.873357577018282 0 0 0 0 -18.933276413583371 -12.336818448375681 0 -12.336818448375681 17.871493462173248 0 0 0 0 -47.452248832822988 -23.457681808033044 0 -23.457681808033044 17.04222202546373 0 0 0 0 -41.712045950074753 -8.6726438285011227 0 -8.6726438285011227 11.297542355369956 0 0 0 0 -14.292529372915851 -26.721596335506433 0 -26.721596335506433 -87.250639163815663 0 0 0 0 -102.81887674194331 -46.099122080953563 0 -46.099122080953563 -10.278075668100087 0 0 0 0 -31.281347791260487 -25.152873243483157 0 -25.152873243483157 12.47142002996253 0 0 0 0 9.0312689262391359 21.112913777230631 0 21.112913777230631 -10.575880077460852 0 0 0 0 51.434762030074637 0.55885256908901937 0 0.55885256908901937 -35.469508017449698 0 0 0 0 6.1523799862789019 16.157420420321841 0 16.157420420321841 21.009014316517835 0 0 0 0 2.9868251495704499 -1.0464611831092157 0 -1.0464611831092157 -9.8060855603027903 0 0 0 0 -110.78242299990234 33.421865073649656 0 33.421865073649656 10.214553653706616 0 0 0 0 -46.363544006382654 48.432676217004996 0 48.432676217004996 -59.315993143250068 0 0 0 0 -52.6136766621741 8.0831930531802669 0 8.0831930531802669 16.975173735403587 0 0 0 0 -31.305119786694604 36.532411579565206 0 36.532411579565206 31.930451190024996 0 0 0 0 -52.48572703238824 36.101004070030172 0 36.101004070030172 18.164769288037519 0 0 0 0 -60.522268475742749 17.223831399137453 0 17.223831399137453 30.982188084135942 0 0 0 0 -68.889098161047514 -5.9478648431027636 0 -5.9478648431027636 26.05209851895188 0 0 0 0 -45.935203738322343 0.072535089207462988 0 0.072535089207462988 21.130572711540026 0 0 0 0 -30.019871876454999 20.921348219727633 0 20.921348219727633 20.31457728548412 0 0 0 0 -45.552814913622569 0.6607500673380855 0 0.6607500673380855 14.261693455487233 0 0 0 0 -19.337175448407834 13.522942284414967 0 13.522942284414967 9.8341310043088015 0 0 0 0 -63.102245360564666 -34.85320253566988 0 -34.85320253566988 44.587308115725136 0 0 0 0 -9.6827808965099713 0.2480044982354368 0 0.2480044982354368 0.47836481057515723 0 0 0 0 22.38548027107754 6.5020605782816574 0 6.5020605782816574 -50.748475790519933 0 0 0 0 33.403712979825286 47.81003424968867 0 47.81003424968867 18.945053103492754 0 0 0 0 -2.4865258995424586 1.9426751019175779 0 1.9426751019175779 -0.57131974852223077 0 0 0 0 -1.7486470046424074 4.100346364727784 0 4.100346364727784 34.547152436810393 0 0 0 0 -16.686413470813704 -11.261626182575135 0 -11.261626182575135 3.8084387550029248 0 0 0 0 -11.102965404538736 -47.950154831980399 0 -47.950154831980399 1.31267264506383 0 0 0 0 -28.094721021652731 -28.20907669194554 0 -28.20907669194554 -2.355053405452054 0 0 0 0 -39.382187215497652 -9.3444563781938541 0 -9.3444563781938541 10.875352514528117 0 0 0 0 -53.000562259951948 -17.093187194091286 0 -17.093187194091286 16.001130639582016 0 0 0 0 -37.328170183031034 -47.444080006690257 0 -47.444080006690257 -43.445660626196855 0 0 0 0 -113.54446737414585 -29.108218140768532 0 -29.108218140768532 14.253197083427949 0 0 0 0 -10.176221821833678 -3.2940654363870863 0 -3.2940654363870863 0.32581139347923482 0 0 0 0 -9.2262629773722438 -4.9646513995275257 0 -4.9646513995275257 3.2620325087665947 0 0 0 0 -3.9446596259545004 12.40872591383814 0 12.40872591383814 -22.887347754434302 0 0 0 0 -3.6352484295781728 -0.23614434179849964 0 -0.23614434179849964 0.92248045982715676 0 0 0 0 -4.1202961013514141 13.031489402174174 0 13.031489402174174 1.0550285478576775 0 0 0 0 -1.2897435697978601 -0.38015656251376673 0 -0.38015656251376673 -0.13393841994625549 0 0 0 0 -49.210191175547152 51.40081073716641 0 51.40081073716641 -50.980810495117069 0 0 0 0 -123.52244089154192 27.175552942414519 0 27.175552942414519 10.274652170958802 0 0 0 0 -57.779273791322339 8.1921928306194616 0 8.1921928306194616 15.423087483775987 0 0 0 0 -59.802785309071396 17.649352751713792 0 17.649352751713792 22.170207228922891 0 0 0 0 -58.037463384566763 11.127487568127663 0 11.127487568127663 20.347909616752759 0 0 0 0 -25.037399438243028 5.7413618504137389 0 5.7413618504137389 3.9983320618082416 0 0 0 0 -19.652764889555328 1.2419677636921733 0 1.2419677636921733 5.2020191408512346 0 0 0 0 -16.184447393013947 0.43735442057533547 0 0.43735442057533547 4.680377294472013 0 0 0 0 -27.510022549016867 5.5647368203719338 0 5.5647368203719338 5.4307931124415632 0 0 0 0 -46.165558973892985 16.943899981629059 0 16.943899981629059 21.907271677151691 0 0 0 0 -40.371114298989596 4.8426336249793493 0 4.8426336249793493 22.558562064471154 0 0 0 0 -20.374782329322336 5.4261104381404568 0 5.4261104381404568 4.6337222633545494 0 0 0 0 -43.115579337350937 -1.6768561074281934 0 -1.6768561074281934 21.773652955139028 0 0 0 0 -39.892708225193928 -5.9319015547510787 0 -5.9319015547510787 26.415859572197434 0 0 0 0 -6.158458157171566 4.0762657783825649 0 4.0762657783825649 1.3573510752819251 0 0 0 0 -46.112149827972644 -11.714875061880406 0 -11.714875061880406 29.108391335123713 0 0 0 0 -20.388720679447033 -6.8086782405474366 0 -6.8086782405474366 29.589165679591247 0 0 0 0 -32.648455816250134 33.343959560493957 0 33.343959560493957 -6.631703590297974 0 0 0 0 -36.76167419599598 -9.3328099294375004 0 -9.3328099294375004 2.0258485381497824 0 0 0 0 -44.541949196060159 -9.4340275557624977 0 -9.4340275557624977 4.2288235651703872 0 0 0 0 -6.1993779777853213 0.24937343252065425 0 0.24937343252065425 2.4304929669211313 0 0 0 0 -12.089532482147661 12.219757977015552 0 12.219757977015552 -1.6044934504057835 0 0 0 0 -27.158727326149688 1.5851558019385461 0 1.5851558019385461 17.245546927117289 0 0 0 0 0.43155334898710862 -9.7449322536296439 0 -9.7449322536296439 10.429360930579136 0 0 0 0 -0.038280997996959387 0.35028825531601449 0 0.35028825531601449 -0.26098182577290674 0 0 0 0 25.27736889148764 10.641549633632543 0 10.641549633632543 4.9142895892957768 0 0 0 0 -88.619593935978628 40.97537383424833 0 40.97537383424833 -39.292641773994546 0 0 0 0 -27.966278544405213 3.6651751363978633 0 3.6651751363978633 15.830732734113326 0 0 0 0 -60.745111559985162 -34.574449860149002 0 -34.574449860149002 -2.717320678640192 0 0 0 0 -1.200773560176458 12.90159438631483 0 12.90159438631483 3.1196332735393355 0 0 0 0 -21.667496252523208 14.32094633360637 0 14.32094633360637 3.1599969246131021 0 0 0 0 -8.7396693893136757 0.34704951849174392 0 0.34704951849174392 -0.21819014845423901 0 0 0 0 -18.409988560437341 -10.61785338351649 0 -10.61785338351649 12.472551535130037 0 0 0 0 -6.5434188217427618 27.616597795783314 0 27.616597795783314 -60.054324393012166 0 0 0 0 0.88211125685484149 -12.737891779994015 0 -12.737891779994015 -16.123888779556637 0 0 0 0 -17.477517975883529 25.313032585448923 0 25.313032585448923 -35.794171558512062 0 0 0 0 -16.113091874444763 8.4627486260207263 0 8.4627486260207263 -6.4571553029659299 0 0 0 0 -20.383869410085026 22.083562639987463 0 22.083562639987463 -38.798867765871876 0 0 0 0 -29.501753058346367 47.086876715857869 0 47.086876715857869 -18.831021164233675 0 0 0 0 -19.337393516851833 16.096099014767169 0 16.096099014767169 3.1731167489831829 0 0 0 0 -215.17044200722012 116.39013750933611 0 116.39013750933611 -139.87943488612063 0 0 0 0 -25.07470412328621 -203.60722374215061 0 -203.60722374215061 7.5953143148125548 0 0 0 0 0.081492724524608207 0.58881372075863325 0 0.58881372075863325 -1.3535759443408804 0 0 0 0 -52.005240334568953 73.722042321024674 0 73.722042321024674 -81.328133379810197 0 0 0 0 -214.37900351973076 -11.666787651077811 0 -11.666787651077811 100.48526754432055 0 0 0 0 -110.96033307700418 104.76524140545916 0 104.76524140545916 -39.507223875352338 0 0 0 0 -10.485652148810914 -39.927929337710793 0 -39.927929337710793 40.86423683698797 0 0 0 0 -83.786078667493712 67.127514341980145 0 67.127514341980145 -12.926996745973383 0 0 0 0 -48.374379707725893 26.705096876055109 0 26.705096876055109 20.006808914341946 0 0 0 0 -48.250978618263616 26.839112518955744 0 26.839112518955744 5.5577954366212907 0 0 0 0 -26.086914577728749 10.515467399552904 0 10.515467399552904 5.9196898334259345 0 0 0 0 -27.664896139805933 20.826169826464195 0 20.826169826464195 -15.39321107668718 0 0 0 0 -19.610182019292552 1.3515158866727575 0 1.3515158866727575 12.132582454326212 0 0 0 0 -19.699407120326782 7.1314743635487101 0 7.1314743635487101 -1.2479934283832108 0 0 0 0 -24.117761691617488 5.4490997156466392 0 5.4490997156466392 5.426188745907524 0 0 0 0 -23.606593552223785 3.547926272500888 0 3.547926272500888 -9.5372695123235189 0 0 0 0 -37.797581104487108 10.964036599417341 0 10.964036599417341 11.174659984459012 0 0 0 0 -35.525705901063702 9.8609004724095257 0 9.8609004724095257 6.0795611694279614 0 0 0 0 -37.550981512710678 8.7902503529135601 0 8.7902503529135601 7.6324294549358456 0 0 0 0 -26.300867701507741 6.0166786424592829 0 6.0166786424592829 8.3162126562056073 0 0 0 0 -30.33993189940702 16.619871791173864 0 16.619871791173864 2.1611366072248757 0 0 0 0 -36.910696694243597 14.824106828223563 0 14.824106828223563 10.568584287871772 0 0 0 0 -39.480647488113391 19.270026990280087 0 19.270026990280087 9.3396977442264415 0 0 0 0 -64.968086503551604 20.635401744024989 0 20.635401744024989 18.716891247128501 0 0 0 0 -50.300813299221772 13.199977370021998 0 13.199977370021998 20.687641923302408 0 0 0 0 -62.192839999366697 -11.604636576729035 0 -11.604636576729035 28.696643134690248 0 0 0 0 -17.787551589673967 -2.0088683370377112 0 -2.0088683370377112 15.30536171077415 0 0 0 0 -32.146595985628664 2.0591200273509003 0 2.0591200273509003 15.127175805789875 0 0 0 0 -35.09313043644579 5.1574811339977487 0 5.1574811339977487 18.870050839682563 0 0 0 0 -41.418744888655056 3.0004086631154223 0 3.0004086631154223 20.094749387430284 0 0 0 0 -40.178749433196572 7.6203396543916142 0 7.6203396543916142 18.183993716019728 0 0 0 0 -40.688564707526893 8.2332358511527559 0 8.2332358511527559 17.46302174943969 0 0 0 0 -57.97877776432324 -11.203963280872927 0 -11.203963280872927 98.497569714390011 0 0 0 0 -37.623358549323001 6.256754373067281 0 6.256754373067281 0.83237387641603555 0 0 0 0 -37.797179558059675 6.6005062466433468 0 6.6005062466433468 1.199559818179031 0 0 0 0 -51.588484049902036 29.888932712706833 0 29.888932712706833 51.529094122539391 0 0 0 0 -64.728344162747817 12.378269710210361 0 12.378269710210361 38.363456313781626 0 0 0 0 -32.319193196943161 -11.145960729420551 0 -11.145960729420551 52.378195499153207 0 0 0 0 -56.188455975643592 -28.356087048856352 0 -28.356087048856352 37.500904956325257 0 0 0 0 -31.725095758607495 -1.0918998231700243 0 -1.0918998231700243 50.901566494161557 0 0 0 0 -37.029568601446812 6.2493500489759928 0 6.2493500489759928 3.7335908045428607 0 0 0 0 -38.412262019213813 -21.854942137700618 0 -21.854942137700618 46.630068678958423 0 0 0 0 -6.4592252318522618 -1.5654227832431786 0 -1.5654227832431786 13.69766090686489 0 0 0 0 -31.504105427473405 -15.085709378090769 0 -15.085709378090769 32.361946896402742 0 0 0 0 -75.64381860553749 128.13427230476225 0 128.13427230476225 -542.15897062370914 0 0 0 0 0.9001794927251936 -0.51764919745566829 0 -0.51764919745566829 3.4179891392753134 0 0 0 0 -41.71891060431517 -36.085721363086236 0 -36.085721363086236 13.283488767414383 0 0 0 0 44.760799367591972 -30.325323277503344 0 -30.325323277503344 -24.053785874993878 0 0 0 0 -43.799127485883218 -18.279178060560369 0 -18.279178060560369 17.37682986263053 0 0 0 0 -38.251036842077156 -29.487195054352185 0 -29.487195054352185 -39.036063883110273 0 0 0 0 -137.50276574361305 -21.415814000929117 0 -21.415814000929117 -39.495965724430334 0 0 0 0 -65.414035516490912 -101.9915395643676 0 -101.9915395643676 -40.317910467704223 0 0 0 0 -74.1215772433643 -101.89141313929417 0 -101.89141313929417 -38.872016345522752 0 0 0 0 24.522239207255552 90.574908511577547 0 90.574908511577547 -192.12606162170732 0 0 0 0 -90.705926278293191 -337.02837660572595 0 -337.02837660572595 511.11459064760311 0 0 0 0 49.238290794804925 95.811003474494328 0 95.811003474494328 88.307766368337525 0 0 0 0 56.425302930583712 78.650075366308897 0 78.650075366308897 76.320741215386533 0 0 0 0 -90.927767743123695 -164.80448442592399 0 -164.80448442592399 -260.37996128932161 0 0 0 0 -159.39726774455448 -90.489990186835257 0 -90.489990186835257 -107.48783406400298 0 0 0 0 -8.271020578258458 4.6605088178182896 0 4.6605088178182896 -2.6879620443620338 0 0 0 0 28.257690171587456 66.720114675564275 0 66.720114675564275 78.273264940490904 0 0 0 0 34.23574885702692 84.711104938462086 0 84.711104938462086 87.933665196580193 0 0 0 0 -241.94988285829822 83.765940563613071 0 83.765940563613071 -37.283307542723549 0 0 0 0 -329.08260679809609 -168.85071806272259 0 -168.85071806272259 -151.11649906116327 0 0 0 0 -2.3784199876922116 1.6974238077483754 0 1.6974238077483754 -1.5224634694678181 0 0 0 0 -122.8970255362874 -24.517814271887346 0 -24.517814271887346 -62.157624580671381 0 0 0 0 -138.16467054040186 -33.977466678805399 0 -33.977466678805399 -41.948718912681443 0 0 0 0 -137.85481429331639 64.82125855188383 0 64.82125855188383 -7.9691358445338665 0 0 0 0 -88.143682649195853 16.273251175060622 0 16.273251175060622 -3.362915142051861 0 0 0 0 -99.173258395156154 -34.77728184838611 0 -34.77728184838611 12.79272762193068 0 0 0 0 -81.005371187464334 -6.0060985178294004 0 -6.0060985178294004 20.581492457705053 0 0 0 0 -88.585602025800199 47.157872815309062 0 47.157872815309062 16.94379697659997 0 0 0 0 -49.731789044304605 46.030744126082254 0 46.030744126082254 -8.7639607013311434 0 0 0 0 -52.602432269551173 48.589386501803972 0 48.589386501803972 1.3665656251430391 0 0 0 0 -45.656224242280587 52.342452416828792 0 52.342452416828792 -11.783368135686032 0 0 0 0 42.174896605558388 23.269366318588141 0 23.269366318588141 -29.072638137065042 0 0 0 0 -34.506058526560082 45.201693160890613 0 45.201693160890613 -64.493860764009582 0 0 0 0 -33.059265517818403 55.729103191218698 0 55.729103191218698 -20.225741176141128 0 0 0 0 49.584160525941115 -46.516388448752991 0 -46.516388448752991 -36.794060841558007 0 0 0 0 91.50292763788093 -20.677175803834615 0 -20.677175803834615 -28.46130095739187 0 0 0 0 0.33666820822736554 44.270894050200319 0 44.270894050200319 -181.591822643402 0 0 0 0 -20.352780835321028 -30.936597856424697 0 -30.936597856424697 13.821696012980681 0 0 0 0 -23.378113834358373 -10.049845638989723 0 -10.049845638989723 50.638290328082462 0 0 0 0 -0.00079465985330440247 -0.28198031010382607 0 -0.28198031010382607 -0.39655769158478815 0 0 0 0 17.636314275925542 25.752191737713133 0 25.752191737713133 -19.984336252358048 0 0 0 0 0.056102482838698009 -0.010482702301963798 0 -0.010482702301963798 -0.9366984617198062 0 0 0 0 -11.898046563674143 29.875056472883784 0 29.875056472883784 -2.6230294496976967 0 0 0 0 -2.7073391390767938 18.174169103375789 0 18.174169103375789 4.5620326960206512 0 0 0 0 0.012597992675980052 -0.1586039548362308 0 -0.1586039548362308 -0.47730156134820678 0 0 0 0 -55.442198956440734 58.918908533712596 0 58.918908533712596 -7.932640079156954 0 0 0 0 111.24220515184788 52.768660902206875 0 52.768660902206875 -44.318515751022005 0 0 0 0 -72.804435643149191 -67.45812836454661 0 -67.45812836454661 78.236761933475123 0 0 0 0 8.3463505807849288 -29.037733093821032 0 -29.037733093821032 -18.906699187383765 0 0 0 0 -288.20035771775474 -14.881405372085851 0 -14.881405372085851 89.616316451018974 0 0 0 0 -57.117395656994631 320.96183090893271 0 320.96183090893271 16.501368149234622 0 0 0 0 -7.5944697317001371 6.2817577928596862 0 6.2817577928596862 0.064089256440654552 0 0 0 0 27.874686361305066 82.733369848933762 0 82.733369848933762 -86.962160256156494 0 0 0 0 -78.287168413431573 57.357987145557217 0 57.357987145557217 1.7362058678113499 0 0 0 0 -293.41048672609395 -182.28970421403142 0 -182.28970421403142 62.933823589507369 0 0 0 0 -73.697905079374323 36.32547382558414 0 36.32547382558414 21.562920992867021 0 0 0 0 -4.1446376232925104 8.2512520928657977 0 8.2512520928657977 -40.31144939603837 0 0 0 0 -39.122581762159825 39.245734877215682 0 39.245734877215682 11.95083824659514 0 0 0 0 -94.927293826433015 22.265802610643277 0 22.265802610643277 16.184211216507265 0 0 0 0 -26.955131178845477 -0.17416113913168374 0 -0.17416113913168374 15.139630600472856 0 0 0 0 -38.786568026378518 18.068500200088693 0 18.068500200088693 -9.9687679240873877 0 0 0 0 -32.044256214605412 5.6598725195499355 0 5.6598725195499355 3.0820778685456389 0 0 0 0 178.44953355054895 23.829954706440276 0 23.829954706440276 -48.898661434919632 0 0 0 0 -33.766132248601934 44.326332237258839 0 44.326332237258839 -31.864766441135316 0 0 0 0 -36.042258699097147 26.608333401931304 0 26.608333401931304 24.929335491918664 0 0 0 0 -40.54590541451762 44.210852358797183 0 44.210852358797183 -3.6658577844364117 0 0 0 0 -43.411206978580594 47.7420992428099 0 47.7420992428099 0.67303954351757511 0 0 0 0 -45.411660851616034 16.10720400489754 0 16.10720400489754 37.985299395608536 0 0 0 0 -33.504627369412447 27.34681394648976 0 27.34681394648976 25.137883991749277 0 0 0 0 -46.294245800014323 0.22028365155324536 0 0.22028365155324536 89.975912637268721 0 0 0 0 -46.756649694412772 9.7633437270196737 0 9.7633437270196737 70.423177250330809 0 0 0 0 -37.507225669592984 6.5398521623698178 0 6.5398521623698178 1.1031071753946566 0 0 0 0 -49.8018319023613 27.582213053862461 0 27.582213053862461 18.606501112532442 0 0 0 0 -48.042399125679367 0.083093251862806028 0 0.083093251862806028 26.90052048634152 0 0 0 0 -52.555830032521044 -1.3043363674999 0 -1.3043363674999 31.000275066291124 0 0 0 0 -34.993777710402355 4.8903695389243467 0 4.8903695389243467 21.958240262292975 0 0 0 0 -7.1037247013327338 -1.8767999074504083 0 -1.8767999074504083 0.31889822830203185 0 0 0 0 -57.087585984050747 -0.17269381126135386 0 -0.17269381126135386 31.931732950920377 0 0 0 0 -35.252370593705564 5.1236941401755303 0 5.1236941401755303 19.097838108209544 0 0 0 0 -36.60285907211437 20.266763022096029 0 20.266763022096029 40.042722990677362 0 0 0 0 -13.429683673173713 28.768455928302501 0 28.768455928302501 21.482046149318876 0 0 0 0 -26.787338453337725 11.051705335002453 0 11.051705335002453 21.57717105422887 0 0 0 0 -2.1644545046419807 -2.9618859998136173 0 -2.9618859998136173 7.1896508487500341 0 0 0 0 -21.327051976015987 14.210570745508763 0 14.210570745508763 3.5710538012654807 0 0 0 0 -22.215083644448896 5.5882681002583467 0 5.5882681002583467 3.6184348061285618 0 0 0 0 -20.341312666667363 16.054069288982987 0 16.054069288982987 7.6294133202600278 0 0 0 0 -25.488858819981942 -0.88825161819460163 0 -0.88825161819460163 -21.750720899376148 0 0 0 0 -65.255631559146877 10.032049819226586 0 10.032049819226586 19.406169603561523 0 0 0 0 -33.216027653260085 3.9798488792975641 0 3.9798488792975641 2.8472547862017925 0 0 0 0 -30.605010138671787 -15.725872824232738 0 -15.725872824232738 -9.9837294029078123 0 0 0 0 -19.420610159360422 3.5197440731750476 0 3.5197440731750476 -1.4148659107938784 0 0 0 0 -24.326288818061585 -5.1664637574686481 0 -5.1664637574686481 -2.5489405401855265 0 0 0 0 -21.267743428117683 -3.5467189859436417 0 -3.5467189859436417 -8.3383924882545557 0 0 0 0 -37.125114343002835 7.916603182039939 0 7.916603182039939 1.5759918718340735 0 0 0 0 -30.792150269699654 1.6959833660712329 0 1.6959833660712329 4.2106334919125938 0 0 0 0 -24.23286451300919 -3.5115228287837681 0 -3.5115228287837681 -0.98053715978983291 0 0 0 0 -33.869737995148171 12.511289768876395 0 12.511289768876395 58.257607768671733 0 0 0 0 -20.87510637629282 14.517683947502007 0 14.517683947502007 -6.0870824281432503 0 0 0 0 -22.601873694391543 23.489692609939084 0 23.489692609939084 46.072829960289255 0 0 0 0 -40.525244724700315 -5.1643248012525191 0 -5.1643248012525191 29.269154903248364 0 0 0 0 -25.993671250012994 26.269680251748881 0 26.269680251748881 18.387807647729346 0 0 0 0 1.6998815216702496 26.875462633407011 0 26.875462633407011 -26.030627865838539 0 0 0 0 -7.5172088620964352 2.0111007389245956 0 2.0111007389245956 -0.94138357969069464 0 0 0 0 1.9395324495453679 16.204830720324765 0 16.204830720324765 -23.165746507765647 0 0 0 0 -6.7708118298754698 1.1752494384588026 0 1.1752494384588026 -1.5829481666547343 0 0 0 0 -31.178771194032834 4.0113447263176738 0 4.0113447263176738 -3.3436848396477217 0 0 0 0 -9.3000441227371837 28.646052909797437 0 28.646052909797437 0.82966033964777952 0 0 0 0 -19.794350322321407 21.562847494496225 0 21.562847494496225 15.152350890063218 0 0 0 0 -36.878745206466768 32.91356815876793 0 32.91356815876793 1.3679098062162769 0 0 0 0 -15.671524738883818 3.764766548691739 0 3.764766548691739 -3.3520675504536257 0 0 0 0 -13.166240441343689 2.8106900104939427 0 2.8106900104939427 -3.4665045029396424 0 0 0 0 -1.5322188559692478 -0.67419682711159723 0 -0.67419682711159723 -1.019386738329114 0 0 0 0 -13.511006320107299 3.3614278953828034 0 3.3614278953828034 -1.5581074821036651 0 0 0 0 -6.2259696098590211 11.691316783939612 0 11.691316783939612 -30.001712834233047 0 0 0 0 0.82381272301608988 18.849617444746798 0 18.849617444746798 -35.332768461501729 0 0 0 0 -9.9358040295155661 1.167362742772184 0 1.167362742772184 -45.411571172099684 0 0 0 0 -2.143404250675129 -0.40475614509606217 0 -0.40475614509606217 0.59523090596273853 0 0 0 0 -198.07226166961482 32.82028696396894 0 32.82028696396894 72.360892178726289 0 0 0 0 -456.66904963750676 51.771446036449106 0 51.771446036449106 70.973627717609233 0 0 0 0 -129.12066596032946 -88.687259190660569 0 -88.687259190660569 -21.508020519192144 0 0 0 0 -2.9426969211020442 -0.36789900258554692 0 -0.36789900258554692 0.029561856567051709 0 0 0 0 -273.03226230849759 76.925918156320108 0 76.925918156320108 -138.63518157821446 0 0 0 0 88.976113095533947 55.175008955014064 0 55.175008955014064 -250.51828682077874 0 0 0 0 -109.56021307748961 163.07692312450155 0 163.07692312450155 -54.201700948457642 0 0 0 0 -651.44999701255801 -48.419884191220916 0 -48.419884191220916 -63.769582819032763 0 0 0 0 -166.80823121238609 -73.388821708029468 0 -73.388821708029468 -404.21996661086496 0 0 0 0 -309.83307961931291 -422.40231571920202 0 -422.40231571920202 79.30977214086559 0 0 0 0 -92.679712217854558 422.36562629860254 0 422.36562629860254 -71.685817577049363 0 0 0 0 -42.272099395866903 8.1497946893846613 0 8.1497946893846613 -1.160455807690574 0 0 0 0 -51.039310081192525 -38.398951439897701 0 -38.398951439897701 54.995467590467371 0 0 0 0 -234.24702950679512 285.24706947835722 0 285.24706947835722 431.68780709481337 0 0 0 0 15.91185824369677 19.866417114241255 0 19.866417114241255 101.23419348623356 0 0 0 0 144.89463462960884 100.2397985893207 0 100.2397985893207 -44.26666521357987 0 0 0 0 -9.7786954932576577 1.6542350228358984 0 1.6542350228358984 -1.7228131407301479 0 0 0 0 31.691306597920629 51.076435517031769 0 51.076435517031769 -36.159883339960743 0 0 0 0 -6.9212314417202094 7.3572061265961022 0 7.3572061265961022 -2.2388818710691791 0 0 0 0 -220.47746003740758 23.295948125794212 0 23.295948125794212 398.47265687788234 0 0 0 0 -38.496160894096064 15.536189485618733 0 15.536189485618733 -5.4044279068741945 0 0 0 0 85.920423617895722 188.62616587882107 0 188.62616587882107 79.122296012546286 0 0 0 0 75.140703131917689 -1.7595034961014449 0 -1.7595034961014449 -96.520193728230907 0 0 0 0 -31.673626684169903 75.405289374571993 0 75.405289374571993 99.593776618955246 0 0 0 0 96.724483865700677 17.52851589964132 0 17.52851589964132 -116.45638099568987 0 0 0 0 62.843984520954109 43.128862362517197 0 43.128862362517197 -83.001011991464992 0 0 0 0 0.21656240645849323 1.6556871312120691 0 1.6556871312120691 -1.5763228628818675 0 0 0 0 -12.805737789122759 47.913417711981765 0 47.913417711981765 21.435836700445577 0 0 0 0 -33.9182304369169 22.197628017386663 0 22.197628017386663 -7.1520209272162507 0 0 0 0 9.6703736479903455 131.41153942434175 0 131.41153942434175 33.752840868447947 0 0 0 0 -3.0138338705584999 0.55185226081941607 0 0.55185226081941607 -0.03268324113457044 0 0 0 0 -94.446087657619501 -124.28303755868501 0 -124.28303755868501 112.56959782963952 0 0 0 0 42.21271914022509 12.292913038108736 0 12.292913038108736 -164.60659582957805 0 0 0 0 -47.109563184007129 -11.037163355897974 0 -11.037163355897974 11.555219971438703 0 0 0 0 81.638663756250935 -38.038375890100838 0 -38.038375890100838 21.195979449397328 0 0 0 0 52.406173118855804 -114.14146413390836 0 -114.14146413390836 46.407133491557488 0 0 0 0 -51.104018124999129 -100.07822523073764 0 -100.07822523073764 47.734783535489328 0 0 0 0 0.58972445914332638 -36.694651325944619 0 -36.694651325944619 22.521680923964595 0 0 0 0 -294.45380411854057 -125.50461340090004 0 -125.50461340090004 200.75228479248381 0 0 0 0 -80.553722028707853 -213.0391133364692 0 -213.0391133364692 -172.0767513130437 0 0 0 0 -323.33476247520593 74.293314513604287 0 74.293314513604287 36.567238913912206 0 0 0 0 0.020695685996543034 3.9843813649270601 0 3.9843813649270601 -70.410118929130476 0 0 0 0 -42.567225513514131 102.44973272181119 0 102.44973272181119 -261.89538797891123 0 0 0 0 -10.630898492763208 12.235323707765136 0 12.235323707765136 34.162421724246087 0 0 0 0 -95.592695975570678 81.330603821254954 0 81.330603821254954 -15.929056803681362 0 0 0 0 -96.945558240962242 -54.414411762383978 0 -54.414411762383978 75.452429050951423 0 0 0 0 -12.661451368398048 -43.631783538196714 0 -43.631783538196714 54.257840935500553 0 0 0 0 -62.946016805366526 -34.676601084898152 0 -34.676601084898152 70.354325645222616 0 0 0 0 -39.665032319426246 19.61259978614487 0 19.61259978614487 62.341551729505909 0 0 0 0 38.263964156201837 -111.18910689428219 0 -111.18910689428219 -204.34320723719003 0 0 0 0 -469.40453459410674 -198.89611112601006 0 -198.89611112601006 145.05828337218691 0 0 0 0 68.424182707538421 1.8745811942482646 0 1.8745811942482646 36.583015020167124 0 0 0 0 -63.014505248313071 -135.00419365327764 0 -135.00419365327764 -58.966933399434311 0 0 0 0 -66.642887151996547 -166.92378772806484 0 -166.92378772806484 92.746445560243728 0 0 0 0 82.751480475641074 48.32990612804403 0 48.32990612804403 133.97947241570137 0 0 0 0 -133.15151751769736 -280.3615696921097 0 -280.3615696921097 -89.541278433098796 0 0 0 0 -392.22788229852995 -11.907238029594112 0 -11.907238029594112 156.18523742571529 0 0 0 0 18.655760633942009 -215.20628303702287 0 -215.20628303702287 117.39417246783773 0 0 0 0 -161.98537005973776 -122.9858620173261 0 -122.9858620173261 261.70215134331596 0 0 0 0 -5.7499804300824309 3.0170023486350122 0 3.0170023486350122 -1.1013140352531001 0 0 0 0 -99.21296289941256 393.16399484241418 0 393.16399484241418 60.118283023802633 0 0 0 0 230.53977720645707 56.628738503285149 0 56.628738503285149 -328.73722517155647 0 0 0 0 -121.89008849444144 104.9607186528869 0 104.9607186528869 -5.0999855642107832 0 0 0 0 286.85844358352551 -41.543260596910841 0 -41.543260596910841 -158.57070081504298 0 0 0 0 0.10971651352926415 1.9593994512964876 0 1.9593994512964876 -3.1181069067995102 0 0 0 0 -198.87695703390636 -82.30905280926072 0 -82.30905280926072 -70.920069113541558 0 0 0 0 -0.95252352629904635 -63.531854581783136 0 -63.531854581783136 -79.073272966057857 0 0 0 0 -3.3970155995302775 46.427614974015569 0 46.427614974015569 -152.71282687843063 0 0 0 0 -76.912063978204969 58.878954592023206 0 58.878954592023206 40.24845076032102 0 0 0 0 -310.30838891846543 88.811524225291635 0 88.811524225291635 4.3631233328844701 0 0 0 0 -24.559939501715291 2.2283196584863463 0 2.2283196584863463 -0.74708824753041281 0 0 0 0 76.508793052416877 -30.652508942854183 0 -30.652508942854183 -98.504558524921094 0 0 0 0 160.11500993267782 -104.86112089954742 0 -104.86112089954742 -195.23096736687069 0 0 0 0 261.75832129214541 80.699948793589897 0 80.699948793589897 -172.18647220168401 0 0 0 0 -448.65388823472313 112.89064708432139 0 112.89064708432139 152.79928985179436 0 0 0 0 -371.86824966821223 259.33191787510668 0 259.33191787510668 509.32155395497909 0 0 0 0 40.515262026336131 228.39033427957912 0 228.39033427957912 -71.023285879165698 0 0 0 0 -12.902238327414054 6.3985962117952297 0 6.3985962117952297 -1.7409567909537009 0 0 0 0 -176.26982936741842 89.72061028868427 0 89.72061028868427 231.61864664950849 0 0 0 0 -680.57156933829174 510.48480106223963 0 510.48480106223963 -119.31594814175605 0 0 0 0 -450.67611976310582 -120.68395192670835 0 -120.68395192670835 -45.321313983156415 0 0 0 0 84.015774832663737 450.69773351055039 0 450.69773351055039 -500.68915195216209 0 0 0 0 23.7812374036439 675.10107921741917 0 675.10107921741917 -634.59397288961782 0 0 0 0 -231.94922744323412 1018.4046760746737 0 1018.4046760746737 -744.48352028958323 0 0 0 0 -1161.415781091695 804.59543388840848 0 804.59543388840848 -1253.7084033310925 0 0 0 0 -1307.2464815720232 7.3231095552248462 0 7.3231095552248462 51.055106208300685 0 0 0 0 -1317.9670116563289 670.53452324095122 0 670.53452324095122 -45.420192161351679 0 0 0 0 -1280.9295215062157 187.0823329915531 0 187.0823329915531 -41.889151599719824 0 0 0 0 -837.42648184327481 41.768785289015199 0 41.768785289015199 -5.0044565948088433 0 0 0 0 -1215.3140962081561 625.40343420693569 0 625.40343420693569 -196.03197349780942 0 0 0 0 -734.08710358359895 510.75021864113489 0 510.75021864113489 -193.19702542498564 0 0 0 0 -147.93826548406378 808.61588780536385 0 808.61588780536385 -946.077014040623 0 0 0 0 -6.7200065312662218 4.1412197886187521 0 4.1412197886187521 -1.6755265020475791 0 0 0 0 -1499.9652625855524 536.46807314140551 0 536.46807314140551 -589.79242970261055 0 0 0 0 -1113.0637886687655 833.77367261824907 0 833.77367261824907 -423.25469853154925 0 0 0 0 -1497.390656067093 716.06553355323911 0 716.06553355323911 -165.52187276836204 0 0 0 0 -810.78740925134844 235.60469075600787 0 235.60469075600787 284.9179465674838 0 0 0 0 -161.40276848052235 -139.42854097459588 0 -139.42854097459588 -128.64172070333399 0 0 0 0 -466.75004774659374 641.6876322552888 0 641.6876322552888 -825.98706679649956 0 0 0 0 -9.4934495251867261 1.0382916064934844 0 1.0382916064934844 -1.4534837827524631 0 0 0 0 -1495.0218646651811 -853.71198034928602 0 -853.71198034928602 -520.92944131131651 0 0 0 0 -405.32926302410669 -79.379538945430795 0 -79.379538945430795 14.546489643728478 0 0 0 0 -1501.751196664025 -225.66112390995687 0 -225.66112390995687 227.83748592721784 0 0 0 0 -417.28922598364056 -158.19435804387874 0 -158.19435804387874 -0.96035028020953916 0 0 0 0 -46.549364485694241 -197.97128917473515 0 -197.97128917473515 -384.72895961853482 0 0 0 0 -59.897158475299875 -119.40927671579243 0 -119.40927671579243 -116.49842864554773 0 0 0 0 -14.503665455009468 -239.34811725945355 0 -239.34811725945355 190.13211629430126 0 0 0 0 -36.211254884341443 2.4888765106568247 0 2.4888765106568247 0.096406185491615448 0 0 0 0 -589.10568965837547 121.15798019093188 0 121.15798019093188 -34.187571142615639 0 0 0 0 148.79663786648962 -409.9197556866057 0 -409.9197556866057 77.804798567721008 0 0 0 0 -5.3705344189223077 -2.8545492082350421 0 -2.8545492082350421 -1.1428961975367287 0 0 0 0 276.70212750649443 -282.56673847610961 0 -282.56673847610961 -73.319866117512802 0 0 0 0 -43.575131698469704 39.317616676038881 0 39.317616676038881 100.83402911713148 0 0 0 0 -12.067663815411144 -5.8348045989831592 0 -5.8348045989831592 -1.6187225329828236 0 0 0 0 -101.97351712248064 -91.251536246993169 0 -91.251536246993169 307.3913853371389 0 0 0 0 -435.6566168998778 243.00557089134966 0 243.00557089134966 79.446259121397588 0 0 0 0 -167.50397417888234 245.26871338191177 0 245.26871338191177 -109.54360227546741 0 0 0 0 3.6875458879512735 72.111425635237509 0 72.111425635237509 -8.1775959273158492 0 0 0 0 -297.91794080048749 171.68809181100465 0 171.68809181100465 18.886037701035278 0 0 0 0 -267.47438938119694 197.70304038387968 0 197.70304038387968 104.02434637528745 0 0 0 0 -262.140740837669 205.29367790854468 0 205.29367790854468 47.682223365133666 0 0 0 0 -231.20661063372063 153.86702668060352 0 153.86702668060352 228.090895987549 0 0 0 0 -132.20420405489858 145.54903299378859 0 145.54903299378859 29.809100632560465 0 0 0 0 7.6441286472527281 82.248346869458487 0 82.248346869458487 -59.963499988440276 0 0 0 0 -6.6370323040745234 -2.8301378619750288 0 -2.8301378619750288 -1.1292068396028681 0 0 0 0 -315.71120213007816 -672.39573286408472 0 -672.39573286408472 -211.0616345633893 0 0 0 0 -1496.3654939949429 367.09168747361633 0 367.09168747361633 197.87256169203491 0 0 0 0 -340.43457948049536 168.51560197570137 0 168.51560197570137 206.96135900010609 0 0 0 0 -274.11129452011301 -353.11190007186997 0 -353.11190007186997 367.65736366427979 0 0 0 0 -914.50382745233946 132.18493134090156 0 132.18493134090156 -112.80733434635772 0 0 0 0 -1497.1905259528212 71.980515915849296 0 71.980515915849296 99.402486681775997 0 0 0 0 -980.48062911449597 -125.87621662963367 0 -125.87621662963367 25.599096461417936 0 0 0 0 -770.595566204036 137.10910190606126 0 137.10910190606126 -112.97428435580791 0 0 0 0 -758.84203126815191 134.5691421130889 0 134.5691421130889 -176.12130482058069 0 0 0 0 -711.91929177726342 2.9772521910791596 0 2.9772521910791596 -224.73845420849403 0 0 0 0 -635.38475210557954 289.15761662751271 0 289.15761662751271 -553.23866628545579 0 0 0 0 -823.00103160349681 389.25017850399325 0 389.25017850399325 -107.61504048280196 0 0 0 0 -623.33119263129629 217.23054702073628 0 217.23054702073628 -179.8864189512567 0 0 0 0 -825.31859574411283 260.52137043846591 0 260.52137043846591 -149.76422321081606 0 0 0 0 -696.5587114987502 268.53093758146593 0 268.53093758146593 -167.94963749563001 0 0 0 0 -662.82816398148134 74.09933925453619 0 74.09933925453619 120.08387346930535 0 0 0 0 -498.06794866492055 133.89507829617196 0 133.89507829617196 11.908160798984056 0 0 0 0 -804.58250150459571 222.64207288465883 0 222.64207288465883 -67.654297759008244 0 0 0 0 -1501.2429673792431 361.36967499535598 0 361.36967499535598 21.002423404168201 0 0 0 0 -1060.5564801100263 243.47518334958852 0 243.47518334958852 44.957140495377658 0 0 0 0 -798.50771915732912 482.8053559275059 0 482.8053559275059 -101.84122375932513 0 0 0 0 -1495.481951666563 780.91116004290609 0 780.91116004290609 -213.19756500214407 0 0 0 0 -213.50717457197288 -141.04356066902795 0 -141.04356066902795 -52.002541714652807 0 0 0 0 -49.483017051996285 618.99066533884525 0 618.99066533884525 -665.6623122533988 0 0 0 0 -1497.7951063113651 -491.72860509248306 0 -491.72860509248306 220.08991448062079 0 0 0 0 -6.5214952991161113 3.775596072361143 0 3.775596072361143 -2.7772463493931716 0 0 0 0 -539.22864337349165 -173.44483837927899 0 -173.44483837927899 298.51757036410299 0 0 0 0 -459.99188503211303 482.10515579445388 0 482.10515579445388 490.83446080890519 0 0 0 0 -12.784977471916392 9.1147528482387301 0 9.1147528482387301 -5.2951668230677447 0 0 0 0 -65.634479262935201 -1.4553244265927674 0 -1.4553244265927674 130.0396432053962 0 0 0 0 -1500.0072023658399 114.03624948942512 0 114.03624948942512 420.53710412954871 0 0 0 0 -1188.4714285132541 -83.82741563124182 0 -83.82741563124182 209.01558784741314 0 0 0 0 -6.128446775432792 4.9570597814993107 0 4.9570597814993107 -3.6275607549986479 0 0 0 0 -1381.141212964948 613.4640075620008 0 613.4640075620008 -271.12158900570103 0 0 0 0 -1196.0961853558269 443.45772289968534 0 443.45772289968534 -486.30462376263267 0 0 0 0 368.16178397242766 616.35296355974174 0 616.35296355974174 -766.41629909628148 0 0 0 0 201.64641437787213 854.11279416554521 0 854.11279416554521 -745.96878007153873 0 0 0 0 -296.77009895728406 -338.21010464111259 0 -338.21010464111259 -74.725570347924076 0 0 0 0 -81.996573677803099 167.94868178069004 0 167.94868178069004 138.26460102269505 0 0 0 0 -720.08788479620125 2.8713682007648913 0 2.8713682007648913 -23.495210627745564 0 0 0 0 -516.56252501736162 -111.97490221264627 0 -111.97490221264627 21.426161345954483 0 0 0 0 -417.54170136730681 78.579164502611206 0 78.579164502611206 -276.52770045292141 0 0 0 0 -447.64848912606612 -93.876152753305377 0 -93.876152753305377 -18.433226780136181 0 0 0 0 -455.78720502600117 -100.55908853986121 0 -100.55908853986121 5.9601244063758259 0 0 0 0 -335.05571431812496 33.305727230524042 0 33.305727230524042 -3.6153188322338465 0 0 0 0 -229.00224033936684 -71.31433857753774 0 -71.31433857753774 49.798117211974159 0 0 0 0 -105.76201086760921 192.7211790953761 0 192.7211790953761 22.582545266970101 0 0 0 0 -294.41082259374707 156.21701964599907 0 156.21701964599907 -159.97557255160859 0 0 0 0 -250.50647080386625 95.997884175799641 0 95.997884175799641 -224.60172002425213 0 0 0 0 -587.74288340414569 49.451086780240189 0 49.451086780240189 -3.3201801024906388 0 0 0 0 -698.52484736276801 326.96539604392103 0 326.96539604392103 -310.99903976069572 0 0 0 0 -554.89868218776246 52.80438682854151 0 52.80438682854151 -143.67972930370956 0 0 0 0 -126.75916832997245 172.60048648184102 0 172.60048648184102 -610.84532920719494 0 0 0 0 -611.68183352379856 769.93618639623287 0 769.93618639623287 -1202.6226333930504 0 0 0 0 -6.5599623080958338 1.4366811728222508 0 1.4366811728222508 0.12767386293697958 0 0 0 0 -6.778989019778237 12.826697234646588 0 12.826697234646588 62.510627043071054 0 0 0 0 4.1187982770243252 -31.16767556436281 0 -31.16767556436281 65.324030664984207 0 0 0 0 -21.944345032488854 -10.814707243132858 0 -10.814707243132858 189.36117005532748 0 0 0 0 -16.543278947009128 2.7218874767241914 0 2.7218874767241914 1.8439565635293875 0 0 0 0 -95.952698223326479 231.36010983065 0 231.36010983065 -647.22932695020882 0 0 0 0 -13.09458702327538 79.072700837153434 0 79.072700837153434 -504.0206915972301 0 0 0 0 -24.484699415167086 3.0474692824262615 0 3.0474692824262615 2.8679568239487487 0 0 0 0 -58.769499123247442 274.66252562683098 0 274.66252562683098 -430.29609599898185 0 0 0 0 -103.28749835501912 248.02563570382995 0 248.02563570382995 -389.09050054420413 0 0 0 0 205.8392624304106 282.35732095956644 0 282.35732095956644 -385.46526388700397 0 0 0 0 222.10161670317757 212.90287748183744 0 212.90287748183744 -199.3853584070705 0 0 0 0 513.62779730038892 62.967029015085132 0 62.967029015085132 -246.64174127508591 0 0 0 0 0.3378133721271297 241.81586917171785 0 241.81586917171785 -141.17423504671859 0 0 0 0 -35.562020400277106 212.94226243815797 0 212.94226243815797 -440.71669902317331 0 0 0 0 16.14196508452369 81.704343746063273 0 81.704343746063273 -209.52980646250126 0 0 0 0 -54.520810191999772 49.06777431817477 0 49.06777431817477 -112.72992277981695 0 0 0 0 171.22923821910808 160.26160162950111 0 160.26160162950111 -30.023132178245124 0 0 0 0 170.48917134727526 197.68692570341364 0 197.68692570341364 29.637112899049466 0 0 0 0 365.09357759525847 66.984421042558239 0 66.984421042558239 -52.304153442745246 0 0 0 0 85.314950247106026 133.4002067372495 0 133.4002067372495 -4.231501196803265 0 0 0 0 -29.34491775384231 70.961761249213851 0 70.961761249213851 84.385475287744498 0 0 0 0 -43.161584759558536 16.261715621389271 0 16.261715621389271 72.883543943928544 0 0 0 0 57.817658343341463 285.80152792063666 0 285.80152792063666 245.86023348915217 0 0 0 0 119.88634635637391 126.2306548329496 0 126.2306548329496 -27.128349754703976 0 0 0 0 -10.231068445826395 9.9591592149686043 0 9.9591592149686043 -8.2494044091782825 0 0 0 0 -26.171346572151378 175.61629579925085 0 175.61629579925085 47.119682407278312 0 0 0 0 -220.16775779124873 -140.35396208269646 0 -140.35396208269646 12.068889529892063 0 0 0 0 -9.2898790839386294 8.3449527765977152 0 8.3449527765977152 -6.4512764993127441 0 0 0 0 -63.221663642487329 171.65288256587203 0 171.65288256587203 390.87762824084513 0 0 0 0 4.4572027291396807 147.26441167395183 0 147.26441167395183 -28.780413680945912 0 0 0 0 -21.923526102205869 98.59735107779656 0 98.59735107779656 -68.318368886668623 0 0 0 0 -748.58924975060108 11.450926284619031 0 11.450926284619031 354.95131626856164 0 0 0 0 -3.982500355797967 3.4505041308659976 0 3.4505041308659976 -2.9388770470225762 0 0 0 0 44.479861206476926 279.51427308545499 0 279.51427308545499 -673.20194008677936 0 0 0 0 -629.37165736213137 453.95846548323203 0 453.95846548323203 -208.22085060984278 0 0 0 0 14.987837168715487 142.10682873550672 0 142.10682873550672 -241.19124201363476 0 0 0 0 -59.514616425483837 147.5851875886267 0 147.5851875886267 -83.352502438385599 0 0 0 0 8.6757294385715795 38.238169215293397 0 38.238169215293397 22.473646917257952 0 0 0 0 -57.626637164372369 129.70415821723856 0 129.70415821723856 -23.860126755751708 0 0 0 0 -112.58562615267635 -18.646912017760094 0 -18.646912017760094 304.78471377502024 0 0 0 0 -107.63771123301558 93.178517311533369 0 93.178517311533369 92.461582992055042 0 0 0 0 -85.329052231668356 94.908652923858369 0 94.908652923858369 83.105541739910905 0 0 0 0 -133.97245808575099 211.46579402816599 0 211.46579402816599 -35.195129503426699 0 0 0 0 -156.49461066327058 170.15747661786042 0 170.15747661786042 171.36971426093996 0 0 0 0 -80.569854534571277 92.171118854176285 0 92.171118854176285 -19.882596820398135 0 0 0 0 -198.13118883437892 38.593808455708881 0 38.593808455708881 128.77576600380678 0 0 0 0 -239.52767996139301 204.58721362111118 0 204.58721362111118 133.7421670415016 0 0 0 0 -1.2101238795492861 0.30542890072680962 0 0.30542890072680962 3.7156270762261459 0 0 0 0 -416.91653482221773 405.62220124644892 0 405.62220124644892 -83.089220705466346 0 0 0 0 -138.97025904266002 30.986787221261409 0 30.986787221261409 94.291443925822705 0 0 0 0 -330.48961920028523 132.02241959835737 0 132.02241959835737 -107.70577359724689 0 0 0 0 -115.58177116582965 184.63980556474493 0 184.63980556474493 -223.41299461600897 0 0 0 0 -4.1101077959824437 1.9356489548330345 0 1.9356489548330345 7.2778148654862775 0 0 0 0 69.102067867039295 -139.99276481698234 0 -139.99276481698234 193.33085803418703 0 0 0 0 -35.334717603509489 -14.926222522778517 0 -14.926222522778517 55.044575712680853 0 0 0 0 -38.69056152322446 -2.1582596695691336 0 -2.1582596695691336 117.14850128268108 0 0 0 0 -12.419869996905618 -1.3992204089111056 0 -1.3992204089111056 55.612665896348744 0 0 0 0 -14.576649669554172 7.894977759667654 0 7.894977759667654 50.251020722121211 0 0 0 0 -9.334961099601145 10.457691681360686 0 10.457691681360686 -8.1327572939849002 0 0 0 0 234.64122008568302 119.73416454549715 0 119.73416454549715 95.493535796010974 0 0 0 0 0.026042540948196802 0.40500889840322429 0 0.40500889840322429 0.13925289197745894 0 0 0 0 352.07559884898819 -7.1895910059715362 0 -7.1895910059715362 63.201815698435894 0 0 0 0 -396.62095807765581 500.87964221363586 0 500.87964221363586 -337.30738206823207 0 0 0 0 -632.51509223387984 293.72426714622952 0 293.72426714622952 -131.04413020409174 0 0 0 0 -107.62211209361703 193.50537571027269 0 193.50537571027269 -227.40685357846132 0 0 0 0 -757.44229630324844 409.34107186060646 0 409.34107186060646 -273.62869117754235 0 0 0 0 -2.691575933072059 0.73764075953366159 0 0.73764075953366159 0.9922894906917703 0 0 0 0 -163.56904682052482 120.75752109080463 0 120.75752109080463 -96.984748855505131 0 0 0 0 -578.36839366053027 640.97203193826658 0 640.97203193826658 -477.32941675690108 0 0 0 0 -644.55940849208491 503.82495567958188 0 503.82495567958188 -474.22200225348638 0 0 0 0 474.87208384934274 -51.107005439589088 0 -51.107005439589088 -120.42332730161252 0 0 0 0 -0.99707416006493332 1.8289320211321112 0 1.8289320211321112 -1.3431356903252247 0 0 0 0 -7.6283005278964993 33.324751296392151 0 33.324751296392151 -242.19654079457391 0 0 0 0 -436.73757696869143 458.38026896653309 0 458.38026896653309 -500.77651207873464 0 0 0 0 -121.59204473397403 54.44060411595251 0 54.44060411595251 -38.740087429805044 0 0 0 0 -43.103479476812936 -82.306834785408626 0 -82.306834785408626 187.40508389825652 0 0 0 0 -31.0827610874708 2.4377044897203639 0 2.4377044897203639 3.4867794236777829 0 0 0 0 -46.685281322717856 12.383518480324263 0 12.383518480324263 59.402093549846995 0 0 0 0 1.0590920756221749 19.330042768795238 0 19.330042768795238 55.274754145555107 0 0 0 0 -17.518842944362405 -25.420473559877252 0 -25.420473559877252 139.18948267806587 0 0 0 0 10.303589540304529 -2.116804077999177 0 -2.116804077999177 42.625964875323461 0 0 0 0 26.709240592608694 -4.4915967872444469 0 -4.4915967872444469 23.021656856087304 0 0 0 0 52.109246026055189 -72.146384733470327 0 -72.146384733470327 27.299452629912096 0 0 0 0 -93.618022657799884 -86.404407689967158 0 -86.404407689967158 256.10268042187948 0 0 0 0 -93.829851187108943 -5.2692136765618329 0 -5.2692136765618329 53.609275587888078 0 0 0 0 -34.01198659936901 2.3279995135388045 0 2.3279995135388045 3.828551005287764 0 0 0 0 -31.975009058238356 95.302019193529759 0 95.302019193529759 -72.896681355458213 0 0 0 0 -82.873381274344865 45.120241744410123 0 45.120241744410123 -152.18285943123965 0 0 0 0 22.551765490250546 65.321694027048238 0 65.321694027048238 -156.39269075230959 0 0 0 0 -76.527787434737547 133.35613433430171 0 133.35613433430171 -103.84237654627577 0 0 0 0 -3.10566291158041 0.46214813019342671 0 0.46214813019342671 1.0818357022988101 0 0 0 0 -90.154686655208934 194.40217710196862 0 194.40217710196862 -217.36242223659747 0 0 0 0 -143.22834787165812 67.882543027615128 0 67.882543027615128 -74.003126006182583 0 0 0 0 -54.018246720333991 53.001687512445301 0 53.001687512445301 -48.971846112542949 0 0 0 0 -173.49566662104917 -8.073637739119512 0 -8.073637739119512 258.32675113194705 0 0 0 0 -32.979550179951644 3.0437082266220141 0 3.0437082266220141 4.2669772190614825 0 0 0 0 -75.359451288422861 -45.810932261992548 0 -45.810932261992548 66.963436987384739 0 0 0 0 23.175978449555259 -17.38524244031143 0 -17.38524244031143 91.212940524699633 0 0 0 0 -21.469839786961529 73.696627502244738 0 73.696627502244738 103.05498041555256 0 0 0 0 -155.56735006784947 165.0862362816917 0 165.0862362816917 59.45192740422894 0 0 0 0 41.39695445954203 129.08246900550529 0 129.08246900550529 -42.483994939840969 0 0 0 0 -312.51087540769731 -142.0670618181735 0 -142.0670618181735 44.916487123466311 0 0 0 0 20.425591838080436 79.186874569270458 0 79.186874569270458 29.63779986355803 0 0 0 0 26.548503491419979 59.556043518099578 0 59.556043518099578 52.205716660107669 0 0 0 0 -15.659832557708796 70.028836651903859 0 70.028836651903859 39.525623417520478 0 0 0 0 27.626330064787908 47.090535787858478 0 47.090535787858478 16.58227416089187 0 0 0 0 -19.154225128844701 26.23641598290844 0 26.23641598290844 17.952908288738172 0 0 0 0 -12.189031059173431 47.438343257269139 0 47.438343257269139 66.263620878478605 0 0 0 0 -29.21653037141698 4.9299762795808597 0 4.9299762795808597 3.5638110828247922 0 0 0 0 -20.89810538222082 -25.359849215471968 0 -25.359849215471968 30.0823064194322 0 0 0 0 -5.9966521309943346 -26.412793636184801 0 -26.412793636184801 -20.558295603031638 0 0 0 0 -18.865407771145328 15.404365996702467 0 15.404365996702467 50.881730784700949 0 0 0 0 -3.2341589926843852 -2.5339010419320118 0 -2.5339010419320118 3.9960665833767988 0 0 0 0 -6.4717821543526952 -4.4535713981756544 0 -4.4535713981756544 39.215851391046726 0 0 0 0 -39.151522665080847 -15.460302143527201 0 -15.460302143527201 11.453447114441587 0 0 0 0 -86.797739557150635 2.3292530445231989 0 2.3292530445231989 69.307110375187676 0 0 0 0 -110.82059272235347 22.494586734986228 0 22.494586734986228 112.75710888335237 0 0 0 0 1.1261623163782133 -0.53489206336721651 0 -0.53489206336721651 0.27077406163094997 0 0 0 0 -86.372409312098171 18.774764071276422 0 18.774764071276422 -11.680629868231748 0 0 0 0 26.338042040737491 107.10477186000645 0 107.10477186000645 98.040088402095762 0 0 0 0 -109.81591605674839 -4.4836848334429078 0 -4.4836848334429078 27.395361502201695 0 0 0 0 -200.58426776784836 71.974522114473643 0 71.974522114473643 10.517500565525438 0 0 0 0 -1.4961877629455813 0.30637196958748092 0 0.30637196958748092 0.63524839823640944 0 0 0 0 -131.67518603221106 210.99633279490962 0 210.99633279490962 -244.90938649702156 0 0 0 0 -226.78110736260714 173.01732270491664 0 173.01732270491664 35.116140695019283 0 0 0 0 -204.66944945406067 141.22824458434121 0 141.22824458434121 36.151001994938042 0 0 0 0 -189.08836629334837 157.43696826635914 0 157.43696826635914 45.493065423371903 0 0 0 0 -35.583897022945166 60.630608170202947 0 60.630608170202947 24.25245551611124 0 0 0 0 -262.24988455136554 69.910204521620386 0 69.910204521620386 23.955984121042547 0 0 0 0 -206.71772125546704 158.48013340174953 0 158.48013340174953 20.607274466680337 0 0 0 0 -219.81860461718315 99.749740368159962 0 99.749740368159962 -10.655007040768396 0 0 0 0 -250.62959849068284 41.288082237665378 0 41.288082237665378 -67.561684920519156 0 0 0 0 -369.33452875536022 54.789494875151149 0 54.789494875151149 -8.0657452761387276 0 0 0 0 -367.06091128169646 166.19791772853415 0 166.19791772853415 -43.927892829664756 0 0 0 0 36.354764704556146 -64.206656893317245 0 -64.206656893317245 -48.989369319526972 0 0 0 0 -1.6538061024641593 -0.75543205222262344 0 -0.75543205222262344 -0.12749989176067134 0 0 0 0 -96.792221647610859 -47.966073615139408 0 -47.966073615139408 -149.53408072599814 0 0 0 0 -362.99516306515943 13.777052681464454 0 13.777052681464454 1.3866266103747193 0 0 0 0 -51.561106390854547 44.955013354016444 0 44.955013354016444 35.947021289262921 0 0 0 0 -83.53989186601757 -36.956193944438326 0 -36.956193944438326 5.0553447092527222 0 0 0 0 -119.18311847469158 -2.6973653353829263 0 -2.6973653353829263 9.8671608657405159 0 0 0 0 -98.097707676708524 -6.720157936308965 0 -6.720157936308965 -53.388694845254079 0 0 0 0 -185.29720104033186 73.649037976170149 0 73.649037976170149 -48.974293597127655 0 0 0 0 -175.73932251392034 50.210025253855818 0 50.210025253855818 -41.900163265326341 0 0 0 0 -215.31164223172527 86.387936646024997 0 86.387936646024997 -45.841912194167421 0 0 0 0 -91.870522445839015 99.576389587617172 0 99.576389587617172 11.703920701857584 0 0 0 0 -88.505348096139187 41.190677999159966 0 41.190677999159966 63.856184731233043 0 0 0 0 -149.31055836997984 -12.02932503232671 0 -12.02932503232671 -54.143105565514134 0 0 0 0 -3.1521324636561872 -1.7473027026699057 0 -1.7473027026699057 -0.25577396567098232 0 0 0 0 -106.93944344201509 -78.464934474385785 0 -78.464934474385785 22.990107525367648 0 0 0 0 -226.41442617830035 137.14568070617429 0 137.14568070617429 -46.617786085539706 0 0 0 0 -111.46425271892804 71.302374356486894 0 71.302374356486894 -51.158791559645863 0 0 0 0 -269.93256115374243 48.769508259363761 0 48.769508259363761 -23.12453331067789 0 0 0 0 -297.89600631736539 65.158179163125567 0 65.158179163125567 -15.907189627373214 0 0 0 0 -264.14623857656625 55.408442457598966 0 55.408442457598966 -28.881447879385746 0 0 0 0 -234.9681603727513 25.57603555922617 0 25.57603555922617 -9.4527677259884584 0 0 0 0 -260.67638870687006 58.312961081555784 0 58.312961081555784 -29.038220659617764 0 0 0 0 -263.58563136564771 63.966509744673928 0 63.966509744673928 -39.417637361633354 0 0 0 0 -253.55474513366789 80.598809046891574 0 80.598809046891574 -14.055752074737818 0 0 0 0 -232.78845943104898 67.008783407160379 0 67.008783407160379 -32.587343267558481 0 0 0 0 -256.46401995324049 72.770764648250065 0 72.770764648250065 -25.530538161657887 0 0 0 0 -229.94016247466789 76.072479008124361 0 76.072479008124361 -37.701840513456673 0 0 0 0 -254.06823638247806 77.77125754257753 0 77.77125754257753 -44.302418858893276 0 0 0 0 -239.5756224929064 79.828324739921442 0 79.828324739921442 -40.630204124223496 0 0 0 0 -272.7299209415869 88.691526288561747 0 88.691526288561747 -39.829116892715255 0 0 0 0 -258.08826702411534 96.192236421931 0 96.192236421931 -65.105731598360592 0 0 0 0 -288.93232588083629 142.60775074711464 0 142.60775074711464 -78.209112757913431 0 0 0 0 -302.79007086525235 135.70960082884102 0 135.70960082884102 -77.314997671338176 0 0 0 0 -309.25097303438815 130.77784095923724 0 130.77784095923724 -59.511835969278401 0 0 0 0 -279.11396509719998 98.393718394053778 0 98.393718394053778 -53.159148238966395 0 0 0 0 -268.92588816959142 79.865890540013794 0 79.865890540013794 -25.588811053113965 0 0 0 0 -271.66781949540746 103.83534603344341 0 103.83534603344341 -49.430857156885452 0 0 0 0 -283.83568470538012 89.98042349424864 0 89.98042349424864 -34.978225461051295 0 0 0 0 -275.1954546565612 104.24606004485346 0 104.24606004485346 -58.083495378246369 0 0 0 0 -253.45284050720511 98.658847961228233 0 98.658847961228233 -38.636642881519322 0 0 0 0 -240.40794376401755 69.938398864259938 0 69.938398864259938 -31.974140783808963 0 0 0 0 -205.46075080371338 83.198051366638268 0 83.198051366638268 -32.129350315705096 0 0 0 0 -207.65291864472601 70.072690898740461 0 70.072690898740461 -24.851476651737471 0 0 0 0 -223.68861310023931 65.55458391632547 0 65.55458391632547 -23.198584732971305 0 0 0 0 -208.04933498699393 80.274449336135532 0 80.274449336135532 -15.08398619010908 0 0 0 0 -236.92811192496447 85.645524527354155 0 85.645524527354155 -28.806365223891575 0 0 0 0 -246.52136159640941 75.673687380416638 0 75.673687380416638 -38.016744903749498 0 0 0 0 -216.48531199984609 70.190797607668827 0 70.190797607668827 -34.439783988862757 0 0 0 0 -237.46139574889094 64.631982565099918 0 64.631982565099918 -21.188220586272493 0 0 0 0 -214.4216487139638 57.56144559509363 0 57.56144559509363 -13.149759507910915 0 0 0 0 -199.6573624478624 58.931713624974122 0 58.931713624974122 -25.13721458986614 0 0 0 0 -200.45280504146649 64.580288832422042 0 64.580288832422042 -30.333952479540471 0 0 0 0 -222.35009719648951 56.764885874998647 0 56.764885874998647 -23.908440180539799 0 0 0 0 -0.55400429237381132 -0.32379334751031763 0 -0.32379334751031763 -0.1767747099717305 0 0 0 0 -180.17727851617383 4.1976912774343873 0 4.1976912774343873 48.164389484913045 0 0 0 0 -177.06622085972049 46.428590828383101 0 46.428590828383101 -29.31349873893538 0 0 0 0 -52.083791736553394 -30.522858284809779 0 -30.522858284809779 -31.051721912604989 0 0 0 0 -186.95074017626757 59.550524563640124 0 59.550524563640124 7.4122217515764532 0 0 0 0 -190.00547111187188 50.64310438319967 0 50.64310438319967 -17.849173227768802 0 0 0 0 -194.93125369260088 70.199971672163187 0 70.199971672163187 1.6726249170926479 0 0 0 0 -186.84513364943268 65.894373080845668 0 65.894373080845668 -7.5323039691872822 0 0 0 0 -171.48279101625667 87.294735134776403 0 87.294735134776403 17.783725051857949 0 0 0 0 -0.60351234778855911 -0.351337774061804 0 -0.351337774061804 -0.68438676251892483 0 0 0 0 -115.04187717671448 67.948397277822252 0 67.948397277822252 -42.135585590600954 0 0 0 0 -0.57610936990293027 -0.39803378745172324 0 -0.39803378745172324 -0.21652555448236233 0 0 0 0 -30.217494891097886 41.28848395253722 0 41.28848395253722 -10.274743771769636 0 0 0 0 -27.048163592786295 46.724054123102121 0 46.724054123102121 -2.0944040494182445 0 0 0 0 -152.57117776244013 113.37432169800076 0 113.37432169800076 -90.726137716558881 0 0 0 0 -128.14867382162629 38.898076097142564 0 38.898076097142564 -37.582299900981297 0 0 0 0 -132.92088999958833 53.205683186275152 0 53.205683186275152 -44.066571714551344 0 0 0 0 -177.29238164130948 85.488418319209188 0 85.488418319209188 -6.7316485247821074 0 0 0 0 -189.53732936999586 66.226043614818124 0 66.226043614818124 -22.84638314802973 0 0 0 0 -157.28335461201641 75.267030436390669 0 75.267030436390669 -25.538766556848827 0 0 0 0 -129.69414564248291 98.718505930066499 0 98.718505930066499 -12.28377214588744 0 0 0 0 -157.59057475422742 73.985369137153072 0 73.985369137153072 -27.809112583005231 0 0 0 0 -158.89746917359298 62.585043949346655 0 62.585043949346655 -35.926522791853245 0 0 0 0 -137.06721297793047 80.906104421720727 0 80.906104421720727 -29.044008320413042 0 0 0 0 -172.91948270710418 76.194193431484734 0 76.194193431484734 -28.389016945369619 0 0 0 0 -171.29352442719392 78.940419115904774 0 78.940419115904774 -25.725233485495373 0 0 0 0 -146.77363830141257 65.367277245177064 0 65.367277245177064 -40.402577290289997 0 0 0 0 -174.65406517236261 60.062854344151788 0 60.062854344151788 -35.469979447912749 0 0 0 0 -156.66322596310056 47.964028410066248 0 47.964028410066248 -36.353397631052644 0 0 0 0 -172.54861848527798 63.175637611288352 0 63.175637611288352 -37.715935187979369 0 0 0 0 -198.01535104899085 72.136734904886225 0 72.136734904886225 -33.581715244986924 0 0 0 0 -151.48408203226063 48.136653243268356 0 48.136653243268356 -40.107537544994557 0 0 0 0 -145.54105527463253 45.581961362730738 0 45.581961362730738 -41.225853361608756 0 0 0 0 -153.40647608751897 51.490894690150014 0 51.490894690150014 -40.913884937097507 0 0 0 0 -164.63110078751924 41.389733265038615 0 41.389733265038615 -12.734134243112749 0 0 0 0 -147.26891478716425 28.366866046224999 0 28.366866046224999 -12.220440775263796 0 0 0 0 -143.18872955796542 34.973633515688903 0 34.973633515688903 -35.616273769866666 0 0 0 0 -165.04017541059875 37.747886789471522 0 37.747886789471522 22.469697962018017 0 0 0 0 -160.45643154293066 35.780332550604385 0 35.780332550604385 -9.9040267107120599 0 0 0 0 -160.45643154303252 35.780332551151332 0 35.780332551151332 -9.9040267107459385 0 0 0 0 -160.45643154293066 35.780332551112508 0 35.780332551112508 -9.9040267107423006 0 0 0 0 -180.71712135832058 47.846518139609771 0 47.846518139609771 -10.956525182679684 0 0 0 0 -161.58951971278293 44.281642686263069 0 44.281642686263069 -28.953087046081691 0 0 0 0 -165.01575476023572 41.074075943435886 0 41.074075943435886 -22.350335888839254 0 0 0 0 -168.32147917617112 55.038506589736983 0 55.038506589736983 -34.888943504420951 0 0 0 0 -177.21196220938873 50.50374133856468 0 50.50374133856468 -29.320285165285213 0 0 0 0 -213.01551297772312 83.168006391131314 0 83.168006391131314 -38.422490910498368 0 0 0 0 -202.52718075054872 60.142698358022358 0 60.142698358022358 -22.856051229559853 0 0 0 0 -184.71193860762287 65.053870785240974 0 65.053870785240974 -31.391612040836492 0 0 0 0 -210.0703384449298 83.420423687748553 0 83.420423687748553 -27.95506813658082 0 0 0 0 -213.1357610869527 75.467975141092097 0 75.467975141092097 -48.559579181730896 0 0 0 0 -189.95580336352577 66.977629415943937 0 66.977629415943937 -35.176157282174813 0 0 0 0 -172.56198252734612 69.0389177249819 0 69.0389177249819 -14.949645686228166 0 0 0 0 -151.84954488073708 86.228224788745933 0 86.228224788745933 -35.725989445927553 0 0 0 0 -173.45279523647332 56.969308721704465 0 56.969308721704465 22.599288246874266 0 0 0 0 -156.9348326381878 91.848046940373138 0 91.848046940373138 16.001371001203552 0 0 0 0 -166.30233870973461 60.879865110490186 0 60.879865110490186 11.626037762013084 0 0 0 0 -184.43103980807064 79.914643249559788 0 79.914643249559788 -4.896240898607175 0 0 0 0 -171.36936046235496 55.975016094632224 0 55.975016094632224 -21.89911887841356 0 0 0 0 -261.39754299745255 81.901897890365461 0 81.901897890365461 -33.160341232928431 0 0 0 0 -266.3672869716811 109.33871142604346 0 109.33871142604346 -54.426122672814927 0 0 0 0 -224.87994308768248 88.451569902813674 0 88.451569902813674 -39.952055127418802 0 0 0 0 -210.82283515921154 63.65452066317394 0 63.65452066317394 -33.752782588714922 0 0 0 0 -239.31940826321079 77.436789903641454 0 77.436789903641454 -27.175765471309035 0 0 0 0 -238.65201888909928 95.202584812798861 0 95.202584812798861 -52.973877465748046 0 0 0 0 -288.00929390551755 89.499584611195303 0 89.499584611195303 -41.399156571388119 0 0 0 0 -246.75736335053807 94.491194776874408 0 94.491194776874408 -40.727447690999398 0 0 0 0 -244.47072743359604 98.546353032917807 0 98.546353032917807 -65.804954031256955 0 0 0 0 -248.62024102633586 93.357669044040307 0 93.357669044040307 -76.163373862826461 0 0 0 0 -306.39460311979929 105.99163800707981 0 105.99163800707981 -52.171325108634761 0 0 0 0 -303.45976867372701 128.65616266254028 0 128.65616266254028 -91.050843759881104 0 0 0 0 -162.74726475271746 79.412948860948802 0 79.412948860948802 -53.441964855830179 0 0 0 0 -151.75394942972343 71.805248549310249 0 71.805248549310249 -53.442305705798617 0 0 0 0 -174.9601711991636 84.552983095570795 0 84.552983095570795 -34.091455060821545 0 0 0 0 -179.16822662367485 75.277695364976083 0 75.277695364976083 -50.332880603770491 0 0 0 0 -212.81196337364963 79.375801983023905 0 79.375801983023905 -55.478621538858874 0 0 0 0 -206.48470777936745 92.459002789243414 0 92.459002789243414 -34.526514345614089 0 0 0 0 -241.23591024952475 107.08326177753264 0 107.08326177753264 -55.906388197232438 0 0 0 0 -215.28646588334232 78.988730872062803 0 78.988730872062803 -54.118759132703474 0 0 0 0 -189.37858651595889 94.165465058692689 0 94.165465058692689 -56.000922409655431 0 0 0 0 -178.56663495109387 70.476741543136484 0 70.476741543136484 -50.168152988325915 0 0 0 0 -176.9732489077287 80.419031492054046 0 80.419031492054046 -58.162165437384488 0 0 0 0 -213.11003252078081 98.543614174739304 0 98.543614174739304 -47.194024289490642 0 0 0 0 -185.41757005109685 74.527696561374114 0 74.527696561374114 -46.817543843811961 0 0 0 0 -202.75900420195831 80.964801183112513 0 80.964801183112513 -43.719889609071345 0 0 0 0 -222.86263133226021 90.273649636607402 0 90.273649636607402 -38.680878193036165 0 0 0 0 -251.71051141182397 117.02036887469009 0 117.02036887469009 -48.699898189188104 0 0 0 0 -202.55660708803566 94.879635659784554 0 94.879635659784554 -70.172690895197547 0 0 0 0 -316.38042290748854 138.60074001249251 0 138.60074001249251 -66.353739592729639 0 0 0 0 -314.3331487311907 139.04537452864264 0 139.04537452864264 -151.57365000881498 0 0 0 0 -255.4458934302329 102.34334246965608 0 102.34334246965608 -72.271574574955991 0 0 0 0 -377.20391873395192 229.56503831314635 0 229.56503831314635 -105.84428005243802 0 0 0 0 -370.4157410788539 182.92054549368041 0 182.92054549368041 -52.465873851386839 0 0 0 0 -288.71235833990795 113.36929803570915 0 113.36929803570915 0.28516699067106505 0 0 0 0 -228.72398781612719 132.63081990021669 0 132.63081990021669 -68.358326289542802 0 0 0 0 -620.91296680467349 582.4448609624892 0 582.4448609624892 -399.92176259886588 0 0 0 0 -2.6738279022089557 0.3319710361967978 0 0.3319710361967978 0.55166317062865999 0 0 0 0 -693.3097443962215 401.4946780718758 0 401.4946780718758 -181.80380028153542 0 0 0 0 -493.41354029397189 173.1288837555156 0 173.1288837555156 -1.3112799738557175 0 0 0 0 -380.74217919410148 127.79154674996667 0 127.79154674996667 -77.606802119020927 0 0 0 0 -395.96710354513925 190.33909517024921 0 190.33909517024921 -104.85127943445377 0 0 0 0 -447.04376616967784 155.84043665180738 0 155.84043665180738 -120.64422132865886 0 0 0 0 -466.16128865044789 368.98254557756059 0 368.98254557756059 -351.27265294972301 0 0 0 0 -390.45671559453399 247.68726051148107 0 247.68726051148107 -156.8645018918474 0 0 0 0 -396.84111308160209 156.2093572216607 0 156.2093572216607 -69.64331688144398 0 0 0 0 -341.3587400736651 144.380831898352 0 144.380831898352 -101.34250657204237 0 0 0 0 -349.41970254475746 122.16186594646845 0 122.16186594646845 -54.929159879574911 0 0 0 0 -287.3220056772692 122.79031399190882 0 122.79031399190882 -70.497456608268465 0 0 0 0 -295.12400818696187 97.60184704434019 0 97.60184704434019 -52.721068619393805 0 0 0 0 -313.7123193494117 139.54378223926003 0 139.54378223926003 -85.864794344544237 0 0 0 0 -326.84638146431826 128.78345405673406 0 128.78345405673406 -52.978001713805554 0 0 0 0 -326.07989170643123 122.73429833816732 0 122.73429833816732 -60.314945025747363 0 0 0 0 -337.07603196768196 182.18430581375407 0 182.18430581375407 -104.31466004555028 0 0 0 0 -333.48380527032714 186.09052522325399 0 186.09052522325399 -100.56206094461172 0 0 0 0 -349.07232709407981 230.97359789483846 0 230.97359789483846 -128.32576574711265 0 0 0 0 -252.68671901493508 200.24276204506643 0 200.24276204506643 -145.7540794943601 0 0 0 0 -296.31764059410489 229.15333995453238 0 229.15333995453238 -158.56000485774268 0 0 0 0 -277.22825702692717 239.92854084457508 0 239.92854084457508 -192.50570540450065 0 0 0 0 -373.77613560410828 313.67900521315482 0 313.67900521315482 -240.67311013553285 0 0 0 0 -363.79485842072245 233.11529985879793 0 233.11529985879793 -177.92394548970015 0 0 0 0 -17.067432425581501 10.480834779287109 0 10.480834779287109 -15.462016090830993 0 0 0 0 -19.063621571694966 8.6502450993917801 0 8.6502450993917801 -10.107482957902596 0 0 0 0 -6.1305325002321069 -0.80956914095292376 0 -0.80956914095292376 1.971506742674574 0 0 0 0 -19.385361321667006 10.706749039677876 0 10.706749039677876 -11.551921320443661 0 0 0 0 -33.251645782525884 22.994329432583662 0 22.994329432583662 -0.011605716150475589 0 0 0 0 -26.909276212609257 13.943258227769112 0 13.943258227769112 -10.04358577049458 0 0 0 0 -12.27977208361699 6.9858250701217717 0 6.9858250701217717 -0.020998501024717349 0 0 0 0 -14.926069506778731 14.172969067846179 0 14.172969067846179 -11.063641436733834 0 0 0 0 -19.782497766609595 7.9266814666328953 0 7.9266814666328953 0.00044456613709618117 0 0 0 0 -19.943381530404622 8.6762331651463676 0 8.6762331651463676 0.22821932569087267 0 0 0 0 -7.7080623440857323 2.8923422052947103 0 2.8923422052947103 1.4674451762476752 0 0 0 0 -19.918090424071124 8.1416831659022399 0 8.1416831659022399 -0.45932935318377099 0 0 0 0 -12.581693985461243 12.185704342361419 0 12.185704342361419 -10.340955194509206 0 0 0 0 -18.928949789158651 7.6507423799348402 0 7.6507423799348402 -0.55931541733419365 0 0 0 0 -6.737106905948167 4.8458571409115088 0 4.8458571409115088 -0.022667231662809123 0 0 0 0 -2.0316751002406335 1.6467185524829304 0 1.6467185524829304 -1.2553758464006337 0 0 0 0 -3.5541473554239431 1.561653068401327 0 1.561653068401327 -0.43313643938855922 0 0 0 0 -7.2546340976987267 11.193643749863673 0 11.193643749863673 -9.9353024312993483 0 0 0 0 -23.532604680323857 22.454860267390817 0 22.454860267390817 -24.402690702570503 0 0 0 0 -2.1147450513209094 2.6938070812429302 0 2.6938070812429302 -3.178826059083971 0 0 0 0 -3.6507527319566364 6.2994039661438563 0 6.2994039661438563 -6.980311205504055 0 0 0 0 -11.346641714510042 11.845457838007697 0 11.845457838007697 -10.002670661856573 0 0 0 0 -16.60654740150494 13.632709187494566 0 13.632709187494566 -16.49002656075276 0 0 0 0 -19.532326413171177 14.301603771673653 0 14.301603771673653 -13.133939548655441 0 0 0 0 1.5928618535183929 6.8359106415960724 0 6.8359106415960724 -16.671482509589083 0 0 0 0 -15.767026213958161 13.177653501702025 0 13.177653501702025 -30.967155712886324 0 0 0 0 -39.093682682305371 23.558484845043495 0 23.558484845043495 -9.9746792542910043 0 0 0 0 -10.557920391472123 5.051364551467131 0 5.051364551467131 2.9737744601076805 0 0 0 0 2.0942213119880755 5.8986891463216296 0 5.8986891463216296 -12.422116266369787 0 0 0 0 -13.29920082083845 16.380338190486327 0 16.380338190486327 -11.571903033209651 0 0 0 0 -25.458451830116246 46.36370439627467 0 46.36370439627467 -22.412294090310752 0 0 0 0 6.7467806329368614 14.624928960635771 0 14.624928960635771 -19.516372637396671 0 0 0 0 3.4897605270307395 9.5713441689285901 0 9.5713441689285901 -27.242032129903237 0 0 0 0 -14.728828000006615 9.1162061713375806 0 9.1162061713375806 -5.6746740403605145 0 0 0 0 -22.454102660027274 10.434391665584016 0 10.434391665584016 -12.565817915174772 0 0 0 0 -268.45500576184349 175.07842550920688 0 175.07842550920688 -122.41319932914416 0 0 0 0 -9.7835677124507754 -1.2551668896595558 0 -1.2551668896595558 1.1005308658505859 0 0 0 0 -285.85971919153235 189.0746472586344 0 189.0746472586344 -127.38814296761791 0 0 0 0 -279.75961113766243 194.28737717333382 0 194.28737717333382 -122.96368055881908 0 0 0 0 -3.03006427712182 1.4598391895601139 0 1.4598391895601139 -6.3995635724827356 0 0 0 0 81.471793692653591 32.739534240955663 0 32.739534240955663 -16.958953112555264 0 0 0 0 -273.92571512762152 181.33229281138901 0 181.33229281138901 -135.42490304047806 0 0 0 0 -9.3339689051936148 14.817319872158805 0 14.817319872158805 -0.088371583989101055 0 0 0 0 42.989699975980329 14.901562126981389 0 14.901562126981389 -0.14420106515453313 0 0 0 0 2.4806479898288671 59.535877914124057 0 59.535877914124057 6.2050749481195453 0 0 0 0 -0.29612069794612239 -0.21855225417873214 0 -0.21855225417873214 -2.1065333031009836 0 0 0 0 169.94315252082743 8.5211890260705587 0 8.5211890260705587 -108.42310327853056 0 0 0 0 55.801076744286547 57.703989012123543 0 57.703989012123543 1.0963328009056568 0 0 0 0 -662.58791082180142 371.4823761468229 0 371.4823761468229 -178.36791980463192 0 0 0 0 -204.33845920749445 251.85870836163014 0 251.85870836163014 -384.20410416889627 0 0 0 0 -273.21993164698142 189.32520508623446 0 189.32520508623446 -154.81459801594528 0 0 0 0 -317.9601277200527 190.03265491439308 0 190.03265491439308 -94.2629267739905 0 0 0 0 -338.62447738270203 233.1832951133679 0 233.1832951133679 -137.76316380051912 0 0 0 0 -309.70207504185237 258.56951034952647 0 258.56951034952647 -181.14182330065853 0 0 0 0 -298.81919645183007 222.96108305912185 0 222.96108305912185 -154.14464404600352 0 0 0 0 -290.53736098247464 235.37321833605455 0 235.37321833605455 -153.71030915574494 0 0 0 0 -254.69292603249778 180.02899362583835 0 180.02899362583835 -141.20715946833829 0 0 0 0 -258.39597479347867 221.97841649253115 0 221.97841649253115 -236.0060927512867 0 0 0 0 -286.60661102609447 200.17283432444214 0 200.17283432444214 -114.61213193107996 0 0 0 0 -306.83034868269169 182.10733591835026 0 182.10733591835026 -129.47020845676326 0 0 0 0 -247.60124788925896 129.84934808935782 0 129.84934808935782 -97.68876100060524 0 0 0 0 -272.89549670803171 118.71220081431922 0 118.71220081431922 -89.442386531418151 0 0 0 0 -256.05579332814341 167.29696576340049 0 167.29696576340049 -162.78430551280863 0 0 0 0 -226.37962472319487 157.48042014739474 0 157.48042014739474 -203.00088312234041 0 0 0 0 -249.46915553017607 132.01297763761534 0 132.01297763761534 -119.67539008448442 0 0 0 0 -200.14322559384163 117.95867946749911 0 117.95867946749911 -136.16172615460147 0 0 0 0 -184.77890303160166 69.049676039335111 0 69.049676039335111 -66.535818045326664 0 0 0 0 -231.05006454434988 77.078603353567189 0 77.078603353567189 -79.060449620560902 0 0 0 0 -233.8443969882901 73.724313580321308 0 73.724313580321308 -62.576722611430114 0 0 0 0 -172.77229402008379 68.191973155283065 0 68.191973155283065 -62.713126541965607 0 0 0 0 -206.59817616715372 99.542221118900017 0 99.542221118900017 -14.214024448274927 0 0 0 0 -93.071922284296306 122.49676981523467 0 122.49676981523467 -39.5941697130487 0 0 0 0 -235.64631822561205 150.14114366632217 0 150.14114366632217 -44.461039275243948 0 0 0 0 -85.786255270450056 205.56623951817735 0 205.56623951817735 -98.200888761545912 0 0 0 0 -150.50744084819598 260.00588361698368 0 260.00588361698368 -142.12318325201707 0 0 0 0 -314.58066553861863 220.95851212658246 0 220.95851212658246 -150.23692223875085 0 0 0 0 -162.81972584640334 149.38603669865066 0 149.38603669865066 -165.98388202927444 0 0 0 0 -54.113159053318668 262.06138105909355 0 262.06138105909355 -162.15044476807023 0 0 0 0 -61.282011315692216 248.14991082014649 0 248.14991082014649 -136.88433142149984 0 0 0 0 -81.879115784176975 324.55620988339609 0 324.55620988339609 -251.16191296841521 0 0 0 0 -103.48965544201201 233.70779865379899 0 233.70779865379899 -86.036946040069921 0 0 0 0 -54.727341222018367 269.95057735871239 0 269.95057735871239 -158.88420590704118 0 0 0 0 -157.03993966099188 279.10618242430263 0 279.10618242430263 -101.72012475674012 0 0 0 0 -78.970016748135095 320.4478244882373 0 320.4478244882373 -246.55345862667846 0 0 0 0 -450.29908626339602 202.75127865415681 0 202.75127865415681 34.82164961329768 0 0 0 0 -195.35174465584169 343.26403573848955 0 343.26403573848955 -182.61623896859396 0 0 0 0 -207.09539479405794 271.9364822358969 0 271.9364822358969 -4.3061764191650127 0 0 0 0 -246.94420862776315 237.68551015085399 0 237.68551015085399 40.525006878007446 0 0 0 0 -186.73059950782499 140.14720203444296 0 140.14720203444296 152.13679723004179 0 0 0 0 -101.27963748310867 226.00497415647328 0 226.00497415647328 -70.662927725218196 0 0 0 0 -113.89854643897706 232.71908245861397 0 232.71908245861397 -42.203931283932661 0 0 0 0 -121.92101112049659 221.49981847975602 0 221.49981847975602 -48.885953042770097 0 0 0 0 -100.15266047206296 141.6165812349235 0 141.6165812349235 108.85074132709155 0 0 0 0 -185.16334537494549 142.92951861616154 0 142.92951861616154 153.94927565065905 0 0 0 0 -143.38398199802032 129.75596375873681 0 129.75596375873681 106.89898914487367 0 0 0 0 -126.56951752840814 17.762191811817218 0 17.762191811817218 293.15313984893601 0 0 0 0 -87.903115832712501 -16.409429858274166 0 -16.409429858274166 237.00202388805815 0 0 0 0 -119.69993995709956 77.028472281295763 0 77.028472281295763 171.34330041393537 0 0 0 0 -73.333008675626843 129.92521512242786 0 129.92521512242786 41.745694179894144 0 0 0 0 1.0961654856728273 18.140699606966109 0 18.140699606966109 147.52274994301058 0 0 0 0 -86.48446552567566 26.006191942039891 0 26.006191942039891 213.43544676416695 0 0 0 0 -88.811774871392117 44.206340991105662 0 44.206340991105662 82.299669330978304 0 0 0 0 -71.180185360775795 63.223077787542479 0 63.223077787542479 102.66749326460285 0 0 0 0 -76.805764171404007 83.359662412247189 0 83.359662412247189 51.782408456777375 0 0 0 0 -42.810606334394834 72.487398757087021 0 72.487398757087021 -1.362944209100533 0 0 0 0 -71.969308355284738 121.51388628649312 0 121.51388628649312 34.207498414193651 0 0 0 0 -77.415101436395162 156.57416911190907 0 156.57416911190907 -17.431252206963109 0 0 0 0 7.68454337935691 209.28615000588945 0 209.28615000588945 -295.8760725500195 0 0 0 0 15.029618918888445 132.13987531267912 0 132.13987531267912 -151.1409116496726 0 0 0 0 -15.816337307231151 83.627391189919308 0 83.627391189919308 -5.6879658670818571 0 0 0 0 -41.502215429562057 62.821476289536349 0 62.821476289536349 35.13140904471129 0 0 0 0 -16.949561962956068 36.520780818303365 0 36.520780818303365 11.224790225705874 0 0 0 0 -44.653262122330489 51.949881922623263 0 51.949881922623263 28.218989391170908 0 0 0 0 -4.3051633769282489 37.385892924788322 0 37.385892924788322 10.792162459504652 0 0 0 0 -62.02789543459221 46.94605393767722 0 46.94605393767722 77.68143288863439 0 0 0 0 -55.406501482335443 42.657112708204068 0 42.657112708204068 -8.8270257431954633 0 0 0 0 -0.87571936840954834 -0.30896054501202741 0 -0.30896054501202741 1.5327236572100125 0 0 0 0 -35.374472281349881 19.598706915301136 0 19.598706915301136 52.414660588029165 0 0 0 0 -21.980708808969339 0.4775103161520633 0 0.4775103161520633 7.131996551582545 0 0 0 0 -14.98300622413808 -5.1603416011094687 0 -5.1603416011094687 3.4195731483759078 0 0 0 0 -30.783821740711574 4.8992942078830595 0 4.8992942078830595 -13.711368987286278 0 0 0 0 -30.761041906931496 2.8789980070600905 0 2.8789980070600905 -32.78283547144656 0 0 0 0 -7.0449940712087482 43.285520151787523 0 43.285520151787523 -30.189305102561775 0 0 0 0 -19.972565792340902 5.5181922445896161 0 5.5181922445896161 2.0865295476495378 0 0 0 0 -3.5221258747756679 1.9832770635759971 0 1.9832770635759971 -0.71771380718855049 0 0 0 0 -17.403916222839968 2.1128930372036621 0 2.1128930372036621 9.035699712501593 0 0 0 0 -38.999526092047745 30.181655300094917 0 30.181655300094917 -20.399821776422868 0 0 0 0 -20.135998948004271 9.4277751343000524 0 9.4277751343000524 -3.1694412240899368 0 0 0 0 -24.927723990374943 9.5179240905468312 0 9.5179240905468312 0.29567912438087518 0 0 0 0 -27.082168486595037 10.213360005684642 0 10.213360005684642 0.30333599878878914 0 0 0 0 -21.178549045929685 8.3426383656402692 0 8.3426383656402692 0.1459717987758154 0 0 0 0 -21.841590369996993 7.784610615185418 0 7.784610615185418 -0.0041729274722855664 0 0 0 0 -22.76472600996749 -4.4401224246376589 0 -4.4401224246376589 1.0456417891665808 0 0 0 0 -26.734014136825863 5.0926227260009505 0 5.0926227260009505 2.3337341982732589 0 0 0 0 -29.304494932795933 7.5629965698125874 0 7.5629965698125874 0.012180429556279068 0 0 0 0 -44.623542166675179 4.2150026088039612 0 4.2150026088039612 3.6142125516604935 0 0 0 0 -31.972618946198054 18.195762704414218 0 18.195762704414218 -0.91975735897143807 0 0 0 0 -58.658132473326987 23.805848071929795 0 23.805848071929795 -1.9229055047135706 0 0 0 0 -30.257444503542501 0.60325181880825163 0 0.60325181880825163 0.52415268794544367 0 0 0 0 -65.460176714797853 -5.545048985328549 0 -5.545048985328549 1.4695984352142979 0 0 0 0 -31.122036745513469 -1.6210179855112696 0 -1.6210179855112696 3.5885621359796289 0 0 0 0 -19.238188313604041 -8.6607961403326357 0 -8.6607961403326357 -12.162004793889082 0 0 0 0 -12.574878183890178 6.9633046424426528 0 6.9633046424426528 -7.0671159818798124 0 0 0 0 -26.359649411111604 31.048326136637314 0 31.048326136637314 -23.316103345329452 0 0 0 0 -5.0726526649208097 4.1021806446377056 0 4.1021806446377056 -2.1500962209734507 0 0 0 0 -88.815684431076079 5.08095366785777 0 5.08095366785777 20.562710738148972 0 0 0 0 2.1013329744528164 22.111218071941479 0 22.111218071941479 -44.725582146607081 0 0 0 0 -3.5270300905908982 1.7694497790313051 0 1.7694497790313051 -0.40755175233625546 0 0 0 0 -46.60727760523514 7.0129145422073407 0 7.0129145422073407 101.46268050058552 0 0 0 0 -29.833277359328349 4.6867659537008421 0 4.6867659537008421 24.20170768752314 0 0 0 0 -26.311843767211315 -0.99342618767697388 0 -0.99342618767697388 5.8895478804117989 0 0 0 0 -12.43948028991872 -80.354660504432104 0 -80.354660504432104 88.911464786434408 0 0 0 0 -15.725153453632345 -1.8664071661363622 0 -1.8664071661363622 3.6619342067456579 0 0 0 0 -27.344531207832915 -15.900015443748089 0 -15.900015443748089 236.75697651521818 0 0 0 0 -11.030039520055652 4.2321632602876207 0 4.2321632602876207 -2.4443940583631729 0 0 0 0 -7.9252307067771142 0.72483215991288574 0 0.72483215991288574 0.27701884793881759 0 0 0 0 -25.614408345732613 5.7333739714875591 0 5.7333739714875591 -0.93886599194607223 0 0 0 0 -8.3275956663773343 0.47001827851719469 0 0.47001827851719469 2.6093727804707569 0 0 0 0 -98.42154213511094 -135.13723160910237 0 -135.13723160910237 -55.133799100259388 0 0 0 0 -596.3916876515832 637.09978165227301 0 637.09978165227301 -299.81205784031533 0 0 0 0 -1027.2369296015204 279.3975851960131 0 279.3975851960131 -270.98726079565108 0 0 0 0 -1582.1123741945776 286.3100508239894 0 286.3100508239894 -78.695563638600674 0 0 0 0 -1644.9916118049059 684.41927541057635 0 684.41927541057635 19.346848988477404 0 0 0 0 -3.1085960099545673 -0.32811208561315652 0 -0.32811208561315652 1.4176663682053978 0 0 0 0 -400.30542400690319 307.25424194672053 0 307.25424194672053 -167.65332325153622 0 0 0 0 -1458.3669968970971 -47.587037165894991 0 -47.587037165894991 153.86590839457551 0 0 0 0 -937.81736323064251 -83.118447495040868 0 -83.118447495040868 156.13651803378343 0 0 0 0 -11.253450998086919 5.9705765377008708 0 5.9705765377008708 -0.0075670340298627826 0 0 0 0 -2.8854988359447091 2.0428133103978894 0 2.0428133103978894 -0.82347568687904782 0 0 0 0 -1189.0477652469199 -27.901781711889818 0 -27.901781711889818 224.81887638800734 0 0 0 0 -1205.288127534026 164.83136410117359 0 164.83136410117359 -0.1532839293102603 0 0 0 0 -1499.1022649069801 269.89657844374585 0 269.89657844374585 145.96520454139207 0 0 0 0 -1500.257533266973 426.90459048241507 0 426.90459048241507 -59.455738584791618 0 0 0 0 -5.5306374962598852 -3.4953255093166575 0 -3.4953255093166575 0.027298025542006665 0 0 0 0 -1307.1318737392503 209.26832303914679 0 209.26832303914679 -482.4996949690638 0 0 0 0 -2276.0089164499659 838.62153700501403 0 838.62153700501403 12.761217063565553 0 0 0 0 -2366.7365572235212 937.03373858932696 0 937.03373858932696 4.1163098470692603 0 0 0 0 -1664.2592578703443 615.48579904163569 0 615.48579904163569 -183.13037235697797 0 0 0 0 -1261.5691972181849 227.73583837393497 0 227.73583837393497 98.836202543662267 0 0 0 0 -5.6986590080038653 -2.892081904963284 0 -2.892081904963284 1.5365780711776762 0 0 0 0 50.016257299161225 3.445678888146972 0 3.445678888146972 -287.16842316124337 0 0 0 0 -0.98635801476319784 0.039403737811518624 0 0.039403737811518624 1.6818762745668789 0 0 0 0 -1254.2952439224973 550.51688551236816 0 550.51688551236816 -192.57112644752902 0 0 0 0 -2002.3429647702142 924.52084578394283 0 924.52084578394283 -341.09438165697736 0 0 0 0 -52.042105143744266 -8.8672900648689392 0 -8.8672900648689392 208.74141796224069 0 0 0 0 -36.565142221515998 -166.5675712891445 0 -166.5675712891445 579.78911341526873 0 0 0 0 6.1752622244948725 -139.62393882382861 0 -139.62393882382861 319.07092566637652 0 0 0 0 -17.382014893518516 -3.7855018553546671 0 -3.7855018553546671 2.6081331739583686 0 0 0 0 -202.43431177008461 22.582301348836779 0 22.582301348836779 391.10951697014372 0 0 0 0 -66.339526268726331 64.393465822813084 0 64.393465822813084 181.06772152086484 0 0 0 0 53.038175160159881 -866.79169383136332 0 -866.79169383136332 717.90402054676485 0 0 0 0 -7.1688063688862229 -1.802940123877363 0 -1.802940123877363 1.6927204542978358 0 0 0 0 -2216.4617625669052 1047.655697809854 0 1047.655697809854 -218.97886447925652 0 0 0 0 326.09147111912898 -129.82726433213779 0 -129.82726433213779 294.72351386314477 0 0 0 0 -243.34611855824915 -164.07083347487816 0 -164.07083347487816 399.14945649871379 0 0 0 0 -103.06286804893534 -140.33203148313339 0 -140.33203148313339 186.0279854800973 0 0 0 0 -875.86932146326581 -532.83991943150318 0 -532.83991943150318 751.77610189591496 0 0 0 0 -545.33331280686252 -208.90742278014173 0 -208.90742278014173 176.66053095635317 0 0 0 0 -676.20025913186691 -92.9547647241193 0 -92.9547647241193 96.580625330845152 0 0 0 0 -235.68949036978665 54.229095701118055 0 54.229095701118055 28.010239785910812 0 0 0 0 -320.02940904119168 3.5103893353670514 0 3.5103893353670514 166.63571941767762 0 0 0 0 -589.00982437097264 134.16502138844294 0 134.16502138844294 -111.95339552674756 0 0 0 0 -559.31677290268999 14.444982662524467 0 14.444982662524467 26.010560693268328 0 0 0 0 -361.9486291728681 53.561161082524038 0 53.561161082524038 -84.797435533937119 0 0 0 0 -694.63488953868728 -37.320369715887111 0 -37.320369715887111 -21.738695050462724 0 0 0 0 -486.67603345736643 -28.11590515813166 0 -28.11590515813166 -21.828179567514397 0 0 0 0 -719.38011006567103 -136.47990632718984 0 -136.47990632718984 97.67422925054953 0 0 0 0 -792.2020180971449 -17.847696207185351 0 -17.847696207185351 48.255319064172141 0 0 0 0 -781.82263442420458 118.23191649214434 0 118.23191649214434 45.287741265033929 0 0 0 0 -1499.9865536874684 498.46227414622706 0 498.46227414622706 -164.31589491535038 0 0 0 0 -670.82218000357534 -40.427720568260568 0 -40.427720568260568 -75.77871575273079 0 0 0 0 -797.47682427370455 -45.899503076016856 0 -45.899503076016856 71.358114566342806 0 0 0 0 -514.89656384526461 -80.31849173155328 0 -80.31849173155328 -48.502592294879769 0 0 0 0 -3.3964989576412634 -1.4352557436182707 0 -1.4352557436182707 0.30261406941934033 0 0 0 0 -1414.8387128122631 449.71395550230943 0 449.71395550230943 -138.81669982106669 0 0 0 0 -1321.9591211260959 223.88111692992811 0 223.88111692992811 55.553035106255727 0 0 0 0 -1590.2230635247761 5.4093295185950065 0 5.4093295185950065 428.99498918312003 0 0 0 0 -967.10351552742941 -237.82109084352749 0 -237.82109084352749 406.51625789761596 0 0 0 0 -923.36716178618371 -55.4701959708202 0 -55.4701959708202 189.13004612453437 0 0 0 0 -1155.8328492428845 296.87756985359329 0 296.87756985359329 57.213869291232243 0 0 0 0 -1264.9450685294505 86.932965901895159 0 86.932965901895159 183.8281620438635 0 0 0 0 -1005.3365395038272 203.09522658937507 0 203.09522658937507 13.069718276587352 0 0 0 0 -50.386230958196393 -31.022795093941909 0 -31.022795093941909 -5.971080117486963 0 0 0 0 -59.940924230075325 -35.277472647762693 0 -35.277472647762693 0.87129459106495233 0 0 0 0 -42.314132336498005 -33.69148172252801 0 -33.69148172252801 0.98055059485636775 0 0 0 0 -13.856520969951816 -21.383836946556926 0 -21.383836946556926 -4.4908961791716138 0 0 0 0 -42.590581667856895 -17.688426526516082 0 -17.688426526516082 6.013658575804584 0 0 0 0 -63.608264554553898 -21.967372053480176 0 -21.967372053480176 5.2317286256071043 0 0 0 0 -31.991020160392509 -3.9700927757240265 0 -3.9700927757240265 -11.191705659767649 0 0 0 0 64.370468751731096 -21.819242669494997 0 -21.819242669494997 -47.522436004641804 0 0 0 0 -22.363581013376312 -29.654695748974724 0 -29.654695748974724 -14.445070760769969 0 0 0 0 -72.493632438949135 -1.3423682936216892 0 -1.3423682936216892 -10.848050945462205 0 0 0 0 -18.40487091486284 -99.414832814983129 0 -99.414832814983129 17.602499559095122 0 0 0 0 6.6269608939969658 -4.6774308770266302 0 -4.6774308770266302 -5.2046266320967423 0 0 0 0 -10.316330976900645 -79.086667222043843 0 -79.086667222043843 -72.929503405791593 0 0 0 0 -49.945111977722263 -57.558544829382072 0 -57.558544829382072 -44.529563142806637 0 0 0 0 -59.307593444813392 18.772517631807204 0 18.772517631807204 -60.031860808745535 0 0 0 0 -96.601768631036975 -45.550033837292972 0 -45.550033837292972 -10.125043453483556 0 0 0 0 4.3585360333672725 18.756308098293459 0 18.756308098293459 -34.103542213542397 0 0 0 0 -56.21907183850999 -47.882705948779744 0 -47.882705948779744 -22.144673203054452 0 0 0 0 -27.446666103533062 -27.770845611912762 0 -27.770845611912762 -8.3402921364894382 0 0 0 0 -0.78084177798783116 0.71889784553783187 0 0.71889784553783187 -0.77870509005086364 0 0 0 0 -31.467636586123263 -41.503825469236631 0 -41.503825469236631 -30.888096178756996 0 0 0 0 -38.939000845857663 -31.403562476428135 0 -31.403562476428135 -8.1014118595750304 0 0 0 0 -42.55235391590395 -27.771400961367789 0 -27.771400961367789 15.124011878788906 0 0 0 0 -39.295732482045423 -18.362391224870521 0 -18.362391224870521 15.004906210248805 0 0 0 0 -33.690962048506663 15.202051365132782 0 15.202051365132782 -6.8189588752193231 0 0 0 0 -52.927902715528035 -21.094297059916983 0 -21.094297059916983 26.380049876155908 0 0 0 0 -68.818650164459541 11.936878792280595 0 11.936878792280595 37.480565481920053 0 0 0 0 -53.424393412477002 -21.825803018564173 0 -21.825803018564173 47.23608284683587 0 0 0 0 -63.674724616277672 -24.074308859175574 0 -24.074308859175574 52.707288286172911 0 0 0 0 -63.667041229309689 -23.007461628000726 0 -23.007461628000726 113.1975041088474 0 0 0 0 -56.400793965964112 -29.821816657751626 0 -29.821816657751626 119.49451360467174 0 0 0 0 -38.971399445013958 -74.477987201487281 0 -74.477987201487281 35.694475174399713 0 0 0 0 -40.935821871666121 -39.821721958443391 0 -39.821721958443391 21.657892676720394 0 0 0 0 -40.526118042122107 -31.553922919445085 0 -31.553922919445085 13.374891880554969 0 0 0 0 -42.880920861249251 -30.970388465166053 0 -30.970388465166053 16.050451574046065 0 0 0 0 -52.186767556049745 -25.752953178839221 0 -25.752953178839221 11.425847331758405 0 0 0 0 -8.8616095791367115 -10.254712128683011 0 -10.254712128683011 -7.6988151827115416 0 0 0 0 -1.3988804359697582 -3.6264503542138371 0 -3.6264503542138371 1.5647865980983697 0 0 0 0 -31.831606969227323 -14.137105305827703 0 -14.137105305827703 3.2199196101480538 0 0 0 0 -33.629341125626524 -22.705039259606423 0 -22.705039259606423 5.2287614861606926 0 0 0 0 -40.016402489374741 -28.034635037129306 0 -28.034635037129306 1.7177429619383702 0 0 0 0 -15.328789086088364 -30.044003792053331 0 -30.044003792053331 -26.405351010206232 0 0 0 0 7.3875223971999731 -51.132211578591736 0 -51.132211578591736 173.02751231251182 0 0 0 0 -0.32578736668124009 -0.37104340296855298 0 -0.37104340296855298 0.14683318876113249 0 0 0 0 22.084146716224495 -6.9320152439729554 0 -6.9320152439729554 10.41223921352821 0 0 0 0 -55.260015219595516 -56.907392479580608 0 -56.907392479580608 111.28569125776994 0 0 0 0 0.13341326618720473 -0.37961606198595632 0 -0.37961606198595632 -0.011653578610507198 0 0 0 0 101.70483280878398 -73.83681980258541 0 -73.83681980258541 36.458578101009664 0 0 0 0 47.697321037536312 -17.138155686586799 0 -17.138155686586799 136.75751155041758 0 0 0 0 -45.65971048962092 2.642690003551138 0 2.642690003551138 210.11567536059542 0 0 0 0 0.59077921693096869 -116.65907860850291 0 -116.65907860850291 156.56216061491602 0 0 0 0 7.7811354914301774 -44.907137435621081 0 -44.907137435621081 241.43693564672151 0 0 0 0 -3.6478776245323559 -1.9960983803304835 0 -1.9960983803304835 1.5456782419433366 0 0 0 0 -7.2735589904914377 -2.6032014098271361 0 -2.6032014098271361 2.2434264663184535 0 0 0 0 -7.6418967607387458 -63.226925113404036 0 -63.226925113404036 191.45542724776487 0 0 0 0 5.0953909014351666 -58.501631654464006 0 -58.501631654464006 187.31408270437873 0 0 0 0 -20.91401438061439 5.9420901650969427 0 5.9420901650969427 -0.57762558496722249 0 0 0 0 -60.728215806375374 32.407769402230201 0 32.407769402230201 -24.960450965375685 0 0 0 0 -42.793103142728796 0.29464331385418063 0 0.29464331385418063 -1.5125011286274912 0 0 0 0 -44.352379845862743 7.2704219485966064 0 7.2704219485966064 0.42006634429765199 0 0 0 0 -41.116316929037566 19.764054357759903 0 19.764054357759903 28.867566427799943 0 0 0 0 -45.37739455328483 -4.1667781290068149 0 -4.1667781290068149 48.409129470196703 0 0 0 0 -48.579346569940753 13.802726663043899 0 13.802726663043899 27.483892665977578 0 0 0 0 -2.8804990347419874 -1.474210711254841 0 -1.474210711254841 3.0774151153747837 0 0 0 0 -36.871974102374224 -3.8667388351010175 0 -3.8667388351010175 -8.3559919332355435 0 0 0 0 -50.666734032354725 -56.582650652760549 0 -56.582650652760549 122.42837985075087 0 0 0 0 -19.562946593595555 -9.920425136669035 0 -9.920425136669035 -4.5955812059924588 0 0 0 0 -21.056346018951444 -20.213624313350465 0 -20.213624313350465 -1.9166165476760852 0 0 0 0 -15.105246380848257 -4.6823853018192949 0 -4.6823853018192949 -18.690484179411442 0 0 0 0 -25.964568199309724 7.5771319533579344 0 7.5771319533579344 -6.1392015673709466 0 0 0 0 -29.203668414495041 0.14800451540349968 0 0.14800451540349968 -21.522908888433903 0 0 0 0 -14.478317509401677 -10.984076204497569 0 -10.984076204497569 1.9811216672760565 0 0 0 0 -12.723609209159648 -11.999624945216972 0 -11.999624945216972 -1.9411616121303634 0 0 0 0 -32.786524452388193 -21.846151332337698 0 -21.846151332337698 -4.4960278880660143 0 0 0 0 -21.838218514814244 -4.6276081227534505 0 -4.6276081227534505 4.540340170104427 0 0 0 0 -23.418821339993585 -8.4299786205042935 0 -8.4299786205042935 -2.1805399479286249 0 0 0 0 -15.364507469883392 -5.3294000065864111 0 -5.3294000065864111 2.0664787402965885 0 0 0 0 -12.135831668216269 4.1896942304078948 0 4.1896942304078948 -3.214131065446054 0 0 0 0 -19.175497670319601 -0.39830138151103256 0 -0.39830138151103256 1.6393518078664329 0 0 0 0 -85.58285059085938 -30.482652387948178 0 -30.482652387948178 27.564616052804922 0 0 0 0 -21.692967258251322 8.7737072155344435 0 8.7737072155344435 10.983990602185223 0 0 0 0 -78.081921555323788 -17.416206719529782 0 -17.416206719529782 6.0347516917304347 0 0 0 0 -100.87171021425092 -32.054756024390826 0 -32.054756024390826 0.67942138793932827 0 0 0 0 -87.728041070591644 -46.16980383067812 0 -46.16980383067812 -6.6946864863084556 0 0 0 0 -111.93574080865437 -24.027783969961774 0 -24.027783969961774 26.377822769179147 0 0 0 0 -109.45973361237702 -60.937046191881109 0 -60.937046191881109 -4.0677794403291045 0 0 0 0 -66.510196044740951 65.752143298272188 0 65.752143298272188 -5.310305815839456 0 0 0 0 -15.819561349664895 15.421488924088578 0 15.421488924088578 6.4920349766381253 0 0 0 0 -208.36515376161333 9.9933505453093403 0 9.9933505453093403 46.344488655364557 0 0 0 0 -217.1803919940794 -100.14041507187517 0 -100.14041507187517 -92.361879756301278 0 0 0 0 -184.03301712781649 -103.45286083380176 0 -103.45286083380176 -20.96393548247579 0 0 0 0 -85.208919173670438 -131.52727691593145 0 -131.52727691593145 -102.51029140631908 0 0 0 0 -165.90263477353437 -5.1868519268055024 0 -5.1868519268055024 7.5467829227409311 0 0 0 0 -60.870248225477553 14.586213397299161 0 14.586213397299161 0.39312319043426669 0 0 0 0 -7.2371773839731759 23.744457773660315 0 23.744457773660315 -5.433974477400227 0 0 0 0 -28.51831633882648 9.3003564514954178 0 9.3003564514954178 11.535166110719274 0 0 0 0 -69.037796941382112 10.087461683691117 0 10.087461683691117 6.0575811800038082 0 0 0 0 -30.805832502028352 16.752071909573715 0 16.752071909573715 -12.36112581385305 0 0 0 0 -34.02695642944127 7.0221671703160382 0 7.0221671703160382 3.1243254449177584 0 0 0 0 -59.469187643808255 24.352803922960902 0 24.352803922960902 1.4462101834287751 0 0 0 0 -12.470589528940764 32.80351322937031 0 32.80351322937031 -5.9902772332017094 0 0 0 0 -17.774210760109888 17.435119994405014 0 17.435119994405014 1.2758299503220787 0 0 0 0 -21.606920379937947 17.863832876260062 0 17.863832876260062 -22.089014583136759 0 0 0 0 -22.281708963193523 45.217403423211977 0 45.217403423211977 36.301287666526605 0 0 0 0 -118.7194713944773 -52.333102141915901 0 -52.333102141915901 0.22834570620761951 0 0 0 0 -31.679145848973349 25.2230353135526 0 25.2230353135526 -1.5683938961487911 0 0 0 0 -18.540940458275678 19.24680136998446 0 19.24680136998446 -2.3093552743803238 0 0 0 0 -0.473872879624615 -0.96085742201777791 0 -0.96085742201777791 -1.433348165571914 0 0 0 0 -80.75812526304253 -19.730402651389795 0 -19.730402651389795 -47.416043962634831 0 0 0 0 -35.79491931902885 -96.84198281446902 0 -96.84198281446902 -46.439909558673662 0 0 0 0 -244.18153555711069 33.122204043091244 0 33.122204043091244 48.869791986390737 0 0 0 0 -161.70975332181843 -143.35165812026298 0 -143.35165812026298 -63.435219211970434 0 0 0 0 -69.898755700465699 -94.544889510352505 0 -94.544889510352505 -157.63346649109735 0 0 0 0 -275.98601562878321 -85.089969881021034 0 -85.089969881021034 41.148738450852306 0 0 0 0 -167.17965325652585 -48.318821290945266 0 -48.318821290945266 53.380019218220696 0 0 0 0 -158.25724492959125 -33.160507829597236 0 -33.160507829597236 67.664670322546044 0 0 0 0 -176.07439312544739 -32.750576502338618 0 -32.750576502338618 68.826684544590989 0 0 0 0 -175.71218019099661 -29.94353866823468 0 -29.94353866823468 88.440025173259983 0 0 0 0 -193.76767276071041 -46.261367970330866 0 -46.261367970330866 81.439382829400756 0 0 0 0 -129.78590808466834 35.414407547914834 0 35.414407547914834 48.268078190392771 0 0 0 0 17.304746137870097 -23.876863722892949 0 -23.876863722892949 38.890537105976591 0 0 0 0 -1.6714950542941338 -2.3673918105780416 0 -2.3673918105780416 -2.7244772070829284 0 0 0 0 4.7204469189819065 -103.62916409177342 0 -103.62916409177342 108.49696571723584 0 0 0 0 -3.6787030268642411 -3.4752098870328609 0 -3.4752098870328609 46.02950295951905 0 0 0 0 13.615206157990542 -16.349761099994907 0 -16.349761099994907 5.2911909269241733 0 0 0 0 6.7257605981358211 4.0064478875841587 0 4.0064478875841587 -1.6634137653961147 0 0 0 0 0.58760444854357985 -2.8548273110842572 0 -2.8548273110842572 -2.8616562412181636 0 0 0 0 -10.820265401453732 -8.1189118763531027 0 -8.1189118763531027 3.2926062685492248 0 0 0 0 -2.1313713054114487 -24.318805852830337 0 -24.318805852830337 0.81337148260536196 0 0 0 0 15.525541605748003 -15.562769347736094 0 -15.562769347736094 4.9645004092617455 0 0 0 0 6.1302688408941322 -29.602313944676439 0 -29.602313944676439 1.8198867415887889 0 0 0 0 -8.6943064388102869 -15.823741383688656 0 -15.823741383688656 -0.63686880175449012 0 0 0 0 -11.518729208774815 -9.634025128678168 0 -9.634025128678168 -0.17914246709911197 0 0 0 0 42.888066158975562 0.21213269612536578 0 0.21213269612536578 12.566031516736075 0 0 0 0 0.29582644334508501 -0.44703300551698177 0 -0.44703300551698177 -1.8901807523580025 0 0 0 0 -7.5907110771368025 -21.195970022277379 0 -21.195970022277379 -50.182590359926508 0 0 0 0 50.452767528591721 35.457289071499531 0 35.457289071499531 -24.227919034553906 0 0 0 0 12.655368688891031 21.387165789468554 0 21.387165789468554 18.931123313746866 0 0 0 0 202.1089283715155 21.347341810811031 0 21.347341810811031 -90.746420030669469 0 0 0 0 -20.387840183102863 -26.626394032934371 0 -26.626394032934371 -6.7518574143866594 0 0 0 0 9.1746274304778694 -1.9671686220138938 0 -1.9671686220138938 -3.0689381682278007 0 0 0 0 -27.161759579103091 -87.268884881790655 0 -87.268884881790655 -108.05935250110633 0 0 0 0 -10.543896793831664 -88.226490502692741 0 -88.226490502692741 -54.091615029052264 0 0 0 0 -10.544568009743671 -83.746569571112104 0 -83.746569571112104 -81.650797917690397 0 0 0 0 -9.1406234304231475 -37.262218936532918 0 -37.262218936532918 8.2445980414830728 0 0 0 0 10.253368550451341 -64.052768559249387 0 -64.052768559249387 -13.713600431465238 0 0 0 0 -22.011790100019425 -18.485520124175991 0 -18.485520124175991 8.0788104892819774 0 0 0 0 -16.97540467242834 -13.775305850619816 0 -13.775305850619816 -0.57019425239968768 0 0 0 0 -24.552779317891691 -12.954850833629507 0 -12.954850833629507 0.69907118452283612 0 0 0 0 -34.202066353689588 -2.5373044443732056 0 -2.5373044443732056 -8.9700324097157136 0 0 0 0 -0.21062091931591453 0.28047388503041049 0 0.28047388503041049 -0.48806152107678979 0 0 0 0 -86.989876390129211 -98.896344028053363 0 -98.896344028053363 2.522812810213054 0 0 0 0 -95.408165552900755 -25.089424672531322 0 -25.089424672531322 -8.7116649077693182 0 0 0 0 -6.0994711609237129 -4.4228672024258913 0 -4.4228672024258913 -18.779516972233296 0 0 0 0 -19.721882428697427 -7.5758176164190445 0 -7.5758176164190445 -17.397204523897017 0 0 0 0 -89.682273138114397 -6.8130005114127243 0 -6.8130005114127243 47.888593305112408 0 0 0 0 -254.56560325378086 -133.61627815261636 0 -133.61627815261636 86.329537786656147 0 0 0 0 -98.849998393969145 -13.820249409617475 0 -13.820249409617475 5.0164638674309572 0 0 0 0 -57.693566826060305 -10.18747732845948 0 -10.18747732845948 3.2627309372808213 0 0 0 0 0.56449029211944435 -25.079465125555998 0 -25.079465125555998 -19.116071958923271 0 0 0 0 -49.409317438628932 -29.231654839019143 0 -29.231654839019143 -14.205209689158266 0 0 0 0 -17.027609801582003 -11.698820151559175 0 -11.698820151559175 -12.107526640214928 0 0 0 0 -20.080626708055206 -20.63315607581626 0 -20.63315607581626 -7.6803371213329683 0 0 0 0 -16.745558473446181 -12.873545029859258 0 -12.873545029859258 -9.5296497328945406 0 0 0 0 -42.996260168896697 -0.87051512314610591 0 -0.87051512314610591 -3.0547641780929098 0 0 0 0 -62.045738830754999 -10.953632907725932 0 -10.953632907725932 4.8522313563704529 0 0 0 0 -23.618631537785404 -16.109007241339668 0 -16.109007241339668 0.97421103703868539 0 0 0 0 -45.434604885420413 1.7923923886058901 0 1.7923923886058901 -0.35622169984435459 0 0 0 0 -22.033660640907328 -12.322809538463048 0 -12.322809538463048 9.9455820803191273 0 0 0 0 -3.1592273604765069 -21.628481751844674 0 -21.628481751844674 11.266164507160738 0 0 0 0 -16.225521577038421 -12.232930202600336 0 -12.232930202600336 2.2636737331417915 0 0 0 0 -1.040967991175421 -31.459163601333557 0 -31.459163601333557 6.2450629677477991 0 0 0 0 -33.179158241546247 -18.109787484871958 0 -18.109787484871958 6.7870175228745211 0 0 0 0 -34.253478382536969 -3.4786008744800228 0 -3.4786008744800228 -13.934427453084936 0 0 0 0 -68.108372577022237 10.891558108199774 0 10.891558108199774 0.52348531575989909 0 0 0 0 -49.042584234011883 -4.7990991710084643 0 -4.7990991710084643 4.7184333364389204 0 0 0 0 -84.214779393849312 24.0654552945673 0 24.0654552945673 -1.4040878435600916 0 0 0 0 -66.094227563768072 17.360199811278449 0 17.360199811278449 -18.154503057257443 0 0 0 0 -94.003914847111446 24.189651182131456 0 24.189651182131456 -7.1371199089411448 0 0 0 0 -161.69135906369775 42.190710362212712 0 42.190710362212712 -9.5397512833917517 0 0 0 0 -97.72736020532102 12.403347343063842 0 12.403347343063842 -16.768664624946723 0 0 0 0 -181.52082944178437 -13.871404868908144 0 -13.871404868908144 11.135631667227699 0 0 0 0 -129.17827933826629 -18.655746132949872 0 -18.655746132949872 -24.058059786680815 0 0 0 0 -165.75207094418874 -14.107276901094679 0 -14.107276901094679 8.1819411020030657 0 0 0 0 -87.999481827890122 13.563706271533192 0 13.563706271533192 -20.467512141269026 0 0 0 0 -113.36211312677915 20.942341868617291 0 20.942341868617291 -8.1945267373924935 0 0 0 0 -76.180534786049975 30.380439973971988 0 30.380439973971988 -12.923241127517485 0 0 0 0 -89.999591886527924 8.710644241130467 0 8.710644241130467 -40.769438850058577 0 0 0 0 -85.368399340040924 -1.8428651163631002 0 -1.8428651163631002 -17.903777434098629 0 0 0 0 -64.49714332648 67.98691832211324 0 67.98691832211324 -14.251800774750564 0 0 0 0 -20.635811098800332 32.815138218835841 0 32.815138218835841 -34.774676457708267 0 0 0 0 -110.12480118215171 51.333670793814349 0 51.333670793814349 2.3520092135163839 0 0 0 0 -84.411511847218208 32.276405768578343 0 32.276405768578343 2.0470742838692892 0 0 0 0 -88.493906444422464 16.026185471745862 0 16.026185471745862 -1.4372437663196251 0 0 0 0 -83.879914004008242 28.062301889709005 0 28.062301889709005 -5.4885016361868111 0 0 0 0 25.781001136158011 53.152903410777299 0 53.152903410777299 35.002666043381282 0 0 0 0 25.797776687342527 25.760445098187631 0 25.760445098187631 11.269101326867371 0 0 0 0 -90.421786973700364 15.577491068979725 0 15.577491068979725 -0.78793256823701086 0 0 0 0 -5.9977754424384386 6.7983858752382602 0 6.7983858752382602 -7.1208912727677598 0 0 0 0 -101.45279710589239 -35.701930077745033 0 -35.701930077745033 -13.588884927636855 0 0 0 0 -142.10757388627826 -55.318092640236387 0 -55.318092640236387 -11.813405600232954 0 0 0 0 -177.04911063328473 -35.405135780973922 0 -35.405135780973922 15.594832558131429 0 0 0 0 -171.14570871464093 -45.653259956098964 0 -45.653259956098964 6.546188778939495 0 0 0 0 -125.09211200831851 -59.501406006559989 0 -59.501406006559989 -72.238647722165524 0 0 0 0 -57.600800809635984 1.7340633680460655 0 1.7340633680460655 -42.167024661151487 0 0 0 0 -105.50972841597832 -89.910197819064365 0 -89.910197819064365 -179.41751474710338 0 0 0 0 -253.62056675226268 -65.82628754474797 0 -65.82628754474797 1.8453234599680854 0 0 0 0 -158.3669114989134 -21.804994050121536 0 -21.804994050121536 22.187785903162194 0 0 0 0 -20.418437312018796 -8.3368435763431989 0 -8.3368435763431989 -33.041097885349927 0 0 0 0 -2.2641736766845497 -0.75287851714573684 0 -0.75287851714573684 -0.16646549232193453 0 0 0 0 -165.69720999127821 78.524006769446231 0 78.524006769446231 -21.665901553616095 0 0 0 0 -7.0060888968686186 -0.029503844565997639 0 -0.029503844565997639 -1.246592514334218 0 0 0 0 -31.625307432836053 -20.308053063625337 0 -20.308053063625337 7.8843073957143588 0 0 0 0 -14.715348345594975 8.5674173396818674 0 8.5674173396818674 -10.332340018102741 0 0 0 0 -10.835177108729411 8.8272488917469829 0 8.8272488917469829 -8.7161293950331142 0 0 0 0 -172.23193600022933 -58.297800993918145 0 -58.297800993918145 30.092195139295256 0 0 0 0 -68.521241748330795 -56.764772240034986 0 -56.764772240034986 14.659273221542435 0 0 0 0 -41.985752324668283 -30.360322257851976 0 -30.360322257851976 34.074195411546725 0 0 0 0 -76.304219009674853 -139.76591339350307 0 -139.76591339350307 -124.97000169033916 0 0 0 0 -53.621996951264009 -43.571890316742554 0 -43.571890316742554 48.60804168257787 0 0 0 0 -238.99765438533359 -110.39088040195844 0 -110.39088040195844 44.831596454812711 0 0 0 0 -156.14258734623945 63.600508148967606 0 63.600508148967606 -13.461641659164343 0 0 0 0 -10.880699828223442 -4.45012620714283 0 -4.45012620714283 12.974731359114855 0 0 0 0 8.6913125881710585 15.072462416004043 0 15.072462416004043 43.750638862260303 0 0 0 0 -48.072804710405762 31.654781871917351 0 31.654781871917351 199.24014809889923 0 0 0 0 -113.64090277865944 -21.946720203903453 0 -21.946720203903453 175.87835600517099 0 0 0 0 -6.2508901417867548 1.1593548964495604 0 1.1593548964495604 0.29004738325281898 0 0 0 0 -91.842827097112604 -127.65315037774624 0 -127.65315037774624 -19.266791506543541 0 0 0 0 -155.74338952355174 166.88959359838191 0 166.88959359838191 133.1286855119917 0 0 0 0 -2.6755895904402962 0.52365236974868523 0 0.52365236974868523 0.051022710260851145 0 0 0 0 -155.71278872367839 -152.61987442499503 0 -152.61987442499503 -29.023677874741338 0 0 0 0 -2.629786080506193 0.63321979564854658 0 0.63321979564854658 -0.063990979274389348 0 0 0 0 -92.016380781386033 157.35071775460153 0 157.35071775460153 82.194199270179183 0 0 0 0 -140.92807463507779 -131.73789452573908 0 -131.73789452573908 -36.294123323614485 0 0 0 0 -32.997232035080742 -57.927823856293415 0 -57.927823856293415 -97.143988283847875 0 0 0 0 -279.9783668956552 19.826433499769792 0 19.826433499769792 12.052887489077875 0 0 0 0 -190.61132042563258 -90.704485549536486 0 -90.704485549536486 -17.040987184383198 0 0 0 0 -217.69010259866081 71.805426808533397 0 71.805426808533397 60.963743055063787 0 0 0 0 45.461512407317059 86.565632993856468 0 86.565632993856468 -13.699921356689416 0 0 0 0 18.738502939515456 -0.65590937548006423 0 -0.65590937548006423 -13.822697236029413 0 0 0 0 -67.028511751010228 4.5981859321057073 0 4.5981859321057073 -11.655695853476118 0 0 0 0 -38.406130266078435 89.552960744227619 0 89.552960744227619 172.91172792048707 0 0 0 0 -29.86641019153285 -37.352067710200643 0 -37.352067710200643 -25.475758941707227 0 0 0 0 -6.1985699405475714 1.2782663144824227 0 1.2782663144824227 0.17493939754726973 0 0 0 0 -47.804251580411801 -2.5040527482677817 0 -2.5040527482677817 110.60380490113837 0 0 0 0 -18.308824499148614 -40.038228688675446 0 -40.038228688675446 41.821095733821949 0 0 0 0 -93.291256813128712 -42.095474578463723 0 -42.095474578463723 47.918222700836651 0 0 0 0 -127.48082621604408 -70.274457811641696 0 -70.274457811641696 56.342563885196796 0 0 0 0 -133.05621101698489 -86.708564488096158 0 -86.708564488096158 20.121626190022155 0 0 0 0 -287.52291778635117 -43.379725083080416 0 -43.379725083080416 22.152977186190242 0 0 0 0 -0.58611361170190435 0.39225162245723055 0 0.39225162245723055 -0.36626444983566975 0 0 0 0 -118.16758157769073 44.987175853219696 0 44.987175853219696 26.42445107840976 0 0 0 0 -173.05770196552476 -64.024206867608498 0 -64.024206867608498 55.60370525615815 0 0 0 0 -56.839986557868542 5.6750331062602157 0 5.6750331062602157 90.181075232955436 0 0 0 0 -27.445676165043551 -43.503662038974085 0 -43.503662038974085 58.455090204480484 0 0 0 0 -1.2131146269331055 -0.11136048005641896 0 -0.11136048005641896 0.20623243642824141 0 0 0 0 -107.80123639933481 -122.92260471576851 0 -122.92260471576851 104.84219110336073 0 0 0 0 -85.034970660846739 -63.769574702564057 0 -63.769574702564057 44.799051221807758 0 0 0 0 -168.69920041801379 -27.846661019217265 0 -27.846661019217265 32.786204093508047 0 0 0 0 -44.531290102750063 -40.818225463120768 0 -40.818225463120768 -5.0910687694213266 0 0 0 0 -59.16037996061641 -49.364103739240676 0 -49.364103739240676 -0.94658325721832171 0 0 0 0 -62.555016867947415 -34.625060252354757 0 -34.625060252354757 -51.462732241751382 0 0 0 0 -123.81424268209958 -47.652285672559856 0 -47.652285672559856 -33.906676317464274 0 0 0 0 -14.761725372263243 12.204400806545571 0 12.204400806545571 -1.4585173921613546 0 0 0 0 -71.613836456017452 42.614463798717054 0 42.614463798717054 2.1467249091068936 0 0 0 0 -58.996040292629914 51.449161036825174 0 51.449161036825174 7.3286958029388813 0 0 0 0 -72.089611963290963 29.695099310792521 0 29.695099310792521 6.9173195315942166 0 0 0 0 -2.8682353702410808 -0.30908071487716171 0 -0.30908071487716171 0.47748816359275958 0 0 0 0 -31.635495943191927 -31.652291520133701 0 -31.652291520133701 120.27254494942565 0 0 0 0 -149.30856962605912 108.61369079540223 0 108.61369079540223 -51.02227313951164 0 0 0 0 -141.86521194040688 95.268609079091107 0 95.268609079091107 -2.2534390309851311 0 0 0 0 -138.49700495012803 99.424655834210625 0 99.424655834210625 -1.9286101908031341 0 0 0 0 -282.17219426497104 24.783167456239255 0 24.783167456239255 69.979777165141627 0 0 0 0 -32.714560945867561 125.6300350946197 0 125.6300350946197 47.618516664303115 0 0 0 0 -145.08409497396678 94.022459579723233 0 94.022459579723233 39.737530358256549 0 0 0 0 -127.16841342075736 25.247413148641105 0 25.247413148641105 -3.23208212377358 0 0 0 0 -139.23242768149066 77.892352027594214 0 77.892352027594214 -33.785170774092535 0 0 0 0 -131.55474337407941 115.0221473354953 0 115.0221473354953 -3.459374516764683 0 0 0 0 -1.6853441703033241 -3.0629094923096218 0 -3.0629094923096218 52.052903924871543 0 0 0 0 -75.652814727302029 -60.593878058388228 0 -60.593878058388228 7.2268554586008804 0 0 0 0 -107.14568526340736 50.115535832165733 0 50.115535832165733 26.82806823417161 0 0 0 0 -63.553839345615415 -23.249923705145989 0 -23.249923705145989 73.557243833496358 0 0 0 0 -47.444129818461079 -45.74877242211943 0 -45.74877242211943 -31.151309544970104 0 0 0 0 -193.33848904361366 -62.455134122645546 0 -62.455134122645546 -29.104741357606414 0 0 0 0 -14.479817509299615 -95.230179053736606 0 -95.230179053736606 -48.528370315712209 0 0 0 0 -1.4831932705397719 -0.34353398793537337 0 -0.34353398793537337 -0.0090163159815587202 0 0 0 0 -277.58987678446283 66.179252837610449 0 66.179252837610449 -1.762866337790598 0 0 0 0 -300.63038641278399 -8.4312511949194402 0 -8.4312511949194402 -118.4016150839191 0 0 0 0 -269.60656470443791 -37.553900992019976 0 -37.553900992019976 -92.511171173821737 0 0 0 0 -181.81394244746207 51.143679971716985 0 51.143679971716985 -88.696838751232463 0 0 0 0 -177.39018044670411 129.98589438258642 0 129.98589438258642 -95.344922401790541 0 0 0 0 -216.77454276624485 37.862132099260634 0 37.862132099260634 -4.696397899007728 0 0 0 0 -303.40521646975805 140.20021285167593 0 140.20021285167593 -92.615685160163935 0 0 0 0 -1.2789856207425743 -0.502500940549929 0 -0.502500940549929 -0.023316369081716193 0 0 0 0 -56.656352330595837 -50.360069404971853 0 -50.360069404971853 -5.90227978306973 0 0 0 0 34.422734985710122 -40.394182672794386 0 -40.394182672794386 -18.104216996738018 0 0 0 0 -125.01403098045557 -58.300743602907005 0 -58.300743602907005 -6.7221100012077386 0 0 0 0 6.093981117279327 34.414117671040856 0 34.414117671040856 -14.680206270065923 0 0 0 0 -31.622347255230125 31.295685175555178 0 31.295685175555178 -30.039899828680177 0 0 0 0 -201.03469553036848 86.43030590469607 0 86.43030590469607 18.393457657061163 0 0 0 0 -43.177236719624489 15.508589631020072 0 15.508589631020072 -23.922370633114497 0 0 0 0 -46.170314323549974 15.174400424291434 0 15.174400424291434 -21.762756735326661 0 0 0 0 -28.140891059840214 40.038190040098158 0 40.038190040098158 -4.3404669845702983 0 0 0 0 -2.8487273741324231 -1.4644164357310387 0 -1.4644164357310387 -0.14745804513977467 0 0 0 0 -45.881451225672208 -10.578278136067922 0 -10.578278136067922 33.025834590009822 0 0 0 0 -9.5996829268115107 42.445170729554832 0 42.445170729554832 -11.500283078770906 0 0 0 0 -129.99783968708289 52.485972960090841 0 52.485972960090841 -50.893040927156221 0 0 0 0 -138.77143287719809 10.315224724787797 0 10.315224724787797 -21.14276553352812 0 0 0 0 -0.32552261906118929 -0.052238248243469343 0 -0.052238248243469343 -0.67931835599354717 0 0 0 0 -0.94428086648284904 -0.7461336281886588 0 -0.7461336281886588 -0.37671457897242167 0 0 0 0 -145.29067767889319 51.678292798321579 0 51.678292798321579 -72.512830233322603 0 0 0 0 -174.70322078606114 40.259718424576803 0 40.259718424576803 0.64949974252897391 0 0 0 0 -142.82571590034058 53.590512561322797 0 53.590512561322797 -54.878088073538606 0 0 0 0 -155.18240510424948 61.829579730212402 0 61.829579730212402 -54.540221793296404 0 0 0 0 -161.54227001414984 67.721034030349188 0 67.721034030349188 -53.749870202711136 0 0 0 0 -172.2875762086187 64.701953273864689 0 64.701953273864689 -42.973105194355639 0 0 0 0 -157.61012286653749 48.801522736682657 0 48.801522736682657 -40.936272608682089 0 0 0 0 -152.3601314950356 38.35918828995716 0 38.35918828995716 -32.646048661320037 0 0 0 0 -148.2291274509771 1.6489301419324534 0 1.6489301419324534 -14.887328336319115 0 0 0 0 -149.07137821660581 11.297241697592156 0 11.297241697592156 -18.083793239174838 0 0 0 0 -146.6724071973731 4.038563799352346 0 4.038563799352346 -17.969853018630488 0 0 0 0 -157.47610354490462 11.38524784115743 0 11.38524784115743 -15.597230771223167 0 0 0 0 -153.42775252381398 -4.651524308185671 0 -4.651524308185671 -5.4198013757767285 0 0 0 0 -150.38551108972752 1.9131412047151457 0 1.9131412047151457 -12.998336967884939 0 0 0 0 -153.94576958662947 1.5192808181635939 0 1.5192808181635939 -12.724885605650684 0 0 0 0 -151.53988643094635 65.648031206575126 0 65.648031206575126 -54.131012545154022 0 0 0 0 -136.9954202521767 61.089051731309382 0 61.089051731309382 -54.587230150299582 0 0 0 0 -127.4572826497897 68.961025460456653 0 68.961025460456653 -52.401829859290501 0 0 0 0 -147.33685853684437 78.692781479173675 0 78.692781479173675 -45.510940866364535 0 0 0 0 -126.84609149239259 81.547039746505448 0 81.547039746505448 -45.192211989395915 0 0 0 0 -139.86344362748787 12.115228522381699 0 12.115228522381699 -10.552891010631811 0 0 0 0 -150.80614619439439 80.388727906805002 0 80.388727906805002 -19.868752358684787 0 0 0 0 -120.67352111337823 80.673505612902233 0 80.673505612902233 -36.255363970235749 0 0 0 0 -144.00702277797973 81.917084191275876 0 81.917084191275876 -19.807411366892779 0 0 0 0 -125.1062182582973 26.49082443290871 0 26.49082443290871 0.63755085264392619 0 0 0 0 -132.77505271956034 105.16133854437251 0 105.16133854437251 27.038688505254186 0 0 0 0 -163.76702950918116 70.312752309285088 0 70.312752309285088 34.977517236713993 0 0 0 0 -163.98699766257778 69.603609080346814 0 69.603609080346814 57.685798405946912 0 0 0 0 -41.489944802422542 50.631235901040327 0 50.631235901040327 -20.216069543138929 0 0 0 0 -163.53284354123753 43.690701489661478 0 43.690701489661478 35.953527292026138 0 0 0 0 -92.849279180692974 43.018451941160606 0 43.018451941160606 7.7066307027785683 0 0 0 0 -61.366335498401895 55.108919222448094 0 55.108919222448094 -4.5051625452143753 0 0 0 0 -46.747368600725167 31.305781429606526 0 31.305781429606526 -20.676367539404964 0 0 0 0 -83.327108989120461 4.4049804729747279 0 4.4049804729747279 -26.871801824975677 0 0 0 0 -111.40517203218769 7.4567973621352621 0 7.4567973621352621 -8.5282777360256432 0 0 0 0 -117.94291601434816 16.792419512870197 0 16.792419512870197 1.0120183760080863 0 0 0 0 -81.666162105262629 20.983596628356281 0 20.983596628356281 -21.480627194570843 0 0 0 0 -135.02699456449773 -0.023719193961824203 0 -0.023719193961824203 -3.7836509991801108 0 0 0 0 -136.82839809592042 -12.931617073669877 0 -12.931617073669877 -12.006273823239212 0 0 0 0 -141.60878544423031 2.665336134214499 0 2.665336134214499 -5.7408369211775607 0 0 0 0 -134.20862852898426 -0.011350519124334824 0 -0.011350519124334824 -7.2016940913886884 0 0 0 0 -122.59442794235656 2.6029407920257768 0 2.6029407920257768 -12.022797593043379 0 0 0 0 -150.12561419336998 1.4369629479303399 0 1.4369629479303399 -12.149109951029004 0 0 0 0 -132.48305503526353 6.1117141699941158 0 6.1117141699941158 -11.4083088793858 0 0 0 0 -174.63533463561907 -14.341438254089667 0 -14.341438254089667 -7.8069105931271565 0 0 0 0 -301.80614499483636 42.94716202447394 0 42.94716202447394 -6.8852699001265592 0 0 0 0 -224.80051327006368 -19.614197274988612 0 -19.614197274988612 13.974416877499436 0 0 0 0 -184.94674563327135 -33.533299387754226 0 -33.533299387754226 -1.6241925306553071 0 0 0 0 -178.56052321614698 -0.99785752408558892 0 -0.99785752408558892 2.8422482632056472 0 0 0 0 -240.17569840443321 -52.139146074234901 0 -52.139146074234901 8.9659985478548663 0 0 0 0 -125.66628506615416 -33.33692068311106 0 -33.33692068311106 -4.4561917970303853 0 0 0 0 -233.60696773229938 11.882761972356587 0 11.882761972356587 24.21523040892211 0 0 0 0 -227.34271641750092 22.33162895248477 0 22.33162895248477 23.326115236228816 0 0 0 0 -197.67650061272434 22.850089859430483 0 22.850089859430483 13.238658832229362 0 0 0 0 -217.75576461391756 18.214631228605171 0 18.214631228605171 24.126054402202755 0 0 0 0 -196.45485233436921 15.6592415404306 0 15.6592415404306 -0.75707372000718465 0 0 0 0 -173.83585131779546 3.2401394587824655 0 3.2401394587824655 2.827465805217892 0 0 0 0 -173.53224509811844 2.4532075608156845 0 2.4532075608156845 -7.721886336386774 0 0 0 0 -131.18175949223223 24.921405894114404 0 24.921405894114404 -28.039170986192957 0 0 0 0 -163.5870067809592 18.617463294993229 0 18.617463294993229 -21.41754006511303 0 0 0 0 -162.61902285809629 24.864169221965597 0 24.864169221965597 -5.4026240836286945 0 0 0 0 -139.60899676058034 44.646085903630123 0 44.646085903630123 -34.58232828680417 0 0 0 0 -197.84447638127313 54.828807168303207 0 54.828807168303207 -13.475915281803367 0 0 0 0 -175.63920671629603 32.680441516507898 0 32.680441516507898 -9.3796781581459356 0 0 0 0 -207.38784167786071 38.151565200395503 0 38.151565200395503 11.841869220311402 0 0 0 0 -216.23427014646586 32.54986439784139 0 32.54986439784139 8.9482562273300488 0 0 0 0 -194.92271276000974 45.91752210365172 0 45.91752210365172 28.756060844114906 0 0 0 0 -227.66062191525816 22.960866174173134 0 22.960866174173134 22.661750614514133 0 0 0 0 -244.14028617093572 0.079169115589564854 0 0.079169115589564854 10.997274473416383 0 0 0 0 -276.60594746107017 34.747117631598073 0 34.747117631598073 39.120812017331133 0 0 0 0 -171.79199037642684 93.174464865842282 0 93.174464865842282 -8.119098815290954 0 0 0 0 -43.27068785973097 44.549568849770793 0 44.549568849770793 -10.927281724161347 0 0 0 0 -76.147458657309471 27.128595833392573 0 27.128595833392573 -2.3372790738670268 0 0 0 0 -196.77900275565207 53.928287217101435 0 53.928287217101435 15.316930079756389 0 0 0 0 -180.90608153486824 26.319656323921102 0 26.319656323921102 7.4394573935245996 0 0 0 0 -145.18705406586741 43.389294186231972 0 43.389294186231972 -9.6408558916186511 0 0 0 0 -201.91650580711939 2.6611440514836899 0 2.6611440514836899 -0.10969195329389615 0 0 0 0 -291.68750928880763 30.427437483113767 0 30.427437483113767 12.832340156014661 0 0 0 0 -180.87095332697243 27.457087478095076 0 27.457087478095076 2.3740727462577151 0 0 0 0 -244.61801471659419 38.049175178620509 0 38.049175178620509 28.150374418553771 0 0 0 0 -92.470234111315222 70.722658004660246 0 70.722658004660246 -41.151851342768396 0 0 0 0 -242.89163628819369 63.215165974112182 0 63.215165974112182 -5.1349971041422808 0 0 0 0 -204.26072250726429 79.675502592876754 0 79.675502592876754 -40.549419062180704 0 0 0 0 -158.69252306947601 54.487397889505367 0 54.487397889505367 -30.387129462081461 0 0 0 0 -314.5301091032452 94.607601180787626 0 94.607601180787626 13.394024366305342 0 0 0 0 -0.23102715527490858 0.14610239037193651 0 0.14610239037193651 -0.313003684155646 0 0 0 0 -125.65012688179559 21.065181649278845 0 21.065181649278845 -0.50813530076796409 0 0 0 0 -0.73842137929206331 -0.28410107925807893 0 -0.28410107925807893 -0.1476576886402943 0 0 0 0 -203.09306587563333 82.721274896863548 0 82.721274896863548 -0.1912393975981046 0 0 0 0 -229.3771557912803 111.09084919987716 0 111.09084919987716 -23.518237851270158 0 0 0 0 -171.67679363377829 81.823710852015012 0 81.823710852015012 -32.183284949343857 0 0 0 0 -181.20559029080323 93.726842087493026 0 93.726842087493026 -49.425564152375614 0 0 0 0 -182.64512790663866 91.532911361096538 0 91.532911361096538 -20.994290420064317 0 0 0 0 -178.72248192872212 58.342217569768309 0 58.342217569768309 6.8819061891517777 0 0 0 0 -192.19626153961872 75.787768160463173 0 75.787768160463173 -29.484962885253026 0 0 0 0 -179.20595051292912 60.122079317928979 0 60.122079317928979 -25.186093695981754 0 0 0 0 -177.48800286394544 76.628949835616822 0 76.628949835616822 -50.154800903374706 0 0 0 0 -182.27092816027289 74.630389170280409 0 74.630389170280409 -41.772944651931368 0 0 0 0 -38.26419419812737 -68.368471687939405 0 -68.368471687939405 23.900843347780398 0 0 0 0 -1.3095984252630331 -0.30992205077673418 0 -0.30992205077673418 0.036048372072921525 0 0 0 0 -131.66860181351967 7.0208770790388471 0 7.0208770790388471 18.478623134044142 0 0 0 0 -119.75029526810749 74.381493712155134 0 74.381493712155134 4.2284910291372455 0 0 0 0 -60.965792877112108 -36.597077997531443 0 -36.597077997531443 56.275064726857806 0 0 0 0 -2.6380950494041429 -0.79509720452817589 0 -0.79509720452817589 -0.0031936942043112038 0 0 0 0 -30.033585194178158 -34.401809887992897 0 -34.401809887992897 51.780184773806631 0 0 0 0 -77.830195193069812 28.161654439154443 0 28.161654439154443 23.711219206995541 0 0 0 0 -0.82122782097940217 -5.0290726590830097 0 -5.0290726590830097 -15.302968255343123 0 0 0 0 -90.272700831446855 -3.6209444787917135 0 -3.6209444787917135 0.0010512462907336516 0 0 0 0 -76.611299035479533 4.7802965249503844 0 4.7802965249503844 -12.97697862932246 0 0 0 0 -58.405027550448722 -12.176179310808648 0 -12.176179310808648 -0.026848140682075566 0 0 0 0 -125.1849594305495 -22.414932009477248 0 -22.414932009477248 13.589965956441837 0 0 0 0 -76.563916665243596 -2.4714537870583366 0 -2.4714537870583366 0.061326745843867506 0 0 0 0 -66.144020399064175 -14.674124355124478 0 -14.674124355124478 14.236950418727355 0 0 0 0 -22.089856046233763 23.866279310746375 0 23.866279310746375 -2.382297351119842 0 0 0 0 -0.10088944143490153 -0.31245308723582355 0 -0.31245308723582355 -0.45494439680292531 0 0 0 0 -214.92614175121707 -94.561034940998525 0 -94.561034940998525 -0.069915753663124136 0 0 0 0 -89.640919678189675 28.386463780391615 0 28.386463780391615 3.1349421632370031 0 0 0 0 -166.72193424889701 -116.35903192070374 0 -116.35903192070374 0.078317814062578844 0 0 0 0 -183.91605763321729 -96.306304062720287 0 -96.306304062720287 -23.295685437671182 0 0 0 0 -184.18141562930759 -89.928792696161224 0 -89.928792696161224 -24.393132494658772 0 0 0 0 -255.5974353343845 -146.64467131227684 0 -146.64467131227684 -58.615693945652197 0 0 0 0 -152.55595861024631 -77.112463866536814 0 -77.112463866536814 -96.509601178709289 0 0 0 0 -223.75796946077025 -99.980696378385005 0 -99.980696378385005 -90.790232278583062 0 0 0 0 -148.96908391745092 -52.406026583992904 0 -52.406026583992904 -3.2541112343984651 0 0 0 0 -157.14550636400236 -79.455899555804493 0 -79.455899555804493 -81.319028823022165 0 0 0 0 -121.694474384145 -75.971887764264494 0 -75.971887764264494 -9.2144615035267634 0 0 0 0 -145.91289433435304 -4.7446276843668898 0 -4.7446276843668898 -55.406377159144313 0 0 0 0 -160.28803063056694 -37.736041824782319 0 -37.736041824782319 -25.680473039620551 0 0 0 0 -119.8302759955186 -36.545294242924626 0 -36.545294242924626 -82.705010780486361 0 0 0 0 -152.49231415308532 -73.083999916091415 0 -73.083999916091415 -113.77774537592302 0 0 0 0 2.6894473808933981 8.1028505140978453 0 8.1028505140978453 -39.493564036403143 0 0 0 0 -53.146456147602294 -33.290133737362737 0 -33.290133737362737 -11.318273634221256 0 0 0 0 0.24144420309316672 -0.67648713813734673 0 -0.67648713813734673 -0.96360890501941754 0 0 0 0 -123.97910358003719 -66.346494194459808 0 -66.346494194459808 -47.352257306915703 0 0 0 0 -58.543537594166992 -8.7894522979675287 0 -8.7894522979675287 -42.579996379537874 0 0 0 0 -0.12418527802211798 -0.99032201422267008 0 -0.99032201422267008 -0.49740228135488063 0 0 0 0 16.795558307832835 -4.077646810775633 0 -4.077646810775633 -11.683647003796835 0 0 0 0 -25.707576309656815 -17.192119156255778 0 -17.192119156255778 10.423807626476275 0 0 0 0 -26.658237932620978 10.497186991243439 0 10.497186991243439 11.273296607718748 0 0 0 0 -5.6282604321750114 -9.3279696780330994 0 -9.3279696780330994 69.91806100478118 0 0 0 0 0.95944594204047462 12.511392944738418 0 12.511392944738418 36.512099908008963 0 0 0 0 -0.66794439689248009 0.08894568708038264 0 0.08894568708038264 -0.31717801251440547 0 0 0 0 -33.594008143285464 40.743821536748783 0 40.743821536748783 21.587385141533474 0 0 0 0 -3.2447362574293379 -0.4941787015022463 0 -0.4941787015022463 0.44242402199999797 0 0 0 0 -187.22997165495326 48.605967748342209 0 48.605967748342209 -12.783976974226562 0 0 0 0 -0.16475685841419363 -0.16626145596443109 0 -0.16626145596443109 -0.19894378917764111 0 0 0 0 -160.07352788419666 35.532895485018201 0 35.532895485018201 -6.6414344603699647 0 0 0 0 -178.81181081004979 -7.5576645640271138 0 -7.5576645640271138 -42.603843232984104 0 0 0 0 -88.967012898428948 -1.3615193594270636 0 -1.3615193594270636 -60.127624465624649 0 0 0 0 -129.41252645888824 -33.405557240432458 0 -33.405557240432458 -82.823662212284034 0 0 0 0 -128.73250436304079 -3.2787093613266052 0 -3.2787093613266052 -60.949488849735303 0 0 0 0 -100.22273144787323 30.775463302107681 0 30.775463302107681 -23.918832963884256 0 0 0 0 -94.750226379394007 -19.462234656567595 0 -19.462234656567595 -43.038027295068218 0 0 0 0 -85.372975026577478 6.1643049132497936 0 6.1643049132497936 -4.262520737667586 0 0 0 0 -44.778369295854645 0.47192307513523701 0 0.47192307513523701 -4.8496057009033393 0 0 0 0 -80.385171543224715 -11.827443983852447 0 -11.827443983852447 33.568555458494416 0 0 0 0 -75.972578971130133 35.929734340478831 0 35.929734340478831 10.099698368873803 0 0 0 0 -162.78937408622005 38.679267253902708 0 38.679267253902708 11.392599838638148 0 0 0 0 -101.42674321320452 17.795621934273488 0 17.795621934273488 61.407150341716374 0 0 0 0 -74.793796397323604 39.380028301435061 0 39.380028301435061 69.470428610252611 0 0 0 0 -82.079282955572126 22.321894735499257 0 22.321894735499257 93.757289331026811 0 0 0 0 -53.888569885159086 16.436283870623072 0 16.436283870623072 61.45079216252708 0 0 0 0 -59.037488089801627 22.022520951541935 0 22.022520951541935 61.592312318725106 0 0 0 0 -99.964198766290792 24.146866978672904 0 24.146866978672904 62.543366042367893 0 0 0 0 -78.393055845353047 14.04434737862185 0 14.04434737862185 98.88639909886092 0 0 0 0 -28.480220123936306 -1.6097230735330754 0 -1.6097230735330754 99.686102512243679 0 0 0 0 -67.326461319200462 0.11506433298669094 0 0.11506433298669094 103.20066931444842 0 0 0 0 -5.8423353552498156 -16.502700540086664 0 -16.502700540086664 123.29520243750008 0 0 0 0 -53.123783080693102 -3.6657814139939546 0 -3.6657814139939546 131.4569355873607 0 0 0 0 -45.019117031770293 14.783281395786616 0 14.783281395786616 96.976784632162833 0 0 0 0 -37.624468344365596 -7.3197143256401489 0 -7.3197143256401489 142.75119298750019 0 0 0 0 -25.876510741327365 1.4540460210393178 0 1.4540460210393178 113.96332120472721 0 0 0 0 -21.066606622454856 -42.478752500324362 0 -42.478752500324362 180.08549807647125 0 0 0 0 -60.209427878653514 29.69841811003198 0 29.69841811003198 95.151006119723434 0 0 0 0 -67.409882825959357 12.677665799847944 0 12.677665799847944 122.17326837691917 0 0 0 0 -62.443256573671533 19.927436527610325 0 19.927436527610325 129.31838588670962 0 0 0 0 -73.829524142958689 8.7587515506610316 0 8.7587515506610316 118.74452023790195 0 0 0 0 -75.16128337134387 18.898766187391711 0 18.898766187391711 80.918556992183085 0 0 0 0 -68.974028807075229 4.5141099035042203 0 4.5141099035042203 93.338760698671081 0 0 0 0 -89.58990303846258 38.709016793492182 0 38.709016793492182 92.402539856586941 0 0 0 0 -82.47015529620694 9.218626887319175 0 9.218626887319175 56.858037694845791 0 0 0 0 -58.038894526463991 23.67443191826959 0 23.67443191826959 55.006004761113793 0 0 0 0 -36.679026245023124 29.773838588699448 0 29.773838588699448 51.04279193453965 0 0 0 0 -73.225143264760845 42.646768182822342 0 42.646768182822342 70.948718449874377 0 0 0 0 -101.40885130645111 51.827266881943203 0 51.827266881943203 69.684465719420587 0 0 0 0 -25.652118746103952 -81.128623320647421 0 -81.128623320647421 127.0999084495578 0 0 0 0 27.964318729005754 10.874578824580965 0 10.874578824580965 68.269263326597127 0 0 0 0 -45.823418476880761 -8.5401502121237058 0 -8.5401502121237058 199.46411249014943 0 0 0 0 91.568085571161646 -154.87467072847204 0 -154.87467072847204 1.0268048426389669 0 0 0 0 -1.7088589678225645 -0.70788047295472722 0 -0.70788047295472722 -0.10719010835853288 0 0 0 0 -75.791151867433655 -263.96263133084238 0 -263.96263133084238 188.76267302814472 0 0 0 0 -104.10247257337323 51.732746422467272 0 51.732746422467272 44.075609414017805 0 0 0 0 -5.410253120170097 -0.84072265880337227 0 -0.84072265880337227 0.91890214431192896 0 0 0 0 -45.457880326655868 84.297610941413609 0 84.297610941413609 -68.542839682566864 0 0 0 0 9.7702117049993831 -142.13254523148046 0 -142.13254523148046 275.15613753567021 0 0 0 0 22.891189370828215 -33.917595619740553 0 -33.917595619740553 155.27532665343711 0 0 0 0 -6.9180207679237924 -0.76156209946252318 0 -0.76156209946252318 1.6242024245163285 0 0 0 0 33.676107875609887 -132.32248552519832 0 -132.32248552519832 298.5084751104755 0 0 0 0 3.6521500825474504 -40.733821457937125 0 -40.733821457937125 239.4751761233446 0 0 0 0 19.751835062568716 -39.350741398978386 0 -39.350741398978386 146.70898772189014 0 0 0 0 -13.947621209117642 -32.415403900447416 0 -32.415403900447416 138.00752443689521 0 0 0 0 -20.177610964587075 -28.621918321201974 0 -28.621918321201974 196.98492499076173 0 0 0 0 -38.608142017539649 -17.91393305640743 0 -17.91393305640743 144.169709853011 0 0 0 0 -11.401481396358577 -16.193570457678646 0 -16.193570457678646 95.28632997604268 0 0 0 0 -24.510769670188893 -23.905200722388599 0 -23.905200722388599 148.12425553740161 0 0 0 0 18.923280385704857 -52.747250565950111 0 -52.747250565950111 113.27998577771336 0 0 0 0 -35.480946270312415 -37.112960298889902 0 -37.112960298889902 115.48824344272575 0 0 0 0 -25.463084744653315 2.1097900340988076 0 2.1097900340988076 41.414050490444538 0 0 0 0 -48.866763992403321 -16.040548788554954 0 -16.040548788554954 96.571059902845604 0 0 0 0 10.891405340633355 -64.75588657917055 0 -64.75588657917055 44.408994806701912 0 0 0 0 -27.416858739310555 3.6664998530179957 0 3.6664998530179957 52.908722050140682 0 0 0 0 -55.532768154807854 -4.815123707103794 0 -4.815123707103794 6.1478129534184518 0 0 0 0 -5.3870981763320742 -48.683021590004614 0 -48.683021590004614 -56.058620693437149 0 0 0 0 -72.752199687980465 2.4788662249916342 0 2.4788662249916342 41.551798401227366 0 0 0 0 -17.390736922352517 -26.879826973060631 0 -26.879826973060631 -3.9073918919536936 0 0 0 0 -65.157261109809042 -13.059645418014327 0 -13.059645418014327 -7.1098880948266014 0 0 0 0 -44.493594392879459 -31.382516629072825 0 -31.382516629072825 -51.005154211634931 0 0 0 0 -74.281888092402369 -19.00911803631061 0 -19.00911803631061 -55.47754876138157 0 0 0 0 -33.093717944881064 -48.561848470390999 0 -48.561848470390999 -108.47864215069171 0 0 0 0 -93.312398647598457 -70.470282829889584 0 -70.470282829889584 -103.43686529302674 0 0 0 0 -71.59350618973258 -40.564529305711631 0 -40.564529305711631 -98.180390165413314 0 0 0 0 -86.946861640040879 -43.667350850648688 0 -43.667350850648688 -84.077840688821652 0 0 0 0 -13.016542628949537 -45.965308681957623 0 -45.965308681957623 -139.18917298009114 0 0 0 0 -58.029019936846453 -39.061345487012659 0 -39.061345487012659 -57.596142278829063 0 0 0 0 -47.723081070558692 -81.909089833833377 0 -81.909089833833377 -152.34869616208891 0 0 0 0 -45.016323348914739 -101.96240695432186 0 -101.96240695432186 -174.43527104342979 0 0 0 0 -65.579906995975762 -102.7557895078744 0 -102.7557895078744 -145.64244100327954 0 0 0 0 -58.137077834035154 -131.61119810436691 0 -131.61119810436691 -201.2231481352228 0 0 0 0 -49.087121241755085 -134.47009407697954 0 -134.47009407697954 -206.92206382206996 0 0 0 0 -64.386074475711212 -179.92534707239452 0 -179.92534707239452 -336.77631397660133 0 0 0 0 -50.118664843586885 -58.271735723179063 0 -58.271735723179063 -314.40839430467827 0 0 0 0 -230.77047632794711 -42.668239079149544 0 -42.668239079149544 -167.1855764395317 0 0 0 0 -70.963129510128056 -75.244988087937031 0 -75.244988087937031 -163.35266373873253 0 0 0 0 -36.069483357176068 -96.439633329368036 0 -96.439633329368036 -151.7232598989815 0 0 0 0 -68.781278518363251 -23.85151532955291 0 -23.85151532955291 -58.737328020322366 0 0 0 0 -29.785873701433957 -120.58218135013882 0 -120.58218135013882 -140.31994655625635 0 0 0 0 14.927826240782451 -81.27223394596956 0 -81.27223394596956 -32.200655334715748 0 0 0 0 -169.15961904924188 -143.41944645408353 0 -143.41944645408353 2.9151360058529008 0 0 0 0 -53.076289542832455 -124.90967154849369 0 -124.90967154849369 -141.0674205258772 0 0 0 0 -208.03348655776063 -241.74402707895877 0 -241.74402707895877 -215.49896022471933 0 0 0 0 0.50710546327067618 -1.4531791685011797 0 -1.4531791685011797 -1.2918816783241667 0 0 0 0 -18.570261842949549 -111.84424730071737 0 -111.84424730071737 -429.09589417078917 0 0 0 0 -4.573946480282757 -6.8093916477413359 0 -6.8093916477413359 0.11477824235191747 0 0 0 0 -279.54400222370168 -140.55378958581377 0 -140.55378958581377 -21.158796751011778 0 0 0 0 -105.72673527221195 -25.836237578898363 0 -25.836237578898363 -60.798526040508364 0 0 0 0 -0.69084365484837917 -1.8035155606576794 0 -1.8035155606576794 -0.71262757978057301 0 0 0 0 -128.752343190994 -245.33208219128687 0 -245.33208219128687 -245.67439069991406 0 0 0 0 -113.24213224232153 -178.15797857197828 0 -178.15797857197828 -161.43311202274799 0 0 0 0 -116.39150043806876 -162.996622031181 0 -162.996622031181 -166.17974473176844 0 0 0 0 -89.522548088076292 -169.60912954098831 0 -169.60912954098831 -213.82785610928414 0 0 0 0 -112.25948470127878 -174.03794622164071 0 -174.03794622164071 -180.11276276429635 0 0 0 0 -116.26573275914416 -158.36300052148317 0 -158.36300052148317 -179.14934087074795 0 0 0 0 -97.081202446053794 -150.86068807822778 0 -150.86068807822778 -188.31072510928243 0 0 0 0 -4.4004878470732365 -218.58404879631826 0 -218.58404879631826 -204.65847316102918 0 0 0 0 -0.71911354150512352 0.44563324552668959 0 0.44563324552668959 0.62856999563244687 0 0 0 0 -131.3585576580881 -156.16618532503546 0 -156.16618532503546 -188.75253570153723 0 0 0 0 -6.0442835670573913 -0.33133937457071383 0 -0.33133937457071383 33.718518171909068 0 0 0 0 -7.0256480287316663 -4.9040849994546196 0 -4.9040849994546196 13.115189902167458 0 0 0 0 -5.6570000639967475 -2.9477926791910001 0 -2.9477926791910001 -1.1356809803697578 0 0 0 0 -140.72238845543325 -83.591361773738726 0 -83.591361773738726 -115.04624747838966 0 0 0 0 -98.976718424601131 -106.86289337190107 0 -106.86289337190107 -170.72152992982774 0 0 0 0 -109.12075455494778 -163.071210029317 0 -163.071210029317 -192.39069170899651 0 0 0 0 -104.09655341786856 -109.29062562867205 0 -109.29062562867205 -141.70614742586656 0 0 0 0 -72.406451447226573 -122.460226855641 0 -122.460226855641 -179.15856185714529 0 0 0 0 -66.763217496074503 -146.57662822705635 0 -146.57662822705635 -196.2285435506958 0 0 0 0 -84.943584612046834 -136.39225237964126 0 -136.39225237964126 -177.03370253832915 0 0 0 0 -3.4490738804973518 -0.56792901470912938 0 -0.56792901470912938 1.0773224857511765 0 0 0 0 -135.43984633409855 -133.8048755715908 0 -133.8048755715908 -168.25824698650794 0 0 0 0 -127.93284878048144 -142.10968642797405 0 -142.10968642797405 -225.92849463398704 0 0 0 0 -122.18227645209845 -106.22368234469349 0 -106.22368234469349 -168.66867881678212 0 0 0 0 -230.79709891124548 -258.70863099987167 0 -258.70863099987167 -227.45602596630363 0 0 0 0 -15.25582012841187 43.090339660246443 0 43.090339660246443 124.09268208324886 0 0 0 0 -1.151407842643934 -0.23013449128261954 0 -0.23013449128261954 0.49186775292052165 0 0 0 0 -11.581079940265681 -18.031464904259533 0 -18.031464904259533 29.712003740569564 0 0 0 0 -4.7138526589551475 -31.293523486473962 0 -31.293523486473962 33.782460788328656 0 0 0 0 -9.9112670156901004 -50.217923734894228 0 -50.217923734894228 0.0055539496250803441 0 0 0 0 -110.6012214629518 -37.406891425636374 0 -37.406891425636374 93.346166507089293 0 0 0 0 -3.7915456428236212 -12.074479328934487 0 -12.074479328934487 17.359866382826119 0 0 0 0 -6.3753641812145361 -14.757663868241014 0 -14.757663868241014 14.742819361828204 0 0 0 0 -9.2311235841989401 -15.246209221255278 0 -15.246209221255278 32.661346216938135 0 0 0 0 -2.2896206385867117 -26.655176038272778 0 -26.655176038272778 0.022898235635855323 0 0 0 0 -0.94933035711801494 -17.846135482668789 0 -17.846135482668789 15.330156957812296 0 0 0 0 -0.66709157692093868 -16.685973641816034 0 -16.685973641816034 0.005206692424215429 0 0 0 0 -3.8130264980864013 -13.4833253436605 0 -13.4833253436605 12.077034494087105 0 0 0 0 -0.77987064410262974 -11.281678218151638 0 -11.281678218151638 9.9986939845896412 0 0 0 0 -0.78298795842124491 -11.394465611536468 0 -11.394465611536468 6.4507722292772858 0 0 0 0 -0.96260940487263724 -7.6228520465403822 0 -7.6228520465403822 0.0035330162491068835 0 0 0 0 -1.9716047811198223 -8.4553072439314541 0 -8.4553072439314541 2.0925478228416514 0 0 0 0 -5.236398967797868 -4.6516852908048829 0 -4.6516852908048829 -0.73081982306876303 0 0 0 0 -5.568347017878466 -3.3411779646947295 0 -3.3411779646947295 -1.7012557624103091 0 0 0 0 -7.6033087810987325 -2.2084430692308032 0 -2.2084430692308032 0.055760821714082809 0 0 0 0 -601.37049682266661 -315.11004649406959 0 -315.11004649406959 -396.16379296871423 0 0 0 0 -969.45509923451925 -364.23614489013499 0 -364.23614489013499 182.04115882800261 0 0 0 0 0.39575017497190856 6.0706693414826134 0 6.0706693414826134 13.059212706390099 0 0 0 0 -2.7591886442129265 2.6115126408598215 0 2.6115126408598215 -3.0196719071680365 0 0 0 0 -997.26992465587682 299.09982367660814 0 299.09982367660814 471.68238620907937 0 0 0 0 -6.0665232114026111 -3.0358169109586441 0 -3.0358169109586441 -1.502013030980818 0 0 0 0 -16.724600564106368 -27.242848096882426 0 -27.242848096882426 -4.5863326903331654 0 0 0 0 96.569901126256809 -84.579643929512883 0 -84.579643929512883 4.1507116486607174 0 0 0 0 37.555769496024368 -65.090868734696301 0 -65.090868734696301 20.456383835387896 0 0 0 0 215.02893449728072 167.83069230838203 0 167.83069230838203 -18.012402821077558 0 0 0 0 -121.37461460660779 166.12709994001904 0 166.12709994001904 -2.9644431538931713 0 0 0 0 -383.87227782951959 40.906921786750445 0 40.906921786750445 35.486956550740388 0 0 0 0 -330.87229177337122 -131.33255123117493 0 -131.33255123117493 -206.91080388816135 0 0 0 0 -107.92470826715726 58.762184184528905 0 58.762184184528905 9.4369659251055964 0 0 0 0 -310.07087541940564 12.02138025741499 0 12.02138025741499 57.798438194908385 0 0 0 0 -312.10595252125495 -12.742460349716453 0 -12.742460349716453 111.79147024265649 0 0 0 0 -30.906550892901578 15.685921073603822 0 15.685921073603822 -0.15147685738270411 0 0 0 0 -73.859637779294644 -18.11378765792557 0 -18.11378765792557 -2.6663622786350061 0 0 0 0 29.032845323752554 -14.307352845313744 0 -14.307352845313744 -18.486733209003233 0 0 0 0 -0.25225433756895654 0.58122049838138423 0 0.58122049838138423 -2.7776829211488803 0 0 0 0 -5.9485257718461071 -3.8521099872622955 0 -3.8521099872622955 -1.7916432971284133 0 0 0 0 27.256954299315112 -19.485381240061088 0 -19.485381240061088 -1.8095613962112651 0 0 0 0 -13.429436528473161 -18.669939788269062 0 -18.669939788269062 4.3362792454645387 0 0 0 0 -5.8344773769392901 -3.0640666485456443 0 -3.0640666485456443 -1.5999652198249941 0 0 0 0 -7.8589214552677049 -4.7142918420596729 0 -4.7142918420596729 -2.4237677343295019 0 0 0 0 -0.54786230774334399 5.0461721347388675 0 5.0461721347388675 7.8814628366949933 0 0 0 0 -15.546317041620568 -16.148667579084609 0 -16.148667579084609 9.4187022307691706 0 0 0 0 -39.007277577864443 13.769541094964239 0 13.769541094964239 26.180004283867888 0 0 0 0 -113.48919534994639 -52.465979002055334 0 -52.465979002055334 -0.015740735855213153 0 0 0 0 -34.622432568579825 13.445136007903164 0 13.445136007903164 -23.008527832624164 0 0 0 0 -97.392340311314911 -18.330960661358247 0 -18.330960661358247 12.597327634663259 0 0 0 0 -9.1186482256853196 12.495111580465272 0 12.495111580465272 -0.028101214720571387 0 0 0 0 -29.961974584952259 1.6975722047387869 0 1.6975722047387869 5.7437572311165042 0 0 0 0 -14.839568134582805 8.042330396362253 0 8.042330396362253 11.917529814723316 0 0 0 0 -15.017180268783704 9.9368473631380496 0 9.9368473631380496 2.1477470723665331 0 0 0 0 -5.011450966682915 -0.6359271819350738 0 -0.6359271819350738 9.4047588796132882 0 0 0 0 -10.610419607874064 4.0332587419366206 0 4.0332587419366206 14.049807802161819 0 0 0 0 -1348.014335908967 -83.302687514274055 0 -83.302687514274055 200.2020889287337 0 0 0 0 -1.087278108644341 -0.35427092426782281 0 -0.35427092426782281 3.3629706855321815 0 0 0 0 8.5873611799543141 6.1889661501180218 0 6.1889661501180218 -1.0084416240350298 0 0 0 0 -12.511840280727483 -6.8320421158966518 0 -6.8320421158966518 0.0064494110943123456 0 0 0 0 -174.79399246579851 540.22676649941218 0 540.22676649941218 -104.18148455909534 0 0 0 0 -2170.7036053081974 -978.30223607684604 0 -978.30223607684604 -2.227323233959507 0 0 0 0 -6.0133960509364499 -0.5641116479730286 0 -0.5641116479730286 0.65943303045171831 0 0 0 0 -1445.7916996449931 589.80537808981364 0 589.80537808981364 2.4638322009197964 0 0 0 0 -14.675294962420594 -7.4316962486932709 0 -7.4316962486932709 -0.15040808642064896 0 0 0 0 -3.2451799979474458 1.1134941325673182 0 1.1134941325673182 2.5665366617612153 0 0 0 0 33.548023887822637 102.65128881232795 0 102.65128881232795 -171.88619978492397 0 0 0 0 225.86061260636779 212.29600842946866 0 212.29600842946866 -275.82476097249264 0 0 0 0 -908.28531366230891 -188.99483785675307 0 -188.99483785675307 -57.963614243454231 0 0 0 0 -741.65844602554716 -12.16125181767211 0 -12.16125181767211 0.88130600145859717 0 0 0 0 82.198510821356649 -458.60919235227601 0 -458.60919235227601 13.256714007109622 0 0 0 0 -1003.0533447352791 -558.33120071724579 0 -558.33120071724579 290.81029125707641 0 0 0 0 -6.6881529444146679 5.8992964340322587 0 5.8992964340322587 -2.8226258226395498 0 0 0 0 -256.47683691456768 33.172567544609137 0 33.172567544609137 1.4246229005439091 0 0 0 0 -654.58804998167034 527.58044411066658 0 527.58044411066658 -95.859768961542613 0 0 0 0 -256.6739001647702 37.391735966238024 0 37.391735966238024 115.33611638986372 0 0 0 0 -486.49666712976432 -287.9623819250952 0 -287.9623819250952 -56.711308820908926 0 0 0 0 -490.89471287134802 -330.1697902703479 0 -330.1697902703479 -230.74930681410115 0 0 0 0 -733.64061586817479 29.462948844381685 0 29.462948844381685 125.18196246790103 0 0 0 0 -4.07979295910107 -0.73943746663612497 0 -0.73943746663612497 2.6915090833555291 0 0 0 0 -1222.567446598463 393.06271213155833 0 393.06271213155833 -136.61885508534124 0 0 0 0 -28.023036318678351 -0.080816556413807916 0 -0.080816556413807916 39.150653072010471 0 0 0 0 -19.507515120308824 -4.9826626870923221 0 -4.9826626870923221 1.0170946162517041 0 0 0 0 -2.3191621937694435 -21.671096011242412 0 -21.671096011242412 19.154937985286665 0 0 0 0 -2.9958688784404472 -1.7396306535369632 0 -1.7396306535369632 3.3860767732042181 0 0 0 0 5.7848546165369044 -55.437354480222211 0 -55.437354480222211 49.779096484390266 0 0 0 0 30.122222431924456 -34.661264336952399 0 -34.661264336952399 20.740707583571407 0 0 0 0 -54.512523602377769 -35.248819357284674 0 -35.248819357284674 43.678640182657773 0 0 0 0 -25.288859213222167 3.1534898414181498 0 3.1534898414181498 -145.07394033862272 0 0 0 0 -79.185225334571442 -23.151267544753125 0 -23.151267544753125 -64.218884437444558 0 0 0 0 -75.812478851345077 -37.091817930874527 0 -37.091817930874527 -189.01681066299693 0 0 0 0 -188.39859411720681 33.520158076942266 0 33.520158076942266 -121.82297472914001 0 0 0 0 -63.085549371657407 44.055889029689851 0 44.055889029689851 -173.66999315940734 0 0 0 0 -63.45082389930883 59.235788210703689 0 59.235788210703689 -55.905023159940356 0 0 0 0 -117.7231888690178 -45.221783906891588 0 -45.221783906891588 102.20310750676163 0 0 0 0 -109.43690529127548 73.352513036380671 0 73.352513036380671 -2.6851155362912777 0 0 0 0 -333.01346494883182 77.698513267567932 0 77.698513267567932 71.693540461026771 0 0 0 0 -586.58565446777993 305.35816622154647 0 305.35816622154647 -129.74907310854519 0 0 0 0 -287.59505641730357 -75.166280763017085 0 -75.166280763017085 -184.39801861215267 0 0 0 0 -164.29634053511836 59.508925831524493 0 59.508925831524493 -350.83845432945077 0 0 0 0 -318.2281896157001 93.70303220494975 0 93.70303220494975 -84.786351928330873 0 0 0 0 -293.19573804458196 192.56774996169997 0 192.56774996169997 45.130322762415858 0 0 0 0 -826.43124409294251 -517.64645252541243 0 -517.64645252541243 204.45901840419788 0 0 0 0 -3.7172100877695726 2.666016726007868 0 2.666016726007868 -0.66660061240006252 0 0 0 0 73.302783346247452 326.65122242990549 0 326.65122242990549 -15.56202576071837 0 0 0 0 -243.17689338030323 -8.6070843483173007 0 -8.6070843483173007 78.490448354029809 0 0 0 0 -158.4683234880431 -73.855979955386658 0 -73.855979955386658 108.2984541811656 0 0 0 0 -275.47618422309461 -35.174939904922553 0 -35.174939904922553 168.92252657503354 0 0 0 0 -279.56142504602485 -2.2719170159962658 0 -2.2719170159962658 111.33795769190419 0 0 0 0 -713.58368198662356 75.503105412481034 0 75.503105412481034 66.051361540435366 0 0 0 0 -193.95529726061432 135.90911817026097 0 135.90911817026097 -294.03750801024171 0 0 0 0 -689.36756793317181 -59.195113838505506 0 -59.195113838505506 -58.755135754276353 0 0 0 0 -366.64266207335641 -135.8196211267695 0 -135.8196211267695 -294.35339797686942 0 0 0 0 -468.10917658578546 -22.451375304665703 0 -22.451375304665703 -65.780367229209617 0 0 0 0 80.96984890742533 101.54907562921562 0 101.54907562921562 30.97653289405784 0 0 0 0 -1.4419430902370749 0.47373607509609172 0 0.47373607509609172 0.53548591669215906 0 0 0 0 -310.61259878449528 11.906723103723721 0 11.906723103723721 -18.505789955350565 0 0 0 0 -228.30109800226637 11.335241213081929 0 11.335241213081929 -62.682675905903352 0 0 0 0 -67.862384978365299 -17.560975241675862 0 -17.560975241675862 -67.839306866753191 0 0 0 0 -252.33815281023999 91.629126979093996 0 91.629126979093996 52.223242550010355 0 0 0 0 -63.438795166531236 -51.756624731002901 0 -51.756624731002901 20.261765815469062 0 0 0 0 -101.37434156726522 -61.145820850872497 0 -61.145820850872497 15.786854347202222 0 0 0 0 -60.403326149098575 -33.029701883174084 0 -33.029701883174084 30.83212800346223 0 0 0 0 -59.552022889445652 -60.735642852212891 0 -60.735642852212891 1.700080615207753 0 0 0 0 -67.669199435098562 -81.453511118450479 0 -81.453511118450479 -50.916064632838015 0 0 0 0 -36.474344018060947 -36.631530420314903 0 -36.631530420314903 -89.759664650662444 0 0 0 0 24.806534548246418 -142.0719452836401 0 -142.0719452836401 -190.9214685979411 0 0 0 0 0.74395006825315591 -0.72574798854920175 0 -0.72574798854920175 0.56832102279365659 0 0 0 0 -71.384660293164416 -11.462776387209686 0 -11.462776387209686 -121.92949234169127 0 0 0 0 -147.96919075972983 -79.192329509753279 0 -79.192329509753279 -39.418644158767108 0 0 0 0 22.958953225977893 -5.0553505162455394 0 -5.0553505162455394 -0.62758412395839258 0 0 0 0 -60.01466620114752 -173.68234399285268 0 -173.68234399285268 -153.12493580598846 0 0 0 0 -24.756890804574596 -81.351844748945297 0 -81.351844748945297 -167.78063044700286 0 0 0 0 2.5956911637633766 -2.2316282382420241 0 -2.2316282382420241 0.29148416167778768 0 0 0 0 21.376013414526824 2.6840244431823521 0 2.6840244431823521 -19.831622059869851 0 0 0 0 -30.708882069960964 -19.075126242044689 0 -19.075126242044689 -10.668284960991855 0 0 0 0 -69.427401405002456 6.0855563594045634 0 6.0855563594045634 8.0909267288243427 0 0 0 0 -105.06115397621033 -53.560502927148377 0 -53.560502927148377 57.3773013699074 0 0 0 0 -331.58446489088965 -145.64351444048839 0 -145.64351444048839 28.803014997724972 0 0 0 0 -330.30613476804865 -14.17295918003208 0 -14.17295918003208 133.61568780571451 0 0 0 0 -341.01512130695482 -322.84857036991093 0 -322.84857036991093 -73.973896455802731 0 0 0 0 58.129411380803504 41.865167317063595 0 41.865167317063595 0.53668784904123612 0 0 0 0 60.504878269654 -154.21278799049762 0 -154.21278799049762 -42.698628347713566 0 0 0 0 121.80389366984309 -53.761341732317668 0 -53.761341732317668 -123.6830359144969 0 0 0 0 103.42303513292654 -141.41774638226588 0 -141.41774638226588 -192.30197682830089 0 0 0 0 -594.94139710906165 167.54186295351531 0 167.54186295351531 -50.650526334804681 0 0 0 0 -5.3089952992995677 -2.71754581980586 0 -2.71754581980586 -1.6108812844003271 0 0 0 0 -412.03313969920418 204.53583475349501 0 204.53583475349501 -58.44318192238245 0 0 0 0 -90.832051752362531 54.465202930481382 0 54.465202930481382 -76.739055340800178 0 0 0 0 -110.12607760274841 -4.7094898045261289 0 -4.7094898045261289 13.802499594273854 0 0 0 0 -16.846084879616683 -188.26538569724985 0 -188.26538569724985 214.35724855080488 0 0 0 0 -147.40985049160736 153.30625075248224 0 153.30625075248224 -48.934800506209214 0 0 0 0 -13.636947391370342 -7.1220164989162491 0 -7.1220164989162491 -3.3269118084664382 0 0 0 0 24.04095980332022 -198.08909568364086 0 -198.08909568364086 -77.381201132019655 0 0 0 0 -18.331485724135504 -8.8920353609336402 0 -8.8920353609336402 -3.8066907180117244 0 0 0 0 -49.975013921612117 52.679991773681955 0 52.679991773681955 -57.945360960082326 0 0 0 0 -42.262557619760628 -17.754678735852508 0 -17.754678735852508 0.89077635962223667 0 0 0 0 -16.050346675278433 1.1598324994264289 0 1.1598324994264289 -39.111234192730763 0 0 0 0 -57.298834414385055 28.020351017987423 0 28.020351017987423 -24.179583755076862 0 0 0 0 -93.732315343530445 37.659209170100667 0 37.659209170100667 -37.708592490490901 0 0 0 0 -87.194547184685689 8.7388194319390635 0 8.7388194319390635 -12.854886842194446 0 0 0 0 -228.65329557435689 1.4982425381917324 0 1.4982425381917324 19.56037717599952 0 0 0 0 -166.42545545368557 21.315477368489496 0 21.315477368489496 2.5436383375554215 0 0 0 0 -168.44512490442503 27.890031898084999 0 27.890031898084999 -9.5692533678694645 0 0 0 0 -167.10422475254018 61.191917315088517 0 61.191917315088517 -27.184030972638766 0 0 0 0 -234.12251232661583 8.1468736070775094 0 8.1468736070775094 -6.7844156555315323 0 0 0 0 -377.00026999954025 -36.78025781297805 0 -36.78025781297805 -38.165237255742568 0 0 0 0 -253.95049991760425 35.799028853280163 0 35.799028853280163 -20.213736835558166 0 0 0 0 -124.19266432962831 14.003379894912314 0 14.003379894912314 -41.290328623628938 0 0 0 0 -269.81150769998203 111.08592436585758 0 111.08592436585758 -30.545636377320989 0 0 0 0 -504.15402568232093 31.599127425516144 0 31.599127425516144 29.075816162287197 0 0 0 0 -598.12343453542326 -237.78862104595768 0 -237.78862104595768 -89.342474028951983 0 0 0 0 -333.94739255701279 -87.364352727656978 0 -87.364352727656978 -8.5467479419489791 0 0 0 0 -61.693371992631 6.0201411674994461 0 6.0201411674994461 65.826187251814247 0 0 0 0 -117.68457272915111 -16.186636521388436 0 -16.186636521388436 58.034844054894847 0 0 0 0 -360.93591037731676 -156.59783621656959 0 -156.59783621656959 -48.580428146509121 0 0 0 0 4.1977301310107578 27.234984115105249 0 27.234984115105249 40.146411099755255 0 0 0 0 -3.4274620609397743 1.5062871210948288 0 1.5062871210948288 2.0367028744069469 0 0 0 0 -19.524070383566141 -3.8647068492428502 0 -3.8647068492428502 9.1852654871607911 0 0 0 0 -31.87852770601603 -6.0548255088709197 0 -6.0548255088709197 10.058806234419421 0 0 0 0 -236.08868274076667 -111.50327177709659 0 -111.50327177709659 -60.958716060442612 0 0 0 0 -221.83671014175161 -89.738772714220829 0 -89.738772714220829 -29.552628118671919 0 0 0 0 -4.3522722791586119 2.0219162611331427 0 2.0219162611331427 2.961930835128797 0 0 0 0 -325.38759101319738 -14.926591214952623 0 -14.926591214952623 13.719774321898967 0 0 0 0 -303.59813718772421 -79.145235280127167 0 -79.145235280127167 -34.487949655510192 0 0 0 0 -253.00444031006191 -52.575127891698116 0 -52.575127891698116 7.4511122532059062 0 0 0 0 -281.81581486550203 -47.568687735752235 0 -47.568687735752235 9.6419290362696302 0 0 0 0 -222.8210447731326 -2.0980389199230558 0 -2.0980389199230558 3.0198950913889462 0 0 0 0 -218.11177015606518 -28.086820560492924 0 -28.086820560492924 22.57397643606032 0 0 0 0 -208.95797084371952 -34.300013869830252 0 -34.300013869830252 26.681042995813641 0 0 0 0 -213.77122778010562 -29.606166023098808 0 -29.606166023098808 31.575483270446966 0 0 0 0 -163.30160269196858 -71.656656031249668 0 -71.656656031249668 -30.3131013797381 0 0 0 0 -222.55817896020972 -55.270822213319391 0 -55.270822213319391 16.470628710087567 0 0 0 0 -149.77435151799727 -25.910029974717418 0 -25.910029974717418 21.888954437368284 0 0 0 0 -175.17656462874038 -30.466816959645882 0 -30.466816959645882 23.382519361493905 0 0 0 0 -206.00663681103833 -33.005747379930654 0 -33.005747379930654 37.256515973095702 0 0 0 0 -179.31968268154378 -40.280799657030911 0 -40.280799657030911 20.762193365910775 0 0 0 0 -199.44836276627757 -32.443660773351894 0 -32.443660773351894 37.049451339049028 0 0 0 0 -185.20623229744524 -15.862958791305005 0 -15.862958791305005 35.58362129315492 0 0 0 0 -179.20628912062966 -23.055698720430883 0 -23.055698720430883 28.291060295463922 0 0 0 0 -152.1234018965406 -10.145295129786746 0 -10.145295129786746 24.158411182554119 0 0 0 0 -206.59765738996339 -24.777098130229945 0 -24.777098130229945 34.586184583646173 0 0 0 0 -204.65925938063447 -31.415502744074047 0 -31.415502744074047 27.53209451699513 0 0 0 0 -206.2108140844075 -28.302777702393662 0 -28.302777702393662 36.668764298311089 0 0 0 0 -203.7799399009491 -29.924682290269402 0 -29.924682290269402 40.456562005359501 0 0 0 0 -203.92725710382365 -31.103921387627679 0 -31.103921387627679 37.967292235244372 0 0 0 0 -202.33020106749609 -35.572893401118336 0 -35.572893401118336 31.542146303352865 0 0 0 0 -181.99249532543763 -28.241213623123713 0 -28.241213623123713 31.858661611173147 0 0 0 0 -178.1408129045758 -15.852879006818512 0 -15.852879006818512 24.249616203671849 0 0 0 0 -150.86145610266249 -10.229033149880024 0 -10.229033149880024 21.562839583099503 0 0 0 0 -150.95335841646011 -9.4961060469943277 0 -9.4961060469943277 16.212114798224604 0 0 0 0 -122.84697533341387 -1.1256769747849376 0 -1.1256769747849376 14.022545155993043 0 0 0 0 -144.71756111284049 -26.497954459825451 0 -26.497954459825451 9.3598299317986857 0 0 0 0 -104.37138589860479 -13.490522996850018 0 -13.490522996850018 6.0878372717202183 0 0 0 0 -87.882444659488101 12.077687215855804 0 12.077687215855804 6.9376263192020815 0 0 0 0 -55.724402392686898 0.87651892704434431 0 0.87651892704434431 -3.7413741983359614 0 0 0 0 -74.774117150755046 1.4110849956773563 0 1.4110849956773563 3.8595736448301068 0 0 0 0 -117.14281670587297 11.32804137836456 0 11.32804137836456 11.054344586061916 0 0 0 0 -115.66881898680276 5.1412465570656707 0 5.1412465570656707 7.9795973215082086 0 0 0 0 -73.564664918383642 17.911510437962079 0 17.911510437962079 -1.7156609739099622 0 0 0 0 -62.062846913770045 24.436182054720348 0 24.436182054720348 -21.372540424764054 0 0 0 0 -114.05628644708713 13.457642150931065 0 13.457642150931065 2.3556538001471381 0 0 0 0 -116.01197974613478 24.056860665747095 0 24.056860665747095 -3.4972890539183936 0 0 0 0 -166.02153327273118 -0.8332976334961586 0 -0.8332976334961586 15.139688732776563 0 0 0 0 -198.4354179688944 -3.3552286594697307 0 -3.3552286594697307 25.016972964968318 0 0 0 0 -166.74365955498797 8.8227529245687037 0 8.8227529245687037 15.573076416019376 0 0 0 0 -9.875191306193301 -7.9833650231191768 0 -7.9833650231191768 8.1378110556257752 0 0 0 0 -12.286594189288735 -9.9762074595823833 0 -9.9762074595823833 7.2823326966145032 0 0 0 0 -33.161375675077579 -19.157154196554302 0 -19.157154196554302 -10.216068914875905 0 0 0 0 -42.407804994014441 -18.788477992336084 0 -18.788477992336084 -9.9839324741837459 0 0 0 0 0.26057212081828141 -0.28586082106313881 0 -0.28586082106313881 0.21344471535596909 0 0 0 0 -65.650978264515288 8.1689448146348695 0 8.1689448146348695 37.108279020912221 0 0 0 0 -5.1503461171560048 25.583778176196063 0 25.583778176196063 30.038549913832867 0 0 0 0 -26.761865641310578 -16.903863053918485 0 -16.903863053918485 2.9682371596636585 0 0 0 0 -26.995832552391221 -13.104882309648701 0 -13.104882309648701 14.830111829183465 0 0 0 0 -21.540005505153204 -24.573314822650872 0 -24.573314822650872 4.647815760028152 0 0 0 0 -17.599040272994898 -9.0407892247603741 0 -9.0407892247603741 15.660837574123434 0 0 0 0 -16.265429117540407 -16.746054059857812 0 -16.746054059857812 8.6863471962001313 0 0 0 0 -9.5212278096296359 -17.734175623525061 0 -17.734175623525061 8.4740139818136413 0 0 0 0 -9.2386083951205364 -17.452619144214395 0 -17.452619144214395 6.149761097552485 0 0 0 0 -3.3938152652117424 -18.024445384952742 0 -18.024445384952742 6.1762676812119537 0 0 0 0 8.3608575994439889 -20.649329640179531 0 -20.649329640179531 1.7272220442614525 0 0 0 0 -1.3818459914509731 -22.59987917927117 0 -22.59987917927117 2.4826895997266547 0 0 0 0 3.9124826536863111 -16.954383426858612 0 -16.954383426858612 3.7597556374876149 0 0 0 0 5.6874774932293803 -19.253321684399225 0 -19.253321684399225 1.9893196480004463 0 0 0 0 7.1764671227247163 -16.380639604870453 0 -16.380639604870453 3.081585017298039 0 0 0 0 10.479130148343302 -17.913499732062959 0 -17.913499732062959 -0.6289687310249974 0 0 0 0 -3.425947488936707 -5.6653510670917413 0 -5.6653510670917413 -8.2500784959442406 0 0 0 0 9.5444789564789971 -11.585451967328481 0 -11.585451967328481 -2.9556766432019685 0 0 0 0 0.042372084506496321 -15.531543139648875 0 -15.531543139648875 2.6742496875294819 0 0 0 0 0.68142568311304785 -15.684123067065912 0 -15.684123067065912 2.6590960122098295 0 0 0 0 -7.398626120389963 -13.329239723371757 0 -13.329239723371757 7.0865555919526173 0 0 0 0 -9.9753204788503353 -14.29083210051499 0 -14.29083210051499 6.9720943599240854 0 0 0 0 -3.114937715796259 -10.789706816761623 0 -10.789706816761623 1.7720883376991878 0 0 0 0 -12.268768280158838 -9.0380559663486792 0 -9.0380559663486792 3.3319677815568411 0 0 0 0 -5.8433901333883114 -8.0816003559635874 0 -8.0816003559635874 -3.7856899022303878 0 0 0 0 -3.7893858645829823 -10.818948509928191 0 -10.818948509928191 -6.3960418997189663 0 0 0 0 -2.9831564610067289 -11.930033530769833 0 -11.930033530769833 1.3891164463294672 0 0 0 0 -18.738439606000611 28.521974545404873 0 28.521974545404873 20.435120565653051 0 0 0 0 1.6092545940809941 -7.6124322799264519 0 -7.6124322799264519 -3.1139355726331814 0 0 0 0 -3.0474148495795816 -7.7598911633773753 0 -7.7598911633773753 -3.1137327234105214 0 0 0 0 4.790686394992008 -0.42224354042218692 0 -0.42224354042218692 -8.1333430068884809 0 0 0 0 -5.057743784484046 -9.6852158846456859 0 -9.6852158846456859 -4.8568042447805055 0 0 0 0 -3.1415545818251047 -4.8768623646118883 0 -4.8768623646118883 -6.720473556050691 0 0 0 0 -14.138812826422509 -8.6109005986998 0 -8.6109005986998 -3.2077974503777114 0 0 0 0 -5.1162903230069787 -11.733641376119294 0 -11.733641376119294 -6.1924342938239931 0 0 0 0 -0.59234045889438391 -2.3943109370819045 0 -2.3943109370819045 0.91950174024795839 0 0 0 0 -15.934979669993481 -12.474270775521745 0 -12.474270775521745 -5.6507577076816915 0 0 0 0 0.77608223590860348 -0.69595290219644568 0 -0.69595290219644568 0.98695146956013335 0 0 0 0 -23.060115907315776 -14.626509605407136 0 -14.626509605407136 -6.2989174935619303 0 0 0 0 -22.788543589203528 -11.599179567052801 0 -11.599179567052801 -5.3049735465547201 0 0 0 0 -24.042907734587061 -12.721557363802958 0 -12.721557363802958 -3.6289678642935996 0 0 0 0 -22.055560138018336 -10.316878096471214 0 -10.316878096471214 -1.1822326820051785 0 0 0 0 -27.478246994203801 -6.0185454408500618 0 -6.0185454408500618 -0.39090470262704002 0 0 0 0 -6.8071282198361587 -3.6520536524219551 0 -3.6520536524219551 -1.9449566422404132 0 0 0 0 -3.5420409422351327 -1.7949480283734047 0 -1.7949480283734047 0.69129093339700098 0 0 0 0 -1.1041413266258395 -2.5606704213655007 0 -2.5606704213655007 -1.3833794315239736 0 0 0 0 -17.667387474393763 -8.7868871464388576 0 -8.7868871464388576 -3.139097549161761 0 0 0 0 -2.670928530565206 -6.8861502342772027 0 -6.8861502342772027 -2.2002334315803305 0 0 0 0 -8.3167328846066084 -4.2062076607659264 0 -4.2062076607659264 -0.894606774767567 0 0 0 0 -41.854830683156251 -0.70586447383715267 0 -0.70586447383715267 -2.4404092652130203 0 0 0 0 -24.372141756866768 -5.9543608517137727 0 -5.9543608517137727 -2.7237386292022165 0 0 0 0 -149.11257328982174 -19.38726015511088 0 -19.38726015511088 19.547970077189575 0 0 0 0 -152.55711002350472 -7.279211989322107 0 -7.279211989322107 18.483006264607866 0 0 0 0 -124.38924321185186 -16.319775982430201 0 -16.319775982430201 14.029667820683699 0 0 0 0 -120.65139660930436 -2.7094464486185643 0 -2.7094464486185643 11.772774052507884 0 0 0 0 -2.7292919362225803 0.26807334476256983 0 0.26807334476256983 1.5570029898624398 0 0 0 0 -104.87016944017523 -15.551402024940444 0 -15.551402024940444 11.520467982405535 0 0 0 0 -0.73023314729747213 -0.26494074704004333 0 -0.26494074704004333 0.028746040244911342 0 0 0 0 -78.983185583405429 -1.0267093197041959 0 -1.0267093197041959 -3.0384455125204113 0 0 0 0 -5.5162759254277915 2.319003585096965 0 2.319003585096965 3.3609073355879326 0 0 0 0 -77.148120809710235 -0.27789039382253122 0 -0.27789039382253122 -0.73700133925967748 0 0 0 0 -69.081858810401172 -14.557707874166567 0 -14.557707874166567 -1.5947538306645583 0 0 0 0 -90.518922935265437 -30.623810145682569 0 -30.623810145682569 -5.808160071963357 0 0 0 0 -132.68570056107274 -51.896999529214554 0 -51.896999529214554 -9.4944228482108883 0 0 0 0 -148.59761790557968 -49.527507499304193 0 -49.527507499304193 -9.7291149872746274 0 0 0 0 -19.282768850976936 -6.8661831831218478 0 -6.8661831831218478 -4.0306494872894518 0 0 0 0 -20.215330792016175 -7.1860097457721395 0 -7.1860097457721395 -1.7320720248432622 0 0 0 0 -19.982200796323013 -8.0938189889739078 0 -8.0938189889739078 -2.4550365595202948 0 0 0 0 -21.205703638552222 -8.6019520786596217 0 -8.6019520786596217 -1.7824448917697282 0 0 0 0 -4.7635129556488636 2.4154225060826491 0 2.4154225060826491 3.3281997966640953 0 0 0 0 0.97552070598482743 -1.1121150047802644 0 -1.1121150047802644 -1.2966593126932224 0 0 0 0 -65.531130215880694 -7.2822704459483703 0 -7.2822704459483703 0.039236058340520685 0 0 0 0 -0.51387125803389466 -7.1450904254325991 0 -7.1450904254325991 -1.4617263431559362 0 0 0 0 15.024760841383795 -1.0678554522341557 0 -1.0678554522341557 -2.2484650423029962 0 0 0 0 -17.409584330478538 -8.5227556451278588 0 -8.5227556451278588 -2.7542737704022784 0 0 0 0 11.241868421348045 -10.457130005982435 0 -10.457130005982435 1.0331036596214176 0 0 0 0 9.4515317947443691 44.37109965313789 0 44.37109965313789 -14.348013998091915 0 0 0 0 -55.196792797811213 -35.143766451359852 0 -35.143766451359852 -1.1823012718214159 0 0 0 0 15.263764326820819 4.2103038046336678 0 4.2103038046336678 0.89634865383482065 0 0 0 0 -103.3233133877402 29.6212039700265 0 29.6212039700265 18.983972900468871 0 0 0 0 -0.55051126732785605 -0.32243041608202816 0 -0.32243041608202816 -0.11467542966777966 0 0 0 0 4.764284403736383 3.487200907848603 0 3.487200907848603 4.347451855660438 0 0 0 0 1.2861471156857185 -6.9245010574363661 0 -6.9245010574363661 -1.6225087117317898 0 0 0 0 -20.607010579202324 -7.8982409420741675 0 -7.8982409420741675 -0.62461342841766054 0 0 0 0 25.563913482208591 -0.29749464826670646 0 -0.29749464826670646 -3.2414129611895532 0 0 0 0 -38.690796223625512 -11.147435238251319 0 -11.147435238251319 7.6281403615668069 0 0 0 0 -19.729520653258078 -6.5251285476900875 0 -6.5251285476900875 -1.5458673140281007 0 0 0 0 -18.567849363920686 -12.889615975533729 0 -12.889615975533729 1.9508377246044546 0 0 0 0 -21.020395140007167 -6.8628594104561103 0 -6.8628594104561103 1.6119942297267471 0 0 0 0 -23.24775229541774 -14.872269238293597 0 -14.872269238293597 18.230354034290485 0 0 0 0 -27.182134576287353 -28.389359105627477 0 -28.389359105627477 17.436577132324203 0 0 0 0 -9.1563097765165367 -36.20893439153933 0 -36.20893439153933 11.357267804009325 0 0 0 0 15.331420193251688 -26.261788592298558 0 -26.261788592298558 -3.7872544237068269 0 0 0 0 -5.4641100130529594 -19.136618714359159 0 -19.136618714359159 -0.98438730117891282 0 0 0 0 -39.646211512459558 -33.176296785862831 0 -33.176296785862831 22.839457463531517 0 0 0 0 -29.577796572943043 -45.386006231471697 0 -45.386006231471697 8.2010823690392272 0 0 0 0 -32.459212885813031 -37.982483508532255 0 -37.982483508532255 25.379203732515407 0 0 0 0 -17.212868769631314 -14.85842864041166 0 -14.85842864041166 4.5086088730535039 0 0 0 0 38.146517691031477 0.8759467977569102 0 0.8759467977569102 -25.156245712694954 0 0 0 0 1.2827789951382442 -7.16094063989744 0 -7.16094063989744 -1.5849979410282966 0 0 0 0 29.648199043658678 -15.821761865724966 0 -15.821761865724966 -21.045033583413328 0 0 0 0 7.9092674490748323 -8.0315196936266489 0 -8.0315196936266489 -2.5018441557804181 0 0 0 0 -0.012391413527314654 -7.4091324092163049 0 -7.4091324092163049 -1.1264365022283513 0 0 0 0 -17.031885137722384 -4.8443907326154942 0 -4.8443907326154942 -61.173859111382399 0 0 0 0 -13.942208592899988 -19.464580910413588 0 -19.464580910413588 7.9007314820045167 0 0 0 0 -78.796960835548816 -38.56498510701033 0 -38.56498510701033 -8.2732904711965602 0 0 0 0 -61.893942479597172 57.472556379856314 0 57.472556379856314 -15.432136992163578 0 0 0 0 -110.9525737292679 14.877845033927372 0 14.877845033927372 13.45025205278921 0 0 0 0 -1.1662415848624761 -0.29921619967259261 0 -0.29921619967259261 -0.05760425115979162 0 0 0 0 0.37523779516050126 -30.155956229671915 0 -30.155956229671915 -27.57358738382004 0 0 0 0 -74.397094054466379 -32.288130274239023 0 -32.288130274239023 -2.8730791210971347 0 0 0 0 -85.030785067661782 19.934216870361865 0 19.934216870361865 -0.40882791968203946 0 0 0 0 -48.527804140718217 9.8069564653175405 0 9.8069564653175405 -0.67990653006677348 0 0 0 0 -13.538530593214091 -20.138639075354035 0 -20.138639075354035 -7.2385850234292093 0 0 0 0 -31.85220879327062 -27.304622394520152 0 -27.304622394520152 -0.64314906300069197 0 0 0 0 -52.269867996095854 -12.255370991731525 0 -12.255370991731525 -20.304142807709013 0 0 0 0 -50.96500930008915 -5.0031006113873673 0 -5.0031006113873673 3.8784383225561214 0 0 0 0 14.21345282891707 -25.081756697144897 0 -25.081756697144897 0.27271582522598692 0 0 0 0 6.0347414660573122 -17.878788517413795 0 -17.878788517413795 2.4815233970309691 0 0 0 0 5.4507059717871016 -19.783098243030281 0 -19.783098243030281 0.75614209166496948 0 0 0 0 -9.5747265792015241 -17.800528417861187 0 -17.800528417861187 -0.1819100426573641 0 0 0 0 -8.5064957761569531 -23.158738090824386 0 -23.158738090824386 1.8749620427861373 0 0 0 0 -13.026087661583006 -23.068531108286606 0 -23.068531108286606 -1.3247697975491519 0 0 0 0 6.2160824073871481 -19.428324755077711 0 -19.428324755077711 -4.6496444969225195 0 0 0 0 8.0208819114577636 -23.892316191647581 0 -23.892316191647581 -2.1021255148434648 0 0 0 0 19.823808635341265 -12.482459340951095 0 -12.482459340951095 -5.6579920590167774 0 0 0 0 9.4656541629519779 -22.952308370649121 0 -22.952308370649121 -11.585598942297906 0 0 0 0 2.5037675522441987 -4.0319910352725508 0 -4.0319910352725508 -0.882324009388185 0 0 0 0 13.997147370217135 -18.177705096576801 0 -18.177705096576801 14.014289068234177 0 0 0 0 -60.215869327392284 -9.0281359905775957 0 -9.0281359905775957 75.005385748968138 0 0 0 0 -2.79457892373307 -1.1132654540263154 0 -1.1132654540263154 -0.32095193607883443 0 0 0 0 -46.118244170746038 -8.598992154467453 0 -8.598992154467453 -2.3683613070443243 0 0 0 0 42.60300578524766 -9.0728956680771944 0 -9.0728956680771944 -9.2094934501729995 0 0 0 0 -61.258458137264824 -57.360099532067522 0 -57.360099532067522 -119.89373495068071 0 0 0 0 -33.442101757660566 52.458467317895867 0 52.458467317895867 -18.257559528598676 0 0 0 0 -102.01245598561218 31.953682601792366 0 31.953682601792366 25.66455792930703 0 0 0 0 -19.02261109081519 10.733248654919691 0 10.733248654919691 23.239020586652941 0 0 0 0 -24.688285961957263 37.2472249654259 0 37.2472249654259 -4.9478965158734809 0 0 0 0 -32.577330648462521 11.604485733576325 0 11.604485733576325 15.255171662562589 0 0 0 0 -44.533056708482036 19.514639584042357 0 19.514639584042357 10.035874344071885 0 0 0 0 -70.08689688360937 -19.10632330934385 0 -19.10632330934385 15.435127956345468 0 0 0 0 -20.10784155024885 -7.8598524119802278 0 -7.8598524119802278 17.685317316414512 0 0 0 0 -33.580431672962732 -8.7129912009270356 0 -8.7129912009270356 25.317792938955563 0 0 0 0 -8.1059423047336168 5.4185305090067004 0 5.4185305090067004 31.787023961444447 0 0 0 0 -38.068630747700809 36.114963970215967 0 36.114963970215967 8.3990600311394701 0 0 0 0 -31.811250480143372 14.55955062252643 0 14.55955062252643 18.473715025450019 0 0 0 0 -14.906467216147576 -3.7715985968707741 0 -3.7715985968707741 34.219655445065769 0 0 0 0 -4.9268697717052419 21.523473520528114 0 21.523473520528114 10.694234213787055 0 0 0 0 -51.242459981744105 48.407714358438881 0 48.407714358438881 -54.027957550492602 0 0 0 0 -7.1541551165282726 -38.519052270931638 0 -38.519052270931638 -23.67573798983517 0 0 0 0 -7.0394573626593484 -0.1167299880911572 0 -0.1167299880911572 0.010349570034151698 0 0 0 0 -29.590656677675724 2.3747967324619594 0 2.3747967324619594 51.414118659817518 0 0 0 0 -20.585949754880858 -54.421333862648225 0 -54.421333862648225 8.4834939779582825 0 0 0 0 -4.5263062627054751 -83.372912040133883 0 -83.372912040133883 -39.134633214432142 0 0 0 0 -61.165504746117222 18.778561633576487 0 18.778561633576487 -2.5069873834966359 0 0 0 0 -1.1396864413636649 -0.33511851343773813 0 -0.33511851343773813 0.042228050833148512 0 0 0 0 0.51803942225160426 -34.817455527949733 0 -34.817455527949733 -58.126616733409719 0 0 0 0 12.206111667481309 -21.397884821462753 0 -21.397884821462753 10.542773261781861 0 0 0 0 80.10484942101175 3.7166439586348474 0 3.7166439586348474 -11.055197981152844 0 0 0 0 -1.2888579187244744 -1.3434680976510052 0 -1.3434680976510052 1.0428912989144292 0 0 0 0 15.235859563166741 -29.546604715880449 0 -29.546604715880449 21.074561766619127 0 0 0 0 -54.471208195784129 -51.421765635679094 0 -51.421765635679094 14.771234762141887 0 0 0 0 -31.965567118899344 -14.958723148130161 0 -14.958723148130161 24.400482246238425 0 0 0 0 -14.698438849765807 -53.073869349362212 0 -53.073869349362212 14.633204843333232 0 0 0 0 -31.016974812027911 33.462371450122077 0 33.462371450122077 -23.131389346910737 0 0 0 0 -77.298153270603507 23.679701618073295 0 23.679701618073295 16.488210533503434 0 0 0 0 -33.205639562183933 -1.6765328420466403 0 -1.6765328420466403 30.552324627357052 0 0 0 0 -60.248182069000904 -27.930598535872832 0 -27.930598535872832 23.301695413663538 0 0 0 0 -53.354579231134267 -26.09351986131901 0 -26.09351986131901 18.269278879509102 0 0 0 0 -42.778070992550056 23.464217657971517 0 23.464217657971517 -24.043064572797448 0 0 0 0 -106.37020104144176 105.54533632666471 0 105.54533632666471 -110.62866018747127 0 0 0 0 -240.54379534257168 -23.871848233212063 0 -23.871848233212063 28.096352343390208 0 0 0 0 -2.2900031570696768 -0.15342267454739833 0 -0.15342267454739833 -0.043069992033163529 0 0 0 0 80.059761735211481 -87.55860659015768 0 -87.55860659015768 -64.363502338421313 0 0 0 0 230.69494530028896 -82.118258913780664 0 -82.118258913780664 -79.576158212233338 0 0 0 0 -79.321235928298847 -173.11225342550847 0 -173.11225342550847 -52.344863398788021 0 0 0 0 -38.280182891074219 -33.696324117706013 0 -33.696324117706013 -31.877868961598324 0 0 0 0 -1.5392407679573807 -45.612791038530304 0 -45.612791038530304 -50.062451134452886 0 0 0 0 -7.6341418426200107 -40.633037695861333 0 -40.633037695861333 -3.9591449703004855 0 0 0 0 -26.262930638433318 -65.519802552455758 0 -65.519802552455758 -36.787253345506002 0 0 0 0 -33.935650454201095 -51.000944787622984 0 -51.000944787622984 5.2454683689419426 0 0 0 0 2.4372702991386177 -45.593703689298309 0 -45.593703689298309 3.7457944516768293 0 0 0 0 -31.19017032591546 -59.264550387693788 0 -59.264550387693788 3.2710641699138705 0 0 0 0 3.6586796254341607 -48.210946557668933 0 -48.210946557668933 4.411212672639067 0 0 0 0 31.867235329125833 -21.344576130379096 0 -21.344576130379096 -3.2208675353340368 0 0 0 0 50.343976733507589 -40.12371832222766 0 -40.12371832222766 -6.2454838922786848 0 0 0 0 66.23476315086009 -10.867530333945126 0 -10.867530333945126 6.7753409207602999 0 0 0 0 71.881565732466697 -49.0033667440606 0 -49.0033667440606 -0.71340029565499208 0 0 0 0 36.398799035800039 -27.229123987533512 0 -27.229123987533512 6.2203040961942406 0 0 0 0 17.170429029902152 -53.616572380164087 0 -53.616572380164087 -19.056887566051046 0 0 0 0 46.751733493867505 -36.486612045871595 0 -36.486612045871595 -19.539450040907013 0 0 0 0 14.648416624091624 -19.838044858076273 0 -19.838044858076273 -11.745700786964477 0 0 0 0 48.533414558987715 -29.766957168017143 0 -29.766957168017143 -8.6695192559536736 0 0 0 0 70.968600301239348 -19.252761611615597 0 -19.252761611615597 -8.1689328055358601 0 0 0 0 -3.0316971143777209 -6.8506921338583098 0 -6.8506921338583098 -0.12486284677174986 0 0 0 0 -2.3918320608972863 -14.718117257162817 0 -14.718117257162817 16.477175402586226 0 0 0 0 27.585098618051234 -24.792804255838163 0 -24.792804255838163 8.7414581428101883 0 0 0 0 -1.0700663705720217 -19.855230203675035 0 -19.855230203675035 8.4549791361009738 0 0 0 0 58.384970515708119 1.6082686775187085 0 1.6082686775187085 -8.9281396664644035 0 0 0 0 -2.5347678024376812 -0.25261769636018983 0 -0.25261769636018983 0.079856876834162982 0 0 0 0 114.99548684434558 -24.374666368201133 0 -24.374666368201133 -15.395341262526017 0 0 0 0 -9.0055203546289704 -22.461680201562558 0 -22.461680201562558 3.9097691394281355 0 0 0 0 55.50889358879067 -31.886242463202279 0 -31.886242463202279 -3.2561677325873006 0 0 0 0 2.5348151102703085 0.15623957339464312 0 0.15623957339464312 -0.215799081814807 0 0 0 0 -3.6017734191191266 -23.390704153405522 0 -23.390704153405522 3.6440345783364592 0 0 0 0 -10.421374075740459 -23.747094797867476 0 -23.747094797867476 2.2449104742909469 0 0 0 0 -18.543940805320744 -26.18321996652071 0 -26.18321996652071 -5.7533400554428908 0 0 0 0 -11.330487191000429 -18.332796640255197 0 -18.332796640255197 1.7259000953770283 0 0 0 0 -27.972930189735052 -21.300643325899728 0 -21.300643325899728 16.86041956510303 0 0 0 0 -9.3611586120896391 -20.81367257278032 0 -20.81367257278032 9.4456704160638765 0 0 0 0 -6.7573806256696116 -20.277389251850309 0 -20.277389251850309 9.4057134645580334 0 0 0 0 -14.549664325044432 -18.009569933669582 0 -18.009569933669582 20.258928699199259 0 0 0 0 -8.505919300718233 -12.843855898454876 0 -12.843855898454876 23.2115487453745 0 0 0 0 -7.9549084583871092 -15.786634490924861 0 -15.786634490924861 21.627444224338888 0 0 0 0 -12.108691156478017 -13.274240561126362 0 -13.274240561126362 20.118000366525621 0 0 0 0 -11.141124571063244 -0.76905737092927184 0 -0.76905737092927184 0.55567176092211035 0 0 0 0 -11.716209562473523 -14.44889098534702 0 -14.44889098534702 25.862702879061317 0 0 0 0 -67.116399328908301 56.308007341309448 0 56.308007341309448 53.982330286035562 0 0 0 0 8.8918375380853831 -22.578977459082125 0 -22.578977459082125 -42.238881031435994 0 0 0 0 -69.430625985175539 -1.7177465206072782 0 -1.7177465206072782 14.879408463031723 0 0 0 0 -1.4930988277025286 0.067702437839471941 0 0.067702437839471941 0.24141962978931097 0 0 0 0 44.577430511701095 -9.194976215886868 0 -9.194976215886868 -5.666152079466201 0 0 0 0 35.905809699443125 -12.193186288722188 0 -12.193186288722188 -1.3597945728549803 0 0 0 0 63.395357406418043 -2.1372168896820085 0 -2.1372168896820085 -19.533968849688335 0 0 0 0 45.536837032439507 -33.301846804901629 0 -33.301846804901629 13.345817857882594 0 0 0 0 71.4919291761762 -53.915536785261111 0 -53.915536785261111 28.333042501278214 0 0 0 0 100.53589742607437 -22.206080705446652 0 -22.206080705446652 -8.6903374956227708 0 0 0 0 108.25227160363283 15.002464814713903 0 15.002464814713903 -13.790837092122729 0 0 0 0 0.12895111211560106 -2.7189921293729467 0 -2.7189921293729467 -0.088984088350352986 0 0 0 0 46.047895067138597 -24.435873082309854 0 -24.435873082309854 30.545397172185062 0 0 0 0 86.314074611178512 -36.310407236160984 0 -36.310407236160984 -7.5945218449005552 0 0 0 0 42.459281257279144 -7.5679307307104011 0 -7.5679307307104011 -26.416847771896755 0 0 0 0 14.064381016585685 0.45088220384911892 0 0.45088220384911892 4.0199395129561708 0 0 0 0 45.487208917700627 -3.5869222323160557 0 -3.5869222323160557 -20.720469255765465 0 0 0 0 61.768250877139508 20.264665128469233 0 20.264665128469233 13.934577309867279 0 0 0 0 6.6778804224341002 20.874093472887637 0 20.874093472887637 -14.632467407028116 0 0 0 0 37.367843176922179 -3.7949984847572296 0 -3.7949984847572296 -9.5886849457660901 0 0 0 0 15.162471801821084 29.489283248255219 0 29.489283248255219 -16.39550536182584 0 0 0 0 -27.381137908647361 52.121085876719462 0 52.121085876719462 -38.548586068190843 0 0 0 0 -37.874879452931054 38.721265609888292 0 38.721265609888292 -39.457061295626886 0 0 0 0 14.763428680745164 4.0960329282343366 0 4.0960329282343366 -49.769616177395619 0 0 0 0 -5.3397708726261044 -0.97961068230392812 0 -0.97961068230392812 -42.488626418470005 0 0 0 0 -6.1083984727156349 10.4060841078865 0 10.4060841078865 -44.959505276879099 0 0 0 0 -25.241065440794046 5.8344838311862759 0 5.8344838311862759 -37.437172616998168 0 0 0 0 -20.503719554067885 -5.2583639435702807 0 -5.2583639435702807 -1.2359751824664889 0 0 0 0 -26.904516837199481 11.995453904363899 0 11.995453904363899 20.113115633937241 0 0 0 0 -30.463817463096348 41.499024305681928 0 41.499024305681928 -8.004819765595073 0 0 0 0 -47.856857552793372 26.67210055124815 0 26.67210055124815 32.115113340451671 0 0 0 0 -45.882207224296053 15.629445445994165 0 15.629445445994165 23.378728321981271 0 0 0 0 7.8237166254839394 9.460543225257311 0 9.460543225257311 2.2116191897623594 0 0 0 0 -32.819864401772065 1.0334769020005297 0 1.0334769020005297 0.46435967060324401 0 0 0 0 19.580067511498783 -4.7356504105953263 0 -4.7356504105953263 -17.859041861312335 0 0 0 0 -21.321602334083849 -4.9971370306289193 0 -4.9971370306289193 -0.6538976650075049 0 0 0 0 13.341651802096749 12.878475762917049 0 12.878475762917049 1.8379805436400147 0 0 0 0 -52.313018258275406 -12.412021091053248 0 -12.412021091053248 17.483103597787078 0 0 0 0 0.30432000582975149 0.13262626843981451 0 0.13262626843981451 -0.19389135977046656 0 0 0 0 -74.87979791424732 -27.318195734773667 0 -27.318195734773667 7.6580748954033879 0 0 0 0 40.826717914091205 -9.4859927970510398 0 -9.4859927970510398 -18.603190977052918 0 0 0 0 -9.6770155007483538 1.7806786618186834 0 1.7806786618186834 1.9004704526243468 0 0 0 0 -48.80314158258534 -23.848306723077769 0 -23.848306723077769 -29.869034240451583 0 0 0 0 -47.980846767430194 -29.175017270666103 0 -29.175017270666103 -0.41198137551418768 0 0 0 0 -40.485836895313696 -28.855101816308686 0 -28.855101816308686 -52.024202072684879 0 0 0 0 -5.1976247100354698 -1.8100325280451273 0 -1.8100325280451273 0.051011736845381239 0 0 0 0 -40.360394552008074 30.990907864227044 0 30.990907864227044 -20.397587223950794 0 0 0 0 -16.849266593766515 -7.9619982895094452 0 -7.9619982895094452 12.069121597699844 0 0 0 0 -3.6398968387511559 0.22489829028494623 0 0.22489829028494623 -0.025498204889597656 0 0 0 0 -37.156300688235206 7.188962360815502 0 7.188962360815502 76.515342029686764 0 0 0 0 -3.5588800349796657 -0.42405330339692887 0 -0.42405330339692887 -0.49771174449041611 0 0 0 0 -2.0342224410576932 0.089340504729690018 0 0.089340504729690018 0.065727669171054187 0 0 0 0 -12.621598321435158 33.200952428551645 0 33.200952428551645 31.800722034261852 0 0 0 0 19.855814022212144 -28.166634207582558 0 -28.166634207582558 4.9921750936201992 0 0 0 0 -12.272077210735006 -26.365974288712664 0 -26.365974288712664 26.988125254512916 0 0 0 0 -1.5726089005644042 -0.14910915415776316 0 -0.14910915415776316 0.043593904473305002 0 0 0 0 2.8015425243356731 -0.20126520042516693 0 -0.20126520042516693 -1.0985999994880855 0 0 0 0 -25.618373076431453 -0.83900377107097768 0 -0.83900377107097768 -11.635294113888317 0 0 0 0 -1.7874953191167151 -32.077556454065707 0 -32.077556454065707 -5.1675847089448723 0 0 0 0 2.2967512672767043 -19.87706732153493 0 -19.87706732153493 -30.342423435802111 0 0 0 0 -32.680918666741036 -40.809474617173741 0 -40.809474617173741 -12.045724091061615 0 0 0 0 -6.7185570942237973 -18.858634014354251 0 -18.858634014354251 1.8293768011518594 0 0 0 0 -6.6477042691385577 -19.852327731105298 0 -19.852327731105298 -7.4305794193902983 0 0 0 0 -7.2107744397835631 -19.244038766744318 0 -19.244038766744318 -2.8465048999181235 0 0 0 0 -2.5492716277949512 -15.792933260291626 0 -15.792933260291626 -18.41756621896414 0 0 0 0 -10.455150641704677 -18.231229045633647 0 -18.231229045633647 17.501380371003904 0 0 0 0 -5.9622361268266104 -14.359712773177549 0 -14.359712773177549 -3.1765996510673835 0 0 0 0 14.101422139588976 3.4040898944352991 0 3.4040898944352991 0.040657386864305672 0 0 0 0 -6.1610613076054506 -15.569260740902353 0 -15.569260740902353 -5.733149398413957 0 0 0 0 -0.57133806281066768 -0.1501687762892665 0 -0.1501687762892665 -0.012334987861942733 0 0 0 0 -25.860549882738269 -50.607157769947804 0 -50.607157769947804 -58.95129738882676 0 0 0 0 -36.904952072945889 -11.320236932552621 0 -11.320236932552621 13.358111217311869 0 0 0 0 -45.347972940275213 -28.289177784547739 0 -28.289177784547739 34.852710435712083 0 0 0 0 -23.218892528981087 2.3413366190829947 0 2.3413366190829947 12.926022528941417 0 0 0 0 -27.83486450262717 -2.3781958223055426 0 -2.3781958223055426 2.5935815872652483 0 0 0 0 -0.25655866545275785 0.37979499820534102 0 0.37979499820534102 2.7690881942175309 0 0 0 0 -1.4236465206815296 -0.40111891246534626 0 -0.40111891246534626 -0.59015043926090449 0 0 0 0 -0.64322359301149845 1.8259664525932067 0 1.8259664525932067 -0.61064697318090566 0 0 0 0 -5.8258739461707592 -15.364666152512953 0 -15.364666152512953 12.253857829691924 0 0 0 0 -9.8956270414055325 4.8121349234191939 0 4.8121349234191939 8.6165005783678907 0 0 0 0 -31.114001539670426 -0.60707006050574819 0 -0.60707006050574819 44.951146121789066 0 0 0 0 -7.2323857608296152 -1.5006793543672632 0 -1.5006793543672632 -0.23836191232114859 0 0 0 0 -22.67860538815512 4.5097171901620356 0 4.5097171901620356 34.133013417866778 0 0 0 0 -3.2022721317698597 -27.862751751294695 0 -27.862751751294695 27.668616385866585 0 0 0 0 7.4716554699989501 -14.541243090896273 0 -14.541243090896273 -20.68330591322615 0 0 0 0 -9.9765475913663977 -34.964265984426333 0 -34.964265984426333 35.285553003884615 0 0 0 0 -0.23454858857445515 -1.6468973834385356 0 -1.6468973834385356 -0.42043246714517407 0 0 0 0 -9.3002814272668672 -3.5362503974086685 0 -3.5362503974086685 -1.520101959608976 0 0 0 0 -33.851802548400883 -23.441984471684862 0 -23.441984471684862 19.031832253935875 0 0 0 0 -10.717861113570024 -4.9368488971100994 0 -4.9368488971100994 -1.0334298347604769 0 0 0 0 -14.238415156643896 10.381011693841046 0 10.381011693841046 -6.7093929491200015 0 0 0 0 -7.5344334528675176 1.9057553210415321 0 1.9057553210415321 3.6107632759992647 0 0 0 0 -43.672427815807168 7.7012248728674422 0 7.7012248728674422 0.8211784966898108 0 0 0 0 -18.202820531150792 -8.3483667052232704 0 -8.3483667052232704 -2.8073594917013054 0 0 0 0 -16.057098396653601 -3.2029017905385899 0 -3.2029017905385899 -1.9293890321079061 0 0 0 0 -6.4521404035185697 -3.7861570214573703 0 -3.7861570214573703 -3.0984732367107881 0 0 0 0 -27.501281225409912 -4.5736752276957873 0 -4.5736752276957873 1.8336127546997432 0 0 0 0 -16.057358388527064 -3.4153106084506817 0 -3.4153106084506817 1.9260361292214725 0 0 0 0 -16.325523376476326 -4.2635070075551758 0 -4.2635070075551758 -0.79394315739951249 0 0 0 0 7.0740310432520346 8.4681491438560776 0 8.4681491438560776 15.199656549168049 0 0 0 0 -17.72800836978422 4.075806321591358 0 4.075806321591358 -6.8751188542271393 0 0 0 0 -8.552783289746003 27.280429399730274 0 27.280429399730274 1.4563782549874777 0 0 0 0 17.241454516522936 -16.36111208070696 0 -16.36111208070696 -33.134305829361608 0 0 0 0 2.0656811217522772 5.1634953132527279 0 5.1634953132527279 -45.225645878753866 0 0 0 0 -12.763874506859793 -2.7011273063613048 0 -2.7011273063613048 -0.65899376530425857 0 0 0 0 -37.073465349363687 -1.527637557212195 0 -1.527637557212195 11.810503992788149 0 0 0 0 -24.42435558678153 18.930842368359468 0 18.930842368359468 3.9354241647828871 0 0 0 0 -3.8689181317822658 -0.69125970278325211 0 -0.69125970278325211 0.054257573296722428 0 0 0 0 9.8345008188625798 -25.842117265534483 0 -25.842117265534483 28.407931231733379 0 0 0 0 23.103165773020919 23.874577702274777 0 23.874577702274777 16.545363782122593 0 0 0 0 19.376338914553344 10.299100943150417 0 10.299100943150417 5.1593858071684009 0 0 0 0 -1.7194974670151453 0.28700541366405297 0 0.28700541366405297 0.022418263908726671 0 0 0 0 -22.435904876780114 23.315682798637383 0 23.315682798637383 40.665170011717841 0 0 0 0 5.0995846245750727 17.924952424566989 0 17.924952424566989 -20.496029155619858 0 0 0 0 -0.69289224149741813 0.14729091159447094 0 0.14729091159447094 0.0071528028733156279 0 0 0 0 28.806367546461843 7.6472699573555589 0 7.6472699573555589 -0.14623374782038406 0 0 0 0 -134.18607451282151 66.107446900008966 0 66.107446900008966 127.86101915671787 0 0 0 0 1.4362159687443636 -5.8049487934383706 0 -5.8049487934383706 -18.293021362475884 0 0 0 0 -20.429816496613867 -4.6677659569528398 0 -4.6677659569528398 -0.74661305166262903 0 0 0 0 -0.84673718611455229 -0.28098883340921077 0 -0.28098883340921077 0.0021154228870944114 0 0 0 0 -190.03327696808265 6.6032685185746578 0 6.6032685185746578 44.096158035765228 0 0 0 0 -28.260458588414622 -60.510156180099791 0 -60.510156180099791 -170.4374973357483 0 0 0 0 -0.92787098404369317 0.29263839741625036 0 0.29263839741625036 -0.00065410611534626726 0 0 0 0 -60.123168547972455 -36.967998856918435 0 -36.967998856918435 12.327421916698711 0 0 0 0 20.119087571656564 -4.424076599450018 0 -4.424076599450018 -135.93589123493518 0 0 0 0 65.625595719364355 -95.424145522952188 0 -95.424145522952188 -90.729802899155871 0 0 0 0 1.5755903851386392 -71.869824770826455 0 -71.869824770826455 -67.04760462232602 0 0 0 0 -2.4766964763751957 0.35670805464008737 0 0.35670805464008737 -0.0017023333433303553 0 0 0 0 -4.6847601844201563 -1.4727808606040989 0 -1.4727808606040989 -0.8135109214299725 0 0 0 0 59.785050221209531 50.295449918935844 0 50.295449918935844 -17.215771474912373 0 0 0 0 13.504624302993761 6.2625813754239061 0 6.2625813754239061 -27.302658674183476 0 0 0 0 -63.941387572434905 -49.025116088369941 0 -49.025116088369941 30.251106955839077 0 0 0 0 -71.609408495984098 -78.888518815168339 0 -78.888518815168339 118.37294416709844 0 0 0 0 -22.761016265219752 -5.9097177400823009 0 -5.9097177400823009 -0.96734574203288903 0 0 0 0 1.554751188676164 -18.350327805439235 0 -18.350327805439235 -15.558516008980575 0 0 0 0 -5.6994263432570733 -134.19008145933068 0 -134.19008145933068 30.093372716183715 0 0 0 0 0.20907759773056966 -0.58180853252840237 0 -0.58180853252840237 -0.74419169023578813 0 0 0 0 -6.7222937201877357 14.920264126244547 0 14.920264126244547 -14.012505778845366 0 0 0 0 -40.111342136111489 -29.160736219744678 0 -29.160736219744678 -12.187841279628401 0 0 0 0 -7.2638688356018974 -36.853595619214161 0 -36.853595619214161 -28.231229235917453 0 0 0 0 -3.3558829949179199 13.170649521464156 0 13.170649521464156 11.586476637974592 0 0 0 0 -4.6729829073469489 -0.62464479587133259 0 -0.62464479587133259 -0.0092396107510182984 0 0 0 0 -1.5510954254932585 -1.6397444097245852 0 -1.6397444097245852 21.016122510106243 0 0 0 0 -1.5852548778070172 -0.48073604675420745 0 -0.48073604675420745 -0.11320620741182921 0 0 0 0 -38.525738183223439 21.562154020407206 0 21.562154020407206 -0.35941588454115347 0 0 0 0 -10.215330590875965 -15.448415159033402 0 -15.448415159033402 -16.938664937194517 0 0 0 0 -5.7081648506318743 -65.102417263111363 0 -65.102417263111363 -133.14283358965872 0 0 0 0 -98.897778291753639 -68.539745050691863 0 -68.539745050691863 29.012827533061909 0 0 0 0 -55.649554848330808 12.494480731778921 0 12.494480731778921 119.72849211998232 0 0 0 0 -17.406551976177198 -2.9783271276232881 0 -2.9783271276232881 0.41081050346623327 0 0 0 0 -13.660608787438832 -1.1491463925234484 0 -1.1491463925234484 9.5106855452695811 0 0 0 0 -29.630960142101685 -52.243641794974224 0 -52.243641794974224 -2.9947824230541187 0 0 0 0 -31.416365245218913 -20.77130259904402 0 -20.77130259904402 71.361336684930393 0 0 0 0 -23.163798624163476 -4.4010685331369848 0 -4.4010685331369848 -0.42540333116365736 0 0 0 0 -6.7789881510384475 -2.363297601441797 0 -2.363297601441797 -0.82629291788761583 0 0 0 0 -6.732230944580806 -0.88812848413053858 0 -0.88812848413053858 -0.0014702276778383412 0 0 0 0 -43.469395546366286 -38.83364554377426 0 -38.83364554377426 14.874702356813131 0 0 0 0 -18.650101009872742 -3.8325472402339988 0 -3.8325472402339988 0.27067545239936092 0 0 0 0 -16.906934302154696 0.36139636412043763 0 0.36139636412043763 -0.77011215121313459 0 0 0 0 -16.533040708724002 -0.52797476758133732 0 -0.52797476758133732 0.00068527593107112488 0 0 0 0 -14.21799576800359 0.026384689178097886 0 0.026384689178097886 0.3377433122223687 0 0 0 0 -19.136637567043635 0.14572853263204191 0 0.14572853263204191 0.11076046168266229 0 0 0 0 -20.424086863320554 -4.8423994755876265 0 -4.8423994755876265 4.2395671024860349 0 0 0 0 -19.212670181659632 -2.0503829889983001 0 -2.0503829889983001 0.77707168971608143 0 0 0 0 -14.602707394318713 -0.89566419803401498 0 -0.89566419803401498 -0.62683689418750477 0 0 0 0 -15.096717034518434 -2.1859348503401543 0 -2.1859348503401543 -0.10029120267192199 0 0 0 0 -16.366729426546954 -1.7870264991282165 0 -1.7870264991282165 -0.33809790235820802 0 0 0 0 -7.6147273243320512 -0.012779252726778267 0 -0.012779252726778267 0.39604141999886017 0 0 0 0 -3.7839230124955066 0.1495453574600738 0 0.1495453574600738 3.2948065184609021 0 0 0 0 -13.823458571725496 -0.48068676369885271 0 -0.48068676369885271 0.7858206070572018 0 0 0 0 -17.71439488436954 -0.66099036516065679 0 -0.66099036516065679 0.00082669514291183158 0 0 0 0 -6.8142651129834917 0.54593405422209074 0 0.54593405422209074 0.55496965813445875 0 0 0 0 -4.194749284765777 -0.57625928376995716 0 -0.57625928376995716 0.41231921818268297 0 0 0 0 -8.3559367128036683 15.63525928564286 0 15.63525928564286 -1.1568741470578061 0 0 0 0 -16.685549138731709 -1.4914155360308357 0 -1.4914155360308357 0.83744195497961127 0 0 0 0 -0.91606623208249971 1.5349311860170118 0 1.5349311860170118 0.83527963771025282 0 0 0 0 -16.542355716461316 29.159320001299307 0 29.159320001299307 71.708641762184925 0 0 0 0 -11.912912576706731 -3.9458707226020238 0 -3.9458707226020238 -2.6925755197380425 0 0 0 0 -15.187291163081525 0.76185409512103064 0 0.76185409512103064 1.3433161093837032 0 0 0 0 -20.198283271405671 -0.38152485607696462 0 -0.38152485607696462 3.5846462552029834 0 0 0 0 -12.145640762115363 2.0182570122483554 0 2.0182570122483554 0.23238573001435725 0 0 0 0 -7.8346436766886995 -1.3631350227695052 0 -1.3631350227695052 -0.27887268717820202 0 0 0 0 -14.057807672405033 0.76651417330310778 0 0.76651417330310778 3.2673585687978743 0 0 0 0 -0.42800641562871533 0.44419296893522286 0 0.44419296893522286 -0.21771449864110984 0 0 0 0 -13.068989159924968 16.178576535504398 0 16.178576535504398 -16.846718765624487 0 0 0 0 -4.0663627852222817 0.65862747289903001 0 0.65862747289903001 -0.0032138811372536117 0 0 0 0 -3.464632271425387 0.30791306729771506 0 0.30791306729771506 -0.14424077510445146 0 0 0 0 18.301984339719638 10.832545994543064 0 10.832545994543064 -11.794035893868681 0 0 0 0 -11.701771112449933 0.64618519218360027 0 0.64618519218360027 0.23681142610630412 0 0 0 0 -14.33034246385796 1.3941343233584007 0 1.3941343233584007 0.78463237299055777 0 0 0 0 -13.30352301917091 2.8312908924813378 0 2.8312908924813378 1.3402314113250362 0 0 0 0 -12.48275084226043 -0.11193821768752289 0 -0.11193821768752289 2.6624664817367738 0 0 0 0 -3.2371408432592013 0.25365572329316421 0 0.25365572329316421 0.072232074979134961 0 0 0 0 -7.4722933517015928 2.7455210028640948 0 2.7455210028640948 0.6448559352860791 0 0 0 0 -14.313651708420366 0.20794365963189421 0 0.20794365963189421 -0.48925552199803235 0 0 0 0 -10.829900401802377 1.345901437270598 0 1.345901437270598 0.3238640796397434 0 0 0 0 -16.114681574959832 0.43509140825430848 0 0.43509140825430848 0.83928588120068071 0 0 0 0 -17.246010718474281 2.7451772113397794 0 2.7451772113397794 0.31062800376599142 0 0 0 0 -24.501188838639791 8.8907406996659688 0 8.8907406996659688 9.7400040950785183 0 0 0 0 -19.045001968329416 7.8261747387799652 0 7.8261747387799652 1.8506212049621524 0 0 0 0 -4.3772255341287458 -2.525176035626842 0 -2.525176035626842 0.71303712910502792 0 0 0 0 -37.228452506430585 -0.11118555364793536 0 -0.11118555364793536 7.0557924219157258 0 0 0 0 -25.032178115803816 3.2038672675581985 0 3.2038672675581985 0.72778873557206669 0 0 0 0 -15.021396774744062 -0.85281321439686053 0 -0.85281321439686053 -0.97754160569837723 0 0 0 0 -15.662585047255561 -1.8859270654803026 0 -1.8859270654803026 -2.1661117105570611 0 0 0 0 -5.8051277488747104 2.4607833109841479 0 2.4607833109841479 0.58718622778826024 0 0 0 0 -20.041786119803874 -5.3445562108700244 0 -5.3445562108700244 -0.11076970264097952 0 0 0 0 -2.79310098238102 2.7179124779682056 0 2.7179124779682056 1.3796299173531446 0 0 0 0 -52.404013377999945 -4.9041439239554165 0 -4.9041439239554165 5.2330390289625939 0 0 0 0 -32.954031000095711 -3.4688708105849173 0 -3.4688708105849173 -1.7462620102889446 0 0 0 0 -38.13799048313922 76.00078791169787 0 76.00078791169787 -29.888124350818316 0 0 0 0 29.448344568992979 82.685918548650307 0 82.685918548650307 -3.889154316095528 0 0 0 0 7.9209376052167499 -22.617676314896244 0 -22.617676314896244 16.461628800207379 0 0 0 0 -107.66940811699533 -64.733501493505457 0 -64.733501493505457 -27.007589955310195 0 0 0 0 -127.0509953239598 -44.754197683028281 0 -44.754197683028281 6.2179861857193828 0 0 0 0 -74.595266123749752 -54.718111775744717 0 -54.718111775744717 -4.4297467861451878 0 0 0 0 14.66874917387031 -11.283668295960808 0 -11.283668295960808 -79.921976372029462 0 0 0 0 -58.46678221737784 37.418183056155158 0 37.418183056155158 -0.5642130766605078 0 0 0 0 -86.742363985742486 61.510627589928191 0 61.510627589928191 20.296084052818742 0 0 0 0 0.075916965459857266 -2.4036709499126232 0 -2.4036709499126232 -0.99860511146990794 0 0 0 0 -45.106529748780304 3.3445194369221554 0 3.3445194369221554 -7.3368944816440944 0 0 0 0 -43.372281350673575 -0.96276515383037875 0 -0.96276515383037875 -1.62555180028221 0 0 0 0 -75.361764178654994 -8.6112392888510385 0 -8.6112392888510385 -3.2472762079246422 0 0 0 0 -0.526316493159392 -0.21606316027145311 0 -0.21606316027145311 -0.11787436338970236 0 0 0 0 11.979528220992506 3.2030779698773131 0 3.2030779698773131 16.845769981462411 0 0 0 0 83.973935791023905 47.918429361695843 0 47.918429361695843 -25.954719446933836 0 0 0 0 69.164862218207418 -1.1715902359914594 0 -1.1715902359914594 -28.210490540237515 0 0 0 0 -68.744234760837571 -1.4776314538363522 0 -1.4776314538363522 6.3622588922726209 0 0 0 0 -68.708070529937686 -0.39770690976456535 0 -0.39770690976456535 -0.45892348452161968 0 0 0 0 -0.83961535043178515 0.10403714410821863 0 0.10403714410821863 0.13438739569621383 0 0 0 0 -49.919648796298134 -8.1502457217073925 0 -8.1502457217073925 -7.2103765291317359 0 0 0 0 -44.091816105879843 7.1648648591726101 0 7.1648648591726101 -6.7047064275845969 0 0 0 0 -1.5716170973137196 -18.428804249711902 0 -18.428804249711902 12.548714866068735 0 0 0 0 -1.1289143432113633 0.91775086948803164 0 0.91775086948803164 22.693252390610951 0 0 0 0 -71.737714321061503 -2.9538872514990544 0 -2.9538872514990544 17.652545744093686 0 0 0 0 0.098901943364392508 -0.070755781732572132 0 -0.070755781732572132 0.0070582678461663662 0 0 0 0 47.156100422424061 -3.2059694761253468 0 -3.2059694761253468 -3.4900673488955363 0 0 0 0 -119.60852288843853 21.283703795993802 0 21.283703795993802 16.452433267574634 0 0 0 0 -12.803362265047326 2.7379723450129063 0 2.7379723450129063 1.5205726373760626 0 0 0 0 -35.524033737921854 -6.5699714779034366 0 -6.5699714779034366 -8.1201985305701783 0 0 0 0 -24.480449834267347 -24.22386328591017 0 -24.22386328591017 13.175334529685188 0 0 0 0 -39.205250645103661 8.8971606525923335 0 8.8971606525923335 17.576760922696451 0 0 0 0 -45.728723600992453 39.459577268451625 0 39.459577268451625 -42.432458278325385 0 0 0 0 -44.16200364092947 56.352471532393281 0 56.352471532393281 -14.455595535972293 0 0 0 0 -82.68833334973715 -35.041578016669519 0 -35.041578016669519 78.734317449215155 0 0 0 0 -2.9988894394150094 -1.3240544345518401 0 -1.3240544345518401 -0.45408507136198262 0 0 0 0 26.661914251908456 -39.811650567664799 0 -39.811650567664799 -20.583274954157105 0 0 0 0 23.682597324452217 -42.405337056705207 0 -42.405337056705207 38.390371261320865 0 0 0 0 0.58709789667773293 -9.6840665507509129 0 -9.6840665507509129 31.179435394079263 0 0 0 0 -3.3875454294399105 -1.6131706841762892 0 -1.6131706841762892 -0.57773534139885507 0 0 0 0 1.018255200880958 -68.1276196571757 0 -68.1276196571757 44.336318939490525 0 0 0 0 19.409218784672703 6.8371209823413324 0 6.8371209823413324 -21.566759885581405 0 0 0 0 12.053602938207405 6.1517047052246596 0 6.1517047052246596 -18.134180293657209 0 0 0 0 13.904821879263181 -31.225561540113461 0 -31.225561540113461 -68.625994642991145 0 0 0 0 -2.0983934374307864 35.242105459207778 0 35.242105459207778 -60.76299105882002 0 0 0 0 -31.23663247404329 22.239045255388742 0 22.239045255388742 6.5090875283040077 0 0 0 0 -9.4985958954275702 12.225692714720935 0 12.225692714720935 -2.5920427592702708 0 0 0 0 8.5712951171444729 7.3831884526681506 0 7.3831884526681506 -0.59586059748778553 0 0 0 0 -1.2797531706055452 22.282865180050806 0 22.282865180050806 -18.139776381798583 0 0 0 0 4.0052054815732845 -2.8553756536939829 0 -2.8553756536939829 -21.917748602299525 0 0 0 0 -6.0725436942921078 16.301294498792402 0 16.301294498792402 -6.1064706582265558 0 0 0 0 -9.9404544071185228 -41.580643615432962 0 -41.580643615432962 -14.101553091596315 0 0 0 0 -1.3288430187327549 -0.44031111911377252 0 -0.44031111911377252 -0.12156287182662529 0 0 0 0 15.498085223710405 -12.727589657511459 0 -12.727589657511459 20.370371023911389 0 0 0 0 -1495.5411437105067 -557.75771192574894 0 -557.75771192574894 -260.67145687919395 0 0 0 0 -269.57724058637541 -45.718105602134088 0 -45.718105602134088 -47.639127857910466 0 0 0 0 83.025612019875553 -93.184898033277221 0 -93.184898033277221 -65.883078535142374 0 0 0 0 -220.67033867614191 32.496014317697345 0 32.496014317697345 -53.253744171661538 0 0 0 0 -1497.7822760140843 55.050902268039209 0 55.050902268039209 223.17282168029112 0 0 0 0 -742.1668611973364 -113.35277004548354 0 -113.35277004548354 -0.42773542305725271 0 0 0 0 -998.41609889211395 -606.44467779197612 0 -606.44467779197612 -352.96762058447621 0 0 0 0 -1473.0056286399119 -5.4332208852660733 0 -5.4332208852660733 1.4026231148939443 0 0 0 0 -209.31598452820617 315.01414572620808 0 315.01414572620808 229.05036284762568 0 0 0 0 -3.1376457102575728 -0.39098973630571621 0 -0.39098973630571621 0.18028326261710895 0 0 0 0 -3.3945481626980154 -0.48673604666711334 0 -0.48673604666711334 0.049388947434011406 0 0 0 0 -1495.1885371195731 -383.35114453189465 0 -383.35114453189465 231.11016734184349 0 0 0 0 0.36419498388482907 0.53510025820401808 0 0.53510025820401808 0.19384413083482147 0 0 0 0 11.593048072099918 -44.546439454785151 0 -44.546439454785151 -124.75117762637424 0 0 0 0 -20.808210101356963 30.240781012423099 0 30.240781012423099 -27.853685588534972 0 0 0 0 -18.703106803885021 -128.82602459688735 0 -128.82602459688735 131.05107881432184 0 0 0 0 26.630267165837722 -40.004938090129407 0 -40.004938090129407 117.13628751397584 0 0 0 0 -7.9289899880609198 -0.87072542924950191 0 -0.87072542924950191 1.2916268347212707 0 0 0 0 -3.2028984987409785 0.066689453458472769 0 0.066689453458472769 8.0287322070414895 0 0 0 0 -7.0196449138141475 -2.5759745298263503 0 -2.5759745298263503 0.92252238987403756 0 0 0 0 -6.2399589221334963 2.1591491383588277 0 2.1591491383588277 2.0513636269861202 0 0 0 0 -30.61744842036569 -41.592382598144496 0 -41.592382598144496 512.21562300024016 0 0 0 0 20.43070702937257 -16.515081967473215 0 -16.515081967473215 1.5331073400955226 0 0 0 0 -0.50057093466602964 -5.7740937662583818 0 -5.7740937662583818 -6.6430072883134557 0 0 0 0 -1.7873208509053597 -0.9542591209653537 0 -0.9542591209653537 -0.20095244669296447 0 0 0 0 9.3860309092415264 -26.770692368746786 0 -26.770692368746786 15.776635315087916 0 0 0 0 -57.704586219915655 -188.76441091039041 0 -188.76441091039041 221.11403149579405 0 0 0 0 -7.2004268954060109 -2.4804418093693705 0 -2.4804418093693705 -0.68415045117302209 0 0 0 0 -75.153775165395928 -15.474501835742155 0 -15.474501835742155 25.662880221607839 0 0 0 0 -0.25516779725171546 -0.61500225020346377 0 -0.61500225020346377 0.21426751882062928 0 0 0 0 -86.974306458607316 -12.006468288238691 0 -12.006468288238691 -37.153237877594236 0 0 0 0 -102.86396748217521 37.134836469953662 0 37.134836469953662 21.89004782264702 0 0 0 0 0.014514766791052125 -0.040037612165139791 0 -0.040037612165139791 0.022619108568183052 0 0 0 0 18.615589986740815 22.127770685901805 0 22.127770685901805 0.067557474961544822 0 0 0 0 47.557912549236789 9.3596963693979376 0 9.3596963693979376 -34.771994564565716 0 0 0 0 -0.64279455814826747 0.20694324959908172 0 0.20694324959908172 -0.026227998820310697 0 0 0 0 -143.64364359836327 -41.566663693544584 0 -41.566663693544584 -36.454126956721169 0 0 0 0 25.443393805886444 -10.126321707074037 0 -10.126321707074037 -48.68004547715465 0 0 0 0 42.8219286440617 -177.12963458113455 0 -177.12963458113455 16.029477086455003 0 0 0 0 -45.455639664236514 28.484805662020875 0 28.484805662020875 56.287205432997666 0 0 0 0 -34.091159569183219 -107.41952697811323 0 -107.41952697811323 -220.09789068861738 0 0 0 0 -14.248663698299112 1.8525188442064469 0 1.8525188442064469 -0.29249876639338623 0 0 0 0 75.698880114374333 81.641751245370358 0 81.641751245370358 -41.549575787814902 0 0 0 0 -31.019184735510862 29.661624143976486 0 29.661624143976486 80.337250588157261 0 0 0 0 -10.915957691599033 41.879315320453962 0 41.879315320453962 54.644917474252267 0 0 0 0 -23.916790527723407 3.7921256938811698 0 3.7921256938811698 -0.46893016816973643 0 0 0 0 68.483275381566273 81.890944672585931 0 81.890944672585931 -62.221818287765799 0 0 0 0 -2.8570520306951721 1.0543638834049407 0 1.0543638834049407 -0.27948066608984351 0 0 0 0 -216.4958241969216 -29.589362957444308 0 -29.589362957444308 154.99496138558311 0 0 0 0 67.475833057174896 -42.166494357747382 0 -42.166494357747382 -86.968848281498254 0 0 0 0 -626.66109941183822 216.5028596299382 0 216.5028596299382 -26.005331400312983 0 0 0 0 -115.5233799040725 -49.013779434107136 0 -49.013779434107136 55.157722129298236 0 0 0 0 -31.73833028598925 5.3742450558505066 0 5.3742450558505066 0.28628538795612757 0 0 0 0 76.134057376693818 -45.403295063077294 0 -45.403295063077294 27.42576831126793 0 0 0 0 -137.20201580695721 23.159083219257425 0 23.159083219257425 96.511611565216668 0 0 0 0 -284.48198690012214 19.310991158191293 0 19.310991158191293 97.414821652830398 0 0 0 0 -172.6339891909156 -26.236623632588248 0 -26.236623632588248 85.308666112617118 0 0 0 0 421.69179438156425 -102.11972662168955 0 -102.11972662168955 -74.552999864696858 0 0 0 0 -218.3064487024094 98.425073628243723 0 98.425073628243723 -20.930754821057604 0 0 0 0 -2.3603740020302268 -1.4991353122827249 0 -1.4991353122827249 -0.83920997672452602 0 0 0 0 -293.75704286651762 73.199285792755674 0 73.199285792755674 78.990042999787519 0 0 0 0 -150.56484115232888 47.837716407552222 0 47.837716407552222 -16.891333881022337 0 0 0 0 -223.69290075343451 17.055689758083481 0 17.055689758083481 48.328346233525849 0 0 0 0 -233.49297993093205 26.30938931740323 0 26.30938931740323 41.392608405696826 0 0 0 0 -218.70075349655963 27.45684380237185 0 27.45684380237185 26.560330387079063 0 0 0 0 -244.25768096400134 -7.0610256826329447 0 -7.0610256826329447 46.026005874090799 0 0 0 0 -174.96848232809134 20.209242261088377 0 20.209242261088377 18.71366265915773 0 0 0 0 -212.41021288647607 -53.93726352805529 0 -53.93726352805529 -0.6049442017438833 0 0 0 0 -112.93127018801533 73.767707462940578 0 73.767707462940578 -107.73732540639651 0 0 0 0 -0.72709379566228449 0.22319048293917199 0 0.22319048293917199 -0.055287593227737165 0 0 0 0 -229.6338677935928 -35.342171366525548 0 -35.342171366525548 -1.3698899530228204 0 0 0 0 6.5567153948359191 1.0518913226656335 0 1.0518913226656335 -0.0039651575855719282 0 0 0 0 -237.74054298240662 27.331037411921429 0 27.331037411921429 76.935098773904883 0 0 0 0 -153.48192597109301 -4.7585853109175531 0 -4.7585853109175531 41.279510279399403 0 0 0 0 -143.87220598088606 -28.504894597426439 0 -28.504894597426439 71.654726405761295 0 0 0 0 -34.201869045864441 73.404721170170404 0 73.404721170170404 75.837008853092811 0 0 0 0 14.928754314739763 59.113081143084919 0 59.113081143084919 1.930801108091373 0 0 0 0 6.7049572073010495 1.1276917826496797 0 1.1276917826496797 0.0057679897711001449 0 0 0 0 3.0847426881737192 -28.569020810690716 0 -28.569020810690716 -22.185388208863124 0 0 0 0 1.0039439715110348 21.492910144494886 0 21.492910144494886 -62.020375074723987 0 0 0 0 -2.1025927477794539 0.26004771637014557 0 0.26004771637014557 0.046869983395569234 0 0 0 0 -45.718501785988337 -10.706865224086979 0 -10.706865224086979 5.3609090571952382 0 0 0 0 -9.7071725732312188 26.594728147698831 0 26.594728147698831 7.9004704599683748 0 0 0 0 -30.804008818064176 11.073226432248617 0 11.073226432248617 31.372019367391204 0 0 0 0 -29.029373273835517 12.426342838385295 0 12.426342838385295 10.629319198073794 0 0 0 0 -26.283248524651611 2.6544388511431727 0 2.6544388511431727 0.94479236245530296 0 0 0 0 -25.974298332053877 4.6861783890680044 0 4.6861783890680044 8.7250439235127715 0 0 0 0 -39.187588119886641 -3.596451235026251 0 -3.596451235026251 16.856281419024867 0 0 0 0 -9.1138301331777818 -0.22362979838665353 0 -0.22362979838665353 0.86273523270890362 0 0 0 0 220.17715169096482 62.447366711567994 0 62.447366711567994 -17.550253083090162 0 0 0 0 -20.261118959027954 5.3169428063856117 0 5.3169428063856117 3.2628849935160815 0 0 0 0 -25.254957050216035 4.27286633592567 0 4.27286633592567 6.8723341466584316 0 0 0 0 -6.6555702261926903 -4.0772260825345796 0 -4.0772260825345796 5.3099216908501159 0 0 0 0 -27.303763226316732 7.209754141820639 0 7.209754141820639 3.9528519594753107 0 0 0 0 -27.601324466842925 -0.65967698868234947 0 -0.65967698868234947 -1.0924659586113421 0 0 0 0 -27.153289147742271 1.1507132700890637 0 1.1507132700890637 -7.0707602451725506 0 0 0 0 -27.268253746478877 -2.6826164884910213 0 -2.6826164884910213 3.9982362166041412 0 0 0 0 -40.095337618491612 -3.6154239545812743 0 -3.6154239545812743 -1.069814141022789 0 0 0 0 -43.0170341942287 4.8537986623802176 0 4.8537986623802176 2.6742462897468613 0 0 0 0 1.4232050351315042 -3.6604626793894326 0 -3.6604626793894326 4.8896958606935792 0 0 0 0 -11.007574186667625 -3.6710113596905103 0 -3.6710113596905103 -0.88727948368432408 0 0 0 0 -5.088578161859914 0.49590593752435552 0 0.49590593752435552 -3.0224464961497688 0 0 0 0 -11.676995422492837 -6.1881960197994914 0 -6.1881960197994914 10.032608142349318 0 0 0 0 -12.212764108309329 -1.4014495791157486 0 -1.4014495791157486 -5.1221817839457344 0 0 0 0 -24.290409404042293 -6.2868585038903575 0 -6.2868585038903575 -6.4344343084424054 0 0 0 0 -45.45057409722358 2.07820474944333 0 2.07820474944333 2.6937754417476754 0 0 0 0 -24.624331589133362 -10.485740143490375 0 -10.485740143490375 11.432240691700031 0 0 0 0 -36.456935284950305 -16.098932041856187 0 -16.098932041856187 2.3527200326645925 0 0 0 0 2.6749616617416905 -13.652693825923052 0 -13.652693825923052 2.9824265495413371 0 0 0 0 -28.750934094136028 -2.5705798621406188 0 -2.5705798621406188 2.6420844761830722 0 0 0 0 4.4189040299679618 -3.6239908935137919 0 -3.6239908935137919 7.3289874231352314 0 0 0 0 -2.9313088587296079 -22.753662011342726 0 -22.753662011342726 13.08440201817848 0 0 0 0 -0.14639455604304885 -1.1860770102465876 0 -1.1860770102465876 1.1901733900302682 0 0 0 0 -4.578074909724819 -14.52272947128489 0 -14.52272947128489 -4.2236319804987943 0 0 0 0 -13.988171525848884 -3.1465866464526471 0 -3.1465866464526471 16.382285860340176 0 0 0 0 0.2332790959153499 -3.7850826185748474 0 -3.7850826185748474 4.1460690921832111 0 0 0 0 -18.685499283674289 -5.3994229480330063 0 -5.3994229480330063 29.742531482146376 0 0 0 0 -7.3085373629716486 -0.81959954713985628 0 -0.81959954713985628 1.8879589140263635 0 0 0 0 -11.333673013054067 -12.601558988594618 0 -12.601558988594618 -2.7131169779266884 0 0 0 0 -7.0367500652027957 -7.6133590788425352 0 -7.6133590788425352 2.9528785604411212 0 0 0 0 -0.10057491424113252 -3.7993295845208266 0 -3.7993295845208266 5.4500404659869925 0 0 0 0 -1.8935980882230012 -6.9602481057154719 0 -6.9602481057154719 6.524239005422821 0 0 0 0 -3.6518653336897842 -11.506019502138869 0 -11.506019502138869 1.6610549451470433 0 0 0 0 1.7805393674394452 -0.98847104186858559 0 -0.98847104186858559 -0.16149957233750417 0 0 0 0 -20.688881246347592 5.1528873435979747 0 5.1528873435979747 -7.5990748708564411 0 0 0 0 -6.6659898144134786 -9.4312191218318446 0 -9.4312191218318446 -29.568140706711773 0 0 0 0 -7.4562833503005095 7.4544792924158969 0 7.4544792924158969 -41.307537816564135 0 0 0 0 -6.3360049467883073 4.2885262402673696 0 4.2885262402673696 -47.251839371782665 0 0 0 0 -1.8600086791171115 0.92812651664661416 0 0.92812651664661416 0.23287767552308314 0 0 0 0 -23.970372799172765 22.351882248230339 0 22.351882248230339 -23.920255082975046 0 0 0 0 -17.237622032218496 -0.23613700721136865 0 -0.23613700721136865 -6.8667300978012236 0 0 0 0 -29.58635690189476 19.329971286823259 0 19.329971286823259 48.203491809462548 0 0 0 0 -6.7381222556359717 35.272607090941968 0 35.272607090941968 -89.304638803939099 0 0 0 0 -11.391180639802769 -6.080407751597491 0 -6.080407751597491 -47.763826969506155 0 0 0 0 -8.1890227420226438 4.7921583358417479 0 4.7921583358417479 -36.468521360897569 0 0 0 0 -11.912819965873496 -26.701221677364259 0 -26.701221677364259 3.466894219017874 0 0 0 0 10.35031626275304 -19.582927557740618 0 -19.582927557740618 -31.908023717263085 0 0 0 0 -6.5503903269491275 -13.224715327979155 0 -13.224715327979155 -10.387781515196991 0 0 0 0 -7.2068024641030206 -17.816654008117546 0 -17.816654008117546 -41.814945833625131 0 0 0 0 -9.9001401827190421 -53.842136482329828 0 -53.842136482329828 -48.658557923663693 0 0 0 0 -32.677762755578442 -40.699248066761754 0 -40.699248066761754 26.839095280840183 0 0 0 0 -9.4813108618400292 -49.826349170338432 0 -49.826349170338432 -10.218781412848481 0 0 0 0 -30.767633707910136 -15.660003541049633 0 -15.660003541049633 27.728480567363647 0 0 0 0 -70.210213260943419 -15.586165467113403 0 -15.586165467113403 28.51907359953789 0 0 0 0 24.477824980367586 41.871515561286735 0 41.871515561286735 9.8701711920787147 0 0 0 0 -121.26135046870331 87.675107020137517 0 87.675107020137517 16.34987803487391 0 0 0 0 -175.42498713139776 -56.03290211177864 0 -56.03290211177864 54.309922798319008 0 0 0 0 -61.033170780166984 -83.041246928821693 0 -83.041246928821693 27.050352419730132 0 0 0 0 -51.471701471346023 -82.509246539034521 0 -82.509246539034521 46.034475084057931 0 0 0 0 -54.494996917159369 -39.334978900264119 0 -39.334978900264119 55.341316394419096 0 0 0 0 -59.620294858374109 -52.403189391432505 0 -52.403189391432505 28.083867400152723 0 0 0 0 46.049670182079126 31.765174461386479 0 31.765174461386479 156.35927970766784 0 0 0 0 40.725036046671448 -61.312663962219574 0 -61.312663962219574 17.98431391130157 0 0 0 0 -21.044298869208433 -58.359502806294245 0 -58.359502806294245 40.910649629667887 0 0 0 0 4.0593247041106224 -82.844101969701171 0 -82.844101969701171 22.839411970001208 0 0 0 0 -118.14913088033063 -18.89144089373292 0 -18.89144089373292 411.29898090551308 0 0 0 0 -7.8579718057881109 -233.58275905937609 0 -233.58275905937609 256.25507214119079 0 0 0 0 -7.800022477139521 2.7430428255666026 0 2.7430428255666026 -0.41756657092510163 0 0 0 0 -0.39268370198260527 -40.084830156146566 0 -40.084830156146566 -26.730961359405057 0 0 0 0 -76.879124695657083 88.869459246935662 0 88.869459246935662 -190.76694115487604 0 0 0 0 -186.69487072115589 -17.330530159006791 0 -17.330530159006791 -13.706988874420491 0 0 0 0 -40.591213879066345 -125.12938212435606 0 -125.12938212435606 -112.83295119086455 0 0 0 0 2.8874292957334546 -90.362292743080175 0 -90.362292743080175 8.6946867952229496 0 0 0 0 8.679264728569251 -59.941079204348924 0 -59.941079204348924 -36.339378282413861 0 0 0 0 -56.167176085931715 -131.09733937571997 0 -131.09733937571997 91.930708531266191 0 0 0 0 11.531265042342056 4.9719271623286971 0 4.9719271623286971 -150.73518124157079 0 0 0 0 7.0569846369326115 -9.9382275320497016 0 -9.9382275320497016 -39.94349777577294 0 0 0 0 -5.905400370059894 1.0269377247243434 0 1.0269377247243434 -0.25748316251907732 0 0 0 0 -42.196719986692187 -41.048543230256001 0 -41.048543230256001 -15.804020043732059 0 0 0 0 29.288169894116436 26.520329690433478 0 26.520329690433478 -166.93674482915628 0 0 0 0 -253.12507094831744 265.70592719489355 0 265.70592719489355 -222.84450074266243 0 0 0 0 -2.620601516942358 0.47376342675248839 0 0.47376342675248839 -0.23178475199368792 0 0 0 0 -787.35323846375104 112.44460675242802 0 112.44460675242802 -32.141225333778884 0 0 0 0 -672.86696716711594 184.21282787766427 0 184.21282787766427 -49.4667385849881 0 0 0 0 -266.51989042527566 -137.68069519986636 0 -137.68069519986636 -101.61817137613571 0 0 0 0 -904.71473145508571 530.2456965273401 0 530.2456965273401 -92.085597113905891 0 0 0 0 -606.49137780139063 279.41722242481836 0 279.41722242481836 -193.19923782301345 0 0 0 0 -816.48813123980653 191.6789073303085 0 191.6789073303085 -224.93872167187158 0 0 0 0 -1500.0422295379394 311.28805336203033 0 311.28805336203033 126.37674186560155 0 0 0 0 -1037.0287248684326 56.158333601544044 0 56.158333601544044 114.15469332753088 0 0 0 0 -981.51381683907675 408.1005512298857 0 408.1005512298857 107.61481452652981 0 0 0 0 -1497.0679096729546 638.14475904602045 0 638.14475904602045 76.376167223373031 0 0 0 0 -1026.2695533075967 840.88357573496683 0 840.88357573496683 -234.64925861742856 0 0 0 0 -623.68453584858071 421.20564229980812 0 421.20564229980812 -90.684728482671005 0 0 0 0 -259.32753181480803 126.48386370224716 0 126.48386370224716 -106.00112074272965 0 0 0 0 -351.15449111712496 522.45710505670434 0 522.45710505670434 -300.11679957134078 0 0 0 0 138.65374019712908 254.62627349601485 0 254.62627349601485 -312.98329591659393 0 0 0 0 -25.953876067504098 -89.211863121485635 0 -89.211863121485635 15.675110529416138 0 0 0 0 251.99982723890571 -106.6845762243936 0 -106.6845762243936 -188.68258110000332 0 0 0 0 -5.2684607641536161 0.063854743044169382 0 0.063854743044169382 -0.33074467671232899 0 0 0 0 -426.80150923133624 601.87408182929744 0 601.87408182929744 -435.61468785963194 0 0 0 0 -1471.0292431692942 222.19741134887235 0 222.19741134887235 88.445577144671745 0 0 0 0 -4.6133366414858443 2.4581998781781493 0 2.4581998781781493 -0.85718194505682821 0 0 0 0 -6.2317070472469709 -1.7991982681696363 0 -1.7991982681696363 -1.3271311169063846 0 0 0 0 -513.34877769081504 -648.52423530780902 0 -648.52423530780902 -597.47705057540986 0 0 0 0 -1497.7804591185813 677.18668231359629 0 677.18668231359629 -39.743263522823405 0 0 0 0 -14.360824449307344 -5.7833566985011657 0 -5.7833566985011657 -0.82315159594132314 0 0 0 0 -1.2947735960078717 37.672353074198895 0 37.672353074198895 60.749748418242461 0 0 0 0 -4.3830710589471877 1.032531701118323 0 1.032531701118323 4.0530459627671798 0 0 0 0 -54.352519382617174 94.869438355774307 0 94.869438355774307 -0.19078128514547643 0 0 0 0 0.0093545632427307623 -0.16427764370793341 0 -0.16427764370793341 0.26677800923112649 0 0 0 0 316.89304008961335 -321.23968206939685 0 -321.23968206939685 -32.726473648866602 0 0 0 0 -858.57078350031952 -459.53332998332985 0 -459.53332998332985 -315.12476207737325 0 0 0 0 50.396033107655967 59.21845764594255 0 59.21845764594255 31.914175556027061 0 0 0 0 -1023.6113104261131 -355.63220028006162 0 -355.63220028006162 219.79884816117982 0 0 0 0 -1497.4789470793148 -768.92738683663003 0 -768.92738683663003 27.028283394618906 0 0 0 0 -826.34190960000706 -343.66571395581775 0 -343.66571395581775 202.44103846401632 0 0 0 0 -895.52485501357296 -33.753059484777992 0 -33.753059484777992 125.09746845564705 0 0 0 0 -1499.9272308553625 -196.32111155904175 0 -196.32111155904175 251.83006481370015 0 0 0 0 -374.91449213533269 -44.030287580153811 0 -44.030287580153811 -7.5321324824190583 0 0 0 0 -878.33292326340597 -39.982178423886936 0 -39.982178423886936 21.880580192101377 0 0 0 0 -869.64340902548429 -178.45580169135974 0 -178.45580169135974 75.733761044632871 0 0 0 0 -205.00129294219505 -318.36696965759421 0 -318.36696965759421 32.753955730400293 0 0 0 0 -248.72847484418116 93.369233852863999 0 93.369233852863999 24.705385026456042 0 0 0 0 -210.30916917148716 82.753544943880854 0 82.753544943880854 -32.831510696367729 0 0 0 0 -307.95648730844187 139.90933015978842 0 139.90933015978842 17.661726351279952 0 0 0 0 -441.06675639324385 28.8218065494776 0 28.8218065494776 -25.754549471209735 0 0 0 0 -333.52124883952456 66.479101995408058 0 66.479101995408058 -73.484017083987112 0 0 0 0 -281.78043828904265 140.11855966235942 0 140.11855966235942 -61.131339305979083 0 0 0 0 -429.5523224117569 145.38884494371817 0 145.38884494371817 -35.424634911276307 0 0 0 0 -88.350557330108131 32.438454194615225 0 32.438454194615225 -70.049738917753913 0 0 0 0 -137.10831349850923 159.82843395107369 0 159.82843395107369 -148.73816399275555 0 0 0 0 -119.2389015253284 79.002013933719255 0 79.002013933719255 -71.864233951215567 0 0 0 0 -45.02339663492603 43.028636522064708 0 43.028636522064708 -89.92102962179851 0 0 0 0 -194.56392950681038 66.784223118543281 0 66.784223118543281 -12.873071753856152 0 0 0 0 -192.52856332623924 73.090550494567225 0 73.090550494567225 -21.933626118273764 0 0 0 0 -318.69940458604833 129.36469024574794 0 129.36469024574794 16.315129856185607 0 0 0 0 -221.68190179409066 28.201296978347088 0 28.201296978347088 83.007710739385232 0 0 0 0 -119.89778369717533 25.123267029982514 0 25.123267029982514 -3.1191403744884951 0 0 0 0 -171.45698421311681 58.16649978567321 0 58.16649978567321 19.030185894488113 0 0 0 0 -245.22974878657897 59.881815944485197 0 59.881815944485197 79.529324716214546 0 0 0 0 -229.01948047306541 -48.245844249683763 0 -48.245844249683763 157.11921421670127 0 0 0 0 93.046146391207003 275.18426279883761 0 275.18426279883761 -1207.3602292936432 0 0 0 0 -239.80554520538135 -104.59768109676187 0 -104.59768109676187 346.21880520994705 0 0 0 0 -28.522136898944154 -109.90124568323347 0 -109.90124568323347 172.65827670732426 0 0 0 0 -4.0621557187430426 3.7053305911401013 0 3.7053305911401013 2.5280594472533422 0 0 0 0 -572.57774257022538 85.967776043722651 0 85.967776043722651 259.77226875169612 0 0 0 0 -361.10587915836004 312.44576891404472 0 312.44576891404472 -152.40251757788718 0 0 0 0 -151.22201420103374 130.41864056333984 0 130.41864056333984 3.0430634378070351 0 0 0 0 -192.71142988436623 13.138022051738318 0 13.138022051738318 81.325049392620684 0 0 0 0 -13.040015117599978 -134.98162140511613 0 -134.98162140511613 156.7126401699812 0 0 0 0 -52.63416137592867 -46.690526929119187 0 -46.690526929119187 -310.34806991000289 0 0 0 0 103.32981064652995 -188.20623128464501 0 -188.20623128464501 87.028962417549167 0 0 0 0 5.5548621900452417 -242.11143347754285 0 -242.11143347754285 127.80000434602152 0 0 0 0 62.388570334733231 -208.06788118990431 0 -208.06788118990431 2.9864252737884271 0 0 0 0 -80.135859029993298 13.168279515298451 0 13.168279515298451 -43.292151637713346 0 0 0 0 -0.27935133990831673 -158.86516464696331 0 -158.86516464696331 90.076479350705313 0 0 0 0 36.694651046345825 -89.696399817248562 0 -89.696399817248562 200.35821890090347 0 0 0 0 -23.245420477920561 9.7624940150830071 0 9.7624940150830071 94.281613475776112 0 0 0 0 -24.587943382546655 -182.02865487532631 0 -182.02865487532631 334.23456001215482 0 0 0 0 -40.600316904936335 -0.46955746923958941 0 -0.46955746923958941 368.69302773685212 0 0 0 0 -18.505815561002237 -107.41791083119324 0 -107.41791083119324 318.89644418991679 0 0 0 0 -300.1844527550129 -61.997096489669218 0 -61.997096489669218 330.43130223103401 0 0 0 0 -7.5422993014203215 -5.3427703251202701 0 -5.3427703251202701 1.4244999107046334 0 0 0 0 25.298467994536622 222.11596945419478 0 222.11596945419478 184.02672231534029 0 0 0 0 -201.9481511019294 67.056425713857152 0 67.056425713857152 -11.542585842774315 0 0 0 0 -314.696580437796 336.4562393616373 0 336.4562393616373 179.14443592567636 0 0 0 0 -368.2592576033494 33.911405210224757 0 33.911405210224757 106.03964510993035 0 0 0 0 -671.81908105415641 594.04494664986896 0 594.04494664986896 -400.87981265406967 0 0 0 0 -0.8010973285312275 22.70949370392546 0 22.70949370392546 10.370714760331452 0 0 0 0 -620.61561145045562 -70.322568055332567 0 -70.322568055332567 -1.5010073017161858 0 0 0 0 -0.32751191441890626 6.757537059084985 0 6.757537059084985 7.7424709895958976 0 0 0 0 -166.30357739342435 300.91113802140671 0 300.91113802140671 -155.6798952521614 0 0 0 0 -204.9593393207906 284.44229865370528 0 284.44229865370528 -9.3475016319769111 0 0 0 0 -81.612037768543814 -63.908361222365329 0 -63.908361222365329 -679.27999207970697 0 0 0 0 -220.81041027085303 424.76251269300042 0 424.76251269300042 284.01489496639397 0 0 0 0 256.15595815348206 355.02098859769796 0 355.02098859769796 -373.35003894977467 0 0 0 0 -167.80649241132051 105.22591394081542 0 105.22591394081542 0.26897817532608315 0 0 0 0 -138.00687845930224 121.58801047800489 0 121.58801047800489 -38.339340884444027 0 0 0 0 -139.6024590160232 148.86221268363715 0 148.86221268363715 -108.00105630092185 0 0 0 0 -87.679738547180023 143.17075542716157 0 143.17075542716157 -218.29762142272261 0 0 0 0 -42.224100525269023 27.245080883442142 0 27.245080883442142 49.167079649573679 0 0 0 0 17.768918414159998 14.138253924087394 0 14.138253924087394 -36.222533728356211 0 0 0 0 -20.099627110653543 -3.5693429350399524 0 -3.5693429350399524 0.50607319570500064 0 0 0 0 -56.059872095866012 39.336755274086613 0 39.336755274086613 196.62444125606348 0 0 0 0 -45.89017604925175 -3.336524928551853 0 -3.336524928551853 175.7804354040058 0 0 0 0 -38.113043515346362 39.888711066814096 0 39.888711066814096 103.98267000792248 0 0 0 0 -29.881857083164505 33.988171313207431 0 33.988171313207431 104.44209036653035 0 0 0 0 -5.9640793501312146 13.185173602002806 0 13.185173602002806 63.846480815719019 0 0 0 0 -27.045149368175771 39.450424884855408 0 39.450424884855408 75.528086597252354 0 0 0 0 -22.833709300335613 46.285073676033221 0 46.285073676033221 56.491986849659725 0 0 0 0 -15.823055676417425 50.061765951448024 0 50.061765951448024 32.585726086228647 0 0 0 0 -33.37086953157268 50.501789118369857 0 50.501789118369857 68.139017057139711 0 0 0 0 -17.466989393993572 42.770811909567101 0 42.770811909567101 71.72361054394014 0 0 0 0 -9.1535322123672813 64.42432919448936 0 64.42432919448936 99.471564880084657 0 0 0 0 -2.4679217152879573 50.444333370564664 0 50.444333370564664 110.81328231979114 0 0 0 0 -25.374454399949173 55.339108612381665 0 55.339108612381665 105.0005443688238 0 0 0 0 -25.350207537747337 62.963072082847219 0 62.963072082847219 99.808015490942125 0 0 0 0 -18.485349983267952 79.3093996093599 0 79.3093996093599 176.44464627625592 0 0 0 0 -39.903663011584285 41.713560523421364 0 41.713560523421364 163.93340609327493 0 0 0 0 -26.891205819316383 56.0537862050341 0 56.0537862050341 144.9111446076372 0 0 0 0 -11.91299190040445 76.727143497429665 0 76.727143497429665 161.64838857843006 0 0 0 0 135.93747226295818 46.000208792531907 0 46.000208792531907 137.4029490384487 0 0 0 0 114.5441146188241 60.600370458053021 0 60.600370458053021 128.30738756753465 0 0 0 0 44.603002447693143 81.376490187954687 0 81.376490187954687 158.45801594572595 0 0 0 0 36.357325599936303 43.705245459516618 0 43.705245459516618 111.78162154914025 0 0 0 0 23.429147608374478 78.878142448694916 0 78.878142448694916 131.11374958975489 0 0 0 0 18.012442488514353 46.692492136445594 0 46.692492136445594 117.98701625314231 0 0 0 0 26.318036711658351 38.861308261656859 0 38.861308261656859 123.79346900345604 0 0 0 0 53.723927969986107 -113.74064291274181 0 -113.74064291274181 161.97861545931414 0 0 0 0 -19.512430928181857 -15.498546650706089 0 -15.498546650706089 130.77439459101825 0 0 0 0 88.409384245500405 -40.283550113790128 0 -40.283550113790128 134.7730239562336 0 0 0 0 179.99493259929295 -18.646692928070877 0 -18.646692928070877 124.76658289628745 0 0 0 0 -45.138868539390387 -14.422782093690444 0 -14.422782093690444 88.5058275489274 0 0 0 0 36.275120263075223 -1.5523010435258584 0 -1.5523010435258584 89.966306865238494 0 0 0 0 -18.49292471742956 46.845730083443016 0 46.845730083443016 69.127886732842398 0 0 0 0 -3.8050778510223608 28.43133086840362 0 28.43133086840362 90.814891910183007 0 0 0 0 27.945220012072241 51.992840877058256 0 51.992840877058256 104.65198964008482 0 0 0 0 -26.107744713983266 20.728054945092538 0 20.728054945092538 47.437221071259444 0 0 0 0 -69.284539430227596 16.058265469714399 0 16.058265469714399 58.487498289658902 0 0 0 0 -89.476694964134367 -6.0209839340768099 0 -6.0209839340768099 53.577202930826274 0 0 0 0 -67.282950312379398 50.004378867463885 0 50.004378867463885 27.757775291020096 0 0 0 0 -39.88665964770189 20.878172959860422 0 20.878172959860422 -5.3241145259756308 0 0 0 0 -14.391774942203483 41.103659653329231 0 41.103659653329231 9.144642894138201 0 0 0 0 -28.132481468404876 28.507290547674586 0 28.507290547674586 26.277577212370716 0 0 0 0 -37.280581162558519 43.234012352208879 0 43.234012352208879 7.2022065792885996 0 0 0 0 -18.704721390669874 29.396799296319131 0 29.396799296319131 6.662907738277454 0 0 0 0 -36.812373601300351 37.686982246489549 0 37.686982246489549 -50.461584884503623 0 0 0 0 -19.801135768982931 17.462838442114673 0 17.462838442114673 -26.700110832605393 0 0 0 0 -16.985766284829879 34.706974214159089 0 34.706974214159089 -28.389993591407915 0 0 0 0 -13.071719168525306 33.112530500032456 0 33.112530500032456 -40.562802220677384 0 0 0 0 -91.39088390688994 53.54252797228655 0 53.54252797228655 -20.73580373121905 0 0 0 0 -44.447814834216842 28.68090393176783 0 28.68090393176783 -44.342857595583354 0 0 0 0 -39.858268736352329 16.77828208323405 0 16.77828208323405 -57.060255843171227 0 0 0 0 -17.088030071012327 15.048564629727366 0 15.048564629727366 -62.756777911593801 0 0 0 0 -6.5398159007017966 9.8620081125927683 0 9.8620081125927683 -56.996135328978056 0 0 0 0 -13.057100131431071 23.274940112928636 0 23.274940112928636 -57.813237580231544 0 0 0 0 -18.80298878186295 22.735078195088438 0 22.735078195088438 -66.697557089152866 0 0 0 0 -4.0624980871916705 10.556066705967581 0 10.556066705967581 -69.508103321212175 0 0 0 0 -18.961322855466278 7.7395162191888929 0 7.7395162191888929 -46.278679115183586 0 0 0 0 -7.0308894311310723 12.670241293767287 0 12.670241293767287 -47.821261830600449 0 0 0 0 -2.1617991805142083 0.60354846276073637 0 0.60354846276073637 -52.925814468557775 0 0 0 0 -3.4113983556162566 10.707047405079123 0 10.707047405079123 -59.059600752239824 0 0 0 0 -0.01035268692066893 23.033357160415989 0 23.033357160415989 -47.547923921868012 0 0 0 0 -6.2122322074283147 13.62935349717327 0 13.62935349717327 -44.823214708554758 0 0 0 0 -13.373709444531414 19.856622019296296 0 19.856622019296296 -31.696798057792904 0 0 0 0 2.3380384237025282 30.894069013213297 0 30.894069013213297 -28.806743022356812 0 0 0 0 -5.5158164326858241 17.544478011962511 0 17.544478011962511 -12.71502312315576 0 0 0 0 -9.8373319897946203 29.278043809772356 0 29.278043809772356 -8.9218839572154138 0 0 0 0 -6.6327760552667314 18.824521375610288 0 18.824521375610288 -20.97436989428877 0 0 0 0 -5.8697678788739722 36.255308913008889 0 36.255308913008889 -14.657472006438525 0 0 0 0 -8.2733074519055663 27.232937176028258 0 27.232937176028258 14.370388297300792 0 0 0 0 1.5046335677616298 29.754460123232832 0 29.754460123232832 -9.179760947605331 0 0 0 0 -6.0467363421339542 34.762696483872645 0 34.762696483872645 16.408030990092357 0 0 0 0 -16.153511138254544 28.726006987930134 0 28.726006987930134 49.455787028481154 0 0 0 0 -10.158700944073644 37.558920597243144 0 37.558920597243144 32.438054852983896 0 0 0 0 4.4557222688090405 24.870381297122123 0 24.870381297122123 21.240003257910189 0 0 0 0 -7.9466805310948985 33.632427708285718 0 33.632427708285718 18.339768209061276 0 0 0 0 -44.564622272515408 19.094241897570612 0 19.094241897570612 28.472654657946634 0 0 0 0 -13.958535168456365 9.2722912345021395 0 9.2722912345021395 -29.160091467983683 0 0 0 0 -15.76058238215046 22.19419193606106 0 22.19419193606106 22.46831984339326 0 0 0 0 -14.601627685886342 32.708338410908773 0 32.708338410908773 -46.057904550256389 0 0 0 0 -27.388251334057713 29.234177568898112 0 29.234177568898112 -45.61793316422326 0 0 0 0 -10.401794596467184 -2.6017196934833464 0 -2.6017196934833464 5.1834458481532195 0 0 0 0 0.78033149439943372 30.248694152676624 0 30.248694152676624 -46.780522351284226 0 0 0 0 -19.590277345332652 10.073989250052364 0 10.073989250052364 9.7947090096895408 0 0 0 0 -34.543909196995628 50.376054429408747 0 50.376054429408747 -19.384297802739468 0 0 0 0 -10.928416495022205 -2.1206955377415255 0 -2.1206955377415255 4.6699582096467838 0 0 0 0 -12.949964918996557 -9.2023602151616615 0 -9.2023602151616615 -0.32601851009349048 0 0 0 0 -26.517229430673609 -3.0993076696981463 0 -3.0993076696981463 -0.12403605283272034 0 0 0 0 -41.522484377474029 1.5627507572638706 0 1.5627507572638706 81.189842917434817 0 0 0 0 11.87055626034271 -14.026199020626109 0 -14.026199020626109 71.720557998179743 0 0 0 0 -13.12133727222681 28.747283704910956 0 28.747283704910956 31.348421436647868 0 0 0 0 -14.321680682156511 -29.13886668948453 0 -29.13886668948453 49.393814208032381 0 0 0 0 -75.427819790478679 -4.76454356324939 0 -4.76454356324939 121.1313881057747 0 0 0 0 -67.235091923645086 27.825203263838375 0 27.825203263838375 75.898961623706327 0 0 0 0 -34.466983629967217 16.341698605332795 0 16.341698605332795 -5.8182000774377229 0 0 0 0 -63.50381844538424 14.299584424882596 0 14.299584424882596 3.325735436931609 0 0 0 0 -62.899792598873319 83.885292521074689 0 83.885292521074689 -110.55264927783855 0 0 0 0 -107.66508660413456 73.587745091278521 0 73.587745091278521 24.823052046963539 0 0 0 0 -33.28065789700122 77.310156508702221 0 77.310156508702221 -40.118616064069215 0 0 0 0 -6.3999641332029569 1.0278396525924691 0 1.0278396525924691 4.7167974638493888 0 0 0 0 -76.376178884918772 41.171429195162091 0 41.171429195162091 20.843843011751687 0 0 0 0 -292.38678149119369 171.81146147783147 0 171.81146147783147 -49.507500614367473 0 0 0 0 243.60883912172721 276.58819659783467 0 276.58819659783467 -633.32430453794359 0 0 0 0 -242.08604586653382 -224.76565504445489 0 -224.76565504445489 192.45079024811912 0 0 0 0 -6.5868487519899048 0.47474675953638723 0 0.47474675953638723 0.61969452280371584 0 0 0 0 -139.8080070416363 -382.92053956984864 0 -382.92053956984864 -231.79305344177919 0 0 0 0 -78.415159116513678 -20.686196847363135 0 -20.686196847363135 1.7131625457450355 0 0 0 0 -61.015365059587566 21.026781976790971 0 21.026781976790971 42.852215384540614 0 0 0 0 -11.20225346820115 -3.1291697625986501 0 -3.1291697625986501 1.1589127412968008 0 0 0 0 -543.73758328266922 -10.128538791115034 0 -10.128538791115034 195.25910615262546 0 0 0 0 -376.24551288613293 -49.149745014454311 0 -49.149745014454311 140.62246405186306 0 0 0 0 -816.24805338391525 -196.07480805685645 0 -196.07480805685645 27.098790518097303 0 0 0 0 8.569918760949804 667.7096014580743 0 667.7096014580743 15.429899750080949 0 0 0 0 -627.75467195875535 291.49312632947476 0 291.49312632947476 212.92135534858608 0 0 0 0 -100.04459470492293 328.6643310135014 0 328.6643310135014 198.37502605881446 0 0 0 0 -369.32179288048064 32.930619901579121 0 32.930619901579121 142.69412993095466 0 0 0 0 -205.35812633411479 81.615140538691321 0 81.615140538691321 140.58922142843221 0 0 0 0 -291.65902021239526 174.74078534593218 0 174.74078534593218 107.78744667992942 0 0 0 0 -111.93276629741013 205.29098247819184 0 205.29098247819184 101.65856561931332 0 0 0 0 -30.251530839474981 109.78992973203356 0 109.78992973203356 120.39120449241818 0 0 0 0 -37.811444001593884 157.10842814341132 0 157.10842814341132 -212.41397763115674 0 0 0 0 -117.76171352082747 269.23345593683825 0 269.23345593683825 -122.57742630363464 0 0 0 0 -143.37123183375297 138.60230877614413 0 138.60230877614413 -26.19473233012468 0 0 0 0 -36.590602241424108 106.56172724313231 0 106.56172724313231 -19.946695933238516 0 0 0 0 -54.802610230159189 76.188844901516859 0 76.188844901516859 -57.059585132165921 0 0 0 0 -21.855526971521613 34.960811601629757 0 34.960811601629757 -6.5838567661048728 0 0 0 0 -102.53053090604226 59.69294621734025 0 59.69294621734025 6.2038781333467341 0 0 0 0 -51.061555708300148 21.610149655273744 0 21.610149655273744 25.33759058321084 0 0 0 0 -100.41424661300334 74.467181600476124 0 74.467181600476124 57.911837071185801 0 0 0 0 -196.57925465011067 63.307785129008153 0 63.307785129008153 56.716517527286442 0 0 0 0 -117.72567558916126 2.4984141452446238 0 2.4984141452446238 60.021858071429961 0 0 0 0 -150.14211359420733 -11.704081629544362 0 -11.704081629544362 55.079741861592993 0 0 0 0 -176.04671693824639 -43.731285844474769 0 -43.731285844474769 100.47081131601772 0 0 0 0 -99.923241219059491 22.04244543196728 0 22.04244543196728 29.293127209206432 0 0 0 0 -50.834143205276632 -4.6327055104065948 0 -4.6327055104065948 29.604194179847127 0 0 0 0 -42.36584938102169 12.927280130415966 0 12.927280130415966 23.937914456779254 0 0 0 0 -23.909894997050287 -3.7630061033460152 0 -3.7630061033460152 36.866955778938063 0 0 0 0 -12.942244872727315 3.2166239998614401 0 3.2166239998614401 18.026963272155626 0 0 0 0 -18.814270818103978 5.0861323751105374 0 5.0861323751105374 21.146662104442839 0 0 0 0 -24.019323918495502 14.21411290911692 0 14.21411290911692 8.0227239875266605 0 0 0 0 -16.073470390783768 15.431514154072374 0 15.431514154072374 4.6571301324320302 0 0 0 0 -50.708596007134474 20.664327145544121 0 20.664327145544121 11.270210538385982 0 0 0 0 -25.284410624040902 8.5262544210154374 0 8.5262544210154374 13.3650210501728 0 0 0 0 -22.92464634164935 20.921805026250695 0 20.921805026250695 6.5422425723154447 0 0 0 0 -41.927052414030186 16.158042619603975 0 16.158042619603975 21.987539742764056 0 0 0 0 -21.046083147236914 14.103709878650648 0 14.103709878650648 5.7344881845492637 0 0 0 0 -32.835214610331604 37.92493416275147 0 37.92493416275147 -0.66979965480049941 0 0 0 0 -29.809881580375077 28.153814635767048 0 28.153814635767048 30.465135962361273 0 0 0 0 0.20275554188152967 0.088015060195647976 0 0.088015060195647976 0.56267407365880118 0 0 0 0 -16.073948436713181 17.490448601045728 0 17.490448601045728 -17.968848003944004 0 0 0 0 -18.010184937396843 17.594408990715692 0 17.594408990715692 3.2232578083421686 0 0 0 0 -16.627152285655029 4.2428293621915145 0 4.2428293621915145 15.013683991759535 0 0 0 0 -11.198582742359577 12.117943666184942 0 12.117943666184942 0.49523774223598593 0 0 0 0 -17.612506259903967 17.2515951436786 0 17.2515951436786 9.1745455865766417 0 0 0 0 -37.009080234154681 3.7934424485306408 0 3.7934424485306408 -0.048358437548813527 0 0 0 0 -14.527486404811498 15.664727465560645 0 15.664727465560645 24.184753979803645 0 0 0 0 -29.110935641423566 5.3701792535930508 0 5.3701792535930508 17.942142962212529 0 0 0 0 -29.746731207244011 4.2124504069979594 0 4.2124504069979594 32.412629996608757 0 0 0 0 1.8268217308359453 10.272311678703772 0 10.272311678703772 22.25434549484271 0 0 0 0 19.666413715139811 -22.910534936357692 0 -22.910534936357692 28.809527678073209 0 0 0 0 18.847317189873138 -0.22359906397832674 0 -0.22359906397832674 19.51440450807786 0 0 0 0 -7.2349452407142962 -0.69328952369642138 0 -0.69328952369642138 24.603158368106961 0 0 0 0 -0.027585593757976312 6.3710088591560634 0 6.3710088591560634 13.961301144480785 0 0 0 0 -33.560132925515063 -29.237254612375182 0 -29.237254612375182 80.963916634189445 0 0 0 0 -17.985449892564944 -0.044677178218377911 0 -0.044677178218377911 1.1597633095452569 0 0 0 0 -2.148636301794312 -0.80622745674586405 0 -0.80622745674586405 -0.32867922481250211 0 0 0 0 93.67178373171464 290.80108784116112 0 290.80108784116112 59.305030927853295 0 0 0 0 -12.747107918687107 -8.3992332950269883 0 -8.3992332950269883 39.411012074446262 0 0 0 0 -63.418633551438688 -176.02081191749494 0 -176.02081191749494 -68.501537636048397 0 0 0 0 -54.353150904553331 -2.6665310044409125 0 -2.6665310044409125 82.87022765448819 0 0 0 0 -32.403585037172888 -2.5119467074873683 0 -2.5119467074873683 40.508990697455374 0 0 0 0 -9.6100083784549497 -31.261127855252198 0 -31.261127855252198 63.864083171465609 0 0 0 0 -178.77380888692278 82.673905612819908 0 82.673905612819908 -63.854563397663696 0 0 0 0 -137.29483792392057 209.27842336207596 0 209.27842336207596 -226.22526886610922 0 0 0 0 -66.37797729272279 119.24025203047586 0 119.24025203047586 -186.57354131174816 0 0 0 0 -143.0621909110705 151.37073054578741 0 151.37073054578741 -162.0859162184679 0 0 0 0 -114.13202203129913 116.98774181524868 0 116.98774181524868 -157.79992948783729 0 0 0 0 -90.589180224676966 131.10190585117471 0 131.10190585117471 -166.3548817928895 0 0 0 0 -24.821728958452454 -3.0805676452046979 0 -3.0805676452046979 2.0307499009429186 0 0 0 0 -11.495162216607952 1.0550424013053075 0 1.0550424013053075 2.5985112634423952 0 0 0 0 -149.98490700639377 40.846563473853621 0 40.846563473853621 -14.431104535575741 0 0 0 0 -101.23429734782258 -15.271242429751965 0 -15.271242429751965 -6.3547139738730039 0 0 0 0 -19.017676493829185 147.12645515271689 0 147.12645515271689 63.333743479989607 0 0 0 0 -58.238640853305697 70.128420414435823 0 70.128420414435823 -127.68579903238788 0 0 0 0 -71.505954033389571 95.073379733696129 0 95.073379733696129 -151.92960936064446 0 0 0 0 -153.26613825945242 89.547766025759302 0 89.547766025759302 -82.275576550048754 0 0 0 0 -91.143154061544919 40.903082498489198 0 40.903082498489198 -46.606032316241908 0 0 0 0 4.985355815042567 31.627495652537618 0 31.627495652537618 -146.19118801493278 0 0 0 0 -12.407871586940018 82.746266292695509 0 82.746266292695509 -167.41410036151501 0 0 0 0 -23.830737523254356 -1.0700196889019935 0 -1.0700196889019935 7.981434549016285 0 0 0 0 -157.6642526743658 52.812301568951085 0 52.812301568951085 -22.779465405757946 0 0 0 0 -22.910338276973562 -48.823734978599305 0 -48.823734978599305 148.58308947361729 0 0 0 0 50.712378022275516 -26.260770514205205 0 -26.260770514205205 46.388256023938993 0 0 0 0 -22.596113097713612 -2.0445040064554352 0 -2.0445040064554352 5.8610124916382524 0 0 0 0 -4.9870668755073666 -0.61930168101916649 0 -0.61930168101916649 1.1038332235230581 0 0 0 0 83.598852639966935 -149.58283481450349 0 -149.58283481450349 108.20604025074772 0 0 0 0 -13.235208265912661 2.8536089220215217 0 2.8536089220215217 1.3688905825357551 0 0 0 0 36.64930896187434 38.765609643870675 0 38.765609643870675 24.709590602360549 0 0 0 0 -127.81433150982775 -99.942284310110011 0 -99.942284310110011 -3.243713560683517 0 0 0 0 -13.343962385719351 -1.9384743133589382 0 -1.9384743133589382 2.7121350858456026 0 0 0 0 -12.872330497223871 -1.4844721359943343 0 -1.4844721359943343 5.2566799899533132 0 0 0 0 -21.078372943346039 -5.6648660215512336 0 -5.6648660215512336 5.6075640516653493 0 0 0 0 -10.380776208843308 -2.9020173301394721 0 -2.9020173301394721 4.4060585269986126 0 0 0 0 0.77613894507518921 -1.2695312597202921 0 -1.2695312597202921 0.057171538993043614 0 0 0 0 -30.697709524887614 -3.4609682440614051 0 -3.4609682440614051 12.147846239106002 0 0 0 0 -10.776047731249946 -1.6151425664094745 0 -1.6151425664094745 3.7874132962797078 0 0 0 0 -21.690106972950161 -1.1443666620052682 0 -1.1443666620052682 7.6808671761789356 0 0 0 0 -10.886086201200897 1.0128471114249749 0 1.0128471114249749 4.7308007014486568 0 0 0 0 7.1119486881634657 25.067220482172022 0 25.067220482172022 -69.454902111305387 0 0 0 0 -13.585292451315759 -3.5143867036049201 0 -3.5143867036049201 7.0118217032827133 0 0 0 0 -27.50658674062106 -2.8497764260976055 0 -2.8497764260976055 10.771168846236378 0 0 0 0 -3.7237423196343613 2.8785354729719828 0 2.8785354729719828 9.1270472098747444 0 0 0 0 -34.577946960118425 18.873249476557248 0 18.873249476557248 8.7505474603815401 0 0 0 0 -32.698918651278291 -4.2877898295880641 0 -4.2877898295880641 13.132388035494841 0 0 0 0 -14.260650181551739 3.6033349748989849 0 3.6033349748989849 7.1416457965171851 0 0 0 0 -48.423444830375956 19.849078055127848 0 19.849078055127848 13.558149224992121 0 0 0 0 -3.6432727183190394 0.20311987131696441 0 0.20311987131696441 2.8635742843522181 0 0 0 0 29.349489164745819 -62.436626915727004 0 -62.436626915727004 53.60613050919892 0 0 0 0 -33.616402535924863 18.585771660491446 0 18.585771660491446 44.311708463612376 0 0 0 0 24.22563072332332 -22.684956717194552 0 -22.684956717194552 14.118568406052873 0 0 0 0 -7.4831473863832798 0.95462298461507089 0 0.95462298461507089 25.609620372798418 0 0 0 0 -41.576119889596157 3.006063712085961 0 3.006063712085961 19.410845684742526 0 0 0 0 -27.955345021116955 -12.867890415965121 0 -12.867890415965121 26.372613354948044 0 0 0 0 4.9798974357545376 10.584089745374513 0 10.584089745374513 17.889510025430354 0 0 0 0 -1.9948002876227804 3.0427382074701246 0 3.0427382074701246 7.2499590924010704 0 0 0 0 -14.662129965124148 -0.17549070333559058 0 -0.17549070333559058 19.831623691519823 0 0 0 0 -4.911777405261212 4.1092533437531813 0 4.1092533437531813 10.543817737915788 0 0 0 0 -17.991621083483551 -4.6261368436607881 0 -4.6261368436607881 21.851701320480061 0 0 0 0 53.786870643369184 40.179552905043437 0 40.179552905043437 -87.879610561006274 0 0 0 0 -23.19776394564542 -2.3764438339730987 0 -2.3764438339730987 6.4947650482718018 0 0 0 0 -5.2694512130988969 0.09175760027117974 0 0.09175760027117974 9.4184411669976882 0 0 0 0 -93.278317414329649 -21.917461080387966 0 -21.917461080387966 139.87475410212812 0 0 0 0 -142.85487617661056 63.784809827953652 0 63.784809827953652 21.336495724669589 0 0 0 0 -79.455897091822408 30.904648114120533 0 30.904648114120533 10.937572642688828 0 0 0 0 -10.36360740045096 -1.2348601518969424 0 -1.2348601518969424 6.5787064548749719 0 0 0 0 -17.700605732363329 42.333382915629869 0 42.333382915629869 89.819312458659851 0 0 0 0 -9.318617219130461 -1.7351114366708984 0 -1.7351114366708984 13.478267432006744 0 0 0 0 -6.8606083932673911 2.4559758620810967 0 2.4559758620810967 10.197715498353801 0 0 0 0 -1492.2553963690971 319.12462378433924 0 319.12462378433924 263.86881792980159 0 0 0 0 -259.38540495116104 -253.05693064789165 0 -253.05693064789165 -166.9101825264878 0 0 0 0 -4.0457043739319829 -2.0171580768567008 0 -2.0171580768567008 -0.71346144439491188 0 0 0 0 -383.20182457757619 -602.60528217492811 0 -602.60528217492811 -443.68517448798167 0 0 0 0 -773.56828526661047 12.384912573570334 0 12.384912573570334 143.91300889858482 0 0 0 0 -1498.2201192399443 -462.24006799233916 0 -462.24006799233916 190.44039674803471 0 0 0 0 -238.55989506384503 -241.63877130489573 0 -241.63877130489573 -252.55469129901348 0 0 0 0 -197.71230601867501 -13.80038469823522 0 -13.80038469823522 83.329420820288533 0 0 0 0 -430.10118824116216 171.32303971104599 0 171.32303971104599 18.78719019173046 0 0 0 0 -548.77809535795404 -26.19087847397644 0 -26.19087847397644 133.95183918278158 0 0 0 0 -178.95186401127285 29.519496324087072 0 29.519496324087072 34.588119123178103 0 0 0 0 -78.24374966997857 -15.265816236674254 0 -15.265816236674254 38.487570171983862 0 0 0 0 -76.641203695079639 37.104038485694687 0 37.104038485694687 -14.754967018333446 0 0 0 0 -85.011652591339953 21.942230881108344 0 21.942230881108344 5.5358508363940473 0 0 0 0 25.018764265038044 -27.119450158210839 0 -27.119450158210839 3.9096645726049246 0 0 0 0 -55.585564620057994 -39.224532779298443 0 -39.224532779298443 78.308047428497048 0 0 0 0 -1.1388023674226559 -1.5142716606228852 0 -1.5142716606228852 0.21579785482236513 0 0 0 0 28.474937853745359 -15.31831945191152 0 -15.31831945191152 67.724069439763753 0 0 0 0 1.8577751268167049 -9.6549584584645345 0 -9.6549584584645345 -7.3156957602604962 0 0 0 0 -0.28532184841446906 -33.524374157000423 0 -33.524374157000423 5.8658296376274848 0 0 0 0 -15.384642549892305 -3.4513389823350735 0 -3.4513389823350735 4.1182195800724912 0 0 0 0 -7.7597803322735288 -5.7665540177709929 0 -5.7665540177709929 0.019225420131146365 0 0 0 0 -30.312905444877288 0.019677658960972622 0 0.019677658960972622 0.29531630196743208 0 0 0 0 -10.157052109940935 -4.8816019944344049 0 -4.8816019944344049 -1.060254968212945 0 0 0 0 -37.275973659074225 -17.284441912919192 0 -17.284441912919192 29.888270889593286 0 0 0 0 -10.41233072185544 -4.0463659709324418 0 -4.0463659709324418 0.039410959555128855 0 0 0 0 -3.1087099566179859 -1.9669376516600892 0 -1.9669376516600892 13.054716713621929 0 0 0 0 -84.488776017453347 17.406176559445612 0 17.406176559445612 27.832439398908718 0 0 0 0 -0.81491636510327226 24.473099894326879 0 24.473099894326879 2.709662050316183 0 0 0 0 -1.7507401188508496 -1.1339622378104721 0 -1.1339622378104721 -0.57707732723748073 0 0 0 0 -77.416996129242762 45.26345729733589 0 45.26345729733589 -57.642592369490558 0 0 0 0 -178.48740066416212 27.076848323345075 0 27.076848323345075 18.781772250405538 0 0 0 0 -93.638809584306728 33.305746077627646 0 33.305746077627646 14.251664873809659 0 0 0 0 -73.933858754367975 50.195113601854473 0 50.195113601854473 -32.160509549064045 0 0 0 0 16.879716728042695 -18.617629645002239 0 -18.617629645002239 -2.7508445723241834 0 0 0 0 -93.147050988284789 -50.090967033406358 0 -50.090967033406358 1.9048932375126242 0 0 0 0 -3.5812969638320737 -5.2594584584198927 0 -5.2594584584198927 -6.4318889304793565 0 0 0 0 16.806814553914592 -20.237442160129035 0 -20.237442160129035 7.707715202507643 0 0 0 0 25.517919574562256 -25.911687929181312 0 -25.911687929181312 -1.4205114884557588 0 0 0 0 -172.84346351013664 93.434248487946661 0 93.434248487946661 4.809264704066095 0 0 0 0 31.768963828169944 -16.818880704863204 0 -16.818880704863204 -2.5120840274087186 0 0 0 0 -2.4078610459475271 -2.9964319495741023 0 -2.9964319495741023 -2.9959693863340835 0 0 0 0 21.537330637947889 -16.847797718500601 0 -16.847797718500601 1.897261066620672 0 0 0 0 14.156835520778372 -13.182812572642332 0 -13.182812572642332 8.5436481157796607 0 0 0 0 25.847920283264102 -11.591606750346841 0 -11.591606750346841 1.3221208484845732 0 0 0 0 -0.95870721425019667 -0.92072984902953436 0 -0.92072984902953436 -0.68412212196516275 0 0 0 0 -220.07947188896469 99.027264643126614 0 99.027264643126614 -2.5254828364058994 0 0 0 0 26.004751576367198 -9.6021963973314541 0 -9.6021963973314541 -7.3145270962402265 0 0 0 0 -63.942878329391533 13.47828831609479 0 13.47828831609479 -57.090107541038606 0 0 0 0 -137.31443056690114 -19.619598501716837 0 -19.619598501716837 8.4777866203339727 0 0 0 0 -46.532267434064124 41.726927841306861 0 41.726927841306861 -13.113380902160316 0 0 0 0 -35.632081331771587 -60.334244633405319 0 -60.334244633405319 48.09824710664634 0 0 0 0 -5.9252935404219897 -34.390932286010411 0 -34.390932286010411 57.159697404157669 0 0 0 0 -93.040561890251411 -28.212797013461113 0 -28.212797013461113 -31.90551338393206 0 0 0 0 -45.627680995581613 26.490527880718219 0 26.490527880718219 24.39117925296523 0 0 0 0 23.621997791256945 -42.045765597715956 0 -42.045765597715956 7.8013125308527833 0 0 0 0 -36.968360799350194 -28.66707372238784 0 -28.66707372238784 40.441742010970756 0 0 0 0 -47.252260748598928 -46.664766611300138 0 -46.664766611300138 17.726937343653844 0 0 0 0 -7.7758734734161408 -3.530172545956475 0 -3.530172545956475 21.432958000454846 0 0 0 0 -14.766688533622073 -20.8842476581965 0 -20.8842476581965 -2.7135468358800381 0 0 0 0 -76.494199624708926 62.715322317140817 0 62.715322317140817 -41.499097907716532 0 0 0 0 -0.56690140224181107 -0.29618489645065083 0 -0.29618489645065083 -0.20303816197827551 0 0 0 0 45.531124825807638 -55.927872295665566 0 -55.927872295665566 24.787037419629996 0 0 0 0 -17.430388914614014 7.8001942922619492 0 7.8001942922619492 12.018116991884654 0 0 0 0 -2.0896326651158432 -0.15485210227222268 0 -0.15485210227222268 1.2576446387810503 0 0 0 0 13.530898835779226 -74.065737435918436 0 -74.065737435918436 16.494905064019804 0 0 0 0 32.642334742165986 -68.671268312104985 0 -68.671268312104985 14.146607925771605 0 0 0 0 -15.966551139274088 4.76221265998538 0 4.76221265998538 14.476748142766155 0 0 0 0 -21.953128239547368 -4.2208521885552273 0 -4.2208521885552273 21.479790279832059 0 0 0 0 -94.965758080026717 17.023201145719668 0 17.023201145719668 17.587180202453283 0 0 0 0 -110.40883690619376 -33.066895828888846 0 -33.066895828888846 36.164547013639321 0 0 0 0 22.054130505610374 -21.762550439955476 0 -21.762550439955476 8.6192951016565189 0 0 0 0 1.2347522284726438 16.967572836852696 0 16.967572836852696 -18.712391882380189 0 0 0 0 -43.41248397918298 15.725001318390923 0 15.725001318390923 31.861991849848323 0 0 0 0 -39.903985593089601 -51.0176661495193 0 -51.0176661495193 22.99417750764303 0 0 0 0 -15.664400960723782 0.11157177934357065 0 0.11157177934357065 5.8306555223669525 0 0 0 0 -27.230045355047878 30.901702108866573 0 30.901702108866573 14.577206426967678 0 0 0 0 -1.8681352459461777 -38.446646009153028 0 -38.446646009153028 -25.003184244412296 0 0 0 0 -32.650572075006494 10.095444288313047 0 10.095444288313047 140.58578782287805 0 0 0 0 -2.6128727885131724 -3.6633439072737275 0 -3.6633439072737275 0.74749894473072409 0 0 0 0 -71.524690275955436 -38.594934294492305 0 -38.594934294492305 65.075071521267546 0 0 0 0 -30.247089028750608 -5.9529360281002432 0 -5.9529360281002432 0.069562947095042904 0 0 0 0 -44.647271175061178 -103.91860659817576 0 -103.91860659817576 -55.037955836818128 0 0 0 0 -11.82979041316139 -3.1338395701113768 0 -3.1338395701113768 1.5995459825567195 0 0 0 0 -45.420987343415618 -0.94874542658908467 0 -0.94874542658908467 5.0463350220979919 0 0 0 0 -23.641956316714641 -2.6930139136293292 0 -2.6930139136293292 -10.57694627615092 0 0 0 0 -21.356361611534027 0.13962463978192474 0 0.13962463978192474 0.36620170499063764 0 0 0 0 -21.918076913956611 -8.63075171564833 0 -8.63075171564833 -8.3051489747576852 0 0 0 0 -17.008009204542972 -5.4491764451360005 0 -5.4491764451360005 2.677180595146436 0 0 0 0 -6.9204385142438696 -3.1266793835980025 0 -3.1266793835980025 5.5451926999376155 0 0 0 0 -14.225845791816198 -4.5856933192554834 0 -4.5856933192554834 2.0347242108717829 0 0 0 0 -10.404585573902366 -4.0215722137581835 0 -4.0215722137581835 0.45564279297625898 0 0 0 0 -4.4624827658881685 0.81585597292557921 0 0.81585597292557921 0.98926840943418792 0 0 0 0 -26.608081717815367 7.0646817214017119 0 7.0646817214017119 17.083557571912934 0 0 0 0 -23.988297863543266 20.641138832143497 0 20.641138832143497 2.6799902769835171 0 0 0 0 -14.868366804803372 12.81687706167213 0 12.81687706167213 -24.089267241023208 0 0 0 0 -39.602799644897459 19.661755856279342 0 19.661755856279342 56.095391654834202 0 0 0 0 -0.40232052487014869 4.5060379143134366 0 4.5060379143134366 0.99131354973865637 0 0 0 0 -23.906182638969767 -22.031985626494134 0 -22.031985626494134 9.7056052291954984 0 0 0 0 -32.918898940893996 -27.760771341113013 0 -27.760771341113013 -5.7918298702861648 0 0 0 0 -14.016077869666333 -5.541379827934179 0 -5.541379827934179 14.76375322585227 0 0 0 0 -19.66551242764973 -7.8399873040206387 0 -7.8399873040206387 1.8647232465459744 0 0 0 0 -8.9382562813486572 -11.24592656629201 0 -11.24592656629201 2.3186855427765458 0 0 0 0 -23.16242149424076 -2.8946901314579225 0 -2.8946901314579225 4.3641043290419352 0 0 0 0 -16.225120117960614 -5.0866707955701713 0 -5.0866707955701713 21.866387972156815 0 0 0 0 -29.063012963003629 -2.1911280553963834 0 -2.1911280553963834 5.7491447089545566 0 0 0 0 -17.00066685902857 -17.998154733760202 0 -17.998154733760202 2.6781601425946064 0 0 0 0 -49.432859282504069 -12.856861417713844 0 -12.856861417713844 6.6867593783235861 0 0 0 0 -31.293635013025778 -0.068154522036365961 0 -0.068154522036365961 -9.6003864883550705 0 0 0 0 -27.69062980113813 -6.0801665985372892 0 -6.0801665985372892 -8.352146250840633 0 0 0 0 -28.444579336759489 -5.3238682809765123 0 -5.3238682809765123 -1.0191731319155224 0 0 0 0 -12.895833916780248 -6.5909968211881278 0 -6.5909968211881278 -2.6509570166065259 0 0 0 0 -18.880117537692058 4.107897082274917 0 4.107897082274917 -1.4170422969655192 0 0 0 0 -23.51945270854776 -76.886212630528689 0 -76.886212630528689 115.96749515425836 0 0 0 0 -117.88242539445491 -39.88159009193123 0 -39.88159009193123 110.70870010661446 0 0 0 0 40.618159748893959 -117.99497204612385 0 -117.99497204612385 -30.766207159435908 0 0 0 0 -107.20798347477103 3.19240196398232 0 3.19240196398232 95.777048347191794 0 0 0 0 -16.418331189652235 94.070481746296082 0 94.070481746296082 86.313581936441551 0 0 0 0 1.1619027271025573 0.68996750198761703 0 0.68996750198761703 -0.76887633478122019 0 0 0 0 -84.892532665853651 115.17576167100174 0 115.17576167100174 235.22183527085963 0 0 0 0 -41.706871634887648 -29.994408785824362 0 -29.994408785824362 89.865984321940687 0 0 0 0 -60.934363753676735 31.50411721070293 0 31.50411721070293 6.7174546655296581 0 0 0 0 -116.13535400302135 3.8130091170733067 0 3.8130091170733067 -7.142913758276336 0 0 0 0 -27.552882822441461 -6.3140847066028982 0 -6.3140847066028982 -48.595974295127235 0 0 0 0 -106.73322552103127 142.00595976970862 0 142.00595976970862 -136.8568470717355 0 0 0 0 -9.416075472569446 -4.2828374881823166 0 -4.2828374881823166 -1.0754308280171081 0 0 0 0 67.700252029409967 -232.72407809327842 0 -232.72407809327842 275.58548612367485 0 0 0 0 -312.0812930813081 -26.476553157517628 0 -26.476553157517628 270.21119421920719 0 0 0 0 -265.34365784849797 260.62952941119192 0 260.62952941119192 87.867817933696756 0 0 0 0 417.61396903850982 150.38306224701046 0 150.38306224701046 -68.398573617627335 0 0 0 0 -13.221775997881196 -238.77657818354123 0 -238.77657818354123 -51.865710905253763 0 0 0 0 46.401213574323265 -1.2216105930490357 0 -1.2216105930490357 -324.2263497994104 0 0 0 0 -3.4024579027195472 -1.8190885868836304 0 -1.8190885868836304 -1.0064189106684722 0 0 0 0 -8.4290464117511874 -48.353272046112579 0 -48.353272046112579 -10.877761395334346 0 0 0 0 14.608146726093764 -108.9306222783141 0 -108.9306222783141 -18.824445612166528 0 0 0 0 -326.79844778187123 -235.89683049370765 0 -235.89683049370765 -28.521417314941573 0 0 0 0 -329.1357086057069 198.50168392532169 0 198.50168392532169 -149.77883067748735 0 0 0 0 223.19588101060981 -60.926361402084694 0 -60.926361402084694 -276.57864566962598 0 0 0 0 0.7942300778721183 -0.63557427111576459 0 -0.63557427111576459 1.6100051481041469 0 0 0 0 350.1123004475412 161.06765693632951 0 161.06765693632951 -36.714195252596937 0 0 0 0 -7.9193740991725043 -16.57971718934439 0 -16.57971718934439 -7.5718051008624805 0 0 0 0 -16.019533510181645 -10.233903433575961 0 -10.233903433575961 -5.5278733439640746 0 0 0 0 -5.8686986271657133 -24.245088053655309 0 -24.245088053655309 -18.685716019617757 0 0 0 0 -21.965346596440213 -23.302331671441152 0 -23.302331671441152 -18.057138434335229 0 0 0 0 -6.2290867572337447 -30.825623501556947 0 -30.825623501556947 -11.487178653269439 0 0 0 0 18.93858484410157 0.95597553440711636 0 0.95597553440711636 -4.6649607046156234 0 0 0 0 -15.716832021603906 -13.988991809931193 0 -13.988991809931193 -3.4096765496486885 0 0 0 0 5.5734619183923257 -1.7650719172350193 0 -1.7650719172350193 -3.49654526439633 0 0 0 0 -17.664938311005244 -22.570469968185989 0 -22.570469968185989 -4.420570756554298 0 0 0 0 130.19246805793955 -66.394663304737605 0 -66.394663304737605 -12.247902155824249 0 0 0 0 243.03799705325218 8.3722312012114344 0 8.3722312012114344 -57.378773543516218 0 0 0 0 -5.5629794467160778 -5.2401368484047737 0 -5.2401368484047737 4.2026530526807875 0 0 0 0 196.6547523472982 -106.58484551664424 0 -106.58484551664424 -128.753112202902 0 0 0 0 87.997894013868063 -37.41994307909772 0 -37.41994307909772 32.323804482159176 0 0 0 0 39.006430687852571 -116.26661160108563 0 -116.26661160108563 57.304442893279884 0 0 0 0 -16.208682692985064 -8.8683150179822405 0 -8.8683150179822405 1.0392291126624649 0 0 0 0 -8.9608404732252502 -9.2575616349113261 0 -9.2575616349113261 -0.64634346643557095 0 0 0 0 -1.9794074095334508 -5.4854366625158946 0 -5.4854366625158946 -1.3834537560105673 0 0 0 0 -0.70219228429679958 -9.6053267473926276 0 -9.6053267473926276 -0.88648346954837898 0 0 0 0 -14.676519851454941 -8.5826435848734945 0 -8.5826435848734945 -6.1748336320833914 0 0 0 0 -4.7287713295809226 4.4504621128435247 0 4.4504621128435247 -19.941501717827123 0 0 0 0 -0.98436088349799888 -3.2198268145500037 0 -3.2198268145500037 -1.4646894729118465 0 0 0 0 2.6410778467106866 -51.56043208893243 0 -51.56043208893243 25.613150369361392 0 0 0 0 -29.396581282911939 -18.793364074651436 0 -18.793364074651436 19.901623857915752 0 0 0 0 -14.791907526062914 -6.6515174632129259 0 -6.6515174632129259 -2.3662895052766544 0 0 0 0 -12.96894810019694 -9.9139806488237809 0 -9.9139806488237809 1.6918415973304946 0 0 0 0 21.995226173865376 1.5649048046211647 0 1.5649048046211647 -48.208505004911785 0 0 0 0 -18.654861117871405 -4.6060017061818144 0 -4.6060017061818144 -0.89503880367465172 0 0 0 0 -10.176792151170957 -4.2044155757643011 0 -4.2044155757643011 -3.3886976650264842 0 0 0 0 -20.166428944867221 -7.7623612054176192 0 -7.7623612054176192 5.8414088955123589 0 0 0 0 -7.9969003525195461 -5.7087762730352054 0 -5.7087762730352054 -0.094742159406322912 0 0 0 0 24.118501528446359 -17.480180038836238 0 -17.480180038836238 -3.791447181350577 0 0 0 0 -422.09351046070515 -86.225254298527943 0 -86.225254298527943 95.643143826348933 0 0 0 0 -87.574851606783341 269.65072754792345 0 269.65072754792345 -106.60579639031994 0 0 0 0 15.689824298471649 -13.705904910982099 0 -13.705904910982099 2.3638387001665251 0 0 0 0 -134.6056848334847 -66.113945172793137 0 -66.113945172793137 18.12562586194872 0 0 0 0 -16.093756252797903 -59.335816613371207 0 -59.335816613371207 -43.666708720428687 0 0 0 0 -2.1878479329058536 -1.3463332991718886 0 -1.3463332991718886 -0.44793152408557901 0 0 0 0 -158.7939920398785 102.11167869072233 0 102.11167869072233 -50.275542166426931 0 0 0 0 -115.54981337449863 -68.746566327070468 0 -68.746566327070468 -44.512950783283486 0 0 0 0 -215.88148606748291 -87.845728648136173 0 -87.845728648136173 -10.939284800530913 0 0 0 0 -125.50386327348679 -33.184805875612255 0 -33.184805875612255 -15.722808676924615 0 0 0 0 3.7597179333679378 -29.084236812991549 0 -29.084236812991549 -52.618930734595779 0 0 0 0 -50.988777591126563 3.6538310574737807 0 3.6538310574737807 4.9132000646222878 0 0 0 0 -61.242886147876561 -20.487208773059137 0 -20.487208773059137 -13.223629451206079 0 0 0 0 -137.37991302695445 -3.1364680410424626 0 -3.1364680410424626 -0.52679394269853219 0 0 0 0 -132.01164855742536 16.100874829577606 0 16.100874829577606 12.073826904200132 0 0 0 0 114.81998168098653 -21.834761133050051 0 -21.834761133050051 -81.471603025907825 0 0 0 0 -359.5002478186434 93.804274532918953 0 93.804274532918953 41.908484295392554 0 0 0 0 -133.50439088013081 27.668579678062542 0 27.668579678062542 16.110781399413099 0 0 0 0 101.21688788684696 153.15039424691713 0 153.15039424691713 -138.46376055351175 0 0 0 0 -29.087800848326879 -29.537091933189913 0 -29.537091933189913 29.799778149334088 0 0 0 0 -0.54638480243390219 0.27580441941977085 0 0.27580441941977085 -0.18869004626930952 0 0 0 0 -0.50624321170093367 -0.13130351276591057 0 -0.13130351276591057 -0.59854835827490227 0 0 0 0 -2.5456372997286962 -0.060782012895799653 0 -0.060782012895799653 -0.35351370931766724 0 0 0 0 -23.914643141250053 -29.975452800389121 0 -29.975452800389121 -11.801417944814602 0 0 0 0 -96.239665558805427 -19.636258898435244 0 -19.636258898435244 5.990441881793231 0 0 0 0 -56.976158060424495 -25.547935131606209 0 -25.547935131606209 8.7610627824142284 0 0 0 0 -57.408221944295292 -16.125669748511356 0 -16.125669748511356 -26.570038632774413 0 0 0 0 -50.437783491004666 -35.896600117604976 0 -35.896600117604976 -18.308734624238468 0 0 0 0 -52.007838971701858 -42.575562749319033 0 -42.575562749319033 -0.10937515496971173 0 0 0 0 -44.748383549565915 -11.584568356838645 0 -11.584568356838645 -4.0116669617700609 0 0 0 0 -58.369814738500281 -11.457109130803929 0 -11.457109130803929 7.7923416323565107 0 0 0 0 -44.403927164948982 -9.5641862787269929 0 -9.5641862787269929 6.8043802546499137 0 0 0 0 -97.753590581771277 27.430776828005037 0 27.430776828005037 -2.9775094152610109 0 0 0 0 -50.216137783449085 12.97421695274943 0 12.97421695274943 -4.086450965118388 0 0 0 0 -34.974738815311866 3.3202043675910318 0 3.3202043675910318 0.17525878936703521 0 0 0 0 -34.746294617487365 2.9150763542681943 0 2.9150763542681943 0.2603650735472911 0 0 0 0 -43.518572078952275 1.5786165092772535 0 1.5786165092772535 2.4550581947187311 0 0 0 0 -29.522938448153582 -14.343519249280234 0 -14.343519249280234 2.213477705024161 0 0 0 0 -42.019876745209331 -18.276107066163604 0 -18.276107066163604 6.4075736797032334 0 0 0 0 -42.389795268813032 -6.0527841743992212 0 -6.0527841743992212 5.9058952852055882 0 0 0 0 -42.046987526278826 -6.7908003834600095 0 -6.7908003834600095 6.5363837433483241 0 0 0 0 -34.92061567973542 -5.8506087380628742 0 -5.8506087380628742 3.8749568883140455 0 0 0 0 -24.818767543267541 -2.83313490882801 0 -2.83313490882801 1.3752237091593891 0 0 0 0 -29.58024214915531 5.2555636835940049 0 5.2555636835940049 1.1069788763743418 0 0 0 0 -36.232490001199039 -4.5026031770867121 0 -4.5026031770867121 2.8090961882926422 0 0 0 0 -31.760034644823463 -2.2514178211868057 0 -2.2514178211868057 3.2159499448894167 0 0 0 0 -34.515386460618174 0.1808767388065462 0 0.1808767388065462 7.6322785454103723 0 0 0 0 -21.672757880541738 -5.6689503893238555 0 -5.6689503893238555 3.5367803780970744 0 0 0 0 -22.903536742422148 -2.3469926114287318 0 -2.3469926114287318 10.633425280901974 0 0 0 0 -11.951605452676617 -4.2843856900031483 0 -4.2843856900031483 5.8972099966176348 0 0 0 0 36.850299402693054 -9.5155795495647908 0 -9.5155795495647908 -1.5722437399717819 0 0 0 0 -28.664745978203428 -1.7603679589942658 0 -1.7603679589942658 7.7825200572293625 0 0 0 0 33.714025933290031 -41.979875668577051 0 -41.979875668577051 5.5194521915655059 0 0 0 0 -4.7378335216037541 0.79916856116260959 0 0.79916856116260959 0.2310400896157585 0 0 0 0 -0.7908441702185911 2.23776328645349 0 2.23776328645349 3.4877821476241797 0 0 0 0 -28.070121532371559 -62.752679677205379 0 -62.752679677205379 6.0449416194738887 0 0 0 0 -38.368046333102029 -16.475649431458351 0 -16.475649431458351 7.9923385146257715 0 0 0 0 -19.829844051045441 3.0432893067414248 0 3.0432893067414248 15.715516568249106 0 0 0 0 -0.38019205109594623 22.1930498624763 0 22.1930498624763 12.91086561279235 0 0 0 0 -22.391643936683977 -8.2044406372524463 0 -8.2044406372524463 1.6450431410348756 0 0 0 0 -36.113669455711715 -11.247041261636696 0 -11.247041261636696 7.9111735959504585 0 0 0 0 -8.7964201326540206 26.400973457268037 0 26.400973457268037 -3.965908173068442 0 0 0 0 16.035988197039842 13.892285069356149 0 13.892285069356149 -8.477980149558789 0 0 0 0 -5.7782929457134742 -5.1354829593576596 0 -5.1354829593576596 -1.2349420175482919 0 0 0 0 16.378019283438334 -0.11372390474070926 0 -0.11372390474070926 -27.530434041536409 0 0 0 0 -12.45620680258844 13.549574998505136 0 13.549574998505136 -6.5058816608088819 0 0 0 0 41.609417811454477 -4.1892300413906014 0 -4.1892300413906014 -20.80088974903083 0 0 0 0 41.896162111383049 30.602406902658714 0 30.602406902658714 -37.241521724459744 0 0 0 0 14.375292950396215 7.0704639282070048 0 7.0704639282070048 -25.423255540209539 0 0 0 0 20.398462619545171 -12.122575885311107 0 -12.122575885311107 -14.941392744581208 0 0 0 0 36.762428661368176 -25.134386152162278 0 -25.134386152162278 -14.10231579663386 0 0 0 0 -7.484765898421756 -26.175314073741447 0 -26.175314073741447 46.783318313892778 0 0 0 0 1.592904045224472 -5.2038302336028046 0 -5.2038302336028046 -1.6237944429312559 0 0 0 0 22.006390715021553 -17.984259527863287 0 -17.984259527863287 5.936591313271947 0 0 0 0 9.9065707408744856 -37.071409145953794 0 -37.071409145953794 21.483797757857246 0 0 0 0 6.0300198940603877 -20.144693098392736 0 -20.144693098392736 -8.64905337721666 0 0 0 0 -11.444228625310757 -13.341712728780401 0 -13.341712728780401 -2.8052134527246295 0 0 0 0 94.393487527060643 -94.729928652989656 0 -94.729928652989656 17.688845178441625 0 0 0 0 -47.77659085445157 -68.185251980948578 0 -68.185251980948578 30.137322958905315 0 0 0 0 -101.62148487801824 154.34973842977888 0 154.34973842977888 80.044964876717131 0 0 0 0 -247.26151634785356 0.63290413423334257 0 0.63290413423334257 23.059578465763479 0 0 0 0 -224.12974707718695 -100.18128172955716 0 -100.18128172955716 -141.1804247402024 0 0 0 0 -138.98206352804664 45.834855265956321 0 45.834855265956321 8.7664085388141757 0 0 0 0 -4.898270325113117 111.24465714260396 0 111.24465714260396 7.601687145146343 0 0 0 0 -3.3284910146321636 50.547019818715398 0 50.547019818715398 -43.937314848157257 0 0 0 0 200.77182313660614 50.685239520116284 0 50.685239520116284 -70.869877533536965 0 0 0 0 -347.06848408536689 8.3427140169536074 0 8.3427140169536074 -108.22911348970774 0 0 0 0 -183.75307532809529 -16.18235767344413 0 -16.18235767344413 -115.5063703745966 0 0 0 0 -189.63906262615092 -10.222108987127058 0 -10.222108987127058 -0.87879907219394227 0 0 0 0 -127.79501115608946 20.271018069358433 0 20.271018069358433 -26.583080241828611 0 0 0 0 -291.84773733382826 16.744956748479581 0 16.744956748479581 -11.085911810426296 0 0 0 0 -302.19957102188982 -113.89914547598434 0 -113.89914547598434 -11.020887278701593 0 0 0 0 -167.24288646327113 -14.196515740718041 0 -14.196515740718041 -3.4347400648460962 0 0 0 0 -141.17175946490534 -43.869185605928124 0 -43.869185605928124 34.329775838650676 0 0 0 0 -234.92043044576531 -47.940622500761037 0 -47.940622500761037 37.028105828825119 0 0 0 0 -183.56883778280735 14.458997832957778 0 14.458997832957778 19.596928470367402 0 0 0 0 -150.29141758550395 -11.54381704737898 0 -11.54381704737898 40.746522085349625 0 0 0 0 -109.29621736714398 7.6842899310236135 0 7.6842899310236135 18.966246426282396 0 0 0 0 -101.37266581516815 -44.208025137850314 0 -44.208025137850314 33.891219150966606 0 0 0 0 -142.42050601556093 -44.593286588544657 0 -44.593286588544657 36.230263125090005 0 0 0 0 -25.640691249367592 28.363032676338662 0 28.363032676338662 -4.4687061848226222 0 0 0 0 -11.89044148839821 38.659811127203056 0 38.659811127203056 -24.586981464742848 0 0 0 0 -44.665686087279028 51.39842572588077 0 51.39842572588077 2.0382133772020552 0 0 0 0 -52.933459531683184 13.307721517171331 0 13.307721517171331 18.328793279269121 0 0 0 0 -119.22181667150744 32.105749727066495 0 32.105749727066495 21.195250297856546 0 0 0 0 -17.044527234020279 15.936794414174528 0 15.936794414174528 10.467103982509343 0 0 0 0 -43.172461250967899 37.93458556329756 0 37.93458556329756 -1.6949839096548658 0 0 0 0 -18.485611475274709 22.070779775354595 0 22.070779775354595 11.268114499746389 0 0 0 0 -44.39443318634585 8.5204388319594955 0 8.5204388319594955 27.429240030330448 0 0 0 0 -52.602462694423593 19.858056545276668 0 19.858056545276668 21.347442959964127 0 0 0 0 -81.485813906479962 -0.23196059118617995 0 -0.23196059118617995 32.344305155437723 0 0 0 0 -41.093073993870348 8.5114026653408814 0 8.5114026653408814 27.756684132741633 0 0 0 0 -11.464181236733566 16.567037147920914 0 16.567037147920914 23.421428891410002 0 0 0 0 -114.75350531196182 -60.142670612452491 0 -60.142670612452491 23.273675277264829 0 0 0 0 -117.27858636481324 -13.320491476246389 0 -13.320491476246389 38.738002041304185 0 0 0 0 -72.532647586564053 -18.079547859377726 0 -18.079547859377726 26.572583517326791 0 0 0 0 -85.135502761100724 -25.617646969554244 0 -25.617646969554244 24.403786026599107 0 0 0 0 -61.567641439944055 -49.674815145040895 0 -49.674815145040895 22.92104725542481 0 0 0 0 -46.505499628730831 -11.306695255094837 0 -11.306695255094837 16.256935513920524 0 0 0 0 -53.092177243373044 -15.203267181200374 0 -15.203267181200374 28.376674753918564 0 0 0 0 -57.722124326966878 -1.4136534117094186 0 -1.4136534117094186 33.814643887490433 0 0 0 0 -40.162989303766153 -1.1349410526021018 0 -1.1349410526021018 30.549831358867124 0 0 0 0 -22.760278202156769 17.405857586089382 0 17.405857586089382 31.644040703857527 0 0 0 0 -40.82782247267096 7.1239500112722567 0 7.1239500112722567 33.288091932007063 0 0 0 0 -40.607433974980268 0.79833301956733749 0 0.79833301956733749 23.674056636875775 0 0 0 0 -19.186988782181221 5.3361997887147083 0 5.3361997887147083 16.15029834075645 0 0 0 0 -4.2505323017430783 31.139576147044409 0 31.139576147044409 27.915519719065287 0 0 0 0 -66.781448157689738 -5.8171859710125773 0 -5.8171859710125773 25.265720354234418 0 0 0 0 -23.667704290333859 14.54153466518801 0 14.54153466518801 20.041133232467473 0 0 0 0 -9.3222786692811042 7.3427639875516206 0 7.3427639875516206 10.55232413761496 0 0 0 0 -117.9165569311881 38.294197610637639 0 38.294197610637639 13.69723289134572 0 0 0 0 7.6744636395906127 72.159934211300197 0 72.159934211300197 23.381618777995754 0 0 0 0 -46.990900015362968 -32.886506548383181 0 -32.886506548383181 88.816880467387818 0 0 0 0 -25.339574751096734 -51.825046569018468 0 -51.825046569018468 51.032405867115813 0 0 0 0 0.57038811644751064 0.5533218325972058 0 0.5533218325972058 -0.88087488299589367 0 0 0 0 -41.94930342551379 -31.353348647026678 0 -31.353348647026678 48.363091738770891 0 0 0 0 -47.666690856343848 -42.4271393760514 0 -42.4271393760514 42.576047434155953 0 0 0 0 -31.373339202685202 -31.273550459473881 0 -31.273550459473881 4.1777159995053808 0 0 0 0 -30.604403273547632 -17.236939426056892 0 -17.236939426056892 7.3721440146846362 0 0 0 0 -32.205906591656458 -19.982369493910483 0 -19.982369493910483 11.651643839789358 0 0 0 0 -20.081461786479849 -18.956753701083016 0 -18.956753701083016 6.0842773981185019 0 0 0 0 -43.556782624109474 -11.365093924443727 0 -11.365093924443727 8.8392841501326984 0 0 0 0 -40.830132778768984 -4.9311095530269995 0 -4.9311095530269995 23.849337544901573 0 0 0 0 -18.626528762765421 5.1048398579869776 0 5.1048398579869776 16.57841523599329 0 0 0 0 4.4911633212468587 26.760270191575557 0 26.760270191575557 29.748404703651374 0 0 0 0 4.3396470435127412 14.130777755247209 0 14.130777755247209 7.4068919408006195 0 0 0 0 -13.882739317617961 12.411020000532631 0 12.411020000532631 31.426147531783727 0 0 0 0 -19.191372529054945 5.2979022201684209 0 5.2979022201684209 16.186543798866932 0 0 0 0 -7.5469909092289527 34.584826771757605 0 34.584826771757605 36.983139049404826 0 0 0 0 -73.602820086916381 -7.8945657589872553 0 -7.8945657589872553 23.985001682517577 0 0 0 0 -920.36969515646888 701.57734996647366 0 701.57734996647366 -523.75448282105049 0 0 0 0 -2.9004900116418924 3.0108037278996207 0 3.0108037278996207 4.6384747522584746 0 0 0 0 -14.614246901346633 5.2378208259452776 0 5.2378208259452776 4.5389306536457212 0 0 0 0 -0.4838031472996569 1.3729140069095891 0 1.3729140069095891 0.34983613603206376 0 0 0 0 -2.3262944813060411 8.512706410061913 0 8.512706410061913 2.8575558708287869 0 0 0 0 38.452003256463286 38.176223355483216 0 38.176223355483216 3.7516158828054813 0 0 0 0 36.488175664330811 29.751815784216376 0 29.751815784216376 9.9451188324296709 0 0 0 0 21.889794812625041 29.237962236611338 0 29.237962236611338 8.1232819746196583 0 0 0 0 -4.6968291035635916 7.3520619504114819 0 7.3520619504114819 5.6670094867245391 0 0 0 0 -11.200606036180034 7.5915861419865962 0 7.5915861419865962 6.7639079972691434 0 0 0 0 -8.7499702570980844 13.175847755084305 0 13.175847755084305 23.416425200779486 0 0 0 0 2.1312232519012468 18.714931087838977 0 18.714931087838977 7.917043207093684 0 0 0 0 -7.5425152181611743 5.1623242780104981 0 5.1623242780104981 5.1646320865782824 0 0 0 0 -238.09485196270634 -230.37415276344899 0 -230.37415276344899 -229.8673665625455 0 0 0 0 -11.052755401864488 7.9734521881450746 0 7.9734521881450746 5.0101523753130834 0 0 0 0 -1498.0160384460978 1.3167559152314456 0 1.3167559152314456 2.4263037572402499 0 0 0 0 -5.1909777569693176 -0.52687329535263316 0 -0.52687329535263316 0.10059411300928275 0 0 0 0 -1491.3248001477373 176.70338133965714 0 176.70338133965714 167.94714130998358 0 0 0 0 -499.07237288246688 -268.22384372297427 0 -268.22384372297427 132.79089321627362 0 0 0 0 -2.706722922626696 1.7720315838802385 0 1.7720315838802385 1.710352077693706 0 0 0 0 -421.96373320299244 155.17934752636125 0 155.17934752636125 -61.517833243501507 0 0 0 0 -3.8146124689261995 0.51502794529674545 0 0.51502794529674545 1.5548661602813167 0 0 0 0 -1490.7877391126094 -72.581483012111434 0 -72.581483012111434 241.95091297479144 0 0 0 0 -10.814525649298297 6.0223148309668879 0 6.0223148309668879 5.9060144912871406 0 0 0 0 -14.804008495186281 4.5485098914261926 0 4.5485098914261926 9.1553429374524171 0 0 0 0 -19.834805561895337 -0.22846005662881907 0 -0.22846005662881907 5.8481665166409584 0 0 0 0 -10.755916406951407 6.4239247839363021 0 6.4239247839363021 15.805325206489586 0 0 0 0 293.8734979478395 146.53507096478512 0 146.53507096478512 -212.26483103903686 0 0 0 0 -9.5320120001443946 3.3503380797999895 0 3.3503380797999895 6.6238323466588218 0 0 0 0 -14.050921304909934 7.9629507096871066 0 7.9629507096871066 8.5190664901733726 0 0 0 0 -9.0655573269592296 7.0061058385140447 0 7.0061058385140447 6.4811054533371761 0 0 0 0 -4.2925063537695678 28.079493132768448 0 28.079493132768448 -21.502260998417114 0 0 0 0 -12.966746227915792 14.639949808489746 0 14.639949808489746 43.894856287804942 0 0 0 0 -17.711046859448288 1.8415653249587081 0 1.8415653249587081 1.9937373796046813 0 0 0 0 -7.4104603494251151 0.089372639021638722 0 0.089372639021638722 1.3704204100324966 0 0 0 0 -38.176395563288679 4.1611959191163805 0 4.1611959191163805 36.910924535592585 0 0 0 0 -27.979307081557636 20.387406523688469 0 20.387406523688469 37.05668635034408 0 0 0 0 -22.67784463495488 5.5718524458598289 0 5.5718524458598289 3.1546276735509209 0 0 0 0 -55.273005891482171 3.034576809526925 0 3.034576809526925 40.553375812559352 0 0 0 0 -36.323785562350508 -23.430227788349413 0 -23.430227788349413 95.249707725808548 0 0 0 0 -14.952356064963169 42.083466581940911 0 42.083466581940911 11.046359149381487 0 0 0 0 3.3037853661649024 -22.249642474720417 0 -22.249642474720417 -31.892132605502411 0 0 0 0 13.431157315049859 -0.1544903305182288 0 -0.1544903305182288 34.260096630578118 0 0 0 0 -19.533036162087228 25.953991305678755 0 25.953991305678755 34.819232179390383 0 0 0 0 0.98337563763197977 25.538312188112741 0 25.538312188112741 27.927325860843666 0 0 0 0 -17.573139398746207 40.324357711087828 0 40.324357711087828 36.40263435272891 0 0 0 0 -7.2166659632130177 34.664254955715705 0 34.664254955715705 22.404730416263192 0 0 0 0 10.93218286147021 44.288888212381607 0 44.288888212381607 24.326294954289096 0 0 0 0 -6.2912235003786918 54.274881015451683 0 54.274881015451683 18.56301190445447 0 0 0 0 -6.6603299244889058 51.436974436218861 0 51.436974436218861 38.027680555415344 0 0 0 0 -56.924392498570342 2.2871894324492814 0 2.2871894324492814 35.115341815696866 0 0 0 0 -128.93962095374627 16.156551882357917 0 16.156551882357917 83.270603950056056 0 0 0 0 -63.179368893437641 64.917872002828744 0 64.917872002828744 96.86996080809655 0 0 0 0 -122.30835961983757 -92.365040064742971 0 -92.365040064742971 38.729835619175446 0 0 0 0 -124.43758441565296 35.832335364570326 0 35.832335364570326 163.20029912468772 0 0 0 0 58.743155426393059 103.52586255251936 0 103.52586255251936 130.39357925105514 0 0 0 0 -1.1215191703858025 -0.30636048690300299 0 -0.30636048690300299 1.5747854346770174 0 0 0 0 -76.357836195847995 -67.757244954242651 0 -67.757244954242651 67.999119695901527 0 0 0 0 -92.171073101264483 -50.358056984446421 0 -50.358056984446421 96.521952249378046 0 0 0 0 -26.426965013666631 12.373398093145852 0 12.373398093145852 67.597570322568117 0 0 0 0 -0.24135745667979336 -1.1545498003465759 0 -1.1545498003465759 2.457350183658404 0 0 0 0 -129.89638744627428 141.34562943616129 0 141.34562943616129 -145.73778894436691 0 0 0 0 -86.254128447522817 -24.999663721640218 0 -24.999663721640218 58.168824629723076 0 0 0 0 -54.265719947226899 -53.165471120075381 0 -53.165471120075381 18.163285603770987 0 0 0 0 16.438930940279533 -91.785544121235262 0 -91.785544121235262 38.243841525662901 0 0 0 0 -18.463488906792918 82.70882583958246 0 82.70882583958246 -125.04862017415189 0 0 0 0 -2.1375802000726054 -0.85762371675450266 0 -0.85762371675450266 -0.49249982218457777 0 0 0 0 28.894498326506437 -4.721994453501793 0 -4.721994453501793 37.015070836373525 0 0 0 0 -91.321410318356357 20.742696473837441 0 20.742696473837441 116.57700684308475 0 0 0 0 -20.037678274087874 4.9976322920653802 0 4.9976322920653802 0.49170295030034417 0 0 0 0 -25.139122380405752 -5.3802320016316116 0 -5.3802320016316116 54.702153261877811 0 0 0 0 -24.512646265106014 13.994073840851797 0 13.994073840851797 19.699516173513757 0 0 0 0 -7.2460944683675734 -69.776214520651479 0 -69.776214520651479 23.256950624918318 0 0 0 0 -48.807568613916374 73.060567511992758 0 73.060567511992758 22.357032384130434 0 0 0 0 -163.61336027915604 94.327491913673839 0 94.327491913673839 30.568370843236153 0 0 0 0 -164.31663763859748 -68.684663962478552 0 -68.684663962478552 44.435115974385553 0 0 0 0 -31.448356516888452 -15.011875528236033 0 -15.011875528236033 -24.90321379469151 0 0 0 0 -77.729903295679833 -75.594363899116615 0 -75.594363899116615 -15.64649879184833 0 0 0 0 -0.36283449187659045 -3.3789824709761014 0 -3.3789824709761014 5.1590189310514027 0 0 0 0 12.978500611981872 -44.972565399461928 0 -44.972565399461928 52.536081434927837 0 0 0 0 -45.804630856970107 -7.6838564191375553 0 -7.6838564191375553 63.601412798290312 0 0 0 0 -16.295989867551846 5.0879462296917621 0 5.0879462296917621 0.7666327325661958 0 0 0 0 -12.406516717903287 54.357416233687218 0 54.357416233687218 -169.8826988447679 0 0 0 0 -0.8500439965502764 -0.69975370539415849 0 -0.69975370539415849 -0.048833761395375319 0 0 0 0 18.685475019075966 -20.973435238733146 0 -20.973435238733146 -38.589763308434613 0 0 0 0 -334.11274202359982 -44.218346408767104 0 -44.218346408767104 -6.7699468817199886 0 0 0 0 -4.2774476037929858 2.1195096579203643 0 2.1195096579203643 -0.66041924273940822 0 0 0 0 -85.688959321076254 -133.41728825411656 0 -133.41728825411656 -159.30961229134084 0 0 0 0 -135.06611337529466 -84.698516813931747 0 -84.698516813931747 -6.0574555360087743 0 0 0 0 -157.23411620155639 -74.263331936461555 0 -74.263331936461555 43.210871835006401 0 0 0 0 -113.10918753588703 -75.375738610920962 0 -75.375738610920962 13.87347761437195 0 0 0 0 -122.47256233716234 -64.484891315133837 0 -64.484891315133837 17.393026895227194 0 0 0 0 -40.173540065916313 -52.303215646998524 0 -52.303215646998524 -2.0690130493326251 0 0 0 0 -96.880790343819172 -50.778633252516101 0 -50.778633252516101 48.28093336895563 0 0 0 0 -111.89369732995692 -81.810140175355627 0 -81.810140175355627 45.386910449899659 0 0 0 0 -85.393648485053745 -63.193969475675999 0 -63.193969475675999 54.560774123245665 0 0 0 0 -119.80903369239968 -96.359186618339663 0 -96.359186618339663 64.648822653997456 0 0 0 0 -122.24555906242676 -65.961894849398277 0 -65.961894849398277 38.965439495511873 0 0 0 0 -102.5764192079223 -77.818018916272308 0 -77.818018916272308 41.614823721185417 0 0 0 0 -108.39538870789329 -90.387925368394917 0 -90.387925368394917 14.516135396078653 0 0 0 0 -86.656397533206473 -132.19240379077388 0 -132.19240379077388 -21.815782922130211 0 0 0 0 -70.952523310394099 -88.758194999125095 0 -88.758194999125095 14.316138116790185 0 0 0 0 -75.343903249804498 -73.96967932606627 0 -73.96967932606627 -19.364096542362631 0 0 0 0 -18.093485999927907 -50.756190517799723 0 -50.756190517799723 64.649626642322801 0 0 0 0 -21.550697033580946 -28.677030812922283 0 -28.677030812922283 -23.198061499138639 0 0 0 0 -12.119782645702799 -19.241224202284457 0 -19.241224202284457 25.042313809646146 0 0 0 0 -21.580405067541506 -13.757984835632499 0 -13.757984835632499 19.041839106750786 0 0 0 0 27.388791115686445 -124.45808628407181 0 -124.45808628407181 -105.05755385418476 0 0 0 0 -2.9538295712174758 -2.3221301230945706 0 -2.3221301230945706 -2.2285082364753617 0 0 0 0 -521.17229845966722 170.94539512683519 0 170.94539512683519 -52.197126483733257 0 0 0 0 -413.0278351627976 -93.709059011795418 0 -93.709059011795418 -47.761575187189138 0 0 0 0 -399.64375714833659 -67.867731455069645 0 -67.867731455069645 77.672748506098969 0 0 0 0 -264.35340063665171 170.32144101032139 0 170.32144101032139 -17.297593813621347 0 0 0 0 -236.58282610047718 -188.94578897993085 0 -188.94578897993085 -39.600441142204659 0 0 0 0 -207.10119634730836 -116.34423807621181 0 -116.34423807621181 55.132709674141324 0 0 0 0 -171.63803385236133 10.497565905295772 0 10.497565905295772 89.18177489937716 0 0 0 0 -102.04535677768672 -66.12258427645429 0 -66.12258427645429 77.393365699073911 0 0 0 0 -149.03472955690813 -24.057746281610889 0 -24.057746281610889 119.32643147028239 0 0 0 0 -96.400307901263659 61.054145042432538 0 61.054145042432538 40.648407488676327 0 0 0 0 -47.166866577746987 75.252930119313191 0 75.252930119313191 44.599021973594063 0 0 0 0 -77.360352287942078 125.21248524292974 0 125.21248524292974 3.8934515952458923 0 0 0 0 -53.671201761754219 75.307430569012297 0 75.307430569012297 35.471773032323654 0 0 0 0 32.021885147303692 58.417684324035008 0 58.417684324035008 10.877965854186414 0 0 0 0 70.39122297515496 54.121749145435274 0 54.121749145435274 -12.262835849298881 0 0 0 0 19.059744973044872 64.252431137059375 0 64.252431137059375 8.332423474020743 0 0 0 0 -3.0779377206290519 93.6146194526616 0 93.6146194526616 4.0995823968487457 0 0 0 0 -15.405490241751977 79.993497947796868 0 79.993497947796868 35.336775874018031 0 0 0 0 28.912041018209493 60.989639350803941 0 60.989639350803941 1.5810479120474952 0 0 0 0 113.96927532577047 95.887931349915419 0 95.887931349915419 -28.315782889227336 0 0 0 0 46.253618361253757 85.348297722628786 0 85.348297722628786 -19.07505487511196 0 0 0 0 22.72966265502032 89.568648295732075 0 89.568648295732075 -78.628519988456333 0 0 0 0 -44.391111984596137 92.853201547954555 0 92.853201547954555 -219.15534819906304 0 0 0 0 -25.472955533638014 27.180929920942642 0 27.180929920942642 -13.861390663073536 0 0 0 0 -112.58724362166754 32.482013983657232 0 32.482013983657232 -49.936830415787455 0 0 0 0 -92.55225275624889 129.639818980249 0 129.639818980249 1.7812745242835319 0 0 0 0 342.52273923603207 -45.976110531433761 0 -45.976110531433761 -118.38854216471144 0 0 0 0 14.002823685878866 70.052656284506355 0 70.052656284506355 12.26955194241765 0 0 0 0 1.1811482792127457 1.71061929614417 0 1.71061929614417 0.12035134181379734 0 0 0 0 -681.00757504975127 66.157739128105504 0 66.157739128105504 -210.91580030127227 0 0 0 0 -1496.612434405155 -259.33647271459313 0 -259.33647271459313 78.151472361471917 0 0 0 0 -746.08104511013835 86.369479876937433 0 86.369479876937433 66.892726765279392 0 0 0 0 -1305.1012843891658 166.37324717797105 0 166.37324717797105 56.613275015710116 0 0 0 0 -1195.3279175801326 409.52835551665333 0 409.52835551665333 31.0984161336692 0 0 0 0 -1500.8137108303863 298.57813110629451 0 298.57813110629451 125.54968447103356 0 0 0 0 -1059.9562451091515 194.37626833680335 0 194.37626833680335 -27.243674358138357 0 0 0 0 1.79004661130854 6.2405631023655843 0 6.2405631023655843 2.2498792761118165 0 0 0 0 165.04391347269166 -19.347809600044201 0 -19.347809600044201 -16.445205153092502 0 0 0 0 175.36950509165308 29.668410147680447 0 29.668410147680447 -35.211724664417943 0 0 0 0 71.053307613543438 5.4006384382433339 0 5.4006384382433339 25.159568919671528 0 0 0 0 88.350868141794763 -9.5648750156379378 0 -9.5648750156379378 27.804332815512225 0 0 0 0 64.185662981926725 46.045669505288288 0 46.045669505288288 -2.4563789910637297 0 0 0 0 91.655448370201157 26.210810605727715 0 26.210810605727715 7.6206571272996371 0 0 0 0 53.949498522364593 47.575078241191022 0 47.575078241191022 0.19342429367065961 0 0 0 0 31.923587694122659 46.407145833451189 0 46.407145833451189 6.4152208561599764 0 0 0 0 49.187945291607321 34.600992151457831 0 34.600992151457831 4.9414052651745806 0 0 0 0 42.308571696079525 24.233076005534883 0 24.233076005534883 12.832089339624417 0 0 0 0 -1497.8563984413695 518.40291259624178 0 518.40291259624178 -7.0207368706417821 0 0 0 0 -6.4809653278896047 -4.7410900523064168 0 -4.7410900523064168 -1.7778354901416848 0 0 0 0 -1502.3831446543522 633.34137811758808 0 633.34137811758808 -246.06949138055708 0 0 0 0 13.475506201098142 3.0086855596515534 0 3.0086855596515534 -40.885745636416004 0 0 0 0 0.77214397812895186 -2.2801650781894409 0 -2.2801650781894409 7.3499036448286574 0 0 0 0 1.7119072709614471 -0.17561881866132811 0 -0.17561881866132811 -0.40127032310502453 0 0 0 0 36.555074845102354 -21.83446167764788 0 -21.83446167764788 72.182203186909987 0 0 0 0 27.553064279495629 76.601032887431217 0 76.601032887431217 -80.951123800696848 0 0 0 0 17.885517100902689 -9.9303708509863213 0 -9.9303708509863213 -14.882565106236484 0 0 0 0 -183.98817952731406 -294.30691383830367 0 -294.30691383830367 -295.32575361762116 0 0 0 0 4.5018342701143546 0.51891514820884677 0 0.51891514820884677 -0.54107820328752954 0 0 0 0 -1500.574352192707 -336.40942502589127 0 -336.40942502589127 63.266931930624857 0 0 0 0 -338.03215575649847 93.770140161013984 0 93.770140161013984 147.11244639016832 0 0 0 0 -460.71610074678938 -436.9885123343596 0 -436.9885123343596 -88.761964108685206 0 0 0 0 -4.0773913417640379 -1.1905440566662833 0 -1.1905440566662833 -0.30889776773753597 0 0 0 0 -1495.8408617591506 211.27788170557028 0 211.27788170557028 192.2204901583099 0 0 0 0 -48.944712111240733 251.79924255382684 0 251.79924255382684 -158.36936303220745 0 0 0 0 -3.2227596991961036 -173.54645710747917 0 -173.54645710747917 -214.75007020379093 0 0 0 0 25.710004015623781 -74.953689347477408 0 -74.953689347477408 74.000836700619516 0 0 0 0 -6.2969157998134264 -2.06936863238644 0 -2.06936863238644 -0.59375086909284314 0 0 0 0 -33.76646664042255 36.579909842948616 0 36.579909842948616 -77.999393624590653 0 0 0 0 -4.2602815469017514 103.95054645011577 0 103.95054645011577 74.966994427698125 0 0 0 0 -2.2958489400980255 -0.77170363261529662 0 -0.77170363261529662 -0.42962389783823884 0 0 0 0 -200.06716141703237 170.41719934207097 0 170.41719934207097 -119.36470007446543 0 0 0 0 -24.334904607552289 -82.941075808028103 0 -82.941075808028103 -87.352569268550099 0 0 0 0 59.589244236736704 -13.186925590802502 0 -13.186925590802502 -70.018600186518142 0 0 0 0 30.791003847684806 -7.9067113537854397 0 -7.9067113537854397 -61.827133490085686 0 0 0 0 -89.756749359298283 -10.434346532458022 0 -10.434346532458022 -20.462997018666556 0 0 0 0 0.5112240801412824 -0.24306344247962741 0 -0.24306344247962741 -0.24066609918232906 0 0 0 0 -127.81895515647739 -56.429662373844849 0 -56.429662373844849 112.78476822005553 0 0 0 0 -259.76650569486355 5.7934512723036846 0 5.7934512723036846 27.372397571533725 0 0 0 0 -239.77951828697223 58.898284514986415 0 58.898284514986415 -82.691432684397796 0 0 0 0 -292.5558312756275 125.93592218873721 0 125.93592218873721 -33.154706633864521 0 0 0 0 -294.20569709164556 144.02442219124407 0 144.02442219124407 -59.696056368829943 0 0 0 0 -424.13696668889679 -13.0954416331858 0 -13.0954416331858 29.339059449868003 0 0 0 0 -381.28772853242708 0.59438549023617782 0 0.59438549023617782 -40.86822561415903 0 0 0 0 -390.85562019412191 19.036834547703897 0 19.036834547703897 -11.830536731659748 0 0 0 0 -213.81465441212367 82.653692229073513 0 82.653692229073513 -27.204994836554377 0 0 0 0 -253.49483838527522 79.908978701219382 0 79.908978701219382 -120.16499324459123 0 0 0 0 -96.845961688468378 62.347681489549558 0 62.347681489549558 -63.424964668021914 0 0 0 0 -186.85897420075753 21.827368042862108 0 21.827368042862108 -45.653051579949761 0 0 0 0 -7.737461064475724 -6.5656759334048189 0 -6.5656759334048189 -5.7250563021890617 0 0 0 0 -65.562566215569859 19.701413356739153 0 19.701413356739153 -41.83760935233397 0 0 0 0 -33.892033153853845 15.271285133987931 0 15.271285133987931 -41.507537027289061 0 0 0 0 -220.54868086901615 11.303428948371078 0 11.303428948371078 -1.4783809497261586 0 0 0 0 -319.02619744527419 91.003647615528322 0 91.003647615528322 3.8185366116837258 0 0 0 0 -88.591081942671735 -85.17111258965005 0 -85.17111258965005 132.7164526722126 0 0 0 0 -2.0854844637687293 -0.17042536688634158 0 -0.17042536688634158 0.14120985748053716 0 0 0 0 -21.334956151714323 43.484100910804557 0 43.484100910804557 -14.335254583939104 0 0 0 0 -48.64901754573566 51.732570199316967 0 51.732570199316967 57.765672922423278 0 0 0 0 -301.32149732670769 271.68972672479947 0 271.68972672479947 -149.86957480000984 0 0 0 0 -187.67580157589691 166.53874958849255 0 166.53874958849255 -31.197810226946217 0 0 0 0 -156.79224667380731 154.55476106783331 0 154.55476106783331 -59.431780221798192 0 0 0 0 -152.66499856340752 70.669639954330421 0 70.669639954330421 89.441529447468724 0 0 0 0 -133.18485443353666 301.56547799277422 0 301.56547799277422 -110.29575087316243 0 0 0 0 -103.53184288450666 87.002044493015035 0 87.002044493015035 31.2514825866308 0 0 0 0 -385.2931489213106 470.0202098819085 0 470.0202098819085 -436.59172663420532 0 0 0 0 -64.412549484217379 121.92172488942413 0 121.92172488942413 -82.198526713700403 0 0 0 0 50.012902374579426 70.018539936550042 0 70.018539936550042 -59.032283700867083 0 0 0 0 -34.216580950954267 152.4257479431248 0 152.4257479431248 -52.864162620857087 0 0 0 0 -157.0902799309788 33.543286525481165 0 33.543286525481165 -34.844852388894139 0 0 0 0 -59.383696884171513 47.490345509763301 0 47.490345509763301 -71.573426837342822 0 0 0 0 -140.33631789238007 -27.954623837289432 0 -27.954623837289432 10.993360800594701 0 0 0 0 -99.902438743640232 52.559390760253677 0 52.559390760253677 -35.138908829918137 0 0 0 0 -0.17590142209878934 0.91859977726606212 0 0.91859977726606212 -0.51010259447634065 0 0 0 0 -70.555764967543837 -91.164758651112891 0 -91.164758651112891 -102.70449556408755 0 0 0 0 -33.076275416613498 -27.84343724374196 0 -27.84343724374196 -9.3897981648501769 0 0 0 0 -63.309829797934071 60.43811311876118 0 60.43811311876118 50.352172591681096 0 0 0 0 -158.52047891645088 17.754348922940096 0 17.754348922940096 37.322729539329544 0 0 0 0 -200.65983333200847 15.243100074560346 0 15.243100074560346 7.8994477214610015 0 0 0 0 -76.016570765646975 19.747510800215423 0 19.747510800215423 -8.6090137844704486 0 0 0 0 -181.76600986644894 51.681932305864031 0 51.681932305864031 2.5229872249281016 0 0 0 0 -184.07950326025548 77.016128502479262 0 77.016128502479262 -31.48447421762387 0 0 0 0 -359.67402768480247 67.975390835797498 0 67.975390835797498 5.1649567578880351 0 0 0 0 -95.428924253503283 -12.397750751536307 0 -12.397750751536307 -43.32644852865036 0 0 0 0 -97.900255339836804 -13.803779635282069 0 -13.803779635282069 -0.74179339750605777 0 0 0 0 -11.857250374131581 -20.915870534010594 0 -20.915870534010594 -76.586136698361088 0 0 0 0 -9.6734270550414294 -8.128415032864666 0 -8.128415032864666 -7.1006228826217921 0 0 0 0 12.864157577329024 -56.594446609495151 0 -56.594446609495151 -2.344231902919546 0 0 0 0 -18.51690875156055 -12.828136092406282 0 -12.828136092406282 11.136615649809528 0 0 0 0 -27.382882626567152 -31.601392580239633 0 -31.601392580239633 -28.266198199959945 0 0 0 0 -90.335638283213029 -3.0506467619124749 0 -3.0506467619124749 12.567698598908692 0 0 0 0 -9.5999890944658546 -19.806723989522766 0 -19.806723989522766 10.22167212019292 0 0 0 0 -29.420676468136662 -23.663686279918352 0 -23.663686279918352 42.340140411004654 0 0 0 0 -5.3414939606782852 -5.3960264722122808 0 -5.3960264722122808 -0.27664210419000645 0 0 0 0 -23.421625140116703 -44.737336946294477 0 -44.737336946294477 -23.919705482594509 0 0 0 0 -14.498843967666922 -11.899133984180772 0 -11.899133984180772 -3.3799926595170193 0 0 0 0 -18.626832884251655 -1.6352874791535319 0 -1.6352874791535319 -0.18337052232654422 0 0 0 0 -157.71142346951501 -12.918337511748668 0 -12.918337511748668 25.11672287456603 0 0 0 0 -84.613881070395792 -86.756924153229875 0 -86.756924153229875 -56.178883822299383 0 0 0 0 -15.180471598055647 -39.182050956032754 0 -39.182050956032754 10.960990524649674 0 0 0 0 -784.92776877716324 -91.52889319206011 0 -91.52889319206011 69.32415745271399 0 0 0 0 -97.864308924865213 -49.064312121026589 0 -49.064312121026589 -154.75122097096454 0 0 0 0 -805.16944179127518 -634.38362786950461 0 -634.38362786950461 -296.58400008685504 0 0 0 0 -177.35591484759561 33.551962035014192 0 33.551962035014192 -83.218033663096435 0 0 0 0 -1026.1950439329478 -207.13736640980287 0 -207.13736640980287 -52.662973659974867 0 0 0 0 -1499.9195962692727 -183.14708699936983 0 -183.14708699936983 280.00128603440606 0 0 0 0 -1499.2570172937014 350.07296797092681 0 350.07296797092681 91.515396075286048 0 0 0 0 -868.64205020130737 79.22577397980649 0 79.22577397980649 166.89929136349721 0 0 0 0 -11.662863510787236 -11.854100986298009 0 -11.854100986298009 -3.7867776374648097 0 0 0 0 20.377615228390823 1.3127966487393792 0 1.3127966487393792 -17.079584500806391 0 0 0 0 -10.131711678936517 -9.0250083716980996 0 -9.0250083716980996 -2.6041896355762089 0 0 0 0 37.192120920401067 -33.402817526544595 0 -33.402817526544595 -13.109511683096173 0 0 0 0 -1064.8569203836755 353.64595423218634 0 353.64595423218634 -68.088743904349769 0 0 0 0 -94.162569772819552 16.537044726662543 0 16.537044726662543 6.2703656724166308 0 0 0 0 -68.212514825279868 -6.2644973613987531 0 -6.2644973613987531 24.495657651145393 0 0 0 0 -21.690468181695906 20.561541646860633 0 20.561541646860633 2.3083799624777157 0 0 0 0 -78.541533984122225 14.907012846320413 0 14.907012846320413 21.183118452070858 0 0 0 0 -96.210943391030014 1.4416858780383848 0 1.4416858780383848 16.719779406942479 0 0 0 0 -83.160006365612389 -5.0997411387242551 0 -5.0997411387242551 -30.37036436627227 0 0 0 0 -106.94159177884103 -28.314746404539349 0 -28.314746404539349 -13.237615822959132 0 0 0 0 -97.967334978802683 -8.5815745866791673 0 -8.5815745866791673 -92.650657972311365 0 0 0 0 -128.89860660933118 -39.517082825460179 0 -39.517082825460179 -29.025981227521445 0 0 0 0 -61.440961133269411 -57.206984187462574 0 -57.206984187462574 -106.17899677713456 0 0 0 0 48.068471407057586 -25.79022000481848 0 -25.79022000481848 -80.164192104849917 0 0 0 0 -85.562869656707335 -123.87213982202229 0 -123.87213982202229 -151.78612817420296 0 0 0 0 -65.782188249526371 -10.188190193583523 0 -10.188190193583523 33.286315121860753 0 0 0 0 -67.649520418468455 -28.766088706877667 0 -28.766088706877667 -28.534346092092285 0 0 0 0 -67.226152765819279 -3.1155420227165678 0 -3.1155420227165678 23.476498064068892 0 0 0 0 0.25611837115383196 -0.46595474877113574 0 -0.46595474877113574 -2.8418345726285912 0 0 0 0 -7.8904829065922968 -46.179649206317208 0 -46.179649206317208 29.37499334051526 0 0 0 0 56.509299296148129 -38.297232045851274 0 -38.297232045851274 -35.818533624184511 0 0 0 0 33.822281551110791 59.194694779485872 0 59.194694779485872 -59.523075524586318 0 0 0 0 -70.04478215049312 -2.2122501295319807 0 -2.2122501295319807 23.678691825880833 0 0 0 0 0.42600119983352869 0.17282292064967919 0 0.17282292064967919 -1.763033009870357 0 0 0 0 -65.590400817247428 -1.2803357897460046 0 -1.2803357897460046 8.5367957457864634 0 0 0 0 -65.067764256627925 4.166095220928355 0 4.166095220928355 27.7891323133681 0 0 0 0 -67.264433352940614 -6.7171191838172035 0 -6.7171191838172035 27.080294813860291 0 0 0 0 -68.624985758965522 -5.095652409322895 0 -5.095652409322895 25.335250169002848 0 0 0 0 -47.095657799989112 12.023826602760721 0 12.023826602760721 21.436183102307723 0 0 0 0 -23.759346188973723 13.192034665782671 0 13.192034665782671 20.016186647100312 0 0 0 0 -52.443383466006708 -9.5098827105482542 0 -9.5098827105482542 20.272787369925027 0 0 0 0 -18.305647741382927 6.168367134763912 0 6.168367134763912 27.86419322487653 0 0 0 0 5.8639302721171589 24.536655725104424 0 24.536655725104424 24.138998408001953 0 0 0 0 -39.214311522569915 -2.8566005334428155 0 -2.8566005334428155 24.282277650330599 0 0 0 0 -18.917053611258872 5.1579246850430351 0 5.1579246850430351 16.39951971334003 0 0 0 0 -1.8457620673052588 10.298953905888538 0 10.298953905888538 9.6031785542235184 0 0 0 0 -23.932480675621264 17.42422317454043 0 17.42422317454043 27.504604433171664 0 0 0 0 -21.907123062856044 0.34826895365984001 0 0.34826895365984001 19.681310717065642 0 0 0 0 -32.732933006838721 -3.7823874126954706 0 -3.7823874126954706 25.309960941699956 0 0 0 0 -37.746027575030894 1.0285755093202624 0 1.0285755093202624 16.800218145931012 0 0 0 0 -32.895256415698896 -4.6393705076858396 0 -4.6393705076858396 23.41557774698731 0 0 0 0 -29.036589082212231 -19.37591218943453 0 -19.37591218943453 7.2963712876816089 0 0 0 0 -18.830219218735024 4.2016205006024094 0 4.2016205006024094 15.800292841132155 0 0 0 0 4.5194394064274093 23.552352952971546 0 23.552352952971546 12.210307384797716 0 0 0 0 -29.007047687156955 -22.655162044466579 0 -22.655162044466579 30.769075845307725 0 0 0 0 -13.231667976366918 -9.9472712979205742 0 -9.9472712979205742 -6.1409522487659309 0 0 0 0 -58.036320286739283 32.134157044247218 0 32.134157044247218 -36.296247339800175 0 0 0 0 -61.347800588209793 18.484712886508987 0 18.484712886508987 -9.3085605515079806 0 0 0 0 -37.300096905370992 39.950443239618735 0 39.950443239618735 -54.89461330139045 0 0 0 0 -80.577838110308221 53.29887435762862 0 53.29887435762862 -36.960015530145171 0 0 0 0 -3.0332117029740573 -0.40200220988043966 0 -0.40200220988043966 1.1540136051857117 0 0 0 0 -25.854684129122688 44.768792378973046 0 44.768792378973046 -73.345284208056455 0 0 0 0 1.7498690425414871 4.9007532464090637 0 4.9007532464090637 4.9605185225840893 0 0 0 0 -6.6063380888463143 13.804686333586261 0 13.804686333586261 11.742843746349125 0 0 0 0 -36.21116192243835 32.939699550372609 0 32.939699550372609 5.1064498452512908 0 0 0 0 -47.268340285798331 30.4497281177932 0 30.4497281177932 4.5459704812814152 0 0 0 0 -52.711989990041729 35.845921810134627 0 35.845921810134627 43.133498302610121 0 0 0 0 -68.618393319446113 39.046627900737974 0 39.046627900737974 6.1345382033994156 0 0 0 0 -46.00325981613787 52.503271425129014 0 52.503271425129014 9.518333566326902 0 0 0 0 -41.744853803382284 31.14521547960328 0 31.14521547960328 -6.1972293291163396 0 0 0 0 -22.93615420327842 14.067532911545754 0 14.067532911545754 9.0374894105754748 0 0 0 0 -5.9347927071295317 11.011015748309582 0 11.011015748309582 -5.7703819572999464 0 0 0 0 10.82484164782727 16.443368990680767 0 16.443368990680767 -6.867995014089054 0 0 0 0 -15.081377375432567 82.206193208118151 0 82.206193208118151 73.083042408283234 0 0 0 0 -178.94915784828663 -123.2475668860282 0 -123.2475668860282 156.3536239742736 0 0 0 0 -87.399187565732063 52.483220483104759 0 52.483220483104759 104.37247004389832 0 0 0 0 -5.0836275099409249 -27.485320549464745 0 -27.485320549464745 64.70784372636956 0 0 0 0 2.4477440179272882 1.2478616612699582 0 1.2478616612699582 0.53694347955706112 0 0 0 0 71.840212393766706 97.101321254722734 0 97.101321254722734 -149.29238660082592 0 0 0 0 -236.2166976008084 121.99756491642768 0 121.99756491642768 -150.32347967564829 0 0 0 0 -54.011303707564366 3.8378368605597757 0 3.8378368605597757 98.147791317121232 0 0 0 0 -4.7319917946259196 -0.67893896809197329 0 -0.67893896809197329 0.50564687806080544 0 0 0 0 -36.499102326113643 26.609512986429706 0 26.609512986429706 31.87971795711718 0 0 0 0 -41.374194171225099 74.189563532980912 0 74.189563532980912 -38.60037370891348 0 0 0 0 -4.4300441001171826 -1.0982739315341004 0 -1.0982739315341004 0.079157634070195382 0 0 0 0 -154.55109622080727 -148.51841922453605 0 -148.51841922453605 154.63395872481129 0 0 0 0 -117.72520923904358 128.722087984295 0 128.722087984295 11.233241615250734 0 0 0 0 -321.6144569313783 89.115039974355852 0 89.115039974355852 28.456108429897427 0 0 0 0 97.34073026247097 -31.205581090420992 0 -31.205581090420992 -168.91052976619937 0 0 0 0 -56.4701526194076 -66.191736363185044 0 -66.191736363185044 -176.52375425924265 0 0 0 0 -281.19520752328481 -315.36271103559488 0 -315.36271103559488 -437.35483846429787 0 0 0 0 -731.90135448309502 124.98525831374079 0 124.98525831374079 34.720790347793695 0 0 0 0 -1.5162761730396781 -0.79260014571934789 0 -0.79260014571934789 -0.5694176792108594 0 0 0 0 -70.866320529374207 -218.34340987652376 0 -218.34340987652376 -126.60743686494152 0 0 0 0 -354.35703646980255 49.806505900563934 0 49.806505900563934 -331.63990187462753 0 0 0 0 -363.12399067408114 22.803262290550492 0 22.803262290550492 -396.90334753521438 0 0 0 0 -299.78077584552329 -204.53084304435578 0 -204.53084304435578 -173.23437972882948 0 0 0 0 92.429175101737201 -159.47726137795337 0 -159.47726137795337 -235.40426154834972 0 0 0 0 -21.509634994574299 -147.62398321876992 0 -147.62398321876992 -143.36799167732124 0 0 0 0 -67.41903573397758 -205.95904453001913 0 -205.95904453001913 -198.03426364018503 0 0 0 0 -68.602662136254366 -188.38855123796196 0 -188.38855123796196 -246.98315652811561 0 0 0 0 -196.52851337211541 -310.73701945851371 0 -310.73701945851371 -363.9781926665097 0 0 0 0 -591.49085128966726 -181.35723110976687 0 -181.35723110976687 -105.08835420118749 0 0 0 0 -75.496952583369421 -66.347368040251013 0 -66.347368040251013 -82.461654193918548 0 0 0 0 9.0459751998787397 -135.28872284335785 0 -135.28872284335785 -91.689208360330213 0 0 0 0 -299.42811840549621 -201.85063259890376 0 -201.85063259890376 -100.53804242577371 0 0 0 0 -336.44598723604577 98.469457489105025 0 98.469457489105025 0.76057082509214524 0 0 0 0 -78.008265110986486 164.89111033323033 0 164.89111033323033 69.204694284787365 0 0 0 0 -177.85258574609179 55.808283121055865 0 55.808283121055865 10.153063292425486 0 0 0 0 -56.763643133275764 84.526284392012485 0 84.526284392012485 -184.21373599748517 0 0 0 0 -98.611634067827254 55.003858531627202 0 55.003858531627202 104.06564594535257 0 0 0 0 -63.507946681012982 34.405062413042742 0 34.405062413042742 -44.485253089539356 0 0 0 0 -109.4337247041949 116.74852164890308 0 116.74852164890308 0.94228723388141589 0 0 0 0 -108.21423555270667 90.751350030837784 0 90.751350030837784 -99.044488140949397 0 0 0 0 -263.92548643036571 122.54025448484526 0 122.54025448484526 -98.828318938562006 0 0 0 0 -0.9496981368138222 36.160707169531634 0 36.160707169531634 -7.7597885558461712 0 0 0 0 9.7379449580039363 42.595429262990365 0 42.595429262990365 -5.9697082348739059 0 0 0 0 17.529160351412429 58.294609672299885 0 58.294609672299885 25.432601069849625 0 0 0 0 -4.8356997353366751 41.481733525413802 0 41.481733525413802 40.082465877760114 0 0 0 0 -7.5631603205038118 34.980836136926882 0 34.980836136926882 24.943889827727617 0 0 0 0 57.632960791579535 15.854592216376432 0 15.854592216376432 -8.0485124351989725 0 0 0 0 1.5379848682132433 20.195901308389693 0 20.195901308389693 -8.3128164450234863 0 0 0 0 -50.425561203172947 67.441800309120651 0 67.441800309120651 -12.192423559105009 0 0 0 0 -10.888757404372882 13.263446456357997 0 13.263446456357997 33.099918808073653 0 0 0 0 9.2405219012507587 16.585847056971943 0 16.585847056971943 -8.1504143006711161 0 0 0 0 22.745824562953203 16.468101561054482 0 16.468101561054482 -89.62537715300823 0 0 0 0 1.4217277389980154 -20.667074341801708 0 -20.667074341801708 -90.279160594226141 0 0 0 0 5.9375257297579083 2.8105004255808126 0 2.8105004255808126 -48.280219691927869 0 0 0 0 -6.5720241734425144 36.505485719794819 0 36.505485719794819 -6.7392203345862072 0 0 0 0 19.851770236649827 6.0680204927205068 0 6.0680204927205068 -60.736652761014739 0 0 0 0 -143.59914827112516 -278.68364534739158 0 -278.68364534739158 97.830552781017445 0 0 0 0 -6.9531119415435114 -0.34404007063682229 0 -0.34404007063682229 -1.7954180878960568 0 0 0 0 -0.78057407533718504 -1.1604098434373622 0 -1.1604098434373622 -0.2629821638477633 0 0 0 0 -49.235540937926999 -154.93983184054787 0 -154.93983184054787 -283.11419188771242 0 0 0 0 113.88423856304507 16.386153760962316 0 16.386153760962316 -253.24643133241648 0 0 0 0 -101.24352731028193 -190.25737518961137 0 -190.25737518961137 -197.95419705393306 0 0 0 0 -137.53744901253594 -166.59833713170713 0 -166.59833713170713 -145.55610075971708 0 0 0 0 -41.315575046119193 -128.13363283722401 0 -128.13363283722401 -133.79867184406976 0 0 0 0 6.3140998519884306 -88.10976821253962 0 -88.10976821253962 -215.89021750439724 0 0 0 0 41.199493305155556 -24.47634675721315 0 -24.47634675721315 -143.94689920731889 0 0 0 0 -63.146471835967532 -111.35750668617447 0 -111.35750668617447 -128.76957943535763 0 0 0 0 -2.9642706623461663 -0.63912558258374386 0 -0.63912558258374386 -0.64160024939464233 0 0 0 0 -296.65962749996106 -161.70658743373497 0 -161.70658743373497 -299.67015421449651 0 0 0 0 -120.50179980254325 -163.10568562714298 0 -163.10568562714298 -282.41137903396532 0 0 0 0 -312.52946440792402 -105.28710178303299 0 -105.28710178303299 -275.92572157591167 0 0 0 0 -286.39262553617664 -60.736786224188108 0 -60.736786224188108 -309.9428404227956 0 0 0 0 -193.11261302017374 -158.84119569718177 0 -158.84119569718177 -198.22272307699109 0 0 0 0 -143.36651617485768 -192.98331450014575 0 -192.98331450014575 -208.96719486785264 0 0 0 0 -187.7222041656496 -196.2983192331867 0 -196.2983192331867 -284.78059020585044 0 0 0 0 -274.73006873044505 -189.85967476900123 0 -189.85967476900123 -190.38577534116348 0 0 0 0 -255.77071722080291 -162.13301130645391 0 -162.13301130645391 -397.83637034967416 0 0 0 0 -301.07261349837427 -156.93175474328018 0 -156.93175474328018 -41.159994058560869 0 0 0 0 -158.84861121616268 -82.052725497837514 0 -82.052725497837514 -38.729892052646235 0 0 0 0 -167.86628102334544 -158.24065904572572 0 -158.24065904572572 -77.172381061756823 0 0 0 0 -212.77391586449085 -180.50276235311355 0 -180.50276235311355 -190.59733920089002 0 0 0 0 -161.27242733124513 -151.3953027115042 0 -151.3953027115042 -86.935028792770936 0 0 0 0 -216.78352160936993 -203.44103293921708 0 -203.44103293921708 -133.05740695370696 0 0 0 0 -129.15448285607636 -190.113666780264 0 -190.113666780264 -144.67522272015043 0 0 0 0 -102.75931431051868 -173.39746315811999 0 -173.39746315811999 -131.46815017483254 0 0 0 0 -119.30208214490085 -169.03325672398012 0 -169.03325672398012 -99.676682982306374 0 0 0 0 -110.94592744117836 -109.79356469431298 0 -109.79356469431298 -133.13407909292732 0 0 0 0 -106.98227793621481 -94.44485618716503 0 -94.44485618716503 -82.412262934151357 0 0 0 0 -150.26394431175231 -94.187526792606263 0 -94.187526792606263 36.478437911195783 0 0 0 0 -95.551267920092869 -177.45817724449876 0 -177.45817724449876 -212.03627944878008 0 0 0 0 -35.948873706553513 -122.84099117863454 0 -122.84099117863454 -164.48682850609094 0 0 0 0 -217.03151487328796 -101.29305166533345 0 -101.29305166533345 -108.07616149456764 0 0 0 0 -110.04884165070507 -45.700215524994178 0 -45.700215524994178 -238.63703777513956 0 0 0 0 -203.38891379898905 -55.449179611405242 0 -55.449179611405242 6.5543125527105985 0 0 0 0 -141.61049442452713 -187.26323853937834 0 -187.26323853937834 -162.19921864947031 0 0 0 0 -32.136739546658646 -78.574370461489707 0 -78.574370461489707 -101.28062301213436 0 0 0 0 -95.730341094377536 -124.67413282254134 0 -124.67413282254134 -83.18532967799365 0 0 0 0 1.9601454460134846 7.7217861823987732 0 7.7217861823987732 -25.887380316407416 0 0 0 0 6.1065956312377239 -38.736769589042979 0 -38.736769589042979 7.8491519508122565 0 0 0 0 0.29253330474499606 -0.38305825687729111 0 -0.38305825687729111 -1.8606191330437412 0 0 0 0 47.509427546949155 -26.919298169210379 0 -26.919298169210379 -225.28607061654773 0 0 0 0 -18.129625654612028 11.190151096637464 0 11.190151096637464 -24.48081856433646 0 0 0 0 -0.91293500652099269 -1.1678351420496611 0 -1.1678351420496611 -3.4058659007467309 0 0 0 0 24.266801919635327 13.786623837652769 0 13.786623837652769 0.31982201006371724 0 0 0 0 5.6106889681941539 -11.275667060750379 0 -11.275667060750379 -15.542272478944142 0 0 0 0 14.64657057689692 -16.888051754922117 0 -16.888051754922117 -17.796332854107277 0 0 0 0 -10.450917234633785 -1.4468866838627683 0 -1.4468866838627683 -1.8734795573517797 0 0 0 0 -4.6276809676965058 -1.7605787842776408 0 -1.7605787842776408 -0.91809828226996615 0 0 0 0 -6.7211545494400937 -1.115926037706771 0 -1.115926037706771 -1.258333517416288 0 0 0 0 -53.893962464942888 1.0709673103478963 0 1.0709673103478963 13.4358965967252 0 0 0 0 -3.6998573463366142 0.13884367281941312 0 0.13884367281941312 -0.40323820930235571 0 0 0 0 -0.60273792388034053 12.685375959437806 0 12.685375959437806 -34.520737019489246 0 0 0 0 -91.178310476600018 -63.382196526243888 0 -63.382196526243888 -66.469437637662395 0 0 0 0 -19.375214554709601 20.26357209259163 0 20.26357209259163 -20.964140439908078 0 0 0 0 -78.60229007214366 -7.9233515210100904 0 -7.9233515210100904 -7.2826889421266969 0 0 0 0 -31.536899501421431 -2.0821610462039644 0 -2.0821610462039644 2.1850676018643753 0 0 0 0 -11.577609482319531 2.5069318313439908 0 2.5069318313439908 6.8479984637751841 0 0 0 0 -13.201161651615173 2.766591835393406 0 2.766591835393406 0.26895596151404177 0 0 0 0 -60.217331916614739 122.87097029529541 0 122.87097029529541 52.659671895508836 0 0 0 0 -3.5309423922601546 5.9548354955553817 0 5.9548354955553817 -0.25586579332625847 0 0 0 0 -3.3267942259826668 39.618988482353075 0 39.618988482353075 -6.965974140115577 0 0 0 0 -13.892546969431031 -3.0551698001264858 0 -3.0551698001264858 -2.2630773608745551 0 0 0 0 -5.5141778040197096 34.506364265278535 0 34.506364265278535 -2.2235607463508131 0 0 0 0 -30.482753834191733 4.7918367882761839 0 4.7918367882761839 -3.2839821292040661 0 0 0 0 -1.4292666176115745 40.681605241567922 0 40.681605241567922 -6.9951225381337849 0 0 0 0 -19.789207825481455 -1.2408845984700507 0 -1.2408845984700507 -1.1673991695032306 0 0 0 0 -34.551293252480718 -2.250966028470657 0 -2.250966028470657 1.1657372925733398 0 0 0 0 -23.05259615815282 -0.49036845126670814 0 -0.49036845126670814 -0.31572652132530443 0 0 0 0 -21.736826940727042 1.5061412804052452 0 1.5061412804052452 -1.285085217946289 0 0 0 0 -15.742685694401189 -0.96327163121077319 0 -0.96327163121077319 0.24768150043087189 0 0 0 0 -24.903278303879461 3.7893672372927085 0 3.7893672372927085 1.5133588695979654 0 0 0 0 -13.826465145109836 -1.7706080093964234 0 -1.7706080093964234 -1.197384706443346 0 0 0 0 -30.010629198683091 -3.7288284282840323 0 -3.7288284282840323 -3.7790050984887671 0 0 0 0 -16.951029924548493 -1.6725114905821101 0 -1.6725114905821101 -0.16288699704364262 0 0 0 0 -20.059968641905616 -2.1574461857421703 0 -2.1574461857421703 -2.6437992859031381 0 0 0 0 -27.595664880858347 -5.8264338734941594 0 -5.8264338734941594 -0.69717128430427988 0 0 0 0 -19.067202185564383 -6.2172626757346734 0 -6.2172626757346734 6.8682876308466803 0 0 0 0 -28.272038187382577 -9.4118004959831296 0 -9.4118004959831296 -1.0400879569415338 0 0 0 0 -24.423207519368351 -1.4704134513393932 0 -1.4704134513393932 -0.30162757627600012 0 0 0 0 -20.803831537154217 -7.1536137915366433 0 -7.1536137915366433 -3.031906283145597 0 0 0 0 -26.581293692486344 -1.5460855272937657 0 -1.5460855272937657 -0.90130492627567804 0 0 0 0 -52.572422859997459 0.48286326809648017 0 0.48286326809648017 42.477672090764088 0 0 0 0 -24.073352237125242 -9.2874234579783579 0 -9.2874234579783579 -0.59694064309647565 0 0 0 0 -40.434331733615181 -11.522350333567374 0 -11.522350333567374 -2.0828112283816154 0 0 0 0 -41.375053675623349 -7.7092512155531949 0 -7.7092512155531949 0.76584749391258811 0 0 0 0 -34.690345535389497 -9.644228736930927 0 -9.644228736930927 -8.1734579226676942 0 0 0 0 -25.878280954677482 -8.6148867268625544 0 -8.6148867268625544 -0.70587169922213544 0 0 0 0 -35.980779555626214 -3.9055720906362694 0 -3.9055720906362694 0.95242431818576279 0 0 0 0 -10.265350372244896 -3.8782171386666899 0 -3.8782171386666899 -8.274587884624605 0 0 0 0 -19.851427602931022 2.2405464901513952 0 2.2405464901513952 -1.2150385997336457 0 0 0 0 -23.330153409995546 -7.2623924507563515 0 -7.2623924507563515 -7.3329575421540198 0 0 0 0 -7.2668667797115631 -66.027374446801332 0 -66.027374446801332 12.570400256367179 0 0 0 0 -19.731860909234214 0.29281239159057648 0 0.29281239159057648 -7.0997497694878442 0 0 0 0 16.590186862707924 -38.768715176435535 0 -38.768715176435535 -7.2001523664093838 0 0 0 0 -148.95747197466335 117.77757163743399 0 117.77757163743399 3.8319420003444975 0 0 0 0 -110.69721791025381 -75.246843943037121 0 -75.246843943037121 40.94443182354189 0 0 0 0 -119.04082218526128 24.837533271883316 0 24.837533271883316 12.094696573593865 0 0 0 0 -75.929412279201642 23.927638902281842 0 23.927638902281842 -13.843578032976893 0 0 0 0 -76.129500548922806 -5.7647597192583362 0 -5.7647597192583362 -10.643993490392688 0 0 0 0 -1.8742890238499967 -29.721665344015719 0 -29.721665344015719 -41.710792575194318 0 0 0 0 -1.3957700417796417 -2.9287048636414621 0 -2.9287048636414621 -0.26607631555688649 0 0 0 0 23.98229375131632 -17.678844175202357 0 -17.678844175202357 -9.6641155705685833 0 0 0 0 -6.3489708984910074 -0.13838230453112388 0 -0.13838230453112388 -2.9287047071209633 0 0 0 0 -65.716278066234736 5.8212960209912978 0 5.8212960209912978 186.18396996246122 0 0 0 0 -81.846336292657924 -11.647907500800542 0 -11.647907500800542 -1.3724930827624591 0 0 0 0 -118.0306434482336 -49.595706885833351 0 -49.595706885833351 115.81065184276304 0 0 0 0 -93.829031529337271 -63.993315406122576 0 -63.993315406122576 51.155452497267106 0 0 0 0 -93.635072835575556 -67.783502292977573 0 -67.783502292977573 42.116058234574666 0 0 0 0 -63.056062458352244 -36.313785176022066 0 -36.313785176022066 73.186881285149866 0 0 0 0 -126.50602574348886 -71.464063813520625 0 -71.464063813520625 76.843303308744908 0 0 0 0 -92.861243183015176 -31.254975416253728 0 -31.254975416253728 103.98951709466928 0 0 0 0 -25.723362042153894 -13.237631881549532 0 -13.237631881549532 39.73541489867057 0 0 0 0 -55.416772014184971 -10.369019108267821 0 -10.369019108267821 73.712675664119161 0 0 0 0 -42.146592251250695 -57.057566200328438 0 -57.057566200328438 11.091880685799879 0 0 0 0 -42.441602870392671 -43.938256869324505 0 -43.938256869324505 8.1504520607595623 0 0 0 0 -52.460100443393117 -8.7235403958562596 0 -8.7235403958562596 -2.5212838173262346 0 0 0 0 -44.9787915913912 -26.554540806527257 0 -26.554540806527257 -0.056217668612362104 0 0 0 0 24.775307095275821 -15.686370535019705 0 -15.686370535019705 16.854405168669018 0 0 0 0 -25.768240857501993 -21.399564707722416 0 -21.399564707722416 -7.1785222450671426 0 0 0 0 -18.74661430164997 -39.308640291630581 0 -39.308640291630581 -10.563371043283951 0 0 0 0 -75.30948822389837 -16.627266751213028 0 -16.627266751213028 -3.219603730277413 0 0 0 0 -4.4957221104607683 2.0181181673137623 0 2.0181181673137623 -1.0776863196659221 0 0 0 0 -7.6367493225094449 5.2910416680030004 0 5.2910416680030004 -6.3672422148048149 0 0 0 0 43.131669544043689 -21.215705141748913 0 -21.215705141748913 -44.286152917682557 0 0 0 0 -26.983247311203741 -10.433276947558625 0 -10.433276947558625 -32.998837679770077 0 0 0 0 -4.9320892666219152 -20.962857731128679 0 -20.962857731128679 -36.746407047381581 0 0 0 0 16.514973115579778 -42.031954540882907 0 -42.031954540882907 -35.581948337119684 0 0 0 0 -14.737871880868624 -32.39375947935423 0 -32.39375947935423 -19.901766704395413 0 0 0 0 -9.8537488195215701 -38.678209770067042 0 -38.678209770067042 -35.998396322109329 0 0 0 0 -17.61877001652465 -56.694835568332564 0 -56.694835568332564 -18.402275397191261 0 0 0 0 -12.349104496781365 -43.816465996602346 0 -43.816465996602346 -21.588262610799575 0 0 0 0 -4.502955079653475 -64.317835668549378 0 -64.317835668549378 -23.759009058931042 0 0 0 0 -24.960162910323561 -90.608732463761498 0 -90.608732463761498 -34.042292825201002 0 0 0 0 3.6995184711959155 -58.228044448468609 0 -58.228044448468609 -47.992991966049885 0 0 0 0 93.78829349634907 -53.632073753178702 0 -53.632073753178702 -74.966475696710404 0 0 0 0 33.866509993633372 -52.53471305048879 0 -52.53471305048879 -46.993893412542093 0 0 0 0 56.311414922354743 -88.937820154353176 0 -88.937820154353176 -63.311483903900807 0 0 0 0 26.849472137306293 -99.439420299689459 0 -99.439420299689459 -66.837575464855036 0 0 0 0 -20.089451136103889 -91.791189637841853 0 -91.791189637841853 -34.771670117057511 0 0 0 0 4.2382295551287825 -159.34915134420862 0 -159.34915134420862 -77.799092808629212 0 0 0 0 -45.667862977934419 -126.96197401642712 0 -126.96197401642712 -40.398711167008059 0 0 0 0 -51.718116377349361 -137.3980889641407 0 -137.3980889641407 -42.116076910563606 0 0 0 0 -130.97902231176704 -109.83564049428333 0 -109.83564049428333 1.612595174838134 0 0 0 0 -69.858372081856942 -82.243445552278899 0 -82.243445552278899 4.2799043076738599 0 0 0 0 -44.887438828176528 -62.76827076269501 0 -62.76827076269501 14.382305100119993 0 0 0 0 -75.081676686797437 -94.8816065686824 0 -94.8816065686824 5.1182929450442316 0 0 0 0 -130.64280448252248 -83.646145426881958 0 -83.646145426881958 40.970543605262719 0 0 0 0 -15.482320310798968 -185.54226842576645 0 -185.54226842576645 -55.46413909727562 0 0 0 0 -164.34011988561542 -204.74605157398628 0 -204.74605157398628 -31.305035861403667 0 0 0 0 99.80190801864228 -141.60967037848059 0 -141.60967037848059 -80.527472333229525 0 0 0 0 116.30700467789939 -102.23884435510809 0 -102.23884435510809 -96.108360481521231 0 0 0 0 -34.57267744778801 2.6789459217991407 0 2.6789459217991407 21.20055382425744 0 0 0 0 26.867959015227825 21.80737352247661 0 21.80737352247661 -10.967673382210705 0 0 0 0 -28.492585268555558 4.6192476295630058 0 4.6192476295630058 10.467943887833599 0 0 0 0 -3.8433681546393927 -8.9060836057782353 0 -8.9060836057782353 -45.666519099920151 0 0 0 0 -6.6238631226169673 -2.4303069978656993 0 -2.4303069978656993 -53.623485063488033 0 0 0 0 5.2912478756697965 -10.472917592171306 0 -10.472917592171306 -49.707215981111588 0 0 0 0 -2.4193645548220957 -26.386333983143402 0 -26.386333983143402 -23.118642616745035 0 0 0 0 -62.461451782588483 45.693470039032889 0 45.693470039032889 20.983087265220547 0 0 0 0 -0.74225073438128675 -20.965792171673378 0 -20.965792171673378 -56.813028129765542 0 0 0 0 -1.1519194420484524 1.0909865023852099 0 1.0909865023852099 -0.0058402705922357967 0 0 0 0 -15.053405895472679 -28.732390675793468 0 -28.732390675793468 -23.73250410199087 0 0 0 0 4.0985052248433931 -4.8139580225041811 0 -4.8139580225041811 -76.141515367260894 0 0 0 0 -100.90711437378923 -11.165783423071446 0 -11.165783423071446 -4.7758713402015402 0 0 0 0 -2.0049123550018422 -0.89567476029974458 0 -0.89567476029974458 0.69952852706362911 0 0 0 0 -24.806286400154931 27.406688429491766 0 27.406688429491766 -0.71862352580842526 0 0 0 0 -84.94150520518815 -0.99192402413245873 0 -0.99192402413245873 19.086064019298192 0 0 0 0 -75.640438244918187 5.2002425350365229 0 5.2002425350365229 -2.4756906296822763 0 0 0 0 -22.182144668251567 -7.8857374995900216 0 -7.8857374995900216 -18.742952879017139 0 0 0 0 -62.02938552753676 15.865078046435542 0 15.865078046435542 -48.83707387527329 0 0 0 0 -54.105381762248726 -0.81260017715828781 0 -0.81260017715828781 -18.206820417691688 0 0 0 0 -14.671198739288229 -12.235825847222436 0 -12.235825847222436 -47.107022190148633 0 0 0 0 -94.113330115589633 -31.076408633952724 0 -31.076408633952724 -46.917062993347265 0 0 0 0 -42.548265136094642 -83.73838322153712 0 -83.73838322153712 -93.344725959924403 0 0 0 0 -25.179486169963639 -37.166170742644283 0 -37.166170742644283 -126.78421482780732 0 0 0 0 -200.13504089865091 -153.77255450833229 0 -153.77255450833229 -120.90367040234202 0 0 0 0 65.251419948455805 -127.0376630112622 0 -127.0376630112622 -164.69518544701481 0 0 0 0 -112.48272743173493 7.3475150177045236 0 7.3475150177045236 -125.66859089824064 0 0 0 0 -231.65219282487669 -180.95012899910972 0 -180.95012899910972 -111.69837052026222 0 0 0 0 -268.06345049569609 -182.90922406917139 0 -182.90922406917139 14.926453452919759 0 0 0 0 0.34341019847112619 -0.13801931389531319 0 -0.13801931389531319 -1.9001743282627337 0 0 0 0 -233.08117489107644 -199.19807853868272 0 -199.19807853868272 -6.9394806641284958 0 0 0 0 -115.95274972343213 51.397671023510441 0 51.397671023510441 -30.502301024754615 0 0 0 0 -315.46941431193773 -136.33665233437137 0 -136.33665233437137 9.7394155098892838 0 0 0 0 -1.0221796794235019 -0.15266814037293486 0 -0.15266814037293486 0.94067891384534541 0 0 0 0 -195.42748187656252 -108.7397610004204 0 -108.7397610004204 15.405003947276303 0 0 0 0 8.1315239386021858 22.609163896590559 0 22.609163896590559 -25.996049152875187 0 0 0 0 -49.957639144036875 22.049964371490393 0 22.049964371490393 -25.922912232955539 0 0 0 0 1.3356826738199743 1.9992129373406442 0 1.9992129373406442 -35.561423472228569 0 0 0 0 2.8894802137715487 -10.327181044544513 0 -10.327181044544513 -48.838010515652641 0 0 0 0 1.5719715383820585 8.4676892743768093 0 8.4676892743768093 -35.920884104070666 0 0 0 0 -3.2773457797848096 -7.6625088740859155 0 -7.6625088740859155 -0.16064111347952803 0 0 0 0 10.968842109333764 -9.6701800899312627 0 -9.6701800899312627 -30.39182373110765 0 0 0 0 -40.453295903993421 36.364692434850326 0 36.364692434850326 -57.479813751940355 0 0 0 0 -13.059030587528468 -2.6247910876187461 0 -2.6247910876187461 -4.038959264225582 0 0 0 0 -112.49428858671308 -21.336368131459878 0 -21.336368131459878 0.33954069840899592 0 0 0 0 -45.573036457068156 -14.5328015125977 0 -14.5328015125977 42.509824299190086 0 0 0 0 87.371120099393011 12.98154791244292 0 12.98154791244292 -10.385643102375866 0 0 0 0 -7.2123506784785292 -7.4320449156950446 0 -7.4320449156950446 -4.1327699222662542 0 0 0 0 -2.1701576189436551 -1.7600752989973962 0 -1.7600752989973962 0.38819384571907145 0 0 0 0 8.0775952390613384 17.199281686319637 0 17.199281686319637 13.345913951578154 0 0 0 0 3.4397437911393354 -5.1303838333872136 0 -5.1303838333872136 -4.250013005574047 0 0 0 0 -28.953042562724931 -77.407778417986663 0 -77.407778417986663 -158.12556921711484 0 0 0 0 -2.0485898238209685 -2.0497621713501308 0 -2.0497621713501308 -1.7353008409353607 0 0 0 0 -30.868319823995535 -97.236045069485726 0 -97.236045069485726 -304.77850928966654 0 0 0 0 -2.5781745895714892 -0.23841887479740009 0 -0.23841887479740009 -0.73367396282780262 0 0 0 0 -3.8277263939235127 -27.61502829217071 0 -27.61502829217071 11.598752689744849 0 0 0 0 -103.27502372023764 -98.590005839095255 0 -98.590005839095255 -32.880623540116176 0 0 0 0 -29.118376994818391 -103.36932303992285 0 -103.36932303992285 -161.55485543425164 0 0 0 0 -101.32466955073505 -52.316548198246437 0 -52.316548198246437 16.75240022377875 0 0 0 0 -240.31989792746026 42.844155399383567 0 42.844155399383567 17.841992817217829 0 0 0 0 -38.922402557274836 -41.329302568331059 0 -41.329302568331059 46.713697536956943 0 0 0 0 -6.5323295123680509 73.54272823261374 0 73.54272823261374 -209.1133946496625 0 0 0 0 -188.27163930939241 -173.91607021956702 0 -173.91607021956702 -133.60355432704671 0 0 0 0 -119.85836909721911 -135.68577697530736 0 -135.68577697530736 31.902008227519218 0 0 0 0 -227.74731249199976 -112.05880873883072 0 -112.05880873883072 67.130824633677094 0 0 0 0 130.87185956557005 194.23061332877626 0 194.23061332877626 100.84474665272558 0 0 0 0 -339.38094130058562 96.264481039186322 0 96.264481039186322 145.79960872122228 0 0 0 0 -8.2662906370460405 -120.41897330766096 0 -120.41897330766096 -256.61057659731955 0 0 0 0 -135.48607737850944 -250.66410639320515 0 -250.66410639320515 -151.79386950665048 0 0 0 0 230.46317057937631 -18.303412565449207 0 -18.303412565449207 -38.622118106872222 0 0 0 0 0.19894341557478512 0.78947009981889948 0 0.78947009981889948 -2.4404720462012204 0 0 0 0 -82.131568397733645 -91.097366151919914 0 -91.097366151919914 -75.453952564268093 0 0 0 0 -84.550153813599081 -220.96395213773863 0 -220.96395213773863 -120.79506220682106 0 0 0 0 249.66583906342566 19.341370663888029 0 19.341370663888029 4.093276928223986 0 0 0 0 -1.4158129448934602 -0.031564950153146754 0 -0.031564950153146754 1.387132661941429 0 0 0 0 168.73963653721876 69.574254430422457 0 69.574254430422457 -2.9548482946638615 0 0 0 0 324.19023928567913 21.388100079052379 0 21.388100079052379 -52.419041565204907 0 0 0 0 -342.61772977495275 -127.02008864662776 0 -127.02008864662776 59.584831245487749 0 0 0 0 -119.535663354929 -105.89426257099896 0 -105.89426257099896 -41.149573380423817 0 0 0 0 -0.31337825900025074 1.240430158440887 0 1.240430158440887 -0.59382813258693812 0 0 0 0 -32.397324249133817 -134.04127727659193 0 -134.04127727659193 -72.488753543706025 0 0 0 0 -13.664277755511762 -8.6046514865340207 0 -8.6046514865340207 -4.1718863591700606 0 0 0 0 -145.18076301193651 -94.14783109785094 0 -94.14783109785094 80.57889825618804 0 0 0 0 92.01134401028321 -52.364692455160366 0 -52.364692455160366 2.2198804540489618 0 0 0 0 -4.4124134823869099 5.7661441928295858 0 5.7661441928295858 6.8977580885863574 0 0 0 0 -5.4726632227855703 -56.116480814746026 0 -56.116480814746026 -35.178574049010876 0 0 0 0 32.052316054439871 -0.91131966932425712 0 -0.91131966932425712 -30.439182272880842 0 0 0 0 15.734902961325133 -37.441156794902781 0 -37.441156794902781 -107.57018820394273 0 0 0 0 11.485391956790409 -28.134599158168015 0 -28.134599158168015 5.6201288411869541 0 0 0 0 -7.9406709739204615 2.5581253497845431 0 2.5581253497845431 -3.556952972317422 0 0 0 0 27.551037980418187 1.9958703030956713 0 1.9958703030956713 -7.8625239684628809 0 0 0 0 -42.741849215184629 -167.58431311143977 0 -167.58431311143977 -419.99429891302566 0 0 0 0 -2.2542865964652918 -1.4062957914452046 0 -1.4062957914452046 -1.8114362564566273 0 0 0 0 -13.961418429310413 1.7565082722684267 0 1.7565082722684267 3.3795903543044785 0 0 0 0 -256.75864168580665 -8.7386572804413163 0 -8.7386572804413163 -3.1475698590886623 0 0 0 0 -59.471395426287927 84.740706926523856 0 84.740706926523856 149.60103128727332 0 0 0 0 -229.475379659905 -198.91429179558841 0 -198.91429179558841 -130.89176535266756 0 0 0 0 -281.2461746457268 31.42737689848235 0 31.42737689848235 -1.9951924668621359 0 0 0 0 -256.9442335819142 -244.68998093268146 0 -244.68998093268146 -142.80465736995029 0 0 0 0 -60.91803327535672 -146.43797425345474 0 -146.43797425345474 -201.61599506308175 0 0 0 0 -63.733881042294797 -260.12157920408896 0 -260.12157920408896 -89.911159304815556 0 0 0 0 -85.823579116651672 -88.698656895614477 0 -88.698656895614477 -5.9437340726144612 0 0 0 0 -53.55520499468912 -133.45360331648635 0 -133.45360331648635 176.02395463723951 0 0 0 0 4.4562187476039981 -162.77258261917086 0 -162.77258261917086 36.88505617069859 0 0 0 0 -102.25135475804564 -8.0239467942903957 0 -8.0239467942903957 6.4154471801184627 0 0 0 0 -65.387023844945361 67.392780255580419 0 67.392780255580419 125.24928807987089 0 0 0 0 -8.2555256574893647 6.9054440306193712 0 6.9054440306193712 -4.6644508292094002 0 0 0 0 -74.157828421881277 -148.63519297412086 0 -148.63519297412086 98.871111976491193 0 0 0 0 -236.90035900351359 -426.41975343631748 0 -426.41975343631748 -62.040426811019643 0 0 0 0 70.671523047152732 -141.75385516888491 0 -141.75385516888491 11.087853380419801 0 0 0 0 57.428277607303698 -256.51519640043273 0 -256.51519640043273 -255.44675340733374 0 0 0 0 -1.4476559569392364 -2.5364370591664134 0 -2.5364370591664134 -3.7664185083318209 0 0 0 0 -496.12093155095499 235.53548641540965 0 235.53548641540965 -88.814075011539899 0 0 0 0 -33.235084947013092 278.77080919798709 0 278.77080919798709 -379.25854766654084 0 0 0 0 -279.71685698397778 -182.96297506584142 0 -182.96297506584142 -36.31912220396589 0 0 0 0 -555.9909682271541 -39.721344308670837 0 -39.721344308670837 24.022011690327417 0 0 0 0 -252.20693645209394 -75.126771413599272 0 -75.126771413599272 -2.5052357961185407 0 0 0 0 -127.6526279066893 -76.2365899785691 0 -76.2365899785691 32.688246750008148 0 0 0 0 -177.89603360439651 -68.73595634727053 0 -68.73595634727053 22.906288931739255 0 0 0 0 -189.59682245027943 -86.063644312782344 0 -86.063644312782344 32.401818747595826 0 0 0 0 -192.63149580183381 -118.29721277053795 0 -118.29721277053795 15.437256006485768 0 0 0 0 -128.59270882911187 -100.1075342260815 0 -100.1075342260815 6.4257780750776874 0 0 0 0 -275.56322190746505 -95.082841341651147 0 -95.082841341651147 10.011348542800988 0 0 0 0 -247.92891960584893 -48.70126711144394 0 -48.70126711144394 22.948211227561842 0 0 0 0 -300.0992710288192 -77.563169837218993 0 -77.563169837218993 18.141595946992311 0 0 0 0 -375.83425453797099 68.846182309699088 0 68.846182309699088 8.537065369222546 0 0 0 0 -218.57884711012593 -58.189185087590886 0 -58.189185087590886 47.481852402790537 0 0 0 0 -151.58548086506198 -46.958467426175048 0 -46.958467426175048 45.964154330158635 0 0 0 0 -219.82061118915323 4.3592012745423858 0 4.3592012745423858 42.769160770552844 0 0 0 0 -194.50221559606871 10.59402157239947 0 10.59402157239947 25.461642185691744 0 0 0 0 -215.33479151260417 59.429879879853615 0 59.429879879853615 23.274134468007105 0 0 0 0 -211.31477426308265 125.91164617261711 0 125.91164617261711 -112.32515478401092 0 0 0 0 -118.40045301744976 54.291942827177991 0 54.291942827177991 -57.199679553912574 0 0 0 0 -156.64218343449465 8.6320368410306401 0 8.6320368410306401 99.391526556547433 0 0 0 0 -135.07881497389644 -2.8804521418273907 0 -2.8804521418273907 79.160902748815715 0 0 0 0 -97.243730395466855 -18.298313822523237 0 -18.298313822523237 1.1178001767637586 0 0 0 0 -120.13233724071324 17.369345282088034 0 17.369345282088034 87.306658028962943 0 0 0 0 -162.71503724329523 18.676762446659268 0 18.676762446659268 87.433769031973497 0 0 0 0 -179.12889108314266 13.13697013402907 0 13.13697013402907 85.939759676813992 0 0 0 0 -147.35010242943463 23.863708787294854 0 23.863708787294854 23.86719849051282 0 0 0 0 -125.25020439793298 -64.830787400394911 0 -64.830787400394911 117.59960092377605 0 0 0 0 -468.69842506884015 643.3657640018364 0 643.3657640018364 465.99149917358227 0 0 0 0 -158.9818628794601 -11.117669332048536 0 -11.117669332048536 44.072704847424575 0 0 0 0 -171.12246491995575 -14.620068250658733 0 -14.620068250658733 64.615109523252613 0 0 0 0 -178.11538647567068 -39.642490536534297 0 -39.642490536534297 66.93483098192155 0 0 0 0 -140.65966577320796 -32.861601432256066 0 -32.861601432256066 74.232177073638013 0 0 0 0 -124.82845790829742 -37.443900144524378 0 -37.443900144524378 66.379875988346612 0 0 0 0 -122.58095206703001 4.2720772462871537 0 4.2720772462871537 71.615007481579596 0 0 0 0 -95.254819866415346 -31.965786343153013 0 -31.965786343153013 72.928941343092447 0 0 0 0 -95.606586204394262 -77.546799815610939 0 -77.546799815610939 96.818740472554055 0 0 0 0 -55.635971292693284 -40.904794670967021 0 -40.904794670967021 74.692668312847672 0 0 0 0 -120.37490730795798 -76.933559251282531 0 -76.933559251282531 96.832917490191903 0 0 0 0 -133.28622325912147 -64.416644414532129 0 -64.416644414532129 81.277796187067906 0 0 0 0 -127.95855776053213 -75.976714215883476 0 -75.976714215883476 87.361584852991655 0 0 0 0 -141.15024828126479 -70.517033606396581 0 -70.517033606396581 81.322164546658314 0 0 0 0 -131.74024960475799 -62.630178559727938 0 -62.630178559727938 86.227487585398194 0 0 0 0 -163.43269954765128 -68.822099121402516 0 -68.822099121402516 62.997300343278766 0 0 0 0 -127.28416440716683 -66.40742254435645 0 -66.40742254435645 62.815498481279064 0 0 0 0 -32.26501787329471 -48.449144536645235 0 -48.449144536645235 35.297746331205417 0 0 0 0 -131.93440076986735 -39.447670134875807 0 -39.447670134875807 214.5297846220401 0 0 0 0 62.002503940093447 -114.77311065866434 0 -114.77311065866434 61.112696363552459 0 0 0 0 -8.6026204487748146 -1.7197573032359941 0 -1.7197573032359941 1.4776314953428944 0 0 0 0 -25.550007498331979 -16.186185001696686 0 -16.186185001696686 175.0241635146829 0 0 0 0 -9.2727693237726214 -6.4678168123545632 0 -6.4678168123545632 -6.246939672527958 0 0 0 0 -121.74654528045494 45.003501648956785 0 45.003501648956785 -10.50753085346696 0 0 0 0 -105.43756810630475 20.251893227705295 0 20.251893227705295 -9.2342933277923294 0 0 0 0 -44.885123858985025 -22.574721611910491 0 -22.574721611910491 -1.2468748125947968 0 0 0 0 -29.391066078044958 -2.2492827932767199 0 -2.2492827932767199 1.798204772209484 0 0 0 0 -29.106454919798125 -22.151971781585416 0 -22.151971781585416 -4.3310068742275689 0 0 0 0 -84.186606127641426 -37.892907497928718 0 -37.892907497928718 24.379078027755895 0 0 0 0 -48.674842881278892 -31.400151045425446 0 -31.400151045425446 21.480398331913875 0 0 0 0 -26.027452168926239 -17.301204643806873 0 -17.301204643806873 -10.710950394954352 0 0 0 0 -40.192383954850612 -18.022121842921791 0 -18.022121842921791 -5.8467819014294093 0 0 0 0 -115.07356981819703 -59.810255794234308 0 -59.810255794234308 38.862896230086335 0 0 0 0 -97.120031785940228 -15.483655879951584 0 -15.483655879951584 -8.7339022849257617 0 0 0 0 -24.613005037168804 2.2748072336568654 0 2.2748072336568654 27.861234617027915 0 0 0 0 -88.146774777000246 -66.632536161569533 0 -66.632536161569533 36.570970706616208 0 0 0 0 -114.89223277988276 4.4319018275155031 0 4.4319018275155031 64.916214356429691 0 0 0 0 -15.96960531486204 12.290909154114182 0 12.290909154114182 21.394263848072512 0 0 0 0 -64.090009119187016 -8.036175826009071 0 -8.036175826009071 21.813047478537101 0 0 0 0 -36.784689477857683 3.7087885987946123 0 3.7087885987946123 18.859229615054915 0 0 0 0 -44.798318514487619 -6.7959138122553213 0 -6.7959138122553213 24.069107595329378 0 0 0 0 -49.401267508927049 11.844983131363449 0 11.844983131363449 24.623406454422138 0 0 0 0 -45.339614928857372 6.2827318983883487 0 6.2827318983883487 16.669115224531652 0 0 0 0 -50.348805875128164 7.2999130051816792 0 7.2999130051816792 25.802749660130189 0 0 0 0 -48.441145741682249 13.80922386752124 0 13.80922386752124 38.850538777212591 0 0 0 0 -49.98671087070943 -2.4390195315962444 0 -2.4390195315962444 31.502134154595069 0 0 0 0 -56.551064701456198 -3.4022797235256235 0 -3.4022797235256235 16.450520409207741 0 0 0 0 -49.584180377416487 8.4348914899892407 0 8.4348914899892407 21.294060448141977 0 0 0 0 -58.429133028914293 -0.16090892050992522 0 -0.16090892050992522 0.40517977012530082 0 0 0 0 -57.140942995350997 -6.7872118790938885 0 -6.7872118790938885 21.269840259169797 0 0 0 0 -53.099516086378571 2.1560556367469701 0 2.1560556367469701 25.046022604445398 0 0 0 0 -58.737400074311154 -2.2714050838563367 0 -2.2714050838563367 -2.0837396930191971 0 0 0 0 -41.990080572562874 -13.316249302573226 0 -13.316249302573226 5.0144369773322524 0 0 0 0 -66.502714037687838 -15.406326323193696 0 -15.406326323193696 13.291871649698862 0 0 0 0 12.786796102587687 81.59479673234182 0 81.59479673234182 -0.93580968158812539 0 0 0 0 -19.211743702183931 16.21664304617498 0 16.21664304617498 11.744896225163043 0 0 0 0 -153.2622262933146 -5.9761104279016308 0 -5.9761104279016308 28.580180989256064 0 0 0 0 -101.76864826880046 55.412537890865678 0 55.412537890865678 -17.671809881395347 0 0 0 0 -162.03186860740607 42.569920100071158 0 42.569920100071158 102.62708074834791 0 0 0 0 -117.95609208641599 -9.8084562812093736 0 -9.8084562812093736 97.214886190125981 0 0 0 0 -77.895026595579111 12.376812665400621 0 12.376812665400621 54.075417663541884 0 0 0 0 -94.521556273522947 25.822637790537783 0 25.822637790537783 47.689529841018157 0 0 0 0 -57.445216322972556 -107.47642654165276 0 -107.47642654165276 211.48173679587092 0 0 0 0 -49.987650691342452 -5.0928309492554833 0 -5.0928309492554833 5.8940671345022224 0 0 0 0 -255.27582582230207 -27.970788265979536 0 -27.970788265979536 36.968650757209446 0 0 0 0 -66.413391135145503 -52.096770226853891 0 -52.096770226853891 116.83082838214315 0 0 0 0 -85.237168313986331 -34.026804213241292 0 -34.026804213241292 130.58667348060908 0 0 0 0 -53.774157032392395 -67.3038144090348 0 -67.3038144090348 135.12657185983426 0 0 0 0 -82.127832326768839 -43.103299786395041 0 -43.103299786395041 146.09068847502732 0 0 0 0 -48.456822819873196 -47.523788311534076 0 -47.523788311534076 123.05588802603097 0 0 0 0 -44.408669226046186 -72.176804309233148 0 -72.176804309233148 229.82093771562097 0 0 0 0 -54.144715447146154 -29.156678192193965 0 -29.156678192193965 162.0253414284777 0 0 0 0 -56.950804755564604 -85.118981898307382 0 -85.118981898307382 221.76443426223159 0 0 0 0 -1.2119716449442421 -129.8317371184682 0 -129.8317371184682 153.15104881008614 0 0 0 0 -87.06147493368826 208.34972951890154 0 208.34972951890154 -8.4172239589290712 0 0 0 0 -247.48605862926047 -15.327744012739714 0 -15.327744012739714 11.802564110713206 0 0 0 0 1.4256242462190674 0.58734241459595804 0 0.58734241459595804 -2.9164658149488738 0 0 0 0 5.2613140470575672 5.1195397791484538 0 5.1195397791484538 -44.384056018283886 0 0 0 0 -12.283676605287837 13.608038062157902 0 13.608038062157902 -26.889298226318033 0 0 0 0 4.4191362230077402 -4.2946121232189967 0 -4.2946121232189967 -8.0082572245380561 0 0 0 0 1.3598498231035592 19.845253563967333 0 19.845253563967333 -26.180304745670583 0 0 0 0 2.266258178341559 19.64195985869128 0 19.64195985869128 -44.997808501579428 0 0 0 0 -3.9530102353528491 70.468701251533872 0 70.468701251533872 49.803006747453196 0 0 0 0 22.087383585923817 -39.780328117661838 0 -39.780328117661838 239.31003116968316 0 0 0 0 22.527910397882806 -41.392794232546976 0 -41.392794232546976 240.04443891319875 0 0 0 0 165.27958826159011 -149.61195928025728 0 -149.61195928025728 323.53358009036174 0 0 0 0 5.3398618502542377 -40.603656677810704 0 -40.603656677810704 239.36274880886435 0 0 0 0 -11.937347833765671 -41.488376938615147 0 -41.488376938615147 240.06436449205421 0 0 0 0 -34.022444578135037 -30.323688093345254 0 -30.323688093345254 251.3238448744504 0 0 0 0 -50.173065940871311 -47.779498397097882 0 -47.779498397097882 238.68682348254242 0 0 0 0 -21.448045829143666 -56.715819587692863 0 -56.715819587692863 272.65449905913647 0 0 0 0 58.030048007727601 -21.626441323180643 0 -21.626441323180643 273.68690941437035 0 0 0 0 19.81600828981027 -16.289211949886294 0 -16.289211949886294 303.04218986996136 0 0 0 0 23.580968997615855 -28.265888224662376 0 -28.265888224662376 220.33378417032327 0 0 0 0 8.8916276872041635 20.078256560793989 0 20.078256560793989 242.91963061596221 0 0 0 0 4.1235665319109103 -0.71480925331093204 0 -0.71480925331093204 273.33070501688735 0 0 0 0 8.9893195120748715 45.69826303414925 0 45.69826303414925 320.09796137807484 0 0 0 0 38.794258287560297 -113.44190458880234 0 -113.44190458880234 531.16095917336111 0 0 0 0 3.3657201405294472 11.366087001023402 0 11.366087001023402 137.55409611899586 0 0 0 0 54.434115461437614 -221.39423834344529 0 -221.39423834344529 513.91790575593427 0 0 0 0 -9.4118073589820028 9.3485670343411567 0 9.3485670343411567 4.0401674971907342 0 0 0 0 -37.301728287782048 16.738182558575339 0 16.738182558575339 -5.5516475810268471 0 0 0 0 -26.825916345488622 42.341639257460919 0 42.341639257460919 49.067318936833885 0 0 0 0 -27.382593318630825 -1.099783335531356 0 -1.099783335531356 133.84505100215483 0 0 0 0 -39.339125998127656 7.0438393927155829 0 7.0438393927155829 128.46268508559933 0 0 0 0 -28.96405321498969 43.915516261460994 0 43.915516261460994 124.00592566013141 0 0 0 0 -32.075464080445954 -7.9574459794742722 0 -7.9574459794742722 -17.128727842080025 0 0 0 0 -38.098606083583945 8.158692554072104 0 8.158692554072104 -2.1379710059075023 0 0 0 0 -32.143510504993174 25.096229635677673 0 25.096229635677673 34.5095230073116 0 0 0 0 -29.392787315472102 12.86175035451112 0 12.86175035451112 -3.8341553612895671 0 0 0 0 -30.015642763592041 16.9768900710732 0 16.9768900710732 24.132199978805261 0 0 0 0 -47.752996724957484 -0.62913342578963238 0 -0.62913342578963238 75.824039061634124 0 0 0 0 -45.972381667554146 5.0205727638020505 0 5.0205727638020505 44.728680473965142 0 0 0 0 -35.511595551830396 -21.676717905515147 0 -21.676717905515147 20.084532792337768 0 0 0 0 -40.783537244980835 -23.250734845652119 0 -23.250734845652119 32.263359249119674 0 0 0 0 -42.001307078035097 -13.173393718033552 0 -13.173393718033552 12.669297289977521 0 0 0 0 -27.987861656292807 -18.804239795653871 0 -18.804239795653871 -9.4834006537471964 0 0 0 0 -29.193076885803748 -21.454404338264908 0 -21.454404338264908 -8.1802235066547837 0 0 0 0 -21.579553761817806 -21.529828118288151 0 -21.529828118288151 -18.782576924519333 0 0 0 0 -20.683370009712235 -28.340061423568045 0 -28.340061423568045 -17.692262657694755 0 0 0 0 -29.036201241113304 -32.396316635767789 0 -32.396316635767789 15.386789761930231 0 0 0 0 -29.186012172064693 -21.758328431507337 0 -21.758328431507337 -0.048332691752875689 0 0 0 0 -30.218296046678006 -35.584107085161463 0 -35.584107085161463 20.30685893295913 0 0 0 0 -23.169915573296748 -29.463551834931252 0 -29.463551834931252 -2.0684155867834306 0 0 0 0 -17.243059270665981 -33.070524389926959 0 -33.070524389926959 -21.462606855946433 0 0 0 0 -23.797568873393175 -29.421228557747554 0 -29.421228557747554 -2.0558907044310217 0 0 0 0 -19.86775421242055 -20.983347255821855 0 -20.983347255821855 -25.748042523279196 0 0 0 0 -18.704242929642533 -23.441900844556272 0 -23.441900844556272 -28.523398321539162 0 0 0 0 -29.534385481820209 -34.173589769662158 0 -34.173589769662158 -6.7291918430697706 0 0 0 0 -28.79125010833377 -21.346929266572488 0 -21.346929266572488 -27.573011343700614 0 0 0 0 -8.270344732743979 -30.49892192605455 0 -30.49892192605455 -6.1393180543002472 0 0 0 0 -21.024158495798474 -44.667350125736903 0 -44.667350125736903 62.941941092123898 0 0 0 0 -20.352199777837086 -29.729642931220155 0 -29.729642931220155 20.91793512469701 0 0 0 0 -36.451282041271043 -25.15849726355745 0 -25.15849726355745 56.681419039856564 0 0 0 0 -38.959980245163024 3.9828420444137009 0 3.9828420444137009 75.907872884741209 0 0 0 0 -35.245381035274477 -29.337501399928442 0 -29.337501399928442 59.801884495714944 0 0 0 0 -25.204780869942624 -24.015257643498785 0 -24.015257643498785 94.343455557490984 0 0 0 0 -30.949710846582093 -17.100076405497759 0 -17.100076405497759 89.896584159738495 0 0 0 0 29.810957607711316 -36.220470695413155 0 -36.220470695413155 90.792634883779897 0 0 0 0 -25.870289519190919 -21.859080909913239 0 -21.859080909913239 153.56111257839211 0 0 0 0 86.885880151690799 -25.510166393176405 0 -25.510166393176405 158.88658450020853 0 0 0 0 2.5628291478278697 -19.63225153830075 0 -19.63225153830075 158.50085922571816 0 0 0 0 -18.592751118772867 17.942549531831446 0 17.942549531831446 155.2224793540305 0 0 0 0 8.702566196625412 -21.244458752314813 0 -21.244458752314813 148.67728347071841 0 0 0 0 29.989442999001767 -33.07303001736517 0 -33.07303001736517 87.751153174835963 0 0 0 0 -26.495231129578315 -33.041772021138058 0 -33.041772021138058 29.634310635693623 0 0 0 0 3.4481914039206458 3.6261611586766094 0 3.6261611586766094 64.454673741366946 0 0 0 0 -6.6188781829478103 -24.072811144318024 0 -24.072811144318024 38.48573914630947 0 0 0 0 -9.6132049626248772 -45.341594085148927 0 -45.341594085148927 92.654717724021424 0 0 0 0 -26.11020877109695 -44.673842248552319 0 -44.673842248552319 27.557321133533264 0 0 0 0 -19.188982006677179 -24.36719531565052 0 -24.36719531565052 -35.760615280039701 0 0 0 0 -3.2933974010484235 -12.635730792227747 0 -12.635730792227747 -10.468500272299934 0 0 0 0 -63.464804524523061 -6.5585647642329263 0 -6.5585647642329263 -8.6836906316268596 0 0 0 0 -166.80207644718394 66.876032060821331 0 66.876032060821331 -13.256662350779166 0 0 0 0 -75.380421875741376 -27.901048280902955 0 -27.901048280902955 -42.097959397066006 0 0 0 0 -43.984655417443719 20.212430558654205 0 20.212430558654205 -22.82300063883315 0 0 0 0 -94.130990550624119 -15.635175372513828 0 -15.635175372513828 47.854671222138279 0 0 0 0 -61.634251341198251 29.830086287566218 0 29.830086287566218 58.166740702039533 0 0 0 0 -70.710016889957842 24.531203351888252 0 24.531203351888252 109.0468300929756 0 0 0 0 -25.809785489655042 -15.321525212475819 0 -15.321525212475819 73.429405772706247 0 0 0 0 -240.9007965642395 10.753287042561226 0 10.753287042561226 -35.597481639117404 0 0 0 0 -300.57095779112024 158.26548536355375 0 158.26548536355375 -49.302604332783176 0 0 0 0 -50.85898789039129 -5.400867530749224 0 -5.400867530749224 -66.757648811977901 0 0 0 0 -33.059659094567905 -30.207860133801262 0 -30.207860133801262 -43.573949902543973 0 0 0 0 -55.665830956932041 -4.9322836399866219 0 -4.9322836399866219 -41.482144415638686 0 0 0 0 -66.496769929849052 11.384891508543944 0 11.384891508543944 -51.076716635238427 0 0 0 0 -65.113155086739425 -16.960442039637201 0 -16.960442039637201 -40.732082806342163 0 0 0 0 -76.297070740118215 -33.296566110565664 0 -33.296566110565664 -44.619386236832497 0 0 0 0 -28.36501612066786 -12.989748921821956 0 -12.989748921821956 -39.900103292997528 0 0 0 0 -22.321724591733073 2.3194259590873116 0 2.3194259590873116 -42.384357952123281 0 0 0 0 -19.650182542349285 0.95134005206534766 0 0.95134005206534766 -37.893236818455534 0 0 0 0 -20.055043650831067 -20.09197044942573 0 -20.09197044942573 -59.279508599766928 0 0 0 0 -20.069659450229665 -20.171694294101115 0 -20.171694294101115 -34.308828794018154 0 0 0 0 -17.196211016067537 -22.160306604515711 0 -22.160306604515711 -35.933605389791865 0 0 0 0 -21.727057673931995 -15.320360061564998 0 -15.320360061564998 -40.735332301899604 0 0 0 0 -19.264938770680601 -25.562946093361575 0 -25.562946093361575 -39.668130860499787 0 0 0 0 -15.677598713918997 -11.249507591223392 0 -11.249507591223392 -48.6246196662172 0 0 0 0 -15.738703531714236 -11.300127515370534 0 -11.300127515370534 -30.577688405885056 0 0 0 0 -15.570408399675216 -4.1390693507926244 0 -4.1390693507926244 -36.548700096326911 0 0 0 0 -19.58229975814902 -11.997655348386616 0 -11.997655348386616 -28.427580388447097 0 0 0 0 -22.605936732594273 -18.680367998201064 0 -18.680367998201064 -25.960624367871333 0 0 0 0 -21.844366513552814 -8.8690147936599146 0 -8.8690147936599146 -24.005123895839915 0 0 0 0 -21.069374251936097 -4.0086937458941065 0 -4.0086937458941065 -24.944527038394426 0 0 0 0 -10.484621483388764 9.5658710460481871 0 9.5658710460481871 -25.044062358372116 0 0 0 0 -17.308946729557647 -1.3961620721593135 0 -1.3961620721593135 -23.855916930651347 0 0 0 0 -19.445118378462212 -1.1832690745233094 0 -1.1832690745233094 -29.611750566768478 0 0 0 0 -5.1057356014280231 15.855266391196437 0 15.855266391196437 -23.221030822626403 0 0 0 0 -12.106153583023115 1.9014002109947796 0 1.9014002109947796 -34.158926702480926 0 0 0 0 -15.511351077177096 10.60576276487518 0 10.60576276487518 -17.104800175772198 0 0 0 0 0.59058396058844664 13.484148382825794 0 13.484148382825794 -24.236209659039105 0 0 0 0 4.5278091654145101 25.421553872750792 0 25.421553872750792 -19.241039102434044 0 0 0 0 12.654369582782238 36.486339299831229 0 36.486339299831229 2.721475063962032 0 0 0 0 5.6680014296653951 9.1273124465147824 0 9.1273124465147824 -10.274914263580364 0 0 0 0 48.161965109215089 50.363583358690676 0 50.363583358690676 -8.0383168182664235 0 0 0 0 156.1874170018491 128.36833340829162 0 128.36833340829162 -9.1218960034657357 0 0 0 0 -18.901607997157086 19.447880668698282 0 19.447880668698282 -0.87763651675890486 0 0 0 0 194.75514498758639 183.03428599170832 0 183.03428599170832 -6.4308927577130817 0 0 0 0 4.5680493330582976 20.250604972598921 0 20.250604972598921 -11.182346658767301 0 0 0 0 48.813612194466259 17.802231382727314 0 17.802231382727314 -18.308412834483079 0 0 0 0 53.468150616401545 10.183755817731026 0 10.183755817731026 -5.8943941688571613 0 0 0 0 30.115509076258604 7.5386476731925995 0 7.5386476731925995 32.63736442544905 0 0 0 0 14.928347928602307 26.806784342256378 0 26.806784342256378 8.4052973636855768 0 0 0 0 12.736264697923616 3.9135644273953858 0 3.9135644273953858 -12.502848745977417 0 0 0 0 -19.285128284878738 9.1314342270084126 0 9.1314342270084126 -6.5966601650366101 0 0 0 0 -4.3896079051955894 -11.657698850618146 0 -11.657698850618146 -25.058740741717884 0 0 0 0 6.4015475727828743 3.9988782005325447 0 3.9988782005325447 -27.288276909166029 0 0 0 0 -17.881895825594256 11.610664692535238 0 11.610664692535238 -27.128676766917579 0 0 0 0 -9.195726540110627 -5.1751335551787179 0 -5.1751335551787179 -40.745910335368535 0 0 0 0 -66.709349373417353 -16.789402278719649 0 -16.789402278719649 -32.898586940244513 0 0 0 0 -32.728174938252778 3.8285233283338584 0 3.8285233283338584 -29.531682445313777 0 0 0 0 -21.709799789035515 -13.105841058457685 0 -13.105841058457685 -42.706270222334751 0 0 0 0 -61.908197452132299 -15.608584158880603 0 -15.608584158880603 -17.856905777348857 0 0 0 0 -23.530952964210428 -8.649945915761208 0 -8.649945915761208 -32.581838451129897 0 0 0 0 -48.211334075444029 15.415779408318485 0 15.415779408318485 -14.312284306990136 0 0 0 0 -73.756788578710257 -9.1904725029339716 0 -9.1904725029339716 -11.33331428002748 0 0 0 0 -131.84562540717525 -0.42526378212062355 0 -0.42526378212062355 -20.10088001101343 0 0 0 0 -89.261390689505788 14.248760361623454 0 14.248760361623454 -34.247635824250438 0 0 0 0 -66.417289049341434 2.9584208989670628 0 2.9584208989670628 -62.054688920075478 0 0 0 0 -89.064404787581225 4.7758596396707844 0 4.7758596396707844 -99.004849995040104 0 0 0 0 -89.72272203853754 -28.835445807396468 0 -28.835445807396468 -38.649823881940165 0 0 0 0 -163.50023676402634 -102.41451538389296 0 -102.41451538389296 -34.169695007852653 0 0 0 0 -260.0111040304364 -90.99168507133362 0 -90.99168507133362 14.883017444585107 0 0 0 0 -185.78506224052762 -155.09138134413774 0 -155.09138134413774 -86.950080190318943 0 0 0 0 -135.17427384547409 -12.501642064843395 0 -12.501642064843395 -242.49352398575888 0 0 0 0 -65.0041907060222 8.7489580164856307 0 8.7489580164856307 -63.030358694431129 0 0 0 0 -73.718462775985245 -16.223723139258141 0 -16.223723139258141 67.332322144549096 0 0 0 0 72.871463120549379 146.40012370732066 0 146.40012370732066 31.977284256578059 0 0 0 0 -32.895635111322918 -8.7673170025084346 0 -8.7673170025084346 -12.548314256489448 0 0 0 0 -39.494749925142969 -4.2944684737377656 0 -4.2944684737377656 -11.355623998265401 0 0 0 0 -20.359163718773431 20.09250182169167 0 20.09250182169167 2.5419109618305882 0 0 0 0 -33.952207940565131 -11.699353667142645 0 -11.699353667142645 -16.977873481964707 0 0 0 0 -25.228283948126773 -9.5776755479773783 0 -9.5776755479773783 -16.541247478003299 0 0 0 0 -32.308093499406823 -6.2950825466355127 0 -6.2950825466355127 -13.949553128560069 0 0 0 0 -31.598358653805917 -4.1437916250208673 0 -4.1437916250208673 -19.646063584566491 0 0 0 0 -21.535646998439915 -0.52022370366012183 0 -0.52022370366012183 -18.425016526552099 0 0 0 0 40.031123580714848 -71.845689541114524 0 -71.845689541114524 141.26625689033142 0 0 0 0 -15.067990770241977 16.52565542928069 0 16.52565542928069 -5.6909755825945467 0 0 0 0 -34.10369405723759 11.578421795798249 0 11.578421795798249 -3.4998953153426555 0 0 0 0 -28.052592520136386 2.6895890724817946 0 2.6895890724817946 -19.289196791929044 0 0 0 0 -24.942004559132329 22.095942700085516 0 22.095942700085516 5.7875783075214713 0 0 0 0 -115.2247356418593 60.935527948647461 0 60.935527948647461 44.573424644601346 0 0 0 0 -76.097471629571373 14.865037021538413 0 14.865037021538413 -0.92765837218706793 0 0 0 0 -327.93759371803026 -30.524287670475886 0 -30.524287670475886 28.919504517275982 0 0 0 0 -140.94537094850966 99.967466451013308 0 99.967466451013308 -40.138922128722697 0 0 0 0 -22.341161939996653 23.395924417386368 0 23.395924417386368 -4.016921969426547 0 0 0 0 9.053097725077393 3.4650078543301959 0 3.4650078543301959 -0.5077572877360188 0 0 0 0 1.1276771270913741 33.251969448616137 0 33.251969448616137 -12.470425304005857 0 0 0 0 260.46959766100917 164.43090113614647 0 164.43090113614647 -145.30006491759491 0 0 0 0 118.44690647592142 204.51630948257082 0 204.51630948257082 44.885000726490716 0 0 0 0 32.371855161618441 -2.4449927221014605 0 -2.4449927221014605 -25.13784921647391 0 0 0 0 -111.61844562681654 61.100329099585679 0 61.100329099585679 115.83412585688632 0 0 0 0 148.65165647031972 38.234725840837427 0 38.234725840837427 -65.017284963652855 0 0 0 0 -511.95539957371511 60.033047754027507 0 60.033047754027507 44.251837634934191 0 0 0 0 -89.640532796045591 -59.057727452302515 0 -59.057727452302515 -50.093420077186991 0 0 0 0 -556.15115736998268 -448.33044714706307 0 -448.33044714706307 -261.38860516863338 0 0 0 0 -4.7910612026958006 1.0139531432792595 0 1.0139531432792595 1.3356740557175968 0 0 0 0 -261.93491311780963 -157.18043974724543 0 -157.18043974724543 -25.803648216767755 0 0 0 0 -265.54236561286598 -114.03841615556223 0 -114.03841615556223 -94.587017372999071 0 0 0 0 -342.53370477052522 -236.03892217768646 0 -236.03892217768646 -91.468621138684512 0 0 0 0 -10.474157042899691 3.0823355698539316 0 3.0823355698539316 3.1841373208083481 0 0 0 0 -49.56938678635197 -153.76644073525563 0 -153.76644073525563 -94.675075891386086 0 0 0 0 -97.252639922391609 -197.42947157116004 0 -197.42947157116004 -61.70782131779788 0 0 0 0 -414.14002207820886 -53.174808569166544 0 -53.174808569166544 39.073656880017779 0 0 0 0 -285.81706316387408 54.914677780777822 0 54.914677780777822 129.28350024767292 0 0 0 0 230.88200181846514 265.15888194898491 0 265.15888194898491 106.13143336557619 0 0 0 0 -122.99753066959238 47.627994051617179 0 47.627994051617179 -131.46079799235531 0 0 0 0 -270.55886549127899 -97.626431715459603 0 -97.626431715459603 -81.214645921857255 0 0 0 0 -121.72976701332482 30.59690988261525 0 30.59690988261525 19.596266263190046 0 0 0 0 60.114812246210931 75.83396953457509 0 75.83396953457509 -49.101720291968377 0 0 0 0 -48.770515512278507 -43.229190111869002 0 -43.229190111869002 -12.555010104766552 0 0 0 0 -76.805539298147778 5.4844610351204892 0 5.4844610351204892 -89.749459249242136 0 0 0 0 -408.39600042477832 -33.684018767596626 0 -33.684018767596626 -2.5097681368943086 0 0 0 0 -335.85957951636374 41.898107444739935 0 41.898107444739935 -140.1568455766045 0 0 0 0 -239.49685724405299 -31.139371647784515 0 -31.139371647784515 -104.49596166069477 0 0 0 0 -242.5932847081167 -49.365903861363677 0 -49.365903861363677 -23.21915714809154 0 0 0 0 -93.902834529962092 -37.154682231296547 0 -37.154682231296547 -132.16807085741493 0 0 0 0 -152.62929096163498 -115.03680955482366 0 -115.03680955482366 -133.25403115512836 0 0 0 0 -105.41527600387053 -62.19213210765497 0 -62.19213210765497 -104.722022132652 0 0 0 0 -239.03766844710481 -100.7519469883232 0 -100.7519469883232 -80.064361381462277 0 0 0 0 -238.34322841254107 -84.534894325339792 0 -84.534894325339792 -114.71554604982839 0 0 0 0 -336.20904276390502 -164.14319118005915 0 -164.14319118005915 -176.22832261880467 0 0 0 0 -335.74645000391956 -173.20632452978828 0 -173.20632452978828 -315.99353605937631 0 0 0 0 -582.22334560127274 -99.366095361562657 0 -99.366095361562657 -17.59412981479818 0 0 0 0 -281.97649691748666 47.444880635431218 0 47.444880635431218 -53.811614556959285 0 0 0 0 -280.38800735400946 61.95648036265797 0 61.95648036265797 -18.74089636656845 0 0 0 0 -458.79301475767716 96.442056330161108 0 96.442056330161108 -15.841435039374119 0 0 0 0 -271.62032424830613 128.71309336601303 0 128.71309336601303 -19.300345982942417 0 0 0 0 -306.84284683151236 -260.63593993059885 0 -260.63593993059885 -211.08978732254172 0 0 0 0 -4.7601700158879936 0.87926403451206525 0 0.87926403451206525 -0.042938907426753659 0 0 0 0 -335.89341810598853 44.538399391058419 0 44.538399391058419 -341.66125651922164 0 0 0 0 -519.36983669525762 37.654732470035924 0 37.654732470035924 -22.608227756157703 0 0 0 0 -98.74590540027566 30.069480271161069 0 30.069480271161069 -69.773863084987283 0 0 0 0 -86.243784144102392 34.146742921709347 0 34.146742921709347 -35.631868343643191 0 0 0 0 -89.078998884549947 61.367392679984818 0 61.367392679984818 -21.905335357161903 0 0 0 0 -166.50204166659842 17.71003571495865 0 17.71003571495865 -29.893700324339079 0 0 0 0 -118.53880304544873 22.589916481573027 0 22.589916481573027 -40.01099596395693 0 0 0 0 -152.16699263279224 2.4943179810836682 0 2.4943179810836682 -15.155099211999186 0 0 0 0 -132.95930780343042 26.253257662382111 0 26.253257662382111 -13.402242484391991 0 0 0 0 -92.42609367260593 10.278503557152249 0 10.278503557152249 -21.313604889697217 0 0 0 0 -118.33709366227333 29.398507124367992 0 29.398507124367992 -5.2090265226233896 0 0 0 0 -44.645046681613167 -8.6928352000287532 0 -8.6928352000287532 6.1054925645917137 0 0 0 0 -86.063570230515325 40.738975112376238 0 40.738975112376238 11.079778772407948 0 0 0 0 -85.011370660347893 23.813752120028823 0 23.813752120028823 -7.1234347814192915 0 0 0 0 -15.35006095981953 -2.361800078551596 0 -2.361800078551596 -11.092584633809111 0 0 0 0 -13.61286444421421 26.27465563123144 0 26.27465563123144 -5.3385943577550279 0 0 0 0 -0.31202400336957226 1.0052501890325445 0 1.0052501890325445 -2.0363094980426677 0 0 0 0 34.16280558332528 -134.85039667781922 0 -134.85039667781922 190.5784717042809 0 0 0 0 -28.228780718389316 -8.6952131120251579 0 -8.6952131120251579 37.36715075477332 0 0 0 0 -77.827127586362622 76.901917301288222 0 76.901917301288222 8.9270337266173101 0 0 0 0 -70.685193518049346 92.076173845292374 0 92.076173845292374 -116.30279700123651 0 0 0 0 163.91676119560725 123.8695606936958 0 123.8695606936958 15.006488590106528 0 0 0 0 21.686570045509143 77.164955888767508 0 77.164955888767508 71.793509015001291 0 0 0 0 210.21181920558593 121.52275659691827 0 121.52275659691827 -21.114071476857134 0 0 0 0 -19.154832719301211 22.293221163637391 0 22.293221163637391 -9.5615818608146679 0 0 0 0 169.15612949333172 141.02925442069539 0 141.02925442069539 -116.61718780076023 0 0 0 0 66.343219009167569 68.353272222533349 0 68.353272222533349 6.5957438847444791 0 0 0 0 106.96346577689837 31.073215155930257 0 31.073215155930257 133.16148174322234 0 0 0 0 -2.8085032819309461 3.5140420172005555 0 3.5140420172005555 -5.1809356355031291 0 0 0 0 78.167472278782952 11.188009112958184 0 11.188009112958184 -15.083693066305159 0 0 0 0 -0.40747546497732401 13.921230822882762 0 13.921230822882762 2.5183196971920552 0 0 0 0 1.8010279342415743 24.954068868009244 0 24.954068868009244 8.2583487986898945 0 0 0 0 43.928018151615106 27.918521647407715 0 27.918521647407715 -10.32723250977142 0 0 0 0 24.808827441200265 47.884352593406732 0 47.884352593406732 39.910535679704935 0 0 0 0 194.02358118123084 16.126096428616165 0 16.126096428616165 -8.7354591795665328 0 0 0 0 53.504670308546338 56.034854856765833 0 56.034854856765833 91.908454614514767 0 0 0 0 22.74108415892988 62.398640563959134 0 62.398640563959134 -5.8843372975443344 0 0 0 0 39.342987073338008 40.678305962866943 0 40.678305962866943 14.350306255642863 0 0 0 0 96.340186161090969 37.114520318734776 0 37.114520318734776 -57.070367996871482 0 0 0 0 -88.179288925168748 7.0271079118013517 0 7.0271079118013517 -40.406178202286355 0 0 0 0 -30.261238807826885 -37.536241343403162 0 -37.536241343403162 -18.102603644287683 0 0 0 0 -94.96127193459688 -74.940366621518024 0 -74.940366621518024 -89.633869915350033 0 0 0 0 -49.520235844012859 40.103875693613361 0 40.103875693613361 -81.419256977277655 0 0 0 0 37.810803731750639 -34.225988317245765 0 -34.225988317245765 -147.61824250221457 0 0 0 0 -1.6040531442926493 -0.94951583017396857 0 -0.94951583017396857 0.6859498963793742 0 0 0 0 -11.786942940670997 -26.841269065022743 0 -26.841269065022743 -17.103089754608504 0 0 0 0 45.658907527584233 96.66161907439934 0 96.66161907439934 17.862498065839645 0 0 0 0 155.15062686605415 107.05144178767591 0 107.05144178767591 -38.893223224848043 0 0 0 0 28.955345731512352 -10.169399512453765 0 -10.169399512453765 -59.601093564696384 0 0 0 0 95.71913007459807 7.3691247385850147 0 7.3691247385850147 23.30883086593667 0 0 0 0 35.438598662396544 69.510224400453467 0 69.510224400453467 -35.973601485366089 0 0 0 0 -20.481679132258989 24.440035306699578 0 24.440035306699578 -12.810716890888244 0 0 0 0 184.74547803867245 270.83206658013796 0 270.83206658013796 -233.43752186953742 0 0 0 0 6.3399853118608007 8.7867544588748387 0 8.7867544588748387 -198.81374826504759 0 0 0 0 18.261744736671062 -83.482731267842723 0 -83.482731267842723 16.343314390079286 0 0 0 0 -21.597419750940972 24.335217976432943 0 24.335217976432943 -11.20930225568933 0 0 0 0 85.842526557862584 144.57458304019565 0 144.57458304019565 63.832623255444389 0 0 0 0 -47.747333742023329 44.883370070215847 0 44.883370070215847 186.65117694365836 0 0 0 0 -15.042118904311792 15.238443694348916 0 15.238443694348916 -24.959791497091601 0 0 0 0 -73.988405877214973 9.6478958438204927 0 9.6478958438204927 66.624428604897389 0 0 0 0 -70.1118064852526 5.0797994244037454 0 5.0797994244037454 -7.5288209850419889 0 0 0 0 -27.931337760594943 -36.312594635137174 0 -36.312594635137174 -60.026098882940232 0 0 0 0 -110.98492219249601 9.823016907273086 0 9.823016907273086 -84.070830216378454 0 0 0 0 71.675110304433474 21.609334640844963 0 21.609334640844963 -38.398000059558512 0 0 0 0 -20.064011860078903 20.662121244969192 0 20.662121244969192 -6.274253131028571 0 0 0 0 -32.63269390253663 10.561301185254706 0 10.561301185254706 -16.205686036444604 0 0 0 0 -16.631668774218269 113.82265519849167 0 113.82265519849167 108.04683841947309 0 0 0 0 47.908489715540782 42.265155363528208 0 42.265155363528208 6.7737712570580015 0 0 0 0 -2.1842129862167781 7.2385864080816482 0 7.2385864080816482 -3.2872238006735075 0 0 0 0 -21.68451693643874 15.720875263316884 0 15.720875263316884 -14.350738625459826 0 0 0 0 3.1199506040474461 6.4822893185132173 0 6.4822893185132173 -3.406822692536617 0 0 0 0 82.008845443244354 40.918684161360261 0 40.918684161360261 -56.205419443431765 0 0 0 0 -52.183959394675185 -11.651586024782091 0 -11.651586024782091 -30.813855150310246 0 0 0 0 -69.225830129649694 -8.05293395550882 0 -8.05293395550882 -11.490669420229096 0 0 0 0 -86.550151636954979 -50.873127204238926 0 -50.873127204238926 -32.15546409497847 0 0 0 0 -96.578486588565283 -52.077503130281002 0 -52.077503130281002 -35.773778418038091 0 0 0 0 -21.528587448816943 -47.152137402697839 0 -47.152137402697839 -44.667434086749381 0 0 0 0 -93.216080338555912 -32.775945362668608 0 -32.775945362668608 -25.800986764611025 0 0 0 0 -100.4848988231588 -57.967461742753073 0 -57.967461742753073 -54.59437991152663 0 0 0 0 -114.1147951424482 -35.264734929588599 0 -35.264734929588599 -35.027589143821842 0 0 0 0 -144.84666466599083 -77.373558707400434 0 -77.373558707400434 -34.622227676154125 0 0 0 0 -147.74982065371114 -42.162187782285287 0 -42.162187782285287 7.3673611122958391 0 0 0 0 -108.45147225354776 -33.780045169314803 0 -33.780045169314803 -10.532280630205605 0 0 0 0 -161.89723581596627 -59.250374007068785 0 -59.250374007068785 0.21520351638127977 0 0 0 0 -160.39874549790602 -47.794018186843061 0 -47.794018186843061 5.500443993656063 0 0 0 0 -118.41267956007869 -19.466780905662972 0 -19.466780905662972 10.731599743060087 0 0 0 0 -119.44846511095056 -12.661994014509958 0 -12.661994014509958 6.6939014128711278 0 0 0 0 -59.29720871876998 -7.0540391430097316 0 -7.0540391430097316 -15.959438878987385 0 0 0 0 -78.963375465049467 -19.644615630501221 0 -19.644615630501221 -13.505936010686128 0 0 0 0 -65.725024617149757 9.6330593970596965 0 9.6330593970596965 -2.1444347716433185 0 0 0 0 -68.111252406721178 -2.5471334475669209 0 -2.5471334475669209 -11.154255133236802 0 0 0 0 -33.143440560794261 10.070735704303388 0 10.070735704303388 -12.649524970878019 0 0 0 0 -279.17741894760184 -51.544995059838811 0 -51.544995059838811 23.053851720741477 0 0 0 0 -253.73770289505046 -11.692694184074526 0 -11.692694184074526 21.487370185872578 0 0 0 0 -258.63191076604562 -9.697453785081052 0 -9.697453785081052 31.792891071224403 0 0 0 0 -214.30356467171805 20.798499041291961 0 20.798499041291961 14.787740708400747 0 0 0 0 -216.68535841065022 25.982573960161403 0 25.982573960161403 17.321856188699712 0 0 0 0 -236.82513033860778 52.294510916151779 0 52.294510916151779 -0.44826654782809783 0 0 0 0 -241.63602859643288 12.034942969786243 0 12.034942969786243 12.677580357726583 0 0 0 0 -252.92598197692519 28.184381719775061 0 28.184381719775061 -2.5608635542166667 0 0 0 0 -294.82611300911231 31.855657369654182 0 31.855657369654182 10.643600095344937 0 0 0 0 -255.29174547095818 73.197695616138333 0 73.197695616138333 -20.149336984590263 0 0 0 0 -373.07433038992895 58.415527589482281 0 58.415527589482281 -2.0668049983732999 0 0 0 0 -349.68066576499405 -46.660010717065688 0 -46.660010717065688 -31.868515225042756 0 0 0 0 -324.92276805916936 -16.365491704683279 0 -16.365491704683279 1.8747986287880849 0 0 0 0 -301.67306348025886 -32.555279967992647 0 -32.555279967992647 12.954968875648319 0 0 0 0 -339.48009988770582 -110.30388589149834 0 -110.30388589149834 -28.856403106769903 0 0 0 0 -141.16573148782118 -79.982083196256326 0 -79.982083196256326 -107.83405899705696 0 0 0 0 -162.42645602353878 -56.343748587674327 0 -56.343748587674327 -60.934857733529043 0 0 0 0 -178.42286191210951 -53.660105081517713 0 -53.660105081517713 -0.38404059345521091 0 0 0 0 -181.33928881047177 -59.494475511783548 0 -59.494475511783548 -5.69609452491909 0 0 0 0 -245.90265068318331 -93.431213754366127 0 -93.431213754366127 -23.53127184797745 0 0 0 0 -232.72708352377231 -55.585854707186172 0 -55.585854707186172 -1.7058017698213916 0 0 0 0 -213.48567524931423 -69.504741641274677 0 -69.504741641274677 4.2336617077417031 0 0 0 0 -242.82297329853463 -50.038878039060364 0 -50.038878039060364 28.554458400003568 0 0 0 0 -182.79449479367031 -47.570540886234994 0 -47.570540886234994 16.473565084530037 0 0 0 0 -207.291995514257 -50.938069782129787 0 -50.938069782129787 19.478287258582327 0 0 0 0 -166.88074471300843 -32.124459425502295 0 -32.124459425502295 27.534288207864392 0 0 0 0 -222.36649749102071 -33.143793009686306 0 -33.143793009686306 40.075695050183697 0 0 0 0 -202.98496344988507 -38.362962284816263 0 -38.362962284816263 31.703812105026827 0 0 0 0 -205.07951703470462 -20.254373862758712 0 -20.254373862758712 38.313998681718203 0 0 0 0 -229.23950079754286 -34.067449070361477 0 -34.067449070361477 29.157698581130717 0 0 0 0 -241.41357484778928 -27.667516253629174 0 -27.667516253629174 37.036351872055093 0 0 0 0 -214.32861521632731 -0.4999863542896037 0 -0.4999863542896037 32.875626734108721 0 0 0 0 -206.61050111215445 -7.0255774364044328 0 -7.0255774364044328 30.187598083570265 0 0 0 0 -183.01230587858299 22.349662652649386 0 22.349662652649386 23.947425484031555 0 0 0 0 -181.2044369316136 -1.250162732120998 0 -1.250162732120998 30.848169161570922 0 0 0 0 -204.88448697466083 -19.72189236544682 0 -19.72189236544682 35.08945485794402 0 0 0 0 -175.36250252433456 -9.3954821747280448 0 -9.3954821747280448 26.037295936063856 0 0 0 0 -133.94523615728394 -4.9489147969416081 0 -4.9489147969416081 15.156469132940856 0 0 0 0 -131.55540261502574 3.4203925964530413 0 3.4203925964530413 8.1765160377926804 0 0 0 0 -156.10507305492865 7.5169000590212818 0 7.5169000590212818 19.908728667094692 0 0 0 0 -0.062682984358552574 -1.7951671045332489 0 -1.7951671045332489 -0.85219575503231404 0 0 0 0 1.36693856936472 -3.4047107467756632 0 -3.4047107467756632 -6.2347170240009291 0 0 0 0 -103.23436265144119 8.3167652502415876 0 8.3167652502415876 1.3757140016928133 0 0 0 0 -111.31357415019738 -7.7794026798110281 0 -7.7794026798110281 8.760734575564129 0 0 0 0 -114.3047082209232 6.5195768394423794 0 6.5195768394423794 1.3210101803078942 0 0 0 0 -114.94097320034052 6.2133594222341344 0 6.2133594222341344 5.4968418266594199 0 0 0 0 0.38516402168450981 -0.10045266794944752 0 -0.10045266794944752 -0.1270964207788694 0 0 0 0 -83.277027665171772 11.463333514380167 0 11.463333514380167 32.352245300768118 0 0 0 0 -80.793189883004743 18.291329899674622 0 18.291329899674622 5.1662469190196134 0 0 0 0 -106.22843658941565 6.6827754220839779 0 6.6827754220839779 19.966531450858838 0 0 0 0 -69.78347588214092 21.577760413994383 0 21.577760413994383 -3.9778513735454908 0 0 0 0 -41.952789134214981 -17.388125156458045 0 -17.388125156458045 19.459626752932536 0 0 0 0 -160.092923942575 3.354885442471641 0 3.354885442471641 18.765955352477249 0 0 0 0 -122.61045343904698 7.5055966549612094 0 7.5055966549612094 5.4510160034064938 0 0 0 0 -139.7368772040827 21.754361482088143 0 21.754361482088143 18.415708071740482 0 0 0 0 -138.47354346443899 12.888859819737945 0 12.888859819737945 14.326214586889364 0 0 0 0 -118.3491946059512 27.849179203117046 0 27.849179203117046 4.7603383012574341 0 0 0 0 -167.80987338810519 19.764585533061563 0 19.764585533061563 18.712790147620581 0 0 0 0 -166.00745220864337 15.414278575644403 0 15.414278575644403 15.130073715173239 0 0 0 0 -166.36804113614198 24.357242061734723 0 24.357242061734723 6.7440857678520842 0 0 0 0 -149.7490339418473 41.347436899226295 0 41.347436899226295 -21.044637180666541 0 0 0 0 -131.41884064480109 17.20431946813278 0 17.20431946813278 -2.3096643585340644 0 0 0 0 -125.30565287489662 29.384820213334478 0 29.384820213334478 -5.7673048742799438 0 0 0 0 -138.20629273603117 33.273360552410395 0 33.273360552410395 -3.9612098385086938 0 0 0 0 -129.05235022292618 18.142162863120348 0 18.142162863120348 13.078481110991561 0 0 0 0 -0.01025507196195008 -0.24465408951270406 0 -0.24465408951270406 -0.88505732530610604 0 0 0 0 16.441711519550154 9.7703977368064443 0 9.7703977368064443 -32.536142002300494 0 0 0 0 -39.309391005284851 6.7630660082422764 0 6.7630660082422764 -0.4344777947512739 0 0 0 0 -67.161807904572925 38.486412430043856 0 38.486412430043856 -27.451193564449113 0 0 0 0 -73.632246448352817 10.077386569020291 0 10.077386569020291 -1.5851414388243938 0 0 0 0 -89.913499015165144 27.511849944316964 0 27.511849944316964 -7.2743438358884305 0 0 0 0 -21.620936682509637 33.979416265761984 0 33.979416265761984 -30.739714191950043 0 0 0 0 17.653909342909174 -32.174899369985269 0 -32.174899369985269 3.7941856421389275 0 0 0 0 -0.35226723301472873 -1.1392796514212673 0 -1.1392796514212673 -1.5913043819624901 0 0 0 0 -41.211932007805444 18.658048085715564 0 18.658048085715564 -32.257403601701753 0 0 0 0 8.4335387921746587 -7.440036160827276 0 -7.440036160827276 -20.325455784708765 0 0 0 0 -0.2386024996968672 -0.43669342470095351 0 -0.43669342470095351 -1.0093102061808503 0 0 0 0 -3.3332525403093314 7.3864816845634778 0 7.3864816845634778 -5.5862675234484414 0 0 0 0 36.380379805821576 -6.6588766606787431 0 -6.6588766606787431 -25.403731376738733 0 0 0 0 -46.535487054337864 4.7351455030443503 0 4.7351455030443503 -23.016831519998959 0 0 0 0 56.639707036767504 -29.37391631553146 0 -29.37391631553146 -51.929740170450714 0 0 0 0 -21.365602664329344 67.897501073993226 0 67.897501073993226 -50.734701123855757 0 0 0 0 -187.81501907744678 85.267462663075548 0 85.267462663075548 -30.142792893434262 0 0 0 0 -189.16240403179836 83.184021625295372 0 83.184021625295372 -16.157905497029333 0 0 0 0 -141.91933358297683 35.678947836318912 0 35.678947836318912 -19.476891833155378 0 0 0 0 -162.96958799404092 54.283261267186845 0 54.283261267186845 -17.15351323151981 0 0 0 0 -138.82649498670071 41.345787995639512 0 41.345787995639512 -9.4396670739843103 0 0 0 0 -28.703937437254353 21.424062930727814 0 21.424062930727814 -15.45502158542331 0 0 0 0 -12.590869460737792 -6.7097873720909291 0 -6.7097873720909291 -1.7640915044392997 0 0 0 0 -0.87817760690904834 -4.3398803687771306 0 -4.3398803687771306 1.1253825260700978 0 0 0 0 -1.6248838430953185 -4.0054885575338401 0 -4.0054885575338401 -2.8540262860703578 0 0 0 0 -8.6175075743327625 -6.6093303218190442 0 -6.6093303218190442 -1.9953211572859226 0 0 0 0 3.1575521582394686 -0.51137789174805448 0 -0.51137789174805448 -3.3284117851235351 0 0 0 0 1.8766068017866928 -21.984305866721115 0 -21.984305866721115 -1.673986577281994 0 0 0 0 -2.2519736565000841 -4.8249746461479646 0 -4.8249746461479646 -5.0698962185857077 0 0 0 0 -20.671796167058346 -8.8496525207820014 0 -8.8496525207820014 1.4376195568092953 0 0 0 0 -7.0571774845921027 -7.3189514015216446 0 -7.3189514015216446 -7.1919332755960568 0 0 0 0 -2.1111458104796696 -5.7193296911259468 0 -5.7193296911259468 -3.258108325104776 0 0 0 0 -0.71119235797959846 -5.4535259539239576 0 -5.4535259539239576 -6.1358135694445082 0 0 0 0 -2.842633735621348 -5.8649430440073047 0 -5.8649430440073047 -5.1442362554494139 0 0 0 0 -0.62683536739496049 -6.1830413302050147 0 -6.1830413302050147 -6.0488798869291713 0 0 0 0 -3.2407548592746558 -3.4562340957682878 0 -3.4562340957682878 -4.5382811093494535 0 0 0 0 -3.1733886853103286 -5.6527019690227966 0 -5.6527019690227966 -4.6314567524840768 0 0 0 0 0.22689365252738014 -2.0148987833734893 0 -2.0148987833734893 -1.9866296330765625 0 0 0 0 -6.7262593485211255 -5.9821019772552972 0 -5.9821019772552972 -3.7206504971476306 0 0 0 0 -3.1671073725601673 -2.8309200978200124 0 -2.8309200978200124 -3.3416654824968646 0 0 0 0 -3.3970684236992383 -5.6632668595084397 0 -5.6632668595084397 -4.0032098773622238 0 0 0 0 -5.0154748841086985 -6.4244758779395852 0 -6.4244758779395852 -4.2838174525122668 0 0 0 0 -4.0627472521807988 -3.9768238742603375 0 -3.9768238742603375 -2.0527638693648287 0 0 0 0 -0.9246736853820039 -4.9721698235216536 0 -4.9721698235216536 -4.7722108917396326 0 0 0 0 -0.94444680652077651 -2.6441163167271569 0 -2.6441163167271569 -4.0371989994139099 0 0 0 0 -11.588856644084274 -4.9782425254566149 0 -4.9782425254566149 -1.6797589585264276 0 0 0 0 -13.524100038281176 -8.3039113451618505 0 -8.3039113451618505 -0.34859040174524125 0 0 0 0 -16.480808945623721 -7.1323055848824879 0 -7.1323055848824879 0.61896350340657591 0 0 0 0 -7.9890305996523239 -8.5215155368086926 0 -8.5215155368086926 -6.3965977604718773 0 0 0 0 -6.7201500121205164 -4.1140180628542993 0 -4.1140180628542993 -3.3653843400219401 0 0 0 0 -13.406996288646042 -5.9942910055426637 0 -5.9942910055426637 -1.4092377367355766 0 0 0 0 -1.8929733048813588 -2.9882602926084303 0 -2.9882602926084303 -0.32166665532956706 0 0 0 0 -11.961577603092337 -4.9046335170112911 0 -4.9046335170112911 -0.14634934954847267 0 0 0 0 -9.3422866738401353 -2.3414878587054773 0 -2.3414878587054773 -0.45948111646566758 0 0 0 0 -11.007778104740282 -3.6561864119726124 0 -3.6561864119726124 0.33698881851387341 0 0 0 0 0.67213240650693251 -2.1132580546678454 0 -2.1132580546678454 -0.75322635757356515 0 0 0 0 -6.4350797387119201 -3.2978673907061307 0 -3.2978673907061307 -1.9028119570125455 0 0 0 0 -18.680240030629648 -5.6319912952108098 0 -5.6319912952108098 -0.67572680449302425 0 0 0 0 -21.219883519092491 -6.8504086958636634 0 -6.8504086958636634 -1.1114666134690196 0 0 0 0 -20.309832903919414 -10.58115098784765 0 -10.58115098784765 -2.2619812172997626 0 0 0 0 -20.452673967003648 -10.950566559859453 0 -10.950566559859453 -1.2475851679454024 0 0 0 0 -18.590537952364684 -7.6721356257025946 0 -7.6721356257025946 -0.23136600214320424 0 0 0 0 -11.626676790029954 -6.6314856961303121 0 -6.6314856961303121 -2.7138577251736962 0 0 0 0 -20.007142028582166 -12.898122278492565 0 -12.898122278492565 -5.727566874756576 0 0 0 0 -27.27544491156732 -8.6950611063562064 0 -8.6950611063562064 -0.35181967800480152 0 0 0 0 -15.28976716366742 -7.8291348496450155 0 -7.8291348496450155 -1.3635948640337574 0 0 0 0 -8.7284963208076078 -0.41727140739180868 0 -0.41727140739180868 -1.3148969666362973 0 0 0 0 -2.3607516131479827 1.2374927777606928 0 1.2374927777606928 -0.48774583722294196 0 0 0 0 -8.0361031787397224 0.20002555869632488 0 0.20002555869632488 -4.9356164621985954 0 0 0 0 -4.2747614773682301 -1.5713566450776639 0 -1.5713566450776639 -0.50563971808261421 0 0 0 0 -6.4044626385436629 0.080234487430281831 0 0.080234487430281831 0.61516623087506517 0 0 0 0 -4.9597167504019382 -5.4129499919239095 0 -5.4129499919239095 -1.5193558006240018 0 0 0 0 -11.294713639243128 -1.3270457897644974 0 -1.3270457897644974 -2.1594320810590943 0 0 0 0 -13.334491132547555 -10.009221284579326 0 -10.009221284579326 -3.3322656057697202 0 0 0 0 -1.4412470474635484 -5.5537130083748707 0 -5.5537130083748707 -12.792125638821744 0 0 0 0 -7.6033790155147756 -5.0795381054534232 0 -5.0795381054534232 -1.9878502449547675 0 0 0 0 -7.5338345271470359 -2.7648309984680495 0 -2.7648309984680495 -3.6580054377325606 0 0 0 0 -3.1957885064039147 -4.8115471498090301 0 -4.8115471498090301 -0.94650078765744183 0 0 0 0 -9.849896597013867 -6.2645623902599255 0 -6.2645623902599255 -0.45394529946588591 0 0 0 0 -23.193498620919854 0.53339913537479333 0 0.53339913537479333 5.2509727157066663 0 0 0 0 -5.7893468862687598 -2.8444606929925875 0 -2.8444606929925875 0.16089611660551917 0 0 0 0 -13.535452085088764 -7.1271015236561652 0 -7.1271015236561652 0.39722551850536547 0 0 0 0 -13.326705498566298 -6.3985431280401599 0 -6.3985431280401599 -1.0567392251596175 0 0 0 0 -18.113584197482851 -4.2008436152268587 0 -4.2008436152268587 0.85559138979897398 0 0 0 0 -12.852949754580337 2.6744393193533966 0 2.6744393193533966 1.0860158913121634 0 0 0 0 -13.208890921836428 0.25029862707287975 0 0.25029862707287975 3.1117987867119155 0 0 0 0 -15.874832976119933 0.20813630182646126 0 0.20813630182646126 2.4677497748160553 0 0 0 0 -12.676184653355982 -2.4735407959750688 0 -2.4735407959750688 0.69547951474819314 0 0 0 0 -20.283246376318857 -2.6464552723973611 0 -2.6464552723973611 4.4161618749988065 0 0 0 0 -20.567815382249137 -10.505625426674499 0 -10.505625426674499 0.46722929257612122 0 0 0 0 -12.621038864569908 -2.6270117623707492 0 -2.6270117623707492 2.9158603924531299 0 0 0 0 -20.551993497490074 -6.98301094406823 0 -6.98301094406823 -1.0570860281475571 0 0 0 0 -19.005624217636068 -9.4928634378911738 0 -9.4928634378911738 1.0756031358032487 0 0 0 0 -13.358808445224355 -6.27218631215095 0 -6.27218631215095 -1.4981646393511845 0 0 0 0 -25.662279451777067 -15.444628038290148 0 -15.444628038290148 -0.27494838507118402 0 0 0 0 -40.747990218776977 -4.6610701090080511 0 -4.6610701090080511 7.6427070579758833 0 0 0 0 -8.0824482634925516 -15.48683645634128 0 -15.48683645634128 -0.84962227515643463 0 0 0 0 -4.1706651725040871 0.048314701011079819 0 0.048314701011079819 0.12320302262203597 0 0 0 0 -89.304552355224587 0.29275869367029372 0 0.29275869367029372 30.515056511540934 0 0 0 0 -48.139285780453065 -15.675543965699944 0 -15.675543965699944 16.09823290564691 0 0 0 0 44.984299595489574 -7.378725924905666 0 -7.378725924905666 -43.335725685166835 0 0 0 0 -0.43011449102883148 -0.2909018473825995 0 -0.2909018473825995 0.4721445896376526 0 0 0 0 -19.124361155603637 -8.7827402373169168 0 -8.7827402373169168 -1.3514326224298536 0 0 0 0 -17.130844476078209 -7.5534866446474442 0 -7.5534866446474442 -1.9935210972040931 0 0 0 0 -20.024083963115118 -10.873829958390161 0 -10.873829958390161 4.9652316131887346 0 0 0 0 -1.6065639307458923 0.035696415292775896 0 0.035696415292775896 1.1529946330431589 0 0 0 0 -14.336890784558904 -5.1137833789065965 0 -5.1137833789065965 -0.21656004037055254 0 0 0 0 29.757514511729823 -24.18040030868724 0 -24.18040030868724 2.1384043170855875 0 0 0 0 9.0481124338402878 -7.9911270677057473 0 -7.9911270677057473 6.9859267123501922 0 0 0 0 29.084991964904475 -8.9701862029196491 0 -8.9701862029196491 -6.0347454143120558 0 0 0 0 -9.8398916144853104 -7.8318510224819526 0 -7.8318510224819526 -3.4688184158321 0 0 0 0 -20.573483090605805 -15.432632858888837 0 -15.432632858888837 -2.5827608956369659 0 0 0 0 -23.646360470331274 -13.231579844884436 0 -13.231579844884436 -0.30693254341906595 0 0 0 0 -36.190819248779007 -46.431131624729005 0 -46.431131624729005 -23.333421110593918 0 0 0 0 -11.698596682278364 -7.5073740693571906 0 -7.5073740693571906 -2.6077014538375116 0 0 0 0 -46.758991026581498 -33.142484089170466 0 -33.142484089170466 -3.631933218528502 0 0 0 0 -1.5898205079376808 0.29827245268146996 0 0.29827245268146996 0.32114267692677245 0 0 0 0 -6.9627593340046587 -3.5202074509543309 0 -3.5202074509543309 -1.3462531691998265 0 0 0 0 -8.130251602109638 9.2878096083559285 0 9.2878096083559285 2.1822026978989015 0 0 0 0 10.525003899076182 -16.285084742240088 0 -16.285084742240088 -5.5001861629771156 0 0 0 0 -3.1070141637186666 -1.7488174432266348 0 -1.7488174432266348 0.25556797196290759 0 0 0 0 -3.2903645464321016 -11.027504561869137 0 -11.027504561869137 -2.9948173109341951 0 0 0 0 -13.50232067001707 3.2451398879693443 0 3.2451398879693443 1.8560414699722969 0 0 0 0 -0.55509663790342501 -1.0952435190142644 0 -1.0952435190142644 -2.4239953500405491 0 0 0 0 -13.34753597515288 -2.9447533204759253 0 -2.9447533204759253 2.6826543750160852 0 0 0 0 -23.960674227346317 -17.482886164952561 0 -17.482886164952561 -3.2728326629414823 0 0 0 0 -0.42607793771554014 -4.3026055279563451 0 -4.3026055279563451 4.1766774680432839 0 0 0 0 13.514289051130618 -11.482595741163095 0 -11.482595741163095 -2.9894617400486823 0 0 0 0 -1.4403690490944427 5.7728457953321595 0 5.7728457953321595 -20.315537862428755 0 0 0 0 0.84789809932996718 0.48778733680305564 0 0.48778733680305564 -1.8422224756918517 0 0 0 0 -23.843019736676069 -16.638349928936407 0 -16.638349928936407 0.23833079374617228 0 0 0 0 0.17475977999621506 -2.027722446541695 0 -2.027722446541695 3.8269796401268152 0 0 0 0 -34.405069908181758 -28.893637169703197 0 -28.893637169703197 -10.438455781515131 0 0 0 0 -29.60573973992723 -16.069482818161987 0 -16.069482818161987 2.8516440111884549 0 0 0 0 -22.420056511144139 -50.248923410230191 0 -50.248923410230191 -29.555017403244165 0 0 0 0 15.998274601421144 72.75043834050075 0 72.75043834050075 154.7705542767917 0 0 0 0 -0.88317691691371891 -0.81146776749718441 0 -0.81146776749718441 2.2632255158441819 0 0 0 0 -43.036466315637881 -3.9048207825535428 0 -3.9048207825535428 58.344698887024606 0 0 0 0 -106.23827345302288 31.92825959575498 0 31.92825959575498 167.5593829405334 0 0 0 0 -135.82537505103392 -13.251809249959479 0 -13.251809249959479 14.509248673755792 0 0 0 0 0.11779291006676829 -2.7356124966162447 0 -2.7356124966162447 0.60959131672886802 0 0 0 0 -31.159308738067921 -1.8902528728185644 0 -1.8902528728185644 170.83842329553613 0 0 0 0 22.370368595273249 -7.1020282548074647 0 -7.1020282548074647 -28.546391754386605 0 0 0 0 -23.4007708789768 -54.939537691128635 0 -54.939537691128635 116.47213320019182 0 0 0 0 30.768907374236733 -18.264937413778625 0 -18.264937413778625 -19.567092973804847 0 0 0 0 -6.4514672665573016 10.173871188811972 0 10.173871188811972 101.85431441978625 0 0 0 0 -55.569350157279587 -58.226222333963335 0 -58.226222333963335 17.456857847560514 0 0 0 0 -72.790047446491371 -81.209609866728442 0 -81.209609866728442 165.26934873865684 0 0 0 0 -6.3482023057756187 -144.67997641524818 0 -144.67997641524818 49.627708931333473 0 0 0 0 -29.258694856813236 -66.11765110903616 0 -66.11765110903616 -26.378421300752052 0 0 0 0 -53.000309113013827 -157.98702582207466 0 -157.98702582207466 -19.870285433478784 0 0 0 0 1.7376644877222134 -88.042079638496034 0 -88.042079638496034 30.483123507478012 0 0 0 0 67.958288790468941 -115.99975817266568 0 -115.99975817266568 -125.37996101397562 0 0 0 0 103.99876850926375 -52.825463713098543 0 -52.825463713098543 -62.050726794308503 0 0 0 0 30.49997444699693 -105.42648145480143 0 -105.42648145480143 -35.308879852130303 0 0 0 0 9.4952684490417596 -69.981655224819406 0 -69.981655224819406 53.939973545247994 0 0 0 0 66.584348905758816 -67.809344026282815 0 -67.809344026282815 3.9043604186717857 0 0 0 0 18.291888892126735 -67.217020177948143 0 -67.217020177948143 5.1611030731646679 0 0 0 0 32.560293081405689 -48.399161296855709 0 -48.399161296855709 23.75097625111448 0 0 0 0 8.7767007348447805 -80.594642385999578 0 -80.594642385999578 27.591275600245808 0 0 0 0 79.354497507622 -30.932148419818986 0 -30.932148419818986 5.7151993702063919 0 0 0 0 17.892217177155544 -26.033243644420509 0 -26.033243644420509 57.788158054795076 0 0 0 0 5.5040509488171665 -28.908773793182263 0 -28.908773793182263 16.688110662878898 0 0 0 0 -62.25513136787049 -37.639586188488465 0 -37.639586188488465 20.12906783481958 0 0 0 0 12.805207325294759 -41.988957407457747 0 -41.988957407457747 10.311280501067813 0 0 0 0 -0.11177220082206052 -0.92340265359448637 0 -0.92340265359448637 -0.15466793570610449 0 0 0 0 -2.4657428343052743 -14.762417797591297 0 -14.762417797591297 -17.638209834862209 0 0 0 0 30.020136757044384 -28.436125657121465 0 -28.436125657121465 2.424153073196976 0 0 0 0 -3.3664754359034035 -1.1822705096753054 0 -1.1822705096753054 -4.0388275443355965 0 0 0 0 17.955179366778793 9.9060605084505369 0 9.9060605084505369 -23.392555055354933 0 0 0 0 -17.080329808083878 -4.2757452400525295 0 -4.2757452400525295 -4.2470953571505703 0 0 0 0 -8.7553185165845804 -11.711532234632639 0 -11.711532234632639 -6.1046997228859601 0 0 0 0 9.1125515681924298 -22.932732654171559 0 -22.932732654171559 -21.222701059146857 0 0 0 0 -7.5378477489192193 -7.5190773984113406 0 -7.5190773984113406 -1.108765110611853 0 0 0 0 -5.2212867961457334 -9.3416676016713112 0 -9.3416676016713112 -5.926120606269393 0 0 0 0 -4.7921862044458976 -6.5455987413988623 0 -6.5455987413988623 1.1921449567889795 0 0 0 0 -35.754800628317753 -0.90313312303896964 0 -0.90313312303896964 -13.547731613351061 0 0 0 0 18.892098024873121 -14.414513581303254 0 -14.414513581303254 -13.953697997860218 0 0 0 0 17.802871248670272 -34.001010696661979 0 -34.001010696661979 -0.58365279565441597 0 0 0 0 -3.0234985773681728 -3.5470891067482313 0 -3.5470891067482313 -7.0482158095421248 0 0 0 0 -13.547138348017143 -1.9384252673431774 0 -1.9384252673431774 17.468651061845776 0 0 0 0 24.004933189084113 -36.496309737838601 0 -36.496309737838601 12.411401257959369 0 0 0 0 121.00510058313284 13.623946810083567 0 13.623946810083567 1.5110543289229099 0 0 0 0 48.653356251499645 -30.925640135006233 0 -30.925640135006233 6.2477144941331062 0 0 0 0 -17.735800394169928 42.367287945271073 0 42.367287945271073 -24.317773545564705 0 0 0 0 -38.544367726222845 -67.219340184748035 0 -67.219340184748035 -78.91347742101425 0 0 0 0 -377.5193849625939 -7.1945425135477308 0 -7.1945425135477308 19.546791307242529 0 0 0 0 3.5617945916746976 -17.909620162834017 0 -17.909620162834017 -194.59172692050129 0 0 0 0 -0.43149818560723929 -1.3832674135659744 0 -1.3832674135659744 -2.9868681384901681 0 0 0 0 -277.95101557363887 -227.58009069701211 0 -227.58009069701211 -5.1062705177807857 0 0 0 0 -108.22790136735784 -118.65864395871381 0 -118.65864395871381 -109.59963945633342 0 0 0 0 -112.50170888374123 -28.345671763893961 0 -28.345671763893961 -13.231556747427931 0 0 0 0 -59.10952423386334 -4.2614738856505028 0 -4.2614738856505028 -5.7275408123693978 0 0 0 0 -48.528343238445814 -34.491635282478683 0 -34.491635282478683 -25.479923938162756 0 0 0 0 -22.636188134420081 -19.89112254506972 0 -19.89112254506972 39.301928613838754 0 0 0 0 -13.104538551567771 0.84179494138196986 0 0.84179494138196986 -1.2813770443592283 0 0 0 0 -61.382797775571817 -33.716584210806104 0 -33.716584210806104 -38.445409625899629 0 0 0 0 -1.0042261906499164 0.40473175375069381 0 0.40473175375069381 0.34914714484396914 0 0 0 0 -185.03478588429425 98.8789154047995 0 98.8789154047995 -49.951349886645403 0 0 0 0 51.854666044455371 33.848838106933727 0 33.848838106933727 -90.095931619463045 0 0 0 0 7.6041327034690767 -10.587930476280235 0 -10.587930476280235 -48.478589992219895 0 0 0 0 17.643814792550984 -48.589412327475884 0 -48.589412327475884 2.4994785195665372 0 0 0 0 0.26033455527067417 -33.475188873932666 0 -33.475188873932666 -0.70784760191054374 0 0 0 0 5.7229019529768266 -25.478912294795919 0 -25.478912294795919 -38.096002202638374 0 0 0 0 -12.844101962086825 -8.3136040359945014 0 -8.3136040359945014 -4.0407409468270998 0 0 0 0 0.019353724211075729 -6.9406673264976533 0 -6.9406673264976533 -6.0605489790366072 0 0 0 0 -4.6428148704253545 -13.942867669920815 0 -13.942867669920815 -26.180715453644552 0 0 0 0 -10.841995678052626 -8.8284225497013722 0 -8.8284225497013722 -5.5792435665653102 0 0 0 0 -4.6932587705521982 -6.4967089404603513 0 -6.4967089404603513 -6.1444901691396154 0 0 0 0 -19.128871784282637 -25.128960651229818 0 -25.128960651229818 14.690754806415498 0 0 0 0 -2.1386901459518413 -10.657049742280378 0 -10.657049742280378 -6.3688936211378859 0 0 0 0 -0.93757346631900873 -8.4349064258822182 0 -8.4349064258822182 -4.1220944856622168 0 0 0 0 -3.4421614136524976 -5.5269473425105673 0 -5.5269473425105673 -2.4905005814480958 0 0 0 0 103.0779833860397 -142.2566318472941 0 -142.2566318472941 -95.683907492916205 0 0 0 0 -2.7523818563053721 -4.2994346591058985 0 -4.2994346591058985 -3.5159634749970579 0 0 0 0 -2.4802252541085181 -6.0646458594583237 0 -6.0646458594583237 -3.2967171288360078 0 0 0 0 -78.433783467819012 22.105844693693143 0 22.105844693693143 14.237285019402407 0 0 0 0 -10.916834932813344 -8.5208295325256813 0 -8.5208295325256813 -5.8106435664039964 0 0 0 0 -6.7749290821775503 -5.9849178057679637 0 -5.9849178057679637 -4.8036744127587099 0 0 0 0 -3.6134219148932871 -5.6514237047680993 0 -5.6514237047680993 -4.1610460706663073 0 0 0 0 -26.204578751516237 -7.1029238003675346 0 -7.1029238003675346 14.960034068666573 0 0 0 0 -1.711625607882878 -7.1104036920798279 0 -7.1104036920798279 -4.279223808028366 0 0 0 0 
</DataArray>
<DataArray type="Float64" Name="cross_section_updated" format="ascii">
1 0.0099582589750002101 1 1 1 0.009508131777369231 1 1 1 1 1 0.0087449250910557226 1 1 1 0.0084226520085799381 1 1 1 1 1 0.0099723525890371336 1 1 0.009930984971962039 1 1 1 1 1 1 1 1 1 1 1 1 1 1 1 1 0.0094029768931190374 1 1 1 1 1 1 1 1 1 1 1 1 1 1 1 1 1 0.0085193963513175812 1 1 1 1 1 1 1 1 1 1 1 1 0.0093328807082667213 1 1 1 1 1 0.0095523292065855317 1 0.0086231731642303442 1 1 1 1 1 1 0.010561487208174875 1 1 1 1 1 1 1 1 1 1 1 1 1 1 1 1 1 1 1 1 1 1 1 1 1 1 1 1 0.010000198643703859 1 1 0.0079757532664448145 1 0.0099396450704145444 1 1 1 1 1 1 1 1 0.0099421822860138176 1 1 0.0099624630934989963 1 1 1 1 1 1 1 0.0099892268621863227 1 1 0.010092351004565703 1 1 1 1 1 1 1 1 0.0096464764411838475 1 1 1 1 0.0090277492278615472 1 1 0.0087842496797967389 1 1 1 1 1 0.0093796925772574175 1 1 1 1 1 1 1 1 1 0.010046270042727725 1 0.010144456154244181 1 1 1 1 1 1 1 0.010160402885048787 1 1 0.0099999204471834854 0.0094814598054797205 1 1 1 1 0.0085335285660151066 1 1 1 1 1 0.0085072860594015004 1 1 1 1 1 1 0.0085166373398314413 1 1 1 0.0094867701650105472 1 1 1 1 1 1 1 1 1 1 1 1 1 1 1 1 1 1 1 1 1 1 0.010293844812875404 1 1 0.010689281463414271 1 1 1 1 1 1 1 1 1 1 1 1 1 1 1 1 1 1 0.0097584000338772573 1 1 1 1 1 1 1 1 1 1 0.0093796695049519086 1 1 1 1 1 1 1 0.0091574996897318371 0.009936472856956341 0.010002236816531337 1 1 1 1 1 1 1 1 1 0.0096978935901069485 1 1 1 1 1 1 1 0.010011258968738682 1 1 1 0.0099318443060773635 1 1 0.010096426045926097 1 1 1 1 1 1 1 1 1 1 1 1 1 1 1 0.010299804316111258 1 1 1 0.009294264827122917 1 1 1 1 1 1 1 1 1 1 1 1 1 1 1 1 1 1 1 1 1 1 1 1 1 1 1 0.0086386270611521852 1 1 0.0088942475946534819 1 1 1 1 1 1 1 1 1 1 0.0099838362835946021 1 1 1 0.010083966924180591 1 1 1 1 1 1 1 0.0098177738835778985 1 1 1 1 0.0077077699261035183 1 0.010325808460167379 1 1 1 1 1 0.0072644788482030794 1 1 1 1 1 1 1 1 1 1 1 0.010000142656328346 1 0.0080882576200821885 1 0.010143152265809943 0.0070274322256250145 1 0.004382855476385155 1 1 0.0093819446220848174 1 1 1 1 1 1 1 1 1 1 1 1 1 1 1 0.0097876940572511444 1 1 1 1 1 1 1 0.0040329604208724831 0.0099816747921524958 1 1 1 1 1 1 1 1 1 1 1 1 1 1 1 0.0064795454101996205 1 1 1 0.0059617366319821459 1 0.0076374252601506326 0.0099033046964749835 1 1 1 1 0.010035230208352619 1 0.010045705556646809 1 1 1 1 1 1 1 1 1 1 0.010224956023577958 1 1 1 0.010169068464380152 1 1 1 1 1 1 1 1 1 0.0060136706437163723 1 0.0074943802796147742 1 0.0071566000443028955 1 1 0.0032338091807663661 0.01013856253663532 1 1 1 1 0.0097918607594339423 1 1 1 1 0.0099960668509812972 0.008064231539635397 1 1 1 1 1 1 0.010123628690866316 1 1 1 1 1 1 1 1 1 1 0.0093386124271687809 1 1 1 0.0098119329843789019 1 0.0083321045032031769 1 1 1 0.0095756109892523415 1 1 0.010274449919018051 1 1 0.0099658084079223622 0.010772762466458993 1 1 1 1 1 1 1 1 1 1 1 1 1 1 1 1 1 1 1 0.0095596322787065893 1 1 1 1 0.010417318273029229 0.0064139245363700921 1 1 0.0095422061391935258 1 1 1 1 0.0073962735712059646 1 1 1 0.0079170016599830785 1 1 1 1 1 1 0.0074243509531819567 1 1 1 1 1 1 1 0.0075994871301899901 1 1 0.0078621885907639768 1 0.009018857192584627 1 1 1 1 1 1 1 1 1 1 1 0.0089702995284182217 0.0097673951924961734 1 1 1 1 1 1 1 1 1 0.0097678245975720019 1 1 1 1 1 1 1 1 1 1 1 1 1 1 1 1 1 1 1 1 1 1 1 1 1 1 1 1 1 1 1 1 0.0087440350365327948 1 1 1 1 0.007079764795973888 1 1 1 1 1 1 1 1 1 1 1 0.0065256953098444268 1 0.0067242536964102076 1 1 1 1 1 0.0065723346827383415 1 1 1 1 1 1 1 1 1 1 1 1 1 1 1 1 1 1 1 1 1 1 1 1 1 1 1 1 1 1 1 1 1 1 1 1 1 1 1 1 1 1 1 1 1 1 1 0.0099556775423440061 1 1 1 1 1 1 1 1 1 1 1 1 1 1 1 1 1 1 1 1 1 1 1 1 1 1 1 1 0.0099718835397518499 1 1 1 1 1 1 1 1 1 1 1 1 1 1 1 1 1 0.010034907600742561 1 1 1 1 1 1 1 1 1 1 1 1 1 1 1 1 1 1 1 1 1 1 1 1 1 1 1 1 1 1 1 1 1 1 1 1 0.0083740412194989022 1 1 0.0098276808753323345 1 1 1 1 1 1 1 1 1 1 1 1 1 1 1 1 0.0098102162395314191 1 1 1 1 0.010017537631821028 0.0094272349069188643 1 1 0.010106165730391472 1 1 1 1 1 1 1 1 1 0.0097662599769072836 0.010047369805954807 1 1 1 1 0.0089157310388612836 1 1 1 1 0.0099062199114846872 1 1 1 0.0089014402445417463 1 1 1 1 1 1 1 1 1 0.007338409049457921 1 1 1 1 1 1 1 1 1 1 1 1 1 1 1 1 1 1 1 1 1 1 1 1 0.0080889680044440356 1 1 1 1 1 1 1 1 0.0086536430136902858 1 1 1 1 0.01001624478971711 1 1 1 1 0.0088212956724801027 0.0095483150853150067 1 1 1 1 1 1 1 1 1 1 0.0096267452995393941 1 1 1 1 1 1 1 1 1 0.010120414711004883 1 1 0.010366576470413846 1 0.0075942808467404426 1 1 0.0096825855136013026 1 1 1 0.0096214937152942874 1 1 1 1 1 1 1 1 1 1 1 0.0098793859973503144 1 1 1 1 1 0.01004942971089952 0.01012246301528354 1 1 1 1 0.010161172663460977 1 1 1 0.010038643981755819 1 1 1 1 1 1 0.0093689252363140605 1 1 1 1 1 0.005776427352255949 1 1 1 1 0.010128993923653505 1 1 0.01007555400509587 1 0.0076175255695437507 0.0089216720335570498 1 0.0092356176570591968 1 1 1 1 0.0070611726024227888 1 0.0073953997526407548 1 1 1 1 1 1 1 1 0.0060318833106032359 1 1 1 0.0092188539497954983 1 1 1 1 1 1 0.0085725639879182698 1 1 1 1 1 1 0.0067487090252472274 0.0087647480266328116 1 1 1 1 1 1 0.010151317508249998 1 1 1 1 0.010015543164282957 1 1 1 1 1 1 1 1 1 0.0044105938287141728 1 1 1 1 1 1 0.01053285062219605 1 0.010190611414380914 1 1 1 1 0.0035559665642788604 1 1 0.011568547094588717 1 1 0.0063403325678323278 1 0.0079461781172350861 1 1 1 1 1 1 1 1 0.010395517317649537 1 0.0087027183787591993 1 1 1 1 1 1 1 1 1 1 0.007865256916015282 1 1 1 1 1 1 1 1 1 0.011071741342878765 1 1 1 1 0.010010581874982083 0.0077033500358331094 1 1 0.0092864735374095127 1 1 1 1 1 1 1 1 1 1 1 1 1 1 0.010310614246293094 1 0.0090256086234370564 1 1 1 1 1 1 1 1 1 0.0074828394529198542 1 1 1 1 1 1 1 1 1 1 1 1 1 1 1 1 1 1 1 1 1 1 1 1 1 1 1 1 1 1 1 1 1 1 1 1 1 1 1 1 1 1 1 1 1 1 1 1 1 1 1 1 1 0.0099389199856793221 1 0.0069732311354328471 1 1 1 0.0061551175309184098 1 1 0.010117735082766552 0.009381164627907241 1 1 1 1 1 1 1 1 1 0.010041569281240243 1 1 1 1 1 1 1 1 1 1 1 1 1 1 1 1 1 1 1 1 1 1 1 1 1 1 1 1 1 1 1 0.008834911495169016 1 1 1 1 0.0084425111936032513 1 1 1 1 1 1 1 0.0096591301984807563 1 1 1 1 1 1 1 0.0098104426750189704 1 1 1 1 1 1 0.0079454642746854577 1 0.0099053707166341601 1 0.0080593933455506035 1 1 1 1 1 1 1 1 0.0098909890472547862 1 1 1 1 1 1 0.0095485998094602051 1 1 0.0099878001162408258 1 1 1 1 1 1 1 1 1 1 1 1 1 0.0086749844749646823 1 0.0095888930138939548 1 1 1 1 1 1 0.0097554117499934132 1 1 1 1 0.0077477924824427419 1 1 1 1 1 0.0068954902439886476 0.0075779480982971015 1 0.0068769499747580584 1 1 1 0.0076521606025063303 1 1 1 1 1 1 1 1 1 1 1 1 1 1 1 1 1 0.0082847739134252162 1 1 1 1 1 1 1 1 1 1 1 1 1 1 1 1 1 0.0099693585151080059 1 1 1 1 1 1 0.0077100769335631623 1 0.010017366174264963 1 1 0.0099997223212194876 1 1 1 1 1 0.0070867078231212303 1 1 0.010896712659103115 1 0.0045761604418518807 0.0067495746808477041 0.0060926557891609907 1 1 1 1 1 1 1 1 1 0.0067632584996031326 1 1 1 0.012124185067363432 1 1 1 1 0.0098427956332126469 1 1 1 1 1 1 1 1 1 1 1 1 1 1 1 1 1 1 1 0.010638778141684759 1 1 1 1 0.0098809144092921325 1 1 1 1 1 1 1 1 0.010084891068159393 1 1 1 1 1 0.0074856488437712101 1 1 1 1 1 1 1 1 1 1 1 1 1 1 1 1 1 1 1 0.0099892702308516153 1 1 0.0076814647956332058 0.010046590271330025 0.0079201231997119044 1 1 0.0079150524069636682 0.0085970593412909788 1 1 1 1 0.0099972924642865359 1 1 1 1 1 1 1 1 0.0086442907596532663 0.01063769675321524 1 0.0098126671922100263 1 0.010012085465535409 1 1 1 1 1 1 1 1 0.0096961633068032363 1 1 1 1 1 1 0.006482396354764758 1 1 1 1 1 1 1 0.0087719996067479027 1 1 1 1 1 1 1 1 1 1 1 0.0098717511123738375 1 1 1 1 1 1 1 1 1 1 1 1 1 1 1 1 1 1 1 1 1 1 0.0099954699746393014 1 1 1 1 0.0097513977229846081 1 1 1 0.0094585697351150591 1 0.0092510866937813192 1 1 1 1 1 0.0097187391493404451 1 1 1 1 1 1 1 1 1 1 1 1 1 1 1 1 1 1 1 1 1 1 1 1 1 1 0.0095982108814832018 1 1 1 1 1 1 1 1 1 0.0094188941740250137 0.0095850555993625044 1 0.010001395709662594 1 1 1 0.0099994361647079491 1 1 0.010715880892456961 1 1 0.0095749754795663652 1 1 1 0.0095688121670944402 1 1 1 0.0099769725490875399 1 0.0099593084228251708 1 1 1 1 1 1 1 1 1 1 1 1 0.010253293902828867 1 1 1 1 1 1 1 1 1 1 1 1 1 1 1 1 1 0.009805555510345329 1 1 1 0.0095928812281674269 1 1 1 0.0099785737425423567 1 1 1 1 1 1 1 0.0097873257178220999 1 1 1 1 0.0090674349206762653 1 1 1 1 1 1 1 1 0.0096187549882763984 1 1 1 1 1 1 1 1 1 1 1 1 1 1 1 1 1 1 1 1 1 1 1 1 1 1 1 1 1 1 1 1 1 0.010079627666983689 1 1 1 1 1 1 1 1 1 1 1 1 1 1 0.010247319822779927 1 0.0094011409073052141 1 1 1 0.0097819602239355274 1 1 1 1 1 0.010058382781550572 1 1 1 1 1 1 1 1 0.0094338129950203853 1 1 0.010054023332609 1 1 1 1 1 1 1 1 1 1 1 1 0.0089455501570123493 1 1 0.010388969863579518 1 0.0090479560153872707 1 1 1 1 0.0099688460080564131 1 1 0.0091123810677259942 1 1 1 1 1 1 1 1 1 1 1 0.007954575662107756 1 0.0096254323598795582 1 1 0.0094575262973178968 0.0093698548634759734 1 0.010012975305340462 1 1 1 1 0.0080340793448496935 1 1 1 1 1 1 1 1 1 1 1 0.0074791789293029466 1 1 0.0099927174876722012 1 0.0094568643173184828 1 1 1 1 1 1 1 1 1 1 0.0083657356831185539 1 1 1 1 1 1 1 1 1 1 1 1 1 1 1 1 1 1 1 1 1 1 1 1 1 1 1 1 1 1 1 1 1 1 1 0.0099670124429515582 1 1 1 1 1 1 0.0099179513717657722 1 1 1 1 0.0097029234401876593 1 1 1 1 0.0095717012423963185 1 1 1 1 1 1 1 1 1 0.0074307761116521953 1 1 1 1 1 0.0080830636575315341 0.0099358120859056494 1 1 1 0.0099836081371739785 1 0.0098255517229236221 1 1 1 1 1 1 1 1 1 0.0099647132633820037 1 0.0099126065195121061 1 1 1 1 1 0.0098735414249111423 1 0.0088421212229324447 1 1 1 1 1 1 1 0.009876254924175239 1 1 1 1 1 1 1 1 1 1 1 1 1 1 1 1 1 1 1 1 1 0.0099693529870936888 0.0073734723827818208 0.0075442438557497453 1 1 1 1 0.0097001535940732901 1 1 1 1 1 1 1 1 1 1 1 1 1 1 1 1 1 1 1 1 1 1 1 1 1 1 1 1 1 1 1 1 1 1 1 0.0098720238824467378 1 1 1 1 1 1 1 1 1 1 1 1 1 1 1 1 1 1 0.0099298161951005357 1 1 1 0.0042563920351142981 1 1 1 1 1 1 1 1 1 0.0050117944521566992 1 1 1 1 1 1 1 1 1 1 1 1 1 1 1 1 1 0.010030412388355505 1 0.00989017892220472 1 1 1 1 1 1 1 1 1 1 1 1 1 0.0099603627271041845 1 1 1 1 1 1 1 0.0094039469087716602 1 1 1 1 1 1 0.0027189530216337578 1 1 1 1 1 1 1 1 1 1 1 0.0034974208574647999 1 1 1 1 1 0.0033401518207670476 1 1 1 1 1 1 0.01002795564692323 1 1 1 1 1 0.0035555552263823245 1 0.0094256554170211171 1 1 1 1 1 1 1 1 1 1 1 1 1 1 1 0.0097959167029236637 1 1 1 1 1 1 1 1 1 1 0.010556630268436657 0.0080185169603829258 1 1 0.0088710638458768497 1 1 0.010003066797059222 1 0.0099643219934061091 1 1 1 1 1 1 1 1 1 0.010538769369933009 0.0047239904301033739 1 1 1 1 1 0.0050485765912334449 1 1 1 1 1 1 1 0.0099814944463014997 1 1 1 1 1 1 1 1 1 1 1 1 1 1 1 1 1 1 1 1 1 1 1 1 1 1 1 1 1 1 1 1 1 1 1 1 1 1 1 1 1 1 1 1 0.0059232026358986885 1 1 0.0083097151787210818 1 1 1 1 1 1 1 0.0054965093773981736 1 1 1 0.010001746130564468 1 1 0.0089686204797587554 1 1 0.0088520722938260406 0.0099778841975941557 1 1 0.0097703338064608555 1 1 1 1 1 1 1 1 1 1 1 1 1 1 1 0.0093864353982034323 1 1 1 1 1 1 1 1 1 1 1 1 1 0.0097969245391069572 1 1 1 1 1 1 1 1 1 1 1 1 1 1 1 1 1 1 1 1 1 1 1 1 1 1 0.0092806645338608263 1 1 1 1 1 1 1 1 1 1 1 1 0.010077535947582731 1 1 1 1 1 1 1 1 1 1 1 0.007240545453273425 1 1 1 0.0080300116401099183 1 1 1 1 1 1 0.0069581971032433437 1 1 1 1 1 1 1 1 1 1 1 1 1 1 1 1 1 1 1 1 1 1 1 1 1 0.010663098992615647 1 0.0070607412354251539 1 1 1 1 0.0094447949013649491 1 1 0.0098399694696147816 1 1 1 1 1 1 1 1 1 1 1 1 1 1 1 1 1 1 1 1 1 1 1 1 1 1 1 1 0.0096897879676876748 1 1 1 1 1 1 1 1 1 1 1 1 1 1 1 1 1 1 0.0099797191925148146 1 1 1 1 0.0089891839507802718 1 0.008134872340618585 1 1 1 1 1 1 1 1 1 1 1 1 1 1 1 1 1 1 1 1 1 1 1 1 1 1 1 1 1 0.0083663002189391551 1 1 1 1 1 1 1 0.0075053553010833839 1 1 1 1 1 1 1 0.0099410276205092723 1 1 1 0.0067306133907124675 1 1 1 1 1 1 1 0.010106185304415597 1 1 1 0.0080576928456160928 0.0097974335974221807 0.0077256182960912419 1 1 0.010121457293622665 1 1 1 0.010207009898204153 1 1 1 1 1 1 1 1 1 0.0099884574466329399 0.0099958498958800674 1 1 1 1 1 1 1 1 1 1 1 1 0.010113822695595945 1 1 1 1 1 1 0.010033142834376778 1 1 1 1 1 1 1 1 1 1 1 1 1 1 1 1 1 0.0099999819486985067 1 1 1 1 0.010000669180955936 1 1 1 1 0.010000683665627563 1 1 1 1 1 1 1 1 1 1 1 1 1 1 1 1 1 1 1 1 1 1 1 1 1 0.0098201289693049879 1 1 1 1 1 1 1 1 0.0098955419019434616 1 1 1 1 1 1 1 1 1 1 1 0.0099245870673615299 1 1 1 1 1 1 1 1 1 1 1 1 1 1 1 0.0099889991112553627 1 1 1 1 1 0.0099889797863340971 1 1 1 1 1 1 1 1 1 1 1 1 1 0.0099881115810094845 1 1 1 1 0.0099742854084617361 1 1 0.00995873383325881 1 1 1 1 1 1 1 1 1 1 1 1 1 1 1 1 1 1 1 1 1 1 1 1 1 1 1 1 1 1 1 1 0.0099682109407686625 1 0.0099632444091092738 1 1 1 1 1 1 1 1 0.0099812072957928717 1 1 1 1 1 1 1 1 1 1 1 0.010001902037770849 1 0.010000659815275502 1 1 1 1 0.0099027746990129131 1 1 1 1 1 1 1 1 1 1 1 1 0.0098956010290357221 1 1 1 1 1 1 1 1 1 0.0099972136435611016 1 1 0.0099981109493925899 1 1 1 1 0.010015195372048124 1 0.010008827734788289 1 1 1 1 1 1 1 1 1 1 1 1 1 1 1 1 1 1 1 1 1 0.0095065929037203862 1 1 1 1 1 1 1 0.0088789242720951136 1 0.0086273291747262434 1 1 1 1 0.0099934184907512873 0.0065678770759634714 1 1 1 1 1 0.009278597547825132 0.0061189730327702637 1 1 1 1 0.0098924283447668331 1 1 0.008547943731358261 0.0099192078035528451 1 0.010218880993065088 0.010806665166074772 0.0091289974127496537 1 1 1 1 1 1 1 1 0.010549813610377608 0.0088434830813511264 1 1 1 1 0.0092362604293592526 0.0021343283519568235 1 1 1 1 1 1 1 1 1 0.0027165914532529048 1 1 1 1 1 1 0.0068114980166918172 1 1 1 1 1 1 1 1 0.0067017382615364492 1 1 1 1 1 1 0.0083508829183834878 1 1 0.0099155221325925962 0.0072734235788214901 1 1 0.0096813315055151034 1 0.0066782755661830137 1 0.0060986880039343681 1 1 1 0.0095290670015535893 1 0.010007940546655729 1 1 0.0084372774977400384 0.0085241182677704454 0.009656364200297118 1 1 1 1 0.0063006844338170335 1 0.0099985817327492392 0.0099987639482846669 1 0.0079210135429188706 0.00749536674383686 1 1 0.010053275328638277 1 1 1 0.0099989563037126503 1 1 1 1 1 0.0071616478358275514 1 1 1 0.0094849164425393415 0.0092315139024234261 1 1 1 0.0095029481304373196 1 1 1 1 1 0.010005020572115143 1 1 1 1 1 1 1 1 1 1 1 1 1 1 1 1 1 0.010001790338730941 1 1 1 1 1 1 0.010025597444681133 1 1 1 0.0099884064854903806 1 1 1 1 1 1 0.0099701817478409262 1 0.0074981594152415199 1 1 1 1 1 1 1 1 1 1 1 1 1 1 1 1 1 1 1 1 1 1 1 0.0097179881350749654 1 1 1 0.0098934238528690481 1 1 1 1 1 1 1 1 1 1 1 1 1 1 1 1 1 1 0.0099129452034115162 1 1 1 1 1 1 1 1 1 1 1 1 1 1 1 1 1 1 1 1 1 1 0.0022103417278364051 1 1 1 1 1 1 1 1 1 1 1 1 0.009906211967772631 1 0.0021830652038514996 1 1 1 1 1 0.0053291727084702131 1 1 1 0.0067836746994230524 1 1 0.0092201822734078506 1 0.010377769770848843 1 1 0.010048776974846888 0.0097390953561224611 1 1 1 1 1 1 1 1 1 1 1 1 1 1 1 1 1 0.0024658568413511326 0.0097617290234144061 1 1 1 1 1 1 1 1 1 1 1 1 1 1 1 1 1 1 1 1 1 1 0.0097877101546699763 1 0.0028634026384196203 1 1 1 0.0099769258787948834 1 1 1 0.0083418355900347924 1 1 1 1 1 1 1 1 1 0.008404300450446588 1 1 1 0.0097741534352851992 1 1 1 1 1 1 1 1 1 0.0088464892146203154 1 1 1 1 1 1 1 1 1 1 1 1 1 1 1 1 1 1 1 1 1 1 1 1 1 1 1 1 1 1 1 1 1 1 1 1 1 1 1 1 1 1 1 1 1 0.0083235676743479061 1 1 1 1 0.008236690985413915 0.0083115341941501011 1 1 0.0090839496923061751 0.0098597064004893962 1 1 1 1 0.0093217757449947855 1 1 1 1 1 1 1 1 1 0.010008061368589434 1 1 1 1 0.010044515271756649 1 1 1 1 0.0084453966129550747 1 1 1 0.0091618437107192918 0.0095149373044404323 1 1 1 1 1 1 1 1 0.0083850508367609641 1 1 1 1 1 1 0.0099849932418161862 1 1 1 1 1 1 0.010001634450379902 1 1 1 1 0.010006055350125897 1 0.0091013083097877326 1 0.0099973236641163355 1 1 1 0.0099877884426051167 0.01016324445063279 1 1 1 1 0.0099611021727135114 1 0.0099569097547966834 1 1 1 1 0.0093399633582834079 0.009794385490469194 1 0.0093559724303527696 1 1 1 1 1 0.0078594204977221558 1 1 0.0095726959730564522 0.0099832829928445527 0.0090961103170041774 0.010229119474983209 1 1 1 0.0080007255671589606 1 0.009045592493973598 0.0096970311859371945 1 1 1 1 1 1 1 1 1 1 1 1 1 1 1 1 1 1 1 1 0.01005663309602561 1 1 1 1 1 0.010000187564193708 1 1 0.0096732858407393256 1 0.010059875404525404 1 1 1 1 1 1 1 1 1 0.010919665376525358 1 1 0.0099984277952954309 1 0.0095104434959824413 1 1 0.0097818789453592309 0.0099785946629819822 1 0.0098135893771286332 1 1 1 0.0099975265952293793 1 0.010044801510150591 1 1 0.0090082427348792855 1 1 0.0078489345923285561 1 1 1 1 1 1 1 1 1 1 1 1 1 1 1 1 1 1 1 1 1 1 1 1 1 1 1 0.010058879563579254 1 1 1 0.0099976227533629409 1 1 0.01000235332251259 1 1 1 1 1 1 1 1 1 1 1 1 1 1 1 1 1 1 1 1 1 1 0.0098919243447928209 1 1 0.0093569027026116271 1 1 0.0098857273823506654 1 1 1 0.0099991096329595484 1 1 1 1 1 1 1 1 1 1 1 1 1 1 0.0092546710149937761 1 1 0.0099997242406903823 1 1 1 0.009999722110886719 1 1 1 1 1 1 1 1 0.009495267935534589 1 1 1 1 0.00981104842616062 1 1 1 1 1 1 1 1 1 1 1 1 1 1 1 1 0.010019728760898829 1 1 1 0.010104748014613071 1 1 1 1 1 1 1 1 1 1 1 1 1 1 1 1 1 1 1 1 1 1 1 1 1 1 1 1 1 1 1 1 1 1 1 1 1 1 1 1 1 1 1 1 1 1 1 1 1 1 1 0.010350135458357808 1 1 0.010242054478835253 1 1 1 1 1 1 1 1 1 1 1 1 1 1 1 1 1 1 1 0.0066156106816131696 1 0.0068956249382336379 0.010252947356054096 0.010479738494646179 1 1 1 1 1 1 1 1 1 1 1 1 1 1 1 1 1 0.006706671469624774 0.0070436148414904365 1 1 1 0.0099392476320521519 1 1 1 1 0.0067908671414359818 0.0066944451275104105 1 0.0098853978318583294 1 1 1 0.0099834276191674651 1 1 1 1 0.007254371079615885 1 1 1 1 1 0.0066280110130100458 1 1 0.0080377117579119653 0.010001229581235293 1 1 0.0099965557801405588 1 0.0093980493466428484 1 1 0.0093158612404575809 1 1 1 1 1 1 1 1 1 0.010051994844586262 1 1 1 1 0.010006754102452803 1 1 1 1 1 1 1 1 1 1 1 0.0099989240093968854 1 1 1 1 1 1 1 1 1 0.010019671177170539 1 1 1 1 1 1 1 1 0.0071347223871883513 1 1 0.0096877047049881183 1 1 1 1 1 1 1 1 1 1 1 1 1 1 1 1 1 1 0.010066100021165545 1 1 1 1 1 1 1 1 1 1 1 0.009896769907034187 1 1 1 1 1 1 1 0.0097413525858686973 1 1 0.010188710492927338 1 1 1 1 0.009761624532349673 1 1 1 1 0.0090896934003130703 1 1 1 1 0.0099230874379216249 1 0.0082808778860516651 1 1 1 1 0.0072181546892511605 1 1 1 0.0099757996256147931 1 1 1 1 1 1 1 1 1 1 1 1 1 1 1 1 1 1 1 1 1 1 1 1 1 1 1 1 1 0.0083055374506274381 1 0.0083142676298226057 1 0.0074350160154661709 0.0080450601435627777 1 1 1 0.0083663866361150044 1 1 1 1 0.0091135055681403725 1 0.0081393295210984325 1 1 1 0.0097359626897872576 1 1 1 1 1 1 1 1 0.0099158115687380168 1 1 1 1 1 1 1 1 1 1 1 1 1 1 0.0076937565559412283 1 0.0099594944168878326 1 1 1 1 1 0.0097397805795628213 1 1 1 0.0078103287982511423 1 1 1 1 0.0082423881152053884 1 1 1 1 1 1 1 1 0.01001743203343022 1 1 0.0099713869275567784 1 1 1 1 0.0099862630763586299 1 1 1 1 1 1 0.0080116588331022032 1 1 1 1 1 0.010095237232447049 1 0.0078758565412443936 0.0086057718714332137 1 1 1 1 1 1 1 1 1 1 1 0.0099851238511981452 1 1 1 1 1 1 1 0.0099182562234851508 1 1 1 1 1 1 1 1 1 1 1 1 1 1 1 1 1 1 1 1 1 1 1 1 1 1 1 1 1 0.010148887885055417 1 1 1 1 0.010410265564406629 1 1 1 1 0.009372218327223486 1 1 1 1 1 1 1 1 1 1 1 1 0.010118002369646167 1 1 1 1 1 1 1 1 1 1 1 1 1 1 1 1 1 1 1 1 1 1 1 1 1 1 1 1 1 1 1 1 1 1 1 0.0099143374116113896 1 1 1 0.010055484830145189 1 1 1 1 1 1 1 1 1 1 1 1 1 0.010284573453786267 1 1 1 1 1 1 1 1 0.0096971330518013793 0.0098010522167871657 1 0.0082151431588403413 1 1 1 1 1 0.0076188811082777879 1 1 1 1 1 0.0067396112222288451 1 1 0.0098302603193259636 1 1 1 0.0068384266106667766 1 1 0.009514471628762379 1 1 1 1 1 0.0098819884658590401 0.0098442106864298322 1 1 1 1 1 1 1 1 1 1 1 1 1 1 0.010016196353302413 1 1 1 1 1 0.010060576363320119 1 0.008131491700456326 1 1 0.0076884374309892107 1 0.010069023849329305 0.0097203370651033211 0.010291036273106692 1 1 1 0.0077531105113898 1 1 1 1 1 1 1 1 0.009852616599730149 0.0099148955255957301 1 0.0099987881521189804 1 0.010072187478422853 1 1 1 1 1 1 1 1 1 1 1 1 1 1 1 1 1 1 1 1 1 1 1 1 1 1 1 1 1 1 1 1 1 1 1 0.0099995768406107386 1 1 1 1 1 1 1 1 1 1 1 1 1 1 1 1 1 1 1 1 1 1 1 1 1 1 0.0096485533160077831 1 1 1 1 1 1 0.0090036254386673554 1 1 0.0093693337425048429 1 0.010593536484779958 1 1 1 1 0.0097614326769936543 1 1 1 0.010174901264882448 1 1 1 1 1 1 0.0092512608759206215 1 1 0.009735587112309636 1 1 1 0.0098603070290953013 1 1 0.0097929206630047866 1 1 1 1 1 0.0098473686443370442 1 1 0.0095342457533244378 0.0095502291017699123 1 1 0.0099288569155296588 1 0.0094499116358028323 1 1 1 0.0091600573974952425 1 1 0.010001177617742246 0.010252768070665472 1 0.0099985329722949382 1 1 0.0099217203857857594 1 1 1 1 1 1 1 1 1 1 1 1 1 1 1 1 1 1 0.010023262468909283 1 1 1 1 1 1 1 1 1 1 0.009440306239494739 1 1 1 1 1 1 1 0.0098087781576509138 1 1 1 1 1 1 1 1 1 1 1 1 1 1 1 1 1 1 1 1 0.010062387166673127 0.0099967242564304518 1 1 1 1 1 1 1 1 1 1 1 0.010137038034032955 1 1 1 1 1 1 0.010047851444563273 1 1 1 1 0.010189959500776294 1 1 1 1 1 1 1 1 1 0.010314969509796554 1 1 1 1 1 1 1 1 1 1 1 1 1 1 1 1 0.010147723627703185 1 1 1 1 1 1 1 1 1 1 1 1 1 0.0099753477291291085 1 1 1 1 1 1 1 1 1 1 0.0099355735089608557 1 1 1 0.01007752291224521 1 1 1 1 1 1 0.010029276694088277 1 1 1 1 1 1 1 1 1 1 1 0.0097707900314932226 1 1 1 1 1 1 1 1 0.010356068181507343 1 1 0.0094627877925712797 1 1 0.0091356294573004052 1 0.0094967918130514327 0.0099962609108120229 1 0.0099915053193822545 1 1 1 1 0.0096190095109884612 0.0095471380153557463 1 1 1 1 1 0.0097503982923751193 1 1 1 1 0.009919675131895395 1 1 1 0.0094887794367401 1 1 0.0099471792162568011 1 1 1 1 1 1 1 1 1 1 0.0094868474501166953 1 0.0085953239489107661 1 0.0098011549677658391 0.0091123591510526725 1 1 1 0.0092461195806833839 1 1 0.0098971228265282516 0.010000482796785969 1 1 1 1 1 0.0099613438361859097 1 1 1 1 1 1 1 1 1 1 1 1 1 1 1 1 0.0095721061563403022 1 1 0.0094508088009505626 1 1 1 0.01004216209849609 1 1 1 0.010150020638810568 1 0.0080685778296076573 1 1 1 1 1 1 1 1 0.0063571786715490054 1 1 1 0.0069945691810328761 0.009836682511720287 1 1 1 1 1 1 1 1 1 1 1 1 1 0.0099986147525934904 1 0.0099847931083837192 1 1 1 1 1 1 1 1 1 1 1 1 1 1 1 1 1 1 1 1 1 1 1 1 1 0.008862368901623981 1 1 1 1 0.0086445119142307195 1 0.0097969129476868123 1 1 0.0084374329464986016 1 1 1 1 1 1 1 1 1 1 1 1 1 1 1 1 1 1 1 1 1 1 1 1 1 1 1 1 1 1 1 1 0.0097186789463692986 1 1 1 1 1 1 1 0.0099389489961765123 1 1 1 1 1 1 1 1 1 1 1 0.0096520653012287481 0.0092590304949482331 1 1 1 1 1 0.0061178509859889721 1 1 0.0093755761874693023 1 0.007664282429047483 1 1 1 1 1 1 1 1 1 1 1 1 0.0072885370027766343 1 1 1 1 1 0.0098482058761709089 0.0098024759027272278 1 1 1 1 0.0100117706113241 1 1 1 1 1 1 1 1 1 1 0.0098836281178793384 1 1 1 1 1 1 1 1 1 1 1 1 1 1 1 1 1 1 1 1 1 1 1 1 1 1 1 1 1 1 1 1 1 1 1 1 1 1 1 1 1 1 1 1 1 1 1 1 1 1 1 1 1 1 1 1 0.0099565640655213256 1 1 1 0.0097401057978264635 1 1 1 1 1 1 1 0.0097982286219637435 1 1 1 1 1 0.0085795067524874081 1 1 1 1 0.0093631016389254026 1 1 1 1 1 1 1 1 1 1 1 1 1 1 1 0.009981634657520248 0.0069739833950483417 1 1 1 0.0084603826143853696 0.010469710057266414 1 1 1 1 1 1 0.0090525514025011182 1 1 0.0063210102239830051 1 1 1 1 1 1 1 1 1 1 0.0098270729091270975 0.0049661142857692466 1 1 0.0051044891625950713 1 1 1 1 1 1 1 0.0095556856580056131 1 1 1 1 1 1 1 1 1 1 1 1 1 0.0095575579396553409 1 1 1 1 1 1 0.0086064034498291152 1 1 1 1 1 1 1 1 1 0.0097584631860167526 1 1 1 1 0.010046416835759315 1 1 1 1 1 1 1 1 0.009950938928814216 1 1 1 1 1 1 1 1 0.010221023892676234 1 1 1 1 1 0.008856764660497788 0.0070066095130288377 1 1 0.0092131213535063834 1 1 1 0.006763253464605894 1 1 1 1 1 1 0.0098846079033353892 1 1 0.010460755686955207 1 1 0.0099962269581732356 1 1 1 1 1 0.0098604718411693694 1 1 1 1 0.0069096740142295977 1 1 1 1 1 1 1 1 1 1 1 1 0.010103625642563084 1 1 1 1 1 0.010268144557195553 1 1 1 1 1 1 0.01041695768472288 1 1 1 1 1 1 1 1 1 1 1 1 1 1 1 1 1 1 1 1 0.0098671970967743952 1 1 1 1 0.0096558901375875701 1 1 1 1 1 1 0.0095199750838482373 1 1 1 1 1 1 1 1 1 0.010045199244829489 1 1 1 1 1 1 1 1 1 1 1 1 1 1 1 1 1 1 1 1 1 1 1 1 1 1 1 1 1 1 0.0091015612008497736 1 1 1 1 1 1 1 1 0.0084613662127154595 1 1 0.009947320130265884 1 1 1 1 1 0.0094489419374054612 1 1 1 1 0.009398081376454797 1 1 1 1 1 1 1 1 0.010781236602867922 1 1 1 0.0085727312944609627 1 0.0060907877257557353 1 1 1 0.010070322897748743 0.0087244706568618095 0.0063498587867405224 1 1 1 1 0.0074659848352381219 1 1 1 1 1 1 1 1 1 1 1 0.0094766337037940507 1 1 1 1 1 1 1 1 1 1 1 1 1 1 1 1 0.010636920640201299 1 1 1 1 1 1 1 1 1 1 1 1 1 1 1 1 1 1 1 1 1 1 1 1 1 1 1 1 1 1 1 1 1 1 1 1 1 1 1 1 1 1 1 1 1 1 1 1 1 1 1 1 1 1 1 0.0099869856118111559 1 0.0099535852519300264 1 1 0.01002070558435164 1 1 1 1 1 1 1 0.0099930430638370919 1 1 0.010017266331326264 1 0.0076021661080239323 1 1 1 1 1 1 1 1 1 1 1 0.010301747874788082 1 1 0.0079333937902122502 1 1 0.0087283668567899198 1 0.0098931500025606529 1 1 1 1 1 1 1 0.0099936138071997378 1 1 1 1 1 1 1 1 1 1 1 1 1 1 1 1 1 1 1 1 1 1 0.0097935532209676816 1 1 1 1 1 1 1 1 1 1 1 1 1 0.010099215052696918 1 1 1 1 1 1 0.009821010172367875 1 1 1 1 1 1 1 1 1 1 1 1 1 1 1 1 1 1 1 1 1 1 1 1 1 1 1 0.0096864684795082579 1 1 1 1 1 1 1 0.010267451084984133 1 1 1 1 1 1 1 1 1 0.0098678838418667352 1 1 1 1 0.0090067436908605469 0.0090660440815612114 0.0089155652596991947 1 1 1 1 0.0092273883630093582 1 1 0.0093559239542345529 1 1 1 1 1 1 1 1 0.0098580047041200644 1 1 0.0099403967945966235 1 1 1 0.0094552370911568633 1 1 1 0.00929820291479703 1 1 1 0.010230760741685236 1 1 1 1 1 1 1 1 1 1 1 1 1 1 0.0091340173687347887 1 1 1 0.0074166898498818851 1 1 0.0099933146583329295 1 1 1 1 1 1 1 1 1 1 1 1 1 1 1 1 1 0.0099188017863801187 1 0.010348850382512558 1 1 1 1 1 1 1 1 1 0.010149818397673762 1 0.0099526936257701478 0.0086424324477613473 1 1 1 1 1 1 1 0.0083415076687662088 1 1 0.010641582249141267 1 0.010064120091394469 1 1 1 1 1 1 1 1 1 1 1 1 1 1 1 0.0095290110572420917 1 1 1 1 0.0080674617891494417 1 1 1 1 1 0.010935861720456755 0.011390537524100507 1 1 0.0086077366324521058 1 1 1 1 0.0092802465689789549 1 1 1 1 1 1 1 1 1 1 0.0099828067835001869 1 0.0083446483845595523 1 1 1 1 0.009856692093711596 1 1 1 1 1 1 1 1 1 1 0.009829672595973709 1 1 1 1 0.010078874944028605 1 1 1 1 0.010289756376658195 1 1 1 0.010300728105149499 0.010978664101540562 1 0.010481573022426917 1 1 1 1 1 1 1 0.0048377161577206722 1 0.0099998455234744203 1 1 0.0089842693035480335 0.0075235307512612594 1 0.0095273862042296389 1 1 1 1 1 1 0.0049585366342723182 1 1 1 1 1 0.010266604881308289 1 1 1 1 1 1 1 0.0086299257647403285 1 1 1 1 1 1 1 1 1 1 1 1 1 1 1 1 0.010182058625642211 1 1 1 1 1 1 1 1 1 1 1 1 1 1 1 1 1 1 1 0.008422892527765527 1 1 1 1 1 1 1 1 1 1 0.0089739722719829693 1 0.0099422317559954929 1 1 1 1 1 0.010184249784705248 1 1 0.010046959311170511 1 1 1 1 1 1 1 1 1 0.009874935822927448 1 1 0.010003993518718534 1 1 1 1 1 1 0.0099024098731282529 1 1 0.0097481699776602489 0.0096523402944529886 1 1 1 1 1 0.0083498402577143298 1 1 1 1 0.0093274801134452176 1 1 1 1 1 1 1 1 1 1 1 1 1 1 1 1 1 1 1 1 1 1 1 1 1 1 1 0.0097300761413140306 1 1 1 1 1 1 1 1 1 1 1 0.0091899623226596259 1 1 1 1 1 1 1 1 1 1 1 1 1 1 1 1 1 1 1 1 1 1 1 1 1 0.0068981218527211594 1 1 1 0.0077480076780073685 1 1 1 1 1 1 1 1 1 1 1 1 1 1 1 1 1 1 1 1 0.0091425015801423603 1 1 1 1 1 1 1 1 1 1 1 1 1 1 1 1 1 1 1 1 1 1 1 1 1 1 1 0.0097618766953494647 1 1 0.0096565539732471756 1 1 1 1 1 1 1 1 1 1 1 1 0.0096289483331289949 1 1 1 1 0.0099851162163546135 0.0087602950511123327 0.0093319175998154615 1 1 1 1 1 1 1 0.0098841035411204609 1 1 1 0.0093062217485452223 1 1 1 1 1 1 1 1 0.0099141775348366625 1 1 1 1 0.010510913801511012 1 1 0.0098164861230076346 0.0095933784627789953 1 1 1 1 0.009043977234042537 0.0096981077397950612 1 1 0.0079539165795983469 1 0.0087975105656112988 1 1 1 1 1 1 1 1 0.0037044265786529374 1 1 1 1 1 0.0036255688154557498 0.010369454975689602 1 0.0098930704420555262 1 0.0083850590905878049 1 0.0076367772860242286 0.010790771094273633 0.0064421526865458094 1 1 1 1 0.0091858230183187416 1 0.0099805141315297864 1 0.0095490915918598866 1 1 1 1 1 1 0.0098584141864224914 1 1 1 1 1 1 1 0.0096609048582645962 1 0.0095941744922671927 0.010607865598279068 1 0.0092168895110242254 1 0.0088268034776672645 1 0.0097763750828708893 1 1 1 1 1 0.0063461811068162271 1 1 0.009572780387770834 1 1 1 1 1 0.0088439849536405424 1 1 1 1 0.010061702191945011 0.0090369229282963506 1 1 1 1 1 1 1 1 1 1 1 1 1 1 1 1 1 1 1 0.0092527812182214061 1 0.0099789112085046684 1 1 1 0.010782288355891937 1 1 1 0.00994232111737141 1 1 1 1 1 0.0099779220857200042 0.010027185531435844 1 1 1 0.010112851472857592 1 0.0095980453274909748 1 1 1 0.0095645839401646907 0.0097785830179533163 1 1 0.010254264241607604 0.0089635010046132096 1 0.0095442111392513591 0.010570882406815304 0.0096802105738670145 1 0.0099394187680212354 1 1 1 0.0099862892430370408 0.0087793614432866759 1 1 1 1 1 1 1 1 1 1 1 0.0078621498239685537 0.010241473308627659 1 1 0.010062451435679944 1 1 1 1 1 1 1 1 1 1 1 1 1 0.0085797969675155371 1 1 1 1 1 1 1 1 0.00996758673559257 0.006621220158784474 1 1 1 0.012634479963981003 1 1 0.00944557373711798 1 1 1 1 1 0.0038344059360065717 0.0098860248067723176 1 0.0043555043918731395 1 1 1 1 1 1 1 1 1 1 1 1 1 1 1 1 1 1 1 1 1 1 1 1 1 1 1 1 0.010161011914796876 1 1 1 1 1 1 1 1 1 1 1 0.0087199368648189328 0.0099551574302176489 1 1 0.0083069790950089685 1 1 1 1 1 1 1 1 1 0.010023754858167555 1 1 0.010205480868138137 1 1 1 1 1 0.0098458570560768979 1 1 1 1 1 1 1 1 1 1 1 0.0077909064721613753 1 1 1 1 1 0.0066459289809664233 1 1 1 0.0094372173315524846 1 1 1 1 1 1 1 1 1 0.008408186497713457 0.0080723395530918653 1 1 1 1 1 0.0096471646923942875 1 1 1 0.0087723523886044565 0.0072075781149283456 1 1 1 1 1 1 1 1 1 1 1 1 1 1 1 1 1 1 1 1 1 1 1 1 1 1 1 1 1 1 1 1 1 1 1 1 1 1 1 1 1 1 1 1 1 1 1 1 1 1 1 1 1 0.0097148408059938851 1 1 1 1 0.009175234392248514 1 1 1 1 1 1 1 1 1 1 1 1 1 1 1 1 1 0.010020058141042135 1 0.0090630798170783025 1 1 1 0.0094680223499548216 1 1 1 1 1 1 1 1 1 1 1 1 1 0.0097780860904075652 1 1 1 1 1 1 1 1 1 1 1 1 1 1 1 1 1 1 1 1 1 1 0.010333468467429427 1 0.0082942112404785287 1 1 1 0.0099868518473039004 1 1 0.0099832996240234173 1 1 0.0089527029230085722 0.0085618197290801765 0.0085442112815595338 1 1 1 1 1 1 1 0.0097559343135344874 1 1 0.0096957286461673391 1 1 1 1 1 1 1 1 1 1 1 0.0098266612171385003 1 1 1 1 1 0.0099346708722534705 1 1 1 1 1 1 1 1 1 1 1 1 0.0098998846526092664 1 1 1 1 1 1 0.0095323583370808384 1 1 1 1 1 1 1 1 1 1 1 1 1 1 1 1 1 1 1 1 1 1 1 1 1 1 0.0075957817450447683 1 0.0096960150768979451 1 1 1 1 1 1 1 1 1 1 1 1 1 1 1 1 0.010049626662645167 1 1 1 1 0.0099690348095006348 1 1 1 1 1 0.010176038238617492 1 1 1 0.009702679299785931 1 1 0.009834058655396577 1 1 1 1 1 1 1 1 0.0097354003882990561 1 1 1 1 1 1 1 1 1 1 1 1 1 1 1 1 1 1 1 1 1 1 1 1 0.0099531264511543011 1 1 1 1 1 1 1 1 1 0.0097013168529939617 1 0.0093984302883433866 1 1 1 1 1 1 1 1 1 0.0078531986514880428 1 1 1 1 1 1 1 1 1 1 1 1 1 0.0093467757860953727 1 1 1 0.0097701386124011535 1 1 0.0084748188090278641 1 0.010043163945110262 1 0.0085026381589171345 0.010060987510695684 1 1 1 0.01017798746163007 0.0086203702321997443 1 0.0088429871817261758 1 1 1 0.0093215571854053728 1 1 1 1 1 1 1 0.0094416266942564057 1 1 1 1 1 0.00942295770533607 1 1 1 0.0099997137022077853 0.0090735151644824319 0.0099330674154565028 1 1 1 1 1 1 0.0078296287971936461 1 1 1 1 1 1 1 1 1 1 1 0.0096170062866485044 1 0.0094117805291194633 1 1 1 0.0091474438098070494 1 1 0.0095841920985211358 1 1 1 1 1 1 1 1 1 1 1 1 1 1 1 0.010014686889658604 1 1 1 1 1 1 1 1 1 1 1 1 1 1 1 0.010402490639502672 1 1 1 1 1 0.010099877700499568 1 1 1 1 0.010025242311153827 1 1 1 1 1 1 1 1 1 0.0089930111105394304 1 1 1 0.0099997268987582055 0.009072944859387453 1 1 0.010817428061021983 1 1 0.0088826920186025615 1 1 0.010000554223340702 1 1 1 1 0.0093779355480810931 1 1 0.0095394938916829423 1 1 1 1 1 1 1 1 1 1 1 0.0097095475987681937 1 1 1 1 1 1 1 1 1 1 0.0099501912255821976 1 1 1 1 1 1 1 1 1 1 1 1 1 0.0098612146098453254 1 1 1 1 1 1 0.009312687956454074 0.0098023713579602698 1 1 1 1 0.010001074520304559 1 1 0.01033825092860388 1 1 0.01050870645001651 1 1 1 1 1 1 0.00779855001390878 0.0097381510696708095 1 1 1 0.0056500313625543119 1 1 1 1 1 1 1 0.0079828095676091095 1 1 1 1 0.010009034075741276 1 1 1 1 1 1 1 1 1 0.0099516525936942553 1 1 1 1 0.0099541483942104485 1 1 1 1 1 1 1 1 0.0099405057052664343 1 1 1 1 1 1 1 1 1 1 1 1 1 1 1 1 1 1 1 1 1 1 1 1 0.0094608864345957985 1 1 0.0096437280216367278 1 0.0086514622593381954 1 1 1 1 1 1 1 1 1 0.0096357290516664671 1 0.0098695906011782644 1 1 1 1 1 1 1 0.0090649262615917232 1 1 1 0.0088182081036602897 1 1 0.0099921970426477755 1 1 1 0.0066572735876433801 1 0.01000047620901328 1 1 1 0.0099776775183940767 1 1 1 1 1 0.0084309622617104313 0.0095667858225488497 1 1 1 1 1 1 1 0.0083366415470228043 1 1 0.0098696300735111181 1 1 1 1 1 1 1 1 1 1 1 1 1 1 1 1 1 1 1 1 1 1 1 1 1 1 1 1 1 1 0.0063386574097516399 0.0063261174582586299 1 1 1 1 1 0.0063989745264711843 1 0.011349094265362136 1 1 0.01035200379888814 1 1 1 1 1 1 1 1 1 1 1 1 1 0.0089213428262443547 1 1 1 1 0.0096304240775485841 1 1 1 1 1 1 1 1 1 1 1 1 1 1 1 1 1 1 0.0099564699393047407 1 0.009906701465817019 1 1 0.0099502315265122838 1 1 1 1 1 1 0.010268218673523899 1 1 1 1 1 1 1 1 1 1 1 1 1 1 1 1 1 1 1 0.0063541276829279878 1 1 1 1 0.010005756474058689 1 1 1 1 1 1 0.0084798936296011131 1 1 1 1 0.0068119002834637057 1 1 1 1 0.0064107988167606831 0.0071833779548087827 1 1 0.0070837354099220875 1 1 1 1 0.0092780593224119374 1 0.0097116086343572005 1 0.009462624511436481 1 0.011588306633934285 1 1 0.0098062194991431536 1 1 1 1 0.0100146495900038 1 1 1 0.0097021443041599448 1 1 1 1 1 1 1 0.0056408573612354487 1 1 1 1 0.0091840720794136056 1 0.0091457688755181253 1 0.0059583143841960475 1 1 1 1 1 0.0099017051755618118 1 0.0055082215251744835 1 0.00968994464639957 1 1 1 1 1 1 1 1 1 1 1 1 1 1 1 1 1 1 1 1 1 1 1 1 1 1 1 1 0.0093121840793672084 1 1 1 1 0.0096889055792269627 1 1 1 1 1 0.0075246045144610058 1 1 1 1 1 1 0.0084778205738468247 1 1 1 1 1 1 1 1 1 1 1 1 1 1 0.0091656364944796183 1 1 1 1 1 1 0.0090375627628440577 1 1 1 1 1 1 1 0.0063700810600269041 1 1 0.0093274200330875669 1 1 0.0085696607521863425 1 1 1 1 1 1 1 1 1 1 0.0092408540527875206 1 1 1 1 1 1 1 1 1 1 1 1 1 1 1 1 1 1 1 1 1 1 1 1 1 0.0091330959510127346 1 1 0.0081375731774535939 1 1 1 0.0090031202415930857 1 1 1 1 1 1 1 1 1 1 1 1 1 1 1 1 1 1 1 1 1 0.0094563510401128731 1 1 1 0.0085947334805012553 1 1 0.0078732392797520243 1 1 1 1 1 1 1 1 1 1 1 1 1 1 1 1 1 0.0081069615159443248 1 1 0.00838067869042812 1 1 1 1 0.0093120461125104463 1 1 1 1 1 1 1 1 1 1 1 1 1 1 0.010261241913842683 1 1 1 1 0.010583094913506452 1 1 1 1 1 0.0081242392731420785 1 0.0099682955144161506 1 1 1 1 1 0.0099213114805388018 1 1 1 1 0.010039533904641157 1 1 1 1 0.0072294404749998625 1 1 1 1 1 1 1 1 0.0069518922461880694 1 1 1 1 0.0098705809570034161 1 1 1 1 0.0070862390101458436 1 1 1 1 1 1 1 1 1 1 1 1 0.0075261412043883119 1 1 1 0.010368244219171496 1 1 1 1 0.010111990664883639 1 1 1 1 0.0099492694764646127 1 1 1 1 1 1 1 1 1 1 1 1 0.0098435445682372412 1 1 1 1 1 1 1 1 1 1 1 1 0.0096705085862314969 1 1 1 1 1 1 1 1 1 1 1 1 1 1 1 1 1 1 1 1 1 1 1 1 1 1 1 1 1 1 1 1 1 1 1 1 1 1 1 0.0099551869193590815 1 1 1 1 1 1 1 1 0.0099086953337664454 1 0.0099440560040441571 1 1 1 1 1 1 1 1 1 1 1 1 1 1 1 1 1 1 1 1 1 1 1 1 1 1 1 1 1 1 1 1 1 1 1 1 1 1 1 1 1 1 1 1 1 1 1 1 1 1 1 1 1 1 1 1 1 1 1 1 1 1 1 1 1 1 1 1 1 1 1 1 1 1 1 1 1 1 1 1 1 1 1 1 0.0098931341097121955 1 1 1 1 1 1 1 1 1 1 1 1 1 1 1 1 1 1 1 1 1 1 1 1 1 0.0096293306018407302 1 1 1 1 1 1 1 0.010028415150558198 1 1 1 1 0.010003707708155842 0.0099998036173888239 1 1 0.0099914530115135444 0.0095213802968987186 1 1 1 0.0086128120753309785 1 1 0.0096862699759480801 0.008995811220908501 1 1 1 1 1 1 1 0.0093308552167604229 1 1 0.0094183134130937495 1 1 1 1 1 0.0097872372347301059 1 1 1 1 1 1 1 1 1 1 1 1 1 1 1 1 1 1 1 1 1 1 1 1 1 1 1 1 1 1 1 1 1 1 1 1 1 1 1 1 1 1 1 1 1 1 1 1 1 1 1 1 1 1 1 1 1 1 1 1 1 1 1 1 1 1 1 1 1 1 0.010016116061483255 1 0.008520163098670111 1 1 1 1 1 0.010001247680939601 0.0090538379301005872 1 1 1 1 1 1 1 1 1 1 1 1 1 1 1 1 1 1 0.0094269296580273658 1 1 0.0099551590952593142 1 1 0.0080346313581377699 1 0.008721135613429987 1 1 0.0096285223294122254 0.0090552330491966444 0.010039471991027961 1 1 1 1 1 0.01007478185552144 1 1 1 1 0.0097290199693779948 1 1 1 1 0.0097318575535493019 1 1 1 1 1 0.0099021733985423452 1 0.009966823067698239 1 1 1 1 1 0.0087388733556259604 1 1 1 0.0094822571333748207 1 1 1 1 1 1 1 1 1 1 1 1 1 1 1 1 1 1 1 1 1 0.0099043313160450588 1 1 1 1 1 1 1 1 1 1 1 1 1 1 1 1 0.0066801584742924511 1 1 0.0099313565839452226 1 1 1 1 1 1 1 0.009850141156046606 1 1 1 1 1 1 1 1 1 1 1 1 1 1 1 1 1 0.010386910481411913 1 1 1 1 1 0.010034900187639775 1 1 0.009978651589886034 1 1 1 1 1 0.0095842753225146467 1 1 1 1 1 1 1 1 1 1 0.010170292689015058 1 1 0.0075660198665282018 1 1 1 1 1 0.0089697781348361382 0.005544294722760309 0.010299861826866723 0.0074804796547029446 1 1 1 1 0.0097505077543726462 1 1 1 1 1 1 0.0089767392072270212 1 1 1 1 1 1 1 1 1 1 1 1 1 0.0083592218280372221 1 1 1 1 0.0079121232321409107 0.0098110282551401203 1 1 1 1 1 1 1 1 1 1 1 1 1 0.0095463372635784926 1 1 1 1 0.0095896558106277063 0.0096940489837000939 1 1 1 0.0082991630966725571 0.00928345829205246 1 0.0098681859892241833 1 1 1 1 0.0075744525975504247 0.0098551868270179612 1 1 1 1 1 1 1 1 1 0.0099368301682727974 1 1 1 1 1 1 1 1 1 1 1 1 1 1 1 1 1 1 1 0.0086223116441350202 1 1 1 1 1 1 1 1 1 1 1 1 1 1 1 1 1 1 1 1 1 1 1 1 1 1 1 0.0086696791552512351 1 1 1 1 1 1 1 1 1 1 0.0097501932516137237 1 0.0093344346300902499 1 1 0.008188166980143935 1 1 1 1 1 1 1 1 1 1 1 0.0093736126564960762 1 1 0.009729392952987706 1 0.009725431600916103 1 1 1 1 1 1 1 1 1 1 1 0.0093696513044244732 1 1 1 1 1 1 0.0099133109877738088 1 1 1 1 0.0098978745330638215 1 1 1 1 1 1 1 1 1 1 1 0.0097546923236339796 1 1 1 1 1 1 1 1 1 1 1 1 1 1 1 1 1 0.0098547761641220241 1 1 1 1 1 1 1 0.0098912805251591841 1 1 1 1 1 1 1 1 1 0.0097182445431534415 1 1 1 1 0.0099332546384920881 0.0098996894234464946 1 1 1 1 1 1 1 1 1 1 1 1 1 1 1 1 1 1 1 1 1 1 1 1 1 1 1 1 1 1 1 1 1 1 1 1 1 1 1 1 1 1 1 1 1 1 1 1 1 1 1 1 1 1 1 1 1 1 1 1 1 1 1 1 1 1 1 1 1 1 1 1 1 1 1 1 1 1 1 1 1 1 1 1 1 0.0099797597198943329 1 0.0099556071663756771 1 1 1 1 1 1 1 1 1 1 1 0.0098721645538631629 1 1 1 0.0097269407179851868 1 1 1 1 1 1 1 1 1 1 0.0099693231971684435 1 1 1 1 1 1 1 1 1 1 1 1 1 1 1 1 1 0.0099377628703438119 1 1 0.0099937359927159825 1 1 1 1 1 0.0099628997790994541 1 0.0097090486352373207 1 0.0099696062148140058 1 1 1 1 1 1 1 1 1 1 1 1 1 1 1 1 1 1 1 1 1 1 1 1 1 1 1 1 1 1 1 1 1 1 1 1 1 1 1 1 1 1 1 0.0098057500236001932 1 1 0.0095289371208339222 1 1 1 0.0094335733854896183 1 1 1 1 1 1 1 1 1 1 1 1 1 1 1 1 1 1 1 1 1 1 1 1 1 1 1 1 1 1 1 1 1 1 1 1 1 1 1 1 1 1 1 0.0098432236935894098 1 1 1 1 0.010094734603990458 1 1 1 1 1 1 1 1 0.0099923081722976294 1 1 1 0.0092890571535795153 1 1 1 1 1 1 1 0.0098403128801989089 1 1 1 1 1 0.0099542862591985096 1 1 1 1 1 1 1 1 1 1 1 1 1 1 1 1 0.0092523731852436827 0.0093113266392487928 1 1 1 0.0094702445388637497 1 0.0092418572578051167 1 1 1 1 1 1 1 1 1 1 1 1 1 1 0.0091874824558966801 1 1 0.009255902227045509 0.0089606779868703929 1 1 1 1 1 1 1 1 1 1 0.010888423117858759 1 1 0.01032752099086698 1 1 1 1 0.0094917023713394447 1 1 0.0099995388067136825 1 1 1 1 1 1 0.00907735254409444 1 1 1 1 1 1 0.0095841910498197826 1 1 0.0079591413628891678 1 0.010382879659355897 1 1 1 1 1 1 1 1 1 1 1 1 1 1 1 1 1 1 0.009607108005230687 1 1 1 1 1 1 1 1 1 1 1 0.0099499632447979033 1 1 1 1 1 1 1 1 1 1 1 0.010135398102247575 1 1 1 1 1 0.010395144974115053 1 1 1 1 1 1 1 1 1 1 1 1 0.0093274755583323682 1 1 1 1 1 0.0082817055493959492 1 0.0077684000256961743 1 1 1 1 1 1 1 1 1 1 1 1 1 1 1 1 1 1 1 1 1 1 0.0098992998347628789 1 1 1 1 0.0098882516947174474 1 1 1 1 1 1 1 1 1 1 1 1 1 1 1 1 1 1 1 1 1 1 1 1 1 1 1 1 1 1 1 1 1 1 1 1 1 1 1 1 1 1 1 1 1 1 1 0.010051179189614984 1 1 1 1 1 1 1 1 1 1 1 1 1 1 1 1 0.0088223075594987075 1 1 1 1 1 1 1 1 1 1 1 1 1 1 1 0.0090134739051763429 1 1 0.010266253297888805 1 0.010158421696376296 1 1 1 1 1 1 0.0098863152177574819 0.0099021360299576776 1 0.0092863030594487524 1 1 1 1 1 1 1 1 1 0.010008001094773785 1 0.0098533880756644394 1 1 1 1 1 1 1 1 1 0.009865092775939591 0.0098249619314602216 1 0.0099668678221613623 1 1 1 1 1 1 1 0.0099597643996170541 1 0.0099485397094026158 1 1 1 1 1 1 1 1 1 1 1 1 1 1 1 1 0.0099559864148057713 1 1 0.010004655867148139 1 1 1 1 1 0.0098816126779129355 1 1 1 1 1 1 1 1 1 1 1 1 1 1 1 1 1 1 1 1 1 0.0096809550991286929 1 1 1 1 1 1 1 1 1 1 1 1 1 1 1 1 1 1 1 0.0092970348050624343 1 1 1 1 0.0098871000941845675 1 1 1 0.010147119605157143 1 1 1 1 1 1 1 1 1 1 1 1 0.0097718756953024972 1 1 1 1 1 1 1 1 1 1 1 1 1 1 1 1 1 1 1 1 1 0.0096552322852845162 1 1 1 1 0.010010332230428298 1 1 1 0.010001120017933161 1 1 1 1 1 1 1 1 1 1 1 0.0088903041994777571 1 1 1 1 0.010017492730757523 1 1 1 1 1 1 1 0.010026065478793015 1 1 1 1 1 1 1 1 1 1 1 1 1 1 1 0.0078509756362943883 1 1 1 1 1 1 1 0.0077775950702548419 1 1 0.0099895332748949749 1 1 0.0095849335860275307 1 1 1 0.0099840347435606741 1 1 1 1 1 0.009796277477346042 1 1 1 0.0098451948610508797 1 1 1 1 1 1 1 1 1 1 1 1 1 0.0099449315011166748 1 1 1 1 1 1 0.0098439912105017166 1 1 1 1 0.009270698721583941 1 1 1 1 0.0099695364750863012 0.0089607808904060126 1 0.0087455477566672161 1 0.0097600204398222961 1 1 1 1 1 1 0.0082873247236335598 1 1 1 1 1 0.0086762205869405449 1 1 1 1 1 1 0.0098251756297801328 1 1 0.0099291615123682942 1 1 1 0.0078732838478396128 0.0099340261313461253 1 1 1 1 1 1 1 0.0097503984384171884 1 1 1 1 1 0.0076132330239161092 1 1 0.0099455976496421444 1 1 1 1 0.0095302573573999121 1 0.0098394976263931847 1 1 1 1 1 0.0085116931682005584 1 1 1 0.0076108883520946847 0.0094720945951596892 1 1 1 1 1 0.0086004943851442587 1 1 1 1 0.0084597122559326703 1 0.0092501357750082707 1 1 1 0.0093976569770933428 0.0099995603699763718 1 0.0098704894449581741 0.0099987085762932235 1 1 0.0085461676669887909 1 1 0.0099364531147975513 1 0.009982844514870531 1 1 0.0096659319682584136 1 1 1 0.0087599861950361946 1 0.01000011450009042 0.010009441431823259 1 0.0089208637030411386 1 1 1 1 0.010112004751011348 1 0.0075010995429622175 1 1 0.0097460025252222825 1 0.0098469260088443686 1 1 1 1 1 1 1 1 1 1 1 0.0099435617423876046 1 1 1 0.0099974160185934656 1 1 1 1 1 0.010010826126473674 1 1 1 1 1 0.010002031626902925 1 1 1 1 1 1 1 1 1 0.0096450839622350959 1 1 1 0.0095883888234978131 1 1 1 1 1 1 1 1 1 1 1 1 0.0098560375599530455 1 1 1 1 1 1 1 1 1 1 0.0097765488827759213 0.0096812247262534346 1 0.010076561450297962 1 1 1 1 0.0092502879292914852 1 0.0096406139304238449 0.0097285057696301479 1 1 1 0.0098513551906171289 1 1 0.0092153990196178637 1 0.010030394171215169 1 1 0.010004684045365701 1 1 0.00993114004972067 1 1 1 1 1 0.0085718685717419106 1 1 1 0.0075702055414050354 1 0.0096829716357809143 1 1 1 1 0.0067647467153123652 1 1 1 1 1 1 0.0096736527304512199 1 1 1 1 1 1 1 1 1 0.0099336940756127243 1 1 1 1 1 1 1 1 1 1 0.0097992349491402824 1 1 1 1 0.0074113801986642434 1 1 0.010076755388621973 1 1 1 0.010612137770706579 1 1 1 1 1 1 0.010572725548797566 1 1 1 1 1 1 1 1 1 1 1 1 0.010006535712603667 1 1 1 1 0.0092898211250218906 1 1 0.010629010955760358 0.010808945715455792 1 0.0099992123958227187 1 1 1 1 0.0099975970138192569 1 1 1 1 1 1 1 1 1 1 1 1 1 1 1 1 1 1 1 1 1 1 1 1 1 1 1 1 0.0091413040655392106 1 1 1 1 1 1 1 1 1 0.0093960963513703612 1 1 1 0.0097316164042686205 1 1 1 1 1 1 1 1 1 1 1 1 1 1 1 1 1 0.0095003979344818017 1 1 0.0094563233093623057 0.0093212397262160945 1 1 0.0083529399390855179 1 0.010300061381627213 1 0.010007054911613349 1 1 1 1 1 1 1 1 1 1 1 1 1 1 1 1 1 1 1 1 1 1 1 1 1 1 1 1 1 1 1 1 1 1 0.0096229943938593507 1 1 1 1 1 1 1 1 1 1 1 1 1 1 1 1 1 0.010390467698951068 1 1 1 1 1 1 1 0.010898787864571029 1 1 1 1 1 1 1 1 1 1 1 0.007965822225121719 1 1 1 1 1 1 1 1 1 1 1 1 1 1 1 1 1 1 1 1 1 1 1 1 1 1 1 1 1 1 1 1 1 1 1 1 1 1 1 1 1 1 1 1 1 1 1 1 1 1 1 1 1 1 1 1 1 1 1 1 1 1 1 1 1 1 1 1 1 1 1 1 1 1 1 1 1 1 1 0.0093556436169645509 1 1 1 0.0093509933819875112 1 0.0073284880271974589 1 1 1 1 1 1 1 1 1 1 1 0.0098514163753954196 1 1 1 1 0.0094320049119499937 1 1 1 0.0090177023186092144 1 1 1 1 1 1 1 1 1 1 1 1 1 1 1 1 1 1 1 1 1 1 1 1 1 1 1 1 1 1 1 1 1 1 1 1 1 1 1 0.010055462472491433 1 1 1 1 1 1 1 1 1 1 1 1 1 1 1 0.0083682288865758077 0.0097547501509941577 1 1 1 1 1 1 1 1 1 1 1 1 0.0075296902618466732 0.0091290610610560985 1 1 1 1 1 1 1 1 1 1 1 1 1 0.0080089268200160407 0.010108542690522644 1 1 1 1 1 0.0088710287527873563 1 0.0098611704600399981 0.0099991649518735674 1 0.0090197729624545888 1 0.010360167413864788 1 0.0099383195755180405 1 0.010734713107129961 1 1 0.0099959698324970751 1 0.010155451366489628 1 1 1 1 1 1 1 0.0099813628457140549 0.011304922450024004 0.010415012020983896 1 1 1 0.010871460277985891 1 1 1 0.0089956104696376944 1 0.011332100450876723 0.010480670708859236 1 1 0.0095237117267757375 1 1 1 1 1 1 1 1 1 1 1 1 1 0.01003345346830796 1 1 1 1 0.0095671452444327527 1 0.0087996765009016546 1 0.0088866018016072138 1 1 1 0.010007068079036565 1 1 1 1 1 1 0.0089985276008693466 1 1 1 1 0.0094766384509445706 1 1 1 0.0098541975504029822 1 1 1 1 1 1 1 1 1 1 1 1 1 1 1 0.0099268845734905749 1 1 0.010081199002150685 1 1 1 1 1 1 1 1 1 1 0.0093445354452110357 1 1 1 0.01009678970511459 1 0.0069343159538786357 1 1 1 1 0.0082823271200881989 1 0.0083578354135753086 1 0.0097521469580725828 0.0094942860554021978 0.0097782593475182547 1 1 1 1 0.0099943264978781116 1 1 1 0.0081613269660453115 0.01022400725787127 0.0076656938463084863 1 0.0083350375242784089 1 1 1 1 1 1 1 1 1 1 1 1 0.010023112116602947 1 1 1 1 1 1 0.0089438257828803516 1 1 1 1 1 1 0.009570546567640982 1 1 1 1 1 0.010194707697621692 1 0.0082235194914541468 1 1 1 1 1 0.010493864447999744 0.010003440718185317 1 1 1 0.010648153129489126 1 1 1 0.008226251449556337 0.009281120662777512 1 0.0089743193774683653 1 1 0.010100198329056814 1 1 1 1 1 1 1 1 0.0095579972613110513 1 1 1 1 1 1 0.0097089398619245575 1 1 1 1 1 1 1 1 1 1 1 1 1 1 0.0099879353204029298 0.0099310094687239218 1 1 1 1 1 1 1 1 1 1 1 1 1 1 1 1 1 1 1 1 0.0074919692657399815 1 1 1 1 0.0077653368717370847 1 0.010301252485949857 1 1 1 0.010019986649653962 0.0099546366951278401 1 1 0.0098646198809581517 1 1 1 1 1 1 1 1 1 1 1 1 1 1 0.010002869394062348 1 1 1 0.0088116415657947308 1 1 1 1 1 1 1 1 1 1 1 1 1 1 1 1 1 1 1 1 1 1 1 1 1 1 1 1 1 1 1 1 1 1 1 1 1 1 1 1 1 1 1 1 1 1 1 1 0.0096920270620428541 1 1 1 1 1 1 1 1 0.0099783752292380585 1 1 1 1 1 1 1 1 0.0097627199252529398 1 1 1 0.0096977875866262764 1 1 1 0.01056642644852198 1 0.009908274790443589 0.0099081221101356611 1 1 1 0.010213875737271068 1 1 1 0.009847899030269603 1 1 1 0.0099023616591152608 1 1 0.0097981516149772963 1 0.0096263597467692065 1 0.010264286447781927 1 1 0.0090082209833197459 1 0.010069752343054779 1 0.0093604485747004751 1 1 1 0.009285216490370507 1 1 0.0078058611647409725 1 1 1 1 1 1 1 1 1 1 1 1 1 1 1 1 1 1 0.010040540746798153 1 1 1 0.010213112071773802 1 1 1 1 1 0.0097630069726829007 1 1 0.0080613903006579082 1 1 1 1 1 1 1 1 0.01055036967811668 1 1 0.0084354319676261738 1 0.0099071219208191775 1 1 0.0095251521617365324 1 1 1 1 1 1 1 1 1 1 1 1 1 1 1 1 1 1 1 1 1 0.0095081100575628782 1 1 1 1 1 1 1 1 1 1 1 1 1 1 1 1 1 1 1 1 1 1 1 1 1 1 1 1 0.010143453100586539 1 1 1 1 1 1 1 0.010632348036247803 1 1 1 1 1 1 1 1 1 1 1 0.0093330121072589638 1 1 1 0.010127103756116458 1 1 1 1 0.010411847149869181 1 1 1 0.0095624345182095428 1 1 1 1 0.0093065823906472271 1 1 0.0097429952768680952 1 1 1 1 1 0.010022562057883952 1 1 1 1 1 1 1 1 1 1 1 1 0.0086687543390691745 1 1 1 1 1 0.0098211421186001485 1 1 1 1 1 1 1 1 1 1 1 1 1 1 1 1 0.0099278168895027205 1 1 1 1 1 1 1 1 1 1 1 1 1 1 1 1 1 1 1 0.0098134290769023233 1 0.0084488403471077844 0.0083892352950934879 1 1 1 1 1 1 1 1 1 1 1 0.008481153856215581 1 0.0088388031409399014 1 1 1 1 1 1 1 1 1 1 1 1 1 1 1 1 1 0.0097336854213333213 1 1 1 1 0.0098741224530458915 1 1 1 1 1 1 1 1 1 1 0.0097352114167448094 1 1 1 1 1 1 1 0.0097960449045717927 1 1 0.0080309976491475844 1 1 1 1 0.0099887269455340624 1 0.010822914195418903 1 1 1 1 1 1 1 1 1 1 1 1 1 1 0.010275560554762765 1 1 1 0.0095746545665729901 1 1 0.0095575746409825614 1 1 1 1 1 1 1 0.0098040621930097181 1 1 1 1 1 1 1 1 1 1 1 1 1 1 1 1 1 1 1 1 1 1 1 1 1 1 1 1 1 1 1 1 1 1 1 1 1 1 0.0093032427201542034 0.0099278457268917077 1 1 1 1 1 1 1 1 0.009692688962932839 1 1 1 1 1 1 1 1 1 1 1 1 1 1 1 1 1 1 1 1 1 1 1 1 1 1 1 1 1 1 1 0.009849067466793638 1 1 0.0096319410917898966 1 1 1 0.0089627765100536681 1 0.0096534491348214402 1 0.0096295229446732352 1 1 1 1 1 1 0.0087535640334898517 1 0.010196281813741897 1 0.0093702922077411373 1 0.0075604525716803442 1 0.0080158849577956354 1 0.0080664090252948184 1 1 1 0.0092908447776154819 1 1 0.0089569926056976973 0.0071476771722182924 1 1 0.0090342135557511579 0.0094164982568993132 0.008915616737126866 1 0.010106302181012819 1 1 1 0.009381626145189767 1 0.0094663322264300458 0.0086168172678121515 1 1 0.0080472678633064024 1 1 1 1 1 1 1 0.0098753103375571853 1 0.0095810609915846154 1 0.0016600853929342107 1 1 1 1 1 1 1 1 1 1 0.0046260273712912759 1 1 1 1 1 0.0096113747934389385 0.0087669066183583277 1 1 1 1 1 1 1 1 1 1 1 1 1 1 1 1 1 1 1 1 1 1 1 1 1 1 1 1 1 1 1 1 1 1 1 1 1 0.0098677478668244573 1 1 1 0.0099942572882202648 1 1 1 1 1 1 1 1 1 1 1 1 1 1 1 0.0098379381975254865 1 1 1 0.010005983653385505 1 1 1 1 1 1 1 1 1 1 1 1 1 0.0088764001638159604 0.010079903013804724 1 1 1 0.00967920421907318 1 0.009853342110701737 1 1 1 1 1 1 1 1 1 1 1 1 1 1 1 0.0097411962545665403 1 1 1 0.0099943113813687166 1 1 1 1 0.0099121160131043079 1 0.0082226117126301054 1 1 1 1 1 1 1 0.0091457694526170911 1 1 0.0096971403397347871 0.0091965889194509671 1 1 1 1 1 1 1 1 1 1 1 1 0.0086473750042775476 1 1 1 1 0.009493398248000157 1 1 1 1 1 1 1 1 1 1 1 1 1 1 1 1 1 1 1 1 1 1 1 -4.3368086899420177e-18 1 1 1 1 1 1 1 1 1 1 1 1 1 1 1 1 1 1 1 1 1 1 1 1 1 0.010138528653163555 1 0.0085690385557833197 1 1 1 0.0099515535622002899 1 1 1 0.0063884595256735975 0.0057919783423055413 1 1 0.011563843560901392 1 1 0.010418062172833134 1 1 1 1 1 1 1 1 1 1 1 1 1 1 1 1 1 0.0092671301844536921 1 1 1 1 1 1 1 0.0056068221297605721 1 1 1 1 1 1 1 1 1 1 1 1 0.0098532640637919531 1 1 1 1 1 1 1 1 1 1 1 1 1 1 1 1 1 1 1 1 1 1 1 0.010013766511945334 0.0056866162509982459 1 1 1 1 1 1 1 0.0066473151059462726 1 1 1 1 1 1 1 1 1 1 1 1 1 1 1 1 1 1 1 1 1 1 1 1 1 1 1 1 1 1 1 1 1 1 1 1 1 1 1 1 1 1 1 1 1 1 1 1 1 1 1 1 1 1 1 1 1 1 1 1 1 1 1 1 1 1 1 1 1 1 1 1 1 1 1 1 1 1 1 1 1 1 0.0086456439016557238 1 1 0.0080037054803429666 1 1 1 1 1 1 1 1 1 1 1 1 1 1 1 1 1 1 1 1 1 1 1 1 1 1 1 1 1 1 1 1 1 0.0081975098437881196 1 1 1 1 1 1 1 1 1 1 1 1 1 1 0.0073689551229615836 0.0099429065963552027 1 1 1 1 1 1 1 1 1 0.0096912363723598832 1 1 1 0.0092506809125662177 1 1 1 1 1 1 1 1 1 1 1 1 1 1 1 1 1 1 1 1 1 1 1 1 1 1 1 1 0.0095152285703661334 1 1 1 1 1 1 1 1 1 1 1 1 1 1 1 1 0.0097593082006308986 1 1 1 1 1 1 1 0.007075616832052007 1 1 1 0.0092296587168077503 1 1 1 1 1 1 1 1 1 1 1 1 1 1 1 0.0099335920987123627 1 1 1 1 1 1 0.0066176196076989918 1 1 1 0.006732224063244089 1 1 1 1 1 1 1 1 0.0074511934696542661 1 1 1 0.0092789599610034433 1 0.0097894247420924237 1 1 1 1 1 1 1 1 1 1 1 1 1 1 1 1 1 1 1 1 1 1 1 1 1 1 1 1 1 1 1 1 1 1 1 1 1 1 1 1 1 1 1 1 1 1 1 1 1 1 1 1 1 1 1 1 1 1 1 1 1 0.0099576709788353149 1 1 1 1 1 0.0099875715206162296 1 1 1 1 1 1 1 1 1 1 1 1 1 1 1 1 1 1 0.0099900926498958532 1 1 1 1 1 1 1 0.0098734363904763728 1 1 0.0099695913196058972 1 1 1 1 1 1 1 1 1 1 1 0.009922443722541599 1 0.0097803697146871052 0.0087827869594733123 1 1 0.0095707019540143476 1 1 0.0097075983225425912 1 1 1 0.0096284431485827611 0.0092887057919849182 0.0098513021902614673 1 1 1 1 0.0094836213226242791 1 0.009662106913538325 0.0087188950411127061 1 1 1 0.0097261178716710993 1 0.010013883669816762 1 1 1 0.0099588240817785178 1 1 1 1 1 1 0.0090403472736117485 1 1 1 1 0.0099812539221260568 1 0.0096407597986967134 0.0097753729915926336 0.0093584646247452039 1 1 1 0.009072056034613675 0.0097510307341593608 1 1 1 0.0094927683775496673 1 1 1 0.009294343585634357 1 0.0084572319262261331 0.0099775100121532317 1 1 0.010191339266881441 0.0078560092337261953 1 0.0085082079004526658 1 1 1 0.01000559742959399 1 1 1 0.0099490571179743619 0.0079725123885007933 0.0081027244866715958 1 0.010006076364056591 0.0093087212848832236 1 1 1 0.008918310931693341 1 1 1 0.0087287427566508438 1 0.0099837639646338169 1 1 1 0.010015405638103011 1 1 0.0097071712251818824 0.0096831250846682558 1 0.010593775141896623 1 1 0.0099050269298772021 1 0.010384440454421367 1 1 1 1 0.010134711250187653 1 1 1 0.010169322101254485 1 1 1 1 1 1 1 1 1 1 1 1 1 1 1 1 1 1 1 1 1 1 1 1 0.0099990924994411354 1 1 0.0096245738194746557 1 0.009657220879238983 0.0098036138240093999 1 0.0097228534181885064 0.0085183979339234356 1 1 1 1 0.0091102878418315558 1 1 1 1 1 1 1 1 0.009669269308673234 1 1 1 1 1 1 0.0087439362650720328 1 0.0099435580576664184 1 1 1 1 1 1 1 0.0095639348812283954 1 1 0.0088063495734033558 1 1 1 0.0098373403823420885 1 0.0097165441922566955 1 1 1 1 0.0090510092488920984 1 0.009741191849941374 
</DataArray>
</CellData>
</Piece>
</UnstructuredGrid>
</VTKFile>
